     Program PWSCF v.7.1 starts on 13Jul2023 at  2:21:56

     Reading input from espresso_7658.pwi
Warning: card &CELL ignored
Warning: card / ignored

     Current dimensions of program PWSCF are:
     Max number of different atomic species (ntypx) = 10
     Max number of k-points (npk) =  40000
     Max angular momentum in pseudopotentials (lmaxx) =  4
     file K.pbe-spn-kjpaw_psl.1.0.0.UPF: wavefunction(s)  3S renormalized
     Message from routine setup:
     using ibrav=0 with symmetry is DISCOURAGED, use correct ibrav instead

     K-points division:     npool     =       2
     R & G space division:  proc/nbgrp/npool/nimage =       8
     Subspace diagonalization in iterative solution of the eigenvalue problem:
     a serial algorithm will be used

     Using Slab Decomposition

     bravais-lattice index     =            0
     lattice parameter (alat)  =      14.7275  a.u.
     unit-cell volume          =     775.1287 (a.u.)^3
     number of atoms/cell      =            4
     number of atomic types    =            3
     number of electrons       =        34.00
     number of Kohn-Sham states=           64
     kinetic-energy cutoff     =      30.0000  Ry
     charge density cutoff     =     240.0000  Ry
     scf convergence threshold =      1.0E-06
     mixing beta               =       0.7000
     number of iterations used =            8  plain     mixing
     Exchange-correlation=  SLA  PW   PBX  PBC
                           (   1   4   3   4   0   0   0)

     celldm(1)=  14.727519  celldm(2)=   0.000000  celldm(3)=   0.000000
     celldm(4)=   0.000000  celldm(5)=   0.000000  celldm(6)=   0.000000

     crystal axes: (cart. coord. in units of alat)
               a(1) = (   1.000000   0.000000   0.000000 )
               a(2) = (   0.852461   0.522791   0.000000 )
               a(3) = (   0.852461   0.240577   0.464148 )

     reciprocal axes: (cart. coord. in units 2 pi/alat)
               b(1) = (  1.000000 -1.630595 -0.991445 )
               b(2) = (  0.000000  1.912809 -0.991445 )
               b(3) = (  0.000000  0.000000  2.154484 )

     PseudoPot. # 1 for K  read from file:
     /lustre07/scratch/pragov/crystal_structure_design/utils/SSSP/K.pbe-spn-kjpaw_psl.1.0.0.UPF
     MD5 check sum: 7d58810084cac21f60fbe77ea2b688fd
     Pseudo is Projector augmented-wave + core cor, Zval =  9.0
     Generated using "atomic" code by A. Dal Corso  v.5.1
     Shape of augmentation charge: PSQ
     Using radial grid of 1165 points,  6 beta functions with:
                l(1) =   0
                l(2) =   0
                l(3) =   1
                l(4) =   1
                l(5) =   2
                l(6) =   2
     Q(r) pseudized with 0 coefficients

     PseudoPot. # 2 for Pr read from file:
     /lustre07/scratch/pragov/crystal_structure_design/utils/SSSP/Pr.GGA-PBE-paw-v1.0.UPF
     MD5 check sum: b5e1e58e76df433569641143f671cc27
     Pseudo is Projector augmented-wave + core cor, Zval = 13.0
     Generated using ATOMPAW code
     Shape of augmentation charge: BESSEL
     Using radial grid of 1103 points,  8 beta functions with:
                l(1) =   0
                l(2) =   0
                l(3) =   1
                l(4) =   1
                l(5) =   2
                l(6) =   2
                l(7) =   3
                l(8) =   3
     Q(r) pseudized with 0 coefficients

     PseudoPot. # 3 for S  read from file:
     /lustre07/scratch/pragov/crystal_structure_design/utils/SSSP/s_pbe_v1.4.uspp.F.UPF
     MD5 check sum: 88d86576ff6df21479756cfb9bdac1df
     Pseudo is Ultrasoft + core correction, Zval =  6.0
     Generated by new atomic code, or converted to UPF format
     Using radial grid of  907 points,  6 beta functions with:
                l(1) =   0
                l(2) =   0
                l(3) =   1
                l(4) =   1
                l(5) =   2
                l(6) =   2
     Q(r) pseudized with  8 coefficients,  rinner =    1.300   1.300   1.300
                                                       1.300   1.300

     atomic species   valence    mass     pseudopotential
        K              9.00    39.09830     K ( 1.00)
        Pr            13.00   140.90766     Pr( 1.00)
        S              6.00    32.06000     S ( 1.00)

      2 Sym. Ops., with inversion, found

                                    s                        frac. trans.

      isym =  1     identity

 cryst.   s( 1) = (     1          0          0      )
                  (     0          1          0      )
                  (     0          0          1      )

 cart.    s( 1) = (  1.0000000 -0.0000000  0.0000000 )
                  (  0.0000000  1.0000000  0.0000000 )
                  (  0.0000000  0.0000000  1.0000000 )

      isym =  2     inversion

 cryst.   s( 2) = (    -1          0          0      )
                  (     0         -1          0      )
                  (     0          0         -1      )

 cart.    s( 2) = ( -1.0000000  0.0000000 -0.0000000 )
                  (  0.0000000 -1.0000000  0.0000000 )
                  (  0.0000000  0.0000000 -1.0000000 )

   Cartesian axes

     site n.     atom                  positions (alat units)
         1           K   tau(   1) = (   1.3524607   0.3816840   0.2320741  )
         2           Pr  tau(   2) = (   0.0000000   0.0000000   0.0000000  )
         3           S   tau(   3) = (   1.9914064   0.5620038   0.3417134  )
         4           S   tau(   4) = (   0.7135150   0.2013643   0.1224349  )

   Crystallographic axes

     site n.     atom                  positions (cryst. coord.)
         1           K   tau(   1) = (  0.5000000  0.5000000  0.5000000  )
         2           Pr  tau(   2) = (  0.0000000  0.0000000  0.0000000  )
         3           S   tau(   3) = (  0.7362160  0.7362160  0.7362160  )
         4           S   tau(   4) = (  0.2637840  0.2637840  0.2637840  )

     number of k points=    14
                       cart. coord. in units 2pi/alat
        k(    1) = (   0.0000000   0.0000000   0.0000000), wk =   0.0740741
        k(    2) = (   0.0000000   0.0000000   0.7181614), wk =   0.1481481
        k(    3) = (   0.0000000   0.6376031  -0.3304817), wk =   0.1481481
        k(    4) = (   0.0000000   0.6376031   0.3876797), wk =   0.1481481
        k(    5) = (   0.0000000   0.6376031  -1.0486431), wk =   0.1481481
        k(    6) = (   0.3333333  -0.5435315  -0.3304817), wk =   0.1481481
        k(    7) = (   0.3333333  -0.5435315   0.3876797), wk =   0.1481481
        k(    8) = (   0.3333333  -0.5435315  -1.0486431), wk =   0.1481481
        k(    9) = (   0.3333333   0.0940715  -0.6609634), wk =   0.1481481
        k(   10) = (   0.3333333   0.0940715   0.0571980), wk =   0.1481481
        k(   11) = (   0.3333333   0.0940715  -1.3791247), wk =   0.1481481
        k(   12) = (   0.3333333  -1.1811346  -0.0000000), wk =   0.1481481
        k(   13) = (   0.3333333  -1.1811346   0.7181614), wk =   0.1481481
        k(   14) = (   0.3333333  -1.1811346  -0.7181614), wk =   0.1481481

                       cryst. coord.
        k(    1) = (   0.0000000   0.0000000   0.0000000), wk =   0.0740741
        k(    2) = (   0.0000000   0.0000000   0.3333333), wk =   0.1481481
        k(    3) = (   0.0000000   0.3333333   0.0000000), wk =   0.1481481
        k(    4) = (   0.0000000   0.3333333   0.3333333), wk =   0.1481481
        k(    5) = (   0.0000000   0.3333333  -0.3333333), wk =   0.1481481
        k(    6) = (   0.3333333   0.0000000   0.0000000), wk =   0.1481481
        k(    7) = (   0.3333333   0.0000000   0.3333333), wk =   0.1481481
        k(    8) = (   0.3333333   0.0000000  -0.3333333), wk =   0.1481481
        k(    9) = (   0.3333333   0.3333333   0.0000000), wk =   0.1481481
        k(   10) = (   0.3333333   0.3333333   0.3333333), wk =   0.1481481
        k(   11) = (   0.3333333   0.3333333  -0.3333333), wk =   0.1481481
        k(   12) = (   0.3333333  -0.3333333   0.0000000), wk =   0.1481481
        k(   13) = (   0.3333333  -0.3333333   0.3333333), wk =   0.1481481
        k(   14) = (   0.3333333  -0.3333333  -0.3333333), wk =   0.1481481

     Check: negative core charge=   -0.000002

     Initial potential from superposition of free atoms

     starting charge      33.9737, renormalised to      34.0000
     Starting wfcs are   48 randomized atomic wfcs +   16 random wfcs
     Checking if some PAW data can be deallocated...

     Self-consistent Calculation

     iteration #  1     ecut=    30.00 Ry     beta= 0.70
     Davidson diagonalization with overlap

     ethr =  1.00E-02,  avg # of iterations =  7.1

     Threshold (ethr) on eigenvalues was too large:
     Diagonalizing with lowered threshold

     Davidson diagonalization with overlap

[...]

     total energy              =    -669.86260370 Ry
     estimated scf accuracy    <       0.27008519 Ry

[...]

     total energy              =    -670.01893074 Ry
     estimated scf accuracy    <       0.00000409 Ry

     iteration # 27     ecut=    30.00 Ry     beta= 0.70
     Davidson diagonalization with overlap

     ethr =  1.20E-08,  avg # of iterations =  1.0

     End of self-consistent calculation

          k = 0.0000 0.0000 0.0000 (  2125 PWs)   bands (ev):

   -28.9938 -23.5035 -11.2160 -10.9137 -10.9130  -7.0827  -6.9690  -6.9690
    -5.5248  -4.6437   2.9407   3.8797   3.8797   4.8826   5.0750   5.0750
     7.1321   7.3513   7.3527   7.4110   7.6584   7.6609   7.6611   9.0718
     9.0719   9.1915   9.4217  11.0156  11.0158  11.3492  12.1441  13.4907
    13.4907  14.9497  14.9498  15.2365  15.2366  15.3876  16.2569  18.2755
    18.2755  18.7521  19.8626  19.8888  19.8889  21.5563  22.1946  22.5376
    22.5377  22.8874  22.8876  23.5998  25.0552  25.0553  26.4358  27.2952
    27.2953  27.5135  27.9715  27.9716  28.2190  29.0151  29.0151  29.9539

     occupation numbers
     1.0000   1.0000   1.0000   1.0000   1.0000   1.0000   1.0000   1.0000
     1.0000   1.0000   1.0000   1.0000   1.0000   1.0000   1.0000   1.0000
     1.0000   0.0000   0.0000   0.0000   0.0000   0.0000   0.0000   0.0000
     0.0000   0.0000   0.0000   0.0000   0.0000   0.0000   0.0000   0.0000
     0.0000   0.0000   0.0000   0.0000   0.0000   0.0000   0.0000   0.0000
     0.0000   0.0000   0.0000   0.0000   0.0000   0.0000   0.0000   0.0000
     0.0000   0.0000   0.0000   0.0000   0.0000   0.0000   0.0000   0.0000
     0.0000   0.0000   0.0000   0.0000   0.0000   0.0000   0.0000   0.0000

[...]

          k = 0.3333-1.1811-0.7182 (  2145 PWs)   bands (ev):

   -28.9781 -23.4948 -11.2590 -11.0982 -10.9727  -7.1354  -7.0140  -6.9975
    -5.1437  -4.7852   3.2015   3.6880   4.0527   4.2720   4.8257   4.8870
     7.1268   7.2210   7.2376   7.3047   7.4075   7.4958   7.5315   8.1747
    10.1421  10.4781  10.5798  11.5541  11.9392  12.6139  12.8882  13.4371
    14.2328  14.6364  15.0152  15.1242  15.8048  16.3084  16.6660  17.1584
    17.2266  18.0163  18.5204  18.8297  21.3734  21.4281  21.7808  21.9288
    22.2366  22.4364  22.6280  23.5393  23.7757  24.0901  24.3783  26.0986
    26.5652  27.1509  27.3887  27.7910  27.8337  28.8911  29.1292  29.5277

     occupation numbers
     1.0000   1.0000   1.0000   1.0000   1.0000   1.0000   1.0000   1.0000
     1.0000   1.0000   1.0000   1.0000   1.0000   1.0000   1.0000   1.0000
     1.0000   0.0000   0.0000   0.0000   0.0000   0.0000   0.0000   0.0000
     0.0000   0.0000   0.0000   0.0000   0.0000   0.0000   0.0000   0.0000
     0.0000   0.0000   0.0000   0.0000   0.0000   0.0000   0.0000   0.0000
     0.0000   0.0000   0.0000   0.0000   0.0000   0.0000   0.0000   0.0000
     0.0000   0.0000   0.0000   0.0000   0.0000   0.0000   0.0000   0.0000
     0.0000   0.0000   0.0000   0.0000   0.0000   0.0000   0.0000   0.0000

     highest occupied, lowest unoccupied level (ev):     7.1388    7.1397

!    total energy              =    -670.01893049 Ry
     estimated scf accuracy    <       0.00000032 Ry

     The total energy is the sum of the following terms:
     one-electron contribution =     -50.74665171 Ry
     hartree contribution      =      42.47337129 Ry
     xc contribution           =     -40.18279344 Ry
     ewald contribution        =    -146.58807951 Ry
     one-center paw contrib.   =    -474.97477713 Ry
      -> PAW hartree energy AE =      37.77380843 Ry
      -> PAW hartree energy PS =     -37.56344647 Ry
      -> PAW xc energy AE      =     -66.22750559 Ry
      -> PAW xc energy PS      =      10.59966378 Ry
      -> total E_H with PAW    =      42.68373325 Ry
      -> total E_XC with PAW   =     -95.81063526 Ry

     convergence has been achieved in  27 iterations

     Writing all to output data dir bands_nm/myprefix.save/

     General routines

     Parallel routines

     PAW routines

   This run was terminated on:   2:23:33  13Jul2023

   JOB DONE.