     Program PWSCF v.7.1 starts on 15Jul2023 at 20:32:30

     Reading input from espresso_11308.pwi
Warning: card &CELL ignored
Warning: card / ignored

     Current dimensions of program PWSCF are:
     Max number of different atomic species (ntypx) = 10
     Max number of k-points (npk) =  40000
     Max angular momentum in pseudopotentials (lmaxx) =  4
     file K.pbe-spn-kjpaw_psl.1.0.0.UPF: wavefunction(s)  3S renormalized
     file Fe.pbe-spn-kjpaw_psl.0.2.1.UPF: wavefunction(s)  3D renormalized
     Message from routine setup:
     using ibrav=0 with symmetry is DISCOURAGED, use correct ibrav instead

     K-points division:     npool     =       2
     R & G space division:  proc/nbgrp/npool/nimage =       4
     Subspace diagonalization in iterative solution of the eigenvalue problem:
     one sub-group per band group will be used

     Using Slab Decomposition

     bravais-lattice index     =            0
     lattice parameter (alat)  =       7.3526  a.u.
     unit-cell volume          =    3326.7225 (a.u.)^3
     number of atoms/cell      =           20
     number of atomic types    =            3
     number of electrons       =       184.00
     number of Kohn-Sham states=          256
     kinetic-energy cutoff     =      30.0000  Ry
     charge density cutoff     =     240.0000  Ry
     scf convergence threshold =      1.0E-06
     mixing beta               =       0.7000
     number of iterations used =            8  plain     mixing
     Exchange-correlation=  SLA  PW   PBX  PBC
                           (   1   4   3   4   0   0   0)

     celldm(1)=   7.352635  celldm(2)=   0.000000  celldm(3)=   0.000000
     celldm(4)=   0.000000  celldm(5)=   0.000000  celldm(6)=   0.000000

     crystal axes: (cart. coord. in units of alat)
               a(1) = (   1.000000   0.000000   0.000000 )
               a(2) = (   0.000000   2.277742   0.000000 )
               a(3) = (   0.000000   0.000000   3.674371 )

     reciprocal axes: (cart. coord. in units 2 pi/alat)
               b(1) = (  1.000000  0.000000  0.000000 )
               b(2) = (  0.000000  0.439031  0.000000 )
               b(3) = (  0.000000  0.000000  0.272155 )

     PseudoPot. # 1 for K  read from file:
     /lustre07/scratch/pragov/crystal_structure_design/utils/SSSP/K.pbe-spn-kjpaw_psl.1.0.0.UPF
     MD5 check sum: 7d58810084cac21f60fbe77ea2b688fd
     Pseudo is Projector augmented-wave + core cor, Zval =  9.0
     Generated using "atomic" code by A. Dal Corso  v.5.1
     Shape of augmentation charge: PSQ
     Using radial grid of 1165 points,  6 beta functions with:
                l(1) =   0
                l(2) =   0
                l(3) =   1
                l(4) =   1
                l(5) =   2
                l(6) =   2
     Q(r) pseudized with 0 coefficients

     PseudoPot. # 2 for Fe read from file:
     /lustre07/scratch/pragov/crystal_structure_design/utils/SSSP/Fe.pbe-spn-kjpaw_psl.0.2.1.UPF
     MD5 check sum: e86618425769142926afa95317d90200
     Pseudo is Projector augmented-wave + core cor, Zval = 16.0
     Generated using "atomic" code by A. Dal Corso  v.5.0.99 svn rev. 10869
     Shape of augmentation charge: PSQ
     Using radial grid of 1191 points,  6 beta functions with:
                l(1) =   0
                l(2) =   0
                l(3) =   1
                l(4) =   1
                l(5) =   2
                l(6) =   2
     Q(r) pseudized with 0 coefficients

     PseudoPot. # 3 for Cl read from file:
     /lustre07/scratch/pragov/crystal_structure_design/utils/SSSP/cl_pbe_v1.4.uspp.F.UPF
     MD5 check sum: fc6f6913ecf08c9257cb748ef0700058
     Pseudo is Ultrasoft + core correction, Zval =  7.0
     Generated by new atomic code, or converted to UPF format
     Using radial grid of  909 points,  6 beta functions with:
                l(1) =   0
                l(2) =   0
                l(3) =   1
                l(4) =   1
                l(5) =   2
                l(6) =   2
     Q(r) pseudized with  8 coefficients,  rinner =    1.300   1.300   1.300
                                                       1.300   1.300

     atomic species   valence    mass     pseudopotential
        K              9.00    39.09830     K ( 1.00)
        Fe            16.00    55.84500     Fe( 1.00)
        Cl             7.00    35.45000     Cl( 1.00)

      8 Sym. Ops., with inversion, found ( 6 have fractional translation)

                                    s                        frac. trans.

      isym =  1     identity

 cryst.   s( 1) = (     1          0          0      )
                  (     0          1          0      )
                  (     0          0          1      )

 cart.    s( 1) = (  1.0000000  0.0000000  0.0000000 )
                  (  0.0000000  1.0000000  0.0000000 )
                  (  0.0000000  0.0000000  1.0000000 )

      isym =  2     180 deg rotation - cart. axis [0,0,1]

 cryst.   s( 2) = (    -1          0          0      )    f =(  0.0000000 )
                  (     0         -1          0      )       ( -0.5000000 )
                  (     0          0          1      )       ( -0.5000000 )

 cart.    s( 2) = ( -1.0000000  0.0000000  0.0000000 )    f =(  0.0000000 )
                  (  0.0000000 -1.0000000  0.0000000 )       ( -1.1388710 )
                  (  0.0000000  0.0000000  1.0000000 )       ( -1.8371853 )

[...]

      isym =  4     180 deg rotation - cart. axis [1,0,0]

[...]

      isym =  5     inversion

 cryst.   s( 5) = (    -1          0          0      )
                  (     0         -1          0      )
                  (     0          0         -1      )

 cart.    s( 5) = ( -1.0000000  0.0000000  0.0000000 )
                  (  0.0000000 -1.0000000  0.0000000 )
                  (  0.0000000  0.0000000 -1.0000000 )

      isym =  6     inv. 180 deg rotation - cart. axis [0,0,1]

[...]

      isym =  8     inv. 180 deg rotation - cart. axis [1,0,0]

 cryst.   s( 8) = (    -1          0          0      )    f =(  0.5000000 )
                  (     0          1          0      )       (  0.0000000 )
                  (     0          0          1      )       (  0.0000000 )

 cart.    s( 8) = ( -1.0000000  0.0000000  0.0000000 )    f =(  0.5000000 )
                  (  0.0000000  1.0000000  0.0000000 )       (  0.0000000 )
                  (  0.0000000  0.0000000  1.0000000 )       (  0.0000000 )

   Cartesian axes

     site n.     atom                  positions (alat units)
         1           K   tau(   1) = (   0.7500000   0.1308085   2.4695004  )
         2           K   tau(   2) = (   0.2500000   2.1469336   1.2048702  )
         3           K   tau(   3) = (   0.7500000   1.2696795   3.0420555  )
         4           K   tau(   4) = (   0.2500000   1.0080626   0.6323151  )
         5           Fe  tau(   5) = (   0.7500000   0.7705397   1.6464855  )
         6           Fe  tau(   6) = (   0.2500000   1.5072024   2.0278852  )
         7           Fe  tau(   7) = (   0.7500000   1.9094107   0.1906998  )
         8           Fe  tau(   8) = (   0.2500000   0.3683314   3.4836708  )
         9           Cl  tau(   9) = (   0.2500000   0.0465138   0.3534892  )
        10           Cl  tau(  10) = (   0.7500000   2.2312283   3.3208815  )
        11           Cl  tau(  11) = (   0.2500000   1.1853848   1.4836962  )
        12           Cl  tau(  12) = (   0.7500000   1.0923573   2.1906745  )
        13           Cl  tau(  13) = (   0.2500000   0.4159408   1.8585224  )
        14           Cl  tau(  14) = (   0.7500000   1.8618013   1.8158483  )
        15           Cl  tau(  15) = (   0.2500000   1.5548118   3.6530336  )
        16           Cl  tau(  16) = (   0.7500000   0.7229303   0.0213371  )
        17           Cl  tau(  17) = (   0.7500000   0.5292539   1.0925998  )
        18           Cl  tau(  18) = (   0.2500000   1.7484882   2.5817708  )
        19           Cl  tau(  19) = (   0.7500000   1.6681249   0.7445855  )
        20           Cl  tau(  20) = (   0.2500000   0.6096172   2.9297852  )

   Crystallographic axes

     site n.     atom                  positions (cryst. coord.)
         1           K   tau(   1) = (  0.7500000  0.0574290  0.6720880  )
         2           K   tau(   2) = (  0.2500000  0.9425710  0.3279120  )
         3           K   tau(   3) = (  0.7500000  0.5574290  0.8279120  )
         4           K   tau(   4) = (  0.2500000  0.4425710  0.1720880  )
         5           Fe  tau(   5) = (  0.7500000  0.3382910  0.4481000  )
         6           Fe  tau(   6) = (  0.2500000  0.6617090  0.5519000  )
         7           Fe  tau(   7) = (  0.7500000  0.8382910  0.0519000  )
         8           Fe  tau(   8) = (  0.2500000  0.1617090  0.9481000  )
         9           Cl  tau(   9) = (  0.2500000  0.0204210  0.0962040  )
        10           Cl  tau(  10) = (  0.7500000  0.9795790  0.9037960  )
        11           Cl  tau(  11) = (  0.2500000  0.5204210  0.4037960  )
        12           Cl  tau(  12) = (  0.7500000  0.4795790  0.5962040  )
        13           Cl  tau(  13) = (  0.2500000  0.1826110  0.5058070  )
        14           Cl  tau(  14) = (  0.7500000  0.8173890  0.4941930  )
        15           Cl  tau(  15) = (  0.2500000  0.6826110  0.9941930  )
        16           Cl  tau(  16) = (  0.7500000  0.3173890  0.0058070  )
        17           Cl  tau(  17) = (  0.7500000  0.2323590  0.2973570  )
        18           Cl  tau(  18) = (  0.2500000  0.7676410  0.7026430  )
        19           Cl  tau(  19) = (  0.7500000  0.7323590  0.2026430  )
        20           Cl  tau(  20) = (  0.2500000  0.2676410  0.7973570  )

     number of k points=     8
                       cart. coord. in units 2pi/alat
        k(    1) = (   0.0000000   0.0000000   0.0000000), wk =   0.0740741
        k(    2) = (   0.0000000   0.0000000   0.0907185), wk =   0.1481481
        k(    3) = (   0.0000000   0.1463438   0.0000000), wk =   0.1481481
        k(    4) = (   0.0000000   0.1463438   0.0907185), wk =   0.2962963
        k(    5) = (   0.3333333   0.0000000   0.0000000), wk =   0.1481481
        k(    6) = (   0.3333333   0.0000000   0.0907185), wk =   0.2962963
        k(    7) = (   0.3333333   0.1463438   0.0000000), wk =   0.2962963
        k(    8) = (   0.3333333   0.1463438   0.0907185), wk =   0.5925926

                       cryst. coord.
        k(    1) = (   0.0000000   0.0000000   0.0000000), wk =   0.0740741
        k(    2) = (   0.0000000   0.0000000   0.3333333), wk =   0.1481481
        k(    3) = (   0.0000000   0.3333333   0.0000000), wk =   0.1481481
        k(    4) = (   0.0000000   0.3333333   0.3333333), wk =   0.2962963
        k(    5) = (   0.3333333   0.0000000   0.0000000), wk =   0.1481481
        k(    6) = (   0.3333333   0.0000000   0.3333333), wk =   0.2962963
        k(    7) = (   0.3333333   0.3333333   0.0000000), wk =   0.2962963
        k(    8) = (   0.3333333   0.3333333   0.3333333), wk =   0.5925926

     Check: negative core charge=   -0.000062

     Initial potential from superposition of free atoms

     starting charge     183.9228, renormalised to     184.0000

     negative rho (up, down):  1.777E-01 0.000E+00
     Starting wfcs are  132 randomized atomic wfcs +  124 random wfcs
     Checking if some PAW data can be deallocated...

     Self-consistent Calculation

     iteration #  1     ecut=    30.00 Ry     beta= 0.70
     Davidson diagonalization with overlap

     ethr =  1.00E-02,  avg # of iterations =  7.0

     Threshold (ethr) on eigenvalues was too large:
     Diagonalizing with lowered threshold

     Davidson diagonalization with overlap

[...]

     negative rho (up, down):  1.800E-01 0.000E+00

     total energy              =   -2168.80049367 Ry
     estimated scf accuracy    <       0.93228099 Ry

[...]

     total energy              =   -2169.14554430 Ry
     estimated scf accuracy    <       0.00000259 Ry

     iteration #  9     ecut=    30.00 Ry     beta= 0.70
     Davidson diagonalization with overlap

     ethr =  1.41E-09,  avg # of iterations =  3.5

     negative rho (up, down):  1.776E-01 0.000E+00

     End of self-consistent calculation

          k = 0.0000 0.0000 0.0000 (  9283 PWs)   bands (ev):

   -82.1030 -82.1029 -82.1005 -82.0976 -47.8191 -47.8103 -47.7994 -47.7844
   -47.7002 -47.6917 -47.6892 -47.6814 -47.6610 -47.6504 -47.6454 -47.6372
   -24.8898 -24.8894 -24.8888 -24.8884 -11.1056 -11.1042 -10.5717 -10.5387
   -10.4757 -10.4442 -10.4311 -10.4149  -9.9665  -9.9373  -9.8910  -9.8717
    -8.3732  -8.3606  -8.3556  -8.3503  -8.3331  -8.3245  -8.3233  -8.3206
    -8.3192  -8.2939  -8.2199  -8.2138  -0.3713  -0.3346  -0.2901  -0.1655
     0.2155   0.2561   0.6207   0.6827   0.8967   0.9148   0.9227   0.9493
     0.9713   0.9970   1.0003   1.0422   1.1169   1.1178   1.1516   1.4341
     1.6090   1.6439   1.6535   1.7427   1.7986   2.0500   2.1134   2.1507
     2.3287   2.3823   2.4132   2.4274   2.4833   2.5271   2.5785   2.6311
     3.7557   3.7579   3.8120   3.8136   4.0358   4.0421   4.0454   4.0716
     4.1277   4.1568   4.1702   4.2279   5.5596   5.5609   5.5624   5.5660
     5.6049   5.6675   5.7320   5.8061   7.9196   9.1311   9.3370   9.6495
     9.9069   9.9353  10.0127  10.2559  10.3412  10.3685  10.4742  10.5467
    10.7224  10.8381  10.9723  11.1986  11.6636  11.7322  11.7484  11.9355
    12.1981  12.4268  12.5277  12.5462  12.6140  12.6297  12.6544  12.6810
    12.6834  12.9508  13.0777  13.1891  13.2140  13.4223  13.5169  13.7805
    13.8595  13.8755  13.9083  13.9120  14.0419  14.2006  14.2862  14.3892
    14.5670  14.7057  14.7205  14.7403  14.7602  14.9596  15.0643  15.1037
    15.1852  15.2795  15.3389  15.4493  15.5299  15.6669  15.7304  15.8106
    15.9295  15.9766  16.3304  16.3400  16.6261  16.6561  16.7637  16.8117
    16.8682  16.9120  17.1718  17.2133  17.5154  17.6496  17.6785  17.9203
    18.1339  18.2298  18.3150  18.4662  18.6780  18.7005  18.8836  18.8994
    18.9144  19.1071  19.1186  19.1423  19.1927  19.6310  19.6484  19.7916
    19.8621  19.8896  20.0888  20.0890  20.1347  20.3820  20.6185  20.7202
    20.7860  21.0243  21.0820  21.0923  21.6035  21.9748  22.0028  22.2029
    22.4431  22.5996  22.6244  22.7189  22.8234  22.8519  23.0116  23.1897
    23.2127  23.2191  23.3723  23.4778  23.5355  23.9549  23.9954  24.0256
    24.1398  24.1677  24.2018  24.3164  24.4482  24.6301  24.7192  24.8748
    24.8783  24.9440  25.0717  25.1091  25.1863  25.1949  25.2765  25.3921
    25.4717  25.5665  25.8146  25.8363  26.2459  26.3793  26.4527  26.4553
    26.4884  26.5331  26.6053  26.7526  27.0655  27.0847  27.1949  27.2980

     occupation numbers
     1.0000   1.0000   1.0000   1.0000   1.0000   1.0000   1.0000   1.0000
     1.0000   1.0000   1.0000   1.0000   1.0000   1.0000   1.0000   1.0000
     1.0000   1.0000   1.0000   1.0000   1.0000   1.0000   1.0000   1.0000
     1.0000   1.0000   1.0000   1.0000   1.0000   1.0000   1.0000   1.0000
     1.0000   1.0000   1.0000   1.0000   1.0000   1.0000   1.0000   1.0000
     1.0000   1.0000   1.0000   1.0000   1.0000   1.0000   1.0000   1.0000
     1.0000   1.0000   1.0000   1.0000   1.0000   1.0000   1.0000   1.0000
     1.0000   1.0000   1.0000   1.0000   1.0000   1.0000   1.0000   1.0000
     1.0000   1.0000   1.0000   1.0000   1.0000   1.0000   1.0000   1.0000
     1.0000   1.0000   1.0000   1.0000   1.0000   1.0000   1.0000   1.0000
     1.0000   1.0000   1.0000   1.0000   1.0000   1.0000   1.0000   1.0000
     1.0000   1.0000   1.0000   1.0000   0.0000   0.0000   0.0000   0.0000
     0.0000   0.0000   0.0000   0.0000   0.0000   0.0000   0.0000   0.0000
     0.0000   0.0000   0.0000   0.0000   0.0000   0.0000   0.0000   0.0000
     0.0000   0.0000   0.0000   0.0000   0.0000   0.0000   0.0000   0.0000
     0.0000   0.0000   0.0000   0.0000   0.0000   0.0000   0.0000   0.0000
     0.0000   0.0000   0.0000   0.0000   0.0000   0.0000   0.0000   0.0000
     0.0000   0.0000   0.0000   0.0000   0.0000   0.0000   0.0000   0.0000
     0.0000   0.0000   0.0000   0.0000   0.0000   0.0000   0.0000   0.0000
     0.0000   0.0000   0.0000   0.0000   0.0000   0.0000   0.0000   0.0000
     0.0000   0.0000   0.0000   0.0000   0.0000   0.0000   0.0000   0.0000
     0.0000   0.0000   0.0000   0.0000   0.0000   0.0000   0.0000   0.0000
     0.0000   0.0000   0.0000   0.0000   0.0000   0.0000   0.0000   0.0000
     0.0000   0.0000   0.0000   0.0000   0.0000   0.0000   0.0000   0.0000
     0.0000   0.0000   0.0000   0.0000   0.0000   0.0000   0.0000   0.0000
     0.0000   0.0000   0.0000   0.0000   0.0000   0.0000   0.0000   0.0000
     0.0000   0.0000   0.0000   0.0000   0.0000   0.0000   0.0000   0.0000
     0.0000   0.0000   0.0000   0.0000   0.0000   0.0000   0.0000   0.0000
     0.0000   0.0000   0.0000   0.0000   0.0000   0.0000   0.0000   0.0000
     0.0000   0.0000   0.0000   0.0000   0.0000   0.0000   0.0000   0.0000
     0.0000   0.0000   0.0000   0.0000   0.0000   0.0000   0.0000   0.0000
     0.0000   0.0000   0.0000   0.0000   0.0000   0.0000   0.0000   0.0000

[...]

          k = 0.3333 0.1463 0.0907 (  9207 PWs)   bands (ev):

   -82.1000 -82.0993 -82.0989 -82.0980 -47.7945 -47.7923 -47.7907 -47.7889
   -47.6900 -47.6853 -47.6836 -47.6795 -47.6466 -47.6453 -47.6396 -47.6390
   -24.8774 -24.8773 -24.8770 -24.8769 -10.8304 -10.8301 -10.5517 -10.5507
   -10.4234 -10.4232 -10.2999 -10.2993  -9.8800  -9.8706  -9.8482  -9.8442
    -8.4663  -8.4609  -8.4252  -8.4183  -8.3679  -8.3662  -8.3532  -8.3520
    -8.3083  -8.3051  -8.3020  -8.2996  -0.4271  -0.3925  -0.2998  -0.2935
     0.0380   0.0453   0.2835   0.3089   0.4990   0.5192   0.6037   0.6242
     0.8536   0.8765   1.1301   1.1524   1.2229   1.2589   1.2799   1.3102
     1.4315   1.4510   1.5383   1.5718   1.7703   1.8176   1.8598   1.8796
     1.9335   1.9448   2.0821   2.0943   2.1599   2.1968   2.3453   2.3585
     3.8276   3.8280   3.8719   3.8727   4.0191   4.0293   4.0349   4.0453
     4.0846   4.0893   4.1242   4.1278   5.3204   5.3223   5.4034   5.4075
     5.7632   5.7713   5.8395   5.8551   9.9877  10.0100  10.0995  10.2999
    10.4207  10.4770  10.5758  10.6390  10.8890  10.9294  11.1349  11.2236
    11.3605  11.4623  11.5021  11.5486  11.7491  11.8146  11.8308  11.9192
    12.0519  12.1294  12.3460  12.3680  12.4683  12.5643  12.7513  12.8502
    12.8648  12.9827  12.9911  13.1403  13.2622  13.4335  13.4822  13.5648
    13.6262  13.7040  13.8158  13.9222  13.9974  14.0100  14.0950  14.1325
    14.1714  14.2254  14.2478  14.3534  14.5407  14.5737  14.6066  14.6861
    15.0004  15.1370  15.3562  15.4255  15.5977  15.6936  15.9388  15.9933
    16.1198  16.2484  16.3711  16.5237  17.1962  17.3854  17.5981  17.6272
    17.6803  17.7527  17.8144  17.9106  18.0359  18.0706  18.1101  18.2269
    18.2447  18.3071  18.3543  18.5878  18.7246  18.8755  19.2358  19.3142
    19.3894  19.5473  19.6542  19.7699  19.8142  19.9033  20.1420  20.3227
    20.3664  20.4088  20.7280  20.8408  20.9562  21.2345  21.2628  21.4158
    21.4420  21.5726  21.7215  21.7616  21.8990  22.0353  22.1002  22.3004
    22.3636  22.4291  22.6162  22.6832  22.7848  22.9260  23.0084  23.0738
    23.1549  23.2242  23.2931  23.4186  23.4795  23.5855  23.6178  23.7160
    23.7688  23.8040  23.9222  24.0037  24.1256  24.2113  24.2765  24.3529
    24.4454  24.6228  24.6802  24.8597  24.9351  25.0598  25.1430  25.2587
    25.3704  25.4414  25.5004  25.5478  25.6103  25.9336  25.9758  26.0997
    26.1886  26.2217  26.3128  26.4817  26.6920  26.7537  26.8020  26.8725

     occupation numbers
     1.0000   1.0000   1.0000   1.0000   1.0000   1.0000   1.0000   1.0000
     1.0000   1.0000   1.0000   1.0000   1.0000   1.0000   1.0000   1.0000
     1.0000   1.0000   1.0000   1.0000   1.0000   1.0000   1.0000   1.0000
     1.0000   1.0000   1.0000   1.0000   1.0000   1.0000   1.0000   1.0000
     1.0000   1.0000   1.0000   1.0000   1.0000   1.0000   1.0000   1.0000
     1.0000   1.0000   1.0000   1.0000   1.0000   1.0000   1.0000   1.0000
     1.0000   1.0000   1.0000   1.0000   1.0000   1.0000   1.0000   1.0000
     1.0000   1.0000   1.0000   1.0000   1.0000   1.0000   1.0000   1.0000
     1.0000   1.0000   1.0000   1.0000   1.0000   1.0000   1.0000   1.0000
     1.0000   1.0000   1.0000   1.0000   1.0000   1.0000   1.0000   1.0000
     1.0000   1.0000   1.0000   1.0000   1.0000   1.0000   1.0000   1.0000
     1.0000   1.0000   1.0000   1.0000   0.0000   0.0000   0.0000   0.0000
     0.0000   0.0000   0.0000   0.0000   0.0000   0.0000   0.0000   0.0000
     0.0000   0.0000   0.0000   0.0000   0.0000   0.0000   0.0000   0.0000
     0.0000   0.0000   0.0000   0.0000   0.0000   0.0000   0.0000   0.0000
     0.0000   0.0000   0.0000   0.0000   0.0000   0.0000   0.0000   0.0000
     0.0000   0.0000   0.0000   0.0000   0.0000   0.0000   0.0000   0.0000
     0.0000   0.0000   0.0000   0.0000   0.0000   0.0000   0.0000   0.0000
     0.0000   0.0000   0.0000   0.0000   0.0000   0.0000   0.0000   0.0000
     0.0000   0.0000   0.0000   0.0000   0.0000   0.0000   0.0000   0.0000
     0.0000   0.0000   0.0000   0.0000   0.0000   0.0000   0.0000   0.0000
     0.0000   0.0000   0.0000   0.0000   0.0000   0.0000   0.0000   0.0000
     0.0000   0.0000   0.0000   0.0000   0.0000   0.0000   0.0000   0.0000
     0.0000   0.0000   0.0000   0.0000   0.0000   0.0000   0.0000   0.0000
     0.0000   0.0000   0.0000   0.0000   0.0000   0.0000   0.0000   0.0000
     0.0000   0.0000   0.0000   0.0000   0.0000   0.0000   0.0000   0.0000
     0.0000   0.0000   0.0000   0.0000   0.0000   0.0000   0.0000   0.0000
     0.0000   0.0000   0.0000   0.0000   0.0000   0.0000   0.0000   0.0000
     0.0000   0.0000   0.0000   0.0000   0.0000   0.0000   0.0000   0.0000
     0.0000   0.0000   0.0000   0.0000   0.0000   0.0000   0.0000   0.0000
     0.0000   0.0000   0.0000   0.0000   0.0000   0.0000   0.0000   0.0000
     0.0000   0.0000   0.0000   0.0000   0.0000   0.0000   0.0000   0.0000

     highest occupied, lowest unoccupied level (ev):     4.2279    5.3190

!    total energy              =   -2169.14554517 Ry
     estimated scf accuracy    <       0.00000036 Ry

     The total energy is the sum of the following terms:
     one-electron contribution =   -1156.59725376 Ry
     hartree contribution      =     641.56320066 Ry
     xc contribution           =    -297.45125733 Ry
     ewald contribution        =    -830.72750364 Ry
     one-center paw contrib.   =    -525.93273110 Ry
      -> PAW hartree energy AE =     113.05115393 Ry
      -> PAW hartree energy PS =    -112.42049167 Ry
      -> PAW xc energy AE      =    -198.64940686 Ry
      -> PAW xc energy PS      =      31.76714592 Ry
      -> total E_H with PAW    =     642.19386292 Ry
      -> total E_XC with PAW   =    -464.33351827 Ry

     convergence has been achieved in   9 iterations

     Writing all to output data dir bands_nm/myprefix.save/

     General routines

     Parallel routines

     PAW routines

   This run was terminated on:  20:33:40  15Jul2023

   JOB DONE.