     Program PWSCF v.7.1 starts on 15Jul2023 at 22:18:56

     Reading input from espresso_11396.pwi
Warning: card &CELL ignored
Warning: card / ignored

     Current dimensions of program PWSCF are:
     Max number of different atomic species (ntypx) = 10
     Max number of k-points (npk) =  40000
     Max angular momentum in pseudopotentials (lmaxx) =  4
     file O.pbe-n-kjpaw_psl.0.1.UPF: wavefunction(s)  2P renormalized

     K-points division:     npool     =       2
     R & G space division:  proc/nbgrp/npool/nimage =       4
     Subspace diagonalization in iterative solution of the eigenvalue problem:
     one sub-group per band group will be used

     Using Slab Decomposition

     bravais-lattice index     =            0
     lattice parameter (alat)  =       9.8059  a.u.
     unit-cell volume          =    1174.5429 (a.u.)^3
     number of atoms/cell      =           16
     number of atomic types    =            2
     number of electrons       =       138.00
     number of Kohn-Sham states=          256
     kinetic-energy cutoff     =      30.0000  Ry
     charge density cutoff     =     240.0000  Ry
     scf convergence threshold =      1.0E-06
     mixing beta               =       0.7000
     number of iterations used =            8  plain     mixing
     Exchange-correlation= SLA  PW   PBX  PBC
                           (   1   4   3   4   0   0   0)

     celldm(1)=   9.805904  celldm(2)=   0.000000  celldm(3)=   0.000000
     celldm(4)=   0.000000  celldm(5)=   0.000000  celldm(6)=   0.000000

     crystal axes: (cart. coord. in units of alat)
               a(1) = (   1.000000   0.000000   0.000000 )
               a(2) = (   0.509223   0.983276   0.000000 )
               a(3) = (  -0.013683  -0.514617   1.266865 )

     reciprocal axes: (cart. coord. in units 2 pi/alat)
               b(1) = (  1.000000 -0.517884 -0.199570 )
               b(2) = (  0.000000  1.017008  0.413121 )
               b(3) = (  0.000000  0.000000  0.789350 )

     PseudoPot. # 1 for V  read from file:
     /lustre07/scratch/pragov/crystal_structure_design/utils/SSSP/v_pbe_v1.4.uspp.F.UPF
     MD5 check sum: 22b79981416ebb76fdaf5b1b8640f6fb
     Pseudo is Ultrasoft + core correction, Zval = 13.0
     Generated by new atomic code, or converted to UPF format
     Using radial grid of  853 points,  6 beta functions with:
                l(1) =   0
                l(2) =   0
                l(3) =   1
                l(4) =   1
                l(5) =   2
                l(6) =   2
     Q(r) pseudized with  8 coefficients,  rinner =    1.100   1.100   1.100
                                                       1.100   1.100

     PseudoPot. # 2 for O  read from file:
     /lustre07/scratch/pragov/crystal_structure_design/utils/SSSP/O.pbe-n-kjpaw_psl.0.1.UPF
     MD5 check sum: 0234752ac141de4415c5fc33072bef88
     Pseudo is Projector augmented-wave + core cor, Zval =  6.0
     Generated using "atomic" code by A. Dal Corso  v.5.0.99 svn rev. 10869
     Shape of augmentation charge: BESSEL
     Using radial grid of 1095 points,  4 beta functions with:
                l(1) =   0
                l(2) =   0
                l(3) =   1
                l(4) =   1
     Q(r) pseudized with 0 coefficients

     atomic species   valence    mass     pseudopotential
        V             13.00    50.94150     V ( 1.00)
        O              6.00    15.99900     O ( 1.00)

     No symmetry found

                                    s                        frac. trans.

      isym =  1     identity

 cryst.   s( 1) = (     1          0          0      )
                  (     0          1          0      )
                  (     0          0          1      )

 cart.    s( 1) = (  1.0000000 -0.0000000  0.0000000 )
                  (  0.0000000  1.0000000  0.0000000 )
                  (  0.0000000  0.0000000  1.0000000 )

   Cartesian axes

     site n.     atom                  positions (alat units)
         1           V   tau(   1) = (   1.2550361   0.6348826   0.2824983  )
         2           V   tau(   2) = (   1.2462143   0.3752742   0.9127994  )
         3           V   tau(   3) = (   0.2405056  -0.1662201   0.9843672  )
         4           V   tau(   4) = (   0.2493254   0.0933824   0.3540661  )
         5           V   tau(   5) = (   0.7477677   0.2343372   0.6334315  )
         6           V   tau(   6) = (   0.7546127   0.4916361   0.0000000  )
         7           O   tau(   7) = (   0.9428029   0.0982734   0.9464169  )
         8           O   tau(   8) = (   0.5527367   0.3703852   0.3204486  )
         9           O   tau(   9) = (   0.6040427   0.5390237   0.8446534  )
        10           O   tau(  10) = (   0.9168014   0.7743616   0.2046076  )
        11           O   tau(  11) = (   0.8914960  -0.0703631   0.4222121  )
        12           O   tau(  12) = (   0.5787387  -0.3057040   1.0622579  )
        13           O   tau(  13) = (   0.3906729   0.1634611   1.2008301  )
        14           O   tau(  14) = (   1.0921082   0.4180368   0.5544183  )
        15           O   tau(  15) = (   1.1048692   0.3051965   0.0660354  )
        16           O   tau(  16) = (   0.4034330   0.0506228   0.7124472  )

   Crystallographic axes

     site n.     atom                  positions (cryst. coord.)
         1           V   tau(   1) = (  0.8698620  0.7623870  0.2229900  )
         2           V   tau(   2) = (  0.8696980  0.7587540  0.7205180  )
         3           V   tau(   3) = (  0.1301380  0.2376160  0.7770100  )
         4           V   tau(   4) = (  0.1303030  0.2412430  0.2794820  )
         5           V   tau(   5) = (  0.4999940  0.5000070  0.4999990  )
         6           V   tau(   6) = (  0.5000020  0.4999980  0.0000000  )
         7           O   tau(   7) = (  0.7030320  0.4909300  0.7470540  )
         8           O   tau(   8) = (  0.2969680  0.5090690  0.2529460  )
         9           O   tau(   9) = (  0.1563230  0.8971360  0.6667270  )
        10           O   tau(  10) = (  0.4749380  0.8720600  0.1615070  )
        11           O   tau(  11) = (  0.8436750  0.1028650  0.3332730  )
        12           O   tau(  12) = (  0.5250630  0.1279380  0.8384930  )
        13           O   tau(  13) = (  0.0663690  0.6623300  0.9478750  )
        14           O   tau(  14) = (  0.7649680  0.6541890  0.4376300  )
        15           O   tau(  15) = (  0.9336340  0.3376680  0.0521250  )
        16           O   tau(  16) = (  0.2350330  0.3458110  0.5623700  )

     number of k points=    14
                       cart. coord. in units 2pi/alat
        k(    1) = (   0.0000000   0.0000000   0.0000000), wk =   0.0740741
        k(    2) = (   0.0000000   0.0000000   0.2631166), wk =   0.1481481
        k(    3) = (   0.0000000   0.3390028   0.1377072), wk =   0.1481481
        k(    4) = (   0.0000000   0.3390028   0.4008237), wk =   0.1481481
        k(    5) = (   0.0000000   0.3390028  -0.1254094), wk =   0.1481481
        k(    6) = (   0.3333333  -0.1726281  -0.0665234), wk =   0.1481481
        k(    7) = (   0.3333333  -0.1726281   0.1965932), wk =   0.1481481
        k(    8) = (   0.3333333  -0.1726281  -0.3296400), wk =   0.1481481
        k(    9) = (   0.3333333   0.1663746   0.0711837), wk =   0.1481481
        k(   10) = (   0.3333333   0.1663746   0.3343003), wk =   0.1481481
        k(   11) = (   0.3333333   0.1663746  -0.1919329), wk =   0.1481481
        k(   12) = (   0.3333333  -0.5116309  -0.2042306), wk =   0.1481481
        k(   13) = (   0.3333333  -0.5116309   0.0588860), wk =   0.1481481
        k(   14) = (   0.3333333  -0.5116309  -0.4673472), wk =   0.1481481

                       cryst. coord.
        k(    1) = (   0.0000000   0.0000000   0.0000000), wk =   0.0740741
        k(    2) = (   0.0000000   0.0000000   0.3333333), wk =   0.1481481
        k(    3) = (   0.0000000   0.3333333   0.0000000), wk =   0.1481481
        k(    4) = (   0.0000000   0.3333333   0.3333333), wk =   0.1481481
        k(    5) = (   0.0000000   0.3333333  -0.3333333), wk =   0.1481481
        k(    6) = (   0.3333333  -0.0000000   0.0000000), wk =   0.1481481
        k(    7) = (   0.3333333  -0.0000000   0.3333333), wk =   0.1481481
        k(    8) = (   0.3333333  -0.0000000  -0.3333333), wk =   0.1481481
        k(    9) = (   0.3333333   0.3333333   0.0000000), wk =   0.1481481
        k(   10) = (   0.3333333   0.3333333   0.3333333), wk =   0.1481481
        k(   11) = (   0.3333333   0.3333333  -0.3333333), wk =   0.1481481
        k(   12) = (   0.3333333  -0.3333333   0.0000000), wk =   0.1481481
        k(   13) = (   0.3333333  -0.3333333   0.3333333), wk =   0.1481481
        k(   14) = (   0.3333333  -0.3333333  -0.3333333), wk =   0.1481481

     Check: negative core charge=   -0.000018

     Initial potential from superposition of free atoms

     starting charge     137.9926, renormalised to     138.0000

     negative rho (up, down):  5.547E-03 0.000E+00
     Starting wfcs are  100 randomized atomic wfcs +  156 random wfcs
     Checking if some PAW data can be deallocated...

     Self-consistent Calculation

     iteration #  1     ecut=    30.00 Ry     beta= 0.70
     Davidson diagonalization with overlap

     ethr =  1.00E-02,  avg # of iterations =  6.0

     negative rho (up, down):  1.120E-02 0.000E+00

     total energy              =   -1284.66417824 Ry
     estimated scf accuracy    <       4.90116331 Ry

[...]

     total energy              =   -1287.54895023 Ry
     estimated scf accuracy    <       0.00000311 Ry

     iteration # 30     ecut=    30.00 Ry     beta= 0.70
     Davidson diagonalization with overlap

     ethr =  1.97E-09,  avg # of iterations =  1.0

     negative rho (up, down):  8.778E-03 0.000E+00

     End of self-consistent calculation

          k = 0.0000 0.0000 0.0000 (  3277 PWs)   bands (ev):

   -54.5366 -54.5333 -54.3479 -54.3441 -54.2939 -54.2531 -28.5725 -28.5607
   -28.3944 -28.3702 -28.3137 -28.3103 -28.2583 -28.2108 -28.2072 -28.2071
   -28.1941 -28.1494 -28.1081 -28.0730 -28.0729 -28.0482 -28.0154 -27.9538
    -9.3944  -8.3454  -8.2892  -8.1445  -8.0937  -8.0799  -7.9477  -7.9254
    -7.8866  -7.8001   3.7600   4.0758   4.2386   4.4095   4.4647   4.6694
     4.7444   4.8392   4.8584   4.9456   5.0496   5.2890   5.5321   5.5640
     5.5680   5.7238   6.0248   6.3245   6.4263   6.6239   6.7111   6.7510
     6.8139   6.9666   7.0329   7.5907   7.9060   7.9832   8.0268   8.0993
    10.7708  10.8722  10.9432  11.0273  11.1567  11.2229  11.3435  11.3899
    11.4117  11.5271  11.5763  11.6695  11.7806  11.8555  11.8947  12.2787
    12.3934  12.6218  12.8352  13.1826  13.3111  13.3132  13.4731  13.6357
    13.7503  13.9171  14.2823  14.5545  14.7655  14.8900  15.4050  19.3921
    19.4006  19.5693  20.7201  21.1540  21.5396  21.6368  21.9638  22.4786
    22.7829  23.3747  23.4046  23.7887  23.9943  24.4385  24.5242  24.6429
    24.8093  25.3028  25.6562  25.7072  26.2468  26.5069  26.5071  27.0210
    27.2770  27.4936  28.3737  28.8601  29.8297  30.1954  30.1991  31.4357
    31.4837  31.6468  31.7759  32.1953  32.2952  32.3786  32.7850  32.8005
    32.9437  33.2045  33.5578  33.7227  33.8232  34.5343  34.8657  34.9407
    35.2257  35.4946  35.5432  36.0551  36.7134  37.2493  37.5730  37.6170
    38.2087  38.6219  38.9662  39.2664  39.3995  39.8307  39.9996  40.2211
    40.3475  40.5495  40.7207  40.7849  41.1320  41.4271  41.7543  42.0130
    42.6106  42.7171  43.0480  43.2417  43.3692  43.7753  44.2506  44.4600
    44.4732  44.5340  44.7417  44.9114  45.1506  45.2782  45.5722  45.9591
    46.0218  46.0714  46.3090  46.4324  46.9020  46.9025  47.2031  47.6376
    47.6641  47.7518  47.9631  48.4663  48.9047  49.2042  49.3210  49.5166
    49.7534  49.9824  50.1828  50.3155  50.5487  50.6575  50.8594  51.1955
    51.2396  51.5164  51.9036  52.2752  52.3337  52.5095  52.5808  53.1252
    53.3261  53.3937  53.6541  53.6935  53.7856  53.8788  54.1487  54.3264
    54.5362  54.5933  54.8580  55.0343  55.1502  55.4334  55.6612  56.0706
    56.0885  56.5217  56.5315  56.7433  56.8610  57.2887  57.3832  57.4134
    57.8768  58.1052  58.2677  58.2922  58.5202  58.6819  58.9951  59.2956
    59.4175  59.6318  59.9067  60.0867  60.2133  60.3778  60.5955  60.6945

     occupation numbers
     1.0000   1.0000   1.0000   1.0000   1.0000   1.0000   1.0000   1.0000
     1.0000   1.0000   1.0000   1.0000   1.0000   1.0000   1.0000   1.0000
     1.0000   1.0000   1.0000   1.0000   1.0000   1.0000   1.0000   1.0000
     1.0000   1.0000   1.0000   1.0000   1.0000   1.0000   1.0000   1.0000
     1.0000   1.0000   1.0000   1.0000   1.0000   1.0000   1.0000   1.0000
     1.0000   1.0000   1.0000   1.0000   1.0000   1.0000   1.0000   1.0000
     1.0000   1.0000   1.0000   1.0000   1.0000   1.0000   1.0000   1.0000
     1.0000   1.0000   1.0000   1.0000   1.0000   1.0000   1.0000   1.0000
     1.0000   1.0000   1.0000   1.0000   1.0000   0.0000   0.0000   0.0000
     0.0000   0.0000   0.0000   0.0000   0.0000   0.0000   0.0000   0.0000
     0.0000   0.0000   0.0000   0.0000   0.0000   0.0000   0.0000   0.0000
     0.0000   0.0000   0.0000   0.0000   0.0000   0.0000   0.0000   0.0000
     0.0000   0.0000   0.0000   0.0000   0.0000   0.0000   0.0000   0.0000
     0.0000   0.0000   0.0000   0.0000   0.0000   0.0000   0.0000   0.0000
     0.0000   0.0000   0.0000   0.0000   0.0000   0.0000   0.0000   0.0000
     0.0000   0.0000   0.0000   0.0000   0.0000   0.0000   0.0000   0.0000
     0.0000   0.0000   0.0000   0.0000   0.0000   0.0000   0.0000   0.0000
     0.0000   0.0000   0.0000   0.0000   0.0000   0.0000   0.0000   0.0000
     0.0000   0.0000   0.0000   0.0000   0.0000   0.0000   0.0000   0.0000
     0.0000   0.0000   0.0000   0.0000   0.0000   0.0000   0.0000   0.0000
     0.0000   0.0000   0.0000   0.0000   0.0000   0.0000   0.0000   0.0000
     0.0000   0.0000   0.0000   0.0000   0.0000   0.0000   0.0000   0.0000
     0.0000   0.0000   0.0000   0.0000   0.0000   0.0000   0.0000   0.0000
     0.0000   0.0000   0.0000   0.0000   0.0000   0.0000   0.0000   0.0000
     0.0000   0.0000   0.0000   0.0000   0.0000   0.0000   0.0000   0.0000
     0.0000   0.0000   0.0000   0.0000   0.0000   0.0000   0.0000   0.0000
     0.0000   0.0000   0.0000   0.0000   0.0000   0.0000   0.0000   0.0000
     0.0000   0.0000   0.0000   0.0000   0.0000   0.0000   0.0000   0.0000
     0.0000   0.0000   0.0000   0.0000   0.0000   0.0000   0.0000   0.0000
     0.0000   0.0000   0.0000   0.0000   0.0000   0.0000   0.0000   0.0000
     0.0000   0.0000   0.0000   0.0000   0.0000   0.0000   0.0000   0.0000
     0.0000   0.0000   0.0000   0.0000   0.0000   0.0000   0.0000   0.0000

[...]

          k = 0.3333-0.5116-0.4673 (  3258 PWs)   bands (ev):

   -54.5360 -54.5331 -54.3475 -54.3442 -54.2941 -54.2537 -28.5735 -28.5529
   -28.3838 -28.3689 -28.3135 -28.2961 -28.2547 -28.2313 -28.2156 -28.2040
   -28.1920 -28.1667 -28.1029 -28.0840 -28.0634 -28.0462 -28.0161 -27.9518
    -8.8395  -8.5784  -8.3244  -8.2458  -8.1723  -8.0840  -8.0070  -7.9645
    -7.8973  -7.8692   3.8315   3.9748   4.0820   4.2953   4.5061   4.6251
     4.8159   4.8691   5.0442   5.1785   5.3724   5.4775   5.5051   5.6726
     5.8251   5.9617   5.9980   6.2659   6.3989   6.5647   6.6717   6.8322
     6.8465   6.9359   7.0586   7.2371   7.3981   7.6747   7.7881   7.9188
    10.7158  10.8346  10.9593  11.1020  11.1925  11.2598  11.3119  11.3961
    11.4505  11.5021  11.5148  11.7484  11.8458  11.9035  12.0569  12.1633
    12.3963  12.5469  12.9587  13.0209  13.3095  13.4471  13.6289  13.7136
    14.0067  14.0680  14.1704  14.2315  14.3302  14.6466  18.1451  18.6546
    19.0274  19.4440  19.7992  20.3821  21.2024  21.7852  22.5115  22.8971
    23.1438  23.4918  23.5850  23.9170  24.0948  24.6410  24.6951  24.8309
    25.2927  25.4566  25.6668  25.8518  26.3167  26.5634  26.7909  26.9996
    27.3105  27.5261  27.7382  28.2928  28.8077  29.0382  29.5752  30.0704
    30.5752  31.0013  31.2526  31.6520  31.7750  32.3279  32.7230  32.8405
    33.1629  33.2555  34.2808  34.4241  34.8781  35.0123  35.1930  35.4492
    35.8937  36.2352  36.9461  37.2236  37.3213  37.5967  37.9125  38.0599
    38.2270  38.7132  38.9925  39.1170  39.4463  39.5931  40.1523  40.2131
    40.3927  40.6044  40.7570  41.0146  41.3444  41.7405  41.8650  42.2979
    42.4462  42.6481  42.8307  42.9523  43.5299  43.7012  43.9262  44.3036
    44.5400  44.6351  44.7691  44.8391  45.1552  45.3101  45.5349  45.5770
    45.8224  45.9890  46.1130  46.6184  46.6434  46.8907  47.1874  47.4281
    47.5375  47.8949  47.9425  48.2198  48.5078  48.7023  48.8824  48.9283
    49.2238  49.3680  49.5447  49.7808  49.9215  50.0338  50.1361  50.4567
    50.6673  50.9437  51.2097  51.3107  51.8172  51.9465  52.2123  52.7029
    52.8124  52.8407  53.1734  53.3934  53.3962  53.8036  54.1414  54.3672
    54.6518  54.8141  54.9098  54.9815  55.3161  55.6337  55.8822  55.9784
    56.4619  56.7370  56.8483  57.0799  57.3510  57.6133  57.6552  58.0753
    58.3567  58.4919  58.6643  58.8893  59.2755  59.3718  59.9274  60.0142
    60.0877  60.3253  60.4526  60.9802  61.3175  61.4059  61.6017  61.6284

     occupation numbers
     1.0000   1.0000   1.0000   1.0000   1.0000   1.0000   1.0000   1.0000
     1.0000   1.0000   1.0000   1.0000   1.0000   1.0000   1.0000   1.0000
     1.0000   1.0000   1.0000   1.0000   1.0000   1.0000   1.0000   1.0000
     1.0000   1.0000   1.0000   1.0000   1.0000   1.0000   1.0000   1.0000
     1.0000   1.0000   1.0000   1.0000   1.0000   1.0000   1.0000   1.0000
     1.0000   1.0000   1.0000   1.0000   1.0000   1.0000   1.0000   1.0000
     1.0000   1.0000   1.0000   1.0000   1.0000   1.0000   1.0000   1.0000
     1.0000   1.0000   1.0000   1.0000   1.0000   1.0000   1.0000   1.0000
     1.0000   1.0000   1.0000   1.0000   1.0000   0.0000   0.0000   0.0000
     0.0000   0.0000   0.0000   0.0000   0.0000   0.0000   0.0000   0.0000
     0.0000   0.0000   0.0000   0.0000   0.0000   0.0000   0.0000   0.0000
     0.0000   0.0000   0.0000   0.0000   0.0000   0.0000   0.0000   0.0000
     0.0000   0.0000   0.0000   0.0000   0.0000   0.0000   0.0000   0.0000
     0.0000   0.0000   0.0000   0.0000   0.0000   0.0000   0.0000   0.0000
     0.0000   0.0000   0.0000   0.0000   0.0000   0.0000   0.0000   0.0000
     0.0000   0.0000   0.0000   0.0000   0.0000   0.0000   0.0000   0.0000
     0.0000   0.0000   0.0000   0.0000   0.0000   0.0000   0.0000   0.0000
     0.0000   0.0000   0.0000   0.0000   0.0000   0.0000   0.0000   0.0000
     0.0000   0.0000   0.0000   0.0000   0.0000   0.0000   0.0000   0.0000
     0.0000   0.0000   0.0000   0.0000   0.0000   0.0000   0.0000   0.0000
     0.0000   0.0000   0.0000   0.0000   0.0000   0.0000   0.0000   0.0000
     0.0000   0.0000   0.0000   0.0000   0.0000   0.0000   0.0000   0.0000
     0.0000   0.0000   0.0000   0.0000   0.0000   0.0000   0.0000   0.0000
     0.0000   0.0000   0.0000   0.0000   0.0000   0.0000   0.0000   0.0000
     0.0000   0.0000   0.0000   0.0000   0.0000   0.0000   0.0000   0.0000
     0.0000   0.0000   0.0000   0.0000   0.0000   0.0000   0.0000   0.0000
     0.0000   0.0000   0.0000   0.0000   0.0000   0.0000   0.0000   0.0000
     0.0000   0.0000   0.0000   0.0000   0.0000   0.0000   0.0000   0.0000
     0.0000   0.0000   0.0000   0.0000   0.0000   0.0000   0.0000   0.0000
     0.0000   0.0000   0.0000   0.0000   0.0000   0.0000   0.0000   0.0000
     0.0000   0.0000   0.0000   0.0000   0.0000   0.0000   0.0000   0.0000
     0.0000   0.0000   0.0000   0.0000   0.0000   0.0000   0.0000   0.0000

     highest occupied, lowest unoccupied level (ev):    11.2269   11.1360

!    total energy              =   -1287.54894965 Ry
     estimated scf accuracy    <       0.00000070 Ry

     The total energy is the sum of the following terms:
     one-electron contribution =    -494.89808338 Ry
     hartree contribution      =     312.37250556 Ry
     xc contribution           =    -191.20348787 Ry
     ewald contribution        =    -818.58644384 Ry
     one-center paw contrib.   =     -95.23344012 Ry
      -> PAW hartree energy AE =       0.00000000 Ry
      -> PAW hartree energy PS =       0.00000000 Ry
      -> PAW xc energy AE      =       0.00000000 Ry
      -> PAW xc energy PS      =       0.00000000 Ry
      -> total E_H with PAW    =     312.37250556 Ry
      -> total E_XC with PAW   =    -191.20348787 Ry

     convergence has been achieved in  30 iterations

     Writing all to output data dir bands_nm/myprefix.save/

     General routines

     Parallel routines

     PAW routines

   This run was terminated on:  22:20:49  15Jul2023

   JOB DONE.