     Program PWSCF v.7.0 starts on  4Jun2023 at 16:10:14

     K-points division:     npool     =       2
     R & G space division:  proc/nbgrp/npool/nimage =       4

     Reading input from espresso_2502.pwi
Warning: card &CELL ignored
Warning: card / ignored

     Current dimensions of program PWSCF are:
     Max number of different atomic species (ntypx) = 10
     Max number of k-points (npk) =  40000
     Max angular momentum in pseudopotentials (lmaxx) =  4
     file O.pbe-n-kjpaw_psl.0.1.UPF: wavefunction(s)  2P renormalized
     Message from routine setup:
     using ibrav=0 with symmetry is DISCOURAGED, use correct ibrav instead

     Using Slab Decomposition

     bravais-lattice index     =            0
     lattice parameter (alat)  =      10.6795  a.u.
     unit-cell volume          =    2670.7112 (a.u.)^3
     number of atoms/cell      =           20
     number of atomic types    =            4
     number of electrons       =        80.00
     number of Kohn-Sham states=           64
     kinetic-energy cutoff     =      30.0000  Ry
     charge density cutoff     =     240.0000  Ry
     scf convergence threshold =      1.0E-06
     mixing beta               =       0.7000
     number of iterations used =            8  plain     mixing
     Exchange-correlation= SLA  PW   PBX  PBC
                           (   1   4   3   4   0   0   0)

     celldm(1)=  10.679540  celldm(2)=   0.000000  celldm(3)=   0.000000
     celldm(4)=   0.000000  celldm(5)=   0.000000  celldm(6)=   0.000000

     crystal axes: (cart. coord. in units of alat)
               a(1) = (   1.000000   0.000000   0.000000 )
               a(2) = (   0.000000   1.181051   0.000000 )
               a(3) = (   0.000000   0.000000   1.856525 )

     reciprocal axes: (cart. coord. in units 2 pi/alat)
               b(1) = (  1.000000  0.000000  0.000000 )
               b(2) = (  0.000000  0.846704  0.000000 )
               b(3) = (  0.000000  0.000000  0.538641 )

     PseudoPot. # 1 for Li read from file:
     /home/pragov/projects/rrg-bengioy-ad/pragov/crystal_structure_design/SSSP/li_pbe_v1.4.uspp.F.UPF
     MD5 check sum: e912e257baa3777c20ea3d68f190483c
     Pseudo is Ultrasoft, Zval =  3.0
     Generated by new atomic code, or converted to UPF format
     Using radial grid of  751 points,  5 beta functions with:
                l(1) =   0
                l(2) =   0
                l(3) =   0
                l(4) =   1
                l(5) =   1
     Q(r) pseudized with 10 coefficients,  rinner =    1.150   1.150   1.150

     PseudoPot. # 2 for H  read from file:
     /home/pragov/projects/rrg-bengioy-ad/pragov/crystal_structure_design/SSSP/H.pbe-rrkjus_psl.1.0.0.UPF
     MD5 check sum: f52b6d4d1c606e5624b1dc7b2218f220
     Pseudo is Ultrasoft, Zval =  1.0
     Generated using "atomic" code by A. Dal Corso  v.5.1
     Using radial grid of  929 points,  2 beta functions with:
                l(1) =   0
                l(2) =   0
     Q(r) pseudized with 0 coefficients

     PseudoPot. # 3 for I  read from file:
     /home/pragov/projects/rrg-bengioy-ad/pragov/crystal_structure_design/SSSP/I.pbe-n-kjpaw_psl.0.2.UPF
     MD5 check sum: d4ef18d9c8f18dc85e5843bca1e50dc0
     Pseudo is Projector augmented-wave + core cor, Zval =  7.0
     Generated using "atomic" code by A. Dal Corso  v.5.0.99 svn rev. 10869
     Shape of augmentation charge: PSQ
     Using radial grid of 1247 points,  4 beta functions with:
                l(1) =   0
                l(2) =   0
                l(3) =   1
                l(4) =   1
     Q(r) pseudized with 0 coefficients

     PseudoPot. # 4 for O  read from file:
     /home/pragov/projects/rrg-bengioy-ad/pragov/crystal_structure_design/SSSP/O.pbe-n-kjpaw_psl.0.1.UPF
     MD5 check sum: 0234752ac141de4415c5fc33072bef88
     Pseudo is Projector augmented-wave + core cor, Zval =  6.0
     Generated using "atomic" code by A. Dal Corso  v.5.0.99 svn rev. 10869
     Shape of augmentation charge: BESSEL
     Using radial grid of 1095 points,  4 beta functions with:
                l(1) =   0
                l(2) =   0
                l(3) =   1
                l(4) =   1
     Q(r) pseudized with 0 coefficients

     atomic species   valence    mass     pseudopotential
        Li             3.00     6.94000     Li( 1.00)
        H              1.00     1.00800     H ( 1.00)
        I              7.00   126.90447     I ( 1.00)
        O              6.00    15.99900     O ( 1.00)

      8 Sym. Ops., with inversion, found ( 6 have fractional translation)

                                    s                        frac. trans.

      isym =  1     identity

 cryst.   s( 1) = (     1          0          0      )
                  (     0          1          0      )
                  (     0          0          1      )

 cart.    s( 1) = (  1.0000000  0.0000000  0.0000000 )
                  (  0.0000000  1.0000000  0.0000000 )
                  (  0.0000000  0.0000000  1.0000000 )

      isym =  2     180 deg rotation - cart. axis [0,0,1]

 cryst.   s( 2) = (    -1          0          0      )    f =( -0.5000000 )
                  (     0         -1          0      )       (  0.5000000 )
                  (     0          0          1      )       (  0.5000000 )

 cart.    s( 2) = ( -1.0000000  0.0000000  0.0000000 )    f =( -0.5000000 )
                  (  0.0000000 -1.0000000  0.0000000 )       (  0.5905253 )
                  (  0.0000000  0.0000000  1.0000000 )       (  0.9282625 )

[...]

      isym =  4     180 deg rotation - cart. axis [1,0,0]

[...]

      isym =  5     inversion

 cryst.   s( 5) = (    -1          0          0      )
                  (     0         -1          0      )
                  (     0          0         -1      )

 cart.    s( 5) = ( -1.0000000  0.0000000  0.0000000 )
                  (  0.0000000 -1.0000000  0.0000000 )
                  (  0.0000000  0.0000000 -1.0000000 )

      isym =  6     inv. 180 deg rotation - cart. axis [0,0,1]

[...]

      isym =  8     inv. 180 deg rotation - cart. axis [1,0,0]

 cryst.   s( 8) = (    -1          0          0      )    f =( -0.5000000 )
                  (     0          1          0      )       (  0.0000000 )
                  (     0          0          1      )       (  0.0000000 )

 cart.    s( 8) = ( -1.0000000  0.0000000  0.0000000 )    f =( -0.5000000 )
                  (  0.0000000  1.0000000  0.0000000 )       (  0.0000000 )
                  (  0.0000000  0.0000000  1.0000000 )       (  0.0000000 )

   Cartesian axes

     site n.     atom                  positions (alat units)
         1           Li  tau(   1) = (   0.0002270   0.6623533   1.6510504  )
         2           Li  tau(   2) = (   0.4997730   1.1092227   0.7227879  )
         3           Li  tau(   3) = (   0.5002270   0.5186974   0.2054746  )
         4           Li  tau(   4) = (   0.9997730   0.0718280   1.1337371  )
         5           Li  tau(   5) = (   0.9997730   0.5186974   0.2054746  )
         6           Li  tau(   6) = (   0.5002270   0.0718280   1.1337371  )
         7           Li  tau(   7) = (   0.4997730   0.6623533   1.6510504  )
         8           Li  tau(   8) = (   0.0002270   1.1092227   0.7227879  )
         9           H   tau(   9) = (   0.2500000   0.9143210   1.0103135  )
        10           H   tau(  10) = (   0.2500000   0.8572550   0.0820510  )
        11           H   tau(  11) = (   0.7500000   0.2667297   0.8462115  )
        12           H   tau(  12) = (   0.7500000   0.3237957   1.7744740  )
        13           I   tau(  13) = (   0.2500000   0.4913088   1.2526104  )
        14           I   tau(  14) = (   0.2500000   0.0992165   0.3243479  )
        15           I   tau(  15) = (   0.7500000   0.6897418   0.6039146  )
        16           I   tau(  16) = (   0.7500000   1.0818341   1.5321771  )
        17           O   tau(  17) = (   0.2500000   1.0818105   0.9632562  )
        18           O   tau(  18) = (   0.2500000   0.6897655   0.0349936  )
        19           O   tau(  19) = (   0.7500000   0.0992401   0.8932689  )
        20           O   tau(  20) = (   0.7500000   0.4912852   1.8215314  )

   Crystallographic axes

     site n.     atom                  positions (cryst. coord.)
         1           Li  tau(   1) = (  0.0002270  0.5608170  0.8893230  )
         2           Li  tau(   2) = (  0.4997730  0.9391830  0.3893230  )
         3           Li  tau(   3) = (  0.5002270  0.4391830  0.1106770  )
         4           Li  tau(   4) = (  0.9997730  0.0608170  0.6106770  )
         5           Li  tau(   5) = (  0.9997730  0.4391830  0.1106770  )
         6           Li  tau(   6) = (  0.5002270  0.0608170  0.6106770  )
         7           Li  tau(   7) = (  0.4997730  0.5608170  0.8893230  )
         8           Li  tau(   8) = (  0.0002270  0.9391830  0.3893230  )
         9           H   tau(   9) = (  0.2500000  0.7741590  0.5441960  )
        10           H   tau(  10) = (  0.2500000  0.7258410  0.0441960  )
        11           H   tau(  11) = (  0.7500000  0.2258410  0.4558040  )
        12           H   tau(  12) = (  0.7500000  0.2741590  0.9558040  )
        13           I   tau(  13) = (  0.2500000  0.4159930  0.6747070  )
        14           I   tau(  14) = (  0.2500000  0.0840070  0.1747070  )
        15           I   tau(  15) = (  0.7500000  0.5840070  0.3252930  )
        16           I   tau(  16) = (  0.7500000  0.9159930  0.8252930  )
        17           O   tau(  17) = (  0.2500000  0.9159730  0.5188490  )
        18           O   tau(  18) = (  0.2500000  0.5840270  0.0188490  )
        19           O   tau(  19) = (  0.7500000  0.0840270  0.4811510  )
        20           O   tau(  20) = (  0.7500000  0.4159730  0.9811510  )

     number of k points=     8
                       cart. coord. in units 2pi/alat
        k(    1) = (   0.0000000   0.0000000   0.0000000), wk =   0.0740741
        k(    2) = (   0.0000000   0.0000000   0.1795469), wk =   0.1481481
        k(    3) = (   0.0000000   0.2822346   0.0000000), wk =   0.1481481
        k(    4) = (   0.0000000   0.2822346   0.1795469), wk =   0.2962963
        k(    5) = (   0.3333333   0.0000000   0.0000000), wk =   0.1481481
        k(    6) = (   0.3333333   0.0000000   0.1795469), wk =   0.2962963
        k(    7) = (   0.3333333   0.2822346   0.0000000), wk =   0.2962963
        k(    8) = (   0.3333333   0.2822346   0.1795469), wk =   0.5925926

                       cryst. coord.
        k(    1) = (   0.0000000   0.0000000   0.0000000), wk =   0.0740741
        k(    2) = (   0.0000000   0.0000000   0.3333333), wk =   0.1481481
        k(    3) = (   0.0000000   0.3333333   0.0000000), wk =   0.1481481
        k(    4) = (   0.0000000   0.3333333   0.3333333), wk =   0.2962963
        k(    5) = (   0.3333333   0.0000000   0.0000000), wk =   0.1481481
        k(    6) = (   0.3333333   0.0000000   0.3333333), wk =   0.2962963
        k(    7) = (   0.3333333   0.3333333   0.0000000), wk =   0.2962963
        k(    8) = (   0.3333333   0.3333333   0.3333333), wk =   0.5925926

     Check: negative core charge=   -0.000005

     Initial potential from superposition of free atoms

     starting charge      76.3937, renormalised to      80.0000
     Starting wfcs are   76 randomized atomic wfcs
     Checking if some PAW data can be deallocated...

     Self-consistent Calculation

     iteration #  1     ecut=    30.00 Ry     beta= 0.70
     Davidson diagonalization with overlap

     ethr =  1.00E-02,  avg # of iterations =  5.6

     total energy              =   -1803.65545148 Ry
     estimated scf accuracy    <       0.94213949 Ry

[...]

     c_bands:  1 eigenvalues not converged
     ethr =  2.72E-06,  avg # of iterations =  7.5

[...]

     total energy              =   -1804.05622419 Ry
     estimated scf accuracy    <       0.00000163 Ry

     iteration #  8     ecut=    30.00 Ry     beta= 0.70
     Davidson diagonalization with overlap

     ethr =  2.04E-09,  avg # of iterations =  2.0

     End of self-consistent calculation

          k = 0.0000 0.0000 0.0000 (  7441 PWs)   bands (ev):

   -43.4840 -43.4832 -43.4650 -43.4645 -43.4516 -43.4515 -43.4357 -43.4352
   -17.5451 -17.5438 -17.4501 -17.4492 -10.5811 -10.5302 -10.4292 -10.3806
    -4.8322  -4.8254  -4.8144  -4.8086  -2.2028  -2.1841  -1.8117  -1.7524
    -1.6904  -1.4979  -1.1617  -0.9908  -0.9593  -0.9274  -0.8926  -0.8818
    -0.7701  -0.7291  -0.6368  -0.2482  -0.1695  -0.0490  -0.0312  -0.0186
     4.3399   5.1262   5.5281   5.9038   6.6035   6.6745   6.7782   6.8945
     6.9421   7.2991   7.7499   7.7713   7.9377   7.9571   8.0688   8.2700
     8.5057   8.6924   8.9146   9.1674   9.2159   9.3386   9.7267  10.4235

     occupation numbers
     1.0000   1.0000   1.0000   1.0000   1.0000   1.0000   1.0000   1.0000
     1.0000   1.0000   1.0000   1.0000   1.0000   1.0000   1.0000   1.0000
     1.0000   1.0000   1.0000   1.0000   1.0000   1.0000   1.0000   1.0000
     1.0000   1.0000   1.0000   1.0000   1.0000   1.0000   1.0000   1.0000
     1.0000   1.0000   1.0000   1.0000   1.0000   1.0000   1.0000   1.0000
     0.0000   0.0000   0.0000   0.0000   0.0000   0.0000   0.0000   0.0000
     0.0000   0.0000   0.0000   0.0000   0.0000   0.0000   0.0000   0.0000
     0.0000   0.0000   0.0000   0.0000   0.0000   0.0000   0.0000   0.0000

[...]

          k = 0.3333 0.2822 0.1795 (  7419 PWs)   bands (ev):

   -43.4790 -43.4789 -43.4695 -43.4694 -43.4475 -43.4474 -43.4392 -43.4388
   -17.5203 -17.5201 -17.4733 -17.4729 -10.5086 -10.4958 -10.4618 -10.4497
    -4.8214  -4.8181  -4.7878  -4.7836  -1.9548  -1.8856  -1.8761  -1.8536
    -1.7405  -1.7149  -1.3942  -1.3428  -1.0951  -1.0029  -0.8671  -0.8486
    -0.6632  -0.6072  -0.5138  -0.4721  -0.2512  -0.1694  -0.1357  -0.0310
     5.6889   5.9573   6.1187   6.2175   6.4577   6.5630   6.9018   6.9410
     7.0092   7.1088   7.3058   7.5530   7.6798   7.9196   8.0108   8.2771
     8.8364   8.9917   9.1946   9.3754   9.4214   9.6291   9.9076  10.0255

     occupation numbers
     1.0000   1.0000   1.0000   1.0000   1.0000   1.0000   1.0000   1.0000
     1.0000   1.0000   1.0000   1.0000   1.0000   1.0000   1.0000   1.0000
     1.0000   1.0000   1.0000   1.0000   1.0000   1.0000   1.0000   1.0000
     1.0000   1.0000   1.0000   1.0000   1.0000   1.0000   1.0000   1.0000
     1.0000   1.0000   1.0000   1.0000   1.0000   1.0000   1.0000   1.0000
     0.0000   0.0000   0.0000   0.0000   0.0000   0.0000   0.0000   0.0000
     0.0000   0.0000   0.0000   0.0000   0.0000   0.0000   0.0000   0.0000
     0.0000   0.0000   0.0000   0.0000   0.0000   0.0000   0.0000   0.0000

     highest occupied, lowest unoccupied level (ev):     0.0195    4.3399

!    total energy              =   -1804.05622428 Ry
     estimated scf accuracy    <       0.00000018 Ry

     The total energy is the sum of the following terms:
     one-electron contribution =    -226.49542013 Ry
     hartree contribution      =     130.74949778 Ry
     xc contribution           =    -227.46968606 Ry
     ewald contribution        =    -160.68880514 Ry
     one-center paw contrib.   =   -1320.15181073 Ry
      -> PAW hartree energy AE =       0.00000000 Ry
      -> PAW hartree energy PS =       0.00000000 Ry
      -> PAW xc energy AE      =       0.00000000 Ry
      -> PAW xc energy PS      =       0.00000000 Ry
      -> total E_H with PAW    =     130.74949778 Ry
      -> total E_XC with PAW   =    -227.46968606 Ry

     convergence has been achieved in   8 iterations

     Writing all to output data dir calculations_bands/myprefix.save/

     General routines

     Parallel routines

     PAW routines

   This run was terminated on:  16:10:27   4Jun2023

   JOB DONE.