     Program PWSCF v.7.1 starts on  9Jul2023 at 19:23:54

     Reading input from espresso_20250.pwi
Warning: card &CELL ignored
Warning: card / ignored

     Current dimensions of program PWSCF are:
     Max number of different atomic species (ntypx) = 10
     Max number of k-points (npk) =  40000
     Max angular momentum in pseudopotentials (lmaxx) =  4
     file Ba.pbe-spn-kjpaw_psl.1.0.0.UPF: wavefunction(s)  5S 6S renormalized
     file Mg.pbe-n-kjpaw_psl.0.3.0.UPF: wavefunction(s)  3S renormalized
     Message from routine setup:
     using ibrav=0 with symmetry is DISCOURAGED, use correct ibrav instead

     K-points division:     npool     =       2
     R & G space division:  proc/nbgrp/npool/nimage =       4
     Subspace diagonalization in iterative solution of the eigenvalue problem:
     a serial algorithm will be used

     Using Slab Decomposition

     bravais-lattice index     =            0
     lattice parameter (alat)  =      14.2103  a.u.
     unit-cell volume          =    1198.3132 (a.u.)^3
     number of atoms/cell      =           12
     number of atomic types    =            3
     number of electrons       =        80.00
     number of Kohn-Sham states=           64
     kinetic-energy cutoff     =      30.0000  Ry
     charge density cutoff     =     240.0000  Ry
     scf convergence threshold =      1.0E-06
     mixing beta               =       0.7000
     number of iterations used =            8  plain     mixing
     Exchange-correlation=  SLA  PW   PBX  PBC
                           (   1   4   3   4   0   0   0)

     celldm(1)=  14.210324  celldm(2)=   0.000000  celldm(3)=   0.000000
     celldm(4)=   0.000000  celldm(5)=   0.000000  celldm(6)=   0.000000

     crystal axes: (cart. coord. in units of alat)
               a(1) = (   1.000000   0.000000   0.000000 )
               a(2) = (  -0.843204   0.537594   0.000000 )
               a(3) = (   0.000000   0.000000   0.776791 )

     reciprocal axes: (cart. coord. in units 2 pi/alat)
               b(1) = (  1.000000  1.568478  0.000000 )
               b(2) = (  0.000000  1.860140  0.000000 )
               b(3) = (  0.000000  0.000000  1.287348 )

     PseudoPot. # 1 for Ba read from file:
     /home/pragov/projects/rrg-bengioy-ad/pragov/crystal_structure_design/SSSP/Ba.pbe-spn-kjpaw_psl.1.0.0.UPF
     MD5 check sum: c432291d3e53af55f19d5e8866385beb
     Pseudo is Projector augmented-wave + core cor, Zval = 10.0
     Generated using "atomic" code by A. Dal Corso  v.5.1
     Shape of augmentation charge: PSQ
     Using radial grid of 1251 points,  7 beta functions with:
                l(1) =   0
                l(2) =   0
                l(3) =   0
                l(4) =   1
                l(5) =   1
                l(6) =   2
                l(7) =   2
     Q(r) pseudized with 0 coefficients

     PseudoPot. # 2 for Mg read from file:
     /home/pragov/projects/rrg-bengioy-ad/pragov/crystal_structure_design/SSSP/Mg.pbe-n-kjpaw_psl.0.3.0.UPF
     MD5 check sum: 24ecedc7f3e3cbe212e682f4413594e4
     Pseudo is Projector augmented-wave + core cor, Zval =  2.0
     Generated using "atomic" code by A. Dal Corso  v.5.0.99 svn rev. 10869
     Shape of augmentation charge: PSQ
     Using radial grid of 1129 points,  4 beta functions with:
                l(1) =   0
                l(2) =   0
                l(3) =   1
                l(4) =   1
     Q(r) pseudized with 0 coefficients

     PseudoPot. # 3 for F  read from file:
     /home/pragov/projects/rrg-bengioy-ad/pragov/crystal_structure_design/SSSP/f_pbe_v1.4.uspp.F.UPF
     MD5 check sum: 4c38b6a325caf53ec0e86aed9459de46
     Pseudo is Ultrasoft, Zval =  7.0
     Generated by new atomic code, or converted to UPF format
     Using radial grid of  799 points,  4 beta functions with:
                l(1) =   0
                l(2) =   0
                l(3) =   1
                l(4) =   1
     Q(r) pseudized with  8 coefficients,  rinner =    0.950   0.950   0.950

     atomic species   valence    mass     pseudopotential
        Ba            10.00   137.32700     Ba( 1.00)
        Mg             2.00    24.30500     Mg( 1.00)
        F              7.00    18.99840     F ( 1.00)

      4 Sym. Ops., with inversion, found ( 2 have fractional translation)

                                    s                        frac. trans.

      isym =  1     identity

 cryst.   s( 1) = (     1          0          0      )
                  (     0          1          0      )
                  (     0          0          1      )

 cart.    s( 1) = (  1.0000000 -0.0000000  0.0000000 )
                  (  0.0000000  1.0000000  0.0000000 )
                  (  0.0000000  0.0000000  1.0000000 )

      isym =  2     180 deg rotation - cart. axis [0,0,1]

 cryst.   s( 2) = (    -1          0          0      )    f =( -0.0000000 )
                  (     0         -1          0      )       ( -0.0000000 )
                  (     0          0          1      )       ( -0.5000000 )

 cart.    s( 2) = ( -1.0000000  0.0000000  0.0000000 )    f =(  0.0000000 )
                  (  0.0000000 -1.0000000  0.0000000 )       ( -0.0000000 )
                  (  0.0000000  0.0000000  1.0000000 )       ( -0.3883954 )

      isym =  3     inversion

 cryst.   s( 3) = (    -1          0          0      )
                  (     0         -1          0      )
                  (     0          0         -1      )

 cart.    s( 3) = ( -1.0000000  0.0000000  0.0000000 )
                  (  0.0000000 -1.0000000  0.0000000 )
                  (  0.0000000  0.0000000 -1.0000000 )

      isym =  4     inv. 180 deg rotation - cart. axis [0,0,1]

 cryst.   s( 4) = (     1          0          0      )    f =(  0.0000000 )
                  (     0          1          0      )       (  0.0000000 )
                  (     0          0         -1      )       (  0.5000000 )

 cart.    s( 4) = (  1.0000000 -0.0000000  0.0000000 )    f =(  0.0000000 )
                  (  0.0000000  1.0000000  0.0000000 )       (  0.0000000 )
                  (  0.0000000  0.0000000 -1.0000000 )       (  0.3883954 )

   Cartesian axes

     site n.     atom                  positions (alat units)
         1           Ba  tau(   1) = (  -0.5814505   0.4612502   0.1941977  )
         2           Ba  tau(   2) = (   0.7382466   0.0763437   0.5825931  )
         3           Mg  tau(   3) = (   0.2476890   0.2194211   0.5825931  )
         4           Mg  tau(   4) = (  -0.0908929   0.3181728   0.1941977  )
         5           F   tau(   5) = (   0.4229463   0.1683050   0.3960142  )
         6           F   tau(   6) = (  -0.2661502   0.3692888   0.3807767  )
         7           F   tau(   7) = (   0.4229463   0.1683050   0.7691721  )
         8           F   tau(   8) = (  -0.2661502   0.3692888   0.0076188  )
         9           F   tau(   9) = (   0.0783980   0.2687969   0.3883954  )
        10           F   tau(  10) = (   0.0783980   0.2687969   0.0000000  )
        11           F   tau(  11) = (  -0.6920593   0.4935106   0.5825931  )
        12           F   tau(  12) = (   0.8488554   0.0440832   0.1941977  )

   Crystallographic axes

     site n.     atom                  positions (cryst. coord.)
         1           Ba  tau(   1) = (  0.1420100  0.8579900  0.2500000  )
         2           Ba  tau(   2) = (  0.8579900  0.1420100  0.7500000  )
         3           Mg  tau(   3) = (  0.5918460  0.4081540  0.7500000  )
         4           Mg  tau(   4) = (  0.4081540  0.5918460  0.2500000  )
         5           F   tau(   5) = (  0.6869290  0.3130710  0.5098080  )
         6           F   tau(   6) = (  0.3130710  0.6869290  0.4901920  )
         7           F   tau(   7) = (  0.6869290  0.3130710  0.9901920  )
         8           F   tau(   8) = (  0.3130710  0.6869290  0.0098080  )
         9           F   tau(   9) = (  0.5000000  0.5000000  0.5000000  )
        10           F   tau(  10) = (  0.5000000  0.5000000  0.0000000  )
        11           F   tau(  11) = (  0.0820010  0.9179990  0.7500000  )
        12           F   tau(  12) = (  0.9179990  0.0820010  0.2500000  )

     number of k points=    10
                       cart. coord. in units 2pi/alat
        k(    1) = (   0.0000000   0.0000000   0.0000000), wk =   0.0740741
        k(    2) = (   0.0000000   0.0000000   0.4291159), wk =   0.1481481
        k(    3) = (   0.0000000   0.6200468   0.0000000), wk =   0.1481481
        k(    4) = (   0.0000000   0.6200468   0.4291159), wk =   0.2962963
        k(    5) = (   0.3333333   0.5228259   0.0000000), wk =   0.1481481
        k(    6) = (   0.3333333   0.5228259   0.4291159), wk =   0.2962963
        k(    7) = (   0.3333333   1.1428726   0.0000000), wk =   0.1481481
        k(    8) = (   0.3333333   1.1428726   0.4291159), wk =   0.2962963
        k(    9) = (   0.3333333  -0.0972209   0.0000000), wk =   0.1481481
        k(   10) = (   0.3333333  -0.0972209   0.4291159), wk =   0.2962963

                       cryst. coord.
        k(    1) = (   0.0000000   0.0000000   0.0000000), wk =   0.0740741
        k(    2) = (   0.0000000   0.0000000   0.3333333), wk =   0.1481481
        k(    3) = (   0.0000000   0.3333333   0.0000000), wk =   0.1481481
        k(    4) = (   0.0000000   0.3333333   0.3333333), wk =   0.2962963
        k(    5) = (   0.3333333   0.0000000   0.0000000), wk =   0.1481481
        k(    6) = (   0.3333333   0.0000000   0.3333333), wk =   0.2962963
        k(    7) = (   0.3333333   0.3333333   0.0000000), wk =   0.1481481
        k(    8) = (   0.3333333   0.3333333   0.3333333), wk =   0.2962963
        k(    9) = (   0.3333333  -0.3333333   0.0000000), wk =   0.1481481
        k(   10) = (   0.3333333  -0.3333333   0.3333333), wk =   0.2962963

     Initial potential from superposition of free atoms

     starting charge      79.9641, renormalised to      80.0000
     Starting wfcs are   50 randomized atomic wfcs +   14 random wfcs
     Checking if some PAW data can be deallocated...

     Self-consistent Calculation

     iteration #  1     ecut=    30.00 Ry     beta= 0.70
     Davidson diagonalization with overlap

     ethr =  1.00E-02,  avg # of iterations =  6.2

     negative rho (up, down):  2.259E-02 0.000E+00

     total energy              =   -1329.84696042 Ry
     estimated scf accuracy    <       1.34107689 Ry

[...]

     negative rho (up, down):  3.174E-04 0.000E+00

[...]

     c_bands:  1 eigenvalues not converged
     ethr =  3.18E-07,  avg # of iterations =  5.1

[...]

     total energy              =   -1330.38972647 Ry
     estimated scf accuracy    <       0.00000223 Ry

     iteration # 12     ecut=    30.00 Ry     beta= 0.70
     Davidson diagonalization with overlap

     ethr =  2.79E-09,  avg # of iterations =  2.9

     End of self-consistent calculation

          k = 0.0000 0.0000 0.0000 (  3319 PWs)   bands (ev):

   -20.5597 -20.4677 -17.2135 -16.9693 -16.6491 -16.6415 -16.6176 -16.4361
   -16.4175 -16.4086  -5.6574  -5.6220  -5.6209  -5.6127  -5.5498  -5.4779
    -0.0341   0.6545   0.7069   0.7702   0.8664   0.9683   1.1410   1.3536
     1.4137   1.4363   1.7636   1.9904   2.1219   2.1607   2.1674   2.1879
     2.2255   2.3324   2.3784   2.5796   2.6366   2.7519   2.8133   2.8401
     9.8255  11.1941  11.2988  11.4241  11.8803  12.4480  12.6165  12.7356
    12.8703  13.5683  13.5828  14.2536  14.6426  15.9572  16.0093  16.6234
    17.2549  18.2222  18.3225  18.6369  18.7711  18.8412  19.4664  19.6498

     occupation numbers
     1.0000   1.0000   1.0000   1.0000   1.0000   1.0000   1.0000   1.0000
     1.0000   1.0000   1.0000   1.0000   1.0000   1.0000   1.0000   1.0000
     1.0000   1.0000   1.0000   1.0000   1.0000   1.0000   1.0000   1.0000
     1.0000   1.0000   1.0000   1.0000   1.0000   1.0000   1.0000   1.0000
     1.0000   1.0000   1.0000   1.0000   1.0000   1.0000   1.0000   1.0000
     0.0000   0.0000   0.0000   0.0000   0.0000   0.0000   0.0000   0.0000
     0.0000   0.0000   0.0000   0.0000   0.0000   0.0000   0.0000   0.0000
     0.0000   0.0000   0.0000   0.0000   0.0000   0.0000   0.0000   0.0000

[...]

          k = 0.3333-0.0972 0.4291 (  3316 PWs)   bands (ev):

   -20.5276 -20.4907 -17.1777 -17.0557 -16.7103 -16.6934 -16.4861 -16.4471
   -16.4129 -16.3892  -5.6761  -5.6586  -5.6073  -5.5561  -5.5159  -5.4312
     0.1500   0.4258   0.6674   0.8336   0.9692   1.0316   1.2546   1.4371
     1.6102   1.6528   1.7553   1.7560   1.9459   2.0583   2.0635   2.1587
     2.2963   2.3767   2.4070   2.4796   2.5075   2.5699   2.5938   2.7041
    10.9403  11.1819  11.4827  11.8606  12.0969  12.2613  12.4073  12.5848
    12.6625  13.3850  13.6053  13.7578  14.1197  14.9798  16.8591  16.9411
    18.3425  18.4109  18.4425  18.7426  19.1409  19.4102  19.4620  19.7693

     occupation numbers
     1.0000   1.0000   1.0000   1.0000   1.0000   1.0000   1.0000   1.0000
     1.0000   1.0000   1.0000   1.0000   1.0000   1.0000   1.0000   1.0000
     1.0000   1.0000   1.0000   1.0000   1.0000   1.0000   1.0000   1.0000
     1.0000   1.0000   1.0000   1.0000   1.0000   1.0000   1.0000   1.0000
     1.0000   1.0000   1.0000   1.0000   1.0000   1.0000   1.0000   1.0000
     0.0000   0.0000   0.0000   0.0000   0.0000   0.0000   0.0000   0.0000
     0.0000   0.0000   0.0000   0.0000   0.0000   0.0000   0.0000   0.0000
     0.0000   0.0000   0.0000   0.0000   0.0000   0.0000   0.0000   0.0000

     highest occupied, lowest unoccupied level (ev):     2.8401    9.8255

!    total energy              =   -1330.38972654 Ry
     estimated scf accuracy    <       0.00000002 Ry

     The total energy is the sum of the following terms:
     one-electron contribution =    -196.95025028 Ry
     hartree contribution      =     149.17908104 Ry
     xc contribution           =    -119.52232590 Ry
     ewald contribution        =    -350.63101830 Ry
     one-center paw contrib.   =    -812.46521310 Ry
      -> PAW hartree energy AE =      57.06561101 Ry
      -> PAW hartree energy PS =     -56.83780527 Ry
      -> PAW xc energy AE      =    -788.40693317 Ry
      -> PAW xc energy PS      =      38.27026729 Ry
      -> total E_H with PAW    =     149.40688678 Ry
      -> total E_XC with PAW   =    -869.65899178 Ry

     convergence has been achieved in  12 iterations

     Writing all to output data dir bands_nm/myprefix.save/

     General routines

     Parallel routines

     PAW routines

   This run was terminated on:  19:24: 9   9Jul2023

   JOB DONE.