     Program PWSCF v.7.1 starts on 14Jul2023 at 17:59: 7

     Reading input from espresso_14710.pwi
Warning: card &CELL ignored
Warning: card / ignored

     Current dimensions of program PWSCF are:
     Max number of different atomic species (ntypx) = 10
     Max number of k-points (npk) =  40000
     Max angular momentum in pseudopotentials (lmaxx) =  4
     file Ba.pbe-spn-kjpaw_psl.1.0.0.UPF: wavefunction(s)  5S 6S renormalized

     K-points division:     npool     =       2
     R & G space division:  proc/nbgrp/npool/nimage =       4
     Subspace diagonalization in iterative solution of the eigenvalue problem:
     a serial algorithm will be used

     Using Slab Decomposition

     bravais-lattice index     =            0
     lattice parameter (alat)  =      12.2992  a.u.
     unit-cell volume          =    1403.9621 (a.u.)^3
     number of atoms/cell      =            8
     number of atomic types    =            4
     number of electrons       =        86.00
     number of Kohn-Sham states=           64
     kinetic-energy cutoff     =      30.0000  Ry
     charge density cutoff     =     240.0000  Ry
     scf convergence threshold =      1.0E-06
     mixing beta               =       0.7000
     number of iterations used =            8  plain     mixing
     Exchange-correlation=  SLA  PW   PBX  PBC
                           (   1   4   3   4   0   0   0)

     celldm(1)=  12.299230  celldm(2)=   0.000000  celldm(3)=   0.000000
     celldm(4)=   0.000000  celldm(5)=   0.000000  celldm(6)=   0.000000

     crystal axes: (cart. coord. in units of alat)
               a(1) = (   1.000000   0.000000   0.000000 )
               a(2) = (  -0.179028   0.983844   0.000000 )
               a(3) = (  -0.383616  -0.514344   0.767000 )

     reciprocal axes: (cart. coord. in units 2 pi/alat)
               b(1) = (  1.000000  0.181967  0.622177 )
               b(2) = (  0.000000  1.016421  0.681603 )
               b(3) = (  0.000000  0.000000  1.303781 )

     PseudoPot. # 1 for Ba read from file:
     /lustre07/scratch/pragov/crystal_structure_design/utils/SSSP/Ba.pbe-spn-kjpaw_psl.1.0.0.UPF
     MD5 check sum: c432291d3e53af55f19d5e8866385beb
     Pseudo is Projector augmented-wave + core cor, Zval = 10.0
     Generated using "atomic" code by A. Dal Corso  v.5.1
     Shape of augmentation charge: PSQ
     Using radial grid of 1251 points,  7 beta functions with:
                l(1) =   0
                l(2) =   0
                l(3) =   0
                l(4) =   1
                l(5) =   1
                l(6) =   2
                l(7) =   2
     Q(r) pseudized with 0 coefficients

     PseudoPot. # 2 for Ag read from file:
     /lustre07/scratch/pragov/crystal_structure_design/utils/SSSP/Ag_ONCV_PBE-1.0.oncvpsp.upf
     MD5 check sum: 94f47bd0669c641108e45594df92fabc
     Pseudo is Norm-conserving, Zval = 19.0
     Generated using ONCVPSP code by D. R. Hamann
     Using radial grid of 1398 points,  6 beta functions with:
                l(1) =   0
                l(2) =   0
                l(3) =   1
                l(4) =   1
                l(5) =   2
                l(6) =   2

     PseudoPot. # 3 for Sn read from file:
     /lustre07/scratch/pragov/crystal_structure_design/utils/SSSP/Sn_pbe_v1.uspp.F.UPF
     MD5 check sum: 4cf58ce39ec5d5d420df3dd08604eb00
     Pseudo is Ultrasoft + core correction, Zval = 14.0
     Generated by new atomic code, or converted to UPF format
     Using radial grid of  891 points,  6 beta functions with:
                l(1) =   0
                l(2) =   0
                l(3) =   1
                l(4) =   1
                l(5) =   2
                l(6) =   2
     Q(r) pseudized with  6 coefficients,  rinner =    1.200   1.200   1.200
                                                       1.200   1.200

     PseudoPot. # 4 for S  read from file:
     /lustre07/scratch/pragov/crystal_structure_design/utils/SSSP/s_pbe_v1.4.uspp.F.UPF
     MD5 check sum: 88d86576ff6df21479756cfb9bdac1df
     Pseudo is Ultrasoft + core correction, Zval =  6.0
     Generated by new atomic code, or converted to UPF format
     Using radial grid of  907 points,  6 beta functions with:
                l(1) =   0
                l(2) =   0
                l(3) =   1
                l(4) =   1
                l(5) =   2
                l(6) =   2
     Q(r) pseudized with  8 coefficients,  rinner =    1.300   1.300   1.300
                                                       1.300   1.300

     atomic species   valence    mass     pseudopotential
        Ba            10.00   137.32700     Ba( 1.00)
        Ag            19.00   107.86820     Ag( 1.00)
        Sn            14.00   118.71000     Sn( 1.00)
        S              6.00    32.06000     S ( 1.00)

     No symmetry found

                                    s                        frac. trans.

      isym =  1     identity

 cryst.   s( 1) = (     1          0          0      )
                  (     0          1          0      )
                  (     0          0          1      )

 cart.    s( 1) = (  1.0000000  0.0000000  0.0000000 )
                  (  0.0000000  1.0000000  0.0000000 )
                  (  0.0000000  0.0000000  1.0000000 )

   Cartesian axes

     site n.     atom                  positions (alat units)
         1           Ba  tau(   1) = (   0.0000000   0.0000000   0.0000000  )
         2           Ag  tau(   2) = (  -0.0365260   0.5281108   0.3835000  )
         3           Ag  tau(   3) = (   0.4738821  -0.0586105   0.3835000  )
         4           Sn  tau(   4) = (   0.4104862   0.4919220   0.0000000  )
         5           S   tau(   5) = (   0.3164507   0.8530908   0.0071147  )
         6           S   tau(   6) = (   0.3990386  -0.0502788   0.7598853  )
         7           S   tau(   7) = (   0.2765874   0.3209540   0.3036070  )
         8           S   tau(   8) = (  -0.1173645  -0.1847652   0.4633930  )

   Crystallographic axes

     site n.     atom                  positions (cryst. coord.)
         1           Ba  tau(   1) = (  0.0000000  0.0000000  0.0000000  )
         2           Ag  tau(   2) = (  0.2981780  0.7981780  0.5000000  )
         3           Ag  tau(   3) = (  0.7018220  0.2018220  0.5000000  )
         4           Sn  tau(   4) = (  0.5000000  0.5000000  0.0000000  )
         5           S   tau(   5) = (  0.4761120  0.8719490  0.0092760  )
         6           S   tau(   6) = (  0.8626730  0.4668360  0.9907240  )
         7           S   tau(   7) = (  0.5238880  0.5331640  0.3958370  )
         8           S   tau(   8) = (  0.1373270  0.1280510  0.6041630  )

     number of k points=    14
                       cart. coord. in units 2pi/alat
        k(    1) = (   0.0000000   0.0000000   0.0000000), wk =   0.0740741
        k(    2) = (   0.0000000   0.0000000   0.4345936), wk =   0.1481481
        k(    3) = (   0.0000000   0.3388071   0.2272011), wk =   0.1481481
        k(    4) = (   0.0000000   0.3388071   0.6617948), wk =   0.1481481
        k(    5) = (   0.0000000   0.3388071  -0.2073925), wk =   0.1481481
        k(    6) = (   0.3333333   0.0606558   0.2073925), wk =   0.1481481
        k(    7) = (   0.3333333   0.0606558   0.6419861), wk =   0.1481481
        k(    8) = (   0.3333333   0.0606558  -0.2272011), wk =   0.1481481
        k(    9) = (   0.3333333   0.3994629   0.4345936), wk =   0.1481481
        k(   10) = (   0.3333333   0.3994629   0.8691873), wk =   0.1481481
        k(   11) = (   0.3333333   0.3994629   0.0000000), wk =   0.1481481
        k(   12) = (   0.3333333  -0.2781513  -0.0198087), wk =   0.1481481
        k(   13) = (   0.3333333  -0.2781513   0.4147850), wk =   0.1481481
        k(   14) = (   0.3333333  -0.2781513  -0.4544023), wk =   0.1481481

                       cryst. coord.
        k(    1) = (   0.0000000   0.0000000   0.0000000), wk =   0.0740741
        k(    2) = (   0.0000000   0.0000000   0.3333333), wk =   0.1481481
        k(    3) = (   0.0000000   0.3333333  -0.0000000), wk =   0.1481481
        k(    4) = (   0.0000000   0.3333333   0.3333333), wk =   0.1481481
        k(    5) = (   0.0000000   0.3333333  -0.3333333), wk =   0.1481481
        k(    6) = (   0.3333333   0.0000000   0.0000000), wk =   0.1481481
        k(    7) = (   0.3333333   0.0000000   0.3333333), wk =   0.1481481
        k(    8) = (   0.3333333   0.0000000  -0.3333333), wk =   0.1481481
        k(    9) = (   0.3333333   0.3333333   0.0000000), wk =   0.1481481
        k(   10) = (   0.3333333   0.3333333   0.3333333), wk =   0.1481481
        k(   11) = (   0.3333333   0.3333333  -0.3333333), wk =   0.1481481
        k(   12) = (   0.3333333  -0.3333333  -0.0000000), wk =   0.1481481
        k(   13) = (   0.3333333  -0.3333333   0.3333333), wk =   0.1481481
        k(   14) = (   0.3333333  -0.3333333  -0.3333333), wk =   0.1481481

     Initial potential from superposition of free atoms

     starting charge      84.9822, renormalised to      86.0000
     Starting wfcs are   50 randomized atomic wfcs +   14 random wfcs
     Checking if some PAW data can be deallocated...

     Self-consistent Calculation

     iteration #  1     ecut=    30.00 Ry     beta= 0.70
     Davidson diagonalization with overlap

     ethr =  1.00E-02,  avg # of iterations =  6.8

     Threshold (ethr) on eigenvalues was too large:
     Diagonalizing with lowered threshold

     Davidson diagonalization with overlap

[...]

     negative rho (up, down):  8.612E-02 0.000E+00

     total energy              =   -1270.23509045 Ry
     estimated scf accuracy    <       0.66730082 Ry

[...]

     negative rho (up, down):  8.544E-03 0.000E+00

[...]

     total energy              =   -1270.43770004 Ry
     estimated scf accuracy    <       0.00000190 Ry

     iteration # 11     ecut=    30.00 Ry     beta= 0.70
     Davidson diagonalization with overlap

     ethr =  2.21E-09,  avg # of iterations =  2.0

     End of self-consistent calculation

          k = 0.0000 0.0000 0.0000 (  3913 PWs)   bands (ev):

   -84.5286 -84.5283 -47.6447 -47.6441 -47.5552 -47.5497 -47.5220 -47.5212
   -19.8283 -14.1692 -14.1689 -14.1555 -14.0869 -14.0758  -5.6913  -5.1196
    -5.0802  -5.0666  -4.4345  -4.3634  -4.3526   0.6998   2.6645   2.9848
     3.0020   3.1833   3.2581   4.0115   4.0254   4.1016   4.2125   4.2497
     4.2582   4.4534   5.0702   5.4560   5.6048   5.7457   5.7709   6.4176
     6.4222   6.5253   6.5346   8.4337  10.3867  10.6490  11.7726  12.1213
    12.1531  12.3603  12.3607  12.6192  12.9193  13.0106  13.7473  14.1027
    14.1115  14.5175  14.9763  15.8779  16.0204  16.1971  16.7233  16.9728

     occupation numbers
     1.0000   1.0000   1.0000   1.0000   1.0000   1.0000   1.0000   1.0000
     1.0000   1.0000   1.0000   1.0000   1.0000   1.0000   1.0000   1.0000
     1.0000   1.0000   1.0000   1.0000   1.0000   1.0000   1.0000   1.0000
     1.0000   1.0000   1.0000   1.0000   1.0000   1.0000   1.0000   1.0000
     1.0000   1.0000   1.0000   1.0000   1.0000   1.0000   1.0000   1.0000
     1.0000   1.0000   1.0000   0.0000   0.0000   0.0000   0.0000   0.0000
     0.0000   0.0000   0.0000   0.0000   0.0000   0.0000   0.0000   0.0000
     0.0000   0.0000   0.0000   0.0000   0.0000   0.0000   0.0000   0.0000

[...]

          k = 0.3333-0.2782-0.4544 (  3902 PWs)   bands (ev):

   -84.5285 -84.5283 -47.6431 -47.6424 -47.5536 -47.5493 -47.5209 -47.5206
   -19.8276 -14.1687 -14.1686 -14.1552 -14.0869 -14.0758  -5.5240  -5.4849
    -5.2953  -5.0005  -4.3656  -4.3193  -4.0748   0.5474   2.8172   2.9461
     3.2639   3.5862   3.8141   3.9040   3.9928   4.0353   4.2083   4.3096
     4.3282   4.3554   4.7740   4.8584   5.3627   5.5229   5.7844   5.8026
     6.2696   6.6035   7.4910   9.6206  10.2895  10.5654  10.8422  11.0869
    11.7628  12.2634  12.2763  12.7170  12.9125  13.3271  13.4197  13.8465
    14.2668  14.9917  15.0168  15.5901  15.8120  16.2479  16.4860  17.1991

     occupation numbers
     1.0000   1.0000   1.0000   1.0000   1.0000   1.0000   1.0000   1.0000
     1.0000   1.0000   1.0000   1.0000   1.0000   1.0000   1.0000   1.0000
     1.0000   1.0000   1.0000   1.0000   1.0000   1.0000   1.0000   1.0000
     1.0000   1.0000   1.0000   1.0000   1.0000   1.0000   1.0000   1.0000
     1.0000   1.0000   1.0000   1.0000   1.0000   1.0000   1.0000   1.0000
     1.0000   1.0000   1.0000   0.0000   0.0000   0.0000   0.0000   0.0000
     0.0000   0.0000   0.0000   0.0000   0.0000   0.0000   0.0000   0.0000
     0.0000   0.0000   0.0000   0.0000   0.0000   0.0000   0.0000   0.0000

     highest occupied, lowest unoccupied level (ev):     7.8166    8.4337

!    total energy              =   -1270.43770009 Ry
     estimated scf accuracy    <       0.00000005 Ry

     The total energy is the sum of the following terms:
     one-electron contribution =    -512.49966710 Ry
     hartree contribution      =     288.14669307 Ry
     xc contribution           =    -155.79516736 Ry
     ewald contribution        =    -515.33770571 Ry
     one-center paw contrib.   =    -374.95185299 Ry
      -> PAW hartree energy AE =      28.48267935 Ry
      -> PAW hartree energy PS =     -28.37082878 Ry
      -> PAW xc energy AE      =    -394.18993808 Ry
      -> PAW xc energy PS      =      19.12623452 Ry
      -> total E_H with PAW    =     288.25854364 Ry
      -> total E_XC with PAW   =    -530.85887091 Ry

     convergence has been achieved in  11 iterations

     Writing all to output data dir bands_nm/myprefix.save/

     General routines

     Parallel routines

     PAW routines

   This run was terminated on:  17:59:21  14Jul2023

   JOB DONE.