     Program PWSCF v.7.1 starts on 16Jul2023 at 15:33:12

     Reading input from espresso_17312.pwi
Warning: card &CELL ignored
Warning: card / ignored

     Current dimensions of program PWSCF are:
     Max number of different atomic species (ntypx) = 10
     Max number of k-points (npk) =  40000
     Max angular momentum in pseudopotentials (lmaxx) =  4
     file Pb.pbe-dn-kjpaw_psl.0.2.2.UPF: wavefunction(s)  6S renormalized
     file O.pbe-n-kjpaw_psl.0.1.UPF: wavefunction(s)  2P renormalized

     K-points division:     npool     =       2
     R & G space division:  proc/nbgrp/npool/nimage =       4
     Subspace diagonalization in iterative solution of the eigenvalue problem:
     a serial algorithm will be used

     Using Slab Decomposition

     bravais-lattice index     =            0
     lattice parameter (alat)  =      10.9029  a.u.
     unit-cell volume          =    1422.1401 (a.u.)^3
     number of atoms/cell      =           13
     number of atomic types    =            3
     number of electrons       =       116.00
     number of Kohn-Sham states=           64
     kinetic-energy cutoff     =      30.0000  Ry
     charge density cutoff     =     240.0000  Ry
     scf convergence threshold =      1.0E-06
     mixing beta               =       0.7000
     number of iterations used =            8  plain     mixing
     Exchange-correlation= SLA  PW   PBX  PBC
                           (   1   4   3   4   0   0   0)

     celldm(1)=  10.902941  celldm(2)=   0.000000  celldm(3)=   0.000000
     celldm(4)=   0.000000  celldm(5)=   0.000000  celldm(6)=   0.000000

     crystal axes: (cart. coord. in units of alat)
               a(1) = (   1.000000   0.000000   0.000000 )
               a(2) = (   0.374091   0.927392   0.000000 )
               a(3) = (   0.477994   0.322605   1.183173 )

     reciprocal axes: (cart. coord. in units 2 pi/alat)
               b(1) = (  1.000000 -0.403380 -0.294008 )
               b(2) = (  0.000000  1.078293 -0.294008 )
               b(3) = (  0.000000  0.000000  0.845185 )

     PseudoPot. # 1 for V  read from file:
     /lustre07/scratch/pragov/crystal_structure_design/utils/SSSP/v_pbe_v1.4.uspp.F.UPF
     MD5 check sum: 22b79981416ebb76fdaf5b1b8640f6fb
     Pseudo is Ultrasoft + core correction, Zval = 13.0
     Generated by new atomic code, or converted to UPF format
     Using radial grid of  853 points,  6 beta functions with:
                l(1) =   0
                l(2) =   0
                l(3) =   1
                l(4) =   1
                l(5) =   2
                l(6) =   2
     Q(r) pseudized with  8 coefficients,  rinner =    1.100   1.100   1.100
                                                       1.100   1.100

     PseudoPot. # 2 for Pb read from file:
     /lustre07/scratch/pragov/crystal_structure_design/utils/SSSP/Pb.pbe-dn-kjpaw_psl.0.2.2.UPF
     MD5 check sum: 9d431e6316058b74ade52399a6cf67da
     Pseudo is Projector augmented-wave + core cor, Zval = 14.0
     Generated using "atomic" code by A. Dal Corso  v.5.0.99 svn rev. 10869
     Shape of augmentation charge: PSQ
     Using radial grid of 1281 points,  6 beta functions with:
                l(1) =   0
                l(2) =   0
                l(3) =   1
                l(4) =   1
                l(5) =   2
                l(6) =   2
     Q(r) pseudized with 0 coefficients

     PseudoPot. # 3 for O  read from file:
     /lustre07/scratch/pragov/crystal_structure_design/utils/SSSP/O.pbe-n-kjpaw_psl.0.1.UPF
     MD5 check sum: 0234752ac141de4415c5fc33072bef88
     Pseudo is Projector augmented-wave + core cor, Zval =  6.0
     Generated using "atomic" code by A. Dal Corso  v.5.0.99 svn rev. 10869
     Shape of augmentation charge: BESSEL
     Using radial grid of 1095 points,  4 beta functions with:
                l(1) =   0
                l(2) =   0
                l(3) =   1
                l(4) =   1
     Q(r) pseudized with 0 coefficients

     atomic species   valence    mass     pseudopotential
        V             13.00    50.94150     V ( 1.00)
        Pb            14.00   207.20000     Pb( 1.00)
        O              6.00    15.99900     O ( 1.00)

     No symmetry found

                                    s                        frac. trans.

      isym =  1     identity

 cryst.   s( 1) = (     1          0          0      )
                  (     0          1          0      )
                  (     0          0          1      )

 cart.    s( 1) = (  1.0000000 -0.0000000  0.0000000 )
                  (  0.0000000  1.0000000  0.0000000 )
                  (  0.0000000  0.0000000  1.0000000 )

   Cartesian axes

     site n.     atom                  positions (alat units)
         1           V   tau(   1) = (   0.9384231   0.6307576   0.9466658  )
         2           V   tau(   2) = (   0.9160701   0.6156713   0.2365067  )
         3           Pb  tau(   3) = (   1.3955329   0.8544837   0.7371520  )
         4           Pb  tau(   4) = (   0.5375876   0.2754452   0.4460206  )
         5           Pb  tau(   5) = (   0.3825565   0.9148490   0.0000000  )
         6           O   tau(   6) = (   0.4201307   0.2203906   0.0488816  )
         7           O   tau(   7) = (   1.4905298   0.9428169   1.1342910  )
         8           O   tau(   8) = (   0.6916573   0.5399043   0.7959746  )
         9           O   tau(   9) = (   1.0926396   0.8105325   0.3871980  )
        10           O   tau(  10) = (   0.9815487   0.9311631   0.9098100  )
        11           O   tau(  11) = (   0.9322555   0.3305221   0.3410779  )
        12           O   tau(  12) = (   1.1968133   0.5090756   0.8420947  )
        13           O   tau(  13) = (   0.6213436   0.6880560   0.2733626  )

   Crystallographic axes

     site n.     atom                  positions (cryst. coord.)
         1           V   tau(   1) = (  0.4056610  0.4018140  0.8001080  )
         2           V   tau(   2) = (  0.5981860  0.5943390  0.1998920  )
         3           Pb  tau(   3) = (  0.8341230  0.7046550  0.6230300  )
         4           Pb  tau(   4) = (  0.2953450  0.1658770  0.3769700  )
         5           Pb  tau(   5) = (  0.0135250  0.9864750  0.0000000  )
         6           O   tau(   6) = (  0.3168580  0.2232740  0.0413140  )
         7           O   tau(   7) = (  0.7767260  0.6831420  0.9586860  )
         8           O   tau(   8) = (  0.2398480  0.3481520  0.6727460  )
         9           O   tau(   9) = (  0.6518480  0.7601520  0.3272540  )
        10           O   tau(  10) = (  0.3384450  0.7365750  0.7689580  )
        11           O   tau(  11) = (  0.6986500  0.2561200  0.2882740  )
        12           O   tau(  12) = (  0.7438800  0.3013500  0.7117260  )
        13           O   tau(  13) = (  0.2634250  0.6615550  0.2310420  )

     number of k points=    14
                       cart. coord. in units 2pi/alat
        k(    1) = (   0.0000000   0.0000000   0.0000000), wk =   0.0740741
        k(    2) = (   0.0000000   0.0000000   0.2817284), wk =   0.1481481
        k(    3) = (   0.0000000   0.3594309  -0.0980027), wk =   0.1481481
        k(    4) = (   0.0000000   0.3594309   0.1837258), wk =   0.1481481
        k(    5) = (   0.0000000   0.3594309  -0.3797311), wk =   0.1481481
        k(    6) = (   0.3333333  -0.1344599  -0.0980027), wk =   0.1481481
        k(    7) = (   0.3333333  -0.1344599   0.1837258), wk =   0.1481481
        k(    8) = (   0.3333333  -0.1344599  -0.3797311), wk =   0.1481481
        k(    9) = (   0.3333333   0.2249710  -0.1960053), wk =   0.1481481
        k(   10) = (   0.3333333   0.2249710   0.0857231), wk =   0.1481481
        k(   11) = (   0.3333333   0.2249710  -0.4777337), wk =   0.1481481
        k(   12) = (   0.3333333  -0.4938908   0.0000000), wk =   0.1481481
        k(   13) = (   0.3333333  -0.4938908   0.2817284), wk =   0.1481481
        k(   14) = (   0.3333333  -0.4938908  -0.2817284), wk =   0.1481481

                       cryst. coord.
        k(    1) = (   0.0000000   0.0000000   0.0000000), wk =   0.0740741
        k(    2) = (   0.0000000   0.0000000   0.3333333), wk =   0.1481481
        k(    3) = (   0.0000000   0.3333333  -0.0000000), wk =   0.1481481
        k(    4) = (   0.0000000   0.3333333   0.3333333), wk =   0.1481481
        k(    5) = (   0.0000000   0.3333333  -0.3333333), wk =   0.1481481
        k(    6) = (   0.3333333   0.0000000   0.0000000), wk =   0.1481481
        k(    7) = (   0.3333333   0.0000000   0.3333333), wk =   0.1481481
        k(    8) = (   0.3333333   0.0000000  -0.3333333), wk =   0.1481481
        k(    9) = (   0.3333333   0.3333333   0.0000000), wk =   0.1481481
        k(   10) = (   0.3333333   0.3333333   0.3333333), wk =   0.1481481
        k(   11) = (   0.3333333   0.3333333  -0.3333333), wk =   0.1481481
        k(   12) = (   0.3333333  -0.3333333  -0.0000000), wk =   0.1481481
        k(   13) = (   0.3333333  -0.3333333   0.3333333), wk =   0.1481481
        k(   14) = (   0.3333333  -0.3333333  -0.3333333), wk =   0.1481481

     Check: negative core charge=   -0.000011

     Initial potential from superposition of free atoms

     starting charge     115.9905, renormalised to     116.0000

     negative rho (up, down):  3.222E-04 0.000E+00
     Starting wfcs are   79 randomized atomic wfcs
     Checking if some PAW data can be deallocated...

     Self-consistent Calculation

     iteration #  1     ecut=    30.00 Ry     beta= 0.70
     Davidson diagonalization with overlap

     ethr =  1.00E-02,  avg # of iterations =  2.0

     negative rho (up, down):  5.960E-03 0.000E+00

     total energy              =   -3232.19464238 Ry
     estimated scf accuracy    <       5.12921811 Ry

[...]

     total energy              =   -3235.27377629 Ry
     estimated scf accuracy    <       0.00000293 Ry

     iteration # 14     ecut=    30.00 Ry     beta= 0.70
     Davidson diagonalization with overlap

     ethr =  2.53E-09,  avg # of iterations =  2.0

     negative rho (up, down):  3.437E-03 0.000E+00

     End of self-consistent calculation

          k = 0.0000 0.0000 0.0000 (  3981 PWs)   bands (ev):

   -57.5065 -57.5062 -31.4736 -31.4729 -31.4091 -31.4075 -31.3909 -31.3876
   -10.7151 -10.4280 -10.1704 -10.1492 -10.0507 -10.0387  -9.9951  -9.9382
    -8.7701  -8.7643  -8.7389  -8.7198  -8.7040  -8.7011  -8.6683  -8.6615
    -8.6260  -8.5497  -8.5401  -8.4599  -8.4508  -8.3369  -8.3280  -0.4649
     0.0912   0.1758   2.6116   2.6655   2.9498   3.1215   3.1725   3.3270
     3.4504   3.5717   3.6726   3.7598   4.0388   4.3762   4.3914   4.4800
     4.6464   4.7265   5.0804   5.2263   5.4852   5.5699   5.6446   5.8000
     5.9221   6.1943   9.3243   9.3733   9.6272   9.8160  10.4445  10.5448

     occupation numbers
     1.0000   1.0000   1.0000   1.0000   1.0000   1.0000   1.0000   1.0000
     1.0000   1.0000   1.0000   1.0000   1.0000   1.0000   1.0000   1.0000
     1.0000   1.0000   1.0000   1.0000   1.0000   1.0000   1.0000   1.0000
     1.0000   1.0000   1.0000   1.0000   1.0000   1.0000   1.0000   1.0000
     1.0000   1.0000   1.0000   1.0000   1.0000   1.0000   1.0000   1.0000
     1.0000   1.0000   1.0000   1.0000   1.0000   1.0000   1.0000   1.0000
     1.0000   1.0000   1.0000   1.0000   1.0000   1.0000   1.0000   1.0000
     1.0000   1.0000   0.0000   0.0000   0.0000   0.0000   0.0000   0.0000

[...]

          k = 0.3333-0.4939-0.2817 (  3936 PWs)   bands (ev):

   -57.5063 -57.5060 -31.4724 -31.4720 -31.4075 -31.4070 -31.3887 -31.3879
   -10.4884 -10.4058 -10.2154 -10.1477 -10.1040 -10.0635 -10.0256  -9.9691
    -8.7620  -8.7439  -8.7346  -8.7257  -8.7088  -8.6991  -8.6633  -8.6520
    -8.6251  -8.6112  -8.5498  -8.4959  -8.4294  -8.3781  -8.3458  -0.3937
    -0.3242  -0.1026   2.6453   2.8638   3.0108   3.2162   3.3135   3.4110
     3.5950   3.7960   3.8355   4.0230   4.1661   4.3863   4.4447   4.6545
     4.7757   4.8862   4.9839   5.1317   5.3697   5.5020   5.6257   5.7253
     5.9355   6.1010   9.4112   9.5872   9.6495   9.7646  10.2826  10.3487

     occupation numbers
     1.0000   1.0000   1.0000   1.0000   1.0000   1.0000   1.0000   1.0000
     1.0000   1.0000   1.0000   1.0000   1.0000   1.0000   1.0000   1.0000
     1.0000   1.0000   1.0000   1.0000   1.0000   1.0000   1.0000   1.0000
     1.0000   1.0000   1.0000   1.0000   1.0000   1.0000   1.0000   1.0000
     1.0000   1.0000   1.0000   1.0000   1.0000   1.0000   1.0000   1.0000
     1.0000   1.0000   1.0000   1.0000   1.0000   1.0000   1.0000   1.0000
     1.0000   1.0000   1.0000   1.0000   1.0000   1.0000   1.0000   1.0000
     1.0000   1.0000   0.0000   0.0000   0.0000   0.0000   0.0000   0.0000

     highest occupied, lowest unoccupied level (ev):     6.3903    9.2027

!    total energy              =   -3235.27377601 Ry
     estimated scf accuracy    <       0.00000068 Ry

     The total energy is the sum of the following terms:
     one-electron contribution =    -393.41119699 Ry
     hartree contribution      =     267.57883126 Ry
     xc contribution           =    -231.21715843 Ry
     ewald contribution        =    -616.52800560 Ry
     one-center paw contrib.   =   -2261.69624625 Ry
      -> PAW hartree energy AE =       0.00000000 Ry
      -> PAW hartree energy PS =       0.00000000 Ry
      -> PAW xc energy AE      =       0.00000000 Ry
      -> PAW xc energy PS      =       0.00000000 Ry
      -> total E_H with PAW    =     267.57883126 Ry
      -> total E_XC with PAW   =    -231.21715843 Ry

     convergence has been achieved in  14 iterations

     Writing all to output data dir bands_nm/myprefix.save/

     General routines

     Parallel routines

     PAW routines

   This run was terminated on:  15:33:28  16Jul2023

   JOB DONE.