     Program PWSCF v.7.1 starts on 16Jul2023 at 18: 7: 3

     Reading input from espresso_3477.pwi
Warning: card &CELL ignored
Warning: card / ignored

     Current dimensions of program PWSCF are:
     Max number of different atomic species (ntypx) = 10
     Max number of k-points (npk) =  40000
     Max angular momentum in pseudopotentials (lmaxx) =  4
     file O.pbe-n-kjpaw_psl.0.1.UPF: wavefunction(s)  2P renormalized
     Message from routine setup:
     using ibrav=0 with symmetry is DISCOURAGED, use correct ibrav instead

     K-points division:     npool     =       2
     R & G space division:  proc/nbgrp/npool/nimage =       4
     Subspace diagonalization in iterative solution of the eigenvalue problem:
     one sub-group per band group will be used

     Using Slab Decomposition

     bravais-lattice index     =            0
     lattice parameter (alat)  =      10.7650  a.u.
     unit-cell volume          =    1693.8261 (a.u.)^3
     number of atoms/cell      =           20
     number of atomic types    =            4
     number of electrons       =       164.00
     number of Kohn-Sham states=          256
     kinetic-energy cutoff     =      30.0000  Ry
     charge density cutoff     =     240.0000  Ry
     scf convergence threshold =      1.0E-06
     mixing beta               =       0.7000
     number of iterations used =            8  plain     mixing
     Exchange-correlation= SLA  PW   PBX  PBC
                           (   1   4   3   4   0   0   0)

     celldm(1)=  10.765016  celldm(2)=   0.000000  celldm(3)=   0.000000
     celldm(4)=   0.000000  celldm(5)=   0.000000  celldm(6)=   0.000000

     crystal axes: (cart. coord. in units of alat)
               a(1) = (   1.000000   0.000000   0.000000 )
               a(2) = (   0.000000   0.974376   0.000000 )
               a(3) = (   0.000000   0.973693   1.393473 )

     reciprocal axes: (cart. coord. in units 2 pi/alat)
               b(1) = (  1.000000  0.000000  0.000000 )
               b(2) = (  0.000000  1.026298 -0.717129 )
               b(3) = (  0.000000  0.000000  0.717632 )

     PseudoPot. # 1 for Ca read from file:
     /lustre07/scratch/pragov/crystal_structure_design/utils/SSSP/Ca_pbe_v1.uspp.F.UPF
     MD5 check sum: 403a4c14b9e4d4dfdc3024c9a3812218
     Pseudo is Ultrasoft + core correction, Zval = 10.0
     Generated by new atomic code, or converted to UPF format
     Using radial grid of  845 points,  6 beta functions with:
                l(1) =   0
                l(2) =   0
                l(3) =   1
                l(4) =   1
                l(5) =   2
                l(6) =   2
     Q(r) pseudized with  8 coefficients,  rinner =    1.500   1.500   1.500
                                                       1.500   1.500

     PseudoPot. # 2 for Sc read from file:
     /lustre07/scratch/pragov/crystal_structure_design/utils/SSSP/Sc_ONCV_PBE-1.0.oncvpsp.upf
     MD5 check sum: e21af8023abb52e52cb7cd3133e4a229
     Pseudo is Norm-conserving, Zval = 11.0
     Generated using ONCVPSP code by D. R. Hamann
     Using radial grid of 1662 points,  6 beta functions with:
                l(1) =   0
                l(2) =   0
                l(3) =   1
                l(4) =   1
                l(5) =   2
                l(6) =   2

     PseudoPot. # 3 for Sb read from file:
     /lustre07/scratch/pragov/crystal_structure_design/utils/SSSP/sb_pbe_v1.4.uspp.F.UPF
     MD5 check sum: 9bc50dfb53373b713f5709b9110fe27f
     Pseudo is Ultrasoft + core correction, Zval = 15.0
     Generated by new atomic code, or converted to UPF format
     Using radial grid of  891 points,  6 beta functions with:
                l(1) =   0
                l(2) =   0
                l(3) =   1
                l(4) =   1
                l(5) =   2
                l(6) =   2
     Q(r) pseudized with  8 coefficients,  rinner =    1.350   1.350   1.350
                                                       1.350   1.350

     PseudoPot. # 4 for O  read from file:
     /lustre07/scratch/pragov/crystal_structure_design/utils/SSSP/O.pbe-n-kjpaw_psl.0.1.UPF
     MD5 check sum: 0234752ac141de4415c5fc33072bef88
     Pseudo is Projector augmented-wave + core cor, Zval =  6.0
     Generated using "atomic" code by A. Dal Corso  v.5.0.99 svn rev. 10869
     Shape of augmentation charge: BESSEL
     Using radial grid of 1095 points,  4 beta functions with:
                l(1) =   0
                l(2) =   0
                l(3) =   1
                l(4) =   1
     Q(r) pseudized with 0 coefficients

     atomic species   valence    mass     pseudopotential
        Ca            10.00    40.07800     Ca( 1.00)
        Sc            11.00    44.95591     Sc( 1.00)
        Sb            15.00   121.76000     Sb( 1.00)
        O              6.00    15.99900     O ( 1.00)

      4 Sym. Ops., with inversion, found ( 2 have fractional translation)

                                    s                        frac. trans.

      isym =  1     identity

 cryst.   s( 1) = (     1          0          0      )
                  (     0          1          0      )
                  (     0          0          1      )

 cart.    s( 1) = (  1.0000000  0.0000000  0.0000000 )
                  (  0.0000000  1.0000000  0.0000000 )
                  (  0.0000000  0.0000000  1.0000000 )

      isym =  2     180 deg rotation - cart. axis [1,0,0]

 cryst.   s( 2) = (     1          0          0      )    f =(  0.5000000 )
                  (     0         -1          0      )       ( -0.0000000 )
                  (     0          0         -1      )       ( -0.5000000 )

 cart.    s( 2) = (  1.0000000  0.0000000  0.0000000 )    f =(  0.5000000 )
                  (  0.0000000 -1.0000000  0.0000000 )       ( -0.4868465 )
                  (  0.0000000  0.0000000 -1.0000000 )       ( -0.6967363 )

      isym =  3     inversion

 cryst.   s( 3) = (    -1          0          0      )
                  (     0         -1          0      )
                  (     0          0         -1      )

 cart.    s( 3) = ( -1.0000000  0.0000000  0.0000000 )
                  (  0.0000000 -1.0000000  0.0000000 )
                  (  0.0000000  0.0000000 -1.0000000 )

      isym =  4     inv. 180 deg rotation - cart. axis [1,0,0]

 cryst.   s( 4) = (    -1          0          0      )    f =(  0.5000000 )
                  (     0          1          0      )       ( -0.0000000 )
                  (     0          0          1      )       ( -0.5000000 )

 cart.    s( 4) = ( -1.0000000  0.0000000  0.0000000 )    f =(  0.5000000 )
                  (  0.0000000  1.0000000  0.0000000 )       ( -0.4868465 )
                  (  0.0000000  0.0000000  1.0000000 )       ( -0.6967363 )

   Cartesian axes

     site n.     atom                  positions (alat units)
         1           Ca  tau(   1) = (   0.5481860   1.4742395   1.0455698  )
         2           Ca  tau(   2) = (   0.9518140   0.9873929   0.3488336  )
         3           Ca  tau(   3) = (   0.4518140   0.4738292   0.3479027  )
         4           Ca  tau(   4) = (   0.0481860   0.9606758   1.0446390  )
         5           Sc  tau(   5) = (   0.5000000   0.9740343   0.6967363  )
         6           Sc  tau(   6) = (   0.0000000   0.4871878   0.0000000  )
         7           Sb  tau(   7) = (   0.0000000   0.4868465   0.6967363  )
         8           Sb  tau(   8) = (   0.5000000   0.0000000   0.0000000  )
         9           O   tau(   9) = (   0.7998530   0.7686485   0.7665618  )
        10           O   tau(  10) = (   0.7001470   0.2818020   0.0698255  )
        11           O   tau(  11) = (   0.2001470   1.1794201   0.6269107  )
        12           O   tau(  12) = (   0.2998530   1.6662667   1.3236470  )
        13           O   tau(  13) = (   0.7875830   1.7568138   1.3190290  )
        14           O   tau(  14) = (   0.7124170   1.2699672   0.6222928  )
        15           O   tau(  15) = (   0.2124170   0.1912549   0.0744435  )
        16           O   tau(  16) = (   0.2875830   0.6781014   0.7711797  )
        17           O   tau(  17) = (   0.9662640   1.3657129   1.0349474  )
        18           O   tau(  18) = (   0.5337360   0.8788663   0.3382111  )
        19           O   tau(  19) = (   0.0337360   0.5823558   0.3585252  )
        20           O   tau(  20) = (   0.4662640   1.0692024   1.0552614  )

   Crystallographic axes

     site n.     atom                  positions (cryst. coord.)
         1           Ca  tau(   1) = (  0.5481860  0.7632010  0.7503340  )
         2           Ca  tau(   2) = (  0.9518140  0.7632010  0.2503340  )
         3           Ca  tau(   3) = (  0.4518140  0.2367990  0.2496660  )
         4           Ca  tau(   4) = (  0.0481860  0.2367990  0.7496660  )
         5           Sc  tau(   5) = (  0.5000000  0.5000000  0.5000000  )
         6           Sc  tau(   6) = (  0.0000000  0.5000000  0.0000000  )
         7           Sb  tau(   7) = (  0.0000000  0.0000000  0.5000000  )
         8           Sb  tau(   8) = (  0.5000000  0.0000000  0.0000000  )
         9           O   tau(   9) = (  0.7998530  0.2391390  0.5501090  )
        10           O   tau(  10) = (  0.7001470  0.2391390  0.0501090  )
        11           O   tau(  11) = (  0.2001470  0.7608610  0.4498910  )
        12           O   tau(  12) = (  0.2998530  0.7608610  0.9498910  )
        13           O   tau(  13) = (  0.7875830  0.8571010  0.9465770  )
        14           O   tau(  14) = (  0.7124170  0.8571010  0.4465770  )
        15           O   tau(  15) = (  0.2124170  0.1428990  0.0534230  )
        16           O   tau(  16) = (  0.2875830  0.1428990  0.5534230  )
        17           O   tau(  17) = (  0.9662640  0.6594380  0.7427110  )
        18           O   tau(  18) = (  0.5337360  0.6594380  0.2427110  )
        19           O   tau(  19) = (  0.0337360  0.3405620  0.2572890  )
        20           O   tau(  20) = (  0.4662640  0.3405620  0.7572890  )

     number of k points=    10
                       cart. coord. in units 2pi/alat
        k(    1) = (   0.0000000   0.0000000   0.0000000), wk =   0.0740741
        k(    2) = (   0.0000000   0.0000000   0.2392106), wk =   0.1481481
        k(    3) = (   0.0000000   0.3420994  -0.2390430), wk =   0.1481481
        k(    4) = (   0.0000000   0.3420994   0.0001676), wk =   0.1481481
        k(    5) = (   0.0000000   0.3420994  -0.4782535), wk =   0.1481481
        k(    6) = (   0.3333333   0.0000000   0.0000000), wk =   0.1481481
        k(    7) = (   0.3333333   0.0000000   0.2392106), wk =   0.2962963
        k(    8) = (   0.3333333   0.3420994  -0.2390430), wk =   0.2962963
        k(    9) = (   0.3333333   0.3420994   0.0001676), wk =   0.2962963
        k(   10) = (   0.3333333   0.3420994  -0.4782535), wk =   0.2962963

                       cryst. coord.
        k(    1) = (   0.0000000   0.0000000   0.0000000), wk =   0.0740741
        k(    2) = (   0.0000000   0.0000000   0.3333333), wk =   0.1481481
        k(    3) = (   0.0000000   0.3333333   0.0000000), wk =   0.1481481
        k(    4) = (   0.0000000   0.3333333   0.3333333), wk =   0.1481481
        k(    5) = (   0.0000000   0.3333333  -0.3333333), wk =   0.1481481
        k(    6) = (   0.3333333   0.0000000   0.0000000), wk =   0.1481481
        k(    7) = (   0.3333333   0.0000000   0.3333333), wk =   0.2962963
        k(    8) = (   0.3333333   0.3333333   0.0000000), wk =   0.2962963
        k(    9) = (   0.3333333   0.3333333   0.3333333), wk =   0.2962963
        k(   10) = (   0.3333333   0.3333333  -0.3333333), wk =   0.2962963

     Check: negative core charge=   -0.000013

     Initial potential from superposition of free atoms

     starting charge     161.9728, renormalised to     164.0000
     Starting wfcs are  126 randomized atomic wfcs +  130 random wfcs
     Checking if some PAW data can be deallocated...

     Self-consistent Calculation

     iteration #  1     ecut=    30.00 Ry     beta= 0.70
     Davidson diagonalization with overlap

     ethr =  1.00E-02,  avg # of iterations =  6.0

     total energy              =   -1352.81777407 Ry
     estimated scf accuracy    <       4.06118947 Ry

[...]

     total energy              =   -1354.72408777 Ry
     estimated scf accuracy    <       0.00000101 Ry

     iteration #  9     ecut=    30.00 Ry     beta= 0.70
     Davidson diagonalization with overlap

     ethr =  6.19E-10,  avg # of iterations =  2.0

     End of self-consistent calculation

          k = 0.0000 0.0000 0.0000 (  4687 PWs)   bands (ev):

   -38.8648 -38.8647 -29.3969 -29.3922 -29.3848 -29.3805 -19.8031 -19.8021
   -19.7982 -19.7964 -19.6360 -19.6305 -19.6303 -19.6261 -19.6210 -19.6164
   -17.5784 -17.5784 -17.5722 -17.5716 -17.5472 -17.5462 -10.8900 -10.7185
   -10.7035 -10.6356 -10.6178 -10.5373 -10.5087 -10.4617 -10.4339 -10.4246
   -10.4191 -10.4190  -9.4482  -8.7616  -7.9549  -7.7935  -7.7446  -7.7240
    -7.5826  -7.5193  -7.3801  -7.2026  -7.1739  -7.0996   0.7780   0.9784
     4.3368   4.5643   4.5841   4.5942   4.6668   5.0185   5.1076   5.6534
     5.6959   5.7232   5.8154   6.3750   6.4584   6.4748   6.5145   6.6733
     7.1717   7.1778   7.1849   7.1988   7.2997   7.3617   7.4665   7.6774
     7.7362   7.7718   7.8274   8.0166   8.0180   8.0439   8.0781   8.1057
     8.1553   8.1670  11.9838  12.2785  13.6526  13.6959  13.7519  13.9333
    14.0492  14.2666  14.9818  14.9962  15.1093  15.1337  15.4091  15.4508
    15.9454  16.0241  16.0401  16.0728  16.3141  16.3926  16.4274  16.4472
    16.4515  16.5561  16.6835  16.7142  16.8144  16.8561  16.9331  17.0141
    17.0568  17.0999  17.4315  17.4331  17.7908  18.0515  18.3517  18.6224
    18.9801  19.0708  19.5238  19.7804  20.0181  21.2719  21.4899  21.5292
    21.6818  21.9185  22.5518  22.7862  22.8346  22.8905  23.1607  23.2992
    23.6751  24.0273  24.5870  24.7809  24.8342  24.9003  24.9832  25.1585
    25.1917  25.3143  25.5627  26.2196  26.3637  26.4955  26.7143  27.0824
    27.4289  27.7108  28.1035  29.1166  29.4410  29.5334  29.7766  29.7960
    29.8710  29.9866  30.5150  30.7639  30.8660  30.9977  31.0057  31.5007
    31.5369  31.8934  32.1072  32.2987  32.3464  32.4853  32.5308  32.7556
    33.1695  33.1805  33.6587  33.6604  34.0083  34.0965  34.1777  34.5921
    35.0476  35.4582  35.4977  35.8141  35.9726  36.1134  36.5756  36.6074
    36.9100  37.1317  37.1638  37.2762  37.3264  37.4880  37.7696  37.8907
    38.0331  38.0558  38.4431  38.7562  38.9028  39.0178  39.1466  39.2267
    39.3272  39.3552  39.5868  39.6861  40.0844  40.1765  40.5744  40.5896
    40.7168  41.0343  41.0531  41.1344  41.1583  41.3079  41.5285  41.5701
    41.5915  41.6764  42.0732  42.2851  42.3997  42.5836  42.6766  42.9887
    43.0518  43.2677  43.2845  43.4015  43.6166  43.6307  43.7598  43.9102
    44.1713  44.2999  44.3818  44.4945  44.6682  44.8865  45.1165  45.2363
    45.2722  45.3480  45.7692  45.9444  46.0082  46.1618  46.1754  46.1756

     occupation numbers
     1.0000   1.0000   1.0000   1.0000   1.0000   1.0000   1.0000   1.0000
     1.0000   1.0000   1.0000   1.0000   1.0000   1.0000   1.0000   1.0000
     1.0000   1.0000   1.0000   1.0000   1.0000   1.0000   1.0000   1.0000
     1.0000   1.0000   1.0000   1.0000   1.0000   1.0000   1.0000   1.0000
     1.0000   1.0000   1.0000   1.0000   1.0000   1.0000   1.0000   1.0000
     1.0000   1.0000   1.0000   1.0000   1.0000   1.0000   1.0000   1.0000
     1.0000   1.0000   1.0000   1.0000   1.0000   1.0000   1.0000   1.0000
     1.0000   1.0000   1.0000   1.0000   1.0000   1.0000   1.0000   1.0000
     1.0000   1.0000   1.0000   1.0000   1.0000   1.0000   1.0000   1.0000
     1.0000   1.0000   1.0000   1.0000   1.0000   1.0000   1.0000   1.0000
     1.0000   1.0000   0.0000   0.0000   0.0000   0.0000   0.0000   0.0000
     0.0000   0.0000   0.0000   0.0000   0.0000   0.0000   0.0000   0.0000
     0.0000   0.0000   0.0000   0.0000   0.0000   0.0000   0.0000   0.0000
     0.0000   0.0000   0.0000   0.0000   0.0000   0.0000   0.0000   0.0000
     0.0000   0.0000   0.0000   0.0000   0.0000   0.0000   0.0000   0.0000
     0.0000   0.0000   0.0000   0.0000   0.0000   0.0000   0.0000   0.0000
     0.0000   0.0000   0.0000   0.0000   0.0000   0.0000   0.0000   0.0000
     0.0000   0.0000   0.0000   0.0000   0.0000   0.0000   0.0000   0.0000
     0.0000   0.0000   0.0000   0.0000   0.0000   0.0000   0.0000   0.0000
     0.0000   0.0000   0.0000   0.0000   0.0000   0.0000   0.0000   0.0000
     0.0000   0.0000   0.0000   0.0000   0.0000   0.0000   0.0000   0.0000
     0.0000   0.0000   0.0000   0.0000   0.0000   0.0000   0.0000   0.0000
     0.0000   0.0000   0.0000   0.0000   0.0000   0.0000   0.0000   0.0000
     0.0000   0.0000   0.0000   0.0000   0.0000   0.0000   0.0000   0.0000
     0.0000   0.0000   0.0000   0.0000   0.0000   0.0000   0.0000   0.0000
     0.0000   0.0000   0.0000   0.0000   0.0000   0.0000   0.0000   0.0000
     0.0000   0.0000   0.0000   0.0000   0.0000   0.0000   0.0000   0.0000
     0.0000   0.0000   0.0000   0.0000   0.0000   0.0000   0.0000   0.0000
     0.0000   0.0000   0.0000   0.0000   0.0000   0.0000   0.0000   0.0000
     0.0000   0.0000   0.0000   0.0000   0.0000   0.0000   0.0000   0.0000
     0.0000   0.0000   0.0000   0.0000   0.0000   0.0000   0.0000   0.0000
     0.0000   0.0000   0.0000   0.0000   0.0000   0.0000   0.0000   0.0000

[...]

          k = 0.3333 0.3421-0.4783 (  4697 PWs)   bands (ev):

   -38.8648 -38.8648 -29.3913 -29.3893 -29.3878 -29.3858 -19.8072 -19.8052
   -19.7982 -19.7974 -19.6343 -19.6334 -19.6299 -19.6294 -19.6223 -19.6203
   -17.5794 -17.5780 -17.5719 -17.5706 -17.5472 -17.5461 -10.8502 -10.8133
   -10.7178 -10.6869 -10.6345 -10.5932 -10.5176 -10.5021 -10.4717 -10.4636
   -10.4181 -10.4088  -8.8028  -8.7613  -7.9831  -7.8732  -7.8640  -7.7909
    -7.7327  -7.6699  -7.2335  -7.2226  -7.0762  -7.0470   1.1289   1.1614
     4.0894   4.1323   4.3266   4.5135   4.6356   4.7727   5.5275   5.6429
     5.9511   6.1320   6.2436   6.3239   6.3475   6.4523   6.6321   6.6998
     6.7467   7.0185   7.0655   7.0952   7.2815   7.3159   7.3574   7.4502
     7.5591   7.7042   7.7512   7.7796   7.8479   7.9248   7.9534   8.0539
     8.1777   8.2268  12.6051  12.6947  13.6720  13.7704  13.7977  13.8719
    14.0418  14.1084  15.2132  15.2987  15.4092  15.5148  15.5930  15.7035
    15.7612  15.9243  15.9785  16.1059  16.1567  16.1754  16.2985  16.3089
    16.4448  16.5097  16.6112  16.7020  16.7640  16.8824  16.9613  17.0166
    17.1003  17.1566  17.4840  17.8196  18.2310  18.3587  18.6085  18.8002
    19.0681  19.2987  19.8866  20.0763  20.5006  20.9345  21.0913  21.1407
    21.3194  21.4504  22.1371  22.4306  22.5106  22.7718  22.9755  23.1936
    23.6893  23.8254  24.0663  24.3163  24.5360  24.8312  25.2085  25.4821
    25.5690  25.7212  25.8844  25.9645  26.1821  26.1902  26.8103  27.0404
    27.3913  27.7415  27.8464  28.5261  28.5617  28.9589  29.4079  29.7403
    29.8598  29.9852  30.3309  30.7249  30.8287  31.1356  31.3187  31.6162
    31.7518  32.2057  32.3386  32.5512  32.8948  33.2111  33.3936  33.5124
    33.6254  33.6732  33.8154  33.9671  34.2529  34.5170  34.5369  34.6666
    34.8027  35.1749  35.2911  35.5282  35.7059  35.8022  36.0375  36.1783
    36.3550  36.5088  36.7969  37.0589  37.2733  37.4874  37.5952  37.8494
    37.9729  38.0191  38.3127  38.3435  38.6187  38.9435  39.0269  39.4046
    39.8199  39.9898  40.0338  40.0823  40.2047  40.3845  40.6527  40.7830
    40.8375  41.0470  41.2280  41.3583  41.4739  41.4912  41.5435  41.7277
    41.7423  41.7785  42.0261  42.1866  42.4533  42.5800  42.7852  42.9510
    43.0176  43.1681  43.3216  43.5405  43.7381  43.7542  43.9411  43.9703
    44.1715  44.3035  44.4463  44.5872  44.6842  44.8209  44.9933  45.1052
    45.3722  45.5114  45.7153  45.7677  46.0053  46.2329  46.2869  46.3241

     occupation numbers
     1.0000   1.0000   1.0000   1.0000   1.0000   1.0000   1.0000   1.0000
     1.0000   1.0000   1.0000   1.0000   1.0000   1.0000   1.0000   1.0000
     1.0000   1.0000   1.0000   1.0000   1.0000   1.0000   1.0000   1.0000
     1.0000   1.0000   1.0000   1.0000   1.0000   1.0000   1.0000   1.0000
     1.0000   1.0000   1.0000   1.0000   1.0000   1.0000   1.0000   1.0000
     1.0000   1.0000   1.0000   1.0000   1.0000   1.0000   1.0000   1.0000
     1.0000   1.0000   1.0000   1.0000   1.0000   1.0000   1.0000   1.0000
     1.0000   1.0000   1.0000   1.0000   1.0000   1.0000   1.0000   1.0000
     1.0000   1.0000   1.0000   1.0000   1.0000   1.0000   1.0000   1.0000
     1.0000   1.0000   1.0000   1.0000   1.0000   1.0000   1.0000   1.0000
     1.0000   1.0000   0.0000   0.0000   0.0000   0.0000   0.0000   0.0000
     0.0000   0.0000   0.0000   0.0000   0.0000   0.0000   0.0000   0.0000
     0.0000   0.0000   0.0000   0.0000   0.0000   0.0000   0.0000   0.0000
     0.0000   0.0000   0.0000   0.0000   0.0000   0.0000   0.0000   0.0000
     0.0000   0.0000   0.0000   0.0000   0.0000   0.0000   0.0000   0.0000
     0.0000   0.0000   0.0000   0.0000   0.0000   0.0000   0.0000   0.0000
     0.0000   0.0000   0.0000   0.0000   0.0000   0.0000   0.0000   0.0000
     0.0000   0.0000   0.0000   0.0000   0.0000   0.0000   0.0000   0.0000
     0.0000   0.0000   0.0000   0.0000   0.0000   0.0000   0.0000   0.0000
     0.0000   0.0000   0.0000   0.0000   0.0000   0.0000   0.0000   0.0000
     0.0000   0.0000   0.0000   0.0000   0.0000   0.0000   0.0000   0.0000
     0.0000   0.0000   0.0000   0.0000   0.0000   0.0000   0.0000   0.0000
     0.0000   0.0000   0.0000   0.0000   0.0000   0.0000   0.0000   0.0000
     0.0000   0.0000   0.0000   0.0000   0.0000   0.0000   0.0000   0.0000
     0.0000   0.0000   0.0000   0.0000   0.0000   0.0000   0.0000   0.0000
     0.0000   0.0000   0.0000   0.0000   0.0000   0.0000   0.0000   0.0000
     0.0000   0.0000   0.0000   0.0000   0.0000   0.0000   0.0000   0.0000
     0.0000   0.0000   0.0000   0.0000   0.0000   0.0000   0.0000   0.0000
     0.0000   0.0000   0.0000   0.0000   0.0000   0.0000   0.0000   0.0000
     0.0000   0.0000   0.0000   0.0000   0.0000   0.0000   0.0000   0.0000
     0.0000   0.0000   0.0000   0.0000   0.0000   0.0000   0.0000   0.0000
     0.0000   0.0000   0.0000   0.0000   0.0000   0.0000   0.0000   0.0000

     highest occupied, lowest unoccupied level (ev):     8.2896   11.9838

!    total energy              =   -1354.72408800 Ry
     estimated scf accuracy    <       0.00000006 Ry

     The total energy is the sum of the following terms:
     one-electron contribution =    -376.38669361 Ry
     hartree contribution      =     281.57745564 Ry
     xc contribution           =    -250.29865540 Ry
     ewald contribution        =    -895.36315970 Ry
     one-center paw contrib.   =    -114.25303493 Ry
      -> PAW hartree energy AE =       0.00000000 Ry
      -> PAW hartree energy PS =       0.00000000 Ry
      -> PAW xc energy AE      =       0.00000000 Ry
      -> PAW xc energy PS      =       0.00000000 Ry
      -> total E_H with PAW    =     281.57745564 Ry
      -> total E_XC with PAW   =    -250.29865540 Ry

     convergence has been achieved in   9 iterations

     Writing all to output data dir bands_nm/myprefix.save/

     General routines

     Parallel routines

     PAW routines

   This run was terminated on:  18: 7:55  16Jul2023

   JOB DONE.