     Program PWSCF v.7.1 starts on 15Jul2023 at 14:27:22

     Reading input from espresso_7974.pwi
Warning: card &CELL ignored
Warning: card / ignored

     Current dimensions of program PWSCF are:
     Max number of different atomic species (ntypx) = 10
     Max number of k-points (npk) =  40000
     Max angular momentum in pseudopotentials (lmaxx) =  4
     Message from routine setup:
     the system is metallic, specify occupations
     Message from routine setup:
     using ibrav=0 with symmetry is DISCOURAGED, use correct ibrav instead

     K-points division:     npool     =       2
     R & G space division:  proc/nbgrp/npool/nimage =       4
     Subspace diagonalization in iterative solution of the eigenvalue problem:
     a serial algorithm will be used

     Using Slab Decomposition

     bravais-lattice index     =            0
     lattice parameter (alat)  =      15.2250  a.u.
     unit-cell volume          =    2495.4903 (a.u.)^3
     number of atoms/cell      =            9
     number of atomic types    =            3
     number of electrons       =        75.00 (up:  39.00, down:  36.00)
     number of Kohn-Sham states=           64
     kinetic-energy cutoff     =      30.0000  Ry
     charge density cutoff     =     240.0000  Ry
     scf convergence threshold =      1.0E-06
     mixing beta               =       0.7000
     number of iterations used =            8  plain     mixing
     Exchange-correlation= SLA  PW   PBX  PBC
                           (   1   4   3   4   0   0   0)

     celldm(1)=  15.224988  celldm(2)=   0.000000  celldm(3)=   0.000000
     celldm(4)=   0.000000  celldm(5)=   0.000000  celldm(6)=   0.000000

     crystal axes: (cart. coord. in units of alat)
               a(1) = (   1.000000   0.000000   0.000000 )
               a(2) = (   0.500000   0.866025   0.000000 )
               a(3) = (   0.500000   0.288675   0.816497 )

     reciprocal axes: (cart. coord. in units 2 pi/alat)
               b(1) = (  1.000000 -0.577350 -0.408248 )
               b(2) = (  0.000000  1.154701 -0.408248 )
               b(3) = (  0.000000  0.000000  1.224745 )

     PseudoPot. # 1 for Rb read from file:
     /lustre07/scratch/pragov/crystal_structure_design/utils/SSSP/Rb_ONCV_PBE-1.0.oncvpsp.upf
     MD5 check sum: 55a5172d6bfbce6759a58e35d43f6aa9
     Pseudo is Norm-conserving, Zval =  9.0
     Generated using ONCVPSP code by D. R. Hamann
     Using radial grid of 2308 points,  6 beta functions with:
                l(1) =   0
                l(2) =   0
                l(3) =   1
                l(4) =   1
                l(5) =   2
                l(6) =   2

     PseudoPot. # 2 for Tc read from file:
     /lustre07/scratch/pragov/crystal_structure_design/utils/SSSP/Tc_ONCV_PBE-1.0.oncvpsp.upf
     MD5 check sum: 1c2b1e6c8b361b656073c0c20ed4f60a
     Pseudo is Norm-conserving, Zval = 15.0
     Generated using ONCVPSP code by D. R. Hamann
     Using radial grid of 1492 points,  6 beta functions with:
                l(1) =   0
                l(2) =   0
                l(3) =   1
                l(4) =   1
                l(5) =   2
                l(6) =   2

     PseudoPot. # 3 for I  read from file:
     /lustre07/scratch/pragov/crystal_structure_design/utils/SSSP/I.pbe-n-kjpaw_psl.0.2.UPF
     MD5 check sum: d4ef18d9c8f18dc85e5843bca1e50dc0
     Pseudo is Projector augmented-wave + core cor, Zval =  7.0
     Generated using "atomic" code by A. Dal Corso  v.5.0.99 svn rev. 10869
     Shape of augmentation charge: PSQ
     Using radial grid of 1247 points,  4 beta functions with:
                l(1) =   0
                l(2) =   0
                l(3) =   1
                l(4) =   1
     Q(r) pseudized with 0 coefficients

     atomic species   valence    mass     pseudopotential
        Rb             9.00    85.46780     Rb( 1.00)
        Tc            15.00    97.90721     Tc( 1.00)
        I              7.00   126.90447     I ( 1.00)

     Starting magnetic structure
     atomic species   magnetization
        Rb           0.000
        Tc           0.000
        I            0.000

     12 Sym. Ops., with inversion, found

                                    s                        frac. trans.

      isym =  1     identity

 cryst.   s( 1) = (     1          0          0      )
                  (     0          1          0      )
                  (     0          0          1      )

 cart.    s( 1) = (  1.0000000  0.0000000  0.0000000 )
                  (  0.0000000  1.0000000  0.0000000 )
                  (  0.0000000  0.0000000  1.0000000 )

      isym =  2     180 deg rotation - cart. axis [1,0,0]

[...]

      isym =  3     120 deg rotation - cryst. axis [0,0,1]

[...]

      isym =  6     180 deg rotation - cryst. axis [1,1,0]

[...]

      isym =  7     inversion

[...]

      isym =  8     inv. 180 deg rotation - cart. axis [1,0,0]

[...]

      isym =  9     inv. 120 deg rotation - cryst. axis [0,0,1]

 cryst.   s( 9) = (     1         -1          0      )
                  (     1          0          0      )
                  (     1          0         -1      )

 cart.    s( 9) = (  0.5000000  0.8660254  0.0000000 )
                  ( -0.8660254  0.5000000  0.0000000 )
                  (  0.0000000  0.0000000 -1.0000000 )

[...]

 cryst.   s(10) = (     0          1          0      )
                  (    -1          1          0      )
                  (     0          1         -1      )

 cart.    s(10) = (  0.5000000 -0.8660254 -0.0000000 )
                  (  0.8660254  0.5000000  0.0000000 )
                  (  0.0000000  0.0000000 -1.0000000 )

[...]

      isym = 12     inv. 180 deg rotation - cryst. axis [1,1,0]

 cryst.   s(12) = (     1         -1          0      )
                  (     0         -1          0      )
                  (     0         -1          1      )

 cart.    s(12) = (  0.5000000 -0.8660254 -0.0000000 )
                  ( -0.8660254 -0.5000000 -0.0000000 )
                  (  0.0000000  0.0000000  1.0000000 )

   Cartesian axes

     site n.     atom                  positions (alat units)
         1           Rb  tau(   1) = (   0.5000000   0.2886751   0.2041241  )
         2           Rb  tau(   2) = (   1.5000000   0.8660254   0.6123724  )
         3           Tc  tau(   3) = (   0.0000000   0.0000000   0.0000000  )
         4           I   tau(   4) = (   1.0000000   0.2772886   0.1960727  )
         5           I   tau(   5) = (   1.0000000   0.8774119   0.6204239  )
         6           I   tau(   6) = (   0.7401390   0.7273811   0.1960727  )
         7           I   tau(   7) = (   1.2598610   0.4273195   0.6204239  )
         8           I   tau(   8) = (   0.7401390   0.4273195   0.6204239  )
         9           I   tau(   9) = (   1.2598610   0.7273811   0.1960727  )

   Crystallographic axes

     site n.     atom                  positions (cryst. coord.)
         1           Rb  tau(   1) = (  0.2500000  0.2500000  0.2500000  )
         2           Rb  tau(   2) = (  0.7500000  0.7500000  0.7500000  )
         3           Tc  tau(   3) = (  0.0000000  0.0000000  0.0000000  )
         4           I   tau(   4) = (  0.7598610  0.2401390  0.2401390  )
         5           I   tau(   5) = (  0.2401390  0.7598610  0.7598610  )
         6           I   tau(   6) = (  0.2401390  0.7598610  0.2401390  )
         7           I   tau(   7) = (  0.7598610  0.2401390  0.7598610  )
         8           I   tau(   8) = (  0.2401390  0.2401390  0.7598610  )
         9           I   tau(   9) = (  0.7598610  0.7598610  0.2401390  )

     number of k points=     6
                       cart. coord. in units 2pi/alat
        k(    1) = (   0.0000000   0.0000000   0.0000000), wk =   0.0370370
        k(    2) = (   0.0000000   0.0000000   0.4082483), wk =   0.0740741
        k(    3) = (   0.0000000   0.3849002  -0.1360828), wk =   0.2222222
        k(    4) = (   0.0000000   0.3849002   0.2721655), wk =   0.2222222
        k(    5) = (   0.0000000   0.3849002  -0.5443311), wk =   0.2222222
        k(    6) = (   0.3333333  -0.5773503  -0.0000000), wk =   0.2222222

                       cryst. coord.
        k(    1) = (   0.0000000   0.0000000   0.0000000), wk =   0.0370370
        k(    2) = (   0.0000000   0.0000000   0.3333333), wk =   0.0740741
        k(    3) = (   0.0000000   0.3333333   0.0000000), wk =   0.2222222
        k(    4) = (   0.0000000   0.3333333   0.3333333), wk =   0.2222222
        k(    5) = (   0.0000000   0.3333333  -0.3333333), wk =   0.2222222
        k(    6) = (   0.3333333  -0.3333333  -0.0000000), wk =   0.2222222

     Check: negative core charge=   -0.000001
     Generating pointlists ...
     new r_m :   0.2063 (alat units)  3.1414 (a.u.) for type    1
     new r_m :   0.1401 (alat units)  2.1328 (a.u.) for type    2
     new r_m :   0.1401 (alat units)  2.1328 (a.u.) for type    3

     Initial potential from superposition of free atoms

     starting charge      74.9493, renormalised to      75.0000
     Starting wfcs are   44 randomized atomic wfcs +   20 random wfcs
     Checking if some PAW data can be deallocated...

     Self-consistent Calculation

     iteration #  1     ecut=    30.00 Ry     beta= 0.70
     Davidson diagonalization with overlap

     ethr =  1.00E-02,  avg # of iterations =  6.3

     Threshold (ethr) on eigenvalues was too large:
     Diagonalizing with lowered threshold

     Davidson diagonalization with overlap

[...]

     total energy              =   -2532.78466546 Ry
     estimated scf accuracy    <       0.36710860 Ry

     total magnetization       =     3.00 Bohr mag/cell
     absolute magnetization    =     3.01 Bohr mag/cell

[...]

     negative rho (up, down):  3.140E-05 0.000E+00

[...]

     total energy              =   -2533.07258491 Ry
     estimated scf accuracy    <       0.00004292 Ry

[...]

     iteration #  8     ecut=    30.00 Ry     beta= 0.70
     Davidson diagonalization with overlap

     ethr =  5.72E-08,  avg # of iterations =  2.0

     negative rho (up, down):  3.358E-05 0.000E+00

     Magnetic moment per site  (integrated on atomic sphere of radius R)
     atom   1 (R=0.206)  charge=  8.0390  magn=  0.0089
     atom   2 (R=0.206)  charge=  8.0390  magn=  0.0089
     atom   3 (R=0.140)  charge= 12.6945  magn=  2.2635
     atom   4 (R=0.140)  charge=  4.1431  magn=  0.0262
     atom   5 (R=0.140)  charge=  4.1431  magn=  0.0262
     atom   6 (R=0.140)  charge=  4.1431  magn=  0.0262
     atom   7 (R=0.140)  charge=  4.1431  magn=  0.0262
     atom   8 (R=0.140)  charge=  4.1431  magn=  0.0262
     atom   9 (R=0.140)  charge=  4.1431  magn=  0.0262

     End of self-consistent calculation

 ------ SPIN UP ------------

          k = 0.0000 0.0000 0.0000 (  6879 PWs)   bands (ev):

   -64.2714 -36.5135 -36.5135 -36.5135 -22.5459 -22.5451  -8.7250  -8.0240
    -8.0240  -8.0240  -7.8785  -7.8785  -6.6426  -6.6426  -6.6426  -6.6251
    -6.6251  -6.6251  -0.8274   0.1239   0.1239   0.1239   0.2812   0.2812
     0.6861   0.6861   0.6861   2.4972   2.4972   2.4972   2.5316   2.5316
     2.5316   3.1731   3.1731   3.1731   3.4896   3.4896   3.4896   5.7909
     5.7909   6.9889   7.4989   7.8147   8.2555   8.2555   9.0018   9.0018
     9.0018   9.2809   9.2809   9.2809  11.1500  11.1501  11.1787  11.1787
    11.1787  12.0138  12.0138  12.0139  12.2963  12.2965  12.2965  13.1002

     occupation numbers
     1.0000   1.0000   1.0000   1.0000   1.0000   1.0000   1.0000   1.0000
     1.0000   1.0000   1.0000   1.0000   1.0000   1.0000   1.0000   1.0000
     1.0000   1.0000   1.0000   1.0000   1.0000   1.0000   1.0000   1.0000
     1.0000   1.0000   1.0000   1.0000   1.0000   1.0000   1.0000   1.0000
     1.0000   1.0000   1.0000   1.0000   1.0000   1.0000   1.0000   0.0000
     0.0000   0.0000   0.0000   0.0000   0.0000   0.0000   0.0000   0.0000
     0.0000   0.0000   0.0000   0.0000   0.0000   0.0000   0.0000   0.0000
     0.0000   0.0000   0.0000   0.0000   0.0000   0.0000   0.0000   0.0000

[...]

 ------ SPIN DOWN ----------

[...]

          k = 0.3333-0.5774-0.0000 (  6895 PWs)   bands (ev):

   -62.9945 -34.7381 -34.7380 -34.7380 -22.5416 -22.5416  -8.5295  -8.1723
    -8.0231  -7.9878  -7.9065  -7.8703  -6.6226  -6.6152  -6.6030  -6.5963
    -6.5910  -6.5810  -0.0239   0.2467   0.6033   0.7820   0.9073   1.0122
     1.0529   1.1303   1.3230   2.1777   2.1990   2.3379   2.3502   2.3510
     2.7894   2.9610   3.0345   3.2269   4.3834   4.6079   4.6338   5.6654
     6.1093   8.8042   9.0128   9.3281   9.7618   9.8406   9.8970  10.0780
    10.1768  10.1951  10.3145  10.4721  10.6042  10.7785  10.8886  11.2354
    11.4050  11.4472  11.7009  11.7773  11.7997  11.9408  12.0815  12.1525

     occupation numbers
     1.0000   1.0000   1.0000   1.0000   1.0000   1.0000   1.0000   1.0000
     1.0000   1.0000   1.0000   1.0000   1.0000   1.0000   1.0000   1.0000
     1.0000   1.0000   1.0000   1.0000   1.0000   1.0000   1.0000   1.0000
     1.0000   1.0000   1.0000   1.0000   1.0000   1.0000   1.0000   1.0000
     1.0000   1.0000   1.0000   1.0000   0.0000   0.0000   0.0000   0.0000
     0.0000   0.0000   0.0000   0.0000   0.0000   0.0000   0.0000   0.0000
     0.0000   0.0000   0.0000   0.0000   0.0000   0.0000   0.0000   0.0000
     0.0000   0.0000   0.0000   0.0000   0.0000   0.0000   0.0000   0.0000

     highest occupied, lowest unoccupied level (ev):     3.5654    4.2002

!    total energy              =   -2533.07259289 Ry
     estimated scf accuracy    <       0.00000048 Ry

     The total energy is the sum of the following terms:
     one-electron contribution =    -186.15734832 Ry
     hartree contribution      =     117.79034373 Ry
     xc contribution           =    -283.04559277 Ry
     ewald contribution        =    -258.50583946 Ry
     one-center paw contrib.   =   -1923.15415608 Ry
      -> PAW hartree energy AE =       0.00000000 Ry
      -> PAW hartree energy PS =       0.00000000 Ry
      -> PAW xc energy AE      =       0.00000000 Ry
      -> PAW xc energy PS      =       0.00000000 Ry
      -> total E_H with PAW    =     117.79034373 Ry
      -> total E_XC with PAW   =    -283.04559277 Ry

     total magnetization       =     3.00 Bohr mag/cell
     absolute magnetization    =     3.38 Bohr mag/cell

     convergence has been achieved in   8 iterations

     Writing all to output data dir bands_nm/myprefix.save/

     General routines

     Parallel routines

     PAW routines

   This run was terminated on:  14:27:37  15Jul2023

   JOB DONE.