     Program PWSCF v.7.1 starts on 12Jul2023 at 16:54: 2

     Reading input from espresso_22799.pwi
Warning: card &CELL ignored
Warning: card / ignored

     Current dimensions of program PWSCF are:
     Max number of different atomic species (ntypx) = 10
     Max number of k-points (npk) =  40000
     Max angular momentum in pseudopotentials (lmaxx) =  4
     file O.pbe-n-kjpaw_psl.0.1.UPF: wavefunction(s)  2P renormalized

     K-points division:     npool     =       2
     R & G space division:  proc/nbgrp/npool/nimage =       8
     Subspace diagonalization in iterative solution of the eigenvalue problem:
     a serial algorithm will be used

     Using Slab Decomposition

     bravais-lattice index     =            0
     lattice parameter (alat)  =      12.1949  a.u.
     unit-cell volume          =    1972.1790 (a.u.)^3
     number of atoms/cell      =           14
     number of atomic types    =            4
     number of electrons       =        88.00
     number of Kohn-Sham states=           64
     kinetic-energy cutoff     =      30.0000  Ry
     charge density cutoff     =     240.0000  Ry
     scf convergence threshold =      1.0E-06
     mixing beta               =       0.7000
     number of iterations used =            8  plain     mixing
     Exchange-correlation= SLA  PW   PBX  PBC
                           (   1   4   3   4   0   0   0)

     celldm(1)=  12.194946  celldm(2)=   0.000000  celldm(3)=   0.000000
     celldm(4)=   0.000000  celldm(5)=   0.000000  celldm(6)=   0.000000

     crystal axes: (cart. coord. in units of alat)
               a(1) = (   1.000000   0.000000   0.000000 )
               a(2) = (   0.488392   0.872624   0.000000 )
               a(3) = (   0.433675   0.254258   1.246176 )

     reciprocal axes: (cart. coord. in units 2 pi/alat)
               b(1) = (  1.000000 -0.559682 -0.233812 )
               b(2) = (  0.000000  1.145969 -0.233812 )
               b(3) = (  0.000000  0.000000  0.802455 )

     PseudoPot. # 1 for Cs read from file:
     /lustre07/scratch/pragov/crystal_structure_design/utils/SSSP/Cs_pbe_v1.uspp.F.UPF
     MD5 check sum: 3476d69cb178dfad3ffaa59df4e07ca4
     Pseudo is Ultrasoft + core correction, Zval =  9.0
     Generated by new atomic code, or converted to UPF format
     Using radial grid of  905 points,  6 beta functions with:
                l(1) =   0
                l(2) =   0
                l(3) =   1
                l(4) =   1
                l(5) =   2
                l(6) =   2
     Q(r) pseudized with  6 coefficients,  rinner =    1.500   1.500   1.500
                                                       1.500   1.500

     PseudoPot. # 2 for H  read from file:
     /lustre07/scratch/pragov/crystal_structure_design/utils/SSSP/H.pbe-rrkjus_psl.1.0.0.UPF
     MD5 check sum: f52b6d4d1c606e5624b1dc7b2218f220
     Pseudo is Ultrasoft, Zval =  1.0
     Generated using "atomic" code by A. Dal Corso  v.5.1
     Using radial grid of  929 points,  2 beta functions with:
                l(1) =   0
                l(2) =   0
     Q(r) pseudized with 0 coefficients

     PseudoPot. # 3 for Se read from file:
     /lustre07/scratch/pragov/crystal_structure_design/utils/SSSP/Se_pbe_v1.uspp.F.UPF
     MD5 check sum: 1b3568f3a8ae88f9a2a0ad0698632c85
     Pseudo is Ultrasoft + core correction, Zval =  6.0
     Generated by new atomic code, or converted to UPF format
     Using radial grid of  877 points,  6 beta functions with:
                l(1) =   0
                l(2) =   0
                l(3) =   1
                l(4) =   1
                l(5) =   2
                l(6) =   2
     Q(r) pseudized with  8 coefficients,  rinner =    1.300   1.300   1.300
                                                       1.300   1.300

     PseudoPot. # 4 for O  read from file:
     /lustre07/scratch/pragov/crystal_structure_design/utils/SSSP/O.pbe-n-kjpaw_psl.0.1.UPF
     MD5 check sum: 0234752ac141de4415c5fc33072bef88
     Pseudo is Projector augmented-wave + core cor, Zval =  6.0
     Generated using "atomic" code by A. Dal Corso  v.5.0.99 svn rev. 10869
     Shape of augmentation charge: BESSEL
     Using radial grid of 1095 points,  4 beta functions with:
                l(1) =   0
                l(2) =   0
                l(3) =   1
                l(4) =   1
     Q(r) pseudized with 0 coefficients

     atomic species   valence    mass     pseudopotential
        Cs             9.00   132.90545     Cs( 1.00)
        H              1.00     1.00800     H ( 1.00)
        Se             6.00    78.97100     Se( 1.00)
        O              6.00    15.99900     O ( 1.00)

     No symmetry found

                                    s                        frac. trans.

      isym =  1     identity

 cryst.   s( 1) = (     1          0          0      )
                  (     0          1          0      )
                  (     0          0          1      )

 cart.    s( 1) = (  1.0000000  0.0000000  0.0000000 )
                  (  0.0000000  1.0000000  0.0000000 )
                  (  0.0000000  0.0000000  1.0000000 )

   Cartesian axes

     site n.     atom                  positions (alat units)
         1           Cs  tau(   1) = (   1.4891633   0.8730763   0.0056115  )
         2           Cs  tau(   2) = (   1.4581062   0.8548679   0.7572090  )
         3           Cs  tau(   3) = (   0.4636280   0.2718188   0.4843064  )
         4           H   tau(   4) = (   1.1477743   0.6729245   1.2430582  )
         5           Se  tau(   5) = (   0.9528628   0.5586506   0.2887016  )
         6           Se  tau(   6) = (   0.9688906   0.5680475   0.9495501  )
         7           O   tau(   7) = (   0.9071938   0.5318754   0.0281960  )
         8           O   tau(   8) = (   1.0053244   0.5894081   1.2207018  )
         9           O   tau(   9) = (   1.1748553   0.4400451   0.8632985  )
        10           O   tau(  10) = (   0.9577842   0.8102926   0.8632985  )
        11           O   tau(  11) = (   0.7499177   0.6875796   0.3871209  )
        12           O   tau(  12) = (   0.9662526   0.3185878   0.3871209  )
        13           O   tau(  13) = (   1.1730272   0.6877300   0.3263984  )
        14           O   tau(  14) = (   0.7488447   0.4390375   0.9248920  )

   Crystallographic axes

     site n.     atom                  positions (cryst. coord.)
         1           Cs  tau(   1) = (  0.9992060  0.9992060  0.0045030  )
         2           Cs  tau(   2) = (  0.8026070  0.8026070  0.6076260  )
         3           Cs  tau(   3) = (  0.1982590  0.1982590  0.3886340  )
         4           H   tau(   4) = (  0.4805080  0.4805080  0.9974980  )
         5           Se  tau(   5) = (  0.5726940  0.5726940  0.2316700  )
         6           Se  tau(   6) = (  0.4289480  0.4289480  0.7619710  )
         7           O   tau(   7) = (  0.6029200  0.6029200  0.0226260  )
         8           O   tau(   8) = (  0.3900280  0.3900280  0.9795580  )
         9           O   tau(   9) = (  0.7267200  0.3024280  0.6927580  )
        10           O   tau(  10) = (  0.3024280  0.7267200  0.6927580  )
        11           O   tau(  11) = (  0.2745780  0.6974310  0.3106470  )
        12           O   tau(  12) = (  0.6974310  0.2745780  0.3106470  )
        13           O   tau(  13) = (  0.7118010  0.7118010  0.2619200  )
        14           O   tau(  14) = (  0.2868720  0.2868720  0.7421840  )

     number of k points=    14
                       cart. coord. in units 2pi/alat
        k(    1) = (   0.0000000   0.0000000   0.0000000), wk =   0.0740741
        k(    2) = (   0.0000000   0.0000000   0.2674849), wk =   0.1481481
        k(    3) = (   0.0000000   0.3819895  -0.0779375), wk =   0.1481481
        k(    4) = (   0.0000000   0.3819895   0.1895475), wk =   0.1481481
        k(    5) = (   0.0000000   0.3819895  -0.3454224), wk =   0.1481481
        k(    6) = (   0.3333333  -0.1865607  -0.0779375), wk =   0.1481481
        k(    7) = (   0.3333333  -0.1865607   0.1895475), wk =   0.1481481
        k(    8) = (   0.3333333  -0.1865607  -0.3454224), wk =   0.1481481
        k(    9) = (   0.3333333   0.1954288  -0.1558749), wk =   0.1481481
        k(   10) = (   0.3333333   0.1954288   0.1116100), wk =   0.1481481
        k(   11) = (   0.3333333   0.1954288  -0.4233599), wk =   0.1481481
        k(   12) = (   0.3333333  -0.5685503   0.0000000), wk =   0.1481481
        k(   13) = (   0.3333333  -0.5685503   0.2674849), wk =   0.1481481
        k(   14) = (   0.3333333  -0.5685503  -0.2674849), wk =   0.1481481

                       cryst. coord.
        k(    1) = (   0.0000000   0.0000000   0.0000000), wk =   0.0740741
        k(    2) = (   0.0000000   0.0000000   0.3333333), wk =   0.1481481
        k(    3) = (   0.0000000   0.3333333  -0.0000000), wk =   0.1481481
        k(    4) = (   0.0000000   0.3333333   0.3333333), wk =   0.1481481
        k(    5) = (   0.0000000   0.3333333  -0.3333333), wk =   0.1481481
        k(    6) = (   0.3333333  -0.0000000   0.0000000), wk =   0.1481481
        k(    7) = (   0.3333333  -0.0000000   0.3333333), wk =   0.1481481
        k(    8) = (   0.3333333  -0.0000000  -0.3333333), wk =   0.1481481
        k(    9) = (   0.3333333   0.3333333  -0.0000000), wk =   0.1481481
        k(   10) = (   0.3333333   0.3333333   0.3333333), wk =   0.1481481
        k(   11) = (   0.3333333   0.3333333  -0.3333333), wk =   0.1481481
        k(   12) = (   0.3333333  -0.3333333   0.0000000), wk =   0.1481481
        k(   13) = (   0.3333333  -0.3333333   0.3333333), wk =   0.1481481
        k(   14) = (   0.3333333  -0.3333333  -0.3333333), wk =   0.1481481

     Check: negative core charge=   -0.000007

     Initial potential from superposition of free atoms

     starting charge      87.8817, renormalised to      88.0000
     Starting wfcs are   80 randomized atomic wfcs
     Checking if some PAW data can be deallocated...

     Self-consistent Calculation

     iteration #  1     ecut=    30.00 Ry     beta= 0.70
     Davidson diagonalization with overlap

     ethr =  1.00E-02,  avg # of iterations =  3.4

     total energy              =    -609.10570171 Ry
     estimated scf accuracy    <       3.01410461 Ry

[...]

     total energy              =    -610.56906352 Ry
     estimated scf accuracy    <       0.00000114 Ry

     iteration # 10     ecut=    30.00 Ry     beta= 0.70
     Davidson diagonalization with overlap

     ethr =  1.29E-09,  avg # of iterations =  2.0

     End of self-consistent calculation

          k = 0.0000 0.0000 0.0000 (  5495 PWs)   bands (ev):

   -18.5416 -17.8199 -16.6715 -16.5554 -16.2856 -15.9642 -15.1485 -15.1154
   -14.5984 -14.4685 -14.4648  -7.2781  -6.4096  -4.1985  -3.8525  -3.8173
    -3.5948  -3.4859  -3.4644  -3.3886  -3.2294  -3.1747  -3.1439  -2.3846
    -2.3371  -2.0160  -1.8551  -1.8500  -1.1837   0.5127   0.7526   0.9149
     0.9412   1.2163   1.2614   1.4564   1.4590   1.5663   1.6013   1.7626
     1.9632   2.3271   2.4407   2.4818   5.9225   6.8811   8.6550   8.7659
     9.2982   9.3854   9.5511   9.7013   9.8740  10.1844  10.3499  10.4498
    10.6973  11.2405  11.2848  11.3303  11.3590  11.6290  11.6823  11.9417

     occupation numbers
     1.0000   1.0000   1.0000   1.0000   1.0000   1.0000   1.0000   1.0000
     1.0000   1.0000   1.0000   1.0000   1.0000   1.0000   1.0000   1.0000
     1.0000   1.0000   1.0000   1.0000   1.0000   1.0000   1.0000   1.0000
     1.0000   1.0000   1.0000   1.0000   1.0000   1.0000   1.0000   1.0000
     1.0000   1.0000   1.0000   1.0000   1.0000   1.0000   1.0000   1.0000
     1.0000   1.0000   1.0000   1.0000   0.0000   0.0000   0.0000   0.0000
     0.0000   0.0000   0.0000   0.0000   0.0000   0.0000   0.0000   0.0000
     0.0000   0.0000   0.0000   0.0000   0.0000   0.0000   0.0000   0.0000

[...]

          k = 0.3333-0.5686-0.2675 (  5474 PWs)   bands (ev):

   -18.5246 -17.8061 -16.6563 -16.5958 -16.3164 -15.9630 -15.1498 -15.1116
   -14.5967 -14.4760 -14.4645  -7.2392  -6.3620  -4.0451  -3.8050  -3.6872
    -3.6413  -3.4054  -3.3429  -3.2510  -3.2345  -3.2126  -3.1528  -2.5679
    -2.3551  -2.1556  -1.9262  -1.8646  -1.1107   0.3709   0.6885   0.7793
     0.8993   1.1120   1.1704   1.2545   1.4140   1.4587   1.6330   1.7871
     1.8403   2.3244   2.3488   2.4546   6.7209   7.3330   8.8050   9.2248
     9.3627   9.5337   9.7207   9.7785  10.1630  10.3389  10.3874  10.6380
    10.7819  10.8270  10.8985  11.2352  11.5258  11.6403  11.8297  12.0231

     occupation numbers
     1.0000   1.0000   1.0000   1.0000   1.0000   1.0000   1.0000   1.0000
     1.0000   1.0000   1.0000   1.0000   1.0000   1.0000   1.0000   1.0000
     1.0000   1.0000   1.0000   1.0000   1.0000   1.0000   1.0000   1.0000
     1.0000   1.0000   1.0000   1.0000   1.0000   1.0000   1.0000   1.0000
     1.0000   1.0000   1.0000   1.0000   1.0000   1.0000   1.0000   1.0000
     1.0000   1.0000   1.0000   1.0000   0.0000   0.0000   0.0000   0.0000
     0.0000   0.0000   0.0000   0.0000   0.0000   0.0000   0.0000   0.0000
     0.0000   0.0000   0.0000   0.0000   0.0000   0.0000   0.0000   0.0000

     highest occupied, lowest unoccupied level (ev):     2.4894    5.9225

!    total energy              =    -610.56906369 Ry
     estimated scf accuracy    <       0.00000012 Ry

     The total energy is the sum of the following terms:
     one-electron contribution =    -186.54653706 Ry
     hartree contribution      =     136.33063439 Ry
     xc contribution           =    -210.48545525 Ry
     ewald contribution        =    -273.59679700 Ry
     one-center paw contrib.   =     -76.27090878 Ry
      -> PAW hartree energy AE =       0.00000000 Ry
      -> PAW hartree energy PS =       0.00000000 Ry
      -> PAW xc energy AE      =       0.00000000 Ry
      -> PAW xc energy PS      =       0.00000000 Ry
      -> total E_H with PAW    =     136.33063439 Ry
      -> total E_XC with PAW   =    -210.48545525 Ry

     convergence has been achieved in  10 iterations

     Writing all to output data dir bands_nm/myprefix.save/

     General routines

     Parallel routines

     PAW routines

   This run was terminated on:  16:54:14  12Jul2023

   JOB DONE.