     Program PWSCF v.7.1 starts on 16Jul2023 at 15:19:52

     Reading input from espresso_23581.pwi
Warning: card &CELL ignored
Warning: card / ignored

     Current dimensions of program PWSCF are:
     Max number of different atomic species (ntypx) = 10
     Max number of k-points (npk) =  40000
     Max angular momentum in pseudopotentials (lmaxx) =  4
     file O.pbe-n-kjpaw_psl.0.1.UPF: wavefunction(s)  2P renormalized
     Message from routine setup:
     using ibrav=0 with symmetry is DISCOURAGED, use correct ibrav instead

     K-points division:     npool     =       2
     R & G space division:  proc/nbgrp/npool/nimage =       4
     Subspace diagonalization in iterative solution of the eigenvalue problem:
     a serial algorithm will be used

     Using Slab Decomposition

     bravais-lattice index     =            0
     lattice parameter (alat)  =      10.4330  a.u.
     unit-cell volume          =    1651.9414 (a.u.)^3
     number of atoms/cell      =           14
     number of atomic types    =            5
     number of electrons       =        80.00
     number of Kohn-Sham states=           64
     kinetic-energy cutoff     =      30.0000  Ry
     charge density cutoff     =     240.0000  Ry
     scf convergence threshold =      1.0E-06
     mixing beta               =       0.7000
     number of iterations used =            8  plain     mixing
     Exchange-correlation=  SLA  PW   PBX  PBC
                           (   1   4   3   4   0   0   0)

     celldm(1)=  10.433033  celldm(2)=   0.000000  celldm(3)=   0.000000
     celldm(4)=   0.000000  celldm(5)=   0.000000  celldm(6)=   0.000000

     crystal axes: (cart. coord. in units of alat)
               a(1) = (   1.000000   0.000000   0.000000 )
               a(2) = (  -0.024625   1.089208   0.000000 )
               a(3) = (  -0.232177   0.587812   1.335526 )

     reciprocal axes: (cart. coord. in units 2 pi/alat)
               b(1) = (  1.000000  0.022608  0.163896 )
               b(2) = (  0.000000  0.918099 -0.404087 )
               b(3) = (  0.000000  0.000000  0.748769 )

     PseudoPot. # 1 for Cs read from file:
     /lustre07/scratch/pragov/crystal_structure_design/utils/SSSP/Cs_pbe_v1.uspp.F.UPF
     MD5 check sum: 3476d69cb178dfad3ffaa59df4e07ca4
     Pseudo is Ultrasoft + core correction, Zval =  9.0
     Generated by new atomic code, or converted to UPF format
     Using radial grid of  905 points,  6 beta functions with:
                l(1) =   0
                l(2) =   0
                l(3) =   1
                l(4) =   1
                l(5) =   2
                l(6) =   2
     Q(r) pseudized with  6 coefficients,  rinner =    1.500   1.500   1.500
                                                       1.500   1.500

     PseudoPot. # 2 for P  read from file:
     /lustre07/scratch/pragov/crystal_structure_design/utils/SSSP/P.pbe-n-rrkjus_psl.1.0.0.UPF
     MD5 check sum: 8b930f418f0a4573dca56cd030ffe088
     Pseudo is Ultrasoft + core correction, Zval =  5.0
     Generated using "atomic" code by A. Dal Corso  v.5.1
     Using radial grid of 1147 points,  6 beta functions with:
                l(1) =   0
                l(2) =   0
                l(3) =   1
                l(4) =   1
                l(5) =   2
                l(6) =   2
     Q(r) pseudized with 0 coefficients

     PseudoPot. # 3 for H  read from file:
     /lustre07/scratch/pragov/crystal_structure_design/utils/SSSP/H.pbe-rrkjus_psl.1.0.0.UPF
     MD5 check sum: f52b6d4d1c606e5624b1dc7b2218f220
     Pseudo is Ultrasoft, Zval =  1.0
     Generated using "atomic" code by A. Dal Corso  v.5.1
     Using radial grid of  929 points,  2 beta functions with:
                l(1) =   0
                l(2) =   0
     Q(r) pseudized with 0 coefficients

     PseudoPot. # 4 for O  read from file:
     /lustre07/scratch/pragov/crystal_structure_design/utils/SSSP/O.pbe-n-kjpaw_psl.0.1.UPF
     MD5 check sum: 0234752ac141de4415c5fc33072bef88
     Pseudo is Projector augmented-wave + core cor, Zval =  6.0
     Generated using "atomic" code by A. Dal Corso  v.5.0.99 svn rev. 10869
     Shape of augmentation charge: BESSEL
     Using radial grid of 1095 points,  4 beta functions with:
                l(1) =   0
                l(2) =   0
                l(3) =   1
                l(4) =   1
     Q(r) pseudized with 0 coefficients

     PseudoPot. # 5 for F  read from file:
     /lustre07/scratch/pragov/crystal_structure_design/utils/SSSP/f_pbe_v1.4.uspp.F.UPF
     MD5 check sum: 4c38b6a325caf53ec0e86aed9459de46
     Pseudo is Ultrasoft, Zval =  7.0
     Generated by new atomic code, or converted to UPF format
     Using radial grid of  799 points,  4 beta functions with:
                l(1) =   0
                l(2) =   0
                l(3) =   1
                l(4) =   1
     Q(r) pseudized with  8 coefficients,  rinner =    0.950   0.950   0.950

     atomic species   valence    mass     pseudopotential
        Cs             9.00   132.90545     Cs( 1.00)
        P              5.00    30.97376     P ( 1.00)
        H              1.00     1.00800     H ( 1.00)
        O              6.00    15.99900     O ( 1.00)
        F              7.00    18.99840     F ( 1.00)

      2 Sym. Ops., with inversion, found

                                    s                        frac. trans.

      isym =  1     identity

 cryst.   s( 1) = (     1          0          0      )
                  (     0          1          0      )
                  (     0          0          1      )

 cart.    s( 1) = (  1.0000000 -0.0000000  0.0000000 )
                  (  0.0000000  1.0000000 -0.0000000 )
                  (  0.0000000  0.0000000  1.0000000 )

      isym =  2     inversion

 cryst.   s( 2) = (    -1          0          0      )
                  (     0         -1          0      )
                  (     0          0         -1      )

 cart.    s( 2) = ( -1.0000000  0.0000000 -0.0000000 )
                  (  0.0000000 -1.0000000  0.0000000 )
                  (  0.0000000  0.0000000 -1.0000000 )

   Cartesian axes

     site n.     atom                  positions (alat units)
         1           Cs  tau(   1) = (   0.4215914   0.5768171   0.9714508  )
         2           Cs  tau(   2) = (   0.3216070   1.1002022   0.3640750  )
         3           P   tau(   3) = (   0.7768129   0.5667868   0.3147367  )
         4           P   tau(   4) = (  -0.0336145   1.1102326   1.0207891  )
         5           H   tau(   5) = (   0.9582959   0.3252520   0.0427021  )
         6           H   tau(   6) = (  -0.2150975   1.3517674   1.2928237  )
         7           O   tau(   7) = (   0.8321369   0.3170957   0.1853563  )
         8           O   tau(   8) = (   0.8418548   0.7818509   0.1551774  )
         9           O   tau(   9) = (  -0.0889385   1.3599236   1.1501695  )
        10           O   tau(  10) = (  -0.0986564   0.8951684   1.1803484  )
        11           O   tau(  11) = (   0.5341665   0.5623318   0.4343864  )
        12           O   tau(  12) = (   0.2090319   1.1146875   0.9011393  )
        13           F   tau(  13) = (  -0.0238705   0.5687604   0.5294452  )
        14           F   tau(  14) = (   0.7670689   1.1082590   0.8060806  )

   Crystallographic axes

     site n.     atom                  positions (cryst. coord.)
         1           Cs  tau(   1) = (  0.5938490  0.1370240  0.7273920  )
         2           Cs  tau(   2) = (  0.4061510  0.8629760  0.2726080  )
         3           P   tau(   3) = (  0.8412110  0.3931850  0.2356650  )
         4           P   tau(   4) = (  0.1587890  0.6068150  0.7643350  )
         5           H   tau(   5) = (  0.9726480  0.2813580  0.0319740  )
         6           H   tau(   6) = (  0.0273520  0.7186420  0.9680260  )
         7           O   tau(   7) = (  0.8696850  0.2162250  0.1387890  )
         8           O   tau(   8) = (  0.8849640  0.6551110  0.1161920  )
         9           O   tau(   9) = (  0.1303150  0.7837750  0.8612110  )
        10           O   tau(  10) = (  0.1150360  0.3448890  0.8838080  )
        11           O   tau(  11) = (  0.6180740  0.3407460  0.3252550  )
        12           O   tau(  12) = (  0.3819260  0.6592540  0.6747450  )
        13           F   tau(  13) = (  0.0757620  0.3082360  0.3964320  )
        14           F   tau(  14) = (  0.9242380  0.6917640  0.6035680  )

     number of k points=    14
                       cart. coord. in units 2pi/alat
        k(    1) = (   0.0000000   0.0000000   0.0000000), wk =   0.0740741
        k(    2) = (   0.0000000   0.0000000   0.2495896), wk =   0.1481481
        k(    3) = (   0.0000000   0.3060329  -0.1346958), wk =   0.1481481
        k(    4) = (   0.0000000   0.3060329   0.1148938), wk =   0.1481481
        k(    5) = (   0.0000000   0.3060329  -0.3842854), wk =   0.1481481
        k(    6) = (   0.3333333   0.0075361   0.0546320), wk =   0.1481481
        k(    7) = (   0.3333333   0.0075361   0.3042215), wk =   0.1481481
        k(    8) = (   0.3333333   0.0075361  -0.1949576), wk =   0.1481481
        k(    9) = (   0.3333333   0.3135689  -0.0800638), wk =   0.1481481
        k(   10) = (   0.3333333   0.3135689   0.1695258), wk =   0.1481481
        k(   11) = (   0.3333333   0.3135689  -0.3296534), wk =   0.1481481
        k(   12) = (   0.3333333  -0.2984968   0.1893277), wk =   0.1481481
        k(   13) = (   0.3333333  -0.2984968   0.4389173), wk =   0.1481481
        k(   14) = (   0.3333333  -0.2984968  -0.0602618), wk =   0.1481481

                       cryst. coord.
        k(    1) = (   0.0000000   0.0000000   0.0000000), wk =   0.0740741
        k(    2) = (   0.0000000   0.0000000   0.3333333), wk =   0.1481481
        k(    3) = (   0.0000000   0.3333333  -0.0000000), wk =   0.1481481
        k(    4) = (   0.0000000   0.3333333   0.3333333), wk =   0.1481481
        k(    5) = (   0.0000000   0.3333333  -0.3333333), wk =   0.1481481
        k(    6) = (   0.3333333  -0.0000000   0.0000000), wk =   0.1481481
        k(    7) = (   0.3333333  -0.0000000   0.3333333), wk =   0.1481481
        k(    8) = (   0.3333333  -0.0000000  -0.3333333), wk =   0.1481481
        k(    9) = (   0.3333333   0.3333333   0.0000000), wk =   0.1481481
        k(   10) = (   0.3333333   0.3333333   0.3333333), wk =   0.1481481
        k(   11) = (   0.3333333   0.3333333  -0.3333333), wk =   0.1481481
        k(   12) = (   0.3333333  -0.3333333   0.0000000), wk =   0.1481481
        k(   13) = (   0.3333333  -0.3333333   0.3333333), wk =   0.1481481
        k(   14) = (   0.3333333  -0.3333333  -0.3333333), wk =   0.1481481

     Check: negative core charge=   -0.000008

     Initial potential from superposition of free atoms

     starting charge      79.9209, renormalised to      80.0000
     Starting wfcs are   68 randomized atomic wfcs
     Checking if some PAW data can be deallocated...

     Self-consistent Calculation

     iteration #  1     ecut=    30.00 Ry     beta= 0.70
     Davidson diagonalization with overlap

     ethr =  1.00E-02,  avg # of iterations =  6.1

     total energy              =    -503.41954839 Ry
     estimated scf accuracy    <       2.16370456 Ry

[...]

     total energy              =    -504.37103588 Ry
     estimated scf accuracy    <       0.00000228 Ry

     iteration #  9     ecut=    30.00 Ry     beta= 0.70
     Davidson diagonalization with overlap

     ethr =  2.85E-09,  avg # of iterations =  2.2

     End of self-consistent calculation

          k = 0.0000 0.0000 0.0000 (  4565 PWs)   bands (ev):

   -22.0409 -22.0112 -18.1899 -17.7976 -17.0452 -17.0016 -16.6024 -16.0937
   -15.6475 -15.5639  -7.0841  -6.2984  -5.3087  -4.8437  -4.2649  -4.1008
    -3.9439  -3.8369  -3.7561  -3.7022  -3.3437  -3.0615  -2.9403  -2.8391
    -2.3525  -2.1887  -1.5759  -1.3159  -1.0222  -0.4539  -0.3492  -0.2641
     0.1042   0.2864   0.8215   0.8843   0.9953   1.2296   1.2422   1.6801
     6.8424   9.2180   9.4720   9.5609   9.7610   9.8424  10.1510  10.1601
    10.3431  10.5179  10.9106  11.4194  11.4686  11.4814  11.5900  11.7392
    12.0168  12.1121  12.2960  13.1216  13.1349  13.9407  14.1680  14.3811

     occupation numbers
     1.0000   1.0000   1.0000   1.0000   1.0000   1.0000   1.0000   1.0000
     1.0000   1.0000   1.0000   1.0000   1.0000   1.0000   1.0000   1.0000
     1.0000   1.0000   1.0000   1.0000   1.0000   1.0000   1.0000   1.0000
     1.0000   1.0000   1.0000   1.0000   1.0000   1.0000   1.0000   1.0000
     1.0000   1.0000   1.0000   1.0000   1.0000   1.0000   1.0000   1.0000
     0.0000   0.0000   0.0000   0.0000   0.0000   0.0000   0.0000   0.0000
     0.0000   0.0000   0.0000   0.0000   0.0000   0.0000   0.0000   0.0000
     0.0000   0.0000   0.0000   0.0000   0.0000   0.0000   0.0000   0.0000

[...]

          k = 0.3333-0.2985-0.0603 (  4573 PWs)   bands (ev):

   -22.0317 -22.0160 -18.1645 -17.7967 -17.0752 -17.0160 -16.5846 -16.1185
   -15.6621 -15.5598  -7.0188  -6.2760  -5.3427  -4.8130  -4.1858  -4.0619
    -3.9378  -3.8844  -3.7613  -3.7165  -3.3352  -3.0286  -2.8688  -2.7130
    -2.2410  -2.2098  -1.5941  -1.3416  -1.2151  -0.5970  -0.3981  -0.2641
     0.0290   0.2231   0.7303   0.7609   0.9626   1.2121   1.2483   1.5747
     8.2562   8.9719   9.1500   9.6109   9.8887  10.0586  10.1770  10.4378
    10.6130  10.7411  11.0368  11.2144  11.2413  11.6429  11.7106  11.9164
    12.2135  12.3099  12.5321  12.7645  13.2796  13.3605  13.4927  13.9265

     occupation numbers
     1.0000   1.0000   1.0000   1.0000   1.0000   1.0000   1.0000   1.0000
     1.0000   1.0000   1.0000   1.0000   1.0000   1.0000   1.0000   1.0000
     1.0000   1.0000   1.0000   1.0000   1.0000   1.0000   1.0000   1.0000
     1.0000   1.0000   1.0000   1.0000   1.0000   1.0000   1.0000   1.0000
     1.0000   1.0000   1.0000   1.0000   1.0000   1.0000   1.0000   1.0000
     0.0000   0.0000   0.0000   0.0000   0.0000   0.0000   0.0000   0.0000
     0.0000   0.0000   0.0000   0.0000   0.0000   0.0000   0.0000   0.0000
     0.0000   0.0000   0.0000   0.0000   0.0000   0.0000   0.0000   0.0000

     highest occupied, lowest unoccupied level (ev):     1.6801    6.8424

!    total energy              =    -504.37103628 Ry
     estimated scf accuracy    <       0.00000031 Ry

     The total energy is the sum of the following terms:
     one-electron contribution =    -231.66196384 Ry
     hartree contribution      =     154.10438713 Ry
     xc contribution           =    -134.86431881 Ry
     ewald contribution        =    -234.83497061 Ry
     one-center paw contrib.   =     -57.11417015 Ry
      -> PAW hartree energy AE =       0.00000000 Ry
      -> PAW hartree energy PS =       0.00000000 Ry
      -> PAW xc energy AE      =       0.00000000 Ry
      -> PAW xc energy PS      =       0.00000000 Ry
      -> total E_H with PAW    =     154.10438713 Ry
      -> total E_XC with PAW   =    -134.86431881 Ry

     convergence has been achieved in   9 iterations

     Writing all to output data dir bands_nm/myprefix.save/

     General routines

     Parallel routines

     PAW routines

   This run was terminated on:  15:20: 4  16Jul2023

   JOB DONE.