     Program PWSCF v.7.1 starts on 15Jul2023 at 20:27: 4

     Reading input from espresso_20324.pwi
Warning: card &CELL ignored
Warning: card / ignored

     Current dimensions of program PWSCF are:
     Max number of different atomic species (ntypx) = 10
     Max number of k-points (npk) =  40000
     Max angular momentum in pseudopotentials (lmaxx) =  4
     file Gd.paw.z_18.atompaw.wentzcovitch.v1.2.upf: wavefunction(s)  6S 0P 5D 0D 4F 0F renormalized
     file Al.pbe-n-kjpaw_psl.1.0.0.UPF: wavefunction(s)  3S 3P renormalized
     file O.pbe-n-kjpaw_psl.0.1.UPF: wavefunction(s)  2P renormalized
     Message from routine setup:
     using ibrav=0 with symmetry is DISCOURAGED, use correct ibrav instead

     K-points division:     npool     =       2
     R & G space division:  proc/nbgrp/npool/nimage =       4
     Subspace diagonalization in iterative solution of the eigenvalue problem:
     one sub-group per band group will be used

     Using Slab Decomposition

     bravais-lattice index     =            0
     lattice parameter (alat)  =       9.9864  a.u.
     unit-cell volume          =    1438.6178 (a.u.)^3
     number of atoms/cell      =           20
     number of atomic types    =            3
     number of electrons       =       156.00
     number of Kohn-Sham states=          256
     kinetic-energy cutoff     =      30.0000  Ry
     charge density cutoff     =     240.0000  Ry
     scf convergence threshold =      1.0E-06
     mixing beta               =       0.7000
     number of iterations used =            8  plain     mixing
     Exchange-correlation= SLA  PW   PBX  PBC
                           (   1   4   3   4   0   0   0)

     celldm(1)=   9.986392  celldm(2)=   0.000000  celldm(3)=   0.000000
     celldm(4)=   0.000000  celldm(5)=   0.000000  celldm(6)=   0.000000

     crystal axes: (cart. coord. in units of alat)
               a(1) = (   1.000000   0.000000   0.000000 )
               a(2) = (   0.000000   1.016379   0.000000 )
               a(3) = (   0.000000   0.000000   1.421229 )

     reciprocal axes: (cart. coord. in units 2 pi/alat)
               b(1) = (  1.000000  0.000000  0.000000 )
               b(2) = (  0.000000  0.983885  0.000000 )
               b(3) = (  0.000000  0.000000  0.703616 )

     PseudoPot. # 1 for Gd read from file:
     /lustre07/scratch/pragov/crystal_structure_design/utils/SSSP/Gd.paw.z_18.atompaw.wentzcovitch.v1.2.upf
     MD5 check sum: a44f32af2ba180e1a67c5cef9ff7f39b
     Pseudo is Projector augmented-wave + core cor, Zval = 18.0
     Generated using ATOMPAW code
     Shape of augmentation charge: BESSEL
     Using radial grid of 1110 points,  8 beta functions with:
                l(1) =   0
                l(2) =   0
                l(3) =   1
                l(4) =   1
                l(5) =   2
                l(6) =   2
                l(7) =   3
                l(8) =   3
     Q(r) pseudized with 0 coefficients

     PseudoPot. # 2 for Al read from file:
     /lustre07/scratch/pragov/crystal_structure_design/utils/SSSP/Al.pbe-n-kjpaw_psl.1.0.0.UPF
     MD5 check sum: cfc449ca30b5f3223ec38ddd88ac046d
     Pseudo is Projector augmented-wave + core cor, Zval =  3.0
     Generated using "atomic" code by A. Dal Corso  v.5.1
     Shape of augmentation charge: PSQ
     Using radial grid of 1135 points,  6 beta functions with:
                l(1) =   0
                l(2) =   0
                l(3) =   1
                l(4) =   1
                l(5) =   2
                l(6) =   2
     Q(r) pseudized with 0 coefficients

     PseudoPot. # 3 for O  read from file:
     /lustre07/scratch/pragov/crystal_structure_design/utils/SSSP/O.pbe-n-kjpaw_psl.0.1.UPF
     MD5 check sum: 0234752ac141de4415c5fc33072bef88
     Pseudo is Projector augmented-wave + core cor, Zval =  6.0
     Generated using "atomic" code by A. Dal Corso  v.5.0.99 svn rev. 10869
     Shape of augmentation charge: BESSEL
     Using radial grid of 1095 points,  4 beta functions with:
                l(1) =   0
                l(2) =   0
                l(3) =   1
                l(4) =   1
     Q(r) pseudized with 0 coefficients

     atomic species   valence    mass     pseudopotential
        Gd            18.00   157.25000     Gd( 1.00)
        Al             3.00    26.98154     Al( 1.00)
        O              6.00    15.99900     O ( 1.00)

      8 Sym. Ops., with inversion, found ( 6 have fractional translation)

                                    s                        frac. trans.

      isym =  1     identity

 cryst.   s( 1) = (     1          0          0      )
                  (     0          1          0      )
                  (     0          0          1      )

 cart.    s( 1) = (  1.0000000  0.0000000  0.0000000 )
                  (  0.0000000  1.0000000  0.0000000 )
                  (  0.0000000  0.0000000  1.0000000 )

      isym =  2     180 deg rotation - cart. axis [0,0,1]

 cryst.   s( 2) = (    -1          0          0      )    f =(  0.0000000 )
                  (     0         -1          0      )       (  0.0000000 )
                  (     0          0          1      )       (  0.5000000 )

 cart.    s( 2) = ( -1.0000000  0.0000000  0.0000000 )    f =(  0.0000000 )
                  (  0.0000000 -1.0000000  0.0000000 )       (  0.0000000 )
                  (  0.0000000  0.0000000  1.0000000 )       (  0.7106144 )

[...]

      isym =  4     180 deg rotation - cart. axis [1,0,0]

[...]

      isym =  5     inversion

 cryst.   s( 5) = (    -1          0          0      )
                  (     0         -1          0      )
                  (     0          0         -1      )

 cart.    s( 5) = ( -1.0000000  0.0000000  0.0000000 )
                  (  0.0000000 -1.0000000  0.0000000 )
                  (  0.0000000  0.0000000 -1.0000000 )

      isym =  6     inv. 180 deg rotation - cart. axis [0,0,1]

[...]

      isym =  8     inv. 180 deg rotation - cart. axis [1,0,0]

 cryst.   s( 8) = (    -1          0          0      )    f =(  0.5000000 )
                  (     0          1          0      )       ( -0.5000000 )
                  (     0          0          1      )       (  0.0000000 )

 cart.    s( 8) = ( -1.0000000  0.0000000  0.0000000 )    f =(  0.5000000 )
                  (  0.0000000  1.0000000  0.0000000 )       ( -0.5081894 )
                  (  0.0000000  0.0000000  1.0000000 )       (  0.0000000 )

   Cartesian axes

     site n.     atom                  positions (alat units)
         1           Gd  tau(   1) = (   0.0100710   0.9720921   1.0659217  )
         2           Gd  tau(   2) = (   0.5100710   0.5524761   0.3553072  )
         3           Gd  tau(   3) = (   0.4899290   0.4639027   1.0659217  )
         4           Gd  tau(   4) = (   0.9899290   0.0442867   0.3553072  )
         5           Al  tau(   5) = (   0.5000000   0.0000000   0.7106144  )
         6           Al  tau(   6) = (   0.0000000   0.5081894   0.7106144  )
         7           Al  tau(   7) = (   0.0000000   0.5081894   0.0000000  )
         8           Al  tau(   8) = (   0.5000000   0.0000000   0.0000000  )
         9           O   tau(   9) = (   0.7129030   0.2923024   0.6523242  )
        10           O   tau(  10) = (   0.2129030   0.2158870   0.7689047  )
        11           O   tau(  11) = (   0.7870970   0.8004918   0.0582903  )
        12           O   tau(  12) = (   0.2870970   0.7240764   1.3629386  )
        13           O   tau(  13) = (   0.2870970   0.7240764   0.7689047  )
        14           O   tau(  14) = (   0.7870970   0.8004918   0.6523242  )
        15           O   tau(  15) = (   0.2129030   0.2158870   1.3629386  )
        16           O   tau(  16) = (   0.7129030   0.2923024   0.0582903  )
        17           O   tau(  17) = (   0.0771810   0.4904983   0.3553072  )
        18           O   tau(  18) = (   0.5771810   0.0176911   1.0659217  )
        19           O   tau(  19) = (   0.4228190   0.9986877   0.3553072  )
        20           O   tau(  20) = (   0.9228190   0.5258805   1.0659217  )

   Crystallographic axes

     site n.     atom                  positions (cryst. coord.)
         1           Gd  tau(   1) = (  0.0100710  0.9564270  0.7500000  )
         2           Gd  tau(   2) = (  0.5100710  0.5435730  0.2500000  )
         3           Gd  tau(   3) = (  0.4899290  0.4564270  0.7500000  )
         4           Gd  tau(   4) = (  0.9899290  0.0435730  0.2500000  )
         5           Al  tau(   5) = (  0.5000000  0.0000000  0.5000000  )
         6           Al  tau(   6) = (  0.0000000  0.5000000  0.5000000  )
         7           Al  tau(   7) = (  0.0000000  0.5000000  0.0000000  )
         8           Al  tau(   8) = (  0.5000000  0.0000000  0.0000000  )
         9           O   tau(   9) = (  0.7129030  0.2875920  0.4589860  )
        10           O   tau(  10) = (  0.2129030  0.2124080  0.5410140  )
        11           O   tau(  11) = (  0.7870970  0.7875920  0.0410140  )
        12           O   tau(  12) = (  0.2870970  0.7124080  0.9589860  )
        13           O   tau(  13) = (  0.2870970  0.7124080  0.5410140  )
        14           O   tau(  14) = (  0.7870970  0.7875920  0.4589860  )
        15           O   tau(  15) = (  0.2129030  0.2124080  0.9589860  )
        16           O   tau(  16) = (  0.7129030  0.2875920  0.0410140  )
        17           O   tau(  17) = (  0.0771810  0.4825940  0.2500000  )
        18           O   tau(  18) = (  0.5771810  0.0174060  0.7500000  )
        19           O   tau(  19) = (  0.4228190  0.9825940  0.2500000  )
        20           O   tau(  20) = (  0.9228190  0.5174060  0.7500000  )

     number of k points=     8
                       cart. coord. in units 2pi/alat
        k(    1) = (   0.0000000   0.0000000   0.0000000), wk =   0.0740741
        k(    2) = (   0.0000000   0.0000000   0.2345388), wk =   0.1481481
        k(    3) = (   0.0000000   0.3279617   0.0000000), wk =   0.1481481
        k(    4) = (   0.0000000   0.3279617   0.2345388), wk =   0.2962963
        k(    5) = (   0.3333333   0.0000000   0.0000000), wk =   0.1481481
        k(    6) = (   0.3333333   0.0000000   0.2345388), wk =   0.2962963
        k(    7) = (   0.3333333   0.3279617   0.0000000), wk =   0.2962963
        k(    8) = (   0.3333333   0.3279617   0.2345388), wk =   0.5925926

                       cryst. coord.
        k(    1) = (   0.0000000   0.0000000   0.0000000), wk =   0.0740741
        k(    2) = (   0.0000000   0.0000000   0.3333333), wk =   0.1481481
        k(    3) = (   0.0000000   0.3333333   0.0000000), wk =   0.1481481
        k(    4) = (   0.0000000   0.3333333   0.3333333), wk =   0.2962963
        k(    5) = (   0.3333333   0.0000000   0.0000000), wk =   0.1481481
        k(    6) = (   0.3333333   0.0000000   0.3333333), wk =   0.2962963
        k(    7) = (   0.3333333   0.3333333   0.0000000), wk =   0.2962963
        k(    8) = (   0.3333333   0.3333333   0.3333333), wk =   0.5925926

     Check: negative core charge=   -0.000010

     Initial potential from superposition of free atoms

     starting charge     155.9702, renormalised to     156.0000
     Starting wfcs are  192 randomized atomic wfcs +   64 random wfcs
     Checking if some PAW data can be deallocated...

     Self-consistent Calculation

     iteration #  1     ecut=    30.00 Ry     beta= 0.70
     Davidson diagonalization with overlap

     ethr =  1.00E-02,  avg # of iterations =  9.1

     total energy              =   -3390.54451512 Ry
     estimated scf accuracy    <       4.24030778 Ry

[...]

     total energy              =   -3393.93289491 Ry
     estimated scf accuracy    <       0.00000336 Ry

     iteration # 47     ecut=    30.00 Ry     beta= 0.70
     Davidson diagonalization with overlap

     ethr =  2.16E-09,  avg # of iterations =  1.1

     End of self-consistent calculation

          k = 0.0000 0.0000 0.0000 (  4013 PWs)   bands (ev):

   -29.1528 -29.1349 -29.1135 -29.0984  -8.4807  -8.1323  -8.0726  -7.7529
    -7.6905  -7.4146  -7.2646  -7.1995  -7.1132  -7.0572  -7.0303  -6.9206
    -6.7807  -5.5897  -5.4617  -5.3630  -5.2326  -5.1849  -4.6273  -4.5988
    -4.5080  -4.3785  -4.3073  -4.2245   4.2843   5.7414   6.7033   6.8786
     6.9878   7.0092   7.0248   7.0338   7.0790   7.8525   8.3672   8.3915
     8.4793   8.5096   8.6011   9.1461   9.3136   9.4370   9.4855   9.5953
     9.6260   9.7234   9.8573   9.8576   9.8771   9.9755  10.1512  10.2547
    10.4477  10.4551  10.4743  10.6650  10.6658  10.8902  11.0107  11.0389
    12.4332  12.4495  12.4796  12.4888  12.5133  12.5286  12.5349  12.5350
    12.5451  12.5706  12.6096  12.6101  12.6402  12.6517  12.6777  12.6967
    12.8338  12.8426  12.9081  12.9187  12.9329  12.9450  12.9999  13.0313
    13.0594  13.0694  13.1021  13.1701  16.9333  17.2238  17.3891  17.5338
    17.6806  17.8109  18.1658  18.1712  18.6038  18.6787  18.9183  18.9817
    19.2278  19.3512  19.9581  20.0279  20.3345  20.5117  20.5419  20.5572
    20.8679  21.1034  21.3041  22.3771  22.5226  22.5958  23.2640  23.6515
    23.9176  23.9308  24.1223  24.2339  24.5352  25.1798  25.5823  25.6741
    26.0082  26.4030  26.4611  26.9881  26.9892  27.0992  27.3747  27.3901
    27.4132  27.4630  27.6557  27.6568  27.8244  28.0566  28.0982  28.3113
    28.3126  29.5914  29.7212  30.4884  31.1071  31.1095  31.4121  31.4832
    31.7273  31.9214  32.0791  32.5313  32.5495  32.6498  33.0048  33.0771
    34.1841  34.2259  34.6297  34.9040  34.9508  35.1336  35.8053  36.0683
    36.9512  37.0345  37.4677  37.5590  37.7689  37.9856  38.3883  38.7282
    38.7669  38.7915  38.8144  38.9920  39.0772  39.1958  39.3780  39.4362
    39.6317  39.9049  40.0666  40.3458  40.3606  40.4884  40.7403  41.0635
    41.0860  41.1308  41.3739  41.5475  41.9327  41.9489  42.2076  42.3981
    42.4896  42.5942  42.8146  43.1955  43.4316  43.6412  43.7518  44.0954
    44.1878  44.2225  44.2721  44.3376  44.6738  44.7095  44.8869  45.2318
    45.2435  45.6674  46.3794  46.3979  46.7233  46.7332  47.0668  47.3594
    47.3618  47.3755  47.7999  47.9804  48.2237  48.3001  48.5186  48.8061
    48.9557  49.1055  49.2150  49.5446  49.8176  49.9553  50.8234  50.8737
    50.9205  51.0807  51.2085  51.4213  51.4353  51.6535  51.8616  52.0644
    52.2255  52.2422  52.2938  52.3481  52.3515  52.5937  52.7077  52.7547

     occupation numbers
     1.0000   1.0000   1.0000   1.0000   1.0000   1.0000   1.0000   1.0000
     1.0000   1.0000   1.0000   1.0000   1.0000   1.0000   1.0000   1.0000
     1.0000   1.0000   1.0000   1.0000   1.0000   1.0000   1.0000   1.0000
     1.0000   1.0000   1.0000   1.0000   1.0000   1.0000   1.0000   1.0000
     1.0000   1.0000   1.0000   1.0000   1.0000   1.0000   1.0000   1.0000
     1.0000   1.0000   1.0000   1.0000   1.0000   1.0000   1.0000   1.0000
     1.0000   1.0000   1.0000   1.0000   1.0000   1.0000   1.0000   1.0000
     1.0000   1.0000   1.0000   1.0000   1.0000   1.0000   1.0000   1.0000
     1.0000   1.0000   1.0000   1.0000   1.0000   1.0000   1.0000   1.0000
     1.0000   1.0000   1.0000   1.0000   1.0000   1.0000   0.0000   0.0000
     0.0000   0.0000   0.0000   0.0000   0.0000   0.0000   0.0000   0.0000
     0.0000   0.0000   0.0000   0.0000   0.0000   0.0000   0.0000   0.0000
     0.0000   0.0000   0.0000   0.0000   0.0000   0.0000   0.0000   0.0000
     0.0000   0.0000   0.0000   0.0000   0.0000   0.0000   0.0000   0.0000
     0.0000   0.0000   0.0000   0.0000   0.0000   0.0000   0.0000   0.0000
     0.0000   0.0000   0.0000   0.0000   0.0000   0.0000   0.0000   0.0000
     0.0000   0.0000   0.0000   0.0000   0.0000   0.0000   0.0000   0.0000
     0.0000   0.0000   0.0000   0.0000   0.0000   0.0000   0.0000   0.0000
     0.0000   0.0000   0.0000   0.0000   0.0000   0.0000   0.0000   0.0000
     0.0000   0.0000   0.0000   0.0000   0.0000   0.0000   0.0000   0.0000
     0.0000   0.0000   0.0000   0.0000   0.0000   0.0000   0.0000   0.0000
     0.0000   0.0000   0.0000   0.0000   0.0000   0.0000   0.0000   0.0000
     0.0000   0.0000   0.0000   0.0000   0.0000   0.0000   0.0000   0.0000
     0.0000   0.0000   0.0000   0.0000   0.0000   0.0000   0.0000   0.0000
     0.0000   0.0000   0.0000   0.0000   0.0000   0.0000   0.0000   0.0000
     0.0000   0.0000   0.0000   0.0000   0.0000   0.0000   0.0000   0.0000
     0.0000   0.0000   0.0000   0.0000   0.0000   0.0000   0.0000   0.0000
     0.0000   0.0000   0.0000   0.0000   0.0000   0.0000   0.0000   0.0000
     0.0000   0.0000   0.0000   0.0000   0.0000   0.0000   0.0000   0.0000
     0.0000   0.0000   0.0000   0.0000   0.0000   0.0000   0.0000   0.0000
     0.0000   0.0000   0.0000   0.0000   0.0000   0.0000   0.0000   0.0000
     0.0000   0.0000   0.0000   0.0000   0.0000   0.0000   0.0000   0.0000

[...]

          k = 0.3333 0.3280 0.2345 (  3993 PWs)   bands (ev):

   -29.1337 -29.1264 -29.1225 -29.1156  -8.3735  -8.2808  -8.1528  -8.1045
    -7.8450  -7.7233  -7.4138  -7.3686  -7.1787  -7.1425  -6.9855  -6.9543
    -5.5595  -5.2585  -5.1948  -5.1057  -5.0105  -4.8492  -4.7957  -4.7372
    -4.6282  -4.6198  -4.3495  -4.3226   5.4120   5.8779   5.9358   6.2674
     6.9996   7.2235   7.3939   7.5722   7.6659   7.8213   7.9653   8.0994
     8.1768   8.3814   8.4964   8.7183   8.8569   9.0124   9.2838   9.2927
     9.3703   9.4882   9.6195   9.7682   9.8782   9.9142   9.9882  10.0654
    10.2909  10.3125  10.4193  10.4595  10.5570  10.7467  10.7844  10.8838
    12.4618  12.4751  12.4889  12.4955  12.5433  12.5462  12.5547  12.5572
    12.5665  12.5723  12.5949  12.6055  12.6067  12.6203  12.6225  12.6389
    12.8337  12.8449  12.8719  12.8724  12.9125  12.9309  12.9403  12.9623
    13.0170  13.0389  13.0487  13.0712  17.8677  17.9240  18.1240  18.2340
    18.3970  18.5856  18.7590  18.8232  19.1452  19.2916  19.3191  19.5268
    19.5964  19.8035  20.0732  20.1724  20.2544  20.2855  20.5350  20.6043
    20.8537  21.1466  21.4299  22.1549  22.5284  22.8640  23.0642  23.3071
    23.7989  24.1963  24.3006  24.7038  25.3232  25.3565  25.5026  25.5707
    25.7677  25.7985  25.8809  26.1285  26.4106  26.5705  26.7527  27.0884
    27.1444  27.3400  27.4390  27.5980  27.6916  27.9752  28.3313  28.5389
    28.8702  28.9813  29.2125  29.7681  30.4472  30.6230  30.8475  31.1401
    31.5799  31.8841  32.4561  32.5684  33.0170  33.2936  33.3713  33.6796
    34.0043  34.3756  34.4371  34.7161  35.6514  35.8326  35.8886  36.0884
    36.1773  36.6906  37.0570  37.2238  37.4867  37.8352  37.9998  38.1501
    38.3298  38.4948  38.6029  38.8337  38.8912  39.0794  39.2700  39.5189
    39.6443  39.7461  39.9166  40.1145  40.3387  40.6389  40.7082  40.8615
    41.0868  41.3211  41.4023  41.7275  41.9662  42.0166  42.3678  42.5530
    42.9306  43.0497  43.2873  43.3563  43.3871  43.5263  43.8642  43.9066
    44.1836  44.3947  44.5806  44.8038  44.9761  45.2023  45.2707  45.5222
    45.5970  45.8822  46.0295  46.3582  46.3931  46.7734  46.8727  47.0274
    47.0923  47.4220  47.5642  47.8368  48.0692  48.2088  48.6647  48.7021
    48.9295  49.2778  49.3675  49.5759  49.8572  50.0972  50.1760  50.2847
    50.4531  50.8141  50.9691  51.0804  51.1316  51.4894  51.5920  51.6440
    52.1338  52.2008  52.5024  52.5785  52.9403  52.9874  53.2073  53.4075

     occupation numbers
     1.0000   1.0000   1.0000   1.0000   1.0000   1.0000   1.0000   1.0000
     1.0000   1.0000   1.0000   1.0000   1.0000   1.0000   1.0000   1.0000
     1.0000   1.0000   1.0000   1.0000   1.0000   1.0000   1.0000   1.0000
     1.0000   1.0000   1.0000   1.0000   1.0000   1.0000   1.0000   1.0000
     1.0000   1.0000   1.0000   1.0000   1.0000   1.0000   1.0000   1.0000
     1.0000   1.0000   1.0000   1.0000   1.0000   1.0000   1.0000   1.0000
     1.0000   1.0000   1.0000   1.0000   1.0000   1.0000   1.0000   1.0000
     1.0000   1.0000   1.0000   1.0000   1.0000   1.0000   1.0000   1.0000
     1.0000   1.0000   1.0000   1.0000   1.0000   1.0000   1.0000   1.0000
     1.0000   1.0000   1.0000   1.0000   1.0000   1.0000   0.0000   0.0000
     0.0000   0.0000   0.0000   0.0000   0.0000   0.0000   0.0000   0.0000
     0.0000   0.0000   0.0000   0.0000   0.0000   0.0000   0.0000   0.0000
     0.0000   0.0000   0.0000   0.0000   0.0000   0.0000   0.0000   0.0000
     0.0000   0.0000   0.0000   0.0000   0.0000   0.0000   0.0000   0.0000
     0.0000   0.0000   0.0000   0.0000   0.0000   0.0000   0.0000   0.0000
     0.0000   0.0000   0.0000   0.0000   0.0000   0.0000   0.0000   0.0000
     0.0000   0.0000   0.0000   0.0000   0.0000   0.0000   0.0000   0.0000
     0.0000   0.0000   0.0000   0.0000   0.0000   0.0000   0.0000   0.0000
     0.0000   0.0000   0.0000   0.0000   0.0000   0.0000   0.0000   0.0000
     0.0000   0.0000   0.0000   0.0000   0.0000   0.0000   0.0000   0.0000
     0.0000   0.0000   0.0000   0.0000   0.0000   0.0000   0.0000   0.0000
     0.0000   0.0000   0.0000   0.0000   0.0000   0.0000   0.0000   0.0000
     0.0000   0.0000   0.0000   0.0000   0.0000   0.0000   0.0000   0.0000
     0.0000   0.0000   0.0000   0.0000   0.0000   0.0000   0.0000   0.0000
     0.0000   0.0000   0.0000   0.0000   0.0000   0.0000   0.0000   0.0000
     0.0000   0.0000   0.0000   0.0000   0.0000   0.0000   0.0000   0.0000
     0.0000   0.0000   0.0000   0.0000   0.0000   0.0000   0.0000   0.0000
     0.0000   0.0000   0.0000   0.0000   0.0000   0.0000   0.0000   0.0000
     0.0000   0.0000   0.0000   0.0000   0.0000   0.0000   0.0000   0.0000
     0.0000   0.0000   0.0000   0.0000   0.0000   0.0000   0.0000   0.0000
     0.0000   0.0000   0.0000   0.0000   0.0000   0.0000   0.0000   0.0000
     0.0000   0.0000   0.0000   0.0000   0.0000   0.0000   0.0000   0.0000

     highest occupied, lowest unoccupied level (ev):    12.6538   12.6225

!    total energy              =   -3393.93289309 Ry
     total all-electron energy =     -6484.666728 Ry
     estimated scf accuracy    <       0.00000060 Ry

     The total energy is the sum of the following terms:
     one-electron contribution =    -370.20575604 Ry
     hartree contribution      =     314.64080675 Ry
     xc contribution           =    -191.91082060 Ry
     ewald contribution        =   -1028.65387013 Ry
     one-center paw contrib.   =   -2117.80325307 Ry
      -> PAW hartree energy AE =     546.85080293 Ry
      -> PAW hartree energy PS =    -519.63412810 Ry
      -> PAW xc energy AE      =   -1489.97849593 Ry
      -> PAW xc energy PS      =      64.00437863 Ry
      -> total E_H with PAW    =     341.85748158 Ry
      -> total E_XC with PAW   =   -1617.88493791 Ry

     convergence has been achieved in  47 iterations

     Writing all to output data dir bands_nm/myprefix.save/

     General routines

     Parallel routines

     PAW routines

   This run was terminated on:  20:29:31  15Jul2023

   JOB DONE.