     Program PWSCF v.7.1 starts on 15Jul2023 at 14: 7:30

     Reading input from espresso_6559.pwi
Warning: card &CELL ignored
Warning: card / ignored

     Current dimensions of program PWSCF are:
     Max number of different atomic species (ntypx) = 10
     Max number of k-points (npk) =  40000
     Max angular momentum in pseudopotentials (lmaxx) =  4
     file Fe.pbe-spn-kjpaw_psl.0.2.1.UPF: wavefunction(s)  3D renormalized
     file O.pbe-n-kjpaw_psl.0.1.UPF: wavefunction(s)  2P renormalized
     Message from routine setup:
     the system is metallic, specify occupations
     Message from routine setup:
     using ibrav=0 with symmetry is DISCOURAGED, use correct ibrav instead

     K-points division:     npool     =       2
     R & G space division:  proc/nbgrp/npool/nimage =       4
     Subspace diagonalization in iterative solution of the eigenvalue problem:
     a serial algorithm will be used

     Using Slab Decomposition

     bravais-lattice index     =            0
     lattice parameter (alat)  =      10.9794  a.u.
     unit-cell volume          =     935.8783 (a.u.)^3
     number of atoms/cell      =           10
     number of atomic types    =            4
     number of electrons       =        87.00 (up:  46.00, down:  41.00)
     number of Kohn-Sham states=           64
     kinetic-energy cutoff     =      30.0000  Ry
     charge density cutoff     =     240.0000  Ry
     scf convergence threshold =      1.0E-06
     mixing beta               =       0.7000
     number of iterations used =            8  plain     mixing
     Exchange-correlation= SLA  PW   PBX  PBC
                           (   1   4   3   4   0   0   0)

     celldm(1)=  10.979388  celldm(2)=   0.000000  celldm(3)=   0.000000
     celldm(4)=   0.000000  celldm(5)=   0.000000  celldm(6)=   0.000000

     crystal axes: (cart. coord. in units of alat)
               a(1) = (   1.000000   0.000000   0.000000 )
               a(2) = (   0.500000   0.866025   0.000000 )
               a(3) = (   0.500000   0.288675   0.816497 )

     reciprocal axes: (cart. coord. in units 2 pi/alat)
               b(1) = (  1.000000 -0.577350 -0.408248 )
               b(2) = (  0.000000  1.154701 -0.408248 )
               b(3) = (  0.000000  0.000000  1.224745 )

     PseudoPot. # 1 for Sr read from file:
     /lustre07/scratch/pragov/crystal_structure_design/utils/SSSP/Sr_pbe_v1.uspp.F.UPF
     MD5 check sum: 6b418c05fbe9db5448babca5e47b7a5b
     Pseudo is Ultrasoft + core correction, Zval = 10.0
     Generated by new atomic code, or converted to UPF format
     Using radial grid of  883 points,  6 beta functions with:
                l(1) =   0
                l(2) =   0
                l(3) =   1
                l(4) =   1
                l(5) =   2
                l(6) =   2
     Q(r) pseudized with  6 coefficients,  rinner =    1.400   1.400   1.400
                                                       1.400   1.400

     PseudoPot. # 2 for Fe read from file:
     /lustre07/scratch/pragov/crystal_structure_design/utils/SSSP/Fe.pbe-spn-kjpaw_psl.0.2.1.UPF
     MD5 check sum: e86618425769142926afa95317d90200
     Pseudo is Projector augmented-wave + core cor, Zval = 16.0
     Generated using "atomic" code by A. Dal Corso  v.5.0.99 svn rev. 10869
     Shape of augmentation charge: PSQ
     Using radial grid of 1191 points,  6 beta functions with:
                l(1) =   0
                l(2) =   0
                l(3) =   1
                l(4) =   1
                l(5) =   2
                l(6) =   2
     Q(r) pseudized with 0 coefficients

     PseudoPot. # 3 for Bi read from file:
     /lustre07/scratch/pragov/crystal_structure_design/utils/SSSP/Bi_pbe_v1.uspp.F.UPF
     MD5 check sum: cceb9f28ec65b6d7ff33140f5b0b1758
     Pseudo is Ultrasoft + core correction, Zval = 15.0
     Generated by new atomic code, or converted to UPF format
     Using radial grid of  899 points,  6 beta functions with:
                l(1) =   0
                l(2) =   0
                l(3) =   1
                l(4) =   1
                l(5) =   2
                l(6) =   2
     Q(r) pseudized with  6 coefficients,  rinner =    1.000   1.000   1.000
                                                       1.000   1.000

     PseudoPot. # 4 for O  read from file:
     /lustre07/scratch/pragov/crystal_structure_design/utils/SSSP/O.pbe-n-kjpaw_psl.0.1.UPF
     MD5 check sum: 0234752ac141de4415c5fc33072bef88
     Pseudo is Projector augmented-wave + core cor, Zval =  6.0
     Generated using "atomic" code by A. Dal Corso  v.5.0.99 svn rev. 10869
     Shape of augmentation charge: BESSEL
     Using radial grid of 1095 points,  4 beta functions with:
                l(1) =   0
                l(2) =   0
                l(3) =   1
                l(4) =   1
     Q(r) pseudized with 0 coefficients

     atomic species   valence    mass     pseudopotential
        Sr            10.00    87.62000     Sr( 1.00)
        Fe            16.00    55.84500     Fe( 1.00)
        Bi            15.00   208.98040     Bi( 1.00)
        O              6.00    15.99900     O ( 1.00)

     Starting magnetic structure
     atomic species   magnetization
        Sr           0.000
        Fe           0.000
        Bi           0.000
        O            0.000

     12 Sym. Ops., with inversion, found

                                    s                        frac. trans.

      isym =  1     identity

 cryst.   s( 1) = (     1          0          0      )
                  (     0          1          0      )
                  (     0          0          1      )

 cart.    s( 1) = (  1.0000000  0.0000000  0.0000000 )
                  (  0.0000000  1.0000000  0.0000000 )
                  (  0.0000000  0.0000000  1.0000000 )

      isym =  2     180 deg rotation - cart. axis [1,0,0]

[...]

      isym =  3     120 deg rotation - cryst. axis [0,0,1]

[...]

      isym =  6     180 deg rotation - cryst. axis [1,1,0]

[...]

      isym =  7     inversion

[...]

      isym =  8     inv. 180 deg rotation - cart. axis [1,0,0]

[...]

      isym =  9     inv. 120 deg rotation - cryst. axis [0,0,1]

 cryst.   s( 9) = (     1         -1          0      )
                  (     1          0          0      )
                  (     1          0         -1      )

 cart.    s( 9) = (  0.5000000  0.8660254 -0.0000000 )
                  ( -0.8660254  0.5000000 -0.0000000 )
                  (  0.0000000  0.0000000 -1.0000000 )

[...]

 cryst.   s(10) = (     0          1          0      )
                  (    -1          1          0      )
                  (     0          1         -1      )

 cart.    s(10) = (  0.5000000 -0.8660254  0.0000000 )
                  (  0.8660254  0.5000000 -0.0000000 )
                  (  0.0000000  0.0000000 -1.0000000 )

[...]

      isym = 12     inv. 180 deg rotation - cryst. axis [1,1,0]

 cryst.   s(12) = (     1         -1          0      )
                  (     0         -1          0      )
                  (     0         -1          1      )

 cart.    s(12) = (  0.5000000 -0.8660254  0.0000000 )
                  ( -0.8660254 -0.5000000  0.0000000 )
                  (  0.0000000  0.0000000  1.0000000 )

   Cartesian axes

     site n.     atom                  positions (alat units)
         1           Sr  tau(   1) = (   1.5000000   0.8660254   0.6123724  )
         2           Sr  tau(   2) = (   0.5000000   0.2886751   0.2041241  )
         3           Fe  tau(   3) = (   1.0000000   0.5773503   0.4082483  )
         4           Bi  tau(   4) = (   0.0000000   0.0000000   0.0000000  )
         5           O   tau(   5) = (   1.2442930   0.7183929   0.2087839  )
         6           O   tau(   6) = (   0.7557070   0.4363076   0.6077127  )
         7           O   tau(   7) = (   1.2442930   0.4363076   0.6077127  )
         8           O   tau(   8) = (   0.7557070   0.7183929   0.2087839  )
         9           O   tau(   9) = (   1.0000000   0.8594355   0.6077127  )
        10           O   tau(  10) = (   1.0000000   0.2952650   0.2087839  )

   Crystallographic axes

     site n.     atom                  positions (cryst. coord.)
         1           Sr  tau(   1) = (  0.7500000  0.7500000  0.7500000  )
         2           Sr  tau(   2) = (  0.2500000  0.2500000  0.2500000  )
         3           Fe  tau(   3) = (  0.5000000  0.5000000  0.5000000  )
         4           Bi  tau(   4) = (  0.0000000  0.0000000  0.0000000  )
         5           O   tau(   5) = (  0.7442930  0.7442930  0.2557070  )
         6           O   tau(   6) = (  0.2557070  0.2557070  0.7442930  )
         7           O   tau(   7) = (  0.7442930  0.2557070  0.7442930  )
         8           O   tau(   8) = (  0.2557070  0.7442930  0.2557070  )
         9           O   tau(   9) = (  0.2557070  0.7442930  0.7442930  )
        10           O   tau(  10) = (  0.7442930  0.2557070  0.2557070  )

     number of k points=     6
                       cart. coord. in units 2pi/alat
        k(    1) = (   0.0000000   0.0000000   0.0000000), wk =   0.0370370
        k(    2) = (   0.0000000   0.0000000   0.4082483), wk =   0.0740741
        k(    3) = (   0.0000000   0.3849002  -0.1360828), wk =   0.2222222
        k(    4) = (   0.0000000   0.3849002   0.2721655), wk =   0.2222222
        k(    5) = (   0.0000000   0.3849002  -0.5443311), wk =   0.2222222
        k(    6) = (   0.3333333  -0.5773503   0.0000000), wk =   0.2222222

                       cryst. coord.
        k(    1) = (   0.0000000   0.0000000   0.0000000), wk =   0.0370370
        k(    2) = (   0.0000000   0.0000000   0.3333333), wk =   0.0740741
        k(    3) = (   0.0000000   0.3333333   0.0000000), wk =   0.2222222
        k(    4) = (   0.0000000   0.3333333   0.3333333), wk =   0.2222222
        k(    5) = (   0.0000000   0.3333333  -0.3333333), wk =   0.2222222
        k(    6) = (   0.3333333  -0.3333333   0.0000000), wk =   0.2222222

     Check: negative core charge=   -0.000059
     Generating pointlists ...
     new r_m :   0.2063 (alat units)  2.2648 (a.u.) for type    1
     new r_m :   0.1425 (alat units)  1.5647 (a.u.) for type    2
     new r_m :   0.1492 (alat units)  1.6378 (a.u.) for type    3
     new r_m :   0.1425 (alat units)  1.5647 (a.u.) for type    4

     Initial potential from superposition of free atoms

     starting charge      85.9322, renormalised to      87.0000

     negative rho (up, down):  8.463E-02 8.463E-02
     Starting wfcs are   72 randomized atomic wfcs
     Checking if some PAW data can be deallocated...

     Self-consistent Calculation

     iteration #  1     ecut=    30.00 Ry     beta= 0.70
     Davidson diagonalization with overlap

     ethr =  1.00E-02,  avg # of iterations =  4.2

     negative rho (up, down):  8.424E-02 8.542E-02

     total energy              =    -900.82805584 Ry
     estimated scf accuracy    <       5.91667248 Ry

     total magnetization       =     5.00 Bohr mag/cell
     absolute magnetization    =     5.01 Bohr mag/cell

[...]

     total energy              =    -904.55339857 Ry
     estimated scf accuracy    <       0.00000536 Ry

[...]

     iteration #  9     ecut=    30.00 Ry     beta= 0.70
     Davidson diagonalization with overlap

     ethr =  6.16E-09,  avg # of iterations =  4.0

     negative rho (up, down):  8.871E-02 8.914E-02

     Magnetic moment per site  (integrated on atomic sphere of radius R)
     atom   1 (R=0.206)  charge=  7.7455  magn=  0.0009
     atom   2 (R=0.206)  charge=  7.7455  magn=  0.0009
     atom   3 (R=0.143)  charge= 13.1426  magn=  3.6172
     atom   4 (R=0.149)  charge=  9.7613  magn=  0.0427
     atom   5 (R=0.143)  charge=  5.4613  magn=  0.1529
     atom   6 (R=0.143)  charge=  5.4613  magn=  0.1529
     atom   7 (R=0.143)  charge=  5.4613  magn=  0.1529
     atom   8 (R=0.143)  charge=  5.4613  magn=  0.1529
     atom   9 (R=0.143)  charge=  5.4613  magn=  0.1529
     atom  10 (R=0.143)  charge=  5.4613  magn=  0.1529

     End of self-consistent calculation

 ------ SPIN UP ------------

          k = 0.0000 0.0000 0.0000 (  2637 PWs)   bands (ev):

   -81.2407 -46.7084 -46.7084 -46.7084 -24.1173 -24.0882 -13.1222 -13.1222
   -12.6341 -12.6341 -12.6341  -9.1788  -7.6696  -7.6696  -7.6696  -6.6973
    -6.6973  -6.2083  -6.2083  -6.2083  -6.0775  -6.0775  -6.0775  -0.5616
     4.6387   4.6387   4.6983   4.6983   4.6983   4.8691   4.8691   4.8692
     7.4742   7.4742   7.4742   7.9509   7.9509   7.9509   8.2083   8.2083
     8.2083   8.9262   8.9262   8.9262   9.7626  10.0949  10.0949  14.2845
    14.2845  14.6067  14.6252  14.6252  14.6252  16.3338  16.3338  16.3338
    17.8676  17.9655  17.9655  19.2366  19.2366  19.2366  21.4868  22.0169

     occupation numbers
     1.0000   1.0000   1.0000   1.0000   1.0000   1.0000   1.0000   1.0000
     1.0000   1.0000   1.0000   1.0000   1.0000   1.0000   1.0000   1.0000
     1.0000   1.0000   1.0000   1.0000   1.0000   1.0000   1.0000   1.0000
     1.0000   1.0000   1.0000   1.0000   1.0000   1.0000   1.0000   1.0000
     1.0000   1.0000   1.0000   1.0000   1.0000   1.0000   1.0000   1.0000
     1.0000   1.0000   1.0000   1.0000   1.0000   1.0000   0.0000   0.0000
     0.0000   0.0000   0.0000   0.0000   0.0000   0.0000   0.0000   0.0000
     0.0000   0.0000   0.0000   0.0000   0.0000   0.0000   0.0000   0.0000

[...]

 ------ SPIN DOWN ----------

[...]

          k = 0.3333-0.5774 0.0000 (  2592 PWs)   bands (ev):

   -76.6365 -42.2672 -42.2659 -42.2620 -24.1010 -24.1010 -13.0682 -13.0614
   -12.5948 -12.5938 -12.5938  -8.7527  -7.9993  -7.5626  -7.5409  -6.7332
    -6.5501  -6.0829  -6.0302  -5.9294  -5.8892  -5.8142  -5.7707   0.4318
     4.2813   4.8203   5.2434   6.0372   6.3054   6.4861   6.6426   7.0122
     7.3599   7.5419   7.5639   7.5792   7.7465   8.1623   8.4182   8.4513
     8.7929  10.1152  10.5134  10.6677  10.7264  11.7785  13.4779  15.9972
    16.0040  16.3048  16.4130  16.6005  16.7910  16.9439  17.1243  17.1627
    17.2349  17.3175  18.2711  18.7298  18.9304  19.6403  20.0479  21.2463

     occupation numbers
     1.0000   1.0000   1.0000   1.0000   1.0000   1.0000   1.0000   1.0000
     1.0000   1.0000   1.0000   1.0000   1.0000   1.0000   1.0000   1.0000
     1.0000   1.0000   1.0000   1.0000   1.0000   1.0000   1.0000   1.0000
     1.0000   1.0000   1.0000   1.0000   1.0000   1.0000   1.0000   1.0000
     1.0000   1.0000   1.0000   1.0000   1.0000   1.0000   1.0000   1.0000
     1.0000   0.0000   0.0000   0.0000   0.0000   0.0000   0.0000   0.0000
     0.0000   0.0000   0.0000   0.0000   0.0000   0.0000   0.0000   0.0000
     0.0000   0.0000   0.0000   0.0000   0.0000   0.0000   0.0000   0.0000

     highest occupied, lowest unoccupied level (ev):    10.1121    9.7177

!    total energy              =    -904.55340366 Ry
     estimated scf accuracy    <       0.00000064 Ry

     The total energy is the sum of the following terms:
     one-electron contribution =    -303.01310837 Ry
     hartree contribution      =     203.77105108 Ry
     xc contribution           =    -180.85381959 Ry
     ewald contribution        =    -491.21448813 Ry
     one-center paw contrib.   =    -133.24303865 Ry
      -> PAW hartree energy AE =       0.00000000 Ry
      -> PAW hartree energy PS =       0.00000000 Ry
      -> PAW xc energy AE      =       0.00000000 Ry
      -> PAW xc energy PS      =       0.00000000 Ry
      -> total E_H with PAW    =     203.77105108 Ry
      -> total E_XC with PAW   =    -180.85381959 Ry

     total magnetization       =     5.00 Bohr mag/cell
     absolute magnetization    =     5.03 Bohr mag/cell

     convergence has been achieved in   9 iterations

     Writing all to output data dir bands_nm/myprefix.save/

     General routines

     Parallel routines

     PAW routines

   This run was terminated on:  14: 8:16  15Jul2023

   JOB DONE.