     Program PWSCF v.7.1 starts on 13Jul2023 at  6:35:29

     Reading input from espresso_5495.pwi
Warning: card &CELL ignored
Warning: card / ignored

     Current dimensions of program PWSCF are:
     Max number of different atomic species (ntypx) = 10
     Max number of k-points (npk) =  40000
     Max angular momentum in pseudopotentials (lmaxx) =  4
     file Ba.pbe-spn-kjpaw_psl.1.0.0.UPF: wavefunction(s)  5S 6S renormalized
     Message from routine setup:
     using ibrav=0 with symmetry is DISCOURAGED, use correct ibrav instead

     K-points division:     npool     =       2
     R & G space division:  proc/nbgrp/npool/nimage =       8
     Subspace diagonalization in iterative solution of the eigenvalue problem:
     a serial algorithm will be used

     Using Slab Decomposition

     bravais-lattice index     =            0
     lattice parameter (alat)  =      16.6783  a.u.
     unit-cell volume          =    3570.3559 (a.u.)^3
     number of atoms/cell      =           14
     number of atomic types    =            3
     number of electrons       =       112.00
     number of Kohn-Sham states=           64
     kinetic-energy cutoff     =      30.0000  Ry
     charge density cutoff     =     240.0000  Ry
     scf convergence threshold =      1.0E-06
     mixing beta               =       0.7000
     number of iterations used =            8  plain     mixing
     Exchange-correlation=  SLA  PW   PBX  PBC
                           (   1   4   3   4   0   0   0)

     celldm(1)=  16.678263  celldm(2)=   0.000000  celldm(3)=   0.000000
     celldm(4)=   0.000000  celldm(5)=   0.000000  celldm(6)=   0.000000

     crystal axes: (cart. coord. in units of alat)
               a(1) = (   1.000000   0.000000   0.000000 )
               a(2) = (  -0.315229   0.949016   0.000000 )
               a(3) = (  -0.342386  -0.474508   0.810934 )

     reciprocal axes: (cart. coord. in units 2 pi/alat)
               b(1) = (  1.000000  0.332164  0.616573 )
               b(2) = (  0.000000  1.053723  0.616573 )
               b(3) = (  0.000000  0.000000  1.233146 )

     PseudoPot. # 1 for Rb read from file:
     /lustre07/scratch/pragov/crystal_structure_design/utils/SSSP/Rb_ONCV_PBE-1.0.oncvpsp.upf
     MD5 check sum: 55a5172d6bfbce6759a58e35d43f6aa9
     Pseudo is Norm-conserving, Zval =  9.0
     Generated using ONCVPSP code by D. R. Hamann
     Using radial grid of 2308 points,  6 beta functions with:
                l(1) =   0
                l(2) =   0
                l(3) =   1
                l(4) =   1
                l(5) =   2
                l(6) =   2

     PseudoPot. # 2 for Ba read from file:
     /lustre07/scratch/pragov/crystal_structure_design/utils/SSSP/Ba.pbe-spn-kjpaw_psl.1.0.0.UPF
     MD5 check sum: c432291d3e53af55f19d5e8866385beb
     Pseudo is Projector augmented-wave + core cor, Zval = 10.0
     Generated using "atomic" code by A. Dal Corso  v.5.1
     Shape of augmentation charge: PSQ
     Using radial grid of 1251 points,  7 beta functions with:
                l(1) =   0
                l(2) =   0
                l(3) =   0
                l(4) =   1
                l(5) =   1
                l(6) =   2
                l(7) =   2
     Q(r) pseudized with 0 coefficients

     PseudoPot. # 3 for Br read from file:
     /lustre07/scratch/pragov/crystal_structure_design/utils/SSSP/br_pbe_v1.4.uspp.F.UPF
     MD5 check sum: d3ffb7b29f6225aa16fe06858fb2a80b
     Pseudo is Ultrasoft + core correction, Zval =  7.0
     Generated by new atomic code, or converted to UPF format
     Using radial grid of  879 points,  6 beta functions with:
                l(1) =   0
                l(2) =   0
                l(3) =   1
                l(4) =   1
                l(5) =   2
                l(6) =   2
     Q(r) pseudized with  8 coefficients,  rinner =    1.100   1.100   1.100
                                                       1.100   1.100

     atomic species   valence    mass     pseudopotential
        Rb             9.00    85.46780     Rb( 1.00)
        Ba            10.00   137.32700     Ba( 1.00)
        Br             7.00    79.90400     Br( 1.00)

      2 Sym. Ops. (no inversion) found ( 1 have fractional translation)

                                    s                        frac. trans.

      isym =  1     identity

 cryst.   s( 1) = (     1          0          0      )
                  (     0          1          0      )
                  (     0          0          1      )

 cart.    s( 1) = (  1.0000000  0.0000000  0.0000000 )
                  (  0.0000000  1.0000000 -0.0000000 )
                  (  0.0000000  0.0000000  1.0000000 )

      isym =  2     inv. 180 deg rotation - cart. axis [0,0,1]

 cryst.   s( 2) = (     1          0          0      )    f =(  0.2500000 )
                  (     0          1          0      )       ( -0.2500000 )
                  (    -1         -1         -1      )       ( -0.5000000 )

 cart.    s( 2) = (  1.0000000  0.0000000  0.0000000 )    f =(  0.5000000 )
                  (  0.0000000  1.0000000  0.0000000 )       (  0.0000000 )
                  (  0.0000000  0.0000000 -1.0000000 )       ( -0.4054671 )

   Cartesian axes

     site n.     atom                  positions (alat units)
         1           Rb  tau(   1) = (  -0.0006208   0.1808378   0.5117855  )
         2           Rb  tau(   2) = (   0.5141992   0.5309240   0.2991488  )
         3           Rb  tau(   3) = (   0.1569936  -0.2936701   0.7046159  )
         4           Rb  tau(   4) = (   0.0141992   0.5309240   0.1063183  )
         5           Ba  tau(   5) = (   0.5000000  -0.0000000   0.4054671  )
         6           Ba  tau(   6) = (   0.0000000   0.0000000   0.0000000  )
         7           Br  tau(   7) = (   0.7752230   0.2221494   0.2023086  )
         8           Br  tau(   8) = (  -0.3759353   0.3312198   0.6086256  )
         9           Br  tau(   9) = (   0.3203790   0.7912072   0.0931999  )
        10           Br  tau(  10) = (   0.3074901   0.0789472   0.7177344  )
        11           Br  tau(  11) = (  -0.2183206  -0.1432890   0.6077758  )
        12           Br  tau(  12) = (   0.2752240   0.2221494   0.2031585  )
        13           Br  tau(  13) = (   0.1498754   0.5534560   0.4986670  )
        14           Br  tau(  14) = (   0.1356068  -0.1578085   0.3122673  )

   Crystallographic axes

     site n.     atom                  positions (cryst. coord.)
         1           Rb  tau(   1) = (  0.3750000  0.5061060  0.6311060  )
         2           Rb  tau(   2) = (  0.8750000  0.7438940  0.3688940  )
         3           Rb  tau(   3) = (  0.4938940  0.1250000  0.8688940  )
         4           Rb  tau(   4) = (  0.2561060  0.6250000  0.1311060  )
         5           Ba  tau(   5) = (  0.7500000  0.2500000  0.5000000  )
         6           Ba  tau(   6) = (  0.0000000  0.0000000  0.0000000  )
         7           Br  tau(   7) = (  0.9737510  0.3588220  0.2494760  )
         8           Br  tau(   8) = (  0.1093460  0.7242760  0.7505240  )
         9           Br  tau(   9) = (  0.6406540  0.8911780  0.1149290  )
        10           Br  tau(  10) = (  0.7762490  0.5257240  0.8850710  )
        11           Br  tau(  11) = (  0.1088220  0.2237510  0.7494760  )
        12           Br  tau(  12) = (  0.4742760  0.3593460  0.2505240  )
        13           Br  tau(  13) = (  0.6411780  0.8906540  0.6149290  )
        14           Br  tau(  14) = (  0.2757240  0.0262490  0.3850710  )

     number of k points=    10
                       cart. coord. in units 2pi/alat
        k(    1) = (   0.0000000   0.0000000   0.0000000), wk =   0.0740741
        k(    2) = (   0.0000000   0.0000000   0.4110485), wk =   0.1481481
        k(    3) = (   0.0000000   0.3512411   0.2055243), wk =   0.2962963
        k(    4) = (   0.0000000   0.3512411   0.6165728), wk =   0.1481481
        k(    5) = (   0.3333333   0.1107213   0.2055243), wk =   0.2962963
        k(    6) = (   0.3333333   0.1107213   0.6165728), wk =   0.1481481
        k(    7) = (   0.3333333   0.4619624   0.4110485), wk =   0.2962963
        k(    8) = (   0.3333333   0.4619624   0.0000000), wk =   0.1481481
        k(    9) = (   0.3333333  -0.2405198   0.0000000), wk =   0.1481481
        k(   10) = (   0.3333333  -0.2405198   0.4110485), wk =   0.2962963

                       cryst. coord.
        k(    1) = (   0.0000000   0.0000000   0.0000000), wk =   0.0740741
        k(    2) = (   0.0000000   0.0000000   0.3333333), wk =   0.1481481
        k(    3) = (   0.0000000   0.3333333   0.0000000), wk =   0.2962963
        k(    4) = (   0.0000000   0.3333333   0.3333333), wk =   0.1481481
        k(    5) = (   0.3333333   0.0000000   0.0000000), wk =   0.2962963
        k(    6) = (   0.3333333   0.0000000   0.3333333), wk =   0.1481481
        k(    7) = (   0.3333333   0.3333333   0.0000000), wk =   0.2962963
        k(    8) = (   0.3333333   0.3333333  -0.3333333), wk =   0.1481481
        k(    9) = (   0.3333333  -0.3333333  -0.0000000), wk =   0.1481481
        k(   10) = (   0.3333333  -0.3333333   0.3333333), wk =   0.2962963

     Check: negative core charge=   -0.000001

     Initial potential from superposition of free atoms

     starting charge     111.8668, renormalised to     112.0000
     Starting wfcs are   62 randomized atomic wfcs +    2 random wfcs
     Checking if some PAW data can be deallocated...

     Self-consistent Calculation

     iteration #  1     ecut=    30.00 Ry     beta= 0.70
     Davidson diagonalization with overlap

     ethr =  1.00E-02,  avg # of iterations =  7.5

     Threshold (ethr) on eigenvalues was too large:
     Diagonalizing with lowered threshold

     Davidson diagonalization with overlap

[...]

     negative rho (up, down):  8.804E-02 0.000E+00

     total energy              =   -1444.73965264 Ry
     estimated scf accuracy    <       0.50127803 Ry

[...]

     negative rho (up, down):  2.653E-02 0.000E+00

[...]

     total energy              =   -1444.84698700 Ry
     estimated scf accuracy    <       0.00000436 Ry

     iteration # 12     ecut=    30.00 Ry     beta= 0.70
     Davidson diagonalization with overlap

     ethr =  3.90E-09,  avg # of iterations =  1.0

     End of self-consistent calculation

          k = 0.0000 0.0000 0.0000 (  9949 PWs)   bands (ev):

   -23.6919 -23.6900 -22.2664 -22.2618 -22.2618 -22.2588 -10.2879 -10.2879
   -10.2434 -10.1950 -10.1684 -10.0943 -10.0943 -10.0367  -8.8497  -8.7745
    -8.7745  -8.7514  -8.6131  -8.6131  -6.4382  -6.4167  -6.3838  -6.3838
    -6.3708  -6.3708  -6.3689  -6.3576  -6.3438  -6.3424  -6.3424  -6.3257
     0.7411   0.8146   0.9387   0.9543   0.9543   1.0351   1.2410   1.3229
     1.3426   1.6255   1.6255   1.7170   1.7170   1.8133   1.9498   2.0794
     2.0794   2.1595   2.1799   2.2044   2.2044   2.4083   2.4083   2.4420
     6.6552   7.5119   7.5142   7.5142   7.6740   7.9223   8.2568   8.5499

     occupation numbers
     1.0000   1.0000   1.0000   1.0000   1.0000   1.0000   1.0000   1.0000
     1.0000   1.0000   1.0000   1.0000   1.0000   1.0000   1.0000   1.0000
     1.0000   1.0000   1.0000   1.0000   1.0000   1.0000   1.0000   1.0000
     1.0000   1.0000   1.0000   1.0000   1.0000   1.0000   1.0000   1.0000
     1.0000   1.0000   1.0000   1.0000   1.0000   1.0000   1.0000   1.0000
     1.0000   1.0000   1.0000   1.0000   1.0000   1.0000   1.0000   1.0000
     1.0000   1.0000   1.0000   1.0000   1.0000   1.0000   1.0000   1.0000
     0.0000   0.0000   0.0000   0.0000   0.0000   0.0000   0.0000   0.0000

[...]

          k = 0.3333-0.2405 0.4110 (  9883 PWs)   bands (ev):

   -23.6912 -23.6907 -22.2642 -22.2622 -22.2620 -22.2604 -10.3256 -10.3181
   -10.2643 -10.2063 -10.1423 -10.0878 -10.0376 -10.0033  -8.8292  -8.8227
    -8.7678  -8.7049  -8.6533  -8.6212  -6.4142  -6.4105  -6.3937  -6.3845
    -6.3790  -6.3724  -6.3700  -6.3588  -6.3584  -6.3477  -6.3413  -6.3229
     0.8507   0.9297   1.0171   1.0482   1.0787   1.2057   1.2843   1.3171
     1.3817   1.4797   1.5645   1.5678   1.6911   1.7568   1.8379   1.9386
     1.9899   2.0388   2.0866   2.1924   2.2188   2.2482   2.4206   2.4531
     7.5429   7.5931   7.7877   7.8142   7.8778   8.0073   8.1386   8.2438

     occupation numbers
     1.0000   1.0000   1.0000   1.0000   1.0000   1.0000   1.0000   1.0000
     1.0000   1.0000   1.0000   1.0000   1.0000   1.0000   1.0000   1.0000
     1.0000   1.0000   1.0000   1.0000   1.0000   1.0000   1.0000   1.0000
     1.0000   1.0000   1.0000   1.0000   1.0000   1.0000   1.0000   1.0000
     1.0000   1.0000   1.0000   1.0000   1.0000   1.0000   1.0000   1.0000
     1.0000   1.0000   1.0000   1.0000   1.0000   1.0000   1.0000   1.0000
     1.0000   1.0000   1.0000   1.0000   1.0000   1.0000   1.0000   1.0000
     0.0000   0.0000   0.0000   0.0000   0.0000   0.0000   0.0000   0.0000

     highest occupied, lowest unoccupied level (ev):     2.4531    6.6552

!    total energy              =   -1444.84698701 Ry
     estimated scf accuracy    <       0.00000083 Ry

     The total energy is the sum of the following terms:
     one-electron contribution =     -95.23672879 Ry
     hartree contribution      =      88.20562356 Ry
     xc contribution           =    -280.00022910 Ry
     ewald contribution        =    -407.91329917 Ry
     one-center paw contrib.   =    -749.90235351 Ry
      -> PAW hartree energy AE =       0.00000000 Ry
      -> PAW hartree energy PS =       0.00000000 Ry
      -> PAW xc energy AE      =       0.00000000 Ry
      -> PAW xc energy PS      =       0.00000000 Ry
      -> total E_H with PAW    =      88.20562356 Ry
      -> total E_XC with PAW   =    -280.00022910 Ry

     convergence has been achieved in  12 iterations

     Writing all to output data dir bands_nm/myprefix.save/

     General routines

     Parallel routines

     PAW routines

   This run was terminated on:   6:35:45  13Jul2023

   JOB DONE.