     Program PWSCF v.7.1 starts on 14Jul2023 at 18:26:51

     Reading input from espresso_20834.pwi
Warning: card &CELL ignored
Warning: card / ignored

     Current dimensions of program PWSCF are:
     Max number of different atomic species (ntypx) = 10
     Max number of k-points (npk) =  40000
     Max angular momentum in pseudopotentials (lmaxx) =  4
     Message from routine setup:
     using ibrav=0 with symmetry is DISCOURAGED, use correct ibrav instead

     K-points division:     npool     =       2
     R & G space division:  proc/nbgrp/npool/nimage =       4
     Subspace diagonalization in iterative solution of the eigenvalue problem:
     a serial algorithm will be used

     Using Slab Decomposition

     bravais-lattice index     =            0
     lattice parameter (alat)  =      10.7262  a.u.
     unit-cell volume          =    1458.4272 (a.u.)^3
     number of atoms/cell      =           14
     number of atomic types    =            3
     number of electrons       =       114.00
     number of Kohn-Sham states=           64
     kinetic-energy cutoff     =      30.0000  Ry
     charge density cutoff     =     240.0000  Ry
     scf convergence threshold =      1.0E-06
     mixing beta               =       0.7000
     number of iterations used =            8  plain     mixing
     Exchange-correlation=  SLA  PW   PBX  PBC
                           (   1   4   3   4   0   0   0)

     celldm(1)=  10.726248  celldm(2)=   0.000000  celldm(3)=   0.000000
     celldm(4)=   0.000000  celldm(5)=   0.000000  celldm(6)=   0.000000

     crystal axes: (cart. coord. in units of alat)
               a(1) = (   1.000000   0.000000   0.000000 )
               a(2) = (   0.306348   0.951920   0.000000 )
               a(3) = (   0.464721   0.338637   1.241484 )

     reciprocal axes: (cart. coord. in units 2 pi/alat)
               b(1) = (  1.000000 -0.321821 -0.286545 )
               b(2) = (  0.000000  1.050509 -0.286545 )
               b(3) = (  0.000000  0.000000  0.805488 )

     PseudoPot. # 1 for Ca read from file:
     /lustre07/scratch/pragov/crystal_structure_design/utils/SSSP/Ca_pbe_v1.uspp.F.UPF
     MD5 check sum: 403a4c14b9e4d4dfdc3024c9a3812218
     Pseudo is Ultrasoft + core correction, Zval = 10.0
     Generated by new atomic code, or converted to UPF format
     Using radial grid of  845 points,  6 beta functions with:
                l(1) =   0
                l(2) =   0
                l(3) =   1
                l(4) =   1
                l(5) =   2
                l(6) =   2
     Q(r) pseudized with  8 coefficients,  rinner =    1.500   1.500   1.500
                                                       1.500   1.500

     PseudoPot. # 2 for Ti read from file:
     /lustre07/scratch/pragov/crystal_structure_design/utils/SSSP/ti_pbe_v1.4.uspp.F.UPF
     MD5 check sum: 88a00a6731bd790ddea75d31a80cb452
     Pseudo is Ultrasoft + core correction, Zval = 12.0
     Generated by new atomic code, or converted to UPF format
     Using radial grid of  851 points,  6 beta functions with:
                l(1) =   0
                l(2) =   0
                l(3) =   1
                l(4) =   1
                l(5) =   2
                l(6) =   2
     Q(r) pseudized with  6 coefficients,  rinner =    1.000   1.000   1.000
                                                       1.000   1.000

     PseudoPot. # 3 for F  read from file:
     /lustre07/scratch/pragov/crystal_structure_design/utils/SSSP/f_pbe_v1.4.uspp.F.UPF
     MD5 check sum: 4c38b6a325caf53ec0e86aed9459de46
     Pseudo is Ultrasoft, Zval =  7.0
     Generated by new atomic code, or converted to UPF format
     Using radial grid of  799 points,  4 beta functions with:
                l(1) =   0
                l(2) =   0
                l(3) =   1
                l(4) =   1
     Q(r) pseudized with  8 coefficients,  rinner =    0.950   0.950   0.950

     atomic species   valence    mass     pseudopotential
        Ca            10.00    40.07800     Ca( 1.00)
        Ti            12.00    47.86700     Ti( 1.00)
        F              7.00    18.99840     F ( 1.00)

      2 Sym. Ops., with inversion, found

                                    s                        frac. trans.

      isym =  1     identity

 cryst.   s( 1) = (     1          0          0      )
                  (     0          1          0      )
                  (     0          0          1      )

 cart.    s( 1) = (  1.0000000  0.0000000  0.0000000 )
                  (  0.0000000  1.0000000  0.0000000 )
                  (  0.0000000  0.0000000  1.0000000 )

      isym =  2     inversion

 cryst.   s( 2) = (    -1          0          0      )
                  (     0         -1          0      )
                  (     0          0         -1      )

 cart.    s( 2) = ( -1.0000000  0.0000000 -0.0000000 )
                  (  0.0000000 -1.0000000  0.0000000 )
                  (  0.0000000  0.0000000 -1.0000000 )

   Cartesian axes

     site n.     atom                  positions (alat units)
         1           Ca  tau(   1) = (   1.0299985   0.6911227   0.9311128  )
         2           Ca  tau(   2) = (   0.7410706   0.5994335   0.3103709  )
         3           Ti  tau(   3) = (   0.0000000   0.0000000   0.0000000  )
         4           Ti  tau(   4) = (   0.2323606   0.1693183   0.6207418  )
         5           F   tau(   5) = (   0.7222206   0.4967876   1.0947180  )
         6           F   tau(   6) = (   1.3092771   0.9245684   0.7675076  )
         7           F   tau(   7) = (   1.0488485   0.7937686   0.1467657  )
         8           F   tau(   8) = (   0.4617920   0.3659878   0.4739761  )
         9           F   tau(   9) = (   1.2822791   0.3449105   0.9311128  )
        10           F   tau(  10) = (   0.4887900   0.9456457   0.3103709  )
        11           F   tau(  11) = (   0.9950157   0.4347728   0.5824346  )
        12           F   tau(  12) = (   0.8200188   0.3072547   0.0383072  )
        13           F   tau(  13) = (   0.7760534   0.8557835   0.6590491  )
        14           F   tau(  14) = (   0.9510503   0.9833016   1.2031765  )

   Crystallographic axes

     site n.     atom                  positions (cryst. coord.)
         1           Ca  tau(   1) = (  0.5407750  0.4592250  0.7500000  )
         2           Ca  tau(   2) = (  0.4592250  0.5407750  0.2500000  )
         3           Ti  tau(   3) = (  0.0000000  0.0000000  0.0000000  )
         4           Ti  tau(   4) = ( -0.0000000 -0.0000000  0.5000000  )
         5           F   tau(   5) = (  0.2486580  0.2081940  0.8817820  )
         6           F   tau(   6) = (  0.7918060  0.7513420  0.6182180  )
         7           F   tau(   7) = (  0.7513420  0.7918060  0.1182180  )
         8           F   tau(   8) = (  0.2081940  0.2486580  0.3817820  )
         9           F   tau(   9) = (  0.9044740  0.0955260  0.7500000  )
        10           F   tau(  10) = (  0.0955260  0.9044740  0.2500000  )
        11           F   tau(  11) = (  0.6882030  0.2898390  0.4691440  )
        12           F   tau(  12) = (  0.7101610  0.3117970  0.0308560  )
        13           F   tau(  13) = (  0.3117970  0.7101610  0.5308560  )
        14           F   tau(  14) = (  0.2898390  0.6882030  0.9691440  )

     number of k points=    14
                       cart. coord. in units 2pi/alat
        k(    1) = (   0.0000000   0.0000000   0.0000000), wk =   0.0740741
        k(    2) = (   0.0000000   0.0000000   0.2684959), wk =   0.1481481
        k(    3) = (   0.0000000   0.3501696  -0.0955149), wk =   0.1481481
        k(    4) = (   0.0000000   0.3501696   0.1729810), wk =   0.1481481
        k(    5) = (   0.0000000   0.3501696  -0.3640109), wk =   0.1481481
        k(    6) = (   0.3333333  -0.1072737  -0.0955149), wk =   0.1481481
        k(    7) = (   0.3333333  -0.1072737   0.1729810), wk =   0.1481481
        k(    8) = (   0.3333333  -0.1072737  -0.3640109), wk =   0.1481481
        k(    9) = (   0.3333333   0.2428959  -0.1910299), wk =   0.1481481
        k(   10) = (   0.3333333   0.2428959   0.0774660), wk =   0.1481481
        k(   11) = (   0.3333333   0.2428959  -0.4595258), wk =   0.1481481
        k(   12) = (   0.3333333  -0.4574434   0.0000000), wk =   0.1481481
        k(   13) = (   0.3333333  -0.4574434   0.2684959), wk =   0.1481481
        k(   14) = (   0.3333333  -0.4574434  -0.2684959), wk =   0.1481481

                       cryst. coord.
        k(    1) = (   0.0000000   0.0000000   0.0000000), wk =   0.0740741
        k(    2) = (   0.0000000   0.0000000   0.3333333), wk =   0.1481481
        k(    3) = (   0.0000000   0.3333333   0.0000000), wk =   0.1481481
        k(    4) = (   0.0000000   0.3333333   0.3333333), wk =   0.1481481
        k(    5) = (   0.0000000   0.3333333  -0.3333333), wk =   0.1481481
        k(    6) = (   0.3333333   0.0000000   0.0000000), wk =   0.1481481
        k(    7) = (   0.3333333   0.0000000   0.3333333), wk =   0.1481481
        k(    8) = (   0.3333333   0.0000000  -0.3333333), wk =   0.1481481
        k(    9) = (   0.3333333   0.3333333   0.0000000), wk =   0.1481481
        k(   10) = (   0.3333333   0.3333333   0.3333333), wk =   0.1481481
        k(   11) = (   0.3333333   0.3333333  -0.3333333), wk =   0.1481481
        k(   12) = (   0.3333333  -0.3333333   0.0000000), wk =   0.1481481
        k(   13) = (   0.3333333  -0.3333333   0.3333333), wk =   0.1481481
        k(   14) = (   0.3333333  -0.3333333  -0.3333333), wk =   0.1481481

     Check: negative core charge=   -0.000003

     Initial potential from superposition of free atoms

     starting charge     111.9890, renormalised to     114.0000

     negative rho (up, down):  3.345E-03 0.000E+00
     Starting wfcs are   80 randomized atomic wfcs

     Self-consistent Calculation

     iteration #  1     ecut=    30.00 Ry     beta= 0.70
     Davidson diagonalization with overlap

     ethr =  1.00E-02,  avg # of iterations =  2.0

     Threshold (ethr) on eigenvalues was too large:
     Diagonalizing with lowered threshold

     Davidson diagonalization with overlap

[...]

     negative rho (up, down):  2.467E-03 0.000E+00

     total energy              =    -876.21317812 Ry
     estimated scf accuracy    <       0.59674808 Ry

[...]

     total energy              =    -876.40220122 Ry
     estimated scf accuracy    <       0.00000626 Ry

     iteration # 34     ecut=    30.00 Ry     beta= 0.70
     Davidson diagonalization with overlap

     ethr =  5.49E-09,  avg # of iterations =  1.0

     negative rho (up, down):  2.431E-03 0.000E+00

     End of self-consistent calculation

          k = 0.0000 0.0000 0.0000 (  4035 PWs)   bands (ev):

   -52.6014 -52.5995 -35.2764 -35.2677 -29.3144 -29.3123 -28.8602 -28.8323
   -28.7244 -28.6329 -19.7525 -19.4040 -19.1559 -18.9918 -18.9577 -18.7639
   -18.6979 -18.6967 -18.5434 -18.4585 -16.2509 -16.2375 -16.0412 -16.0309
   -15.9998 -15.9492  -2.6784  -1.8374  -1.6682  -1.5784  -1.5645  -1.5343
    -1.4157  -1.3912  -1.3426  -0.9480  -0.9346  -0.7279  -0.6533  -0.5774
    -0.3774  -0.3222  -0.1934  -0.1397  -0.1311  -0.0964   0.0142   0.1945
     0.3034   0.4364   0.4420   0.4930   0.5133   0.5674   0.7700   0.9019
     6.5706   6.5761   6.6240   6.7637   6.8319   7.0073   7.8779   8.3477

     occupation numbers
     1.0000   1.0000   1.0000   1.0000   1.0000   1.0000   1.0000   1.0000
     1.0000   1.0000   1.0000   1.0000   1.0000   1.0000   1.0000   1.0000
     1.0000   1.0000   1.0000   1.0000   1.0000   1.0000   1.0000   1.0000
     1.0000   1.0000   1.0000   1.0000   1.0000   1.0000   1.0000   1.0000
     1.0000   1.0000   1.0000   1.0000   1.0000   1.0000   1.0000   1.0000
     1.0000   1.0000   1.0000   1.0000   1.0000   1.0000   1.0000   1.0000
     1.0000   1.0000   1.0000   1.0000   1.0000   1.0000   1.0000   1.0000
     1.0000   0.0000   0.0000   0.0000   0.0000   0.0000   0.0000   0.0000

[...]

          k = 0.3333-0.4574-0.2685 (  4034 PWs)   bands (ev):

   -52.6009 -52.5999 -35.2742 -35.2698 -29.3141 -29.3129 -28.8505 -28.8372
   -28.7048 -28.6586 -19.6805 -19.4902 -19.0223 -18.9427 -18.9287 -18.8574
   -18.7308 -18.6887 -18.6109 -18.5046 -16.2180 -16.1334 -16.1064 -16.0280
   -16.0052 -15.9908  -2.3956  -1.9039  -1.7400  -1.7155  -1.5397  -1.4299
    -1.3255  -1.2414  -1.1227  -1.0758  -0.7760  -0.6985  -0.5820  -0.5116
    -0.4584  -0.2943  -0.2654  -0.1392  -0.0764  -0.0192   0.1012   0.1513
     0.1544   0.2064   0.2935   0.3753   0.4281   0.4329   0.6017   0.6890
     6.6239   6.6505   6.6732   6.7883   6.8061   6.9093   8.2546   8.6533

     occupation numbers
     1.0000   1.0000   1.0000   1.0000   1.0000   1.0000   1.0000   1.0000
     1.0000   1.0000   1.0000   1.0000   1.0000   1.0000   1.0000   1.0000
     1.0000   1.0000   1.0000   1.0000   1.0000   1.0000   1.0000   1.0000
     1.0000   1.0000   1.0000   1.0000   1.0000   1.0000   1.0000   1.0000
     1.0000   1.0000   1.0000   1.0000   1.0000   1.0000   1.0000   1.0000
     1.0000   1.0000   1.0000   1.0000   1.0000   1.0000   1.0000   1.0000
     1.0000   1.0000   1.0000   1.0000   1.0000   1.0000   1.0000   1.0000
     1.0000   0.0000   0.0000   0.0000   0.0000   0.0000   0.0000   0.0000

     highest occupied, lowest unoccupied level (ev):     6.6277    6.5698

!    total energy              =    -876.40220140 Ry
     estimated scf accuracy    <       0.00000009 Ry

     The total energy is the sum of the following terms:
     one-electron contribution =    -523.34857319 Ry
     hartree contribution      =     308.55862375 Ry
     xc contribution           =    -153.81152751 Ry
     ewald contribution        =    -507.80072445 Ry

     convergence has been achieved in  34 iterations

     Writing all to output data dir bands_nm/myprefix.save/

     General routines

     Parallel routines

   This run was terminated on:  18:27:18  14Jul2023

   JOB DONE.