     Program PWSCF v.7.1 starts on 15Jul2023 at 18:52:32

     Reading input from espresso_20916.pwi
Warning: card &CELL ignored
Warning: card / ignored

     Current dimensions of program PWSCF are:
     Max number of different atomic species (ntypx) = 10
     Max number of k-points (npk) =  40000
     Max angular momentum in pseudopotentials (lmaxx) =  4
     file Lu.paw.z_25.atompaw.wentzcovitch.v1.2.upf: wavefunction(s)  6S 0P 5D 0D 0F renormalized
     Message from routine setup:
     using ibrav=0 with symmetry is DISCOURAGED, use correct ibrav instead

     K-points division:     npool     =       2
     R & G space division:  proc/nbgrp/npool/nimage =       4
     Subspace diagonalization in iterative solution of the eigenvalue problem:
     one sub-group per band group will be used

     Using Slab Decomposition

     bravais-lattice index     =            0
     lattice parameter (alat)  =      25.1660  a.u.
     unit-cell volume          =    3719.4650 (a.u.)^3
     number of atoms/cell      =           20
     number of atomic types    =            2
     number of electrons       =       272.00
     number of Kohn-Sham states=          256
     kinetic-energy cutoff     =      30.0000  Ry
     charge density cutoff     =     240.0000  Ry
     scf convergence threshold =      1.0E-06
     mixing beta               =       0.7000
     number of iterations used =            8  plain     mixing
     Exchange-correlation= SLA  PW   PBE  PBE
                           (   1   4   3   4   0   0   0)

     celldm(1)=  25.165993  celldm(2)=   0.000000  celldm(3)=   0.000000
     celldm(4)=   0.000000  celldm(5)=   0.000000  celldm(6)=   0.000000

     crystal axes: (cart. coord. in units of alat)
               a(1) = (   1.000000   0.000000   0.000000 )
               a(2) = (   0.819385   0.489888   0.000000 )
               a(3) = (   0.180615  -0.114304   0.476367 )

     reciprocal axes: (cart. coord. in units 2 pi/alat)
               b(1) = (  1.000000 -1.672596 -0.780489 )
               b(2) = (  0.000000  2.041282  0.489803 )
               b(3) = (  0.000000  0.000000  2.099224 )

     PseudoPot. # 1 for Lu read from file:
     /lustre07/scratch/pragov/crystal_structure_design/utils/SSSP/Lu.paw.z_25.atompaw.wentzcovitch.v1.2.upf
     MD5 check sum: a517b3205eadf2aa79773283867f4cbe
     Pseudo is Projector augmented-wave + core cor, Zval = 25.0
     Generated using ATOMPAW code
     Shape of augmentation charge: BESSEL
     Using radial grid of 1118 points,  8 beta functions with:
                l(1) =   0
                l(2) =   0
                l(3) =   1
                l(4) =   1
                l(5) =   2
                l(6) =   2
                l(7) =   3
                l(8) =   3
     Q(r) pseudized with 0 coefficients

     PseudoPot. # 2 for Se read from file:
     /lustre07/scratch/pragov/crystal_structure_design/utils/SSSP/Se_pbe_v1.uspp.F.UPF
     MD5 check sum: 1b3568f3a8ae88f9a2a0ad0698632c85
     Pseudo is Ultrasoft + core correction, Zval =  6.0
     Generated by new atomic code, or converted to UPF format
     Using radial grid of  877 points,  6 beta functions with:
                l(1) =   0
                l(2) =   0
                l(3) =   1
                l(4) =   1
                l(5) =   2
                l(6) =   2
     Q(r) pseudized with  8 coefficients,  rinner =    1.300   1.300   1.300
                                                       1.300   1.300

     atomic species   valence    mass     pseudopotential
        Lu            25.00   174.96680     Lu( 1.00)
        Se             6.00    78.97100     Se( 1.00)

      2 Sym. Ops., with inversion, found ( 1 have fractional translation)

                                    s                        frac. trans.

      isym =  1     identity

 cryst.   s( 1) = (     1          0          0      )
                  (     0          1          0      )
                  (     0          0          1      )

 cart.    s( 1) = (  1.0000000  0.0000000  0.0000000 )
                  (  0.0000000  1.0000000 -0.0000000 )
                  (  0.0000000  0.0000000  1.0000000 )

      isym =  2     inversion

 cryst.   s( 2) = (    -1          0          0      )    f =( -0.2500000 )
                  (     0         -1          0      )       ( -0.2500000 )
                  (     0          0         -1      )       ( -0.2500000 )

 cart.    s( 2) = ( -1.0000000  0.0000000 -0.0000000 )    f =( -0.5000000 )
                  (  0.0000000 -1.0000000  0.0000000 )       ( -0.0938961 )
                  (  0.0000000  0.0000000 -1.0000000 )       ( -0.1190916 )

   Cartesian axes

     site n.     atom                  positions (alat units)
         1           Lu  tau(   1) = (   0.6374469   0.1445709   0.0791378  )
         2           Lu  tau(   2) = (   0.3625531   0.0432214   0.1590455  )
         3           Lu  tau(   3) = (   1.6819381   0.4392134   0.0399538  )
         4           Lu  tau(   4) = (   0.3180619  -0.0636289   0.4364128  )
         5           Lu  tau(   5) = (   1.9050843   0.4310374   0.2395228  )
         6           Lu  tau(   6) = (   1.0949157   0.1323395   0.4750270  )
         7           Lu  tau(   7) = (   0.5949157   0.0384433   0.3559354  )
         8           Lu  tau(   8) = (   1.4050843   0.3371412   0.1204312  )
         9           Se  tau(   9) = (   0.5000000   0.1858640   0.2357376  )
        10           Se  tau(  10) = (   0.5000000   0.0019283   0.0024457  )
        11           Se  tau(  11) = (   1.0000000   0.2836167   0.3597206  )
        12           Se  tau(  12) = (   1.0000000   0.0919679   0.1166460  )
        13           Se  tau(  13) = (   0.9576001  -0.0108581   0.3999922  )
        14           Se  tau(  14) = (   1.2241870   0.0823862   0.3161035  )
        15           Se  tau(  15) = (   1.0423999   0.3914853   0.0827701  )
        16           Se  tau(  16) = (   0.7758130   0.2881558   0.1538674  )
        17           Se  tau(  17) = (   0.7230149  -0.0095494   0.1954661  )
        18           Se  tau(  18) = (   1.2758130   0.3870945   0.2793547  )
        19           Se  tau(  19) = (   1.2769851   0.1922990   0.0363215  )
        20           Se  tau(  20) = (   0.7241870   0.1813249   0.4415909  )

   Crystallographic axes

     site n.     atom                  positions (cryst. coord.)
         1           Lu  tau(   1) = (  0.3338720  0.3338720  0.1661280  )
         2           Lu  tau(   2) = (  0.1661280  0.1661280  0.3338720  )
         3           Lu  tau(   3) = (  0.9161280  0.9161280  0.0838720  )
         4           Lu  tau(   4) = (  0.0838720  0.0838720  0.9161280  )
         5           Lu  tau(   5) = (  0.9971880  0.9971880  0.5028120  )
         6           Lu  tau(   6) = (  0.5028120  0.5028120  0.9971880  )
         7           Lu  tau(   7) = (  0.2528120  0.2528120  0.7471880  )
         8           Lu  tau(   8) = (  0.7471880  0.7471880  0.2528120  )
         9           Se  tau(   9) = (  0.0051340  0.4948660  0.4948660  )
        10           Se  tau(  10) = (  0.4948660  0.0051340  0.0051340  )
        11           Se  tau(  11) = (  0.2448660  0.7551340  0.7551340  )
        12           Se  tau(  12) = (  0.7551340  0.2448660  0.2448660  )
        13           Se  tau(  13) = (  0.6635720  0.1737530  0.8396730  )
        14           Se  tau(  14) = (  0.8396730  0.3230020  0.6635720  )
        15           Se  tau(  15) = (  0.3230020  0.8396730  0.1737530  )
        16           Se  tau(  16) = (  0.1737530  0.6635720  0.3230020  )
        17           Se  tau(  17) = (  0.5864280  0.0762470  0.4103270  )
        18           Se  tau(  18) = (  0.4103270  0.9269980  0.5864280  )
        19           Se  tau(  19) = (  0.9269980  0.4103270  0.0762470  )
        20           Se  tau(  20) = (  0.0762470  0.5864280  0.9269980  )

     number of k points=    14
                       cart. coord. in units 2pi/alat
        k(    1) = (   0.0000000   0.0000000   0.0000000), wk =   0.0740741
        k(    2) = (   0.0000000   0.0000000   0.6997412), wk =   0.1481481
        k(    3) = (   0.0000000   0.6804274   0.1632678), wk =   0.1481481
        k(    4) = (   0.0000000   0.6804274   0.8630090), wk =   0.1481481
        k(    5) = (   0.0000000   0.6804274  -0.5364734), wk =   0.1481481
        k(    6) = (   0.3333333  -0.5575320  -0.2601629), wk =   0.1481481
        k(    7) = (   0.3333333  -0.5575320   0.4395783), wk =   0.1481481
        k(    8) = (   0.3333333  -0.5575320  -0.9599042), wk =   0.1481481
        k(    9) = (   0.3333333   0.1228954  -0.0968951), wk =   0.1481481
        k(   10) = (   0.3333333   0.1228954   0.6028461), wk =   0.1481481
        k(   11) = (   0.3333333   0.1228954  -0.7966364), wk =   0.1481481
        k(   12) = (   0.3333333  -1.2379594  -0.4234307), wk =   0.1481481
        k(   13) = (   0.3333333  -1.2379594   0.2763105), wk =   0.1481481
        k(   14) = (   0.3333333  -1.2379594  -1.1231719), wk =   0.1481481

                       cryst. coord.
        k(    1) = (   0.0000000   0.0000000   0.0000000), wk =   0.0740741
        k(    2) = (   0.0000000   0.0000000   0.3333333), wk =   0.1481481
        k(    3) = (   0.0000000   0.3333333   0.0000000), wk =   0.1481481
        k(    4) = (   0.0000000   0.3333333   0.3333333), wk =   0.1481481
        k(    5) = (   0.0000000   0.3333333  -0.3333333), wk =   0.1481481
        k(    6) = (   0.3333333   0.0000000  -0.0000000), wk =   0.1481481
        k(    7) = (   0.3333333   0.0000000   0.3333333), wk =   0.1481481
        k(    8) = (   0.3333333   0.0000000  -0.3333333), wk =   0.1481481
        k(    9) = (   0.3333333   0.3333333   0.0000000), wk =   0.1481481
        k(   10) = (   0.3333333   0.3333333   0.3333333), wk =   0.1481481
        k(   11) = (   0.3333333   0.3333333  -0.3333333), wk =   0.1481481
        k(   12) = (   0.3333333  -0.3333333   0.0000000), wk =   0.1481481
        k(   13) = (   0.3333333  -0.3333333   0.3333333), wk =   0.1481481
        k(   14) = (   0.3333333  -0.3333333  -0.3333333), wk =   0.1481481

     Initial potential from superposition of free atoms

     starting charge     271.9690, renormalised to     272.0000
     Starting wfcs are  304 randomized atomic wfcs
     Checking if some PAW data can be deallocated...

     Self-consistent Calculation

     iteration #  1     ecut=    30.00 Ry     beta= 0.70
     Davidson diagonalization with overlap

     ethr =  1.00E-02,  avg # of iterations =  9.1

     Threshold (ethr) on eigenvalues was too large:
     Diagonalizing with lowered threshold

     Davidson diagonalization with overlap

[...]

     total energy              =   -9166.77558080 Ry
     estimated scf accuracy    <       0.93261394 Ry

[...]

     c_bands:  1 eigenvalues not converged
     c_bands:  1 eigenvalues not converged
     c_bands:  1 eigenvalues not converged
     ethr =  6.85E-06,  avg # of iterations = 10.4

[...]

     total energy              =   -9167.12011917 Ry
     estimated scf accuracy    <       0.00000137 Ry

     iteration # 10     ecut=    30.00 Ry     beta= 0.70
     Davidson diagonalization with overlap

     ethr =  5.04E-10,  avg # of iterations =  2.0

     End of self-consistent calculation

          k = 0.0000 0.0000 0.0000 ( 10341 PWs)   bands (ev):

   -47.8829 -47.8829 -47.8811 -47.8811 -47.7310 -47.7303 -47.7298 -47.7291
   -18.5717 -18.5706 -18.5568 -18.5565 -18.5530 -18.5525 -18.5442 -18.5400
   -18.5270 -18.5268 -18.4980 -18.4971 -18.4169 -18.4114 -18.4098 -18.4063
   -18.4005 -18.3986 -18.3855 -18.3801 -18.3748 -18.3699 -18.3505 -18.3459
    -4.5398  -4.1043  -3.9513  -3.6863  -3.6201  -3.6164  -3.5573  -3.5573
    -3.5562  -3.5531  -3.4619  -3.4617   3.5209   3.5384   3.5533   3.5538
     3.5689   3.5696   3.5748   3.5768   3.5772   3.5798   3.5806   3.5809
     3.5848   3.5849   3.5902   3.5904   3.5956   3.5957   3.5969   3.5982
     3.6008   3.6008   3.6058   3.6058   3.6061   3.6062   3.6106   3.6106
     3.6773   3.6782   3.6882   3.6972   3.7177   3.7186   3.7214   3.7228
     3.7230   3.7259   3.7290   3.7302   3.7330   3.7339   3.7345   3.7353
     3.7355   3.7409   3.7423   3.7435   3.7441   3.7445   3.7453   3.7457
     3.7470   3.7494   3.7494   3.7525   3.8779   3.8791   4.1465   4.1887
     4.6650   5.0562   5.1138   5.1692   5.1787   5.3585   5.3990   5.5609
     5.6182   5.6672   5.6845   5.8012   5.8156   5.8522   5.8732   5.9555
     5.9787   6.1160   6.2826   6.3636   6.5702   6.7579   6.7697   6.8054
     6.9299   6.9566   6.9775   7.1664   7.5203   8.0400   8.0471   8.0586
     9.3312  10.5552  10.7869  10.7935  11.1511  11.1847  11.2867  11.2894
    11.5158  11.5635  11.5735  11.6061  11.6929  11.7658  11.8276  11.9834
    12.0565  12.0747  12.2126  12.2952  12.4400  12.4635  12.5355  12.5561
    12.6118  12.6556  12.8533  12.9319  12.9623  12.9853  13.3032  13.3752
    13.6070  13.8097  13.8117  13.8185  13.8221  13.8322  14.0428  14.1057
    14.3809  14.5244  14.9079  14.9629  15.1264  15.1923  15.2392  15.4121
    15.4163  15.4845  15.9458  16.0645  16.2531  16.4277  16.5056  16.8057
    17.1079  17.1938  17.2129  17.3324  17.3789  17.5852  17.5973  17.6565
    17.6729  17.6765  17.8503  17.8764  17.9760  18.1284  18.2354  18.2645
    18.3284  18.3759  18.5925  18.6450  18.7892  18.7971  19.0195  19.0657
    19.2037  19.4404  19.6596  19.9625  19.9694  20.6670  20.6975  20.7241
    20.9682  20.9820  21.5101  21.8189  21.8618  21.8656  22.0061  22.0087
    22.0145  22.1352  22.1741  22.2384  22.3884  22.5756  22.6241  22.6918
    22.8793  22.9820  23.1384  23.1402  23.2645  23.2676  23.2756  23.3305
    23.3885  23.4105  23.4838  23.5100  23.5798  23.6190  23.7967  23.8474

     occupation numbers
     1.0000   1.0000   1.0000   1.0000   1.0000   1.0000   1.0000   1.0000
     1.0000   1.0000   1.0000   1.0000   1.0000   1.0000   1.0000   1.0000
     1.0000   1.0000   1.0000   1.0000   1.0000   1.0000   1.0000   1.0000
     1.0000   1.0000   1.0000   1.0000   1.0000   1.0000   1.0000   1.0000
     1.0000   1.0000   1.0000   1.0000   1.0000   1.0000   1.0000   1.0000
     1.0000   1.0000   1.0000   1.0000   1.0000   1.0000   1.0000   1.0000
     1.0000   1.0000   1.0000   1.0000   1.0000   1.0000   1.0000   1.0000
     1.0000   1.0000   1.0000   1.0000   1.0000   1.0000   1.0000   1.0000
     1.0000   1.0000   1.0000   1.0000   1.0000   1.0000   1.0000   1.0000
     1.0000   1.0000   1.0000   1.0000   1.0000   1.0000   1.0000   1.0000
     1.0000   1.0000   1.0000   1.0000   1.0000   1.0000   1.0000   1.0000
     1.0000   1.0000   1.0000   1.0000   1.0000   1.0000   1.0000   1.0000
     1.0000   1.0000   1.0000   1.0000   1.0000   1.0000   1.0000   1.0000
     1.0000   1.0000   1.0000   1.0000   1.0000   1.0000   1.0000   1.0000
     1.0000   1.0000   1.0000   1.0000   1.0000   1.0000   1.0000   1.0000
     1.0000   1.0000   1.0000   1.0000   1.0000   1.0000   1.0000   1.0000
     1.0000   1.0000   1.0000   1.0000   1.0000   1.0000   1.0000   1.0000
     0.0000   0.0000   0.0000   0.0000   0.0000   0.0000   0.0000   0.0000
     0.0000   0.0000   0.0000   0.0000   0.0000   0.0000   0.0000   0.0000
     0.0000   0.0000   0.0000   0.0000   0.0000   0.0000   0.0000   0.0000
     0.0000   0.0000   0.0000   0.0000   0.0000   0.0000   0.0000   0.0000
     0.0000   0.0000   0.0000   0.0000   0.0000   0.0000   0.0000   0.0000
     0.0000   0.0000   0.0000   0.0000   0.0000   0.0000   0.0000   0.0000
     0.0000   0.0000   0.0000   0.0000   0.0000   0.0000   0.0000   0.0000
     0.0000   0.0000   0.0000   0.0000   0.0000   0.0000   0.0000   0.0000
     0.0000   0.0000   0.0000   0.0000   0.0000   0.0000   0.0000   0.0000
     0.0000   0.0000   0.0000   0.0000   0.0000   0.0000   0.0000   0.0000
     0.0000   0.0000   0.0000   0.0000   0.0000   0.0000   0.0000   0.0000
     0.0000   0.0000   0.0000   0.0000   0.0000   0.0000   0.0000   0.0000
     0.0000   0.0000   0.0000   0.0000   0.0000   0.0000   0.0000   0.0000
     0.0000   0.0000   0.0000   0.0000   0.0000   0.0000   0.0000   0.0000
     0.0000   0.0000   0.0000   0.0000   0.0000   0.0000   0.0000   0.0000

[...]

          k = 0.3333-1.2380-1.1232 ( 10315 PWs)   bands (ev):

   -47.8829 -47.8829 -47.8811 -47.8811 -47.7306 -47.7303 -47.7298 -47.7294
   -18.5699 -18.5696 -18.5570 -18.5570 -18.5492 -18.5491 -18.5462 -18.5449
   -18.5283 -18.5282 -18.4967 -18.4965 -18.4157 -18.4143 -18.4045 -18.4015
   -18.3986 -18.3976 -18.3888 -18.3858 -18.3691 -18.3665 -18.3564 -18.3534
    -4.2264  -4.0767  -3.7829  -3.7178  -3.7086  -3.6827  -3.6309  -3.6251
    -3.6111  -3.6072  -3.5752  -3.5192   3.5388   3.5428   3.5495   3.5628
     3.5644   3.5652   3.5710   3.5711   3.5723   3.5730   3.5758   3.5761
     3.5814   3.5831   3.5900   3.5901   3.5904   3.5905   3.5982   3.5983
     3.6006   3.6007   3.6023   3.6025   3.6033   3.6037   3.6059   3.6059
     3.6759   3.6789   3.7061   3.7070   3.7152   3.7197   3.7213   3.7214
     3.7249   3.7256   3.7264   3.7284   3.7291   3.7332   3.7334   3.7336
     3.7358   3.7360   3.7373   3.7376   3.7392   3.7404   3.7406   3.7449
     3.7459   3.7485   3.7493   3.7495   3.8625   3.9868   4.2972   4.3055
     4.7062   4.7819   4.9776   4.9831   5.0888   5.1426   5.4105   5.5854
     5.8424   5.8441   5.8689   5.9504   6.0171   6.0244   6.0275   6.1490
     6.2834   6.3130   6.4802   6.5101   6.6504   6.7009   6.7460   6.7470
     6.9698   6.9841   7.0849   7.1213   7.2404   7.3262   7.4759   7.5647
     9.8503   9.8625   9.9357  10.3063  10.3359  10.3809  11.1665  11.3228
    11.4733  11.6436  11.8184  11.9579  12.1556  12.2148  12.2325  12.2804
    12.4276  12.5046  12.5124  12.6058  12.7180  12.7437  12.7701  12.9010
    12.9166  12.9445  13.1587  13.1764  13.1962  13.2404  13.3433  13.3528
    13.5063  13.5133  13.6939  13.7098  13.8219  13.8997  14.1241  14.2127
    14.3111  14.3578  14.4994  14.6057  14.7780  14.8345  14.8390  15.0614
    15.1295  15.1509  15.3869  15.4110  16.2713  16.6838  16.6889  16.7215
    16.8062  17.0481  17.0952  17.1543  17.3100  17.4158  17.5942  17.6654
    17.7741  18.0289  18.2259  18.2473  18.2828  18.3235  18.4053  18.5205
    18.6343  18.6831  18.7831  18.9088  19.0925  19.1057  19.4314  19.5108
    19.5577  19.5661  19.7518  19.8288  19.9767  20.1779  20.6070  20.7398
    20.8153  21.0116  21.0831  21.2965  21.4456  21.5590  21.6495  21.7639
    21.8301  21.9651  22.0064  22.1452  22.2285  22.2717  22.5420  22.5904
    22.6902  22.7593  22.7805  23.0970  23.2134  23.2793  23.3067  23.3563
    23.6368  23.6466  23.7867  23.8762  24.1213  24.2149  24.3180  24.3818

     occupation numbers
     1.0000   1.0000   1.0000   1.0000   1.0000   1.0000   1.0000   1.0000
     1.0000   1.0000   1.0000   1.0000   1.0000   1.0000   1.0000   1.0000
     1.0000   1.0000   1.0000   1.0000   1.0000   1.0000   1.0000   1.0000
     1.0000   1.0000   1.0000   1.0000   1.0000   1.0000   1.0000   1.0000
     1.0000   1.0000   1.0000   1.0000   1.0000   1.0000   1.0000   1.0000
     1.0000   1.0000   1.0000   1.0000   1.0000   1.0000   1.0000   1.0000
     1.0000   1.0000   1.0000   1.0000   1.0000   1.0000   1.0000   1.0000
     1.0000   1.0000   1.0000   1.0000   1.0000   1.0000   1.0000   1.0000
     1.0000   1.0000   1.0000   1.0000   1.0000   1.0000   1.0000   1.0000
     1.0000   1.0000   1.0000   1.0000   1.0000   1.0000   1.0000   1.0000
     1.0000   1.0000   1.0000   1.0000   1.0000   1.0000   1.0000   1.0000
     1.0000   1.0000   1.0000   1.0000   1.0000   1.0000   1.0000   1.0000
     1.0000   1.0000   1.0000   1.0000   1.0000   1.0000   1.0000   1.0000
     1.0000   1.0000   1.0000   1.0000   1.0000   1.0000   1.0000   1.0000
     1.0000   1.0000   1.0000   1.0000   1.0000   1.0000   1.0000   1.0000
     1.0000   1.0000   1.0000   1.0000   1.0000   1.0000   1.0000   1.0000
     1.0000   1.0000   1.0000   1.0000   1.0000   1.0000   1.0000   1.0000
     0.0000   0.0000   0.0000   0.0000   0.0000   0.0000   0.0000   0.0000
     0.0000   0.0000   0.0000   0.0000   0.0000   0.0000   0.0000   0.0000
     0.0000   0.0000   0.0000   0.0000   0.0000   0.0000   0.0000   0.0000
     0.0000   0.0000   0.0000   0.0000   0.0000   0.0000   0.0000   0.0000
     0.0000   0.0000   0.0000   0.0000   0.0000   0.0000   0.0000   0.0000
     0.0000   0.0000   0.0000   0.0000   0.0000   0.0000   0.0000   0.0000
     0.0000   0.0000   0.0000   0.0000   0.0000   0.0000   0.0000   0.0000
     0.0000   0.0000   0.0000   0.0000   0.0000   0.0000   0.0000   0.0000
     0.0000   0.0000   0.0000   0.0000   0.0000   0.0000   0.0000   0.0000
     0.0000   0.0000   0.0000   0.0000   0.0000   0.0000   0.0000   0.0000
     0.0000   0.0000   0.0000   0.0000   0.0000   0.0000   0.0000   0.0000
     0.0000   0.0000   0.0000   0.0000   0.0000   0.0000   0.0000   0.0000
     0.0000   0.0000   0.0000   0.0000   0.0000   0.0000   0.0000   0.0000
     0.0000   0.0000   0.0000   0.0000   0.0000   0.0000   0.0000   0.0000
     0.0000   0.0000   0.0000   0.0000   0.0000   0.0000   0.0000   0.0000

     highest occupied, lowest unoccupied level (ev):     8.0586    9.3312

!    total energy              =   -9167.12011929 Ry
     estimated scf accuracy    <       0.00000039 Ry

     The total energy is the sum of the following terms:
     one-electron contribution =   -4393.64403580 Ry
     hartree contribution      =    2000.00810770 Ry
     xc contribution           =    -689.26886123 Ry
     ewald contribution        =   -2147.24350947 Ry
     one-center paw contrib.   =   -3936.97182049 Ry
      -> PAW hartree energy AE =    1469.95110647 Ry
      -> PAW hartree energy PS =   -1268.70452338 Ry
      -> PAW xc energy AE      =   -1797.91629810 Ry
      -> PAW xc energy PS      =     120.27921586 Ry
      -> total E_H with PAW    =    2201.25469078 Ry
      -> total E_XC with PAW   =   -2366.90594347 Ry

     convergence has been achieved in  10 iterations

     Writing all to output data dir bands_nm/myprefix.save/

     General routines

     Parallel routines

     PAW routines

   This run was terminated on:  18:56:25  15Jul2023

   JOB DONE.