     Program PWSCF v.7.1 starts on 14Jul2023 at  2:37:22

     Reading input from espresso_10552.pwi
Warning: card &CELL ignored
Warning: card / ignored

     Current dimensions of program PWSCF are:
     Max number of different atomic species (ntypx) = 10
     Max number of k-points (npk) =  40000
     Max angular momentum in pseudopotentials (lmaxx) =  4
     file Mg.pbe-n-kjpaw_psl.0.3.0.UPF: wavefunction(s)  3S renormalized
     Message from routine setup:
     using ibrav=0 with symmetry is DISCOURAGED, use correct ibrav instead

     K-points division:     npool     =       2
     R & G space division:  proc/nbgrp/npool/nimage =       4
     Subspace diagonalization in iterative solution of the eigenvalue problem:
     a serial algorithm will be used

     Using Slab Decomposition

     bravais-lattice index     =            0
     lattice parameter (alat)  =      11.2688  a.u.
     unit-cell volume          =    1688.4672 (a.u.)^3
     number of atoms/cell      =           15
     number of atomic types    =            3
     number of electrons       =       124.00
     number of Kohn-Sham states=           64
     kinetic-energy cutoff     =      30.0000  Ry
     charge density cutoff     =     240.0000  Ry
     scf convergence threshold =      1.0E-06
     mixing beta               =       0.7000
     number of iterations used =            8  plain     mixing
     Exchange-correlation=  SLA  PW   PBX  PBC
                           (   1   4   3   4   0   0   0)

     celldm(1)=  11.268813  celldm(2)=   0.000000  celldm(3)=   0.000000
     celldm(4)=   0.000000  celldm(5)=   0.000000  celldm(6)=   0.000000

     crystal axes: (cart. coord. in units of alat)
               a(1) = (   1.000000   0.000000   0.000000 )
               a(2) = (   0.000000   1.000000   0.000000 )
               a(3) = (   0.000000   0.000000   1.179935 )

     reciprocal axes: (cart. coord. in units 2 pi/alat)
               b(1) = (  1.000000  0.000000  0.000000 )
               b(2) = (  0.000000  1.000000  0.000000 )
               b(3) = (  0.000000  0.000000  0.847504 )

     PseudoPot. # 1 for Mg read from file:
     /lustre07/scratch/pragov/crystal_structure_design/utils/SSSP/Mg.pbe-n-kjpaw_psl.0.3.0.UPF
     MD5 check sum: 24ecedc7f3e3cbe212e682f4413594e4
     Pseudo is Projector augmented-wave + core cor, Zval =  2.0
     Generated using "atomic" code by A. Dal Corso  v.5.0.99 svn rev. 10869
     Shape of augmentation charge: PSQ
     Using radial grid of 1129 points,  4 beta functions with:
                l(1) =   0
                l(2) =   0
                l(3) =   1
                l(4) =   1
     Q(r) pseudized with 0 coefficients

     PseudoPot. # 2 for Au read from file:
     /lustre07/scratch/pragov/crystal_structure_design/utils/SSSP/Au_ONCV_PBE-1.0.oncvpsp.upf
     MD5 check sum: d14007822ba0e19f0206237467fc06c2
     Pseudo is Norm-conserving, Zval = 19.0
     Generated using ONCVPSP code by D. R. Hamann
     Using radial grid of 1278 points,  8 beta functions with:
                l(1) =   0
                l(2) =   0
                l(3) =   1
                l(4) =   1
                l(5) =   2
                l(6) =   2
                l(7) =   3
                l(8) =   3

     PseudoPot. # 3 for F  read from file:
     /lustre07/scratch/pragov/crystal_structure_design/utils/SSSP/f_pbe_v1.4.uspp.F.UPF
     MD5 check sum: 4c38b6a325caf53ec0e86aed9459de46
     Pseudo is Ultrasoft, Zval =  7.0
     Generated by new atomic code, or converted to UPF format
     Using radial grid of  799 points,  4 beta functions with:
                l(1) =   0
                l(2) =   0
                l(3) =   1
                l(4) =   1
     Q(r) pseudized with  8 coefficients,  rinner =    0.950   0.950   0.950

     atomic species   valence    mass     pseudopotential
        Mg             2.00    24.30500     Mg( 1.00)
        Au            19.00   196.96657     Au( 1.00)
        F              7.00    18.99840     F ( 1.00)

      8 Sym. Ops. (no inversion) found

                                    s                        frac. trans.

      isym =  1     identity

 cryst.   s( 1) = (     1          0          0      )
                  (     0          1          0      )
                  (     0          0          1      )

 cart.    s( 1) = (  1.0000000  0.0000000  0.0000000 )
                  (  0.0000000  1.0000000  0.0000000 )
                  (  0.0000000  0.0000000  1.0000000 )

      isym =  2     180 deg rotation - cart. axis [0,0,1]

[...]

      isym =  4     180 deg rotation - cart. axis [1,-1,0]

[...]

      isym =  5     inv. 180 deg rotation - cart. axis [0,1,0]

[...]

      isym =  8     inv.  90 deg rotation - cart. axis [0,0,1]

 cryst.   s( 8) = (     0         -1          0      )
                  (     1          0          0      )
                  (     0          0         -1      )

 cart.    s( 8) = (  0.0000000  1.0000000  0.0000000 )
                  ( -1.0000000  0.0000000  0.0000000 )
                  (  0.0000000  0.0000000 -1.0000000 )

   Cartesian axes

     site n.     atom                  positions (alat units)
         1           Mg  tau(   1) = (   0.0000000   0.0000000   0.0000000  )
         2           Au  tau(   2) = (   0.0000000   0.5000000   0.2552034  )
         3           Au  tau(   3) = (   0.5000000   0.0000000   0.9247317  )
         4           F   tau(   4) = (   0.2417690   0.2043210   0.9447068  )
         5           F   tau(   5) = (   0.7582310   0.7956790   0.9447068  )
         6           F   tau(   6) = (   0.2043210   0.7582310   0.2352283  )
         7           F   tau(   7) = (   0.7956790   0.2417690   0.2352283  )
         8           F   tau(   8) = (   0.0000000   0.5000000   0.5795039  )
         9           F   tau(   9) = (   0.5000000   0.0000000   0.6004312  )
        10           F   tau(  10) = (   0.0000000   0.5000000   1.1087650  )
        11           F   tau(  11) = (   0.5000000   0.0000000   0.0711701  )
        12           F   tau(  12) = (   0.2043210   0.2417690   0.2352283  )
        13           F   tau(  13) = (   0.7956790   0.7582310   0.2352283  )
        14           F   tau(  14) = (   0.2417690   0.7956790   0.9447068  )
        15           F   tau(  15) = (   0.7582310   0.2043210   0.9447068  )

   Crystallographic axes

     site n.     atom                  positions (cryst. coord.)
         1           Mg  tau(   1) = (  0.0000000  0.0000000  0.0000000  )
         2           Au  tau(   2) = (  0.0000000  0.5000000  0.2162860  )
         3           Au  tau(   3) = (  0.5000000  0.0000000  0.7837140  )
         4           F   tau(   4) = (  0.2417690  0.2043210  0.8006430  )
         5           F   tau(   5) = (  0.7582310  0.7956790  0.8006430  )
         6           F   tau(   6) = (  0.2043210  0.7582310  0.1993570  )
         7           F   tau(   7) = (  0.7956790  0.2417690  0.1993570  )
         8           F   tau(   8) = (  0.0000000  0.5000000  0.4911320  )
         9           F   tau(   9) = (  0.5000000  0.0000000  0.5088680  )
        10           F   tau(  10) = (  0.0000000  0.5000000  0.9396830  )
        11           F   tau(  11) = (  0.5000000  0.0000000  0.0603170  )
        12           F   tau(  12) = (  0.2043210  0.2417690  0.1993570  )
        13           F   tau(  13) = (  0.7956790  0.7582310  0.1993570  )
        14           F   tau(  14) = (  0.2417690  0.7956790  0.8006430  )
        15           F   tau(  15) = (  0.7582310  0.2043210  0.8006430  )

     number of k points=     6
                       cart. coord. in units 2pi/alat
        k(    1) = (   0.0000000   0.0000000   0.0000000), wk =   0.0740741
        k(    2) = (   0.0000000   0.0000000   0.2825014), wk =   0.1481481
        k(    3) = (   0.0000000   0.3333333   0.0000000), wk =   0.2962963
        k(    4) = (   0.0000000   0.3333333   0.2825014), wk =   0.5925926
        k(    5) = (   0.3333333   0.3333333   0.0000000), wk =   0.2962963
        k(    6) = (   0.3333333   0.3333333   0.2825014), wk =   0.5925926

                       cryst. coord.
        k(    1) = (   0.0000000   0.0000000   0.0000000), wk =   0.0740741
        k(    2) = (   0.0000000   0.0000000   0.3333333), wk =   0.1481481
        k(    3) = (   0.0000000   0.3333333   0.0000000), wk =   0.2962963
        k(    4) = (   0.0000000   0.3333333   0.3333333), wk =   0.5925926
        k(    5) = (   0.3333333   0.3333333   0.0000000), wk =   0.2962963
        k(    6) = (   0.3333333   0.3333333   0.3333333), wk =   0.5925926

     Initial potential from superposition of free atoms

     starting charge     123.9989, renormalised to     124.0000
     Starting wfcs are   72 randomized atomic wfcs
     Checking if some PAW data can be deallocated...

     Self-consistent Calculation

     iteration #  1     ecut=    30.00 Ry     beta= 0.70
     Davidson diagonalization with overlap

     ethr =  1.00E-02,  avg # of iterations =  2.0

     total energy              =   -1162.68722351 Ry
     estimated scf accuracy    <       4.60280617 Ry

[...]

     negative rho (up, down):  5.608E-07 0.000E+00

[...]

     negative rho (up, down):  1.507E-07 0.000E+00

[...]

     total energy              =   -1165.45523042 Ry
     estimated scf accuracy    <       0.00000229 Ry

     iteration # 11     ecut=    30.00 Ry     beta= 0.70
     Davidson diagonalization with overlap

     ethr =  1.84E-09,  avg # of iterations =  6.0

     End of self-consistent calculation

          k = 0.0000 0.0000 0.0000 (  4675 PWs)   bands (ev):

  -108.0448-108.0448 -59.1178 -59.1178 -58.8753 -58.8753 -58.7956 -58.7956
   -22.1512 -21.9121 -21.5562 -21.5562 -21.5081 -21.4170 -21.2788 -21.2788
   -21.1843 -21.0415 -20.5042 -20.4934  -6.9575  -6.6183  -6.6120  -6.4916
    -6.0284  -5.8412  -5.8412  -5.6933  -5.4641  -5.3005  -5.3005  -4.9496
    -3.9303  -3.9303  -3.6819  -3.6819  -3.3702  -2.9587  -2.6688  -2.6688
    -2.3920  -2.3054  -1.9918  -1.9918  -1.8883  -1.7948  -1.7262  -1.7262
    -1.7187  -1.5077  -1.4778  -1.4736  -1.4736  -1.3702  -1.3299  -1.3299
    -1.1359  -1.1359  -0.4682  -0.4682  -0.2362  -0.2362   1.4897   1.4991

     occupation numbers
     1.0000   1.0000   1.0000   1.0000   1.0000   1.0000   1.0000   1.0000
     1.0000   1.0000   1.0000   1.0000   1.0000   1.0000   1.0000   1.0000
     1.0000   1.0000   1.0000   1.0000   1.0000   1.0000   1.0000   1.0000
     1.0000   1.0000   1.0000   1.0000   1.0000   1.0000   1.0000   1.0000
     1.0000   1.0000   1.0000   1.0000   1.0000   1.0000   1.0000   1.0000
     1.0000   1.0000   1.0000   1.0000   1.0000   1.0000   1.0000   1.0000
     1.0000   1.0000   1.0000   1.0000   1.0000   1.0000   1.0000   1.0000
     1.0000   1.0000   1.0000   1.0000   1.0000   1.0000   0.0000   0.0000

[...]

          k = 0.3333 0.3333 0.2825 (  4695 PWs)   bands (ev):

  -108.0448-108.0448 -59.1183 -59.1177 -58.8770 -58.8761 -58.7958 -58.7952
   -22.0046 -21.9226 -21.6415 -21.6164 -21.5558 -21.5097 -21.3007 -21.2217
   -21.0664 -21.0436 -20.5051 -20.5033  -6.8401  -6.8337  -6.6663  -6.5582
    -5.9108  -5.8026  -5.7675  -5.7249  -5.3409  -5.2494  -5.0647  -4.9258
    -3.9404  -3.7836  -3.4823  -3.4305  -3.3401  -3.1740  -3.1388  -2.9927
    -2.3649  -2.3295  -2.2467  -2.1002  -1.9946  -1.8770  -1.8349  -1.7452
    -1.6649  -1.5656  -1.5205  -1.4859  -1.4164  -1.2877  -1.2694  -1.1867
    -1.1151  -1.0824  -0.5263  -0.4067  -0.3823  -0.2876   1.2848   1.2960

     occupation numbers
     1.0000   1.0000   1.0000   1.0000   1.0000   1.0000   1.0000   1.0000
     1.0000   1.0000   1.0000   1.0000   1.0000   1.0000   1.0000   1.0000
     1.0000   1.0000   1.0000   1.0000   1.0000   1.0000   1.0000   1.0000
     1.0000   1.0000   1.0000   1.0000   1.0000   1.0000   1.0000   1.0000
     1.0000   1.0000   1.0000   1.0000   1.0000   1.0000   1.0000   1.0000
     1.0000   1.0000   1.0000   1.0000   1.0000   1.0000   1.0000   1.0000
     1.0000   1.0000   1.0000   1.0000   1.0000   1.0000   1.0000   1.0000
     1.0000   1.0000   1.0000   1.0000   1.0000   1.0000   0.0000   0.0000

     highest occupied, lowest unoccupied level (ev):    -0.2195    1.2331

!    total energy              =   -1165.45523088 Ry
     estimated scf accuracy    <       0.00000013 Ry

     The total energy is the sum of the following terms:
     one-electron contribution =    -971.10462412 Ry
     hartree contribution      =     520.98921928 Ry
     xc contribution           =    -163.02663558 Ry
     ewald contribution        =    -521.09137934 Ry
     one-center paw contrib.   =     -31.22181111 Ry
      -> PAW hartree energy AE =       0.20118444 Ry
      -> PAW hartree energy PS =      -0.20085467 Ry
      -> PAW xc energy AE      =     -32.16243940 Ry
      -> PAW xc energy PS      =       0.94029852 Ry
      -> total E_H with PAW    =     520.98954905 Ry
      -> total E_XC with PAW   =    -194.24877646 Ry

     convergence has been achieved in  11 iterations

     Writing all to output data dir bands_nm/myprefix.save/

     General routines

     Parallel routines

     PAW routines

   This run was terminated on:   2:37:29  14Jul2023

   JOB DONE.