     Program PWSCF v.7.1 starts on 16Jul2023 at 14:56:36

     Reading input from espresso_24521.pwi
Warning: card &CELL ignored
Warning: card / ignored

     Current dimensions of program PWSCF are:
     Max number of different atomic species (ntypx) = 10
     Max number of k-points (npk) =  40000
     Max angular momentum in pseudopotentials (lmaxx) =  4
     file O.pbe-n-kjpaw_psl.0.1.UPF: wavefunction(s)  2P renormalized
     Message from routine setup:
     using ibrav=0 with symmetry is DISCOURAGED, use correct ibrav instead

     K-points division:     npool     =       2
     R & G space division:  proc/nbgrp/npool/nimage =       4
     Subspace diagonalization in iterative solution of the eigenvalue problem:
     a serial algorithm will be used

     Using Slab Decomposition

     bravais-lattice index     =            0
     lattice parameter (alat)  =       7.1214  a.u.
     unit-cell volume          =     649.9292 (a.u.)^3
     number of atoms/cell      =            8
     number of atomic types    =            3
     number of electrons       =        68.00
     number of Kohn-Sham states=           64
     kinetic-energy cutoff     =      30.0000  Ry
     charge density cutoff     =     240.0000  Ry
     scf convergence threshold =      1.0E-06
     mixing beta               =       0.7000
     number of iterations used =            8  plain     mixing
     Exchange-correlation= SLA  PW   PBX  PBC
                           (   1   4   3   4   0   0   0)

     celldm(1)=   7.121367  celldm(2)=   0.000000  celldm(3)=   0.000000
     celldm(4)=   0.000000  celldm(5)=   0.000000  celldm(6)=   0.000000

     crystal axes: (cart. coord. in units of alat)
               a(1) = (   1.000000   0.000000   0.000000 )
               a(2) = (   0.000000   1.267110   0.000000 )
               a(3) = (   0.000000   0.192630   1.420240 )

     reciprocal axes: (cart. coord. in units 2 pi/alat)
               b(1) = (  1.000000  0.000000  0.000000 )
               b(2) = (  0.000000  0.789198 -0.107040 )
               b(3) = (  0.000000  0.000000  0.704106 )

     PseudoPot. # 1 for Li read from file:
     /lustre07/scratch/pragov/crystal_structure_design/utils/SSSP/li_pbe_v1.4.uspp.F.UPF
     MD5 check sum: e912e257baa3777c20ea3d68f190483c
     Pseudo is Ultrasoft, Zval =  3.0
     Generated by new atomic code, or converted to UPF format
     Using radial grid of  751 points,  5 beta functions with:
                l(1) =   0
                l(2) =   0
                l(3) =   0
                l(4) =   1
                l(5) =   1
     Q(r) pseudized with 10 coefficients,  rinner =    1.150   1.150   1.150

     PseudoPot. # 2 for Ag read from file:
     /lustre07/scratch/pragov/crystal_structure_design/utils/SSSP/Ag_ONCV_PBE-1.0.oncvpsp.upf
     MD5 check sum: 94f47bd0669c641108e45594df92fabc
     Pseudo is Norm-conserving, Zval = 19.0
     Generated using ONCVPSP code by D. R. Hamann
     Using radial grid of 1398 points,  6 beta functions with:
                l(1) =   0
                l(2) =   0
                l(3) =   1
                l(4) =   1
                l(5) =   2
                l(6) =   2

     PseudoPot. # 3 for O  read from file:
     /lustre07/scratch/pragov/crystal_structure_design/utils/SSSP/O.pbe-n-kjpaw_psl.0.1.UPF
     MD5 check sum: 0234752ac141de4415c5fc33072bef88
     Pseudo is Projector augmented-wave + core cor, Zval =  6.0
     Generated using "atomic" code by A. Dal Corso  v.5.0.99 svn rev. 10869
     Shape of augmentation charge: BESSEL
     Using radial grid of 1095 points,  4 beta functions with:
                l(1) =   0
                l(2) =   0
                l(3) =   1
                l(4) =   1
     Q(r) pseudized with 0 coefficients

     atomic species   valence    mass     pseudopotential
        Li             3.00     6.94000     Li( 1.00)
        Ag            19.00   107.86820     Ag( 1.00)
        O              6.00    15.99900     O ( 1.00)

      4 Sym. Ops., with inversion, found ( 2 have fractional translation)

                                    s                        frac. trans.

      isym =  1     identity

 cryst.   s( 1) = (     1          0          0      )
                  (     0          1          0      )
                  (     0          0          1      )

 cart.    s( 1) = (  1.0000000  0.0000000  0.0000000 )
                  (  0.0000000  1.0000000  0.0000000 )
                  (  0.0000000  0.0000000  1.0000000 )

      isym =  2     180 deg rotation - cart. axis [1,0,0]

 cryst.   s( 2) = (     1          0          0      )    f =( -0.5000000 )
                  (     0         -1          0      )       (  0.0000000 )
                  (     0          0         -1      )       ( -0.5000000 )

 cart.    s( 2) = (  1.0000000  0.0000000  0.0000000 )    f =( -0.5000000 )
                  (  0.0000000 -1.0000000  0.0000000 )       ( -0.0963148 )
                  (  0.0000000  0.0000000 -1.0000000 )       ( -0.7101200 )

      isym =  3     inversion

 cryst.   s( 3) = (    -1          0          0      )
                  (     0         -1          0      )
                  (     0          0         -1      )

 cart.    s( 3) = ( -1.0000000  0.0000000  0.0000000 )
                  (  0.0000000 -1.0000000  0.0000000 )
                  (  0.0000000  0.0000000 -1.0000000 )

      isym =  4     inv. 180 deg rotation - cart. axis [1,0,0]

 cryst.   s( 4) = (    -1          0          0      )    f =(  0.5000000 )
                  (     0          1          0      )       (  0.0000000 )
                  (     0          0          1      )       ( -0.5000000 )

 cart.    s( 4) = ( -1.0000000  0.0000000  0.0000000 )    f =(  0.5000000 )
                  (  0.0000000  1.0000000  0.0000000 )       ( -0.0963148 )
                  (  0.0000000  0.0000000  1.0000000 )       ( -0.7101200 )

   Cartesian axes

     site n.     atom                  positions (alat units)
         1           Li  tau(   1) = (   0.0000000   0.7298697   0.7101200  )
         2           Li  tau(   2) = (   0.5000000   0.6335549   0.0000000  )
         3           Ag  tau(   3) = (   0.0000000   0.0000000   0.0000000  )
         4           Ag  tau(   4) = (   0.5000000   0.0963148   0.7101200  )
         5           O   tau(   5) = (   0.3086130   0.4577502   1.0633508  )
         6           O   tau(   6) = (   0.6913870   1.0019893   0.3568893  )
         7           O   tau(   7) = (   0.1913870   0.3614354   0.3532307  )
         8           O   tau(   8) = (   0.8086130   1.0983041   1.0670093  )

   Crystallographic axes

     site n.     atom                  positions (cryst. coord.)
         1           Li  tau(   1) = (  0.0000000  0.5000000  0.5000000  )
         2           Li  tau(   2) = (  0.5000000  0.5000000  0.0000000  )
         3           Ag  tau(   3) = (  0.0000000  0.0000000  0.0000000  )
         4           Ag  tau(   4) = (  0.5000000 -0.0000000  0.5000000  )
         5           O   tau(   5) = (  0.3086130  0.2474340  0.7487120  )
         6           O   tau(   6) = (  0.6913870  0.7525660  0.2512880  )
         7           O   tau(   7) = (  0.1913870  0.2474340  0.2487120  )
         8           O   tau(   8) = (  0.8086130  0.7525660  0.7512880  )

     number of k points=    10
                       cart. coord. in units 2pi/alat
        k(    1) = (   0.0000000   0.0000000   0.0000000), wk =   0.0740741
        k(    2) = (   0.0000000   0.0000000   0.2347021), wk =   0.1481481
        k(    3) = (   0.0000000   0.2630659  -0.0356801), wk =   0.1481481
        k(    4) = (   0.0000000   0.2630659   0.1990220), wk =   0.1481481
        k(    5) = (   0.0000000   0.2630659  -0.2703822), wk =   0.1481481
        k(    6) = (   0.3333333   0.0000000   0.0000000), wk =   0.1481481
        k(    7) = (   0.3333333   0.0000000   0.2347021), wk =   0.2962963
        k(    8) = (   0.3333333   0.2630659  -0.0356801), wk =   0.2962963
        k(    9) = (   0.3333333   0.2630659   0.1990220), wk =   0.2962963
        k(   10) = (   0.3333333   0.2630659  -0.2703822), wk =   0.2962963

                       cryst. coord.
        k(    1) = (   0.0000000   0.0000000   0.0000000), wk =   0.0740741
        k(    2) = (   0.0000000   0.0000000   0.3333333), wk =   0.1481481
        k(    3) = (   0.0000000   0.3333333   0.0000000), wk =   0.1481481
        k(    4) = (   0.0000000   0.3333333   0.3333333), wk =   0.1481481
        k(    5) = (   0.0000000   0.3333333  -0.3333333), wk =   0.1481481
        k(    6) = (   0.3333333   0.0000000   0.0000000), wk =   0.1481481
        k(    7) = (   0.3333333   0.0000000   0.3333333), wk =   0.2962963
        k(    8) = (   0.3333333   0.3333333   0.0000000), wk =   0.2962963
        k(    9) = (   0.3333333   0.3333333   0.3333333), wk =   0.2962963
        k(   10) = (   0.3333333   0.3333333  -0.3333333), wk =   0.2962963

     Check: negative core charge=   -0.000014

     Initial potential from superposition of free atoms

     starting charge      67.0979, renormalised to      68.0000
     Starting wfcs are   46 randomized atomic wfcs +   18 random wfcs
     Checking if some PAW data can be deallocated...

     Self-consistent Calculation

     iteration #  1     ecut=    30.00 Ry     beta= 0.70
     Davidson diagonalization with overlap

     ethr =  1.00E-02,  avg # of iterations =  6.6

     total energy              =    -767.61208359 Ry
     estimated scf accuracy    <       3.00289855 Ry

[...]

     total energy              =    -769.43093961 Ry
     estimated scf accuracy    <       0.00000178 Ry

     iteration #  8     ecut=    30.00 Ry     beta= 0.70
     Davidson diagonalization with overlap

     ethr =  2.61E-09,  avg # of iterations =  2.0

     End of self-consistent calculation

          k = 0.0000 0.0000 0.0000 (  1789 PWs)   bands (ev):

   -85.8423 -85.8408 -49.0570 -49.0519 -49.0326 -49.0201 -48.4242 -48.4225
   -36.0446 -36.0371 -10.3702  -9.4980  -9.4972  -9.4510   1.0619   1.0873
     1.7053   1.8988   2.4082   3.3159   3.5269   3.5460   3.7101   3.7447
     4.0223   4.7122   5.1932   5.5233   5.6290   5.9223   5.9901   6.4339
     6.9248   7.2298   8.8066   9.6191  10.8430  12.2684  14.5755  16.4106
    16.8377  18.7270  19.4574  19.9202  20.1745  21.5111  21.9333  23.1956
    23.3688  23.7037  24.0185  24.0759  24.8937  25.0696  25.3302  25.7053
    25.9533  28.4146  29.4698  29.4726  30.1334  30.2864  31.7224  32.6433

     occupation numbers
     1.0000   1.0000   1.0000   1.0000   1.0000   1.0000   1.0000   1.0000
     1.0000   1.0000   1.0000   1.0000   1.0000   1.0000   1.0000   1.0000
     1.0000   1.0000   1.0000   1.0000   1.0000   1.0000   1.0000   1.0000
     1.0000   1.0000   1.0000   1.0000   1.0000   1.0000   1.0000   1.0000
     1.0000   1.0000   0.0000   0.0000   0.0000   0.0000   0.0000   0.0000
     0.0000   0.0000   0.0000   0.0000   0.0000   0.0000   0.0000   0.0000
     0.0000   0.0000   0.0000   0.0000   0.0000   0.0000   0.0000   0.0000
     0.0000   0.0000   0.0000   0.0000   0.0000   0.0000   0.0000   0.0000

[...]

          k = 0.3333 0.2631-0.2704 (  1806 PWs)   bands (ev):

   -85.8417 -85.8414 -49.0582 -49.0551 -49.0301 -49.0259 -48.4277 -48.4243
   -36.0416 -36.0401  -9.9571  -9.7898  -9.5446  -9.4442   1.0040   1.3301
     1.9664   2.1270   2.4535   2.9233   3.1020   3.1676   3.6285   3.7811
     4.3153   4.7170   4.8395   5.2108   5.6294   5.7692   6.1265   6.2737
     6.7872   6.9038   8.4731   9.0126  13.7909  13.8482  14.3863  15.3646
    16.9017  17.7702  18.5473  19.7021  20.2893  21.2800  22.0051  22.2307
    22.5272  23.4042  23.9308  24.8264  24.9412  25.5461  26.1828  27.3243
    27.4202  28.2369  28.3708  29.5049  30.3803  30.9995  31.8536  32.6124

     occupation numbers
     1.0000   1.0000   1.0000   1.0000   1.0000   1.0000   1.0000   1.0000
     1.0000   1.0000   1.0000   1.0000   1.0000   1.0000   1.0000   1.0000
     1.0000   1.0000   1.0000   1.0000   1.0000   1.0000   1.0000   1.0000
     1.0000   1.0000   1.0000   1.0000   1.0000   1.0000   1.0000   1.0000
     1.0000   1.0000   0.0000   0.0000   0.0000   0.0000   0.0000   0.0000
     0.0000   0.0000   0.0000   0.0000   0.0000   0.0000   0.0000   0.0000
     0.0000   0.0000   0.0000   0.0000   0.0000   0.0000   0.0000   0.0000
     0.0000   0.0000   0.0000   0.0000   0.0000   0.0000   0.0000   0.0000

     highest occupied, lowest unoccupied level (ev):     7.2298    7.9123

!    total energy              =    -769.43094000 Ry
     estimated scf accuracy    <       0.00000004 Ry

     The total energy is the sum of the following terms:
     one-electron contribution =    -425.04065212 Ry
     hartree contribution      =     234.51929094 Ry
     xc contribution           =     -90.17510079 Ry
     ewald contribution        =    -450.60912402 Ry
     one-center paw contrib.   =     -38.12535401 Ry
      -> PAW hartree energy AE =       0.00000000 Ry
      -> PAW hartree energy PS =       0.00000000 Ry
      -> PAW xc energy AE      =       0.00000000 Ry
      -> PAW xc energy PS      =       0.00000000 Ry
      -> total E_H with PAW    =     234.51929094 Ry
      -> total E_XC with PAW   =     -90.17510079 Ry

     convergence has been achieved in   8 iterations

     Writing all to output data dir bands_nm/myprefix.save/

     General routines

     Parallel routines

     PAW routines

   This run was terminated on:  14:56:40  16Jul2023

   JOB DONE.