     Program PWSCF v.7.1 starts on 16Jul2023 at 14:15:40

     Reading input from espresso_25833.pwi
Warning: card &CELL ignored
Warning: card / ignored

     Current dimensions of program PWSCF are:
     Max number of different atomic species (ntypx) = 10
     Max number of k-points (npk) =  40000
     Max angular momentum in pseudopotentials (lmaxx) =  4
     file Ga.pbe-dn-kjpaw_psl.1.0.0.UPF: wavefunction(s)  4S renormalized
     Message from routine setup:
     using ibrav=0 with symmetry is DISCOURAGED, use correct ibrav instead

     K-points division:     npool     =       2
     R & G space division:  proc/nbgrp/npool/nimage =       4
     Subspace diagonalization in iterative solution of the eigenvalue problem:
     a serial algorithm will be used

     Using Slab Decomposition

     bravais-lattice index     =            0
     lattice parameter (alat)  =      12.9006  a.u.
     unit-cell volume          =    3236.6367 (a.u.)^3
     number of atoms/cell      =           14
     number of atomic types    =            3
     number of electrons       =       120.00
     number of Kohn-Sham states=           64
     kinetic-energy cutoff     =      30.0000  Ry
     charge density cutoff     =     240.0000  Ry
     scf convergence threshold =      1.0E-06
     mixing beta               =       0.7000
     number of iterations used =            8  plain     mixing
     Exchange-correlation= SLA  PW   PBE  PBE
                           (   1   4   3   4   0   0   0)

     celldm(1)=  12.900550  celldm(2)=   0.000000  celldm(3)=   0.000000
     celldm(4)=   0.000000  celldm(5)=   0.000000  celldm(6)=   0.000000

     crystal axes: (cart. coord. in units of alat)
               a(1) = (   1.000000   0.000000   0.000000 )
               a(2) = (  -0.503098   0.864229   0.000000 )
               a(3) = (   0.000000   0.000000   1.744377 )

     reciprocal axes: (cart. coord. in units 2 pi/alat)
               b(1) = (  1.000000  0.582136  0.000000 )
               b(2) = (  0.000000  1.157101  0.000000 )
               b(3) = (  0.000000  0.000000  0.573271 )

     PseudoPot. # 1 for Sr read from file:
     /lustre07/scratch/pragov/crystal_structure_design/utils/SSSP/Sr_pbe_v1.uspp.F.UPF
     MD5 check sum: 6b418c05fbe9db5448babca5e47b7a5b
     Pseudo is Ultrasoft + core correction, Zval = 10.0
     Generated by new atomic code, or converted to UPF format
     Using radial grid of  883 points,  6 beta functions with:
                l(1) =   0
                l(2) =   0
                l(3) =   1
                l(4) =   1
                l(5) =   2
                l(6) =   2
     Q(r) pseudized with  6 coefficients,  rinner =    1.400   1.400   1.400
                                                       1.400   1.400

     PseudoPot. # 2 for Ga read from file:
     /lustre07/scratch/pragov/crystal_structure_design/utils/SSSP/Ga.pbe-dn-kjpaw_psl.1.0.0.UPF
     MD5 check sum: a27b4342b1af7e5f338de752e9ed7044
     Pseudo is Projector augmented-wave + core cor, Zval = 13.0
     Generated using "atomic" code by A. Dal Corso  v.5.1
     Shape of augmentation charge: PSQ
     Using radial grid of 1205 points,  6 beta functions with:
                l(1) =   0
                l(2) =   0
                l(3) =   1
                l(4) =   1
                l(5) =   2
                l(6) =   2
     Q(r) pseudized with 0 coefficients

     PseudoPot. # 3 for Te read from file:
     /lustre07/scratch/pragov/crystal_structure_design/utils/SSSP/Te_pbe_v1.uspp.F.UPF
     MD5 check sum: c319670d6894cc26e93307826a071b75
     Pseudo is Ultrasoft + core correction, Zval =  6.0
     Generated by new atomic code, or converted to UPF format
     Using radial grid of  891 points,  5 beta functions with:
                l(1) =   0
                l(2) =   0
                l(3) =   1
                l(4) =   1
                l(5) =   2
     Q(r) pseudized with  6 coefficients,  rinner =    1.800   1.800   1.800
                                                       1.800   1.800

     atomic species   valence    mass     pseudopotential
        Sr            10.00    87.62000     Sr( 1.00)
        Ga            13.00    69.72300     Ga( 1.00)
        Te             6.00   127.60000     Te( 1.00)

      4 Sym. Ops., with inversion, found

                                    s                        frac. trans.

      isym =  1     identity

 cryst.   s( 1) = (     1          0          0      )
                  (     0          1          0      )
                  (     0          0          1      )

 cart.    s( 1) = (  1.0000000  0.0000000  0.0000000 )
                  (  0.0000000  1.0000000  0.0000000 )
                  (  0.0000000  0.0000000  1.0000000 )

      isym =  2     180 deg rotation - cart. axis [0,0,1]

[...]

      isym =  3     inversion

[...]

      isym =  4     inv. 180 deg rotation - cart. axis [0,0,1]

 cryst.   s( 4) = (     1          0          0      )
                  (     0          1          0      )
                  (     0          0         -1      )

 cart.    s( 4) = (  1.0000000  0.0000000  0.0000000 )
                  (  0.0000000  1.0000000  0.0000000 )
                  (  0.0000000  0.0000000 -1.0000000 )

   Cartesian axes

     site n.     atom                  positions (alat units)
         1           Sr  tau(   1) = (   0.2484508   0.4321145   0.4360943  )
         2           Sr  tau(   2) = (   0.2484508   0.4321145   1.3082828  )
         3           Ga  tau(   3) = (  -0.1414145   0.6579713   0.8721885  )
         4           Ga  tau(   4) = (   0.6383160   0.2062578   0.8721885  )
         5           Ga  tau(   5) = (  -0.1428819   0.6554192   0.0000000  )
         6           Ga  tau(   6) = (   0.6397834   0.2088098   0.0000000  )
         7           Te  tau(   7) = (   0.2490702   0.6997576   0.0000000  )
         8           Te  tau(   8) = (   0.2478313   0.1644714   0.0000000  )
         9           Te  tau(   9) = (   0.4794441   0.5673007   0.8721885  )
        10           Te  tau(  10) = (   0.0174574   0.2969284   0.8721885  )
        11           Te  tau(  11) = (   0.5000000   0.0000000   1.1751275  )
        12           Te  tau(  12) = (  -0.2515492   0.4321145   1.4414380  )
        13           Te  tau(  13) = (   0.5000000   0.0000000   0.5692495  )
        14           Te  tau(  14) = (  -0.2515492   0.4321145   0.3029390  )

   Crystallographic axes

     site n.     atom                  positions (cryst. coord.)
         1           Sr  tau(   1) = (  0.5000000  0.5000000  0.2500000  )
         2           Sr  tau(   2) = (  0.5000000  0.5000000  0.7500000  )
         3           Ga  tau(   3) = (  0.2416140  0.7613390  0.5000000  )
         4           Ga  tau(   4) = (  0.7583860  0.2386610  0.5000000  )
         5           Ga  tau(   5) = (  0.2386610  0.7583860  0.0000000  )
         6           Ga  tau(   6) = (  0.7613390  0.2416140  0.0000000  )
         7           Te  tau(   7) = (  0.6564240  0.8096900  0.0000000  )
         8           Te  tau(   8) = (  0.3435760  0.1903100  0.0000000  )
         9           Te  tau(   9) = (  0.8096900  0.6564240  0.5000000  )
        10           Te  tau(  10) = (  0.1903100  0.3435760  0.5000000  )
        11           Te  tau(  11) = (  0.5000000  0.0000000  0.6736660  )
        12           Te  tau(  12) = (  0.0000000  0.5000000  0.8263340  )
        13           Te  tau(  13) = (  0.5000000  0.0000000  0.3263340  )
        14           Te  tau(  14) = (  0.0000000  0.5000000  0.1736660  )

     number of k points=    10
                       cart. coord. in units 2pi/alat
        k(    1) = (   0.0000000   0.0000000   0.0000000), wk =   0.0740741
        k(    2) = (   0.0000000   0.0000000   0.1910902), wk =   0.1481481
        k(    3) = (   0.0000000   0.3857002   0.0000000), wk =   0.1481481
        k(    4) = (   0.0000000   0.3857002   0.1910902), wk =   0.2962963
        k(    5) = (   0.3333333   0.1940452   0.0000000), wk =   0.1481481
        k(    6) = (   0.3333333   0.1940452   0.1910902), wk =   0.2962963
        k(    7) = (   0.3333333   0.5797454   0.0000000), wk =   0.1481481
        k(    8) = (   0.3333333   0.5797454   0.1910902), wk =   0.2962963
        k(    9) = (   0.3333333  -0.1916550   0.0000000), wk =   0.1481481
        k(   10) = (   0.3333333  -0.1916550   0.1910902), wk =   0.2962963

                       cryst. coord.
        k(    1) = (   0.0000000   0.0000000   0.0000000), wk =   0.0740741
        k(    2) = (   0.0000000   0.0000000   0.3333333), wk =   0.1481481
        k(    3) = (   0.0000000   0.3333333   0.0000000), wk =   0.1481481
        k(    4) = (   0.0000000   0.3333333   0.3333333), wk =   0.2962963
        k(    5) = (   0.3333333   0.0000000   0.0000000), wk =   0.1481481
        k(    6) = (   0.3333333   0.0000000   0.3333333), wk =   0.2962963
        k(    7) = (   0.3333333   0.3333333   0.0000000), wk =   0.1481481
        k(    8) = (   0.3333333   0.3333333   0.3333333), wk =   0.2962963
        k(    9) = (   0.3333333  -0.3333333   0.0000000), wk =   0.1481481
        k(   10) = (   0.3333333  -0.3333333   0.3333333), wk =   0.2962963

     Initial potential from superposition of free atoms

     starting charge     119.9191, renormalised to     120.0000

     negative rho (up, down):  1.311E-01 0.000E+00
     Starting wfcs are   94 randomized atomic wfcs
     Checking if some PAW data can be deallocated...

     Self-consistent Calculation

     iteration #  1     ecut=    30.00 Ry     beta= 0.70
     Davidson diagonalization with overlap

     ethr =  1.00E-02,  avg # of iterations =  2.0

     Threshold (ethr) on eigenvalues was too large:
     Diagonalizing with lowered threshold

     Davidson diagonalization with overlap

[...]

     negative rho (up, down):  1.338E-01 0.000E+00

     total energy              =   -1464.53833420 Ry
     estimated scf accuracy    <       0.26941052 Ry

[...]

     c_bands:  1 eigenvalues not converged
     ethr =  5.18E-06,  avg # of iterations =  7.5

[...]

     total energy              =   -1464.61841319 Ry
     estimated scf accuracy    <       0.00000219 Ry

     iteration #  9     ecut=    30.00 Ry     beta= 0.70
     Davidson diagonalization with overlap

     ethr =  1.82E-09,  avg # of iterations =  2.4

     negative rho (up, down):  1.369E-01 0.000E+00

     End of self-consistent calculation

          k = 0.0000 0.0000 0.0000 (  9007 PWs)   bands (ev):

   -30.2812 -30.2811 -12.2858 -12.2838 -12.2808 -12.2754 -12.2744 -12.2666
    -9.8414  -9.8400  -9.8398  -9.8388  -9.8076  -9.8065  -9.7915  -9.7886
    -9.7606  -9.7604  -9.7596  -9.7595  -9.7594  -9.7580  -9.7334  -9.7323
    -9.7279  -9.7268  -9.7087  -9.7077  -6.6794  -6.3639  -5.4553  -5.3180
    -5.2223  -4.8612  -4.8349  -4.8220  -0.8806  -0.6627  -0.2542  -0.1837
     0.9160   1.6480   1.8842   1.8897   2.0861   2.1621   2.1735   2.3804
     2.8120   3.3627   3.4722   3.5698   3.7629   3.7959   4.0340   4.3653
     4.7087   4.7609   4.8615   4.9328   6.8164   7.0433   7.3545   7.4798

     occupation numbers
     1.0000   1.0000   1.0000   1.0000   1.0000   1.0000   1.0000   1.0000
     1.0000   1.0000   1.0000   1.0000   1.0000   1.0000   1.0000   1.0000
     1.0000   1.0000   1.0000   1.0000   1.0000   1.0000   1.0000   1.0000
     1.0000   1.0000   1.0000   1.0000   1.0000   1.0000   1.0000   1.0000
     1.0000   1.0000   1.0000   1.0000   1.0000   1.0000   1.0000   1.0000
     1.0000   1.0000   1.0000   1.0000   1.0000   1.0000   1.0000   1.0000
     1.0000   1.0000   1.0000   1.0000   1.0000   1.0000   1.0000   1.0000
     1.0000   1.0000   1.0000   1.0000   0.0000   0.0000   0.0000   0.0000

[...]

          k = 0.3333-0.1917 0.1911 (  8975 PWs)   bands (ev):

   -30.2812 -30.2811 -12.2867 -12.2856 -12.2802 -12.2794 -12.2766 -12.2697
    -9.8409  -9.8399  -9.8393  -9.8383  -9.8075  -9.8065  -9.7888  -9.7870
    -9.7606  -9.7604  -9.7599  -9.7596  -9.7594  -9.7588  -9.7334  -9.7324
    -9.7277  -9.7266  -9.7087  -9.7077  -6.3950  -6.2454  -5.3946  -5.3843
    -5.2021  -5.1417  -5.1138  -4.9467  -1.0265  -0.9087  -0.2535  -0.2456
     1.6358   1.9150   1.9772   2.3875   2.4727   2.5592   2.6929   2.7695
     2.9422   3.3001   3.4972   3.5137   3.7523   3.8198   3.8212   4.0491
     4.1250   4.3511   4.3742   4.5616   6.0410   6.6930   7.4136   7.6706

     occupation numbers
     1.0000   1.0000   1.0000   1.0000   1.0000   1.0000   1.0000   1.0000
     1.0000   1.0000   1.0000   1.0000   1.0000   1.0000   1.0000   1.0000
     1.0000   1.0000   1.0000   1.0000   1.0000   1.0000   1.0000   1.0000
     1.0000   1.0000   1.0000   1.0000   1.0000   1.0000   1.0000   1.0000
     1.0000   1.0000   1.0000   1.0000   1.0000   1.0000   1.0000   1.0000
     1.0000   1.0000   1.0000   1.0000   1.0000   1.0000   1.0000   1.0000
     1.0000   1.0000   1.0000   1.0000   1.0000   1.0000   1.0000   1.0000
     1.0000   1.0000   1.0000   1.0000   0.0000   0.0000   0.0000   0.0000

     highest occupied, lowest unoccupied level (ev):     4.9380    5.7229

!    total energy              =   -1464.61841368 Ry
     estimated scf accuracy    <       0.00000010 Ry

     The total energy is the sum of the following terms:
     one-electron contribution =    -651.20853057 Ry
     hartree contribution      =     396.96973468 Ry
     xc contribution           =    -304.45184957 Ry
     ewald contribution        =    -462.23096652 Ry
     one-center paw contrib.   =    -443.69680171 Ry
      -> PAW hartree energy AE =       0.00000000 Ry
      -> PAW hartree energy PS =       0.00000000 Ry
      -> PAW xc energy AE      =       0.00000000 Ry
      -> PAW xc energy PS      =       0.00000000 Ry
      -> total E_H with PAW    =     396.96973468 Ry
      -> total E_XC with PAW   =    -304.45184957 Ry

     convergence has been achieved in   9 iterations

     Writing all to output data dir bands_nm/myprefix.save/

     General routines

     Parallel routines

     PAW routines

   This run was terminated on:  14:16:10  16Jul2023

   JOB DONE.