     Program PWSCF v.7.1 starts on 12Jul2023 at 15:43:55

     Reading input from espresso_22464.pwi
Warning: card &CELL ignored
Warning: card / ignored

     Current dimensions of program PWSCF are:
     Max number of different atomic species (ntypx) = 10
     Max number of k-points (npk) =  40000
     Max angular momentum in pseudopotentials (lmaxx) =  4
     file O.pbe-n-kjpaw_psl.0.1.UPF: wavefunction(s)  2P renormalized

     K-points division:     npool     =       2
     R & G space division:  proc/nbgrp/npool/nimage =       8
     Subspace diagonalization in iterative solution of the eigenvalue problem:
     a serial algorithm will be used

     Using Slab Decomposition

     bravais-lattice index     =            0
     lattice parameter (alat)  =      13.6739  a.u.
     unit-cell volume          =     957.0411 (a.u.)^3
     number of atoms/cell      =           12
     number of atomic types    =            3
     number of electrons       =        96.00
     number of Kohn-Sham states=           64
     kinetic-energy cutoff     =      30.0000  Ry
     charge density cutoff     =     240.0000  Ry
     scf convergence threshold =      1.0E-06
     mixing beta               =       0.7000
     number of iterations used =            8  plain     mixing
     Exchange-correlation= SLA  PW   PBX  PBC
                           (   1   4   3   4   0   0   0)

     celldm(1)=  13.673939  celldm(2)=   0.000000  celldm(3)=   0.000000
     celldm(4)=   0.000000  celldm(5)=   0.000000  celldm(6)=   0.000000

     crystal axes: (cart. coord. in units of alat)
               a(1) = (   1.000000   0.000000   0.000000 )
               a(2) = (   0.562197   0.623260   0.000000 )
               a(3) = (   0.437803  -0.166559   0.600593 )

     reciprocal axes: (cart. coord. in units 2 pi/alat)
               b(1) = (  1.000000 -0.902026 -0.979105 )
               b(2) = (  0.000000  1.604466  0.444957 )
               b(3) = (  0.000000  0.000000  1.665022 )

     PseudoPot. # 1 for Cu read from file:
     /lustre07/scratch/pragov/crystal_structure_design/utils/SSSP/Cu_pbe_v1.2.uspp.F.UPF
     MD5 check sum: 6e991ff952a84172a2a52a1c1e996048
     Pseudo is Ultrasoft + core correction, Zval = 19.0
     Generated by new atomic code, or converted to UPF format
     Using radial grid of  867 points,  6 beta functions with:
                l(1) =   0
                l(2) =   0
                l(3) =   1
                l(4) =   1
                l(5) =   2
                l(6) =   2
     Q(r) pseudized with  8 coefficients,  rinner =    1.150   1.150   1.150
                                                       1.150   1.150

     PseudoPot. # 2 for P  read from file:
     /lustre07/scratch/pragov/crystal_structure_design/utils/SSSP/P.pbe-n-rrkjus_psl.1.0.0.UPF
     MD5 check sum: 8b930f418f0a4573dca56cd030ffe088
     Pseudo is Ultrasoft + core correction, Zval =  5.0
     Generated using "atomic" code by A. Dal Corso  v.5.1
     Using radial grid of 1147 points,  6 beta functions with:
                l(1) =   0
                l(2) =   0
                l(3) =   1
                l(4) =   1
                l(5) =   2
                l(6) =   2
     Q(r) pseudized with 0 coefficients

     PseudoPot. # 3 for O  read from file:
     /lustre07/scratch/pragov/crystal_structure_design/utils/SSSP/O.pbe-n-kjpaw_psl.0.1.UPF
     MD5 check sum: 0234752ac141de4415c5fc33072bef88
     Pseudo is Projector augmented-wave + core cor, Zval =  6.0
     Generated using "atomic" code by A. Dal Corso  v.5.0.99 svn rev. 10869
     Shape of augmentation charge: BESSEL
     Using radial grid of 1095 points,  4 beta functions with:
                l(1) =   0
                l(2) =   0
                l(3) =   1
                l(4) =   1
     Q(r) pseudized with 0 coefficients

     atomic species   valence    mass     pseudopotential
        Cu            19.00    63.54600     Cu( 1.00)
        P              5.00    30.97376     P ( 1.00)
        O              6.00    15.99900     O ( 1.00)

     No symmetry found

                                    s                        frac. trans.

      isym =  1     identity

 cryst.   s( 1) = (     1          0          0      )
                  (     0          1          0      )
                  (     0          0          1      )

 cart.    s( 1) = (  1.0000000  0.0000000  0.0000000 )
                  (  0.0000000  1.0000000  0.0000000 )
                  (  0.0000000  0.0000000  1.0000000 )

   Cartesian axes

     site n.     atom                  positions (alat units)
         1           Cu  tau(   1) = (   0.3038695   0.2910902   0.0156190  )
         2           Cu  tau(   2) = (   1.2416725   0.0103560   0.4660636  )
         3           P   tau(   3) = (   0.6219141   0.0042057   0.2337711  )
         4           P   tau(   4) = (   0.6841112   0.5132907   0.0836229  )
         5           O   tau(   5) = (   0.1303309   0.1007713   0.0366260  )
         6           O   tau(   6) = (   1.1871322   0.4140671   0.2139210  )
         7           O   tau(   7) = (   0.7781626   0.0739384   0.3628674  )
         8           O   tau(   8) = (   1.6871332   0.4753907   0.2945656  )
         9           O   tau(   9) = (   1.2781636   0.2409661   0.5825198  )
        10           O   tau(  10) = (   0.4261942   0.0715525   0.2958142  )
        11           O   tau(  11) = (   0.4883909   0.4715024   0.0021453  )
        12           O   tau(  12) = (   0.6303309   0.1058114   0.0432541  )

   Crystallographic axes

     site n.     atom                  positions (cryst. coord.)
         1           Cu  tau(   1) = (  0.0260060  0.4739940  0.0260060  )
         2           Cu  tau(   2) = (  0.7760060  0.2239940  0.7760060  )
         3           P   tau(   3) = (  0.3892340  0.1107660  0.3892340  )
         4           P   tau(   4) = (  0.1392340  0.8607660  0.1392340  )
         5           O   tau(   5) = (  0.0035720  0.1779810  0.0609830  )
         6           O   tau(   6) = (  0.6041820  0.7595420  0.3561830  )
         7           O   tau(   7) = (  0.3561830  0.2800920  0.6041820  )
         8           O   tau(   8) = (  0.9699080  0.8938170  0.4904580  )
         9           O   tau(   9) = (  0.4904580  0.6458180  0.9699080  )
        10           O   tau(  10) = (  0.0720190  0.2464280  0.4925370  )
        11           O   tau(  11) = (  0.0609830  0.7574640  0.0035720  )
        12           O   tau(  12) = (  0.4925360  0.1890170  0.0720190  )

     number of k points=    14
                       cart. coord. in units 2pi/alat
        k(    1) = (   0.0000000   0.0000000   0.0000000), wk =   0.0740741
        k(    2) = (   0.0000000   0.0000000   0.5550072), wk =   0.1481481
        k(    3) = (   0.0000000   0.5348219   0.1483189), wk =   0.1481481
        k(    4) = (   0.0000000   0.5348219   0.7033261), wk =   0.1481481
        k(    5) = (   0.0000000   0.5348219  -0.4066883), wk =   0.1481481
        k(    6) = (   0.3333333  -0.3006753  -0.3263682), wk =   0.1481481
        k(    7) = (   0.3333333  -0.3006753   0.2286389), wk =   0.1481481
        k(    8) = (   0.3333333  -0.3006753  -0.8813754), wk =   0.1481481
        k(    9) = (   0.3333333   0.2341466  -0.1780493), wk =   0.1481481
        k(   10) = (   0.3333333   0.2341466   0.3769579), wk =   0.1481481
        k(   11) = (   0.3333333   0.2341466  -0.7330565), wk =   0.1481481
        k(   12) = (   0.3333333  -0.8354972  -0.4746872), wk =   0.1481481
        k(   13) = (   0.3333333  -0.8354972   0.0803200), wk =   0.1481481
        k(   14) = (   0.3333333  -0.8354972  -1.0296944), wk =   0.1481481

                       cryst. coord.
        k(    1) = (   0.0000000   0.0000000   0.0000000), wk =   0.0740741
        k(    2) = (   0.0000000   0.0000000   0.3333333), wk =   0.1481481
        k(    3) = (   0.0000000   0.3333333   0.0000000), wk =   0.1481481
        k(    4) = (   0.0000000   0.3333333   0.3333333), wk =   0.1481481
        k(    5) = (   0.0000000   0.3333333  -0.3333333), wk =   0.1481481
        k(    6) = (   0.3333333   0.0000000  -0.0000000), wk =   0.1481481
        k(    7) = (   0.3333333   0.0000000   0.3333333), wk =   0.1481481
        k(    8) = (   0.3333333   0.0000000  -0.3333333), wk =   0.1481481
        k(    9) = (   0.3333333   0.3333333  -0.0000000), wk =   0.1481481
        k(   10) = (   0.3333333   0.3333333   0.3333333), wk =   0.1481481
        k(   11) = (   0.3333333   0.3333333  -0.3333333), wk =   0.1481481
        k(   12) = (   0.3333333  -0.3333333   0.0000000), wk =   0.1481481
        k(   13) = (   0.3333333  -0.3333333   0.3333333), wk =   0.1481481
        k(   14) = (   0.3333333  -0.3333333  -0.3333333), wk =   0.1481481

     Check: negative core charge=   -0.000014

     Initial potential from superposition of free atoms

     starting charge      93.9997, renormalised to      96.0000
     Starting wfcs are   66 randomized atomic wfcs
     Checking if some PAW data can be deallocated...

     Self-consistent Calculation

     iteration #  1     ecut=    30.00 Ry     beta= 0.70
     Davidson diagonalization with overlap

     ethr =  1.00E-02,  avg # of iterations =  4.8

     total energy              =   -1167.49163401 Ry
     estimated scf accuracy    <       1.73293507 Ry

[...]

     total energy              =   -1168.34659115 Ry
     estimated scf accuracy    <       0.00000183 Ry

     iteration # 13     ecut=    30.00 Ry     beta= 0.70
     Davidson diagonalization with overlap

     ethr =  1.90E-09,  avg # of iterations =  1.6

     End of self-consistent calculation

          k = 0.0000 0.0000 0.0000 (  2623 PWs)   bands (ev):

  -108.0970-108.0968 -65.8169 -65.8163 -65.7036 -65.7029 -64.7641 -64.7633
   -16.2912 -15.6828 -13.8328 -13.6405 -13.5330 -13.4669 -13.3905 -13.2580
    -4.4792  -3.6417  -2.1892  -1.6481  -1.3557  -1.3421  -0.1609   0.1522
     0.1768   0.4693   0.9694   1.0048   1.3600   1.6728   1.8245   1.9124
     1.9220   2.3280   2.3395   2.4911   2.5323   2.6955   3.3052   3.3216
     3.4987   3.5962   3.6169   3.9238   3.9275   4.4806   4.5136   4.7942
     4.8720   5.0453   9.9196  12.8195  13.3148  13.4866  13.6626  13.9016
    14.3519  14.8146  15.3905  15.6613  15.7911  16.1118  16.5849  17.2778

     occupation numbers
     1.0000   1.0000   1.0000   1.0000   1.0000   1.0000   1.0000   1.0000
     1.0000   1.0000   1.0000   1.0000   1.0000   1.0000   1.0000   1.0000
     1.0000   1.0000   1.0000   1.0000   1.0000   1.0000   1.0000   1.0000
     1.0000   1.0000   1.0000   1.0000   1.0000   1.0000   1.0000   1.0000
     1.0000   1.0000   1.0000   1.0000   1.0000   1.0000   1.0000   1.0000
     1.0000   1.0000   1.0000   1.0000   1.0000   1.0000   1.0000   1.0000
     0.0000   0.0000   0.0000   0.0000   0.0000   0.0000   0.0000   0.0000
     0.0000   0.0000   0.0000   0.0000   0.0000   0.0000   0.0000   0.0000

[...]

          k = 0.3333-0.8355-1.0297 (  2652 PWs)   bands (ev):

  -108.0979-108.0974 -65.8186 -65.8181 -65.7050 -65.7044 -64.7655 -64.7646
   -16.0343 -15.8747 -13.8691 -13.7724 -13.4651 -13.4271 -13.4133 -13.3789
    -3.7521  -3.4745  -1.9039  -1.6914  -1.2898  -1.1829  -0.5419  -0.4552
     0.4375   0.6480   0.6574   0.9671   1.1301   1.1521   1.7025   1.7414
     2.2044   2.2873   2.3931   2.4935   2.6369   2.6472   3.0868   3.1639
     3.2604   3.3780   3.5691   3.6299   3.9760   3.9854   4.5848   4.6422
     5.3610   5.3912  11.7907  12.6644  13.5397  13.6333  13.9197  14.0601
    14.4530  14.7444  15.1002  15.4897  15.5474  16.0505  17.2670  17.8001

     occupation numbers
     1.0000   1.0000   1.0000   1.0000   1.0000   1.0000   1.0000   1.0000
     1.0000   1.0000   1.0000   1.0000   1.0000   1.0000   1.0000   1.0000
     1.0000   1.0000   1.0000   1.0000   1.0000   1.0000   1.0000   1.0000
     1.0000   1.0000   1.0000   1.0000   1.0000   1.0000   1.0000   1.0000
     1.0000   1.0000   1.0000   1.0000   1.0000   1.0000   1.0000   1.0000
     1.0000   1.0000   1.0000   1.0000   1.0000   1.0000   1.0000   1.0000
     0.0000   0.0000   0.0000   0.0000   0.0000   0.0000   0.0000   0.0000
     0.0000   0.0000   0.0000   0.0000   0.0000   0.0000   0.0000   0.0000

     highest occupied, lowest unoccupied level (ev):     4.7942    4.8053

!    total energy              =   -1168.34659121 Ry
     estimated scf accuracy    <       0.00000030 Ry

     The total energy is the sum of the following terms:
     one-electron contribution =    -920.68076795 Ry
     hartree contribution      =     503.34152887 Ry
     xc contribution           =    -145.94934654 Ry
     ewald contribution        =    -528.87107321 Ry
     one-center paw contrib.   =     -76.18693238 Ry
      -> PAW hartree energy AE =       0.00000000 Ry
      -> PAW hartree energy PS =       0.00000000 Ry
      -> PAW xc energy AE      =       0.00000000 Ry
      -> PAW xc energy PS      =       0.00000000 Ry
      -> total E_H with PAW    =     503.34152887 Ry
      -> total E_XC with PAW   =    -145.94934654 Ry

     convergence has been achieved in  13 iterations

     Writing all to output data dir bands_nm/myprefix.save/

     General routines

     Parallel routines

     PAW routines

   This run was terminated on:  15:44: 5  12Jul2023

   JOB DONE.