     Program PWSCF v.7.1 starts on 15Jul2023 at 21:55:24

     Reading input from espresso_13695.pwi
Warning: card &CELL ignored
Warning: card / ignored

     Current dimensions of program PWSCF are:
     Max number of different atomic species (ntypx) = 10
     Max number of k-points (npk) =  40000
     Max angular momentum in pseudopotentials (lmaxx) =  4
     Message from routine setup:
     using ibrav=0 with symmetry is DISCOURAGED, use correct ibrav instead

     K-points division:     npool     =       2
     R & G space division:  proc/nbgrp/npool/nimage =       4
     Subspace diagonalization in iterative solution of the eigenvalue problem:
     one sub-group per band group will be used

     Using Slab Decomposition

     bravais-lattice index     =            0
     lattice parameter (alat)  =      14.4829  a.u.
     unit-cell volume          =    3699.9508 (a.u.)^3
     number of atoms/cell      =           15
     number of atomic types    =            3
     number of electrons       =       152.00
     number of Kohn-Sham states=          256
     kinetic-energy cutoff     =      30.0000  Ry
     charge density cutoff     =     240.0000  Ry
     scf convergence threshold =      1.0E-06
     mixing beta               =       0.7000
     number of iterations used =            8  plain     mixing
     Exchange-correlation= SLA  PW   PBX  PBC
                           (   1   4   3   4   0   0   0)

     celldm(1)=  14.482893  celldm(2)=   0.000000  celldm(3)=   0.000000
     celldm(4)=   0.000000  celldm(5)=   0.000000  celldm(6)=   0.000000

     crystal axes: (cart. coord. in units of alat)
               a(1) = (   1.000000   0.000000   0.000000 )
               a(2) = (   0.830218   0.557438   0.000000 )
               a(3) = (   0.817424   0.248967   2.184907 )

     reciprocal axes: (cart. coord. in units 2 pi/alat)
               b(1) = (  1.000000 -1.489345 -0.204414 )
               b(2) = (  0.000000  1.793920 -0.204414 )
               b(3) = (  0.000000  0.000000  0.457685 )

     PseudoPot. # 1 for Sn read from file:
     /lustre07/scratch/pragov/crystal_structure_design/utils/SSSP/Sn_pbe_v1.uspp.F.UPF
     MD5 check sum: 4cf58ce39ec5d5d420df3dd08604eb00
     Pseudo is Ultrasoft + core correction, Zval = 14.0
     Generated by new atomic code, or converted to UPF format
     Using radial grid of  891 points,  6 beta functions with:
                l(1) =   0
                l(2) =   0
                l(3) =   1
                l(4) =   1
                l(5) =   2
                l(6) =   2
     Q(r) pseudized with  6 coefficients,  rinner =    1.200   1.200   1.200
                                                       1.200   1.200

     PseudoPot. # 2 for S  read from file:
     /lustre07/scratch/pragov/crystal_structure_design/utils/SSSP/s_pbe_v1.4.uspp.F.UPF
     MD5 check sum: 88d86576ff6df21479756cfb9bdac1df
     Pseudo is Ultrasoft + core correction, Zval =  6.0
     Generated by new atomic code, or converted to UPF format
     Using radial grid of  907 points,  6 beta functions with:
                l(1) =   0
                l(2) =   0
                l(3) =   1
                l(4) =   1
                l(5) =   2
                l(6) =   2
     Q(r) pseudized with  8 coefficients,  rinner =    1.300   1.300   1.300
                                                       1.300   1.300

     PseudoPot. # 3 for I  read from file:
     /lustre07/scratch/pragov/crystal_structure_design/utils/SSSP/I.pbe-n-kjpaw_psl.0.2.UPF
     MD5 check sum: d4ef18d9c8f18dc85e5843bca1e50dc0
     Pseudo is Projector augmented-wave + core cor, Zval =  7.0
     Generated using "atomic" code by A. Dal Corso  v.5.0.99 svn rev. 10869
     Shape of augmentation charge: PSQ
     Using radial grid of 1247 points,  4 beta functions with:
                l(1) =   0
                l(2) =   0
                l(3) =   1
                l(4) =   1
     Q(r) pseudized with 0 coefficients

     atomic species   valence    mass     pseudopotential
        Sn            14.00   118.71000     Sn( 1.00)
        S              6.00    32.06000     S ( 1.00)
        I              7.00   126.90447     I ( 1.00)

      2 Sym. Ops., with inversion, found

                                    s                        frac. trans.

      isym =  1     identity

 cryst.   s( 1) = (     1          0          0      )
                  (     0          1          0      )
                  (     0          0          1      )

 cart.    s( 1) = (  1.0000000  0.0000000 -0.0000000 )
                  (  0.0000000  1.0000000  0.0000000 )
                  (  0.0000000  0.0000000  1.0000000 )

      isym =  2     inversion

 cryst.   s( 2) = (    -1          0          0      )
                  (     0         -1          0      )
                  (     0          0         -1      )

 cart.    s( 2) = ( -1.0000000  0.0000000  0.0000000 )
                  (  0.0000000 -1.0000000  0.0000000 )
                  (  0.0000000  0.0000000 -1.0000000 )

   Cartesian axes

     site n.     atom                  positions (alat units)
         1           Sn  tau(   1) = (   1.1423135   0.3479200   0.1144323  )
         2           Sn  tau(   2) = (   1.5053286   0.4584853   2.0704750  )
         3           Sn  tau(   3) = (   1.5746167   0.4795887   1.1509742  )
         4           Sn  tau(   4) = (   1.0730255   0.3268166   1.0339331  )
         5           Sn  tau(   5) = (   0.0000000   0.0000000   0.0000000  )
         6           Sn  tau(   6) = (   1.6563792   0.5044915   0.6088091  )
         7           Sn  tau(   7) = (   0.9912629   0.3019138   1.5760982  )
         8           S   tau(   8) = (   1.8160040   0.5531092   0.9165380  )
         9           S   tau(   9) = (   0.8316382   0.2532961   1.2683693  )
        10           I   tau(  10) = (   0.5531752   0.1684833   0.2604781  )
        11           I   tau(  11) = (   2.0944670   0.6379220   1.9244293  )
        12           I   tau(  12) = (   1.0144629   0.3089799   0.5256931  )
        13           I   tau(  13) = (   1.6331792   0.4974254   1.6592143  )
        14           I   tau(  14) = (   2.1327993   0.6495971   1.3662597  )
        15           I   tau(  15) = (   0.5148429   0.1568082   0.8186476  )

   Crystallographic axes

     site n.     atom                  positions (cryst. coord.)
         1           Sn  tau(   1) = (  0.6007490  0.6007490  0.0523740  )
         2           Sn  tau(   2) = (  0.3992510  0.3992510  0.9476260  )
         3           Sn  tau(   3) = (  0.6250680  0.6250680  0.5267840  )
         4           Sn  tau(   4) = (  0.3749320  0.3749320  0.4732160  )
         5           Sn  tau(   5) = (  0.0000000  0.0000000  0.0000000  )
         6           Sn  tau(   6) = (  0.7805680  0.7805680  0.2786430  )
         7           Sn  tau(   7) = (  0.2194320  0.2194320  0.7213570  )
         8           S   tau(   8) = (  0.8048800  0.8048800  0.4194860  )
         9           S   tau(   9) = (  0.1951200  0.1951200  0.5805140  )
        10           I   tau(  10) = (  0.2490000  0.2490000  0.1192170  )
        11           I   tau(  11) = (  0.7510000  0.7510000  0.8807830  )
        12           I   tau(  12) = (  0.4468260  0.4468260  0.2406020  )
        13           I   tau(  13) = (  0.5531740  0.5531740  0.7593980  )
        14           I   tau(  14) = (  0.8860420  0.8860420  0.6253170  )
        15           I   tau(  15) = (  0.1139580  0.1139580  0.3746830  )

     number of k points=    14
                       cart. coord. in units 2pi/alat
        k(    1) = (   0.0000000   0.0000000   0.0000000), wk =   0.0740741
        k(    2) = (   0.0000000   0.0000000   0.1525618), wk =   0.1481481
        k(    3) = (   0.0000000   0.5979733  -0.0681381), wk =   0.1481481
        k(    4) = (   0.0000000   0.5979733   0.0844236), wk =   0.1481481
        k(    5) = (   0.0000000   0.5979733  -0.2206999), wk =   0.1481481
        k(    6) = (   0.3333333  -0.4964483  -0.0681381), wk =   0.1481481
        k(    7) = (   0.3333333  -0.4964483   0.0844236), wk =   0.1481481
        k(    8) = (   0.3333333  -0.4964483  -0.2206999), wk =   0.1481481
        k(    9) = (   0.3333333   0.1015250  -0.1362763), wk =   0.1481481
        k(   10) = (   0.3333333   0.1015250   0.0162855), wk =   0.1481481
        k(   11) = (   0.3333333   0.1015250  -0.2888380), wk =   0.1481481
        k(   12) = (   0.3333333  -1.0944216  -0.0000000), wk =   0.1481481
        k(   13) = (   0.3333333  -1.0944216   0.1525618), wk =   0.1481481
        k(   14) = (   0.3333333  -1.0944216  -0.1525618), wk =   0.1481481

                       cryst. coord.
        k(    1) = (   0.0000000   0.0000000   0.0000000), wk =   0.0740741
        k(    2) = (   0.0000000   0.0000000   0.3333333), wk =   0.1481481
        k(    3) = (   0.0000000   0.3333333  -0.0000000), wk =   0.1481481
        k(    4) = (   0.0000000   0.3333333   0.3333333), wk =   0.1481481
        k(    5) = (   0.0000000   0.3333333  -0.3333333), wk =   0.1481481
        k(    6) = (   0.3333333   0.0000000  -0.0000000), wk =   0.1481481
        k(    7) = (   0.3333333   0.0000000   0.3333333), wk =   0.1481481
        k(    8) = (   0.3333333   0.0000000  -0.3333333), wk =   0.1481481
        k(    9) = (   0.3333333   0.3333333  -0.0000000), wk =   0.1481481
        k(   10) = (   0.3333333   0.3333333   0.3333333), wk =   0.1481481
        k(   11) = (   0.3333333   0.3333333  -0.3333333), wk =   0.1481481
        k(   12) = (   0.3333333  -0.3333333   0.0000000), wk =   0.1481481
        k(   13) = (   0.3333333  -0.3333333   0.3333333), wk =   0.1481481
        k(   14) = (   0.3333333  -0.3333333  -0.3333333), wk =   0.1481481

     Check: negative core charge=   -0.000001

     Initial potential from superposition of free atoms

     starting charge     144.9992, renormalised to     152.0000
     Starting wfcs are   95 randomized atomic wfcs +  161 random wfcs
     Checking if some PAW data can be deallocated...

     Self-consistent Calculation

     iteration #  1     ecut=    30.00 Ry     beta= 0.70
     Davidson diagonalization with overlap

     ethr =  1.00E-02,  avg # of iterations =  7.3

     negative rho (up, down):  9.225E-06 0.000E+00

     total energy              =   -3447.55834941 Ry
     estimated scf accuracy    <      22.32062119 Ry

[...]

     negative rho (up, down):  1.647E-05 0.000E+00

[...]

     c_bands:  1 eigenvalues not converged
     ethr =  5.60E-06,  avg # of iterations =  4.3

[...]

     c_bands:  1 eigenvalues not converged
     ethr =  5.79E-07,  avg # of iterations =  7.2

[...]

     total energy              =   -3464.72966912 Ry
     estimated scf accuracy    <       0.00000800 Ry

     iteration # 14     ecut=    30.00 Ry     beta= 0.70
     Davidson diagonalization with overlap

     ethr =  5.27E-09,  avg # of iterations =  1.0

     End of self-consistent calculation

          k = 0.0000 0.0000 0.0000 ( 10285 PWs)   bands (ev):

   -16.3631 -16.3631 -16.3592 -16.3592 -16.3292 -16.3288 -16.3246 -16.3246
   -16.3190 -16.3190 -16.2135 -16.2121 -16.2085 -16.2065 -16.1780 -16.1670
   -16.1520 -16.1481 -16.1442 -16.1379 -15.9634 -15.9552 -15.9126 -15.9080
   -15.8992 -15.8838 -15.8760 -15.8683 -15.8440 -15.8277 -15.7731 -15.7649
   -15.7091 -15.5722 -15.5080  -8.1820  -7.5408  -7.2650  -7.0619  -7.0427
    -6.9877  -6.9208  -6.7605  -3.1672  -2.0534  -1.9479  -1.5679  -1.2250
    -0.1748   0.7943   1.0504   1.6085   1.8883   1.9600   2.2388   2.2947
     2.5039   2.5405   2.6241   3.1310   3.1811   3.2895   3.3240   3.4265
     3.4854   3.4908   3.6132   3.6204   3.7667   3.8632   4.1071   4.3336
     4.3767   4.4087   4.8720   5.7094   6.1422   6.4884   6.7897   7.0068
     7.3878   7.5185   7.6549   7.6578   7.8209   7.9288   7.9739   8.1794
     8.5311   8.6696   8.8258   9.4069   9.5801   9.6962  10.3419  10.5700
    10.8492  10.9265  11.2549  11.2700  11.5296  11.9760  12.0635  12.1141
    12.1869  12.2840  12.5442  12.5593  12.6811  12.7627  12.9094  12.9150
    13.1479  13.3738  13.3832  13.5214  13.6096  13.7235  13.8996  14.0316
    14.0464  14.0666  14.1331  14.2487  14.6367  14.6860  14.7945  14.9195
    15.1613  15.3597  15.4197  15.4842  15.6215  15.7519  15.8658  15.8806
    16.0699  16.2303  16.2742  16.6364  16.7379  16.7536  16.8120  17.0266
    17.3281  17.3778  17.3794  17.4859  17.6136  17.7198  18.0118  18.2670
    18.3289  18.6342  18.8117  18.8653  19.0329  19.1834  19.3545  19.4698
    19.7625  19.9355  20.0692  20.1261  20.1942  20.4183  20.4980  20.6326
    20.8187  20.8905  21.1096  21.2522  21.3186  21.5084  21.6148  21.9629
    22.1048  22.1184  22.1985  22.2335  22.4446  22.5668  22.6981  22.7981
    22.8592  22.9055  23.0078  23.1155  23.1245  23.3447  23.4699  23.5685
    23.8255  23.9485  23.9563  23.9607  24.0436  24.0885  24.1301  24.1382
    24.2725  24.3228  24.4241  24.4290  24.4700  24.5069  24.5529  24.6641
    24.6700  24.7494  24.8427  25.0593  25.1455  25.2552  25.2593  25.2790
    25.4285  25.4396  25.5006  25.5883  25.6975  25.8873  25.9535  25.9840
    26.0638  26.1631  26.3435  26.4173  26.4466  26.6297  26.6587  27.0329
    27.0478  27.2062  27.2067  27.2165  27.2760  27.4029  27.4199  27.6048
    27.6785  27.7201  27.9342  28.1111  28.1186  28.1542  28.1569  28.2767
    28.5831  28.6525  28.6674  28.7750  28.7863  28.8216  28.8778  29.0162

     occupation numbers
     1.0000   1.0000   1.0000   1.0000   1.0000   1.0000   1.0000   1.0000
     1.0000   1.0000   1.0000   1.0000   1.0000   1.0000   1.0000   1.0000
     1.0000   1.0000   1.0000   1.0000   1.0000   1.0000   1.0000   1.0000
     1.0000   1.0000   1.0000   1.0000   1.0000   1.0000   1.0000   1.0000
     1.0000   1.0000   1.0000   1.0000   1.0000   1.0000   1.0000   1.0000
     1.0000   1.0000   1.0000   1.0000   1.0000   1.0000   1.0000   1.0000
     1.0000   1.0000   1.0000   1.0000   1.0000   1.0000   1.0000   1.0000
     1.0000   1.0000   1.0000   1.0000   1.0000   1.0000   1.0000   1.0000
     1.0000   1.0000   1.0000   1.0000   1.0000   1.0000   1.0000   1.0000
     1.0000   1.0000   1.0000   1.0000   0.0000   0.0000   0.0000   0.0000
     0.0000   0.0000   0.0000   0.0000   0.0000   0.0000   0.0000   0.0000
     0.0000   0.0000   0.0000   0.0000   0.0000   0.0000   0.0000   0.0000
     0.0000   0.0000   0.0000   0.0000   0.0000   0.0000   0.0000   0.0000
     0.0000   0.0000   0.0000   0.0000   0.0000   0.0000   0.0000   0.0000
     0.0000   0.0000   0.0000   0.0000   0.0000   0.0000   0.0000   0.0000
     0.0000   0.0000   0.0000   0.0000   0.0000   0.0000   0.0000   0.0000
     0.0000   0.0000   0.0000   0.0000   0.0000   0.0000   0.0000   0.0000
     0.0000   0.0000   0.0000   0.0000   0.0000   0.0000   0.0000   0.0000
     0.0000   0.0000   0.0000   0.0000   0.0000   0.0000   0.0000   0.0000
     0.0000   0.0000   0.0000   0.0000   0.0000   0.0000   0.0000   0.0000
     0.0000   0.0000   0.0000   0.0000   0.0000   0.0000   0.0000   0.0000
     0.0000   0.0000   0.0000   0.0000   0.0000   0.0000   0.0000   0.0000
     0.0000   0.0000   0.0000   0.0000   0.0000   0.0000   0.0000   0.0000
     0.0000   0.0000   0.0000   0.0000   0.0000   0.0000   0.0000   0.0000
     0.0000   0.0000   0.0000   0.0000   0.0000   0.0000   0.0000   0.0000
     0.0000   0.0000   0.0000   0.0000   0.0000   0.0000   0.0000   0.0000
     0.0000   0.0000   0.0000   0.0000   0.0000   0.0000   0.0000   0.0000
     0.0000   0.0000   0.0000   0.0000   0.0000   0.0000   0.0000   0.0000
     0.0000   0.0000   0.0000   0.0000   0.0000   0.0000   0.0000   0.0000
     0.0000   0.0000   0.0000   0.0000   0.0000   0.0000   0.0000   0.0000
     0.0000   0.0000   0.0000   0.0000   0.0000   0.0000   0.0000   0.0000
     0.0000   0.0000   0.0000   0.0000   0.0000   0.0000   0.0000   0.0000

[...]

          k = 0.3333-1.0944-0.1526 ( 10242 PWs)   bands (ev):

   -16.3633 -16.3633 -16.3589 -16.3589 -16.3277 -16.3275 -16.3235 -16.3235
   -16.3207 -16.3207 -16.2142 -16.2138 -16.2070 -16.2064 -16.1744 -16.1657
   -16.1571 -16.1493 -16.1407 -16.1358 -15.9494 -15.9478 -15.9124 -15.9030
   -15.9025 -15.8847 -15.8728 -15.8683 -15.8397 -15.8240 -15.7588 -15.7332
   -15.7109 -15.5833 -15.5710  -7.7252  -7.2665  -7.0757  -7.0230  -6.9972
    -6.9466  -6.8987  -6.8303  -2.4822  -2.0542  -1.9831  -1.6216  -1.0496
    -0.9284  -0.3559   0.9866   1.2620   1.5235   1.7877   1.9009   2.0672
     2.3559   2.5148   2.5560   2.6116   2.6539   2.8422   2.9568   3.0523
     3.1436   3.2032   3.3121   3.4368   3.4894   3.6578   3.7033   3.7248
     3.8380   4.0814   4.3107   4.6426   6.1742   7.1213   7.1980   7.2570
     7.4867   7.6069   7.7206   7.8891   7.9715   8.0359   8.2079   8.2733
     8.6099   8.7001   9.2777   9.3316   9.7074  10.4997  10.8195  10.9796
    11.1625  11.1770  11.3326  11.5163  11.6477  11.8126  12.0543  12.3218
    12.4262  12.6247  12.7232  12.7882  12.8412  13.1147  13.4986  13.6325
    13.8408  13.9594  14.0841  14.2091  14.2793  14.3540  14.5834  14.6883
    14.8475  14.9128  15.1692  15.2208  15.4277  15.5795  15.6703  15.7126
    15.8744  15.9999  16.1302  16.1815  16.3865  16.4406  16.5462  16.7716
    16.9504  16.9981  17.0335  17.0921  17.1952  17.4381  17.6200  17.7130
    17.8515  17.9615  18.1285  18.1671  18.3124  18.5718  18.6973  18.8691
    18.9277  18.9804  19.1435  19.2188  19.2664  19.4223  19.5444  19.5961
    19.7053  19.7935  19.9042  19.9620  20.1145  20.2261  20.3232  20.3342
    20.5197  20.6098  20.6908  20.7846  20.9274  21.0647  21.0832  21.2632
    21.3346  21.4427  21.5111  21.6418  21.7258  21.8880  22.1038  22.1382
    22.1849  22.2651  22.3656  22.4689  22.6490  22.7933  22.8586  22.9495
    23.1183  23.2127  23.3020  23.4548  23.5692  23.6378  23.7298  23.7846
    23.8738  23.9515  23.9556  24.0303  24.1167  24.1340  24.1511  24.2104
    24.2872  24.3644  24.4183  24.4337  24.4726  24.5608  24.6222  24.7026
    24.8103  24.8836  25.0163  25.0922  25.1592  25.1854  25.3378  25.4262
    25.5879  25.6371  25.7235  25.9098  26.0428  26.1015  26.2445  26.3661
    26.4012  26.4878  26.5946  26.6240  26.7279  26.7938  26.9625  27.0510
    27.0909  27.2622  27.3172  27.4430  27.5323  27.5745  27.6035  27.6854
    27.7982  28.0089  28.0953  28.2808  28.3392  28.4142  28.4419  28.5326

     occupation numbers
     1.0000   1.0000   1.0000   1.0000   1.0000   1.0000   1.0000   1.0000
     1.0000   1.0000   1.0000   1.0000   1.0000   1.0000   1.0000   1.0000
     1.0000   1.0000   1.0000   1.0000   1.0000   1.0000   1.0000   1.0000
     1.0000   1.0000   1.0000   1.0000   1.0000   1.0000   1.0000   1.0000
     1.0000   1.0000   1.0000   1.0000   1.0000   1.0000   1.0000   1.0000
     1.0000   1.0000   1.0000   1.0000   1.0000   1.0000   1.0000   1.0000
     1.0000   1.0000   1.0000   1.0000   1.0000   1.0000   1.0000   1.0000
     1.0000   1.0000   1.0000   1.0000   1.0000   1.0000   1.0000   1.0000
     1.0000   1.0000   1.0000   1.0000   1.0000   1.0000   1.0000   1.0000
     1.0000   1.0000   1.0000   1.0000   0.0000   0.0000   0.0000   0.0000
     0.0000   0.0000   0.0000   0.0000   0.0000   0.0000   0.0000   0.0000
     0.0000   0.0000   0.0000   0.0000   0.0000   0.0000   0.0000   0.0000
     0.0000   0.0000   0.0000   0.0000   0.0000   0.0000   0.0000   0.0000
     0.0000   0.0000   0.0000   0.0000   0.0000   0.0000   0.0000   0.0000
     0.0000   0.0000   0.0000   0.0000   0.0000   0.0000   0.0000   0.0000
     0.0000   0.0000   0.0000   0.0000   0.0000   0.0000   0.0000   0.0000
     0.0000   0.0000   0.0000   0.0000   0.0000   0.0000   0.0000   0.0000
     0.0000   0.0000   0.0000   0.0000   0.0000   0.0000   0.0000   0.0000
     0.0000   0.0000   0.0000   0.0000   0.0000   0.0000   0.0000   0.0000
     0.0000   0.0000   0.0000   0.0000   0.0000   0.0000   0.0000   0.0000
     0.0000   0.0000   0.0000   0.0000   0.0000   0.0000   0.0000   0.0000
     0.0000   0.0000   0.0000   0.0000   0.0000   0.0000   0.0000   0.0000
     0.0000   0.0000   0.0000   0.0000   0.0000   0.0000   0.0000   0.0000
     0.0000   0.0000   0.0000   0.0000   0.0000   0.0000   0.0000   0.0000
     0.0000   0.0000   0.0000   0.0000   0.0000   0.0000   0.0000   0.0000
     0.0000   0.0000   0.0000   0.0000   0.0000   0.0000   0.0000   0.0000
     0.0000   0.0000   0.0000   0.0000   0.0000   0.0000   0.0000   0.0000
     0.0000   0.0000   0.0000   0.0000   0.0000   0.0000   0.0000   0.0000
     0.0000   0.0000   0.0000   0.0000   0.0000   0.0000   0.0000   0.0000
     0.0000   0.0000   0.0000   0.0000   0.0000   0.0000   0.0000   0.0000
     0.0000   0.0000   0.0000   0.0000   0.0000   0.0000   0.0000   0.0000
     0.0000   0.0000   0.0000   0.0000   0.0000   0.0000   0.0000   0.0000

     highest occupied, lowest unoccupied level (ev):     5.8193    6.0802

!    total energy              =   -3464.72967037 Ry
     estimated scf accuracy    <       0.00000059 Ry

     The total energy is the sum of the following terms:
     one-electron contribution =    -664.81163181 Ry
     hartree contribution      =     414.69253426 Ry
     xc contribution           =    -599.72218898 Ry
     ewald contribution        =    -691.73986305 Ry
     one-center paw contrib.   =   -1923.14852077 Ry
      -> PAW hartree energy AE =       0.00000000 Ry
      -> PAW hartree energy PS =       0.00000000 Ry
      -> PAW xc energy AE      =       0.00000000 Ry
      -> PAW xc energy PS      =       0.00000000 Ry
      -> total E_H with PAW    =     414.69253426 Ry
      -> total E_XC with PAW   =    -599.72218898 Ry

     convergence has been achieved in  14 iterations

     Writing all to output data dir bands_nm/myprefix.save/

     General routines

     Parallel routines

     PAW routines

   This run was terminated on:  21:59: 1  15Jul2023

   JOB DONE.