     Program PWSCF v.7.0 starts on 23Jun2023 at  6:13:25

     K-points division:     npool     =       2
     R & G space division:  proc/nbgrp/npool/nimage =       4

     Reading input from espresso_12061.pwi
Warning: card &CELL ignored
Warning: card / ignored

     Current dimensions of program PWSCF are:
     Max number of different atomic species (ntypx) = 10
     Max number of k-points (npk) =  40000
     Max angular momentum in pseudopotentials (lmaxx) =  4
     file O.pbe-n-kjpaw_psl.0.1.UPF: wavefunction(s)  2P renormalized
     Message from routine setup:
     using ibrav=0 with symmetry is DISCOURAGED, use correct ibrav instead

     Using Slab Decomposition

     bravais-lattice index     =            0
     lattice parameter (alat)  =       9.3785  a.u.
     unit-cell volume          =    1459.3466 (a.u.)^3
     number of atoms/cell      =           20
     number of atomic types    =            3
     number of electrons       =       136.00
     number of Kohn-Sham states=           90
     kinetic-energy cutoff     =      30.0000  Ry
     charge density cutoff     =     240.0000  Ry
     scf convergence threshold =      1.0E-06
     mixing beta               =       0.7000
     number of iterations used =            8  plain     mixing
     Exchange-correlation= SLA  PW   PBX  PBC
                           (   1   4   3   4   0   0   0)

     celldm(1)=   9.378465  celldm(2)=   0.000000  celldm(3)=   0.000000
     celldm(4)=   0.000000  celldm(5)=   0.000000  celldm(6)=   0.000000

     crystal axes: (cart. coord. in units of alat)
               a(1) = (   1.000000   0.000000   0.000000 )
               a(2) = (   0.000000   1.061676   0.000000 )
               a(3) = (   0.000000   0.000000   1.666369 )

     reciprocal axes: (cart. coord. in units 2 pi/alat)
               b(1) = (  1.000000  0.000000  0.000000 )
               b(2) = (  0.000000  0.941907  0.000000 )
               b(3) = (  0.000000  0.000000  0.600107 )

     PseudoPot. # 1 for Zn read from file:
     /home/pragov/projects/rrg-bengioy-ad/pragov/crystal_structure_design/SSSP/Zn_pbe_v1.uspp.F.UPF
     MD5 check sum: df62231357ef9e81f77b2b3087fa5675
     Pseudo is Ultrasoft, Zval = 20.0
     Generated by new atomic code, or converted to UPF format
     Using radial grid of  943 points,  6 beta functions with:
                l(1) =   0
                l(2) =   0
                l(3) =   1
                l(4) =   1
                l(5) =   2
                l(6) =   2
     Q(r) pseudized with  8 coefficients,  rinner =    1.100   1.100   1.100
                                                       1.100   1.100

     PseudoPot. # 2 for H  read from file:
     /home/pragov/projects/rrg-bengioy-ad/pragov/crystal_structure_design/SSSP/H.pbe-rrkjus_psl.1.0.0.UPF
     MD5 check sum: f52b6d4d1c606e5624b1dc7b2218f220
     Pseudo is Ultrasoft, Zval =  1.0
     Generated using "atomic" code by A. Dal Corso  v.5.1
     Using radial grid of  929 points,  2 beta functions with:
                l(1) =   0
                l(2) =   0
     Q(r) pseudized with 0 coefficients

     PseudoPot. # 3 for O  read from file:
     /home/pragov/projects/rrg-bengioy-ad/pragov/crystal_structure_design/SSSP/O.pbe-n-kjpaw_psl.0.1.UPF
     MD5 check sum: 0234752ac141de4415c5fc33072bef88
     Pseudo is Projector augmented-wave + core cor, Zval =  6.0
     Generated using "atomic" code by A. Dal Corso  v.5.0.99 svn rev. 10869
     Shape of augmentation charge: BESSEL
     Using radial grid of 1095 points,  4 beta functions with:
                l(1) =   0
                l(2) =   0
                l(3) =   1
                l(4) =   1
     Q(r) pseudized with 0 coefficients

     atomic species   valence    mass     pseudopotential
        Zn            20.00    65.38000     Zn( 1.00)
        H              1.00     1.00800     H ( 1.00)
        O              6.00    15.99900     O ( 1.00)

      4 Sym. Ops. (no inversion) found ( 3 have fractional translation)

                                    s                        frac. trans.

      isym =  1     identity

 cryst.   s( 1) = (     1          0          0      )
                  (     0          1          0      )
                  (     0          0          1      )

 cart.    s( 1) = (  1.0000000  0.0000000  0.0000000 )
                  (  0.0000000  1.0000000  0.0000000 )
                  (  0.0000000  0.0000000  1.0000000 )

      isym =  2     180 deg rotation - cart. axis [0,0,1]

 cryst.   s( 2) = (    -1          0          0      )    f =(  0.5000000 )
                  (     0         -1          0      )       (  0.0000000 )
                  (     0          0          1      )       ( -0.5000000 )

 cart.    s( 2) = ( -1.0000000  0.0000000  0.0000000 )    f =(  0.5000000 )
                  (  0.0000000 -1.0000000  0.0000000 )       (  0.0000000 )
                  (  0.0000000  0.0000000  1.0000000 )       ( -0.8331846 )

[...]

      isym =  4     180 deg rotation - cart. axis [1,0,0]

 cryst.   s( 4) = (     1          0          0      )    f =(  0.5000000 )
                  (     0         -1          0      )       (  0.5000000 )
                  (     0          0         -1      )       (  0.0000000 )

 cart.    s( 4) = (  1.0000000  0.0000000  0.0000000 )    f =(  0.5000000 )
                  (  0.0000000 -1.0000000  0.0000000 )       (  0.5308379 )
                  (  0.0000000  0.0000000 -1.0000000 )       (  0.0000000 )

   Cartesian axes

     site n.     atom                  positions (alat units)
         1           Zn  tau(   1) = (   0.9475940   0.2020295   1.4486914  )
         2           Zn  tau(   2) = (   0.5524060   0.8596463   0.6155068  )
         3           Zn  tau(   3) = (   0.4475940   0.3288084   0.2176778  )
         4           Zn  tau(   4) = (   0.0524060   0.7328674   1.0508624  )
         5           H   tau(   5) = (   0.6318570   0.9653606   1.1822790  )
         6           H   tau(   6) = (   0.8681430   0.0963152   0.3490944  )
         7           H   tau(   7) = (   0.1318570   0.6271531   0.4840903  )
         8           H   tau(   8) = (   0.3681430   0.4345227   1.3172749  )
         9           H   tau(   9) = (   0.8082310   0.4279711   0.6900635  )
        10           H   tau(  10) = (   0.6917690   0.6337047   1.5232481  )
        11           H   tau(  11) = (   0.3082310   0.1028668   0.9763058  )
        12           H   tau(  12) = (   0.1917690   0.9588090   0.1431211  )
        13           O   tau(  13) = (   0.8592020   0.6187107   0.7143775  )
        14           O   tau(  14) = (   0.6407980   0.4429651   1.5475621  )
        15           O   tau(  15) = (   0.3592020   0.9738030   0.9519918  )
        16           O   tau(  16) = (   0.1407980   0.0878728   0.1188071  )
        17           O   tau(  17) = (   0.7991650   0.9330442   1.2891599  )
        18           O   tau(  18) = (   0.7008350   0.1286316   0.4559753  )
        19           O   tau(  19) = (   0.2991650   0.6594695   0.3772093  )
        20           O   tau(  20) = (   0.2008350   0.4022063   1.2103940  )

   Crystallographic axes

     site n.     atom                  positions (cryst. coord.)
         1           Zn  tau(   1) = (  0.9475940  0.1902930  0.8693700  )
         2           Zn  tau(   2) = (  0.5524060  0.8097070  0.3693700  )
         3           Zn  tau(   3) = (  0.4475940  0.3097070  0.1306300  )
         4           Zn  tau(   4) = (  0.0524060  0.6902930  0.6306300  )
         5           H   tau(   5) = (  0.6318570  0.9092800  0.7094940  )
         6           H   tau(   6) = (  0.8681430  0.0907200  0.2094940  )
         7           H   tau(   7) = (  0.1318570  0.5907200  0.2905060  )
         8           H   tau(   8) = (  0.3681430  0.4092800  0.7905060  )
         9           H   tau(   9) = (  0.8082310  0.4031090  0.4141120  )
        10           H   tau(  10) = (  0.6917690  0.5968910  0.9141120  )
        11           H   tau(  11) = (  0.3082310  0.0968910  0.5858880  )
        12           H   tau(  12) = (  0.1917690  0.9031090  0.0858880  )
        13           O   tau(  13) = (  0.8592020  0.5827680  0.4287030  )
        14           O   tau(  14) = (  0.6407980  0.4172320  0.9287030  )
        15           O   tau(  15) = (  0.3592020  0.9172320  0.5712970  )
        16           O   tau(  16) = (  0.1407980  0.0827680  0.0712970  )
        17           O   tau(  17) = (  0.7991650  0.8788410  0.7736340  )
        18           O   tau(  18) = (  0.7008350  0.1211590  0.2736340  )
        19           O   tau(  19) = (  0.2991650  0.6211590  0.2263660  )
        20           O   tau(  20) = (  0.2008350  0.3788410  0.7263660  )

     number of k points=     8
                       cart. coord. in units 2pi/alat
        k(    1) = (   0.0000000   0.0000000   0.0000000), wk =   0.0740741
        k(    2) = (   0.0000000   0.0000000   0.2000357), wk =   0.1481481
        k(    3) = (   0.0000000   0.3139690   0.0000000), wk =   0.1481481
        k(    4) = (   0.0000000   0.3139690   0.2000357), wk =   0.2962963
        k(    5) = (   0.3333333   0.0000000   0.0000000), wk =   0.1481481
        k(    6) = (   0.3333333   0.0000000   0.2000357), wk =   0.2962963
        k(    7) = (   0.3333333   0.3139690   0.0000000), wk =   0.2962963
        k(    8) = (   0.3333333   0.3139690   0.2000357), wk =   0.5925926

                       cryst. coord.
        k(    1) = (   0.0000000   0.0000000   0.0000000), wk =   0.0740741
        k(    2) = (   0.0000000   0.0000000   0.3333333), wk =   0.1481481
        k(    3) = (   0.0000000   0.3333333   0.0000000), wk =   0.1481481
        k(    4) = (   0.0000000   0.3333333   0.3333333), wk =   0.2962963
        k(    5) = (   0.3333333   0.0000000   0.0000000), wk =   0.1481481
        k(    6) = (   0.3333333   0.0000000   0.3333333), wk =   0.2962963
        k(    7) = (   0.3333333   0.3333333   0.0000000), wk =   0.2962963
        k(    8) = (   0.3333333   0.3333333   0.3333333), wk =   0.5925926

     Check: negative core charge=   -0.000013

     Initial potential from superposition of free atoms

     starting charge     135.9993, renormalised to     136.0000
     Starting wfcs are   92 randomized atomic wfcs
     Checking if some PAW data can be deallocated...

     Self-consistent Calculation

     iteration #  1     ecut=    30.00 Ry     beta= 0.70
     Davidson diagonalization with overlap

     ethr =  1.00E-02,  avg # of iterations =  4.6

     total energy              =   -2187.47972077 Ry
     estimated scf accuracy    <       2.78957120 Ry

[...]

     total energy              =   -2188.73539241 Ry
     estimated scf accuracy    <       0.00000634 Ry

     iteration #  8     ecut=    30.00 Ry     beta= 0.70
     Davidson diagonalization with overlap

     ethr =  4.66E-09,  avg # of iterations =  2.0

     End of self-consistent calculation

          k = 0.0000 0.0000 0.0000 (  4047 PWs)   bands (ev):

  -120.5379-120.5375-120.5371-120.5351 -74.6884 -74.6852 -74.6839 -74.6761
   -74.6735 -74.6705 -74.6700 -74.6682 -74.6600 -74.6592 -74.6585 -74.6546
   -16.0533 -15.7988 -15.5955 -15.4623 -15.2472 -15.2391 -15.0533 -14.9447
    -3.7596  -3.7422  -3.7261  -3.3888  -3.1811  -3.1405  -3.0698  -3.0627
    -2.3886  -2.3493  -2.3410  -2.2053  -2.1715  -2.1308  -2.1096  -2.0552
    -1.6617  -1.5683  -1.5266  -1.4292  -1.3569  -1.2752  -1.2496  -1.1057
    -0.9672  -0.8847  -0.7822  -0.7719  -0.7021   0.1594   0.2762   0.5922
     0.7795   0.8614   0.9440   0.9626   1.1981   1.3241   1.6467   1.7791
     1.8454   2.0740   2.1164   2.3593   5.1942   8.2811   8.4263   9.8508
     9.8704  10.5273  11.3337  11.4640  11.5877  11.9106  12.2944  12.5994
    13.1825  13.3600  13.4526  13.5132  13.8776  14.0050  14.0157  14.2667
    15.0498  15.1399

     occupation numbers
     1.0000   1.0000   1.0000   1.0000   1.0000   1.0000   1.0000   1.0000
     1.0000   1.0000   1.0000   1.0000   1.0000   1.0000   1.0000   1.0000
     1.0000   1.0000   1.0000   1.0000   1.0000   1.0000   1.0000   1.0000
     1.0000   1.0000   1.0000   1.0000   1.0000   1.0000   1.0000   1.0000
     1.0000   1.0000   1.0000   1.0000   1.0000   1.0000   1.0000   1.0000
     1.0000   1.0000   1.0000   1.0000   1.0000   1.0000   1.0000   1.0000
     1.0000   1.0000   1.0000   1.0000   1.0000   1.0000   1.0000   1.0000
     1.0000   1.0000   1.0000   1.0000   1.0000   1.0000   1.0000   1.0000
     1.0000   1.0000   1.0000   1.0000   0.0000   0.0000   0.0000   0.0000
     0.0000   0.0000   0.0000   0.0000   0.0000   0.0000   0.0000   0.0000
     0.0000   0.0000   0.0000   0.0000   0.0000   0.0000   0.0000   0.0000
     0.0000   0.0000

[...]

          k = 0.3333 0.3140 0.2000 (  4046 PWs)   bands (ev):

  -120.5378-120.5374-120.5366-120.5359 -74.6874 -74.6847 -74.6832 -74.6801
   -74.6745 -74.6731 -74.6723 -74.6696 -74.6586 -74.6574 -74.6558 -74.6517
   -15.7972 -15.7363 -15.6082 -15.5838 -15.2762 -15.2470 -15.1037 -15.0770
    -3.6029  -3.5873  -3.4753  -3.4398  -3.2934  -3.2529  -3.1800  -3.1647
    -2.2983  -2.2916  -2.2402  -2.2280  -2.1518  -2.1331  -2.0918  -2.0554
    -1.6905  -1.6533  -1.5975  -1.5809  -1.4797  -1.4308  -1.3955  -1.3581
    -1.1243  -1.0444  -0.8817  -0.7879  -0.2643  -0.0917   0.2672   0.4567
     0.9945   1.0939   1.1319   1.1801   1.4148   1.4689   1.7064   1.7820
     1.8807   1.9266   2.0876   2.1322   7.5291   8.1835   9.2070   9.3831
     9.7029   9.9725  10.3408  10.7736  11.0939  11.7057  11.9616  12.1294
    12.7746  12.9231  13.1402  13.5357  13.7419  14.0543  14.3083  14.4403
    14.8761  15.0794

     occupation numbers
     1.0000   1.0000   1.0000   1.0000   1.0000   1.0000   1.0000   1.0000
     1.0000   1.0000   1.0000   1.0000   1.0000   1.0000   1.0000   1.0000
     1.0000   1.0000   1.0000   1.0000   1.0000   1.0000   1.0000   1.0000
     1.0000   1.0000   1.0000   1.0000   1.0000   1.0000   1.0000   1.0000
     1.0000   1.0000   1.0000   1.0000   1.0000   1.0000   1.0000   1.0000
     1.0000   1.0000   1.0000   1.0000   1.0000   1.0000   1.0000   1.0000
     1.0000   1.0000   1.0000   1.0000   1.0000   1.0000   1.0000   1.0000
     1.0000   1.0000   1.0000   1.0000   1.0000   1.0000   1.0000   1.0000
     1.0000   1.0000   1.0000   1.0000   0.0000   0.0000   0.0000   0.0000
     0.0000   0.0000   0.0000   0.0000   0.0000   0.0000   0.0000   0.0000
     0.0000   0.0000   0.0000   0.0000   0.0000   0.0000   0.0000   0.0000
     0.0000   0.0000

     highest occupied, lowest unoccupied level (ev):     2.3593    5.1942

!    total energy              =   -2188.73539359 Ry
     estimated scf accuracy    <       0.00000028 Ry

     The total energy is the sum of the following terms:
     one-electron contribution =   -2163.70781770 Ry
     hartree contribution      =    1120.25686923 Ry
     xc contribution           =    -234.23576002 Ry
     ewald contribution        =    -834.93213995 Ry
     one-center paw contrib.   =     -76.11654515 Ry
      -> PAW hartree energy AE =       0.00000000 Ry
      -> PAW hartree energy PS =       0.00000000 Ry
      -> PAW xc energy AE      =       0.00000000 Ry
      -> PAW xc energy PS      =       0.00000000 Ry
      -> total E_H with PAW    =    1120.25686923 Ry
      -> total E_XC with PAW   =    -234.23576002 Ry

     convergence has been achieved in   8 iterations

     Writing all to output data dir calculations_bands/myprefix.save/

     General routines

     Parallel routines

     PAW routines

   This run was terminated on:   6:13:39  23Jun2023

   JOB DONE.