     Program PWSCF v.7.1 starts on 16Jul2023 at 13:12: 3

     Reading input from espresso_3582.pwi
Warning: card &CELL ignored
Warning: card / ignored

     Current dimensions of program PWSCF are:
     Max number of different atomic species (ntypx) = 10
     Max number of k-points (npk) =  40000
     Max angular momentum in pseudopotentials (lmaxx) =  4
     file O.pbe-n-kjpaw_psl.0.1.UPF: wavefunction(s)  2P renormalized
     Message from routine setup:
     using ibrav=0 with symmetry is DISCOURAGED, use correct ibrav instead

     K-points division:     npool     =       2
     R & G space division:  proc/nbgrp/npool/nimage =       4
     Subspace diagonalization in iterative solution of the eigenvalue problem:
     a serial algorithm will be used

     Using Slab Decomposition

     bravais-lattice index     =            0
     lattice parameter (alat)  =      12.4439  a.u.
     unit-cell volume          =    1175.9302 (a.u.)^3
     number of atoms/cell      =           12
     number of atomic types    =            3
     number of electrons       =       116.00
     number of Kohn-Sham states=           64
     kinetic-energy cutoff     =      30.0000  Ry
     charge density cutoff     =     240.0000  Ry
     scf convergence threshold =      1.0E-06
     mixing beta               =       0.7000
     number of iterations used =            8  plain     mixing
     Exchange-correlation= SLA  PW   PBX  PBC
                           (   1   4   3   4   0   0   0)

     celldm(1)=  12.443908  celldm(2)=   0.000000  celldm(3)=   0.000000
     celldm(4)=   0.000000  celldm(5)=   0.000000  celldm(6)=   0.000000

     crystal axes: (cart. coord. in units of alat)
               a(1) = (   1.000000   0.000000   0.000000 )
               a(2) = (   0.554333   0.832295   0.000000 )
               a(3) = (   0.284114   0.152134   0.733220 )

     reciprocal axes: (cart. coord. in units 2 pi/alat)
               b(1) = (  1.000000 -0.666030 -0.249296 )
               b(2) = (  0.000000  1.201498 -0.249296 )
               b(3) = (  0.000000  0.000000  1.363848 )

     PseudoPot. # 1 for Hg read from file:
     /lustre07/scratch/pragov/crystal_structure_design/utils/SSSP/Hg_ONCV_PBE-1.0.oncvpsp.upf
     MD5 check sum: dd5a8773074bfcf4280086d4d95875c4
     Pseudo is Norm-conserving, Zval = 20.0
     Generated using ONCVPSP code by D. R. Hamann
     Using radial grid of 1262 points,  8 beta functions with:
                l(1) =   0
                l(2) =   0
                l(3) =   1
                l(4) =   1
                l(5) =   2
                l(6) =   2
                l(7) =   3
                l(8) =   3

     PseudoPot. # 2 for W  read from file:
     /lustre07/scratch/pragov/crystal_structure_design/utils/SSSP/W_pbe_v1.2.uspp.F.UPF
     MD5 check sum: 9c083fa34c2a2ea0f02f1f893e16e1c8
     Pseudo is Ultrasoft + core correction, Zval = 14.0
     Generated by new atomic code, or converted to UPF format
     Using radial grid of  923 points,  8 beta functions with:
                l(1) =   0
                l(2) =   0
                l(3) =   0
                l(4) =   1
                l(5) =   1
                l(6) =   2
                l(7) =   2
                l(8) =   3
     Q(r) pseudized with  6 coefficients,  rinner =    1.350   1.350   1.350
                                                       1.350   1.350   1.350
                                                       1.350

     PseudoPot. # 3 for O  read from file:
     /lustre07/scratch/pragov/crystal_structure_design/utils/SSSP/O.pbe-n-kjpaw_psl.0.1.UPF
     MD5 check sum: 0234752ac141de4415c5fc33072bef88
     Pseudo is Projector augmented-wave + core cor, Zval =  6.0
     Generated using "atomic" code by A. Dal Corso  v.5.0.99 svn rev. 10869
     Shape of augmentation charge: BESSEL
     Using radial grid of 1095 points,  4 beta functions with:
                l(1) =   0
                l(2) =   0
                l(3) =   1
                l(4) =   1
     Q(r) pseudized with 0 coefficients

     atomic species   valence    mass     pseudopotential
        Hg            20.00   200.59200     Hg( 1.00)
        W             14.00   183.84000     W ( 1.00)
        O              6.00    15.99900     O ( 1.00)

      2 Sym. Ops., with inversion, found

                                    s                        frac. trans.

      isym =  1     identity

 cryst.   s( 1) = (     1          0          0      )
                  (     0          1          0      )
                  (     0          0          1      )

 cart.    s( 1) = (  1.0000000  0.0000000  0.0000000 )
                  (  0.0000000  1.0000000 -0.0000000 )
                  (  0.0000000  0.0000000  1.0000000 )

      isym =  2     inversion

 cryst.   s( 2) = (    -1          0          0      )
                  (     0         -1          0      )
                  (     0          0         -1      )

 cart.    s( 2) = ( -1.0000000  0.0000000  0.0000000 )
                  (  0.0000000 -1.0000000  0.0000000 )
                  (  0.0000000  0.0000000 -1.0000000 )

   Cartesian axes

     site n.     atom                  positions (alat units)
         1           Hg  tau(   1) = (   0.2771667   0.4161473   0.0000000  )
         2           Hg  tau(   2) = (   0.6420571   0.0760669   0.3666098  )
         3           W   tau(   3) = (   1.1325541   0.2644952   0.5499147  )
         4           W   tau(   4) = (   0.7058935   0.7199333   0.1833049  )
         5           O   tau(   5) = (   0.9029141   0.6342541   0.0177850  )
         6           O   tau(   6) = (   0.6679887   0.5084592   0.3488248  )
         7           O   tau(   7) = (   0.9355335   0.3501744   0.7154346  )
         8           O   tau(   8) = (   1.1704589   0.4759693   0.3843948  )
         9           O   tau(   9) = (   0.3834520   0.3041020   0.7133413  )
        10           O   tau(  10) = (   1.5148419   0.9099243   0.3864881  )
        11           O   tau(  11) = (   1.4549956   0.6803265   0.0198783  )
        12           O   tau(  12) = (   0.3236057   0.0745042   0.3467315  )

   Crystallographic axes

     site n.     atom                  positions (cryst. coord.)
         1           Hg  tau(   1) = ( -0.0000000  0.5000000  0.0000000  )
         2           Hg  tau(   2) = (  0.5000000  0.0000000  0.5000000  )
         3           W   tau(   3) = (  0.8193010  0.1806990  0.7500000  )
         4           W   tau(   4) = (  0.1806990  0.8193010  0.2500000  )
         5           O   tau(   5) = (  0.4760480  0.7576210  0.0242560  )
         6           O   tau(   6) = (  0.2423790  0.5239520  0.4757440  )
         7           O   tau(   7) = (  0.5239520  0.2423790  0.9757440  )
         8           O   tau(   8) = (  0.7576210  0.4760480  0.5242560  )
         9           O   tau(   9) = (  0.0030780  0.1875450  0.9728890  )
        10           O   tau(  10) = (  0.8124550  0.9969220  0.5271110  )
        11           O   tau(  11) = (  0.9969220  0.8124550  0.0271110  )
        12           O   tau(  12) = (  0.1875450  0.0030780  0.4728890  )

     number of k points=    14
                       cart. coord. in units 2pi/alat
        k(    1) = (   0.0000000   0.0000000   0.0000000), wk =   0.0740741
        k(    2) = (   0.0000000   0.0000000   0.4546159), wk =   0.1481481
        k(    3) = (   0.0000000   0.4004992  -0.0830985), wk =   0.1481481
        k(    4) = (   0.0000000   0.4004992   0.3715174), wk =   0.1481481
        k(    5) = (   0.0000000   0.4004992  -0.5377145), wk =   0.1481481
        k(    6) = (   0.3333333  -0.2220101  -0.0830985), wk =   0.1481481
        k(    7) = (   0.3333333  -0.2220101   0.3715174), wk =   0.1481481
        k(    8) = (   0.3333333  -0.2220101  -0.5377145), wk =   0.1481481
        k(    9) = (   0.3333333   0.1784891  -0.1661971), wk =   0.1481481
        k(   10) = (   0.3333333   0.1784891   0.2884189), wk =   0.1481481
        k(   11) = (   0.3333333   0.1784891  -0.6208130), wk =   0.1481481
        k(   12) = (   0.3333333  -0.6225093  -0.0000000), wk =   0.1481481
        k(   13) = (   0.3333333  -0.6225093   0.4546159), wk =   0.1481481
        k(   14) = (   0.3333333  -0.6225093  -0.4546159), wk =   0.1481481

                       cryst. coord.
        k(    1) = (   0.0000000   0.0000000   0.0000000), wk =   0.0740741
        k(    2) = (   0.0000000   0.0000000   0.3333333), wk =   0.1481481
        k(    3) = (   0.0000000   0.3333333   0.0000000), wk =   0.1481481
        k(    4) = (   0.0000000   0.3333333   0.3333333), wk =   0.1481481
        k(    5) = (   0.0000000   0.3333333  -0.3333333), wk =   0.1481481
        k(    6) = (   0.3333333   0.0000000  -0.0000000), wk =   0.1481481
        k(    7) = (   0.3333333   0.0000000   0.3333333), wk =   0.1481481
        k(    8) = (   0.3333333   0.0000000  -0.3333333), wk =   0.1481481
        k(    9) = (   0.3333333   0.3333333  -0.0000000), wk =   0.1481481
        k(   10) = (   0.3333333   0.3333333   0.3333333), wk =   0.1481481
        k(   11) = (   0.3333333   0.3333333  -0.3333333), wk =   0.1481481
        k(   12) = (   0.3333333  -0.3333333  -0.0000000), wk =   0.1481481
        k(   13) = (   0.3333333  -0.3333333   0.3333333), wk =   0.1481481
        k(   14) = (   0.3333333  -0.3333333  -0.3333333), wk =   0.1481481

     Check: negative core charge=   -0.000011

     Initial potential from superposition of free atoms

     starting charge     115.7992, renormalised to     116.0000

     negative rho (up, down):  1.291E-01 0.000E+00
     Starting wfcs are   78 randomized atomic wfcs
     Checking if some PAW data can be deallocated...

     Self-consistent Calculation

     iteration #  1     ecut=    30.00 Ry     beta= 0.70
     Davidson diagonalization with overlap

     ethr =  1.00E-02,  avg # of iterations =  2.0

     negative rho (up, down):  1.225E-01 0.000E+00

     total energy              =   -1268.68168093 Ry
     estimated scf accuracy    <       4.33901398 Ry

[...]

     total energy              =   -1271.13443098 Ry
     estimated scf accuracy    <       0.00006209 Ry

     iteration # 10     ecut=    30.00 Ry     beta= 0.70
     Davidson diagonalization with overlap

     ethr =  5.35E-08,  avg # of iterations =  2.1

     negative rho (up, down):  1.244E-01 0.000E+00

     End of self-consistent calculation

          k = 0.0000 0.0000 0.0000 (  3249 PWs)   bands (ev):

  -106.3638-106.3634 -66.5059 -66.5031 -54.3902 -54.3875 -54.1648 -54.1644
   -54.1021 -54.1015 -30.8139 -30.8049 -30.7959 -30.7656 -30.7566 -30.7271
   -10.6033  -9.6715  -9.4988  -9.2203  -8.7908  -8.6471  -8.5801  -8.5727
     0.6109   0.7274   1.9619   2.1448   2.4326   2.6037   2.6486   2.8537
     3.0457   3.1855   3.2995   3.5559   3.5998   3.8171   4.2929   4.3130
     4.3814   4.5731   4.5925   4.7823   5.2306   5.3740   5.5759   5.6035
     6.2030   6.2309   6.3472   6.4887   6.7014   6.7097   7.1170   7.1336
     7.1618   7.3157  10.0825  11.0061  11.3297  11.3963  11.5453  11.5992

     occupation numbers
     1.0000   1.0000   1.0000   1.0000   1.0000   1.0000   1.0000   1.0000
     1.0000   1.0000   1.0000   1.0000   1.0000   1.0000   1.0000   1.0000
     1.0000   1.0000   1.0000   1.0000   1.0000   1.0000   1.0000   1.0000
     1.0000   1.0000   1.0000   1.0000   1.0000   1.0000   1.0000   1.0000
     1.0000   1.0000   1.0000   1.0000   1.0000   1.0000   1.0000   1.0000
     1.0000   1.0000   1.0000   1.0000   1.0000   1.0000   1.0000   1.0000
     1.0000   1.0000   1.0000   1.0000   1.0000   1.0000   1.0000   1.0000
     1.0000   1.0000   0.0000   0.0000   0.0000   0.0000   0.0000   0.0000

[...]

          k = 0.3333-0.6225-0.4546 (  3259 PWs)   bands (ev):

  -106.3639-106.3635 -66.5052 -66.5039 -54.3929 -54.3914 -54.1668 -54.1646
   -54.1031 -54.1014 -30.8146 -30.8100 -30.7906 -30.7787 -30.7411 -30.7295
   -10.2430  -9.8338  -9.5522  -9.4459  -8.7745  -8.6560  -8.6200  -8.5579
     1.2445   1.3119   2.0371   2.1712   2.4180   2.6591   2.8701   2.9278
     3.0286   3.0623   3.1166   3.2052   3.3292   3.5504   3.8968   4.0287
     4.1918   4.4705   4.6773   4.9124   5.0534   5.3262   5.4664   5.7170
     5.8815   6.0487   6.1438   6.4390   6.5633   6.8918   6.9555   7.0335
     7.4083   7.6501  10.4574  10.9690  11.5591  11.6505  11.8432  11.9388

     occupation numbers
     1.0000   1.0000   1.0000   1.0000   1.0000   1.0000   1.0000   1.0000
     1.0000   1.0000   1.0000   1.0000   1.0000   1.0000   1.0000   1.0000
     1.0000   1.0000   1.0000   1.0000   1.0000   1.0000   1.0000   1.0000
     1.0000   1.0000   1.0000   1.0000   1.0000   1.0000   1.0000   1.0000
     1.0000   1.0000   1.0000   1.0000   1.0000   1.0000   1.0000   1.0000
     1.0000   1.0000   1.0000   1.0000   1.0000   1.0000   1.0000   1.0000
     1.0000   1.0000   1.0000   1.0000   1.0000   1.0000   1.0000   1.0000
     1.0000   1.0000   0.0000   0.0000   0.0000   0.0000   0.0000   0.0000

     highest occupied, lowest unoccupied level (ev):     7.6995    9.9301

!    total energy              =   -1271.13444081 Ry
     estimated scf accuracy    <       0.00000080 Ry

     The total energy is the sum of the following terms:
     one-electron contribution =    -562.66904893 Ry
     hartree contribution      =     320.12204903 Ry
     xc contribution           =    -196.02098705 Ry
     ewald contribution        =    -756.33649206 Ry
     one-center paw contrib.   =     -76.22996180 Ry
      -> PAW hartree energy AE =       0.00000000 Ry
      -> PAW hartree energy PS =       0.00000000 Ry
      -> PAW xc energy AE      =       0.00000000 Ry
      -> PAW xc energy PS      =       0.00000000 Ry
      -> total E_H with PAW    =     320.12204903 Ry
      -> total E_XC with PAW   =    -196.02098705 Ry

     convergence has been achieved in  10 iterations

     Writing all to output data dir bands_nm/myprefix.save/

     General routines

     Parallel routines

     PAW routines

   This run was terminated on:  13:12:13  16Jul2023

   JOB DONE.