     Program PWSCF v.7.1 starts on 13Jul2023 at  4: 0:26

     Reading input from espresso_24987.pwi
Warning: card &CELL ignored
Warning: card / ignored

     Current dimensions of program PWSCF are:
     Max number of different atomic species (ntypx) = 10
     Max number of k-points (npk) =  40000
     Max angular momentum in pseudopotentials (lmaxx) =  4
     file O.pbe-n-kjpaw_psl.0.1.UPF: wavefunction(s)  2P renormalized
     Message from routine setup:
     using ibrav=0 with symmetry is DISCOURAGED, use correct ibrav instead

     K-points division:     npool     =       2
     R & G space division:  proc/nbgrp/npool/nimage =       8
     Subspace diagonalization in iterative solution of the eigenvalue problem:
     a serial algorithm will be used

     Using Slab Decomposition

     bravais-lattice index     =            0
     lattice parameter (alat)  =      10.3493  a.u.
     unit-cell volume          =    1252.9446 (a.u.)^3
     number of atoms/cell      =           18
     number of atomic types    =            3
     number of electrons       =        96.00
     number of Kohn-Sham states=           64
     kinetic-energy cutoff     =      30.0000  Ry
     charge density cutoff     =     240.0000  Ry
     scf convergence threshold =      1.0E-06
     mixing beta               =       0.7000
     number of iterations used =            8  plain     mixing
     Exchange-correlation= SLA  PW   PBX  PBC
                           (   1   4   3   4   0   0   0)

     celldm(1)=  10.349270  celldm(2)=   0.000000  celldm(3)=   0.000000
     celldm(4)=   0.000000  celldm(5)=   0.000000  celldm(6)=   0.000000

     crystal axes: (cart. coord. in units of alat)
               a(1) = (   1.000000   0.000000   0.000000 )
               a(2) = (  -0.065864   0.997829   0.000000 )
               a(3) = (   0.000000   0.000000   1.132783 )

     reciprocal axes: (cart. coord. in units 2 pi/alat)
               b(1) = (  1.000000  0.066008  0.000000 )
               b(2) = (  0.000000  1.002176  0.000000 )
               b(3) = (  0.000000  0.000000  0.882781 )

     PseudoPot. # 1 for Li read from file:
     /lustre07/scratch/pragov/crystal_structure_design/utils/SSSP/li_pbe_v1.4.uspp.F.UPF
     MD5 check sum: e912e257baa3777c20ea3d68f190483c
     Pseudo is Ultrasoft, Zval =  3.0
     Generated by new atomic code, or converted to UPF format
     Using radial grid of  751 points,  5 beta functions with:
                l(1) =   0
                l(2) =   0
                l(3) =   0
                l(4) =   1
                l(5) =   1
     Q(r) pseudized with 10 coefficients,  rinner =    1.150   1.150   1.150

     PseudoPot. # 2 for Ti read from file:
     /lustre07/scratch/pragov/crystal_structure_design/utils/SSSP/ti_pbe_v1.4.uspp.F.UPF
     MD5 check sum: 88a00a6731bd790ddea75d31a80cb452
     Pseudo is Ultrasoft + core correction, Zval = 12.0
     Generated by new atomic code, or converted to UPF format
     Using radial grid of  851 points,  6 beta functions with:
                l(1) =   0
                l(2) =   0
                l(3) =   1
                l(4) =   1
                l(5) =   2
                l(6) =   2
     Q(r) pseudized with  6 coefficients,  rinner =    1.000   1.000   1.000
                                                       1.000   1.000

     PseudoPot. # 3 for O  read from file:
     /lustre07/scratch/pragov/crystal_structure_design/utils/SSSP/O.pbe-n-kjpaw_psl.0.1.UPF
     MD5 check sum: 0234752ac141de4415c5fc33072bef88
     Pseudo is Projector augmented-wave + core cor, Zval =  6.0
     Generated using "atomic" code by A. Dal Corso  v.5.0.99 svn rev. 10869
     Shape of augmentation charge: BESSEL
     Using radial grid of 1095 points,  4 beta functions with:
                l(1) =   0
                l(2) =   0
                l(3) =   1
                l(4) =   1
     Q(r) pseudized with 0 coefficients

     atomic species   valence    mass     pseudopotential
        Li             3.00     6.94000     Li( 1.00)
        Ti            12.00    47.86700     Ti( 1.00)
        O              6.00    15.99900     O ( 1.00)

      4 Sym. Ops., with inversion, found ( 2 have fractional translation)

                                    s                        frac. trans.

      isym =  1     identity

 cryst.   s( 1) = (     1          0          0      )
                  (     0          1          0      )
                  (     0          0          1      )

 cart.    s( 1) = (  1.0000000  0.0000000  0.0000000 )
                  (  0.0000000  1.0000000  0.0000000 )
                  (  0.0000000  0.0000000  1.0000000 )

      isym =  2     180 deg rotation - cart. axis [0,0,1]

 cryst.   s( 2) = (    -1          0          0      )    f =( -0.0000000 )
                  (     0         -1          0      )       ( -0.0000000 )
                  (     0          0          1      )       ( -0.5000000 )

 cart.    s( 2) = ( -1.0000000 -0.0000000  0.0000000 )    f =( -0.0000000 )
                  (  0.0000000 -1.0000000  0.0000000 )       ( -0.0000000 )
                  (  0.0000000  0.0000000  1.0000000 )       ( -0.5663916 )

      isym =  3     inversion

 cryst.   s( 3) = (    -1          0          0      )
                  (     0         -1          0      )
                  (     0          0         -1      )

 cart.    s( 3) = ( -1.0000000 -0.0000000  0.0000000 )
                  (  0.0000000 -1.0000000  0.0000000 )
                  (  0.0000000  0.0000000 -1.0000000 )

      isym =  4     inv. 180 deg rotation - cart. axis [0,0,1]

 cryst.   s( 4) = (     1          0          0      )    f =(  0.0000000 )
                  (     0          1          0      )       (  0.0000000 )
                  (     0          0         -1      )       (  0.5000000 )

 cart.    s( 4) = (  1.0000000  0.0000000  0.0000000 )    f =(  0.0000000 )
                  (  0.0000000  1.0000000  0.0000000 )       (  0.0000000 )
                  (  0.0000000  0.0000000 -1.0000000 )       (  0.5663916 )

   Cartesian axes

     site n.     atom                  positions (alat units)
         1           Li  tau(   1) = (   0.8299509   0.1591946   0.0000000  )
         2           Li  tau(   2) = (   0.1041847   0.8386340   0.5663916  )
         3           Li  tau(   3) = (   0.1041847   0.8386340   0.0000000  )
         4           Li  tau(   4) = (   0.8299509   0.1591946   0.5663916  )
         5           Li  tau(   5) = (   0.8380262   0.5826870   0.2831958  )
         6           Li  tau(   6) = (   0.0961095   0.4151416   0.8495874  )
         7           Li  tau(   7) = (   0.5262257   0.8745848   0.2831958  )
         8           Li  tau(   8) = (   0.4079100   0.1232438   0.8495874  )
         9           Ti  tau(   9) = (   0.3177238   0.3393874   0.2831958  )
        10           Ti  tau(  10) = (   0.6164118   0.6584411   0.8495874  )
        11           O   tau(  11) = (   0.6464812   0.2694207   0.2831958  )
        12           O   tau(  12) = (   0.2876545   0.7284079   0.8495874  )
        13           O   tau(  13) = (   0.1895744   0.2025003   0.0033666  )
        14           O   tau(  14) = (   0.7445612   0.7953283   0.5697583  )
        15           O   tau(  15) = (   0.1895744   0.2025003   0.5630250  )
        16           O   tau(  16) = (   0.7445612   0.7953283   1.1294166  )
        17           O   tau(  17) = (   0.2262556   0.6628226   0.2831958  )
        18           O   tau(  18) = (   0.7078800   0.3350060   0.8495874  )

   Crystallographic axes

     site n.     atom                  positions (cryst. coord.)
         1           Li  tau(   1) = (  0.8404590  0.1595410  0.0000000  )
         2           Li  tau(   2) = (  0.1595410  0.8404590  0.5000000  )
         3           Li  tau(   3) = (  0.1595410  0.8404590  0.0000000  )
         4           Li  tau(   4) = (  0.8404590  0.1595410  0.5000000  )
         5           Li  tau(   5) = (  0.8764880  0.5839550  0.2500000  )
         6           Li  tau(   6) = (  0.1235120  0.4160450  0.7500000  )
         7           Li  tau(   7) = (  0.5839550  0.8764880  0.2500000  )
         8           Li  tau(   8) = (  0.4160450  0.1235120  0.7500000  )
         9           Ti  tau(   9) = (  0.3401260  0.3401260  0.2500000  )
        10           Ti  tau(  10) = (  0.6598740  0.6598740  0.7500000  )
        11           O   tau(  11) = (  0.6642650  0.2700070  0.2500000  )
        12           O   tau(  12) = (  0.3357350  0.7299930  0.7500000  )
        13           O   tau(  13) = (  0.2029410  0.2029410  0.0029720  )
        14           O   tau(  14) = (  0.7970590  0.7970590  0.5029720  )
        15           O   tau(  15) = (  0.2029410  0.2029410  0.4970280  )
        16           O   tau(  16) = (  0.7970590  0.7970590  0.9970280  )
        17           O   tau(  17) = (  0.2700070  0.6642650  0.2500000  )
        18           O   tau(  18) = (  0.7299930  0.3357350  0.7500000  )

     number of k points=    10
                       cart. coord. in units 2pi/alat
        k(    1) = (   0.0000000   0.0000000   0.0000000), wk =   0.0740741
        k(    2) = (   0.0000000   0.0000000   0.2942605), wk =   0.1481481
        k(    3) = (   0.0000000   0.3340587   0.0000000), wk =   0.1481481
        k(    4) = (   0.0000000   0.3340587   0.2942605), wk =   0.2962963
        k(    5) = (   0.3333333   0.0220026   0.0000000), wk =   0.1481481
        k(    6) = (   0.3333333   0.0220026   0.2942605), wk =   0.2962963
        k(    7) = (   0.3333333   0.3560613   0.0000000), wk =   0.1481481
        k(    8) = (   0.3333333   0.3560613   0.2942605), wk =   0.2962963
        k(    9) = (   0.3333333  -0.3120561   0.0000000), wk =   0.1481481
        k(   10) = (   0.3333333  -0.3120561   0.2942605), wk =   0.2962963

                       cryst. coord.
        k(    1) = (   0.0000000   0.0000000   0.0000000), wk =   0.0740741
        k(    2) = (   0.0000000   0.0000000   0.3333333), wk =   0.1481481
        k(    3) = (   0.0000000   0.3333333   0.0000000), wk =   0.1481481
        k(    4) = (   0.0000000   0.3333333   0.3333333), wk =   0.2962963
        k(    5) = (   0.3333333   0.0000000   0.0000000), wk =   0.1481481
        k(    6) = (   0.3333333   0.0000000   0.3333333), wk =   0.2962963
        k(    7) = (   0.3333333   0.3333333   0.0000000), wk =   0.1481481
        k(    8) = (   0.3333333   0.3333333   0.3333333), wk =   0.2962963
        k(    9) = (   0.3333333  -0.3333333   0.0000000), wk =   0.1481481
        k(   10) = (   0.3333333  -0.3333333   0.3333333), wk =   0.2962963

     Check: negative core charge=   -0.000015

     Initial potential from superposition of free atoms

     starting charge      90.3940, renormalised to      96.0000

     negative rho (up, down):  2.905E-03 0.000E+00
     Starting wfcs are   92 randomized atomic wfcs
     Checking if some PAW data can be deallocated...

     Self-consistent Calculation

     iteration #  1     ecut=    30.00 Ry     beta= 0.70
     Davidson diagonalization with overlap

     ethr =  1.00E-02,  avg # of iterations =  3.0

     negative rho (up, down):  5.266E-03 0.000E+00

     total energy              =    -687.92794252 Ry
     estimated scf accuracy    <       2.32338695 Ry

[...]

     total energy              =    -689.15035148 Ry
     estimated scf accuracy    <       0.00002874 Ry

     iteration # 11     ecut=    30.00 Ry     beta= 0.70
     Davidson diagonalization with overlap

     ethr =  2.99E-08,  avg # of iterations =  2.0

     negative rho (up, down):  2.313E-03 0.000E+00

     End of self-consistent calculation

          k = 0.0000 0.0000 0.0000 (  3457 PWs)   bands (ev):

   -51.5543 -51.5534 -39.4838 -39.4800 -39.4334 -39.4333 -38.6846 -38.6779
   -38.6609 -38.6545 -27.9501 -27.9484 -27.9480 -27.9442 -27.9181 -27.9101
   -12.5566 -12.2171 -12.0574 -12.0308 -12.0170 -11.9758 -11.9207 -11.9005
     0.6708   0.8092   0.9454   1.0047   1.1308   1.3100   1.3144   1.5293
     1.7956   1.8224   1.8450   1.9148   1.9768   1.9965   2.1006   2.2130
     2.5864   2.6053   2.6778   2.9245   3.0536   3.1293   3.3741   3.4026
     8.0730   8.2611   8.4515   8.4954   8.5154   8.6851   9.0397   9.0818
     9.1009   9.1065   9.9052  12.2536  12.6638  12.7249  12.8069  13.1889

     occupation numbers
     1.0000   1.0000   1.0000   1.0000   1.0000   1.0000   1.0000   1.0000
     1.0000   1.0000   1.0000   1.0000   1.0000   1.0000   1.0000   1.0000
     1.0000   1.0000   1.0000   1.0000   1.0000   1.0000   1.0000   1.0000
     1.0000   1.0000   1.0000   1.0000   1.0000   1.0000   1.0000   1.0000
     1.0000   1.0000   1.0000   1.0000   1.0000   1.0000   1.0000   1.0000
     1.0000   1.0000   1.0000   1.0000   1.0000   1.0000   1.0000   1.0000
     0.0000   0.0000   0.0000   0.0000   0.0000   0.0000   0.0000   0.0000
     0.0000   0.0000   0.0000   0.0000   0.0000   0.0000   0.0000   0.0000

[...]

          k = 0.3333-0.3121 0.2943 (  3489 PWs)   bands (ev):

   -51.5542 -51.5538 -39.4816 -39.4813 -39.4351 -39.4344 -38.6837 -38.6799
   -38.6594 -38.6568 -27.9500 -27.9489 -27.9476 -27.9457 -27.9157 -27.9120
   -12.3763 -12.2889 -12.0984 -12.0544 -12.0073 -11.9872 -11.9527 -11.9057
     0.7126   0.8685   0.8832   0.9484   1.0152   1.1289   1.3486   1.5182
     1.5595   1.7066   1.8507   1.9068   2.0109   2.2086   2.2917   2.4248
     2.5942   2.6284   2.7232   2.8982   2.9693   3.0217   3.2018   3.3026
     8.1139   8.2426   8.4395   8.4835   8.8463   8.9992   9.2102   9.2564
     9.7068   9.8743  10.2203  10.8811  11.3684  12.1073  12.5409  12.6204

     occupation numbers
     1.0000   1.0000   1.0000   1.0000   1.0000   1.0000   1.0000   1.0000
     1.0000   1.0000   1.0000   1.0000   1.0000   1.0000   1.0000   1.0000
     1.0000   1.0000   1.0000   1.0000   1.0000   1.0000   1.0000   1.0000
     1.0000   1.0000   1.0000   1.0000   1.0000   1.0000   1.0000   1.0000
     1.0000   1.0000   1.0000   1.0000   1.0000   1.0000   1.0000   1.0000
     1.0000   1.0000   1.0000   1.0000   1.0000   1.0000   1.0000   1.0000
     0.0000   0.0000   0.0000   0.0000   0.0000   0.0000   0.0000   0.0000
     0.0000   0.0000   0.0000   0.0000   0.0000   0.0000   0.0000   0.0000

     highest occupied, lowest unoccupied level (ev):     3.4081    8.0013

!    total energy              =    -689.15035688 Ry
     estimated scf accuracy    <       0.00000051 Ry

     The total energy is the sum of the following terms:
     one-electron contribution =    -300.11528913 Ry
     hartree contribution      =     178.91594440 Ry
     xc contribution           =    -123.68336346 Ry
     ewald contribution        =    -368.11096042 Ry
     one-center paw contrib.   =     -76.15668829 Ry
      -> PAW hartree energy AE =       0.00000000 Ry
      -> PAW hartree energy PS =       0.00000000 Ry
      -> PAW xc energy AE      =       0.00000000 Ry
      -> PAW xc energy PS      =       0.00000000 Ry
      -> total E_H with PAW    =     178.91594440 Ry
      -> total E_XC with PAW   =    -123.68336346 Ry

     convergence has been achieved in  11 iterations

     Writing all to output data dir bands_nm/myprefix.save/

     General routines

     Parallel routines

     PAW routines

   This run was terminated on:   4: 0:40  13Jul2023

   JOB DONE.