     Program PWSCF v.7.0 starts on  6Jun2023 at  9:25:26

     K-points division:     npool     =       2
     R & G space division:  proc/nbgrp/npool/nimage =       4

     Reading input from espresso_16084.pwi
Warning: card &CELL ignored
Warning: card / ignored

     Current dimensions of program PWSCF are:
     Max number of different atomic species (ntypx) = 10
     Max number of k-points (npk) =  40000
     Max angular momentum in pseudopotentials (lmaxx) =  4
     file K.pbe-spn-kjpaw_psl.1.0.0.UPF: wavefunction(s)  3S renormalized
     file C.pbe-n-kjpaw_psl.1.0.0.UPF: wavefunction(s)  2S 2P renormalized

     Using Slab Decomposition

     bravais-lattice index     =            0
     lattice parameter (alat)  =      11.7190  a.u.
     unit-cell volume          =    1217.8739 (a.u.)^3
     number of atoms/cell      =            8
     number of atomic types    =            4
     number of electrons       =        48.00
     number of Kohn-Sham states=           64
     kinetic-energy cutoff     =      30.0000  Ry
     charge density cutoff     =     240.0000  Ry
     scf convergence threshold =      1.0E-06
     mixing beta               =       0.7000
     number of iterations used =            8  plain     mixing
     Exchange-correlation= PBE
                           (   1   4   3   4   0   0   0)

     celldm(1)=  11.719046  celldm(2)=   0.000000  celldm(3)=   0.000000
     celldm(4)=   0.000000  celldm(5)=   0.000000  celldm(6)=   0.000000

     crystal axes: (cart. coord. in units of alat)
               a(1) = (   1.000000   0.000000   0.000000 )
               a(2) = (  -0.186443   0.982466   0.000000 )
               a(3) = (  -0.406060  -0.491828   0.770208 )

     reciprocal axes: (cart. coord. in units 2 pi/alat)
               b(1) = (  1.000000  0.189770  0.648389 )
               b(2) = (  0.000000  1.017847  0.649962 )
               b(3) = (  0.000000  0.000000  1.298350 )

     PseudoPot. # 1 for K  read from file:
     /home/pragov/projects/rrg-bengioy-ad/pragov/crystal_structure_design/SSSP/K.pbe-spn-kjpaw_psl.1.0.0.UPF
     MD5 check sum: 7d58810084cac21f60fbe77ea2b688fd
     Pseudo is Projector augmented-wave + core cor, Zval =  9.0
     Generated using "atomic" code by A. Dal Corso  v.5.1
     Shape of augmentation charge: PSQ
     Using radial grid of 1165 points,  6 beta functions with:
                l(1) =   0
                l(2) =   0
                l(3) =   1
                l(4) =   1
                l(5) =   2
                l(6) =   2
     Q(r) pseudized with 0 coefficients

     PseudoPot. # 2 for C  read from file:
     /home/pragov/projects/rrg-bengioy-ad/pragov/crystal_structure_design/SSSP/C.pbe-n-kjpaw_psl.1.0.0.UPF
     MD5 check sum: 5d2aebdfa2cae82b50a7e79e9516da0f
     Pseudo is Projector augmented-wave + core cor, Zval =  4.0
     Generated using "atomic" code by A. Dal Corso  v.5.1
     Shape of augmentation charge: PSQ
     Using radial grid of 1073 points,  4 beta functions with:
                l(1) =   0
                l(2) =   0
                l(3) =   1
                l(4) =   1
     Q(r) pseudized with 0 coefficients

     PseudoPot. # 3 for S  read from file:
     /home/pragov/projects/rrg-bengioy-ad/pragov/crystal_structure_design/SSSP/s_pbe_v1.4.uspp.F.UPF
     MD5 check sum: 88d86576ff6df21479756cfb9bdac1df
     Pseudo is Ultrasoft + core correction, Zval =  6.0
     Generated by new atomic code, or converted to UPF format
     Using radial grid of  907 points,  6 beta functions with:
                l(1) =   0
                l(2) =   0
                l(3) =   1
                l(4) =   1
                l(5) =   2
                l(6) =   2
     Q(r) pseudized with  8 coefficients,  rinner =    1.300   1.300   1.300
                                                       1.300   1.300

     PseudoPot. # 4 for N  read from file:
     /home/pragov/projects/rrg-bengioy-ad/pragov/crystal_structure_design/SSSP/N.pbe-n-radius_5.UPF
     MD5 check sum: 16739722b17309cd8fe442a2ace49922
     Pseudo is Ultrasoft + core correction, Zval =  5.0
     Generated using "atomic" code by A. Dal Corso  v.5.1
     Using radial grid of 1085 points,  4 beta functions with:
                l(1) =   0
                l(2) =   0
                l(3) =   1
                l(4) =   1
     Q(r) pseudized with 0 coefficients

     atomic species   valence    mass     pseudopotential
        K              9.00    39.09830     K ( 1.00)
        C              4.00    12.01100     C ( 1.00)
        S              6.00    32.06000     S ( 1.00)
        N              5.00    14.00700     N ( 1.00)

     No symmetry found

                                    s                        frac. trans.

      isym =  1     identity

 cryst.   s( 1) = (     1          0          0      )
                  (     0          1          0      )
                  (     0          0          1      )

 cart.    s( 1) = (  1.0000000 -0.0000000 -0.0000000 )
                  (  0.0000000  1.0000000 -0.0000000 )
                  (  0.0000000  0.0000000  1.0000000 )

   Cartesian axes

     site n.     atom                  positions (alat units)
         1           K   tau(   1) = (   0.8517232   0.1227845   0.1927484  )
         2           K   tau(   2) = (   0.2585018   0.6140174   0.1927484  )
         3           C   tau(   3) = (  -0.0547903  -0.3686686   0.6131858  )
         4           C   tau(   4) = (   0.3248693   0.1450217   0.5780173  )
         5           S   tau(   5) = (  -0.2419280   0.6143733   0.3481880  )
         6           S   tau(   6) = (   0.5289730  -0.0239919   0.5785988  )
         7           N   tau(   7) = (   0.3497036   0.1244578   0.0343420  )
         8           N   tau(   8) = (   0.1774796   0.2670716   0.5802833  )

   Crystallographic axes

     site n.     atom                  positions (cryst. coord.)
         1           K   tau(   1) = (  1.0000000  0.2502550  0.2502550  )
         2           K   tau(   2) = (  0.5000000  0.7502550  0.2502550  )
         3           C   tau(   3) = (  0.2728300  0.0232990  0.7961300  )
         4           C   tau(   4) = (  0.7271700  0.5232990  0.7504690  )
         5           S   tau(   5) = (  0.1004230  0.8516470  0.4520700  )
         6           S   tau(   6) = (  0.8995770  0.3516470  0.7512240  )
         7           N   tau(   7) = (  0.3955890  0.1490000  0.0445880  )
         8           N   tau(   8) = (  0.6044110  0.6490000  0.7534110  )

     number of k points=    14
                       cart. coord. in units 2pi/alat
        k(    1) = (   0.0000000   0.0000000   0.0000000), wk =   0.0740741
        k(    2) = (   0.0000000   0.0000000   0.4327834), wk =   0.1481481
        k(    3) = (   0.0000000   0.3392824   0.2166539), wk =   0.1481481
        k(    4) = (   0.0000000   0.3392824   0.6494373), wk =   0.1481481
        k(    5) = (   0.0000000   0.3392824  -0.2161295), wk =   0.1481481
        k(    6) = (   0.3333333   0.0632568   0.2161295), wk =   0.1481481
        k(    7) = (   0.3333333   0.0632568   0.6489130), wk =   0.1481481
        k(    8) = (   0.3333333   0.0632568  -0.2166539), wk =   0.1481481
        k(    9) = (   0.3333333   0.4025392   0.4327834), wk =   0.1481481
        k(   10) = (   0.3333333   0.4025392   0.8655669), wk =   0.1481481
        k(   11) = (   0.3333333   0.4025392  -0.0000000), wk =   0.1481481
        k(   12) = (   0.3333333  -0.2760256  -0.0005243), wk =   0.1481481
        k(   13) = (   0.3333333  -0.2760256   0.4322591), wk =   0.1481481
        k(   14) = (   0.3333333  -0.2760256  -0.4333078), wk =   0.1481481

                       cryst. coord.
        k(    1) = (   0.0000000   0.0000000   0.0000000), wk =   0.0740741
        k(    2) = (   0.0000000   0.0000000   0.3333333), wk =   0.1481481
        k(    3) = (   0.0000000   0.3333333   0.0000000), wk =   0.1481481
        k(    4) = (   0.0000000   0.3333333   0.3333333), wk =   0.1481481
        k(    5) = (   0.0000000   0.3333333  -0.3333333), wk =   0.1481481
        k(    6) = (   0.3333333  -0.0000000   0.0000000), wk =   0.1481481
        k(    7) = (   0.3333333  -0.0000000   0.3333333), wk =   0.1481481
        k(    8) = (   0.3333333  -0.0000000  -0.3333333), wk =   0.1481481
        k(    9) = (   0.3333333   0.3333333  -0.0000000), wk =   0.1481481
        k(   10) = (   0.3333333   0.3333333   0.3333333), wk =   0.1481481
        k(   11) = (   0.3333333   0.3333333  -0.3333333), wk =   0.1481481
        k(   12) = (   0.3333333  -0.3333333   0.0000000), wk =   0.1481481
        k(   13) = (   0.3333333  -0.3333333   0.3333333), wk =   0.1481481
        k(   14) = (   0.3333333  -0.3333333  -0.3333333), wk =   0.1481481

     Check: negative core charge=   -0.000011

     Initial potential from superposition of free atoms

     starting charge      47.9622, renormalised to      48.0000
     Starting wfcs are   40 randomized atomic wfcs +   24 random wfcs
     Checking if some PAW data can be deallocated...

     Self-consistent Calculation

     iteration #  1     ecut=    30.00 Ry     beta= 0.70
     Davidson diagonalization with overlap

     ethr =  1.00E-02,  avg # of iterations =  7.0

     total energy              =    -351.19276921 Ry
     estimated scf accuracy    <       1.08087211 Ry

[...]

     total energy              =    -351.67698050 Ry
     estimated scf accuracy    <       0.00002108 Ry

     iteration #  7     ecut=    30.00 Ry     beta= 0.70
     Davidson diagonalization with overlap

     ethr =  4.39E-08,  avg # of iterations =  2.5

     End of self-consistent calculation

          k = 0.0000 0.0000 0.0000 (  3333 PWs)   bands (ev):

   -26.7455 -26.7301 -14.9609 -14.8678 -11.3019 -11.1473 -10.3644 -10.2409
   -10.2382 -10.2133 -10.2066 -10.1686  -3.9625  -3.8611  -1.9486  -1.9377
    -1.8147  -1.3731  -1.0218  -0.9799   0.9082   1.2944   1.3285   1.9066
     6.2596   7.2199   7.2241   7.2647   7.6682   7.8771   7.9732   9.0098
     9.3841   9.9317  10.0613  10.1204  10.6676  10.7212  10.9572  11.4499
    11.6283  12.0869  12.1220  12.2145  13.0293  13.0889  13.5334  13.6555
    13.9786  14.9117  15.1358  15.3392  15.7947  16.0233  16.3948  16.7905
    17.3334  17.6164  17.7134  18.3758  18.4555  18.5962  19.4898  19.9532

     occupation numbers
     1.0000   1.0000   1.0000   1.0000   1.0000   1.0000   1.0000   1.0000
     1.0000   1.0000   1.0000   1.0000   1.0000   1.0000   1.0000   1.0000
     1.0000   1.0000   1.0000   1.0000   1.0000   1.0000   1.0000   1.0000
     0.0000   0.0000   0.0000   0.0000   0.0000   0.0000   0.0000   0.0000
     0.0000   0.0000   0.0000   0.0000   0.0000   0.0000   0.0000   0.0000
     0.0000   0.0000   0.0000   0.0000   0.0000   0.0000   0.0000   0.0000
     0.0000   0.0000   0.0000   0.0000   0.0000   0.0000   0.0000   0.0000
     0.0000   0.0000   0.0000   0.0000   0.0000   0.0000   0.0000   0.0000

[...]

          k = 0.3333-0.2760-0.4333 (  3385 PWs)   bands (ev):

   -26.7435 -26.7318 -14.9209 -14.9157 -11.3473 -11.2526 -10.3135 -10.2163
   -10.2150 -10.1921 -10.1621 -10.1596  -3.9042  -3.7879  -2.0435  -1.7920
    -1.7220  -1.3152  -1.1987  -1.1770   0.8374   1.3319   1.5351   1.6467
     6.6025   6.7499   6.8311   6.9509   7.4975   8.0391   8.3016   9.1626
     9.6366   9.6597  10.1480  10.3362  10.7305  10.9197  11.1794  11.5533
    11.6359  11.6629  12.3239  12.3588  12.6706  12.7761  13.1999  13.2822
    14.6452  14.6531  15.2727  15.3728  16.0190  16.6004  16.6236  16.6706
    16.9851  17.9906  18.0003  18.5122  19.2342  19.2588  19.3911  19.7080

     occupation numbers
     1.0000   1.0000   1.0000   1.0000   1.0000   1.0000   1.0000   1.0000
     1.0000   1.0000   1.0000   1.0000   1.0000   1.0000   1.0000   1.0000
     1.0000   1.0000   1.0000   1.0000   1.0000   1.0000   1.0000   1.0000
     0.0000   0.0000   0.0000   0.0000   0.0000   0.0000   0.0000   0.0000
     0.0000   0.0000   0.0000   0.0000   0.0000   0.0000   0.0000   0.0000
     0.0000   0.0000   0.0000   0.0000   0.0000   0.0000   0.0000   0.0000
     0.0000   0.0000   0.0000   0.0000   0.0000   0.0000   0.0000   0.0000
     0.0000   0.0000   0.0000   0.0000   0.0000   0.0000   0.0000   0.0000

     highest occupied, lowest unoccupied level (ev):     1.9631    6.2596

!    total energy              =    -351.67698607 Ry
     estimated scf accuracy    <       0.00000061 Ry

     The total energy is the sum of the following terms:
     one-electron contribution =     -81.59989958 Ry
     hartree contribution      =      57.96871305 Ry
     xc contribution           =     -59.28314987 Ry
     ewald contribution        =    -145.57393799 Ry
     one-center paw contrib.   =    -123.18871168 Ry
      -> PAW hartree energy AE =      37.68461754 Ry
      -> PAW hartree energy PS =     -37.47445723 Ry
      -> PAW xc energy AE      =     -66.21607769 Ry
      -> PAW xc energy PS      =      10.58887974 Ry
      -> total E_H with PAW    =      58.17887337 Ry
      -> total E_XC with PAW   =    -114.91034783 Ry

     convergence has been achieved in   7 iterations

     Writing all to output data dir calculations_bands/myprefix.save/

     General routines

     Parallel routines

     PAW routines

   This run was terminated on:   9:25:43   6Jun2023

   JOB DONE.