     Program PWSCF v.7.1 starts on 12Jul2023 at 15:58:21

     Reading input from espresso_22546.pwi
Warning: card &CELL ignored
Warning: card / ignored

     Current dimensions of program PWSCF are:
     Max number of different atomic species (ntypx) = 10
     Max number of k-points (npk) =  40000
     Max angular momentum in pseudopotentials (lmaxx) =  4
     file O.pbe-n-kjpaw_psl.0.1.UPF: wavefunction(s)  2P renormalized
     Message from routine setup:
     using ibrav=0 with symmetry is DISCOURAGED, use correct ibrav instead

     K-points division:     npool     =       2
     R & G space division:  proc/nbgrp/npool/nimage =       8
     Subspace diagonalization in iterative solution of the eigenvalue problem:
     a serial algorithm will be used

     Using Slab Decomposition

     bravais-lattice index     =            0
     lattice parameter (alat)  =      13.6159  a.u.
     unit-cell volume          =     638.5782 (a.u.)^3
     number of atoms/cell      =            6
     number of atomic types    =            3
     number of electrons       =        56.00
     number of Kohn-Sham states=           64
     kinetic-energy cutoff     =      30.0000  Ry
     charge density cutoff     =     240.0000  Ry
     scf convergence threshold =      1.0E-06
     mixing beta               =       0.7000
     number of iterations used =            8  plain     mixing
     Exchange-correlation=  SLA  PW   PBX  PBC
                           (   1   4   3   4   0   0   0)

     celldm(1)=  13.615870  celldm(2)=   0.000000  celldm(3)=   0.000000
     celldm(4)=   0.000000  celldm(5)=   0.000000  celldm(6)=   0.000000

     crystal axes: (cart. coord. in units of alat)
               a(1) = (   1.000000   0.000000   0.000000 )
               a(2) = (   0.845804   0.533493   0.000000 )
               a(3) = (   0.845804   0.244463   0.474186 )

     reciprocal axes: (cart. coord. in units 2 pi/alat)
               b(1) = (  1.000000 -1.585409 -0.966352 )
               b(2) = (  0.000000  1.874439 -0.966352 )
               b(3) = (  0.000000  0.000000  2.108875 )

     PseudoPot. # 1 for Bi read from file:
     /lustre07/scratch/pragov/crystal_structure_design/utils/SSSP/Bi_pbe_v1.uspp.F.UPF
     MD5 check sum: cceb9f28ec65b6d7ff33140f5b0b1758
     Pseudo is Ultrasoft + core correction, Zval = 15.0
     Generated by new atomic code, or converted to UPF format
     Using radial grid of  899 points,  6 beta functions with:
                l(1) =   0
                l(2) =   0
                l(3) =   1
                l(4) =   1
                l(5) =   2
                l(6) =   2
     Q(r) pseudized with  6 coefficients,  rinner =    1.000   1.000   1.000
                                                       1.000   1.000

     PseudoPot. # 2 for O  read from file:
     /lustre07/scratch/pragov/crystal_structure_design/utils/SSSP/O.pbe-n-kjpaw_psl.0.1.UPF
     MD5 check sum: 0234752ac141de4415c5fc33072bef88
     Pseudo is Projector augmented-wave + core cor, Zval =  6.0
     Generated using "atomic" code by A. Dal Corso  v.5.0.99 svn rev. 10869
     Shape of augmentation charge: BESSEL
     Using radial grid of 1095 points,  4 beta functions with:
                l(1) =   0
                l(2) =   0
                l(3) =   1
                l(4) =   1
     Q(r) pseudized with 0 coefficients

     PseudoPot. # 3 for F  read from file:
     /lustre07/scratch/pragov/crystal_structure_design/utils/SSSP/f_pbe_v1.4.uspp.F.UPF
     MD5 check sum: 4c38b6a325caf53ec0e86aed9459de46
     Pseudo is Ultrasoft, Zval =  7.0
     Generated by new atomic code, or converted to UPF format
     Using radial grid of  799 points,  4 beta functions with:
                l(1) =   0
                l(2) =   0
                l(3) =   1
                l(4) =   1
     Q(r) pseudized with  8 coefficients,  rinner =    0.950   0.950   0.950

     atomic species   valence    mass     pseudopotential
        Bi            15.00   208.98040     Bi( 1.00)
        O              6.00    15.99900     O ( 1.00)
        F              7.00    18.99840     F ( 1.00)

      2 Sym. Ops., with inversion, found

                                    s                        frac. trans.

      isym =  1     identity

 cryst.   s( 1) = (     1          0          0      )
                  (     0          1          0      )
                  (     0          0          1      )

 cart.    s( 1) = (  1.0000000  0.0000000  0.0000000 )
                  (  0.0000000  1.0000000  0.0000000 )
                  (  0.0000000  0.0000000  1.0000000 )

      isym =  2     inversion

 cryst.   s( 2) = (    -1          0          0      )
                  (     0         -1          0      )
                  (     0          0         -1      )

 cart.    s( 2) = ( -1.0000000  0.0000000  0.0000000 )
                  (  0.0000000 -1.0000000  0.0000000 )
                  (  0.0000000  0.0000000 -1.0000000 )

   Cartesian axes

     site n.     atom                  positions (alat units)
         1           Bi  tau(   1) = (   2.0481421   0.5919747   0.3608255  )
         2           Bi  tau(   2) = (   0.6434668   0.1859813   0.1133609  )
         3           O   tau(   3) = (   0.3446794   0.0996227   0.0607229  )
         4           O   tau(   4) = (   2.3469296   0.6783333   0.4134635  )
         5           F   tau(   5) = (   1.0162843   0.2937367   0.1790409  )
         6           F   tau(   6) = (   1.6753247   0.4842192   0.2951455  )

   Crystallographic axes

     site n.     atom                  positions (cryst. coord.)
         1           Bi  tau(   1) = (  0.7609360  0.7609360  0.7609360  )
         2           Bi  tau(   2) = (  0.2390640  0.2390640  0.2390640  )
         3           O   tau(   3) = (  0.1280570  0.1280570  0.1280570  )
         4           O   tau(   4) = (  0.8719430  0.8719430  0.8719430  )
         5           F   tau(   5) = (  0.3775750  0.3775750  0.3775750  )
         6           F   tau(   6) = (  0.6224250  0.6224250  0.6224250  )

     number of k points=    14
                       cart. coord. in units 2pi/alat
        k(    1) = (   0.0000000   0.0000000   0.0000000), wk =   0.0740741
        k(    2) = (   0.0000000   0.0000000   0.7029584), wk =   0.1481481
        k(    3) = (   0.0000000   0.6248129  -0.3221172), wk =   0.1481481
        k(    4) = (   0.0000000   0.6248129   0.3808412), wk =   0.1481481
        k(    5) = (   0.0000000   0.6248129  -1.0250756), wk =   0.1481481
        k(    6) = (   0.3333333  -0.5284696  -0.3221172), wk =   0.1481481
        k(    7) = (   0.3333333  -0.5284696   0.3808412), wk =   0.1481481
        k(    8) = (   0.3333333  -0.5284696  -1.0250756), wk =   0.1481481
        k(    9) = (   0.3333333   0.0963434  -0.6442344), wk =   0.1481481
        k(   10) = (   0.3333333   0.0963434   0.0587240), wk =   0.1481481
        k(   11) = (   0.3333333   0.0963434  -1.3471928), wk =   0.1481481
        k(   12) = (   0.3333333  -1.1532825   0.0000000), wk =   0.1481481
        k(   13) = (   0.3333333  -1.1532825   0.7029584), wk =   0.1481481
        k(   14) = (   0.3333333  -1.1532825  -0.7029584), wk =   0.1481481

                       cryst. coord.
        k(    1) = (   0.0000000   0.0000000   0.0000000), wk =   0.0740741
        k(    2) = (   0.0000000   0.0000000   0.3333333), wk =   0.1481481
        k(    3) = (   0.0000000   0.3333333   0.0000000), wk =   0.1481481
        k(    4) = (   0.0000000   0.3333333   0.3333333), wk =   0.1481481
        k(    5) = (   0.0000000   0.3333333  -0.3333333), wk =   0.1481481
        k(    6) = (   0.3333333   0.0000000   0.0000000), wk =   0.1481481
        k(    7) = (   0.3333333   0.0000000   0.3333333), wk =   0.1481481
        k(    8) = (   0.3333333   0.0000000  -0.3333333), wk =   0.1481481
        k(    9) = (   0.3333333   0.3333333   0.0000000), wk =   0.1481481
        k(   10) = (   0.3333333   0.3333333   0.3333333), wk =   0.1481481
        k(   11) = (   0.3333333   0.3333333  -0.3333333), wk =   0.1481481
        k(   12) = (   0.3333333  -0.3333333   0.0000000), wk =   0.1481481
        k(   13) = (   0.3333333  -0.3333333   0.3333333), wk =   0.1481481
        k(   14) = (   0.3333333  -0.3333333  -0.3333333), wk =   0.1481481

     Check: negative core charge=   -0.000009

     Initial potential from superposition of free atoms

     starting charge      53.9999, renormalised to      56.0000

     negative rho (up, down):  8.502E-02 0.000E+00
     Starting wfcs are   34 randomized atomic wfcs +   30 random wfcs
     Checking if some PAW data can be deallocated...

     Self-consistent Calculation

     iteration #  1     ecut=    30.00 Ry     beta= 0.70
     Davidson diagonalization with overlap

     ethr =  1.00E-02,  avg # of iterations =  6.6

     negative rho (up, down):  7.536E-02 0.000E+00

     total energy              =    -550.57562098 Ry
     estimated scf accuracy    <       1.21183534 Ry

[...]

     total energy              =    -551.14051461 Ry
     estimated scf accuracy    <       0.00000560 Ry

     iteration #  9     ecut=    30.00 Ry     beta= 0.70
     Davidson diagonalization with overlap

     ethr =  1.00E-08,  avg # of iterations =  3.1

     negative rho (up, down):  7.847E-02 0.000E+00

     End of self-consistent calculation

          k = 0.0000 0.0000 0.0000 (  1775 PWs)   bands (ev):

   -14.0122 -13.8627 -13.7345 -13.7345 -13.7322 -13.7322 -13.6880 -13.6880
   -13.6501 -13.6476 -13.6476 -13.2899  -9.7077  -7.9944  -0.9710   1.0137
     4.3854   4.4994   4.4994   4.9714   4.9739   4.9739   5.2945   5.2945
     5.5543   6.5417   6.5417   8.0649  12.5239  12.5239  12.5609  12.5942
    14.1565  14.1565  17.1890  20.1924  21.1287  21.1287  21.6039  21.6039
    21.6577  24.7216  24.9924  25.2468  25.2468  25.5264  25.5264  26.1099
    26.1099  26.8947  26.8947  29.3768  29.7282  31.5383  31.5383  33.0210
    33.0210  33.3475  33.3875  33.7215  34.2204  34.5965  34.9208  34.9208

     occupation numbers
     1.0000   1.0000   1.0000   1.0000   1.0000   1.0000   1.0000   1.0000
     1.0000   1.0000   1.0000   1.0000   1.0000   1.0000   1.0000   1.0000
     1.0000   1.0000   1.0000   1.0000   1.0000   1.0000   1.0000   1.0000
     1.0000   1.0000   1.0000   1.0000   0.0000   0.0000   0.0000   0.0000
     0.0000   0.0000   0.0000   0.0000   0.0000   0.0000   0.0000   0.0000
     0.0000   0.0000   0.0000   0.0000   0.0000   0.0000   0.0000   0.0000
     0.0000   0.0000   0.0000   0.0000   0.0000   0.0000   0.0000   0.0000
     0.0000   0.0000   0.0000   0.0000   0.0000   0.0000   0.0000   0.0000

[...]

          k = 0.3333-1.1533-0.7030 (  1772 PWs)   bands (ev):

   -14.1039 -14.0973 -13.7799 -13.7149 -13.7032 -13.7016 -13.6995 -13.6913
   -13.6619 -13.6491 -13.3042 -13.1650  -9.1502  -8.0738  -1.4234  -0.5555
     3.6577   3.7205   3.9657   4.4230   4.5745   5.4517   5.5620   6.3569
     6.4770   6.7069   7.2241   7.8153  11.0322  12.7532  13.7001  13.8642
    14.6224  14.8195  17.3139  18.4968  21.0462  22.2131  22.4231  22.6735
    23.0073  24.2575  24.5578  24.5882  25.1289  25.1362  26.1849  27.0634
    27.5077  27.9125  28.7878  28.8200  29.4106  29.5488  31.3419  31.3882
    31.9089  33.1252  33.7927  34.2019  34.3497  34.6624  34.7549  35.1565

     occupation numbers
     1.0000   1.0000   1.0000   1.0000   1.0000   1.0000   1.0000   1.0000
     1.0000   1.0000   1.0000   1.0000   1.0000   1.0000   1.0000   1.0000
     1.0000   1.0000   1.0000   1.0000   1.0000   1.0000   1.0000   1.0000
     1.0000   1.0000   1.0000   1.0000   0.0000   0.0000   0.0000   0.0000
     0.0000   0.0000   0.0000   0.0000   0.0000   0.0000   0.0000   0.0000
     0.0000   0.0000   0.0000   0.0000   0.0000   0.0000   0.0000   0.0000
     0.0000   0.0000   0.0000   0.0000   0.0000   0.0000   0.0000   0.0000
     0.0000   0.0000   0.0000   0.0000   0.0000   0.0000   0.0000   0.0000

     highest occupied, lowest unoccupied level (ev):     8.0649   11.0322

!    total energy              =    -551.14051560 Ry
     estimated scf accuracy    <       0.00000001 Ry

     The total energy is the sum of the following terms:
     one-electron contribution =    -150.17880316 Ry
     hartree contribution      =     114.18362907 Ry
     xc contribution           =    -162.90670285 Ry
     ewald contribution        =    -333.17786912 Ry
     one-center paw contrib.   =     -19.06076954 Ry
      -> PAW hartree energy AE =       0.00000000 Ry
      -> PAW hartree energy PS =       0.00000000 Ry
      -> PAW xc energy AE      =       0.00000000 Ry
      -> PAW xc energy PS      =       0.00000000 Ry
      -> total E_H with PAW    =     114.18362907 Ry
      -> total E_XC with PAW   =    -162.90670285 Ry

     convergence has been achieved in   9 iterations

     Writing all to output data dir bands_nm/myprefix.save/

     General routines

     Parallel routines

     PAW routines

   This run was terminated on:  15:58:29  12Jul2023

   JOB DONE.