     Program PWSCF v.7.1 starts on 12Jul2023 at 16:34:25

     Reading input from espresso_22740.pwi
Warning: card &CELL ignored
Warning: card / ignored

     Current dimensions of program PWSCF are:
     Max number of different atomic species (ntypx) = 10
     Max number of k-points (npk) =  40000
     Max angular momentum in pseudopotentials (lmaxx) =  4
     Message from routine setup:
     using ibrav=0 with symmetry is DISCOURAGED, use correct ibrav instead

     K-points division:     npool     =       2
     R & G space division:  proc/nbgrp/npool/nimage =       8
     Subspace diagonalization in iterative solution of the eigenvalue problem:
     a serial algorithm will be used

     Using Slab Decomposition

     bravais-lattice index     =            0
     lattice parameter (alat)  =      12.7066  a.u.
     unit-cell volume          =    1032.7870 (a.u.)^3
     number of atoms/cell      =            5
     number of atomic types    =            3
     number of electrons       =        46.00
     number of Kohn-Sham states=           64
     kinetic-energy cutoff     =      30.0000  Ry
     charge density cutoff     =     240.0000  Ry
     scf convergence threshold =      1.0E-06
     mixing beta               =       0.7000
     number of iterations used =            8  plain     mixing
     Exchange-correlation= SLA  PW   PBE  PBE
                           (   1   4   3   4   0   0   0)

     celldm(1)=  12.706595  celldm(2)=   0.000000  celldm(3)=   0.000000
     celldm(4)=   0.000000  celldm(5)=   0.000000  celldm(6)=   0.000000

     crystal axes: (cart. coord. in units of alat)
               a(1) = (   1.000000   0.000000   0.000000 )
               a(2) = (   0.181977   0.983303   0.000000 )
               a(3) = (  -0.345861  -0.786306   0.511960 )

     reciprocal axes: (cart. coord. in units 2 pi/alat)
               b(1) = (  1.000000 -0.185067  0.391323 )
               b(2) = (  0.000000  1.016981  1.561955 )
               b(3) = (  0.000000  0.000000  1.953278 )

     PseudoPot. # 1 for Rb read from file:
     /lustre07/scratch/pragov/crystal_structure_design/utils/SSSP/Rb_ONCV_PBE-1.0.oncvpsp.upf
     MD5 check sum: 55a5172d6bfbce6759a58e35d43f6aa9
     Pseudo is Norm-conserving, Zval =  9.0
     Generated using ONCVPSP code by D. R. Hamann
     Using radial grid of 2308 points,  6 beta functions with:
                l(1) =   0
                l(2) =   0
                l(3) =   1
                l(4) =   1
                l(5) =   2
                l(6) =   2

     PseudoPot. # 2 for Pt read from file:
     /lustre07/scratch/pragov/crystal_structure_design/utils/SSSP/pt_pbe_v1.4.uspp.F.UPF
     MD5 check sum: f09d6de1a584b5a045c4fc126da2d0c4
     Pseudo is Ultrasoft + core correction, Zval = 16.0
     Generated by new atomic code, or converted to UPF format
     Using radial grid of  985 points,  6 beta functions with:
                l(1) =   0
                l(2) =   0
                l(3) =   1
                l(4) =   1
                l(5) =   2
                l(6) =   2
     Q(r) pseudized with  8 coefficients,  rinner =    1.300   1.300   1.300
                                                       1.300   1.300

     PseudoPot. # 3 for Se read from file:
     /lustre07/scratch/pragov/crystal_structure_design/utils/SSSP/Se_pbe_v1.uspp.F.UPF
     MD5 check sum: 1b3568f3a8ae88f9a2a0ad0698632c85
     Pseudo is Ultrasoft + core correction, Zval =  6.0
     Generated by new atomic code, or converted to UPF format
     Using radial grid of  877 points,  6 beta functions with:
                l(1) =   0
                l(2) =   0
                l(3) =   1
                l(4) =   1
                l(5) =   2
                l(6) =   2
     Q(r) pseudized with  8 coefficients,  rinner =    1.300   1.300   1.300
                                                       1.300   1.300

     atomic species   valence    mass     pseudopotential
        Rb             9.00    85.46780     Rb( 1.00)
        Pt            16.00   195.08400     Pt( 1.00)
        Se             6.00    78.97100     Se( 1.00)

      2 Sym. Ops., with inversion, found

                                    s                        frac. trans.

      isym =  1     identity

 cryst.   s( 1) = (     1          0          0      )
                  (     0          1          0      )
                  (     0          0          1      )

 cart.    s( 1) = (  1.0000000  0.0000000  0.0000000 )
                  (  0.0000000  1.0000000  0.0000000 )
                  (  0.0000000  0.0000000  1.0000000 )

      isym =  2     inversion

 cryst.   s( 2) = (    -1          0          0      )
                  (     0         -1          0      )
                  (     0          0         -1      )

 cart.    s( 2) = ( -1.0000000  0.0000000  0.0000000 )
                  (  0.0000000 -1.0000000  0.0000000 )
                  (  0.0000000  0.0000000 -1.0000000 )

   Cartesian axes

     site n.     atom                  positions (alat units)
         1           Rb  tau(   1) = (   0.2750538   0.3954883   0.2559799  )
         2           Rb  tau(   2) = (   0.5610619  -0.1984915   0.2559799  )
         3           Pt  tau(   3) = (   0.0000000   0.0000000   0.0000000  )
         4           Se  tau(   4) = (   0.7799057   0.2645639   0.1478555  )
         5           Se  tau(   5) = (   0.0562100  -0.0675671   0.3641043  )

   Crystallographic axes

     site n.     atom                  positions (cryst. coord.)
         1           Rb  tau(   1) = (  0.3020330  0.8020330  0.5000000  )
         2           Rb  tau(   2) = (  0.6979670  0.1979670  0.5000000  )
         3           Pt  tau(   3) = (  0.0000000  0.0000000  0.0000000  )
         4           Se  tau(   4) = (  0.7888030  0.5000000  0.2888030  )
         5           Se  tau(   5) = (  0.2111970  0.5000000  0.7111970  )

     number of k points=    14
                       cart. coord. in units 2pi/alat
        k(    1) = (   0.0000000   0.0000000   0.0000000), wk =   0.0740741
        k(    2) = (   0.0000000   0.0000000   0.6510928), wk =   0.1481481
        k(    3) = (   0.0000000   0.3389936   0.5206516), wk =   0.1481481
        k(    4) = (   0.0000000   0.3389936   1.1717444), wk =   0.1481481
        k(    5) = (   0.0000000   0.3389936  -0.1304412), wk =   0.1481481
        k(    6) = (   0.3333333  -0.0616890   0.1304412), wk =   0.1481481
        k(    7) = (   0.3333333  -0.0616890   0.7815339), wk =   0.1481481
        k(    8) = (   0.3333333  -0.0616890  -0.5206516), wk =   0.1481481
        k(    9) = (   0.3333333   0.2773046   0.6510928), wk =   0.1481481
        k(   10) = (   0.3333333   0.2773046   1.3021856), wk =   0.1481481
        k(   11) = (   0.3333333   0.2773046   0.0000000), wk =   0.1481481
        k(   12) = (   0.3333333  -0.4006825  -0.3902105), wk =   0.1481481
        k(   13) = (   0.3333333  -0.4006825   0.2608823), wk =   0.1481481
        k(   14) = (   0.3333333  -0.4006825  -1.0413033), wk =   0.1481481

                       cryst. coord.
        k(    1) = (   0.0000000   0.0000000   0.0000000), wk =   0.0740741
        k(    2) = (   0.0000000   0.0000000   0.3333333), wk =   0.1481481
        k(    3) = (   0.0000000   0.3333333  -0.0000000), wk =   0.1481481
        k(    4) = (   0.0000000   0.3333333   0.3333333), wk =   0.1481481
        k(    5) = (   0.0000000   0.3333333  -0.3333333), wk =   0.1481481
        k(    6) = (   0.3333333   0.0000000   0.0000000), wk =   0.1481481
        k(    7) = (   0.3333333   0.0000000   0.3333333), wk =   0.1481481
        k(    8) = (   0.3333333   0.0000000  -0.3333333), wk =   0.1481481
        k(    9) = (   0.3333333   0.3333333   0.0000000), wk =   0.1481481
        k(   10) = (   0.3333333   0.3333333   0.3333333), wk =   0.1481481
        k(   11) = (   0.3333333   0.3333333  -0.3333333), wk =   0.1481481
        k(   12) = (   0.3333333  -0.3333333   0.0000000), wk =   0.1481481
        k(   13) = (   0.3333333  -0.3333333   0.3333333), wk =   0.1481481
        k(   14) = (   0.3333333  -0.3333333  -0.3333333), wk =   0.1481481

     Initial potential from superposition of free atoms

     starting charge      45.4503, renormalised to      46.0000

     negative rho (up, down):  1.855E-01 0.000E+00
     Starting wfcs are   30 randomized atomic wfcs +   34 random wfcs

     Self-consistent Calculation

     iteration #  1     ecut=    30.00 Ry     beta= 0.70
     Davidson diagonalization with overlap

     ethr =  1.00E-02,  avg # of iterations =  7.1

     negative rho (up, down):  1.695E-01 0.000E+00

     total energy              =    -395.47162917 Ry
     estimated scf accuracy    <       1.10114252 Ry

[...]

     total energy              =    -396.07738321 Ry
     estimated scf accuracy    <       0.00000152 Ry

     iteration #  8     ecut=    30.00 Ry     beta= 0.70
     Davidson diagonalization with overlap

     ethr =  3.31E-09,  avg # of iterations =  2.0

     negative rho (up, down):  1.744E-01 0.000E+00

     End of self-consistent calculation

          k = 0.0000 0.0000 0.0000 (  2859 PWs)   bands (ev):

   -45.6354 -45.5204 -44.9440 -20.6110 -20.5835  -6.6125  -5.6214  -4.8733
    -4.8447  -4.6629  -4.5532  -4.5050  -4.4839   1.4924   1.8769   3.5141
     4.2900   4.4716   4.6378   4.9095   5.1079   5.8210   6.5250   8.3539
     8.9309   8.9576  10.1548  11.3728  11.7105  12.7620  13.1068  13.2073
    14.0802  14.2215  14.2959  14.4801  14.5308  15.1714  15.4249  15.5771
    16.3947  16.5782  17.0353  17.1078  17.7002  18.2449  18.3542  19.6045
    20.0407  20.9881  21.3733  21.4425  22.3548  22.5415  22.7269  22.9743
    23.3488  24.4985  24.5144  24.7385  25.1393  25.2525  25.6993  26.0281

     occupation numbers
     1.0000   1.0000   1.0000   1.0000   1.0000   1.0000   1.0000   1.0000
     1.0000   1.0000   1.0000   1.0000   1.0000   1.0000   1.0000   1.0000
     1.0000   1.0000   1.0000   1.0000   1.0000   1.0000   1.0000   0.0000
     0.0000   0.0000   0.0000   0.0000   0.0000   0.0000   0.0000   0.0000
     0.0000   0.0000   0.0000   0.0000   0.0000   0.0000   0.0000   0.0000
     0.0000   0.0000   0.0000   0.0000   0.0000   0.0000   0.0000   0.0000
     0.0000   0.0000   0.0000   0.0000   0.0000   0.0000   0.0000   0.0000
     0.0000   0.0000   0.0000   0.0000   0.0000   0.0000   0.0000   0.0000

[...]

          k = 0.3333-0.4007-1.0413 (  2876 PWs)   bands (ev):

   -45.6398 -45.5199 -44.9438 -20.5668 -20.5643  -6.2725  -5.7589  -4.9297
    -4.9100  -4.5983  -4.5959  -4.5759  -4.5168   1.7444   2.4457   2.5125
     3.1102   4.0952   4.6986   4.8396   5.0790   5.5617   5.8408   8.1781
     9.4913   9.8607  10.6543  11.5409  11.8202  11.8969  12.0944  13.3795
    13.6010  14.3877  14.4504  15.0494  15.4604  15.5078  16.0019  16.0909
    16.3823  16.5962  17.0598  18.2953  18.3064  18.7959  19.7613  19.8617
    20.2924  21.4507  21.7560  21.9668  22.2638  22.3999  22.7464  22.8418
    23.6592  23.9565  24.1618  24.3450  24.6690  25.5203  25.9833  26.3894

     occupation numbers
     1.0000   1.0000   1.0000   1.0000   1.0000   1.0000   1.0000   1.0000
     1.0000   1.0000   1.0000   1.0000   1.0000   1.0000   1.0000   1.0000
     1.0000   1.0000   1.0000   1.0000   1.0000   1.0000   1.0000   0.0000
     0.0000   0.0000   0.0000   0.0000   0.0000   0.0000   0.0000   0.0000
     0.0000   0.0000   0.0000   0.0000   0.0000   0.0000   0.0000   0.0000
     0.0000   0.0000   0.0000   0.0000   0.0000   0.0000   0.0000   0.0000
     0.0000   0.0000   0.0000   0.0000   0.0000   0.0000   0.0000   0.0000
     0.0000   0.0000   0.0000   0.0000   0.0000   0.0000   0.0000   0.0000

     highest occupied, lowest unoccupied level (ev):     6.5250    7.7240

!    total energy              =    -396.07738356 Ry
     estimated scf accuracy    <       0.00000009 Ry

     The total energy is the sum of the following terms:
     one-electron contribution =    -154.79738716 Ry
     hartree contribution      =      94.71470705 Ry
     xc contribution           =    -131.37948440 Ry
     ewald contribution        =    -204.61521905 Ry

     convergence has been achieved in   8 iterations

     Writing all to output data dir bands_nm/myprefix.save/

     General routines

     Parallel routines

   This run was terminated on:  16:34:38  12Jul2023

   JOB DONE.