     Program PWSCF v.7.1 starts on 16Jul2023 at 15:40:25

     Reading input from espresso_16224.pwi
Warning: card &CELL ignored
Warning: card / ignored

     Current dimensions of program PWSCF are:
     Max number of different atomic species (ntypx) = 10
     Max number of k-points (npk) =  40000
     Max angular momentum in pseudopotentials (lmaxx) =  4
     file Sm.paw.z_16.atompaw.wentzcovitch.v1.2.upf: wavefunction(s)  6S 0P 5D 0D 4F 0F renormalized
     file O.pbe-n-kjpaw_psl.0.1.UPF: wavefunction(s)  2P renormalized
     Message from routine setup:
     using ibrav=0 with symmetry is DISCOURAGED, use correct ibrav instead

     K-points division:     npool     =       2
     R & G space division:  proc/nbgrp/npool/nimage =       4
     Subspace diagonalization in iterative solution of the eigenvalue problem:
     a serial algorithm will be used

     Using Slab Decomposition

     bravais-lattice index     =            0
     lattice parameter (alat)  =      11.1878  a.u.
     unit-cell volume          =    1128.4116 (a.u.)^3
     number of atoms/cell      =           11
     number of atomic types    =            3
     number of electrons       =       102.00
     number of Kohn-Sham states=           64
     kinetic-energy cutoff     =      30.0000  Ry
     charge density cutoff     =     240.0000  Ry
     scf convergence threshold =      1.0E-06
     mixing beta               =       0.7000
     number of iterations used =            8  plain     mixing
     Exchange-correlation= SLA  PW   PBX  PBC
                           (   1   4   3   4   0   0   0)

     celldm(1)=  11.187825  celldm(2)=   0.000000  celldm(3)=   0.000000
     celldm(4)=   0.000000  celldm(5)=   0.000000  celldm(6)=   0.000000

     crystal axes: (cart. coord. in units of alat)
               a(1) = (   1.000000   0.000000   0.000000 )
               a(2) = (  -0.259126   0.965843   0.000000 )
               a(3) = (   0.107148   0.139684   0.834303 )

     reciprocal axes: (cart. coord. in units 2 pi/alat)
               b(1) = (  1.000000  0.268290 -0.173347 )
               b(2) = (  0.000000  1.035364 -0.173347 )
               b(3) = (  0.000000  0.000000  1.198605 )

     PseudoPot. # 1 for Sm read from file:
     /lustre07/scratch/pragov/crystal_structure_design/utils/SSSP/Sm.paw.z_16.atompaw.wentzcovitch.v1.2.upf
     MD5 check sum: d38221e44bcfc3c784cbdb498a69732f
     Pseudo is Projector augmented-wave + core cor, Zval = 16.0
     Generated using ATOMPAW code
     Shape of augmentation charge: BESSEL
     Using radial grid of 1107 points,  8 beta functions with:
                l(1) =   0
                l(2) =   0
                l(3) =   1
                l(4) =   1
                l(5) =   2
                l(6) =   2
                l(7) =   3
                l(8) =   3
     Q(r) pseudized with 0 coefficients

     PseudoPot. # 2 for Ge read from file:
     /lustre07/scratch/pragov/crystal_structure_design/utils/SSSP/ge_pbe_v1.4.uspp.F.UPF
     MD5 check sum: 9c9eaa91e581c3f09632fb3098b2c6b2
     Pseudo is Ultrasoft + core correction, Zval = 14.0
     Generated by new atomic code, or converted to UPF format
     Using radial grid of  873 points,  6 beta functions with:
                l(1) =   0
                l(2) =   0
                l(3) =   1
                l(4) =   1
                l(5) =   2
                l(6) =   2
     Q(r) pseudized with  8 coefficients,  rinner =    1.400   1.400   1.400
                                                       1.400   1.400

     PseudoPot. # 3 for O  read from file:
     /lustre07/scratch/pragov/crystal_structure_design/utils/SSSP/O.pbe-n-kjpaw_psl.0.1.UPF
     MD5 check sum: 0234752ac141de4415c5fc33072bef88
     Pseudo is Projector augmented-wave + core cor, Zval =  6.0
     Generated using "atomic" code by A. Dal Corso  v.5.0.99 svn rev. 10869
     Shape of augmentation charge: BESSEL
     Using radial grid of 1095 points,  4 beta functions with:
                l(1) =   0
                l(2) =   0
                l(3) =   1
                l(4) =   1
     Q(r) pseudized with 0 coefficients

     atomic species   valence    mass     pseudopotential
        Sm            16.00   150.36000     Sm( 1.00)
        Ge            14.00    72.63000     Ge( 1.00)
        O              6.00    15.99900     O ( 1.00)

      2 Sym. Ops., with inversion, found

                                    s                        frac. trans.

      isym =  1     identity

 cryst.   s( 1) = (     1          0          0      )
                  (     0          1          0      )
                  (     0          0          1      )

 cart.    s( 1) = (  1.0000000  0.0000000 -0.0000000 )
                  (  0.0000000  1.0000000  0.0000000 )
                  (  0.0000000  0.0000000  1.0000000 )

      isym =  2     inversion

 cryst.   s( 2) = (    -1          0          0      )
                  (     0         -1          0      )
                  (     0          0         -1      )

 cart.    s( 2) = ( -1.0000000  0.0000000  0.0000000 )
                  (  0.0000000 -1.0000000 -0.0000000 )
                  (  0.0000000  0.0000000 -1.0000000 )

   Cartesian axes

     site n.     atom                  positions (alat units)
         1           Sm  tau(   1) = (   0.1775246   0.7418375   0.4171515  )
         2           Sm  tau(   2) = (   0.6704976   0.3636904   0.4171515  )
         3           Ge  tau(   3) = (   0.6703369   0.8738878   0.7612648  )
         4           Ge  tau(   4) = (   0.1776852   0.2316402   0.0730382  )
         5           O   tau(   5) = (   0.8351153   0.6840684   0.5985323  )
         6           O   tau(   6) = (   0.4443027   0.9838507   0.5985323  )
         7           O   tau(   7) = (   0.4719081   0.6152051   0.1840664  )
         8           O   tau(   8) = (   0.3761141   0.4903229   0.6502366  )
         9           O   tau(   9) = (   0.0000000   0.0000000   0.0000000  )
        10           O   tau(  10) = (   0.0129069   0.4214596   0.2357707  )
        11           O   tau(  11) = (   0.4037195   0.1216772   0.2357707  )

   Crystallographic axes

     site n.     atom                  positions (cryst. coord.)
         1           Sm  tau(   1) = (  0.3042400  0.6957600  0.5000000  )
         2           Sm  tau(   2) = (  0.6957600  0.3042400  0.5000000  )
         3           Ge  tau(   3) = (  0.7728290  0.7728290  0.9124560  )
         4           Ge  tau(   4) = (  0.2271710  0.2271710  0.0875440  )
         5           O   tau(   5) = (  0.9148900  0.6045060  0.7174040  )
         6           O   tau(   6) = (  0.6045060  0.9148900  0.7174040  )
         7           O   tau(   7) = (  0.6050540  0.6050540  0.2206230  )
         8           O   tau(   8) = (  0.3949460  0.3949460  0.7793770  )
         9           O   tau(   9) = (  0.0000000  0.0000000  0.0000000  )
        10           O   tau(  10) = (  0.0851100  0.3954940  0.2825960  )
        11           O   tau(  11) = (  0.3954940  0.0851100  0.2825960  )

     number of k points=    14
                       cart. coord. in units 2pi/alat
        k(    1) = (   0.0000000   0.0000000   0.0000000), wk =   0.0740741
        k(    2) = (   0.0000000   0.0000000   0.3995351), wk =   0.1481481
        k(    3) = (   0.0000000   0.3451215  -0.0577825), wk =   0.1481481
        k(    4) = (   0.0000000   0.3451215   0.3417526), wk =   0.1481481
        k(    5) = (   0.0000000   0.3451215  -0.4573176), wk =   0.1481481
        k(    6) = (   0.3333333   0.0894300  -0.0577825), wk =   0.1481481
        k(    7) = (   0.3333333   0.0894300   0.3417526), wk =   0.1481481
        k(    8) = (   0.3333333   0.0894300  -0.4573176), wk =   0.1481481
        k(    9) = (   0.3333333   0.4345515  -0.1155650), wk =   0.1481481
        k(   10) = (   0.3333333   0.4345515   0.2839701), wk =   0.1481481
        k(   11) = (   0.3333333   0.4345515  -0.5151001), wk =   0.1481481
        k(   12) = (   0.3333333  -0.2556915   0.0000000), wk =   0.1481481
        k(   13) = (   0.3333333  -0.2556915   0.3995351), wk =   0.1481481
        k(   14) = (   0.3333333  -0.2556915  -0.3995351), wk =   0.1481481

                       cryst. coord.
        k(    1) = (   0.0000000   0.0000000   0.0000000), wk =   0.0740741
        k(    2) = (   0.0000000   0.0000000   0.3333333), wk =   0.1481481
        k(    3) = (   0.0000000   0.3333333   0.0000000), wk =   0.1481481
        k(    4) = (   0.0000000   0.3333333   0.3333333), wk =   0.1481481
        k(    5) = (   0.0000000   0.3333333  -0.3333333), wk =   0.1481481
        k(    6) = (   0.3333333   0.0000000  -0.0000000), wk =   0.1481481
        k(    7) = (   0.3333333   0.0000000   0.3333333), wk =   0.1481481
        k(    8) = (   0.3333333   0.0000000  -0.3333333), wk =   0.1481481
        k(    9) = (   0.3333333   0.3333333   0.0000000), wk =   0.1481481
        k(   10) = (   0.3333333   0.3333333   0.3333333), wk =   0.1481481
        k(   11) = (   0.3333333   0.3333333  -0.3333333), wk =   0.1481481
        k(   12) = (   0.3333333  -0.3333333   0.0000000), wk =   0.1481481
        k(   13) = (   0.3333333  -0.3333333   0.3333333), wk =   0.1481481
        k(   14) = (   0.3333333  -0.3333333  -0.3333333), wk =   0.1481481

     Check: negative core charge=   -0.000011

     Initial potential from superposition of free atoms

     starting charge     101.9871, renormalised to     102.0000
     Starting wfcs are  110 randomized atomic wfcs
     Checking if some PAW data can be deallocated...

     Self-consistent Calculation

     iteration #  1     ecut=    30.00 Ry     beta= 0.70
     Davidson diagonalization with overlap

     ethr =  1.00E-02,  avg # of iterations =  2.0

     total energy              =   -1925.38053832 Ry
     estimated scf accuracy    <       3.02366617 Ry

[...]

     c_bands:  1 eigenvalues not converged
     ethr =  4.19E-07,  avg # of iterations =  4.9

[...]

     total energy              =   -1927.36378673 Ry
     estimated scf accuracy    <       0.00000108 Ry

     iteration #118     ecut=    30.00 Ry     beta= 0.70
     Davidson diagonalization with overlap

     ethr =  1.06E-09,  avg # of iterations =  1.0

     End of self-consistent calculation

          k = 0.0000 0.0000 0.0000 (  3131 PWs)   bands (ev):

   -30.7519 -30.6984 -16.8847 -16.8020 -16.7977 -16.7949 -16.7911 -16.7585
   -16.5757 -16.5701 -16.5665 -16.5602 -11.9006 -11.8024 -11.5448 -11.4415
   -11.0149 -10.9021 -10.3803 -10.0483  -9.9443  -8.9862  -8.6707  -8.5207
    -8.2725  -1.0675   0.5128   2.3488   2.6462   2.8744   3.2872   3.5537
     3.7803   4.0819   4.6235   4.6526   4.8410   5.3031   5.5268   5.5834
     5.6425   5.7167   5.7669   5.7768   5.8867   6.2216   8.4686   8.5023
     8.5289   8.5362   8.5557   8.5659   8.6905   8.7014   8.8737   8.8878
     8.8986   8.9525   8.9555   9.0124  10.2564  12.5053  12.7401  13.3742

     occupation numbers
     1.0000   1.0000   1.0000   1.0000   1.0000   1.0000   1.0000   1.0000
     1.0000   1.0000   1.0000   1.0000   1.0000   1.0000   1.0000   1.0000
     1.0000   1.0000   1.0000   1.0000   1.0000   1.0000   1.0000   1.0000
     1.0000   1.0000   1.0000   1.0000   1.0000   1.0000   1.0000   1.0000
     1.0000   1.0000   1.0000   1.0000   1.0000   1.0000   1.0000   1.0000
     1.0000   1.0000   1.0000   1.0000   1.0000   1.0000   1.0000   1.0000
     1.0000   1.0000   1.0000   0.0000   0.0000   0.0000   0.0000   0.0000
     0.0000   0.0000   0.0000   0.0000   0.0000   0.0000   0.0000   0.0000

[...]

          k = 0.3333-0.2557-0.3995 (  3122 PWs)   bands (ev):

   -30.7394 -30.7104 -16.8846 -16.8025 -16.7977 -16.7928 -16.7905 -16.7583
   -16.5753 -16.5680 -16.5632 -16.5590 -12.2275 -11.9056 -11.5983 -11.1449
   -10.8966 -10.5820 -10.2405 -10.1520  -9.6244  -9.3628  -8.9948  -8.5152
    -8.2971  -1.0634   0.9257   2.2354   2.5829   2.9034   3.1706   3.2663
     3.9050   4.4218   4.6166   4.7558   4.9727   5.1213   5.2493   5.5385
     5.6012   5.6416   5.7780   5.8111   6.0415   6.1711   8.4665   8.5166
     8.5351   8.5436   8.5776   8.6128   8.6904   8.7401   8.8296   8.8821
     8.8884   8.9107   8.9200   8.9702  11.6771  12.4740  12.7202  12.9210

     occupation numbers
     1.0000   1.0000   1.0000   1.0000   1.0000   1.0000   1.0000   1.0000
     1.0000   1.0000   1.0000   1.0000   1.0000   1.0000   1.0000   1.0000
     1.0000   1.0000   1.0000   1.0000   1.0000   1.0000   1.0000   1.0000
     1.0000   1.0000   1.0000   1.0000   1.0000   1.0000   1.0000   1.0000
     1.0000   1.0000   1.0000   1.0000   1.0000   1.0000   1.0000   1.0000
     1.0000   1.0000   1.0000   1.0000   1.0000   1.0000   1.0000   1.0000
     1.0000   1.0000   1.0000   0.0000   0.0000   0.0000   0.0000   0.0000
     0.0000   0.0000   0.0000   0.0000   0.0000   0.0000   0.0000   0.0000

     highest occupied, lowest unoccupied level (ev):     8.5897    8.5659

!    total energy              =   -1927.36378482 Ry
     estimated scf accuracy    <       0.00000068 Ry

     The total energy is the sum of the following terms:
     one-electron contribution =    -517.45765447 Ry
     hartree contribution      =     339.53654840 Ry
     xc contribution           =    -205.17909388 Ry
     ewald contribution        =    -578.63294416 Ry
     one-center paw contrib.   =    -965.63064071 Ry
      -> PAW hartree energy AE =     253.02155505 Ry
      -> PAW hartree energy PS =    -246.72353163 Ry
      -> PAW xc energy AE      =    -938.80054155 Ry
      -> PAW xc energy PS      =      33.51698773 Ry
      -> total E_H with PAW    =     345.83457183 Ry
      -> total E_XC with PAW   =   -1110.46264770 Ry

     convergence has been achieved in 118 iterations

     Writing all to output data dir bands_nm/myprefix.save/

     General routines

     Parallel routines

     PAW routines

   This run was terminated on:  15:42:16  16Jul2023

   JOB DONE.