     Program PWSCF v.7.1 starts on 15Jul2023 at 18:39:30

     Reading input from espresso_10678.pwi
Warning: card &CELL ignored
Warning: card / ignored

     Current dimensions of program PWSCF are:
     Max number of different atomic species (ntypx) = 10
     Max number of k-points (npk) =  40000
     Max angular momentum in pseudopotentials (lmaxx) =  4
     file K.pbe-spn-kjpaw_psl.1.0.0.UPF: wavefunction(s)  3S renormalized
     Message from routine setup:
     using ibrav=0 with symmetry is DISCOURAGED, use correct ibrav instead

     K-points division:     npool     =       2
     R & G space division:  proc/nbgrp/npool/nimage =       4
     Subspace diagonalization in iterative solution of the eigenvalue problem:
     one sub-group per band group will be used

     Using Slab Decomposition

     bravais-lattice index     =            0
     lattice parameter (alat)  =      15.0874  a.u.
     unit-cell volume          =    4220.1984 (a.u.)^3
     number of atoms/cell      =           14
     number of atomic types    =            3
     number of electrons       =       132.00
     number of Kohn-Sham states=          256
     kinetic-energy cutoff     =      30.0000  Ry
     charge density cutoff     =     240.0000  Ry
     scf convergence threshold =      1.0E-06
     mixing beta               =       0.7000
     number of iterations used =            8  plain     mixing
     Exchange-correlation= SLA  PW   PBX  PBC
                           (   1   4   3   4   0   0   0)

     celldm(1)=  15.087410  celldm(2)=   0.000000  celldm(3)=   0.000000
     celldm(4)=   0.000000  celldm(5)=   0.000000  celldm(6)=   0.000000

     crystal axes: (cart. coord. in units of alat)
               a(1) = (   1.000000   0.000000   0.000000 )
               a(2) = (   0.000000   1.045147   0.000000 )
               a(3) = (  -0.383469   0.000000   1.175740 )

     reciprocal axes: (cart. coord. in units 2 pi/alat)
               b(1) = (  1.000000  0.000000  0.326151 )
               b(2) = (  0.000000  0.956803  0.000000 )
               b(3) = (  0.000000  0.000000  0.850528 )

     PseudoPot. # 1 for K  read from file:
     /lustre07/scratch/pragov/crystal_structure_design/utils/SSSP/K.pbe-spn-kjpaw_psl.1.0.0.UPF
     MD5 check sum: 7d58810084cac21f60fbe77ea2b688fd
     Pseudo is Projector augmented-wave + core cor, Zval =  9.0
     Generated using "atomic" code by A. Dal Corso  v.5.1
     Shape of augmentation charge: PSQ
     Using radial grid of 1165 points,  6 beta functions with:
                l(1) =   0
                l(2) =   0
                l(3) =   1
                l(4) =   1
                l(5) =   2
                l(6) =   2
     Q(r) pseudized with 0 coefficients

     PseudoPot. # 2 for Zn read from file:
     /lustre07/scratch/pragov/crystal_structure_design/utils/SSSP/Zn_pbe_v1.uspp.F.UPF
     MD5 check sum: df62231357ef9e81f77b2b3087fa5675
     Pseudo is Ultrasoft, Zval = 20.0
     Generated by new atomic code, or converted to UPF format
     Using radial grid of  943 points,  6 beta functions with:
                l(1) =   0
                l(2) =   0
                l(3) =   1
                l(4) =   1
                l(5) =   2
                l(6) =   2
     Q(r) pseudized with  8 coefficients,  rinner =    1.100   1.100   1.100
                                                       1.100   1.100

     PseudoPot. # 3 for I  read from file:
     /lustre07/scratch/pragov/crystal_structure_design/utils/SSSP/I.pbe-n-kjpaw_psl.0.2.UPF
     MD5 check sum: d4ef18d9c8f18dc85e5843bca1e50dc0
     Pseudo is Projector augmented-wave + core cor, Zval =  7.0
     Generated using "atomic" code by A. Dal Corso  v.5.0.99 svn rev. 10869
     Shape of augmentation charge: PSQ
     Using radial grid of 1247 points,  4 beta functions with:
                l(1) =   0
                l(2) =   0
                l(3) =   1
                l(4) =   1
     Q(r) pseudized with 0 coefficients

     atomic species   valence    mass     pseudopotential
        K              9.00    39.09830     K ( 1.00)
        Zn            20.00    65.38000     Zn( 1.00)
        I              7.00   126.90447     I ( 1.00)

      4 Sym. Ops., with inversion, found ( 2 have fractional translation)

                                    s                        frac. trans.

      isym =  1     identity

 cryst.   s( 1) = (     1          0          0      )
                  (     0          1          0      )
                  (     0          0          1      )

 cart.    s( 1) = (  1.0000000  0.0000000  0.0000000 )
                  (  0.0000000  1.0000000  0.0000000 )
                  (  0.0000000  0.0000000  1.0000000 )

      isym =  2     180 deg rotation - cart. axis [0,1,0]

 cryst.   s( 2) = (    -1          0          0      )    f =( -0.0000000 )
                  (     0          1          0      )       ( -0.5000000 )
                  (     0          0         -1      )       (  0.0000000 )

 cart.    s( 2) = ( -1.0000000  0.0000000  0.0000000 )    f =( -0.0000000 )
                  (  0.0000000  1.0000000  0.0000000 )       ( -0.5225737 )
                  (  0.0000000  0.0000000 -1.0000000 )       (  0.0000000 )

      isym =  3     inversion

 cryst.   s( 3) = (    -1          0          0      )
                  (     0         -1          0      )
                  (     0          0         -1      )

 cart.    s( 3) = ( -1.0000000  0.0000000  0.0000000 )
                  (  0.0000000 -1.0000000  0.0000000 )
                  (  0.0000000  0.0000000 -1.0000000 )

      isym =  4     inv. 180 deg rotation - cart. axis [0,1,0]

 cryst.   s( 4) = (     1          0          0      )    f =(  0.0000000 )
                  (     0         -1          0      )       (  0.5000000 )
                  (     0          0          1      )       (  0.0000000 )

 cart.    s( 4) = (  1.0000000  0.0000000  0.0000000 )    f =(  0.0000000 )
                  (  0.0000000 -1.0000000  0.0000000 )       (  0.5225737 )
                  (  0.0000000  0.0000000  1.0000000 )       (  0.0000000 )

   Cartesian axes

     site n.     atom                  positions (alat units)
         1           K   tau(   1) = (   0.0070228   0.2612868   0.6481384  )
         2           K   tau(   2) = (   0.6095081   0.7838605   0.5276015  )
         3           K   tau(   3) = (   0.2394882   0.2612868   0.0798610  )
         4           K   tau(   4) = (   0.3770427   0.7838605   1.0958790  )
         5           Zn  tau(   5) = (   0.5087882   0.2612868   0.8238715  )
         6           Zn  tau(   6) = (   0.1077427   0.7838605   0.3518684  )
         7           I   tau(   7) = (   0.4360414   0.2612868   0.5023455  )
         8           I   tau(   8) = (   0.1804895   0.7838605   0.6733945  )
         9           I   tau(   9) = (  -0.0845037   1.0448265   0.2823222  )
        10           I   tau(  10) = (   0.7010347   0.0003209   0.8934177  )
        11           I   tau(  11) = (   0.7010347   0.5222528   0.8934177  )
        12           I   tau(  12) = (  -0.0845037   0.5228945   0.2823222  )
        13           I   tau(  13) = (   0.2455561   0.2612868   1.0234357  )
        14           I   tau(  14) = (   0.3709748   0.7838605   0.1523042  )

   Crystallographic axes

     site n.     atom                  positions (cryst. coord.)
         1           K   tau(   1) = (  0.2184140  0.2500000  0.5512600  )
         2           K   tau(   2) = (  0.7815860  0.7500000  0.4487400  )
         3           K   tau(   3) = (  0.2655350  0.2500000  0.0679240  )
         4           K   tau(   4) = (  0.7344650  0.7500000  0.9320760  )
         5           Zn  tau(   5) = (  0.7774950  0.2500000  0.7007260  )
         6           Zn  tau(   6) = (  0.2225050  0.7500000  0.2992740  )
         7           I   tau(   7) = (  0.5998820  0.2500000  0.4272590  )
         8           I   tau(   8) = (  0.4001180  0.7500000  0.5727410  )
         9           I   tau(   9) = (  0.0075760  0.9996930  0.2401230  )
        10           I   tau(  10) = (  0.9924240  0.0003070  0.7598770  )
        11           I   tau(  11) = (  0.9924240  0.4996930  0.7598770  )
        12           I   tau(  12) = (  0.0075760  0.5003070  0.2401230  )
        13           I   tau(  13) = (  0.5793510  0.2500000  0.8704610  )
        14           I   tau(  14) = (  0.4206490  0.7500000  0.1295390  )

     number of k points=    10
                       cart. coord. in units 2pi/alat
        k(    1) = (   0.0000000   0.0000000   0.0000000), wk =   0.0740741
        k(    2) = (   0.0000000   0.0000000   0.2835094), wk =   0.1481481
        k(    3) = (   0.0000000   0.3189343   0.0000000), wk =   0.1481481
        k(    4) = (   0.0000000   0.3189343   0.2835094), wk =   0.2962963
        k(    5) = (   0.3333333   0.0000000   0.1087171), wk =   0.1481481
        k(    6) = (   0.3333333   0.0000000   0.3922265), wk =   0.1481481
        k(    7) = (   0.3333333   0.0000000  -0.1747923), wk =   0.1481481
        k(    8) = (   0.3333333   0.3189343   0.1087171), wk =   0.2962963
        k(    9) = (   0.3333333   0.3189343   0.3922265), wk =   0.2962963
        k(   10) = (   0.3333333   0.3189343  -0.1747923), wk =   0.2962963

                       cryst. coord.
        k(    1) = (   0.0000000   0.0000000   0.0000000), wk =   0.0740741
        k(    2) = (   0.0000000   0.0000000   0.3333333), wk =   0.1481481
        k(    3) = (   0.0000000   0.3333333   0.0000000), wk =   0.1481481
        k(    4) = (   0.0000000   0.3333333   0.3333333), wk =   0.2962963
        k(    5) = (   0.3333333   0.0000000   0.0000000), wk =   0.1481481
        k(    6) = (   0.3333333   0.0000000   0.3333333), wk =   0.1481481
        k(    7) = (   0.3333333   0.0000000  -0.3333333), wk =   0.1481481
        k(    8) = (   0.3333333   0.3333333   0.0000000), wk =   0.2962963
        k(    9) = (   0.3333333   0.3333333   0.3333333), wk =   0.2962963
        k(   10) = (   0.3333333   0.3333333  -0.3333333), wk =   0.2962963

     Check: negative core charge=   -0.000002

     Initial potential from superposition of free atoms

     starting charge     131.9238, renormalised to     132.0000
     Starting wfcs are   90 randomized atomic wfcs +  166 random wfcs
     Checking if some PAW data can be deallocated...

     Self-consistent Calculation

     iteration #  1     ecut=    30.00 Ry     beta= 0.70
     Davidson diagonalization with overlap

     ethr =  1.00E-02,  avg # of iterations =  8.1

     Threshold (ethr) on eigenvalues was too large:
     Diagonalizing with lowered threshold

     Davidson diagonalization with overlap

[...]

     total energy              =   -4407.33755678 Ry
     estimated scf accuracy    <       0.31852739 Ry

[...]

     negative rho (up, down):  5.876E-06 0.000E+00

[...]

     total energy              =   -4407.47807120 Ry
     estimated scf accuracy    <       0.00000186 Ry

     iteration #  8     ecut=    30.00 Ry     beta= 0.70
     Davidson diagonalization with overlap

     ethr =  1.41E-09,  avg # of iterations =  2.0

     negative rho (up, down):  3.856E-06 0.000E+00

     End of self-consistent calculation

          k = 0.0000 0.0000 0.0000 ( 11705 PWs)   bands (ev):

  -123.3386-123.3383 -77.4492 -77.4478 -77.4464 -77.4447 -77.4442 -77.4442
   -27.7918 -27.7917 -27.4967 -27.4965 -11.2916 -11.2900 -11.2793 -11.2766
   -11.2708 -11.2595 -11.0039 -11.0039 -10.9990 -10.9916 -10.9856 -10.9817
    -9.8051  -9.6565  -9.4155  -9.4109  -9.4029  -9.3702  -9.3197  -9.3051
    -4.2560  -4.2554  -4.2531  -4.2494  -4.2425  -4.2389  -4.2108  -4.2082
    -4.2043  -4.2038  -2.1847  -2.1543  -0.5561  -0.4737  -0.3053  -0.0762
     0.0249   0.0892   0.1102   0.3335   0.5888   0.6468   0.6853   0.7645
     0.8953   0.8961   1.0808   1.1204   1.1628   1.2329   1.2343   1.3413
     1.3525   1.5544   4.6448   5.0903   5.8871   6.4593   6.5899   6.6943
     6.9808   7.0610   7.2620   7.4718   7.6464   7.7691   7.8993   7.9929
     8.1690   8.3733   8.4019   8.4741   8.6141   8.7799   8.8384   8.8524
     8.9216   8.9316   8.9906   9.1203   9.1246   9.3250   9.4059   9.5297
     9.5318   9.6944   9.7431  10.1102  10.2149  10.3007  10.3748  10.4377
    10.5154  10.5238  10.6841  10.7249  10.8910  10.9437  10.9556  11.1179
    11.2587  11.3406  11.4225  11.5101  11.6208  12.1283  12.2800  12.3988
    12.4997  12.6587  12.6753  12.7801  12.8359  12.8503  12.9221  13.1644
    13.2522  13.4505  13.5035  13.6311  13.6601  13.7435  13.8082  14.0185
    14.0649  14.1710  14.4586  14.4614  14.6093  14.6669  14.8932  14.9137
    15.0882  15.1354  15.4107  15.4436  15.7807  15.7939  15.9488  16.0118
    16.0331  16.0951  16.2069  16.2642  16.3864  16.5129  16.9435  16.9790
    17.1488  17.1573  17.1907  17.3234  17.4914  17.5095  17.6259  17.8197
    17.8412  17.8611  17.9189  18.1349  18.2149  18.2611  18.4222  18.4711
    18.7947  18.8398  18.9548  18.9635  19.1128  19.1271  19.2325  19.4076
    19.5488  19.6591  19.7372  20.4812  20.4849  20.5049  20.5088  20.5640
    20.6858  20.9409  21.1577  21.2069  21.3127  21.3404  21.3462  21.4171
    21.4172  21.5552  21.6060  21.7665  21.8179  21.8187  21.9212  22.0353
    22.1119  22.1140  22.1174  22.3353  22.3645  22.3966  22.4910  22.5728
    22.6906  22.6989  22.8319  23.0751  23.1061  23.1290  23.2172  23.2849
    23.4214  23.4851  23.6006  23.6038  23.7861  23.8029  23.8045  23.9777
    23.9948  24.1445  24.2051  24.2653  24.3530  24.4512  24.5086  24.5167
    24.6585  24.6890  24.7208  24.7611  24.8845  24.9261  25.3123  25.4526
    25.4657  25.4897  25.5363  25.7259  25.8194  26.0064  26.1071  26.3204

     occupation numbers
     1.0000   1.0000   1.0000   1.0000   1.0000   1.0000   1.0000   1.0000
     1.0000   1.0000   1.0000   1.0000   1.0000   1.0000   1.0000   1.0000
     1.0000   1.0000   1.0000   1.0000   1.0000   1.0000   1.0000   1.0000
     1.0000   1.0000   1.0000   1.0000   1.0000   1.0000   1.0000   1.0000
     1.0000   1.0000   1.0000   1.0000   1.0000   1.0000   1.0000   1.0000
     1.0000   1.0000   1.0000   1.0000   1.0000   1.0000   1.0000   1.0000
     1.0000   1.0000   1.0000   1.0000   1.0000   1.0000   1.0000   1.0000
     1.0000   1.0000   1.0000   1.0000   1.0000   1.0000   1.0000   1.0000
     1.0000   1.0000   0.0000   0.0000   0.0000   0.0000   0.0000   0.0000
     0.0000   0.0000   0.0000   0.0000   0.0000   0.0000   0.0000   0.0000
     0.0000   0.0000   0.0000   0.0000   0.0000   0.0000   0.0000   0.0000
     0.0000   0.0000   0.0000   0.0000   0.0000   0.0000   0.0000   0.0000
     0.0000   0.0000   0.0000   0.0000   0.0000   0.0000   0.0000   0.0000
     0.0000   0.0000   0.0000   0.0000   0.0000   0.0000   0.0000   0.0000
     0.0000   0.0000   0.0000   0.0000   0.0000   0.0000   0.0000   0.0000
     0.0000   0.0000   0.0000   0.0000   0.0000   0.0000   0.0000   0.0000
     0.0000   0.0000   0.0000   0.0000   0.0000   0.0000   0.0000   0.0000
     0.0000   0.0000   0.0000   0.0000   0.0000   0.0000   0.0000   0.0000
     0.0000   0.0000   0.0000   0.0000   0.0000   0.0000   0.0000   0.0000
     0.0000   0.0000   0.0000   0.0000   0.0000   0.0000   0.0000   0.0000
     0.0000   0.0000   0.0000   0.0000   0.0000   0.0000   0.0000   0.0000
     0.0000   0.0000   0.0000   0.0000   0.0000   0.0000   0.0000   0.0000
     0.0000   0.0000   0.0000   0.0000   0.0000   0.0000   0.0000   0.0000
     0.0000   0.0000   0.0000   0.0000   0.0000   0.0000   0.0000   0.0000
     0.0000   0.0000   0.0000   0.0000   0.0000   0.0000   0.0000   0.0000
     0.0000   0.0000   0.0000   0.0000   0.0000   0.0000   0.0000   0.0000
     0.0000   0.0000   0.0000   0.0000   0.0000   0.0000   0.0000   0.0000
     0.0000   0.0000   0.0000   0.0000   0.0000   0.0000   0.0000   0.0000
     0.0000   0.0000   0.0000   0.0000   0.0000   0.0000   0.0000   0.0000
     0.0000   0.0000   0.0000   0.0000   0.0000   0.0000   0.0000   0.0000
     0.0000   0.0000   0.0000   0.0000   0.0000   0.0000   0.0000   0.0000
     0.0000   0.0000   0.0000   0.0000   0.0000   0.0000   0.0000   0.0000

[...]

          k = 0.3333 0.3189-0.1748 ( 11708 PWs)   bands (ev):

  -123.3387-123.3384 -77.4503 -77.4487 -77.4465 -77.4462 -77.4436 -77.4426
   -27.7918 -27.7918 -27.4967 -27.4966 -11.2896 -11.2864 -11.2832 -11.2786
   -11.2663 -11.2621 -11.0078 -11.0059 -11.0004 -10.9914 -10.9886 -10.9834
    -9.6963  -9.6503  -9.4867  -9.4573  -9.3928  -9.3831  -9.3188  -9.3027
    -4.2615  -4.2580  -4.2532  -4.2514  -4.2486  -4.2446  -4.2095  -4.2082
    -4.2038  -4.2033  -2.0513  -2.0251  -0.4027  -0.3233  -0.2782  -0.1674
    -0.0983   0.0046   0.3205   0.4604   0.5077   0.6389   0.6505   0.7530
     0.8071   0.8392   0.9460   1.0076   1.0342   1.0928   1.1585   1.1746
     1.2293   1.3263   5.4186   5.4885   6.4755   6.7279   6.9700   7.0704
     7.0872   7.1688   7.3232   7.4647   7.6063   7.7040   7.9237   7.9384
     8.0103   8.1031   8.1476   8.3032   8.4127   8.5328   8.5545   8.7282
     8.8131   8.8663   8.9124   9.0238   9.1259   9.2764   9.3110   9.3827
     9.4699   9.5167   9.6633   9.8125   9.9308   9.9577  10.1878  10.3027
    10.5386  10.6646  10.7297  10.7787  10.9314  11.0327  11.1414  11.2178
    11.3261  11.3840  11.4271  11.6315  11.8517  11.8612  12.0494  12.1769
    12.2745  12.4452  12.5984  12.6799  12.7190  12.8750  13.1020  13.2745
    13.4120  13.4922  13.6151  13.6778  13.7434  13.8349  13.9676  14.1922
    14.3793  14.4071  14.4918  14.7079  14.7825  14.9592  15.0267  15.2469
    15.3023  15.4944  15.6696  15.7858  15.8659  15.9192  15.9718  16.1028
    16.1839  16.2457  16.3462  16.3908  16.4652  16.5445  16.6954  16.8364
    16.8921  17.0178  17.1143  17.2806  17.3243  17.4479  17.6549  17.7805
    17.8447  17.9773  18.1143  18.2712  18.3716  18.4274  18.4858  18.5676
    18.6594  18.8023  18.8589  19.0171  19.1584  19.2341  19.2793  19.3476
    19.4307  19.5384  19.5935  19.7298  19.8077  20.0013  20.1100  20.2671
    20.3686  20.4078  20.4685  20.6369  20.6956  20.7162  20.7976  20.9425
    21.0169  21.1755  21.2629  21.3100  21.4283  21.5509  21.7458  21.7965
    21.8646  21.9280  22.1030  22.3022  22.3765  22.4403  22.5633  22.6563
    22.8085  22.8376  23.0071  23.0917  23.1626  23.2328  23.3026  23.3944
    23.5755  23.6455  23.8714  23.8944  24.0291  24.1566  24.2000  24.3562
    24.4316  24.5330  24.5785  24.6544  24.6833  24.7359  24.8999  25.0071
    25.0727  25.2283  25.2575  25.3293  25.4096  25.5891  25.6917  25.7492
    25.8423  25.9065  25.9415  26.0244  26.1147  26.1680  26.3038  26.3490

     occupation numbers
     1.0000   1.0000   1.0000   1.0000   1.0000   1.0000   1.0000   1.0000
     1.0000   1.0000   1.0000   1.0000   1.0000   1.0000   1.0000   1.0000
     1.0000   1.0000   1.0000   1.0000   1.0000   1.0000   1.0000   1.0000
     1.0000   1.0000   1.0000   1.0000   1.0000   1.0000   1.0000   1.0000
     1.0000   1.0000   1.0000   1.0000   1.0000   1.0000   1.0000   1.0000
     1.0000   1.0000   1.0000   1.0000   1.0000   1.0000   1.0000   1.0000
     1.0000   1.0000   1.0000   1.0000   1.0000   1.0000   1.0000   1.0000
     1.0000   1.0000   1.0000   1.0000   1.0000   1.0000   1.0000   1.0000
     1.0000   1.0000   0.0000   0.0000   0.0000   0.0000   0.0000   0.0000
     0.0000   0.0000   0.0000   0.0000   0.0000   0.0000   0.0000   0.0000
     0.0000   0.0000   0.0000   0.0000   0.0000   0.0000   0.0000   0.0000
     0.0000   0.0000   0.0000   0.0000   0.0000   0.0000   0.0000   0.0000
     0.0000   0.0000   0.0000   0.0000   0.0000   0.0000   0.0000   0.0000
     0.0000   0.0000   0.0000   0.0000   0.0000   0.0000   0.0000   0.0000
     0.0000   0.0000   0.0000   0.0000   0.0000   0.0000   0.0000   0.0000
     0.0000   0.0000   0.0000   0.0000   0.0000   0.0000   0.0000   0.0000
     0.0000   0.0000   0.0000   0.0000   0.0000   0.0000   0.0000   0.0000
     0.0000   0.0000   0.0000   0.0000   0.0000   0.0000   0.0000   0.0000
     0.0000   0.0000   0.0000   0.0000   0.0000   0.0000   0.0000   0.0000
     0.0000   0.0000   0.0000   0.0000   0.0000   0.0000   0.0000   0.0000
     0.0000   0.0000   0.0000   0.0000   0.0000   0.0000   0.0000   0.0000
     0.0000   0.0000   0.0000   0.0000   0.0000   0.0000   0.0000   0.0000
     0.0000   0.0000   0.0000   0.0000   0.0000   0.0000   0.0000   0.0000
     0.0000   0.0000   0.0000   0.0000   0.0000   0.0000   0.0000   0.0000
     0.0000   0.0000   0.0000   0.0000   0.0000   0.0000   0.0000   0.0000
     0.0000   0.0000   0.0000   0.0000   0.0000   0.0000   0.0000   0.0000
     0.0000   0.0000   0.0000   0.0000   0.0000   0.0000   0.0000   0.0000
     0.0000   0.0000   0.0000   0.0000   0.0000   0.0000   0.0000   0.0000
     0.0000   0.0000   0.0000   0.0000   0.0000   0.0000   0.0000   0.0000
     0.0000   0.0000   0.0000   0.0000   0.0000   0.0000   0.0000   0.0000
     0.0000   0.0000   0.0000   0.0000   0.0000   0.0000   0.0000   0.0000
     0.0000   0.0000   0.0000   0.0000   0.0000   0.0000   0.0000   0.0000

     highest occupied, lowest unoccupied level (ev):     1.5544    4.6448

!    total energy              =   -4407.47807171 Ry
     estimated scf accuracy    <       0.00000006 Ry

     The total energy is the sum of the following terms:
     one-electron contribution =   -1347.92495397 Ry
     hartree contribution      =     707.75219971 Ry
     xc contribution           =    -463.40719565 Ry
     ewald contribution        =    -518.02956422 Ry
     one-center paw contrib.   =   -2785.86855758 Ry
      -> PAW hartree energy AE =      75.21901839 Ry
      -> PAW hartree energy PS =     -74.79915274 Ry
      -> PAW xc energy AE      =    -132.41136751 Ry
      -> PAW xc energy PS      =      21.15847799 Ry
      -> total E_H with PAW    =     708.17206536 Ry
      -> total E_XC with PAW   =    -574.66008518 Ry

     convergence has been achieved in   8 iterations

     Writing all to output data dir bands_nm/myprefix.save/

     General routines

     Parallel routines

     PAW routines

   This run was terminated on:  18:40:55  15Jul2023

   JOB DONE.