     Program PWSCF v.7.0 starts on  7Jun2023 at  8:33:25

     K-points division:     npool     =       2
     R & G space division:  proc/nbgrp/npool/nimage =       4

     Reading input from espresso_5440.pwi
Warning: card &CELL ignored
Warning: card / ignored

     Current dimensions of program PWSCF are:
     Max number of different atomic species (ntypx) = 10
     Max number of k-points (npk) =  40000
     Max angular momentum in pseudopotentials (lmaxx) =  4
     file Ba.pbe-spn-kjpaw_psl.1.0.0.UPF: wavefunction(s)  5S 6S renormalized
     file Nb.pbe-spn-kjpaw_psl.0.3.0.UPF: wavefunction(s)  4S 4P renormalized
     file Cd.pbe-dn-rrkjus_psl.0.3.1.UPF: wavefunction(s)  4D renormalized
     file O.pbe-n-kjpaw_psl.0.1.UPF: wavefunction(s)  2P renormalized
     Message from routine setup:
     using ibrav=0 with symmetry is DISCOURAGED, use correct ibrav instead

     Using Slab Decomposition

     bravais-lattice index     =            0
     lattice parameter (alat)  =      11.2936  a.u.
     unit-cell volume          =    1540.3172 (a.u.)^3
     number of atoms/cell      =           15
     number of atomic types    =            4
     number of electrons       =       122.00
     number of Kohn-Sham states=           64
     kinetic-energy cutoff     =      30.0000  Ry
     charge density cutoff     =     240.0000  Ry
     scf convergence threshold =      1.0E-06
     mixing beta               =       0.7000
     number of iterations used =            8  plain     mixing
     Exchange-correlation= SLA  PW   PBX  PBC
                           (   1   4   3   4   0   0   0)

     celldm(1)=  11.293628  celldm(2)=   0.000000  celldm(3)=   0.000000
     celldm(4)=   0.000000  celldm(5)=   0.000000  celldm(6)=   0.000000

     crystal axes: (cart. coord. in units of alat)
               a(1) = (   1.000000   0.000000   0.000000 )
               a(2) = (  -0.500000   0.866025   0.000000 )
               a(3) = (   0.000000   0.000000   1.234750 )

     reciprocal axes: (cart. coord. in units 2 pi/alat)
               b(1) = (  1.000000  0.577350  0.000000 )
               b(2) = (  0.000000  1.154701  0.000000 )
               b(3) = (  0.000000  0.000000  0.809880 )

     PseudoPot. # 1 for Ba read from file:
     /home/pragov/projects/rrg-bengioy-ad/pragov/crystal_structure_design/SSSP/Ba.pbe-spn-kjpaw_psl.1.0.0.UPF
     MD5 check sum: c432291d3e53af55f19d5e8866385beb
     Pseudo is Projector augmented-wave + core cor, Zval = 10.0
     Generated using "atomic" code by A. Dal Corso  v.5.1
     Shape of augmentation charge: PSQ
     Using radial grid of 1251 points,  7 beta functions with:
                l(1) =   0
                l(2) =   0
                l(3) =   0
                l(4) =   1
                l(5) =   1
                l(6) =   2
                l(7) =   2
     Q(r) pseudized with 0 coefficients

     PseudoPot. # 2 for Nb read from file:
     /home/pragov/projects/rrg-bengioy-ad/pragov/crystal_structure_design/SSSP/Nb.pbe-spn-kjpaw_psl.0.3.0.UPF
     MD5 check sum: 411d72ad547312f8017e2943ceca08cc
     Pseudo is Projector augmented-wave + core cor, Zval = 13.0
     Generated using "atomic" code by A. Dal Corso  v.5.0.99 svn rev. 10869
     Shape of augmentation charge: PSQ
     Using radial grid of 1227 points,  6 beta functions with:
                l(1) =   0
                l(2) =   0
                l(3) =   1
                l(4) =   1
                l(5) =   2
                l(6) =   2
     Q(r) pseudized with 0 coefficients

     PseudoPot. # 3 for Cd read from file:
     /home/pragov/projects/rrg-bengioy-ad/pragov/crystal_structure_design/SSSP/Cd.pbe-dn-rrkjus_psl.0.3.1.UPF
     MD5 check sum: 558e9f355611b531a870a69ef6ace9e2
     Pseudo is Ultrasoft + core correction, Zval = 12.0
     Generated using "atomic" code by A. Dal Corso  v.5.0.99 svn rev. 10869
     Using radial grid of 1239 points,  6 beta functions with:
                l(1) =   0
                l(2) =   0
                l(3) =   1
                l(4) =   1
                l(5) =   2
                l(6) =   2
     Q(r) pseudized with 0 coefficients

     PseudoPot. # 4 for O  read from file:
     /home/pragov/projects/rrg-bengioy-ad/pragov/crystal_structure_design/SSSP/O.pbe-n-kjpaw_psl.0.1.UPF
     MD5 check sum: 0234752ac141de4415c5fc33072bef88
     Pseudo is Projector augmented-wave + core cor, Zval =  6.0
     Generated using "atomic" code by A. Dal Corso  v.5.0.99 svn rev. 10869
     Shape of augmentation charge: BESSEL
     Using radial grid of 1095 points,  4 beta functions with:
                l(1) =   0
                l(2) =   0
                l(3) =   1
                l(4) =   1
     Q(r) pseudized with 0 coefficients

     atomic species   valence    mass     pseudopotential
        Ba            10.00   137.32700     Ba( 1.00)
        Nb            13.00    92.90637     Nb( 1.00)
        Cd            12.00   112.41400     Cd( 1.00)
        O              6.00    15.99900     O ( 1.00)

     12 Sym. Ops., with inversion, found

                                    s                        frac. trans.

      isym =  1     identity

 cryst.   s( 1) = (     1          0          0      )
                  (     0          1          0      )
                  (     0          0          1      )

 cart.    s( 1) = (  1.0000000  0.0000000  0.0000000 )
                  (  0.0000000  1.0000000  0.0000000 )
                  (  0.0000000  0.0000000  1.0000000 )

      isym =  2     180 deg rotation - cart. axis [1,0,0]

[...]

      isym =  3     120 deg rotation - cryst. axis [0,0,1]

[...]

      isym =  6     180 deg rotation - cryst. axis [1,1,0]

[...]

      isym =  7     inversion

[...]

      isym =  8     inv. 180 deg rotation - cart. axis [1,0,0]

[...]

      isym =  9     inv. 120 deg rotation - cryst. axis [0,0,1]

 cryst.   s( 9) = (     0         -1          0      )
                  (     1          1          0      )
                  (     0          0         -1      )

 cart.    s( 9) = (  0.5000001  0.8660254  0.0000000 )
                  ( -0.8660254  0.4999999  0.0000000 )
                  (  0.0000000  0.0000000 -1.0000000 )

[...]

 cryst.   s(10) = (     1          1          0      )
                  (    -1          0          0      )
                  (     0          0         -1      )

 cart.    s(10) = (  0.4999999 -0.8660254  0.0000000 )
                  (  0.8660254  0.5000001  0.0000000 )
                  (  0.0000000  0.0000000 -1.0000000 )

[...]

      isym = 12     inv. 180 deg rotation - cryst. axis [1,1,0]

 cryst.   s(12) = (     0         -1          0      )
                  (    -1          0          0      )
                  (     0          0          1      )

 cart.    s(12) = (  0.5000001 -0.8660254  0.0000000 )
                  ( -0.8660254 -0.5000001  0.0000000 )
                  (  0.0000000  0.0000000  1.0000000 )

   Cartesian axes

     site n.     atom                  positions (alat units)
         1           Ba  tau(   1) = (   0.0000000   0.0000000   0.0000000  )
         2           Ba  tau(   2) = (  -0.0000005   0.5773505   0.8253343  )
         3           Ba  tau(   3) = (   0.5000005   0.2886748   0.4094161  )
         4           Nb  tau(   4) = (  -0.0000005   0.5773505   0.2097791  )
         5           Nb  tau(   5) = (   0.5000005   0.2886748   1.0249712  )
         6           Cd  tau(   6) = (   0.0000000   0.0000000   0.6173752  )
         7           O   tau(   7) = (  -0.2357975   0.7134880   0.3876931  )
         8           O   tau(   8) = (   0.7357975   0.1525374   0.8470573  )
         9           O   tau(   9) = (  -0.0000000   0.3050748   0.3876931  )
        10           O   tau(  10) = (   0.5000000   0.5609506   0.8470573  )
        11           O   tau(  11) = (   0.2357975   0.7134880   0.3876931  )
        12           O   tau(  12) = (   0.2642025   0.1525374   0.8470573  )
        13           O   tau(  13) = (   0.5000000   0.0000000   0.0000000  )
        14           O   tau(  14) = (   0.7500000   0.4330127   0.0000000  )
        15           O   tau(  15) = (   0.2500000   0.4330127   0.0000000  )

   Crystallographic axes

     site n.     atom                  positions (cryst. coord.)
         1           Ba  tau(   1) = (  0.0000000  0.0000000  0.0000000  )
         2           Ba  tau(   2) = (  0.3333330  0.6666670  0.6684220  )
         3           Ba  tau(   3) = (  0.6666670  0.3333330  0.3315780  )
         4           Nb  tau(   4) = (  0.3333330  0.6666670  0.1698960  )
         5           Nb  tau(   5) = (  0.6666670  0.3333330  0.8301040  )
         6           Cd  tau(   6) = (  0.0000000  0.0000000  0.5000000  )
         7           O   tau(   7) = (  0.1761350  0.8238650  0.3139850  )
         8           O   tau(   8) = (  0.8238650  0.1761350  0.6860150  )
         9           O   tau(   9) = (  0.1761350  0.3522700  0.3139850  )
        10           O   tau(  10) = (  0.8238650  0.6477300  0.6860150  )
        11           O   tau(  11) = (  0.6477300  0.8238650  0.3139850  )
        12           O   tau(  12) = (  0.3522700  0.1761350  0.6860150  )
        13           O   tau(  13) = (  0.5000000  0.0000000  0.0000000  )
        14           O   tau(  14) = (  1.0000000  0.5000000  0.0000000  )
        15           O   tau(  15) = (  0.5000000  0.5000000  0.0000000  )

     number of k points=     7
                       cart. coord. in units 2pi/alat
        k(    1) = (   0.0000000   0.0000000   0.0000000), wk =   0.0740741
        k(    2) = (   0.0000000   0.0000000   0.2699601), wk =   0.1481481
        k(    3) = (   0.0000000   0.3849002   0.0000000), wk =   0.4444444
        k(    4) = (   0.0000000   0.3849002   0.2699601), wk =   0.4444444
        k(    5) = (   0.3333333   0.5773503   0.0000000), wk =   0.1481481
        k(    6) = (   0.3333333   0.5773503   0.2699601), wk =   0.2962963
        k(    7) = (   0.0000000   0.3849002  -0.2699601), wk =   0.4444444

                       cryst. coord.
        k(    1) = (   0.0000000   0.0000000   0.0000000), wk =   0.0740741
        k(    2) = (   0.0000000   0.0000000   0.3333333), wk =   0.1481481
        k(    3) = (   0.0000000   0.3333333   0.0000000), wk =   0.4444444
        k(    4) = (   0.0000000   0.3333333   0.3333333), wk =   0.4444444
        k(    5) = (   0.3333333   0.3333333   0.0000000), wk =   0.1481481
        k(    6) = (   0.3333333   0.3333333   0.3333333), wk =   0.2962963
        k(    7) = (   0.0000000   0.3333333  -0.3333333), wk =   0.4444444

     Check: negative core charge=   -0.000013

     Initial potential from superposition of free atoms

     starting charge     121.9398, renormalised to     122.0000
     Starting wfcs are   80 randomized atomic wfcs
     Checking if some PAW data can be deallocated...

     Self-consistent Calculation

     iteration #  1     ecut=    30.00 Ry     beta= 0.70
     Davidson diagonalization with overlap

     ethr =  1.00E-02,  avg # of iterations =  2.1

     total energy              =   -2472.08560935 Ry
     estimated scf accuracy    <       5.89751629 Ry

[...]

     total energy              =   -2475.35935863 Ry
     estimated scf accuracy    <       0.00000110 Ry

     iteration # 13     ecut=    30.00 Ry     beta= 0.70
     Davidson diagonalization with overlap

     ethr =  9.01E-10,  avg # of iterations =  2.6

     End of self-consistent calculation

          k = 0.0000 0.0000 0.0000 (  4249 PWs)   bands (ev):

   -45.5510 -45.5502 -21.7009 -21.7009 -21.6992 -21.6727 -21.6727 -21.6688
   -16.4185 -16.3614 -16.0152  -7.6163  -7.1973  -7.1972  -7.1906  -6.9715
    -6.9714  -6.8066  -6.6446  -6.6445  -1.7754  -1.7754  -1.6946  -1.6946
    -1.5856  -1.5628  -1.3355  -1.3355  -1.2110   2.9934   2.9935   3.2579
     3.3119   3.3119   5.0949   5.0950   5.1749   5.4013   5.8293   6.1415
     6.1415   6.5339   6.8368   6.8368   7.0312   7.0499   7.0499   7.6975
     7.6975   8.1541   8.1541   8.1601   8.3645   8.3645   8.6259   8.6736
     8.6768   8.6768   8.8169   8.8169   9.0030  12.0083  12.2118  12.2118

     occupation numbers
     1.0000   1.0000   1.0000   1.0000   1.0000   1.0000   1.0000   1.0000
     1.0000   1.0000   1.0000   1.0000   1.0000   1.0000   1.0000   1.0000
     1.0000   1.0000   1.0000   1.0000   1.0000   1.0000   1.0000   1.0000
     1.0000   1.0000   1.0000   1.0000   1.0000   1.0000   1.0000   1.0000
     1.0000   1.0000   1.0000   1.0000   1.0000   1.0000   1.0000   1.0000
     1.0000   1.0000   1.0000   1.0000   1.0000   1.0000   1.0000   1.0000
     1.0000   1.0000   1.0000   1.0000   1.0000   1.0000   1.0000   1.0000
     1.0000   1.0000   1.0000   1.0000   1.0000   0.0000   0.0000   0.0000

[...]

          k = 0.0000 0.3849-0.2700 (  4283 PWs)   bands (ev):

   -45.5511 -45.5504 -21.7031 -21.7019 -21.7006 -21.6724 -21.6709 -21.6689
   -16.3975 -16.3706 -16.0139  -7.6540  -7.4491  -7.1837  -7.0910  -7.0054
    -6.9945  -6.7673  -6.6779  -6.6309  -1.7442  -1.7396  -1.5597  -1.5429
    -1.5022  -1.4359  -1.2633  -1.1865  -1.1424   2.9892   3.0263   3.2493
     3.2968   3.3176   4.8809   5.0786   5.0973   5.3408   5.7338   6.0825
     6.2471   6.5152   6.5515   6.6428   6.9097   6.9175   7.4306   7.5130
     7.6298   7.6921   7.7093   8.0857   8.2180   8.2493   8.2762   8.4581
     8.5159   8.5276   8.6528   8.7851   8.9042  12.1504  12.8553  12.9718

     occupation numbers
     1.0000   1.0000   1.0000   1.0000   1.0000   1.0000   1.0000   1.0000
     1.0000   1.0000   1.0000   1.0000   1.0000   1.0000   1.0000   1.0000
     1.0000   1.0000   1.0000   1.0000   1.0000   1.0000   1.0000   1.0000
     1.0000   1.0000   1.0000   1.0000   1.0000   1.0000   1.0000   1.0000
     1.0000   1.0000   1.0000   1.0000   1.0000   1.0000   1.0000   1.0000
     1.0000   1.0000   1.0000   1.0000   1.0000   1.0000   1.0000   1.0000
     1.0000   1.0000   1.0000   1.0000   1.0000   1.0000   1.0000   1.0000
     1.0000   1.0000   1.0000   1.0000   1.0000   0.0000   0.0000   0.0000

     highest occupied, lowest unoccupied level (ev):     9.0885   12.0083

!    total energy              =   -2475.35935852 Ry
     estimated scf accuracy    <       0.00000025 Ry

     The total energy is the sum of the following terms:
     one-electron contribution =    -198.52774552 Ry
     hartree contribution      =     183.50885239 Ry
     xc contribution           =    -228.64700116 Ry
     ewald contribution        =    -604.13650076 Ry
     one-center paw contrib.   =   -1627.55696348 Ry
      -> PAW hartree energy AE =      57.29276221 Ry
      -> PAW hartree energy PS =     -57.06837353 Ry
      -> PAW xc energy AE      =    -788.43577597 Ry
      -> PAW xc energy PS      =      38.30233119 Ry
      -> total E_H with PAW    =     183.73324107 Ry
      -> total E_XC with PAW   =    -978.78044594 Ry

     convergence has been achieved in  13 iterations

     Writing all to output data dir calculations_bands/myprefix.save/

     General routines

     Parallel routines

     PAW routines

   This run was terminated on:   8:33:42   7Jun2023

   JOB DONE.