     Program PWSCF v.7.1 starts on 15Jul2023 at 21:13:31

     Reading input from espresso_23423.pwi
Warning: card &CELL ignored
Warning: card / ignored

     Current dimensions of program PWSCF are:
     Max number of different atomic species (ntypx) = 10
     Max number of k-points (npk) =  40000
     Max angular momentum in pseudopotentials (lmaxx) =  4
     file O.pbe-n-kjpaw_psl.0.1.UPF: wavefunction(s)  2P renormalized
     Message from routine setup:
     using ibrav=0 with symmetry is DISCOURAGED, use correct ibrav instead

     K-points division:     npool     =       2
     R & G space division:  proc/nbgrp/npool/nimage =       4
     Subspace diagonalization in iterative solution of the eigenvalue problem:
     one sub-group per band group will be used

     Using Slab Decomposition

     bravais-lattice index     =            0
     lattice parameter (alat)  =      11.5878  a.u.
     unit-cell volume          =    2074.3703 (a.u.)^3
     number of atoms/cell      =           20
     number of atomic types    =            3
     number of electrons       =       144.00
     number of Kohn-Sham states=          256
     kinetic-energy cutoff     =      30.0000  Ry
     charge density cutoff     =     240.0000  Ry
     scf convergence threshold =      1.0E-06
     mixing beta               =       0.7000
     number of iterations used =            8  plain     mixing
     Exchange-correlation= SLA  PW   PBX  PBC
                           (   1   4   3   4   0   0   0)

     celldm(1)=  11.587816  celldm(2)=   0.000000  celldm(3)=   0.000000
     celldm(4)=   0.000000  celldm(5)=   0.000000  celldm(6)=   0.000000

     crystal axes: (cart. coord. in units of alat)
               a(1) = (   1.000000   0.000000   0.000000 )
               a(2) = (   0.000000   0.964117   0.000000 )
               a(3) = (   0.000000   0.964744   1.382775 )

     reciprocal axes: (cart. coord. in units 2 pi/alat)
               b(1) = (  1.000000  0.000000  0.000000 )
               b(2) = (  0.000000  1.037218 -0.723653 )
               b(3) = (  0.000000  0.000000  0.723183 )

     PseudoPot. # 1 for Sr read from file:
     /lustre07/scratch/pragov/crystal_structure_design/utils/SSSP/Sr_pbe_v1.uspp.F.UPF
     MD5 check sum: 6b418c05fbe9db5448babca5e47b7a5b
     Pseudo is Ultrasoft + core correction, Zval = 10.0
     Generated by new atomic code, or converted to UPF format
     Using radial grid of  883 points,  6 beta functions with:
                l(1) =   0
                l(2) =   0
                l(3) =   1
                l(4) =   1
                l(5) =   2
                l(6) =   2
     Q(r) pseudized with  6 coefficients,  rinner =    1.400   1.400   1.400
                                                       1.400   1.400

     PseudoPot. # 2 for Te read from file:
     /lustre07/scratch/pragov/crystal_structure_design/utils/SSSP/Te_pbe_v1.uspp.F.UPF
     MD5 check sum: c319670d6894cc26e93307826a071b75
     Pseudo is Ultrasoft + core correction, Zval =  6.0
     Generated by new atomic code, or converted to UPF format
     Using radial grid of  891 points,  5 beta functions with:
                l(1) =   0
                l(2) =   0
                l(3) =   1
                l(4) =   1
                l(5) =   2
     Q(r) pseudized with  6 coefficients,  rinner =    1.800   1.800   1.800
                                                       1.800   1.800

     PseudoPot. # 3 for O  read from file:
     /lustre07/scratch/pragov/crystal_structure_design/utils/SSSP/O.pbe-n-kjpaw_psl.0.1.UPF
     MD5 check sum: 0234752ac141de4415c5fc33072bef88
     Pseudo is Projector augmented-wave + core cor, Zval =  6.0
     Generated using "atomic" code by A. Dal Corso  v.5.0.99 svn rev. 10869
     Shape of augmentation charge: BESSEL
     Using radial grid of 1095 points,  4 beta functions with:
                l(1) =   0
                l(2) =   0
                l(3) =   1
                l(4) =   1
     Q(r) pseudized with 0 coefficients

     atomic species   valence    mass     pseudopotential
        Sr            10.00    87.62000     Sr( 1.00)
        Te             6.00   127.60000     Te( 1.00)
        O              6.00    15.99900     O ( 1.00)

      4 Sym. Ops., with inversion, found ( 2 have fractional translation)

                                    s                        frac. trans.

      isym =  1     identity

 cryst.   s( 1) = (     1          0          0      )
                  (     0          1          0      )
                  (     0          0          1      )

 cart.    s( 1) = (  1.0000000  0.0000000  0.0000000 )
                  (  0.0000000  1.0000000  0.0000000 )
                  (  0.0000000  0.0000000  1.0000000 )

      isym =  2     180 deg rotation - cart. axis [1,0,0]

 cryst.   s( 2) = (     1          0          0      )    f =(  0.5000000 )
                  (     0         -1          0      )       ( -0.0000000 )
                  (     0          0         -1      )       ( -0.5000000 )

 cart.    s( 2) = (  1.0000000  0.0000000  0.0000000 )    f =(  0.5000000 )
                  (  0.0000000 -1.0000000  0.0000000 )       ( -0.4823719 )
                  (  0.0000000  0.0000000 -1.0000000 )       ( -0.6913876 )

      isym =  3     inversion

 cryst.   s( 3) = (    -1          0          0      )
                  (     0         -1          0      )
                  (     0          0         -1      )

 cart.    s( 3) = ( -1.0000000  0.0000000  0.0000000 )
                  (  0.0000000 -1.0000000  0.0000000 )
                  (  0.0000000  0.0000000 -1.0000000 )

      isym =  4     inv. 180 deg rotation - cart. axis [1,0,0]

 cryst.   s( 4) = (    -1          0          0      )    f =(  0.5000000 )
                  (     0          1          0      )       ( -0.0000000 )
                  (     0          0          1      )       ( -0.5000000 )

 cart.    s( 4) = ( -1.0000000  0.0000000  0.0000000 )    f =(  0.5000000 )
                  (  0.0000000  1.0000000  0.0000000 )       ( -0.4823719 )
                  (  0.0000000  0.0000000  1.0000000 )       ( -0.6913876 )

   Cartesian axes

     site n.     atom                  positions (alat units)
         1           Sr  tau(   1) = (   0.5000000   0.9644307   0.6913876  )
         2           Sr  tau(   2) = (   0.9519120   0.9508985   0.3511807  )
         3           Sr  tau(   3) = (   0.4519120   0.4955909   0.3402070  )
         4           Sr  tau(   4) = (   0.0000000   0.4820587   0.0000000  )
         5           Sr  tau(   5) = (   0.5480880   1.4332704   1.0425683  )
         6           Sr  tau(   6) = (   0.0480880   0.9779629   1.0315946  )
         7           Te  tau(   7) = (   0.5000000   0.0000000   0.0000000  )
         8           Te  tau(   8) = (   0.0000000   0.4823719   0.6913876  )
         9           O   tau(   9) = (   0.4515990   0.8677473   1.0815003  )
        10           O   tau(  10) = (   0.2378200   0.8009464   0.0893715  )
        11           O   tau(  11) = (   0.1770450   0.7411779   0.6322588  )
        12           O   tau(  12) = (   0.6770450   0.7053115   0.0591289  )
        13           O   tau(  13) = (   0.7378200   0.6455430   0.6020161  )
        14           O   tau(  14) = (   0.9515990   1.5434859   0.9926626  )
        15           O   tau(  15) = (   0.0484010   0.3853754   0.3901127  )
        16           O   tau(  16) = (   0.2621800   1.2833183   0.7807592  )
        17           O   tau(  17) = (   0.3229550   1.2235498   1.3236464  )
        18           O   tau(  18) = (   0.8229550   1.1876834   0.7505165  )
        19           O   tau(  19) = (   0.7621800   1.1279150   1.2934037  )
        20           O   tau(  20) = (   0.5484010   1.0611140   0.3012749  )

   Crystallographic axes

     site n.     atom                  positions (cryst. coord.)
         1           Sr  tau(   1) = (  0.5000000  0.5000000  0.5000000  )
         2           Sr  tau(   2) = (  0.9519120  0.7321560  0.2539680  )
         3           Sr  tau(   3) = (  0.4519120  0.2678440  0.2460320  )
         4           Sr  tau(   4) = (  0.0000000  0.5000000  0.0000000  )
         5           Sr  tau(   5) = (  0.5480880  0.7321560  0.7539680  )
         6           Sr  tau(   6) = (  0.0480880  0.2678440  0.7460320  )
         7           Te  tau(   7) = (  0.5000000  0.0000000  0.0000000  )
         8           Te  tau(   8) = (  0.0000000  0.0000000  0.5000000  )
         9           O   tau(   9) = (  0.4515990  0.1174120  0.7821230  )
        10           O   tau(  10) = (  0.2378200  0.7660820  0.0646320  )
        11           O   tau(  11) = (  0.1770450  0.3112270  0.4572390  )
        12           O   tau(  12) = (  0.6770450  0.6887730  0.0427610  )
        13           O   tau(  13) = (  0.7378200  0.2339180  0.4353680  )
        14           O   tau(  14) = (  0.9515990  0.8825880  0.7178770  )
        15           O   tau(  15) = (  0.0484010  0.1174120  0.2821230  )
        16           O   tau(  16) = (  0.2621800  0.7660820  0.5646320  )
        17           O   tau(  17) = (  0.3229550  0.3112270  0.9572390  )
        18           O   tau(  18) = (  0.8229550  0.6887730  0.5427610  )
        19           O   tau(  19) = (  0.7621800  0.2339180  0.9353680  )
        20           O   tau(  20) = (  0.5484010  0.8825880  0.2178770  )

     number of k points=    10
                       cart. coord. in units 2pi/alat
        k(    1) = (   0.0000000   0.0000000   0.0000000), wk =   0.0740741
        k(    2) = (   0.0000000   0.0000000   0.2410611), wk =   0.1481481
        k(    3) = (   0.0000000   0.3457393  -0.2412177), wk =   0.1481481
        k(    4) = (   0.0000000   0.3457393  -0.0001566), wk =   0.1481481
        k(    5) = (   0.0000000   0.3457393  -0.4822788), wk =   0.1481481
        k(    6) = (   0.3333333   0.0000000   0.0000000), wk =   0.1481481
        k(    7) = (   0.3333333   0.0000000   0.2410611), wk =   0.2962963
        k(    8) = (   0.3333333   0.3457393  -0.2412177), wk =   0.2962963
        k(    9) = (   0.3333333   0.3457393  -0.0001566), wk =   0.2962963
        k(   10) = (   0.3333333   0.3457393  -0.4822788), wk =   0.2962963

                       cryst. coord.
        k(    1) = (   0.0000000   0.0000000   0.0000000), wk =   0.0740741
        k(    2) = (   0.0000000   0.0000000   0.3333333), wk =   0.1481481
        k(    3) = (   0.0000000   0.3333333   0.0000000), wk =   0.1481481
        k(    4) = (   0.0000000   0.3333333   0.3333333), wk =   0.1481481
        k(    5) = (   0.0000000   0.3333333  -0.3333333), wk =   0.1481481
        k(    6) = (   0.3333333   0.0000000   0.0000000), wk =   0.1481481
        k(    7) = (   0.3333333   0.0000000   0.3333333), wk =   0.2962963
        k(    8) = (   0.3333333   0.3333333   0.0000000), wk =   0.2962963
        k(    9) = (   0.3333333   0.3333333   0.3333333), wk =   0.2962963
        k(   10) = (   0.3333333   0.3333333  -0.3333333), wk =   0.2962963

     Check: negative core charge=   -0.000009

     Initial potential from superposition of free atoms

     starting charge     143.7976, renormalised to     144.0000

     negative rho (up, down):  3.802E-01 0.000E+00
     Starting wfcs are  134 randomized atomic wfcs +  122 random wfcs
     Checking if some PAW data can be deallocated...

     Self-consistent Calculation

     iteration #  1     ecut=    30.00 Ry     beta= 0.70
     Davidson diagonalization with overlap

     ethr =  1.00E-02,  avg # of iterations =  8.0

     negative rho (up, down):  3.878E-01 0.000E+00

     total energy              =    -972.11287161 Ry
     estimated scf accuracy    <       5.41251304 Ry

[...]

     total energy              =    -974.63075362 Ry
     estimated scf accuracy    <       0.00000809 Ry

     iteration #  8     ecut=    30.00 Ry     beta= 0.70
     Davidson diagonalization with overlap

     ethr =  5.62E-09,  avg # of iterations =  3.0

     negative rho (up, down):  4.002E-01 0.000E+00

     End of self-consistent calculation

          k = 0.0000 0.0000 0.0000 (  5727 PWs)   bands (ev):

   -25.2449 -25.2269 -25.2165 -25.2106 -24.9237 -24.9123 -11.5273 -11.4382
   -10.0336 -10.0169  -9.7595  -9.7310  -9.6014  -9.5771  -9.1159  -9.1115
    -8.8510  -8.8072  -7.4015  -7.3652  -7.3283  -7.2986  -7.2933  -7.2755
    -7.2569  -7.1149  -7.0206  -6.9725  -6.8564  -6.8470  -6.8244  -6.8222
    -6.7007  -6.6938  -6.6802  -6.6406  -1.7125  -1.5463   2.7636   2.8678
     2.8708   2.9427   2.9515   3.0367   4.2548   4.7151   4.8070   4.8887
     4.9651   5.1261   5.2762   5.2928   5.5402   5.6065   5.8135   6.0157
     6.1898   6.2393   6.3740   6.4674   6.5464   6.5857   6.6395   6.6648
     6.7117   6.7137   6.7464   6.7581   6.8334   6.9131   6.9138   7.1033
    10.2487  10.5540  13.2136  13.3975  13.5331  13.7135  13.7386  13.8746
    13.8991  13.9674  13.9995  14.0894  14.1568  14.6624  14.7244  14.8543
    14.9125  15.0148  15.1991  15.6629  15.7960  16.0350  16.1877  16.4092
    16.4369  16.5332  16.5394  16.5524  16.8101  16.9415  17.0445  17.2720
    17.3182  17.3607  17.4172  17.4342  17.5196  17.8392  17.8741  17.9565
    18.1047  18.4496  18.9175  19.1017  19.1679  20.2231  20.4074  20.5662
    20.5807  20.8908  21.1653  21.3149  21.3447  21.3574  22.0452  22.0996
    22.1512  22.2640  22.7417  22.8266  22.9100  23.0787  23.0992  23.3545
    23.8299  24.2779  24.6289  25.0924  25.0984  25.3825  25.6410  25.8393
    26.1849  26.2121  26.5521  27.0003  27.1323  27.2842  27.5252  27.5723
    27.6396  27.6630  28.2261  28.2879  28.3776  28.5122  28.8516  28.9575
    28.9949  29.3908  29.6165  29.7170  29.7529  30.0180  30.1724  30.2215
    30.2348  30.5572  30.6510  30.8357  31.0669  31.3675  31.7944  31.8570
    31.8978  32.0198  32.1196  32.3634  32.3817  32.5372  32.5646  32.7430
    33.0758  33.1665  33.4145  33.7841  33.9344  33.9811  34.1209  34.1830
    34.3153  34.3650  34.3867  34.4884  34.5601  34.9037  35.2192  35.2958
    35.5121  35.8604  35.9376  36.0393  36.3144  36.3560  36.5742  36.6975
    36.8176  37.2012  37.2560  37.4146  37.4266  37.5339  37.5952  37.6712
    37.7062  37.9882  38.1430  38.1976  38.3421  38.3843  38.6215  38.7529
    38.8224  39.1111  39.3357  39.4122  39.5291  39.8060  39.8456  39.8863
    40.0786  40.2732  40.3724  40.4536  40.6414  40.8470  40.8515  41.1787
    41.3478  41.4958  41.6699  41.7668  42.1034  42.1297  42.1673  42.3179
    42.4236  42.6481  42.8374  42.8953  42.9979  43.0296  43.2074  43.2573

     occupation numbers
     1.0000   1.0000   1.0000   1.0000   1.0000   1.0000   1.0000   1.0000
     1.0000   1.0000   1.0000   1.0000   1.0000   1.0000   1.0000   1.0000
     1.0000   1.0000   1.0000   1.0000   1.0000   1.0000   1.0000   1.0000
     1.0000   1.0000   1.0000   1.0000   1.0000   1.0000   1.0000   1.0000
     1.0000   1.0000   1.0000   1.0000   1.0000   1.0000   1.0000   1.0000
     1.0000   1.0000   1.0000   1.0000   1.0000   1.0000   1.0000   1.0000
     1.0000   1.0000   1.0000   1.0000   1.0000   1.0000   1.0000   1.0000
     1.0000   1.0000   1.0000   1.0000   1.0000   1.0000   1.0000   1.0000
     1.0000   1.0000   1.0000   1.0000   1.0000   1.0000   1.0000   1.0000
     0.0000   0.0000   0.0000   0.0000   0.0000   0.0000   0.0000   0.0000
     0.0000   0.0000   0.0000   0.0000   0.0000   0.0000   0.0000   0.0000
     0.0000   0.0000   0.0000   0.0000   0.0000   0.0000   0.0000   0.0000
     0.0000   0.0000   0.0000   0.0000   0.0000   0.0000   0.0000   0.0000
     0.0000   0.0000   0.0000   0.0000   0.0000   0.0000   0.0000   0.0000
     0.0000   0.0000   0.0000   0.0000   0.0000   0.0000   0.0000   0.0000
     0.0000   0.0000   0.0000   0.0000   0.0000   0.0000   0.0000   0.0000
     0.0000   0.0000   0.0000   0.0000   0.0000   0.0000   0.0000   0.0000
     0.0000   0.0000   0.0000   0.0000   0.0000   0.0000   0.0000   0.0000
     0.0000   0.0000   0.0000   0.0000   0.0000   0.0000   0.0000   0.0000
     0.0000   0.0000   0.0000   0.0000   0.0000   0.0000   0.0000   0.0000
     0.0000   0.0000   0.0000   0.0000   0.0000   0.0000   0.0000   0.0000
     0.0000   0.0000   0.0000   0.0000   0.0000   0.0000   0.0000   0.0000
     0.0000   0.0000   0.0000   0.0000   0.0000   0.0000   0.0000   0.0000
     0.0000   0.0000   0.0000   0.0000   0.0000   0.0000   0.0000   0.0000
     0.0000   0.0000   0.0000   0.0000   0.0000   0.0000   0.0000   0.0000
     0.0000   0.0000   0.0000   0.0000   0.0000   0.0000   0.0000   0.0000
     0.0000   0.0000   0.0000   0.0000   0.0000   0.0000   0.0000   0.0000
     0.0000   0.0000   0.0000   0.0000   0.0000   0.0000   0.0000   0.0000
     0.0000   0.0000   0.0000   0.0000   0.0000   0.0000   0.0000   0.0000
     0.0000   0.0000   0.0000   0.0000   0.0000   0.0000   0.0000   0.0000
     0.0000   0.0000   0.0000   0.0000   0.0000   0.0000   0.0000   0.0000
     0.0000   0.0000   0.0000   0.0000   0.0000   0.0000   0.0000   0.0000

[...]

          k = 0.3333 0.3457-0.4823 (  5754 PWs)   bands (ev):

   -25.2279 -25.2248 -25.2209 -25.2186 -24.9215 -24.9209 -11.5700 -11.5519
    -9.9286  -9.8074  -9.7772  -9.7444  -9.6820  -9.5679  -9.1494  -9.0201
    -8.9709  -8.8700  -7.3279  -7.3043  -7.2753  -7.2608  -7.2106  -7.2002
    -7.1742  -7.1265  -7.1094  -7.0237  -7.0045  -6.9411  -6.8551  -6.8173
    -6.7711  -6.7090  -6.6281  -6.5711  -1.4148  -1.3731   2.5300   2.5841
     2.6236   2.7156   2.8952   2.9326   4.6128   4.7122   4.8868   4.9948
     5.0654   5.1234   5.3537   5.4183   5.6009   5.6045   5.8813   6.0264
     6.0332   6.0717   6.1422   6.2429   6.2829   6.3552   6.3752   6.4265
     6.4808   6.5606   6.8418   6.8856   6.9636   6.9872   7.1424   7.2352
    10.9877  11.0314  13.2155  13.3985  13.5509  13.6338  13.6741  13.8084
    13.8889  14.0633  14.3126  14.4394  14.4606  14.5730  14.7676  14.8420
    14.9641  15.1085  15.2081  15.3965  15.5924  15.7042  15.8359  15.9874
    16.1419  16.2459  16.2953  16.6731  16.7277  16.8325  16.9978  17.0848
    17.1854  17.2622  17.3542  17.7575  18.0479  18.1239  18.2747  18.4973
    18.5756  18.7128  18.9822  19.0706  19.3024  19.5020  19.7747  20.3563
    20.5503  20.7410  20.9241  21.3330  21.7464  22.0110  22.1806  22.2692
    22.3778  22.5551  22.6464  23.3240  23.3374  23.4821  23.6772  23.8666
    23.9611  24.2241  24.2769  24.6520  24.8177  25.0880  25.1830  25.3606
    25.6376  25.8663  26.1480  26.7409  27.0338  27.0973  27.3374  27.6770
    27.7954  27.9875  28.1882  28.5282  28.6035  28.6426  28.8883  29.0165
    29.2346  29.3322  29.5776  29.8006  29.9680  30.0628  30.2935  30.3738
    30.6025  30.6660  30.9163  31.0351  31.1396  31.2935  31.4744  31.5491
    31.6766  31.7696  31.9124  32.1659  32.3714  32.4762  32.5359  32.6107
    32.8492  33.0979  33.1508  33.4623  33.5044  33.5543  33.8198  33.9544
    34.0630  34.2759  34.3332  34.5970  34.7064  34.8446  35.0529  35.1345
    35.2674  35.6047  35.7395  35.8646  36.0361  36.2118  36.2277  36.4875
    36.6356  36.6860  36.9071  37.1138  37.2075  37.3482  37.5143  37.6576
    37.9526  38.0058  38.1339  38.2647  38.3611  38.5336  38.7852  38.8780
    39.0190  39.1708  39.2042  39.4302  39.5708  39.7655  39.9001  39.9790
    40.0806  40.2931  40.5186  40.6070  40.8375  40.9875  41.0970  41.1860
    41.3881  41.6478  41.7830  41.8808  41.9129  42.1277  42.3558  42.5042
    42.6303  42.7300  42.8148  42.8702  43.0158  43.3343  43.3943  43.5851

     occupation numbers
     1.0000   1.0000   1.0000   1.0000   1.0000   1.0000   1.0000   1.0000
     1.0000   1.0000   1.0000   1.0000   1.0000   1.0000   1.0000   1.0000
     1.0000   1.0000   1.0000   1.0000   1.0000   1.0000   1.0000   1.0000
     1.0000   1.0000   1.0000   1.0000   1.0000   1.0000   1.0000   1.0000
     1.0000   1.0000   1.0000   1.0000   1.0000   1.0000   1.0000   1.0000
     1.0000   1.0000   1.0000   1.0000   1.0000   1.0000   1.0000   1.0000
     1.0000   1.0000   1.0000   1.0000   1.0000   1.0000   1.0000   1.0000
     1.0000   1.0000   1.0000   1.0000   1.0000   1.0000   1.0000   1.0000
     1.0000   1.0000   1.0000   1.0000   1.0000   1.0000   1.0000   1.0000
     0.0000   0.0000   0.0000   0.0000   0.0000   0.0000   0.0000   0.0000
     0.0000   0.0000   0.0000   0.0000   0.0000   0.0000   0.0000   0.0000
     0.0000   0.0000   0.0000   0.0000   0.0000   0.0000   0.0000   0.0000
     0.0000   0.0000   0.0000   0.0000   0.0000   0.0000   0.0000   0.0000
     0.0000   0.0000   0.0000   0.0000   0.0000   0.0000   0.0000   0.0000
     0.0000   0.0000   0.0000   0.0000   0.0000   0.0000   0.0000   0.0000
     0.0000   0.0000   0.0000   0.0000   0.0000   0.0000   0.0000   0.0000
     0.0000   0.0000   0.0000   0.0000   0.0000   0.0000   0.0000   0.0000
     0.0000   0.0000   0.0000   0.0000   0.0000   0.0000   0.0000   0.0000
     0.0000   0.0000   0.0000   0.0000   0.0000   0.0000   0.0000   0.0000
     0.0000   0.0000   0.0000   0.0000   0.0000   0.0000   0.0000   0.0000
     0.0000   0.0000   0.0000   0.0000   0.0000   0.0000   0.0000   0.0000
     0.0000   0.0000   0.0000   0.0000   0.0000   0.0000   0.0000   0.0000
     0.0000   0.0000   0.0000   0.0000   0.0000   0.0000   0.0000   0.0000
     0.0000   0.0000   0.0000   0.0000   0.0000   0.0000   0.0000   0.0000
     0.0000   0.0000   0.0000   0.0000   0.0000   0.0000   0.0000   0.0000
     0.0000   0.0000   0.0000   0.0000   0.0000   0.0000   0.0000   0.0000
     0.0000   0.0000   0.0000   0.0000   0.0000   0.0000   0.0000   0.0000
     0.0000   0.0000   0.0000   0.0000   0.0000   0.0000   0.0000   0.0000
     0.0000   0.0000   0.0000   0.0000   0.0000   0.0000   0.0000   0.0000
     0.0000   0.0000   0.0000   0.0000   0.0000   0.0000   0.0000   0.0000
     0.0000   0.0000   0.0000   0.0000   0.0000   0.0000   0.0000   0.0000
     0.0000   0.0000   0.0000   0.0000   0.0000   0.0000   0.0000   0.0000

     highest occupied, lowest unoccupied level (ev):     7.2447   10.2487

!    total energy              =    -974.63075588 Ry
     estimated scf accuracy    <       0.00000064 Ry

     The total energy is the sum of the following terms:
     one-electron contribution =    -162.68074908 Ry
     hartree contribution      =     165.05637140 Ry
     xc contribution           =    -229.12710533 Ry
     ewald contribution        =    -633.58258826 Ry
     one-center paw contrib.   =    -114.29668462 Ry
      -> PAW hartree energy AE =       0.00000000 Ry
      -> PAW hartree energy PS =       0.00000000 Ry
      -> PAW xc energy AE      =       0.00000000 Ry
      -> PAW xc energy PS      =       0.00000000 Ry
      -> total E_H with PAW    =     165.05637140 Ry
      -> total E_XC with PAW   =    -229.12710533 Ry

     convergence has been achieved in   8 iterations

     Writing all to output data dir bands_nm/myprefix.save/

     General routines

     Parallel routines

     PAW routines

   This run was terminated on:  21:14:18  15Jul2023

   JOB DONE.