     Program PWSCF v.7.1 starts on 12Jul2023 at 15:12:57

     Reading input from espresso_22392.pwi
Warning: card &CELL ignored
Warning: card / ignored

     Current dimensions of program PWSCF are:
     Max number of different atomic species (ntypx) = 10
     Max number of k-points (npk) =  40000
     Max angular momentum in pseudopotentials (lmaxx) =  4
     file In.pbe-dn-rrkjus_psl.0.2.2.UPF: wavefunction(s)  5S renormalized
     file O.pbe-n-kjpaw_psl.0.1.UPF: wavefunction(s)  2P renormalized
     Message from routine setup:
     using ibrav=0 with symmetry is DISCOURAGED, use correct ibrav instead

     K-points division:     npool     =       2
     R & G space division:  proc/nbgrp/npool/nimage =       8
     Subspace diagonalization in iterative solution of the eigenvalue problem:
     a serial algorithm will be used

     Using Slab Decomposition

     bravais-lattice index     =            0
     lattice parameter (alat)  =      11.1105  a.u.
     unit-cell volume          =     896.3684 (a.u.)^3
     number of atoms/cell      =           10
     number of atomic types    =            2
     number of electrons       =        88.00
     number of Kohn-Sham states=           64
     kinetic-energy cutoff     =      30.0000  Ry
     charge density cutoff     =     240.0000  Ry
     scf convergence threshold =      1.0E-06
     mixing beta               =       0.7000
     number of iterations used =            8  plain     mixing
     Exchange-correlation= SLA  PW   PBX  PBC
                           (   1   4   3   4   0   0   0)

     celldm(1)=  11.110468  celldm(2)=   0.000000  celldm(3)=   0.000000
     celldm(4)=   0.000000  celldm(5)=   0.000000  celldm(6)=   0.000000

     crystal axes: (cart. coord. in units of alat)
               a(1) = (   1.000000   0.000000   0.000000 )
               a(2) = (   0.548722   0.836005   0.000000 )
               a(3) = (   0.548722   0.296202   0.781773 )

     reciprocal axes: (cart. coord. in units 2 pi/alat)
               b(1) = (  1.000000 -0.656362 -0.453209 )
               b(2) = (  0.000000  1.196165 -0.453209 )
               b(3) = (  0.000000  0.000000  1.279144 )

     PseudoPot. # 1 for In read from file:
     /lustre07/scratch/pragov/crystal_structure_design/utils/SSSP/In.pbe-dn-rrkjus_psl.0.2.2.UPF
     MD5 check sum: 25e7c42c3b55b68f4bf926be2e7201a4
     Pseudo is Ultrasoft + core correction, Zval = 13.0
     Generated using "atomic" code by A. Dal Corso  v.5.0.99 svn rev. 10869
     Using radial grid of 1241 points,  6 beta functions with:
                l(1) =   0
                l(2) =   0
                l(3) =   1
                l(4) =   1
                l(5) =   2
                l(6) =   2
     Q(r) pseudized with 0 coefficients

     PseudoPot. # 2 for O  read from file:
     /lustre07/scratch/pragov/crystal_structure_design/utils/SSSP/O.pbe-n-kjpaw_psl.0.1.UPF
     MD5 check sum: 0234752ac141de4415c5fc33072bef88
     Pseudo is Projector augmented-wave + core cor, Zval =  6.0
     Generated using "atomic" code by A. Dal Corso  v.5.0.99 svn rev. 10869
     Shape of augmentation charge: BESSEL
     Using radial grid of 1095 points,  4 beta functions with:
                l(1) =   0
                l(2) =   0
                l(3) =   1
                l(4) =   1
     Q(r) pseudized with 0 coefficients

     atomic species   valence    mass     pseudopotential
        In            13.00   114.81800     In( 1.00)
        O              6.00    15.99900     O ( 1.00)

      2 Sym. Ops., with inversion, found

                                    s                        frac. trans.

      isym =  1     identity

 cryst.   s( 1) = (     1          0          0      )
                  (     0          1          0      )
                  (     0          0          1      )

 cart.    s( 1) = (  1.0000000  0.0000000  0.0000000 )
                  (  0.0000000  1.0000000  0.0000000 )
                  (  0.0000000  0.0000000  1.0000000 )

      isym =  2     inversion

 cryst.   s( 2) = (    -1          0          0      )
                  (     0         -1          0      )
                  (     0          0         -1      )

 cart.    s( 2) = ( -1.0000000  0.0000000 -0.0000000 )
                  (  0.0000000 -1.0000000  0.0000000 )
                  (  0.0000000  0.0000000 -1.0000000 )

   Cartesian axes

     site n.     atom                  positions (alat units)
         1           In  tau(   1) = (   0.2994835   0.1616621   0.1116255  )
         2           In  tau(   2) = (   0.7492384   0.4044412   0.2792610  )
         3           In  tau(   3) = (   1.3482054   0.7277655   0.5025120  )
         4           In  tau(   4) = (   1.7979602   0.9705446   0.6701475  )
         5           O   tau(   5) = (   1.3904572   0.3709410   0.4274117  )
         6           O   tau(   6) = (   1.0243609   0.3927823   0.0365252  )
         7           O   tau(   7) = (   0.8904572   0.2612103   0.5863297  )
         8           O   tau(   8) = (   1.2069865   0.8709964   0.1954432  )
         9           O   tau(   9) = (   0.7069865   0.7612658   0.3543613  )
        10           O   tau(  10) = (   1.0730828   0.7394244   0.7452478  )

   Crystallographic axes

     site n.     atom                  positions (cryst. coord.)
         1           In  tau(   1) = (  0.1427850  0.1427850  0.1427850  )
         2           In  tau(   2) = (  0.3572150  0.3572150  0.3572150  )
         3           In  tau(   3) = (  0.6427850  0.6427850  0.6427850  )
         4           In  tau(   4) = (  0.8572150  0.8572150  0.8572150  )
         5           O   tau(   5) = (  0.9532790  0.2500000  0.5467210  )
         6           O   tau(   6) = (  0.7500000  0.4532790  0.0467210  )
         7           O   tau(   7) = (  0.4532790  0.0467210  0.7500000  )
         8           O   tau(   8) = (  0.5467210  0.9532790  0.2500000  )
         9           O   tau(   9) = (  0.0467210  0.7500000  0.4532790  )
        10           O   tau(  10) = (  0.2500000  0.5467210  0.9532790  )

     number of k points=    14
                       cart. coord. in units 2pi/alat
        k(    1) = (   0.0000000   0.0000000   0.0000000), wk =   0.0740741
        k(    2) = (   0.0000000   0.0000000   0.4263812), wk =   0.1481481
        k(    3) = (   0.0000000   0.3987217  -0.1510695), wk =   0.1481481
        k(    4) = (   0.0000000   0.3987217   0.2753117), wk =   0.1481481
        k(    5) = (   0.0000000   0.3987217  -0.5774508), wk =   0.1481481
        k(    6) = (   0.3333333  -0.2187873  -0.1510695), wk =   0.1481481
        k(    7) = (   0.3333333  -0.2187873   0.2753117), wk =   0.1481481
        k(    8) = (   0.3333333  -0.2187873  -0.5774508), wk =   0.1481481
        k(    9) = (   0.3333333   0.1799344  -0.3021391), wk =   0.1481481
        k(   10) = (   0.3333333   0.1799344   0.1242421), wk =   0.1481481
        k(   11) = (   0.3333333   0.1799344  -0.7285203), wk =   0.1481481
        k(   12) = (   0.3333333  -0.6175090  -0.0000000), wk =   0.1481481
        k(   13) = (   0.3333333  -0.6175090   0.4263812), wk =   0.1481481
        k(   14) = (   0.3333333  -0.6175090  -0.4263812), wk =   0.1481481

                       cryst. coord.
        k(    1) = (   0.0000000   0.0000000   0.0000000), wk =   0.0740741
        k(    2) = (   0.0000000   0.0000000   0.3333333), wk =   0.1481481
        k(    3) = (   0.0000000   0.3333333   0.0000000), wk =   0.1481481
        k(    4) = (   0.0000000   0.3333333   0.3333333), wk =   0.1481481
        k(    5) = (   0.0000000   0.3333333  -0.3333333), wk =   0.1481481
        k(    6) = (   0.3333333   0.0000000   0.0000000), wk =   0.1481481
        k(    7) = (   0.3333333   0.0000000   0.3333333), wk =   0.1481481
        k(    8) = (   0.3333333   0.0000000  -0.3333333), wk =   0.1481481
        k(    9) = (   0.3333333   0.3333333   0.0000000), wk =   0.1481481
        k(   10) = (   0.3333333   0.3333333   0.3333333), wk =   0.1481481
        k(   11) = (   0.3333333   0.3333333  -0.3333333), wk =   0.1481481
        k(   12) = (   0.3333333  -0.3333333   0.0000000), wk =   0.1481481
        k(   13) = (   0.3333333  -0.3333333   0.3333333), wk =   0.1481481
        k(   14) = (   0.3333333  -0.3333333  -0.3333333), wk =   0.1481481

     Check: negative core charge=   -0.000008

     Initial potential from superposition of free atoms

     starting charge      87.9851, renormalised to      88.0000
     Starting wfcs are   60 randomized atomic wfcs +    4 random wfcs
     Checking if some PAW data can be deallocated...

     Self-consistent Calculation

     iteration #  1     ecut=    30.00 Ry     beta= 0.70
     Davidson diagonalization with overlap

     ethr =  1.00E-02,  avg # of iterations =  6.9

     total energy              =    -827.98740868 Ry
     estimated scf accuracy    <       2.38691015 Ry

[...]

     total energy              =    -829.21188833 Ry
     estimated scf accuracy    <       0.00000133 Ry

     iteration #  9     ecut=    30.00 Ry     beta= 0.70
     Davidson diagonalization with overlap

     ethr =  1.51E-09,  avg # of iterations =  2.0

     End of self-consistent calculation

          k = 0.0000 0.0000 0.0000 (  2489 PWs)   bands (ev):

    -9.3448  -8.5419  -8.5413  -8.3646  -8.3640  -8.2835  -4.2576  -4.2576
    -4.1306  -4.1223  -4.1223  -4.0029  -3.9899  -3.9899  -3.9539  -3.9539
    -3.9134  -3.9134  -3.8201  -3.8131  -3.8131  -3.7983  -3.5552  -3.5552
    -2.9370  -2.9369   2.6473   3.0173   4.2755   4.2758   4.9763   5.2197
     5.6211   5.6212   5.8358   7.4078   7.4082   7.7072   7.7872   7.7878
     7.8936   7.8937   8.0075   8.0079   8.9753  13.4074  13.9391  15.0776
    16.9222  16.9646  16.9648  17.4239  17.7658  17.7658  18.2385  18.6641
    18.6643  20.0818  20.0819  20.2574  22.4239  22.4240  23.4538  24.9791

     occupation numbers
     1.0000   1.0000   1.0000   1.0000   1.0000   1.0000   1.0000   1.0000
     1.0000   1.0000   1.0000   1.0000   1.0000   1.0000   1.0000   1.0000
     1.0000   1.0000   1.0000   1.0000   1.0000   1.0000   1.0000   1.0000
     1.0000   1.0000   1.0000   1.0000   1.0000   1.0000   1.0000   1.0000
     1.0000   1.0000   1.0000   1.0000   1.0000   1.0000   1.0000   1.0000
     1.0000   1.0000   1.0000   1.0000   0.0000   0.0000   0.0000   0.0000
     0.0000   0.0000   0.0000   0.0000   0.0000   0.0000   0.0000   0.0000
     0.0000   0.0000   0.0000   0.0000   0.0000   0.0000   0.0000   0.0000

[...]

          k = 0.3333-0.6175-0.4264 (  2476 PWs)   bands (ev):

    -8.8398  -8.8115  -8.5550  -8.4716  -8.4194  -8.3527  -4.2153  -4.1683
    -4.1602  -4.1022  -4.0961  -4.0846  -4.0307  -4.0195  -4.0075  -3.9058
    -3.8882  -3.8735  -3.8680  -3.7986  -3.7519  -3.7514  -3.7192  -3.6565
    -3.1031  -2.9830   3.3015   3.7031   3.9759   4.2864   5.1787   5.2564
     5.6882   6.1425   6.3635   6.5177   6.7253   6.9562   7.2968   7.3660
     7.6625   7.7225   7.8583   7.9956  12.8222  13.2443  13.8187  14.3151
    15.0708  16.4062  16.9017  17.0774  18.2846  18.4178  19.2394  19.2900
    19.6733  20.0602  20.1498  20.6075  21.6830  21.7160  22.2653  22.8491

     occupation numbers
     1.0000   1.0000   1.0000   1.0000   1.0000   1.0000   1.0000   1.0000
     1.0000   1.0000   1.0000   1.0000   1.0000   1.0000   1.0000   1.0000
     1.0000   1.0000   1.0000   1.0000   1.0000   1.0000   1.0000   1.0000
     1.0000   1.0000   1.0000   1.0000   1.0000   1.0000   1.0000   1.0000
     1.0000   1.0000   1.0000   1.0000   1.0000   1.0000   1.0000   1.0000
     1.0000   1.0000   1.0000   1.0000   0.0000   0.0000   0.0000   0.0000
     0.0000   0.0000   0.0000   0.0000   0.0000   0.0000   0.0000   0.0000
     0.0000   0.0000   0.0000   0.0000   0.0000   0.0000   0.0000   0.0000

     highest occupied, lowest unoccupied level (ev):     8.1226    8.9753

!    total energy              =    -829.21188851 Ry
     estimated scf accuracy    <       0.00000009 Ry

     The total energy is the sum of the following terms:
     one-electron contribution =    -202.17077022 Ry
     hartree contribution      =     179.37233089 Ry
     xc contribution           =    -235.72963031 Ry
     ewald contribution        =    -513.52344633 Ry
     one-center paw contrib.   =     -57.16037255 Ry
      -> PAW hartree energy AE =       0.00000000 Ry
      -> PAW hartree energy PS =       0.00000000 Ry
      -> PAW xc energy AE      =       0.00000000 Ry
      -> PAW xc energy PS      =       0.00000000 Ry
      -> total E_H with PAW    =     179.37233089 Ry
      -> total E_XC with PAW   =    -235.72963031 Ry

     convergence has been achieved in   9 iterations

     Writing all to output data dir bands_nm/myprefix.save/

     General routines

     Parallel routines

     PAW routines

   This run was terminated on:  15:13: 6  12Jul2023

   JOB DONE.