     Program PWSCF v.7.1 starts on 14Jul2023 at  2:13:33

     Reading input from espresso_6945.pwi
Warning: card &CELL ignored
Warning: card / ignored

     Current dimensions of program PWSCF are:
     Max number of different atomic species (ntypx) = 10
     Max number of k-points (npk) =  40000
     Max angular momentum in pseudopotentials (lmaxx) =  4
     file O.pbe-n-kjpaw_psl.0.1.UPF: wavefunction(s)  2P renormalized
     Message from routine setup:
     using ibrav=0 with symmetry is DISCOURAGED, use correct ibrav instead

     K-points division:     npool     =       2
     R & G space division:  proc/nbgrp/npool/nimage =       4
     Subspace diagonalization in iterative solution of the eigenvalue problem:
     a serial algorithm will be used

     Using Slab Decomposition

     bravais-lattice index     =            0
     lattice parameter (alat)  =      10.6788  a.u.
     unit-cell volume          =     843.8264 (a.u.)^3
     number of atoms/cell      =           10
     number of atomic types    =            3
     number of electrons       =       100.00
     number of Kohn-Sham states=           64
     kinetic-energy cutoff     =      30.0000  Ry
     charge density cutoff     =     240.0000  Ry
     scf convergence threshold =      1.0E-06
     mixing beta               =       0.7000
     number of iterations used =            8  plain     mixing
     Exchange-correlation= SLA  PW   PBX  PBC
                           (   1   4   3   4   0   0   0)

     celldm(1)=  10.678795  celldm(2)=   0.000000  celldm(3)=   0.000000
     celldm(4)=   0.000000  celldm(5)=   0.000000  celldm(6)=   0.000000

     crystal axes: (cart. coord. in units of alat)
               a(1) = (   1.000000   0.000000   0.000000 )
               a(2) = (   0.513240   0.858245   0.000000 )
               a(3) = (   0.513240   0.291088   0.807374 )

     reciprocal axes: (cart. coord. in units 2 pi/alat)
               b(1) = (  1.000000 -0.598010 -0.420085 )
               b(2) = (  0.000000  1.165168 -0.420085 )
               b(3) = (  0.000000  0.000000  1.238583 )

     PseudoPot. # 1 for Ta read from file:
     /lustre07/scratch/pragov/crystal_structure_design/utils/SSSP/Ta_pbe_v1.uspp.F.UPF
     MD5 check sum: f8bbe9446314a3b8ea5d9f3e3836c939
     Pseudo is Ultrasoft + core correction, Zval = 13.0
     Generated by new atomic code, or converted to UPF format
     Using radial grid of  921 points,  7 beta functions with:
                l(1) =   0
                l(2) =   0
                l(3) =   1
                l(4) =   1
                l(5) =   2
                l(6) =   2
                l(7) =   3
     Q(r) pseudized with  6 coefficients,  rinner =    1.300   1.300   1.300
                                                       1.300   1.300   1.300
                                                       1.300

     PseudoPot. # 2 for Ag read from file:
     /lustre07/scratch/pragov/crystal_structure_design/utils/SSSP/Ag_ONCV_PBE-1.0.oncvpsp.upf
     MD5 check sum: 94f47bd0669c641108e45594df92fabc
     Pseudo is Norm-conserving, Zval = 19.0
     Generated using ONCVPSP code by D. R. Hamann
     Using radial grid of 1398 points,  6 beta functions with:
                l(1) =   0
                l(2) =   0
                l(3) =   1
                l(4) =   1
                l(5) =   2
                l(6) =   2

     PseudoPot. # 3 for O  read from file:
     /lustre07/scratch/pragov/crystal_structure_design/utils/SSSP/O.pbe-n-kjpaw_psl.0.1.UPF
     MD5 check sum: 0234752ac141de4415c5fc33072bef88
     Pseudo is Projector augmented-wave + core cor, Zval =  6.0
     Generated using "atomic" code by A. Dal Corso  v.5.0.99 svn rev. 10869
     Shape of augmentation charge: BESSEL
     Using radial grid of 1095 points,  4 beta functions with:
                l(1) =   0
                l(2) =   0
                l(3) =   1
                l(4) =   1
     Q(r) pseudized with 0 coefficients

     atomic species   valence    mass     pseudopotential
        Ta            13.00   180.94788     Ta( 1.00)
        Ag            19.00   107.86820     Ag( 1.00)
        O              6.00    15.99900     O ( 1.00)

      2 Sym. Ops., with inversion, found

                                    s                        frac. trans.

      isym =  1     identity

 cryst.   s( 1) = (     1          0          0      )
                  (     0          1          0      )
                  (     0          0          1      )

 cart.    s( 1) = (  1.0000000  0.0000000  0.0000000 )
                  (  0.0000000  1.0000000  0.0000000 )
                  (  0.0000000  0.0000000  1.0000000 )

      isym =  2     inversion

 cryst.   s( 2) = (    -1          0          0      )
                  (     0         -1          0      )
                  (     0          0         -1      )

 cart.    s( 2) = ( -1.0000000  0.0000000  0.0000000 )
                  (  0.0000000 -1.0000000  0.0000000 )
                  (  0.0000000  0.0000000 -1.0000000 )

   Cartesian axes

     site n.     atom                  positions (alat units)
         1           Ta  tau(   1) = (   0.0000000   0.0000000   0.0000000  )
         2           Ta  tau(   2) = (   1.0132396   0.5746665   0.4036872  )
         3           Ag  tau(   3) = (   0.5066198   0.2873333   0.2018436  )
         4           Ag  tau(   4) = (   1.5198594   0.8619998   0.6055308  )
         5           O   tau(   5) = (   1.0066198   0.3193924   0.1562059  )
         6           O   tau(   6) = (   0.7357250   0.7329100   0.2474812  )
         7           O   tau(   7) = (   0.7907542   0.3843640   0.6055308  )
         8           O   tau(   8) = (   1.0198594   0.8299407   0.6511684  )
         9           O   tau(   9) = (   1.2357250   0.7649691   0.2018436  )
        10           O   tau(  10) = (   1.2907542   0.4164231   0.5598931  )

   Crystallographic axes

     site n.     atom                  positions (cryst. coord.)
         1           Ta  tau(   1) = (  0.0000000  0.0000000  0.0000000  )
         2           Ta  tau(   2) = (  0.5000000  0.5000000  0.5000000  )
         3           Ag  tau(   3) = (  0.2500000  0.2500000  0.2500000  )
         4           Ag  tau(   4) = (  0.7500000  0.7500000  0.7500000  )
         5           O   tau(   5) = (  0.7500000  0.3065260  0.1934740  )
         6           O   tau(   6) = (  0.1934740  0.7500000  0.3065260  )
         7           O   tau(   7) = (  0.3065260  0.1934740  0.7500000  )
         8           O   tau(   8) = (  0.2500000  0.6934740  0.8065260  )
         9           O   tau(   9) = (  0.6934740  0.8065260  0.2500000  )
        10           O   tau(  10) = (  0.8065260  0.2500000  0.6934740  )

     number of k points=    14
                       cart. coord. in units 2pi/alat
        k(    1) = (   0.0000000   0.0000000   0.0000000), wk =   0.0740741
        k(    2) = (   0.0000000   0.0000000   0.4128609), wk =   0.1481481
        k(    3) = (   0.0000000   0.3883893  -0.1400284), wk =   0.1481481
        k(    4) = (   0.0000000   0.3883893   0.2728325), wk =   0.1481481
        k(    5) = (   0.0000000   0.3883893  -0.5528894), wk =   0.1481481
        k(    6) = (   0.3333333  -0.1993368  -0.1400284), wk =   0.1481481
        k(    7) = (   0.3333333  -0.1993368   0.2728325), wk =   0.1481481
        k(    8) = (   0.3333333  -0.1993368  -0.5528894), wk =   0.1481481
        k(    9) = (   0.3333333   0.1890525  -0.2800569), wk =   0.1481481
        k(   10) = (   0.3333333   0.1890525   0.1328041), wk =   0.1481481
        k(   11) = (   0.3333333   0.1890525  -0.6929178), wk =   0.1481481
        k(   12) = (   0.3333333  -0.5877261   0.0000000), wk =   0.1481481
        k(   13) = (   0.3333333  -0.5877261   0.4128609), wk =   0.1481481
        k(   14) = (   0.3333333  -0.5877261  -0.4128609), wk =   0.1481481

                       cryst. coord.
        k(    1) = (   0.0000000   0.0000000   0.0000000), wk =   0.0740741
        k(    2) = (   0.0000000   0.0000000   0.3333333), wk =   0.1481481
        k(    3) = (   0.0000000   0.3333333   0.0000000), wk =   0.1481481
        k(    4) = (   0.0000000   0.3333333   0.3333333), wk =   0.1481481
        k(    5) = (   0.0000000   0.3333333  -0.3333333), wk =   0.1481481
        k(    6) = (   0.3333333  -0.0000000  -0.0000000), wk =   0.1481481
        k(    7) = (   0.3333333  -0.0000000   0.3333333), wk =   0.1481481
        k(    8) = (   0.3333333  -0.0000000  -0.3333333), wk =   0.1481481
        k(    9) = (   0.3333333   0.3333333  -0.0000000), wk =   0.1481481
        k(   10) = (   0.3333333   0.3333333   0.3333333), wk =   0.1481481
        k(   11) = (   0.3333333   0.3333333  -0.3333333), wk =   0.1481481
        k(   12) = (   0.3333333  -0.3333333  -0.0000000), wk =   0.1481481
        k(   13) = (   0.3333333  -0.3333333   0.3333333), wk =   0.1481481
        k(   14) = (   0.3333333  -0.3333333  -0.3333333), wk =   0.1481481

     Check: negative core charge=   -0.000009

     Initial potential from superposition of free atoms

     starting charge      99.9972, renormalised to     100.0000

     negative rho (up, down):  1.915E-01 0.000E+00
     Starting wfcs are   70 randomized atomic wfcs
     Checking if some PAW data can be deallocated...

     Self-consistent Calculation

     iteration #  1     ecut=    30.00 Ry     beta= 0.70
     Davidson diagonalization with overlap

     ethr =  1.00E-02,  avg # of iterations =  4.6

     negative rho (up, down):  1.919E-01 0.000E+00

     total energy              =   -1106.75739595 Ry
     estimated scf accuracy    <       2.79593082 Ry

[...]

     total energy              =   -1108.13903171 Ry
     estimated scf accuracy    <       0.00000351 Ry

     iteration #  9     ecut=    30.00 Ry     beta= 0.70
     Davidson diagonalization with overlap

     ethr =  3.51E-09,  avg # of iterations =  2.0

     negative rho (up, down):  1.948E-01 0.000E+00

     End of self-consistent calculation

          k = 0.0000 0.0000 0.0000 (  2331 PWs)   bands (ev):

   -79.1116 -79.1113 -57.0348 -57.0321 -42.1873 -42.1873 -42.1749 -42.1749
   -42.1670 -42.1627 -23.5661 -23.5661 -23.5538 -23.4865 -23.4864 -23.4707
    -7.0634  -6.2732  -6.2724  -5.3990  -5.3944  -5.3934   5.3680   5.4416
     5.4422   6.0707   6.0710   6.1389   7.9001   7.9002   8.1102   9.0496
     9.0497   9.0763   9.1065   9.2248   9.2249   9.5532   9.5532   9.7547
     9.7553   9.8546   9.9234   9.9236   9.9553  10.4307  10.4307  10.6322
    11.0201  11.0204  13.2968  13.3376  13.3376  13.4058  15.3963  16.3836
    16.3838  16.9271  17.8915  17.8918  21.5924  22.0221  22.0223  22.8725

     occupation numbers
     1.0000   1.0000   1.0000   1.0000   1.0000   1.0000   1.0000   1.0000
     1.0000   1.0000   1.0000   1.0000   1.0000   1.0000   1.0000   1.0000
     1.0000   1.0000   1.0000   1.0000   1.0000   1.0000   1.0000   1.0000
     1.0000   1.0000   1.0000   1.0000   1.0000   1.0000   1.0000   1.0000
     1.0000   1.0000   1.0000   1.0000   1.0000   1.0000   1.0000   1.0000
     1.0000   1.0000   1.0000   1.0000   1.0000   1.0000   1.0000   1.0000
     1.0000   1.0000   0.0000   0.0000   0.0000   0.0000   0.0000   0.0000
     0.0000   0.0000   0.0000   0.0000   0.0000   0.0000   0.0000   0.0000

[...]

          k = 0.3333-0.5877-0.4129 (  2334 PWs)   bands (ev):

   -79.1115 -79.1114 -57.0336 -57.0334 -42.1853 -42.1839 -42.1829 -42.1821
   -42.1647 -42.1634 -23.5679 -23.5491 -23.5412 -23.5043 -23.4939 -23.4756
    -6.5354  -6.4429  -6.0490  -5.7581  -5.6610  -5.4590   5.3312   5.9377
     6.0867   6.2515   6.6658   6.9705   7.2422   7.3964   7.6499   7.7268
     8.2892   8.4152   8.5339   8.7902   8.8949   8.9398   9.2558   9.5005
     9.8613   9.9280  10.3289  10.3308  10.3958  10.4000  10.5697  10.8355
    10.8562  11.0307  14.2929  14.9414  15.0377  15.6391  15.7086  15.7349
    16.5423  16.6929  18.4135  18.4811  18.9118  20.0499  20.0602  21.0458

     occupation numbers
     1.0000   1.0000   1.0000   1.0000   1.0000   1.0000   1.0000   1.0000
     1.0000   1.0000   1.0000   1.0000   1.0000   1.0000   1.0000   1.0000
     1.0000   1.0000   1.0000   1.0000   1.0000   1.0000   1.0000   1.0000
     1.0000   1.0000   1.0000   1.0000   1.0000   1.0000   1.0000   1.0000
     1.0000   1.0000   1.0000   1.0000   1.0000   1.0000   1.0000   1.0000
     1.0000   1.0000   1.0000   1.0000   1.0000   1.0000   1.0000   1.0000
     1.0000   1.0000   0.0000   0.0000   0.0000   0.0000   0.0000   0.0000
     0.0000   0.0000   0.0000   0.0000   0.0000   0.0000   0.0000   0.0000

     highest occupied, lowest unoccupied level (ev):    11.0601   13.1967

!    total energy              =   -1108.13903197 Ry
     estimated scf accuracy    <       0.00000028 Ry

     The total energy is the sum of the following terms:
     one-electron contribution =    -356.25660138 Ry
     hartree contribution      =     228.56005050 Ry
     xc contribution           =    -183.20200431 Ry
     ewald contribution        =    -740.10662347 Ry
     one-center paw contrib.   =     -57.13385330 Ry
      -> PAW hartree energy AE =       0.00000000 Ry
      -> PAW hartree energy PS =       0.00000000 Ry
      -> PAW xc energy AE      =       0.00000000 Ry
      -> PAW xc energy PS      =       0.00000000 Ry
      -> total E_H with PAW    =     228.56005050 Ry
      -> total E_XC with PAW   =    -183.20200431 Ry

     convergence has been achieved in   9 iterations

     Writing all to output data dir bands_nm/myprefix.save/

     General routines

     Parallel routines

     PAW routines

   This run was terminated on:   2:13:42  14Jul2023

   JOB DONE.