     Program PWSCF v.7.1 starts on 17Jul2023 at  0:25:56

     Reading input from espresso_23765.pwi
Warning: card &CELL ignored
Warning: card / ignored

     Current dimensions of program PWSCF are:
     Max number of different atomic species (ntypx) = 10
     Max number of k-points (npk) =  40000
     Max angular momentum in pseudopotentials (lmaxx) =  4
     file Gd.paw.z_18.atompaw.wentzcovitch.v1.2.upf: wavefunction(s)  6S 0P 5D 0D 4F 0F renormalized
     file O.pbe-n-kjpaw_psl.0.1.UPF: wavefunction(s)  2P renormalized
     Message from routine setup:
     the system is metallic, specify occupations
     Message from routine setup:
     using ibrav=0 with symmetry is DISCOURAGED, use correct ibrav instead

     K-points division:     npool     =       2
     R & G space division:  proc/nbgrp/npool/nimage =       4
     Subspace diagonalization in iterative solution of the eigenvalue problem:
     a serial algorithm will be used

     Using Slab Decomposition

     bravais-lattice index     =            0
     lattice parameter (alat)  =      11.5979  a.u.
     unit-cell volume          =    1741.0916 (a.u.)^3
     number of atoms/cell      =           14
     number of atomic types    =            4
     number of electrons       =       119.00 (up:  63.00, down:  56.00)
     number of Kohn-Sham states=           64
     kinetic-energy cutoff     =      30.0000  Ry
     charge density cutoff     =     240.0000  Ry
     scf convergence threshold =      1.0E-06
     mixing beta               =       0.7000
     number of iterations used =            8  plain     mixing
     Exchange-correlation= SLA  PW   PBX  PBC
                           (   1   4   3   4   0   0   0)

     celldm(1)=  11.597894  celldm(2)=   0.000000  celldm(3)=   0.000000
     celldm(4)=   0.000000  celldm(5)=   0.000000  celldm(6)=   0.000000

     crystal axes: (cart. coord. in units of alat)
               a(1) = (   1.000000   0.000000   0.000000 )
               a(2) = (  -0.500000   0.866025   0.000000 )
               a(3) = (   0.000000   0.000000   1.288705 )

     reciprocal axes: (cart. coord. in units 2 pi/alat)
               b(1) = (  1.000000  0.577350  0.000000 )
               b(2) = (  0.000000  1.154700  0.000000 )
               b(3) = (  0.000000  0.000000  0.775973 )

     PseudoPot. # 1 for Rb read from file:
     /lustre03/project/6004852/pragov/crystal_structure_design/crystal-design/crystal_design/utils/SSSP/Rb_ONCV_PBE-1.0.oncvpsp.upf
     MD5 check sum: 55a5172d6bfbce6759a58e35d43f6aa9
     Pseudo is Norm-conserving, Zval =  9.0
     Generated using ONCVPSP code by D. R. Hamann
     Using radial grid of 2308 points,  6 beta functions with:
                l(1) =   0
                l(2) =   0
                l(3) =   1
                l(4) =   1
                l(5) =   2
                l(6) =   2

     PseudoPot. # 2 for Gd read from file:
     /lustre03/project/6004852/pragov/crystal_structure_design/crystal-design/crystal_design/utils/SSSP/Gd.paw.z_18.atompaw.wentzcovitch.v1.2.upf
     MD5 check sum: a44f32af2ba180e1a67c5cef9ff7f39b
     Pseudo is Projector augmented-wave + core cor, Zval = 18.0
     Generated using ATOMPAW code
     Shape of augmentation charge: BESSEL
     Using radial grid of 1110 points,  8 beta functions with:
                l(1) =   0
                l(2) =   0
                l(3) =   1
                l(4) =   1
                l(5) =   2
                l(6) =   2
                l(7) =   3
                l(8) =   3
     Q(r) pseudized with 0 coefficients

     PseudoPot. # 3 for V  read from file:
     /lustre03/project/6004852/pragov/crystal_structure_design/crystal-design/crystal_design/utils/SSSP/v_pbe_v1.4.uspp.F.UPF
     MD5 check sum: 22b79981416ebb76fdaf5b1b8640f6fb
     Pseudo is Ultrasoft + core correction, Zval = 13.0
     Generated by new atomic code, or converted to UPF format
     Using radial grid of  853 points,  6 beta functions with:
                l(1) =   0
                l(2) =   0
                l(3) =   1
                l(4) =   1
                l(5) =   2
                l(6) =   2
     Q(r) pseudized with  8 coefficients,  rinner =    1.100   1.100   1.100
                                                       1.100   1.100

     PseudoPot. # 4 for O  read from file:
     /lustre03/project/6004852/pragov/crystal_structure_design/crystal-design/crystal_design/utils/SSSP/O.pbe-n-kjpaw_psl.0.1.UPF
     MD5 check sum: 0234752ac141de4415c5fc33072bef88
     Pseudo is Projector augmented-wave + core cor, Zval =  6.0
     Generated using "atomic" code by A. Dal Corso  v.5.0.99 svn rev. 10869
     Shape of augmentation charge: BESSEL
     Using radial grid of 1095 points,  4 beta functions with:
                l(1) =   0
                l(2) =   0
                l(3) =   1
                l(4) =   1
     Q(r) pseudized with 0 coefficients

     atomic species   valence    mass     pseudopotential
        Rb             9.00    85.46780     Rb( 1.00)
        Gd            18.00   157.25000     Gd( 1.00)
        V             13.00    50.94150     V ( 1.00)
        O              6.00    15.99900     O ( 1.00)

     Starting magnetic structure
     atomic species   magnetization
        Rb           0.000
        Gd           0.000
        V            0.000
        O            0.000

     12 Sym. Ops., with inversion, found

                                    s                        frac. trans.

      isym =  1     identity

 cryst.   s( 1) = (     1          0          0      )
                  (     0          1          0      )
                  (     0          0          1      )

 cart.    s( 1) = (  1.0000000  0.0000000  0.0000000 )
                  (  0.0000000  1.0000000  0.0000000 )
                  (  0.0000000  0.0000000  1.0000000 )

      isym =  2     180 deg rotation - cart. axis [1,0,0]

[...]

      isym =  3     120 deg rotation - cryst. axis [0,0,1]

[...]

      isym =  6     180 deg rotation - cryst. axis [1,1,0]

[...]

      isym =  7     inversion

[...]

      isym =  8     inv. 180 deg rotation - cart. axis [1,0,0]

[...]

      isym =  9     inv. 120 deg rotation - cryst. axis [0,0,1]

 cryst.   s( 9) = (     0         -1          0      )
                  (     1          1          0      )
                  (     0          0         -1      )

 cart.    s( 9) = (  0.4999998  0.8660253  0.0000000 )
                  ( -0.8660255  0.5000002  0.0000000 )
                  (  0.0000000  0.0000000 -1.0000000 )

[...]

 cryst.   s(10) = (     1          1          0      )
                  (    -1          0          0      )
                  (     0          0         -1      )

 cart.    s(10) = (  0.5000002 -0.8660253  0.0000000 )
                  (  0.8660255  0.4999998  0.0000000 )
                  (  0.0000000  0.0000000 -1.0000000 )

[...]

      isym = 12     inv. 180 deg rotation - cryst. axis [1,1,0]

 cryst.   s(12) = (     0         -1          0      )
                  (    -1          0          0      )
                  (     0          0          1      )

 cart.    s(12) = (  0.4999998 -0.8660255  0.0000000 )
                  ( -0.8660255 -0.4999998  0.0000000 )
                  (  0.0000000  0.0000000  1.0000000 )

   Cartesian axes

     site n.     atom                  positions (alat units)
         1           Rb  tau(   1) = (   0.5000006   0.2886749   0.3989148  )
         2           Rb  tau(   2) = (  -0.0000004   0.5773506   0.8897903  )
         3           Rb  tau(   3) = (   0.0000000   0.0000000   0.0000000  )
         4           Gd  tau(   4) = (   0.0000000   0.0000000   0.6443526  )
         5           V   tau(   5) = (   0.5000006   0.2886749   0.9641911  )
         6           V   tau(   6) = (  -0.0000004   0.5773506   0.3245140  )
         7           O   tau(   7) = (   0.5000006   0.2886749   1.2383322  )
         8           O   tau(   8) = (  -0.0000004   0.5773506   0.0503729  )
         9           O   tau(   9) = (   0.5000006   0.5597374   0.8653758  )
        10           O   tau(  10) = (  -0.0000004   0.3062881   0.4233293  )
        11           O   tau(  11) = (   0.7347475   0.1531436   0.8653758  )
        12           O   tau(  12) = (  -0.2347474   0.7128819   0.4233293  )
        13           O   tau(  13) = (   0.2652535   0.1531436   0.8653758  )
        14           O   tau(  14) = (   0.2347466   0.7128819   0.4233293  )

   Crystallographic axes

     site n.     atom                  positions (cryst. coord.)
         1           Rb  tau(   1) = (  0.6666670  0.3333330  0.3095470  )
         2           Rb  tau(   2) = (  0.3333330  0.6666670  0.6904530  )
         3           Rb  tau(   3) = (  0.0000000  0.0000000  0.0000000  )
         4           Gd  tau(   4) = (  0.0000000  0.0000000  0.5000000  )
         5           V   tau(   5) = (  0.6666670  0.3333330  0.7481860  )
         6           V   tau(   6) = (  0.3333330  0.6666670  0.2518140  )
         7           O   tau(   7) = (  0.6666670  0.3333330  0.9609120  )
         8           O   tau(   8) = (  0.3333330  0.6666670  0.0390880  )
         9           O   tau(   9) = (  0.8231650  0.6463290  0.6715080  )
        10           O   tau(  10) = (  0.1768350  0.3536710  0.3284920  )
        11           O   tau(  11) = (  0.8231650  0.1768350  0.6715080  )
        12           O   tau(  12) = (  0.1768350  0.8231650  0.3284920  )
        13           O   tau(  13) = (  0.3536710  0.1768350  0.6715080  )
        14           O   tau(  14) = (  0.6463290  0.8231650  0.3284920  )

     number of k points=     7
                       cart. coord. in units 2pi/alat
        k(    1) = (   0.0000000   0.0000000   0.0000000), wk =   0.0370370
        k(    2) = (   0.0000000   0.0000000   0.2586576), wk =   0.0740741
        k(    3) = (   0.0000000   0.3849001   0.0000000), wk =   0.2222222
        k(    4) = (   0.0000000   0.3849001   0.2586576), wk =   0.2222222
        k(    5) = (   0.3333333   0.5773502   0.0000000), wk =   0.0740741
        k(    6) = (   0.3333333   0.5773502   0.2586576), wk =   0.1481481
        k(    7) = (   0.0000000   0.3849001  -0.2586576), wk =   0.2222222

                       cryst. coord.
        k(    1) = (   0.0000000   0.0000000   0.0000000), wk =   0.0370370
        k(    2) = (   0.0000000   0.0000000   0.3333333), wk =   0.0740741
        k(    3) = (   0.0000000   0.3333333   0.0000000), wk =   0.2222222
        k(    4) = (   0.0000000   0.3333333   0.3333333), wk =   0.2222222
        k(    5) = (   0.3333333   0.3333333   0.0000000), wk =   0.0740741
        k(    6) = (   0.3333333   0.3333333   0.3333333), wk =   0.1481481
        k(    7) = (   0.0000000   0.3333333  -0.3333333), wk =   0.2222222

     Check: negative core charge=   -0.000011
     Generating pointlists ...
     new r_m :   0.1853 (alat units)  2.1495 (a.u.) for type    1
     new r_m :   0.1558 (alat units)  1.8070 (a.u.) for type    2
     new r_m :   0.1131 (alat units)  1.3115 (a.u.) for type    3
     new r_m :   0.1131 (alat units)  1.3115 (a.u.) for type    4

     Initial potential from superposition of free atoms

     starting charge     118.9181, renormalised to     119.0000

     negative rho (up, down):  1.375E-03 1.375E-03
     Starting wfcs are   99 randomized atomic wfcs
     Checking if some PAW data can be deallocated...

     Self-consistent Calculation

     iteration #  1     ecut=    30.00 Ry     beta= 0.70
     Davidson diagonalization with overlap

     ethr =  1.00E-02,  avg # of iterations =  2.0

     negative rho (up, down):  2.481E-03 2.488E-03

     total energy              =   -1451.62923326 Ry
     estimated scf accuracy    <       7.03869760 Ry

     total magnetization       =     7.00 Bohr mag/cell
     absolute magnetization    =     7.00 Bohr mag/cell

[...]

     total energy              =   -1455.21775126 Ry
     estimated scf accuracy    <       0.00000283 Ry

[...]

     iteration # 19     ecut=    30.00 Ry     beta= 0.70
     Davidson diagonalization with overlap

     ethr =  2.38E-09,  avg # of iterations =  3.6

     negative rho (up, down):  2.087E-03 2.098E-03

     Magnetic moment per site  (integrated on atomic sphere of radius R)
     atom   1 (R=0.185)  charge=  6.9971  magn=  0.0003
     atom   2 (R=0.185)  charge=  6.9971  magn=  0.0003
     atom   3 (R=0.185)  charge=  6.9689  magn=  0.0001
     atom   4 (R=0.156)  charge= 13.8604  magn=  6.7926
     atom   5 (R=0.113)  charge=  8.7405  magn=  0.0052
     atom   6 (R=0.113)  charge=  8.7405  magn=  0.0052
     atom   7 (R=0.113)  charge=  4.6130  magn=  0.0018
     atom   8 (R=0.113)  charge=  4.6130  magn=  0.0018
     atom   9 (R=0.113)  charge=  4.6422  magn=  0.0006
     atom  10 (R=0.113)  charge=  4.6422  magn=  0.0006
     atom  11 (R=0.113)  charge=  4.6422  magn=  0.0006
     atom  12 (R=0.113)  charge=  4.6422  magn=  0.0006
     atom  13 (R=0.113)  charge=  4.6422  magn=  0.0006
     atom  14 (R=0.113)  charge=  4.6422  magn=  0.0006

     End of self-consistent calculation

 ------ SPIN UP ------------

          k = 0.0000 0.0000 0.0000 (  4809 PWs)   bands (ev):

   -58.9917 -58.9915 -37.9042 -32.9137 -32.9132 -32.9062 -32.9062 -32.9056
   -32.9055 -20.0577 -19.7775 -19.7682 -15.6075 -15.5977 -15.5977 -11.7475
   -11.3696 -11.3694 -11.3036 -10.9636 -10.9533 -10.9531 -10.8383  -4.1667
    -4.1667  -4.1632  -4.0632  -4.0632  -3.9945  -3.9633  -3.9633  -3.9017
     1.4405   1.4444   1.4445   1.8677   1.8678   1.9596   1.9781   1.9781
     2.1389   2.2321   2.2321   2.5486   2.7340   2.8203   2.9036   2.9036
     2.9627   2.9628   2.9650   3.0065   3.1634   3.1634   3.3903   3.3903
     3.5792   4.2410   4.3447   4.3448   4.3610   4.4569   4.4570   7.6950

     occupation numbers
     1.0000   1.0000   1.0000   1.0000   1.0000   1.0000   1.0000   1.0000
     1.0000   1.0000   1.0000   1.0000   1.0000   1.0000   1.0000   1.0000
     1.0000   1.0000   1.0000   1.0000   1.0000   1.0000   1.0000   1.0000
     1.0000   1.0000   1.0000   1.0000   1.0000   1.0000   1.0000   1.0000
     1.0000   1.0000   1.0000   1.0000   1.0000   1.0000   1.0000   1.0000
     1.0000   1.0000   1.0000   1.0000   1.0000   1.0000   1.0000   1.0000
     1.0000   1.0000   1.0000   1.0000   1.0000   1.0000   1.0000   1.0000
     1.0000   1.0000   1.0000   1.0000   1.0000   1.0000   1.0000   0.0000

[...]

 ------ SPIN DOWN ----------

[...]

          k = 0.0000 0.3849-0.2587 (  4835 PWs)   bands (ev):

   -58.9843 -58.9842 -34.8409 -32.9093 -32.9089 -32.8986 -32.8983 -32.8979
   -32.8976 -20.0571 -19.7745 -19.7687 -13.7800 -13.7559 -13.7438 -11.6628
   -11.5029 -11.3612 -11.0103 -10.9547 -10.7101 -10.6428 -10.6278  -4.1813
    -4.1770  -4.1559  -4.0067  -3.9467  -3.9374  -3.9278  -3.8856  -3.8790
     1.4174   1.4727   1.4907   1.9308   1.9728   2.0877   2.1134   2.1519
     2.1734   2.3192   2.3256   2.5306   2.8892   3.1230   3.2389   3.3306
     3.3333   3.5089   3.6821   4.0036   4.0471   4.3040   4.3422   4.3660
     7.9011   7.9587   7.9644   8.0396   8.0641   8.1347   8.1721   8.2899

     occupation numbers
     1.0000   1.0000   1.0000   1.0000   1.0000   1.0000   1.0000   1.0000
     1.0000   1.0000   1.0000   1.0000   1.0000   1.0000   1.0000   1.0000
     1.0000   1.0000   1.0000   1.0000   1.0000   1.0000   1.0000   1.0000
     1.0000   1.0000   1.0000   1.0000   1.0000   1.0000   1.0000   1.0000
     1.0000   1.0000   1.0000   1.0000   1.0000   1.0000   1.0000   1.0000
     1.0000   1.0000   1.0000   1.0000   1.0000   1.0000   1.0000   1.0000
     1.0000   1.0000   1.0000   1.0000   1.0000   1.0000   1.0000   1.0000
     0.0000   0.0000   0.0000   0.0000   0.0000   0.0000   0.0000   0.0000

     highest occupied, lowest unoccupied level (ev):     4.5102    7.6950

!    total energy              =   -1455.21775158 Ry
     estimated scf accuracy    <       0.00000017 Ry

     The total energy is the sum of the following terms:
     one-electron contribution =    -567.31454401 Ry
     hartree contribution      =     334.61504017 Ry
     xc contribution           =    -144.57026244 Ry
     ewald contribution        =    -536.17691296 Ry
     one-center paw contrib.   =    -541.77107234 Ry
      -> PAW hartree energy AE =       0.00000000 Ry
      -> PAW hartree energy PS =       0.00000000 Ry
      -> PAW xc energy AE      =       0.00000000 Ry
      -> PAW xc energy PS      =       0.00000000 Ry
      -> total E_H with PAW    =     334.61504017 Ry
      -> total E_XC with PAW   =    -144.57026244 Ry

     total magnetization       =     7.00 Bohr mag/cell
     absolute magnetization    =     7.01 Bohr mag/cell

     convergence has been achieved in  19 iterations

     Writing all to output data dir bands_nm_v2/myprefix.save/

     General routines

     Parallel routines

     PAW routines

   This run was terminated on:   0:27: 1  17Jul2023

   JOB DONE.