     Program PWSCF v.7.1 starts on 14Jul2023 at 12:24:49

     Reading input from espresso_17995.pwi
Warning: card &CELL ignored
Warning: card / ignored

     Current dimensions of program PWSCF are:
     Max number of different atomic species (ntypx) = 10
     Max number of k-points (npk) =  40000
     Max angular momentum in pseudopotentials (lmaxx) =  4
     file In.pbe-dn-rrkjus_psl.0.2.2.UPF: wavefunction(s)  5S renormalized
     file Pb.pbe-dn-kjpaw_psl.0.2.2.UPF: wavefunction(s)  6S renormalized

     K-points division:     npool     =       2
     R & G space division:  proc/nbgrp/npool/nimage =       4
     Subspace diagonalization in iterative solution of the eigenvalue problem:
     a serial algorithm will be used

     Using Slab Decomposition

     bravais-lattice index     =            0
     lattice parameter (alat)  =      10.8840  a.u.
     unit-cell volume          =    1288.5058 (a.u.)^3
     number of atoms/cell      =            5
     number of atomic types    =            3
     number of electrons       =        48.00
     number of Kohn-Sham states=           64
     kinetic-energy cutoff     =      30.0000  Ry
     charge density cutoff     =     240.0000  Ry
     scf convergence threshold =      1.0E-06
     mixing beta               =       0.7000
     number of iterations used =            8  plain     mixing
     Exchange-correlation=  SLA  PW   PBX  PBC
                           (   1   4   3   4   0   0   0)

     celldm(1)=  10.884046  celldm(2)=   0.000000  celldm(3)=   0.000000
     celldm(4)=   0.000000  celldm(5)=   0.000000  celldm(6)=   0.000000

     crystal axes: (cart. coord. in units of alat)
               a(1) = (   1.000000   0.000000   0.000000 )
               a(2) = (   0.019897   0.999802   0.000000 )
               a(3) = (   0.002902   0.002845   0.999542 )

     reciprocal axes: (cart. coord. in units 2 pi/alat)
               b(1) = (  1.000000 -0.019901 -0.002847 )
               b(2) = (  0.000000  1.000198 -0.002847 )
               b(3) = (  0.000000  0.000000  1.000458 )

     PseudoPot. # 1 for In read from file:
     /lustre07/scratch/pragov/crystal_structure_design/utils/SSSP/In.pbe-dn-rrkjus_psl.0.2.2.UPF
     MD5 check sum: 25e7c42c3b55b68f4bf926be2e7201a4
     Pseudo is Ultrasoft + core correction, Zval = 13.0
     Generated using "atomic" code by A. Dal Corso  v.5.0.99 svn rev. 10869
     Using radial grid of 1241 points,  6 beta functions with:
                l(1) =   0
                l(2) =   0
                l(3) =   1
                l(4) =   1
                l(5) =   2
                l(6) =   2
     Q(r) pseudized with 0 coefficients

     PseudoPot. # 2 for Pb read from file:
     /lustre07/scratch/pragov/crystal_structure_design/utils/SSSP/Pb.pbe-dn-kjpaw_psl.0.2.2.UPF
     MD5 check sum: 9d431e6316058b74ade52399a6cf67da
     Pseudo is Projector augmented-wave + core cor, Zval = 14.0
     Generated using "atomic" code by A. Dal Corso  v.5.0.99 svn rev. 10869
     Shape of augmentation charge: PSQ
     Using radial grid of 1281 points,  6 beta functions with:
                l(1) =   0
                l(2) =   0
                l(3) =   1
                l(4) =   1
                l(5) =   2
                l(6) =   2
     Q(r) pseudized with 0 coefficients

     PseudoPot. # 3 for Cl read from file:
     /lustre07/scratch/pragov/crystal_structure_design/utils/SSSP/cl_pbe_v1.4.uspp.F.UPF
     MD5 check sum: fc6f6913ecf08c9257cb748ef0700058
     Pseudo is Ultrasoft + core correction, Zval =  7.0
     Generated by new atomic code, or converted to UPF format
     Using radial grid of  909 points,  6 beta functions with:
                l(1) =   0
                l(2) =   0
                l(3) =   1
                l(4) =   1
                l(5) =   2
                l(6) =   2
     Q(r) pseudized with  8 coefficients,  rinner =    1.300   1.300   1.300
                                                       1.300   1.300

     atomic species   valence    mass     pseudopotential
        In            13.00   114.81800     In( 1.00)
        Pb            14.00   207.20000     Pb( 1.00)
        Cl             7.00    35.45000     Cl( 1.00)

     No symmetry found

                                    s                        frac. trans.

      isym =  1     identity

 cryst.   s( 1) = (     1          0          0      )
                  (     0          1          0      )
                  (     0          0          1      )

 cart.    s( 1) = (  1.0000000 -0.0000000  0.0000000 )
                  (  0.0000000  1.0000000  0.0000000 )
                  (  0.0000000  0.0000000  1.0000000 )

   Cartesian axes

     site n.     atom                  positions (alat units)
         1           In  tau(   1) = (   0.9162264   0.8981739   0.9187614  )
         2           Pb  tau(   2) = (   0.5102593   0.5002056   0.5000561  )
         3           Cl  tau(   3) = (   0.5531636   0.5422646   0.9978642  )
         4           Cl  tau(   4) = (   0.5564978   0.0027093   0.5447147  )
         5           Cl  tau(   5) = (   0.0137815   0.5563337   0.5447147  )

   Crystallographic axes

     site n.     atom                  positions (cryst. coord.)
         1           In  tau(   1) = (  0.8957360  0.8957360  0.9191820  )
         2           Pb  tau(   2) = (  0.4988810  0.4988810  0.5002850  )
         3           Cl  tau(   3) = (  0.5395310  0.5395310  0.9983210  )
         4           Cl  tau(   4) = (  0.5548930  0.0011590  0.5449640  )
         5           Cl  tau(   5) = (  0.0011590  0.5548930  0.5449640  )

     number of k points=    14
                       cart. coord. in units 2pi/alat
        k(    1) = (   0.0000000   0.0000000   0.0000000), wk =   0.0740741
        k(    2) = (   0.0000000   0.0000000   0.3334859), wk =   0.1481481
        k(    3) = (   0.0000000   0.3333993  -0.0009490), wk =   0.1481481
        k(    4) = (   0.0000000   0.3333993   0.3325369), wk =   0.1481481
        k(    5) = (   0.0000000   0.3333993  -0.3344349), wk =   0.1481481
        k(    6) = (   0.3333333  -0.0066337  -0.0009490), wk =   0.1481481
        k(    7) = (   0.3333333  -0.0066337   0.3325369), wk =   0.1481481
        k(    8) = (   0.3333333  -0.0066337  -0.3344349), wk =   0.1481481
        k(    9) = (   0.3333333   0.3267656  -0.0018980), wk =   0.1481481
        k(   10) = (   0.3333333   0.3267656   0.3315879), wk =   0.1481481
        k(   11) = (   0.3333333   0.3267656  -0.3353840), wk =   0.1481481
        k(   12) = (   0.3333333  -0.3400330  -0.0000000), wk =   0.1481481
        k(   13) = (   0.3333333  -0.3400330   0.3334859), wk =   0.1481481
        k(   14) = (   0.3333333  -0.3400330  -0.3334859), wk =   0.1481481

                       cryst. coord.
        k(    1) = (   0.0000000   0.0000000   0.0000000), wk =   0.0740741
        k(    2) = (   0.0000000   0.0000000   0.3333333), wk =   0.1481481
        k(    3) = (   0.0000000   0.3333333  -0.0000000), wk =   0.1481481
        k(    4) = (   0.0000000   0.3333333   0.3333333), wk =   0.1481481
        k(    5) = (   0.0000000   0.3333333  -0.3333333), wk =   0.1481481
        k(    6) = (   0.3333333  -0.0000000   0.0000000), wk =   0.1481481
        k(    7) = (   0.3333333  -0.0000000   0.3333333), wk =   0.1481481
        k(    8) = (   0.3333333  -0.0000000  -0.3333333), wk =   0.1481481
        k(    9) = (   0.3333333   0.3333333   0.0000000), wk =   0.1481481
        k(   10) = (   0.3333333   0.3333333   0.3333333), wk =   0.1481481
        k(   11) = (   0.3333333   0.3333333  -0.3333333), wk =   0.1481481
        k(   12) = (   0.3333333  -0.3333333   0.0000000), wk =   0.1481481
        k(   13) = (   0.3333333  -0.3333333   0.3333333), wk =   0.1481481
        k(   14) = (   0.3333333  -0.3333333  -0.3333333), wk =   0.1481481

     Initial potential from superposition of free atoms

     starting charge      47.9939, renormalised to      48.0000

     negative rho (up, down):  4.611E-02 0.000E+00
     Starting wfcs are   30 randomized atomic wfcs +   34 random wfcs
     Checking if some PAW data can be deallocated...

     Self-consistent Calculation

     iteration #  1     ecut=    30.00 Ry     beta= 0.70
     Davidson diagonalization with overlap

     ethr =  1.00E-02,  avg # of iterations =  7.1

     Threshold (ethr) on eigenvalues was too large:
     Diagonalizing with lowered threshold

     Davidson diagonalization with overlap

[...]

     negative rho (up, down):  4.786E-02 0.000E+00

     total energy              =   -1115.53412053 Ry
     estimated scf accuracy    <       0.24420198 Ry

[...]

     c_bands:  1 eigenvalues not converged
     ethr =  4.08E-06,  avg # of iterations = 14.6

[...]

     total energy              =   -1115.63095457 Ry
     estimated scf accuracy    <       0.00000152 Ry

     iteration #  7     ecut=    30.00 Ry     beta= 0.70
     Davidson diagonalization with overlap

     ethr =  3.18E-09,  avg # of iterations =  4.1

     negative rho (up, down):  4.591E-02 0.000E+00

     End of self-consistent calculation

          k = 0.0000 0.0000 0.0000 (  3611 PWs)   bands (ev):

   -14.2959 -14.2848 -14.1774 -14.1663 -14.1655 -12.3417 -11.7518 -11.7044
   -10.9950 -10.9932 -10.9650 -10.9203 -10.9163  -4.4333  -2.1904  -1.6885
    -1.5898  -0.9199  -0.1450  -0.0517   0.2289   0.2298   0.3571   1.0469
     6.1545   6.2868   6.5293   7.4675   7.6510   7.6889   9.0786   9.5923
     9.6382  10.0510  10.0902  10.5802  12.6212  12.8661  12.8785  14.2987
    14.3658  14.8204  14.9651  15.1266  15.2274  15.5890  15.6283  16.2291
    16.3337  16.7213  16.7659  16.7740  17.1866  17.2595  17.6048  18.7608
    18.8842  19.5908  19.7733  19.8659  19.8818  21.0099  21.2833  21.5110

     occupation numbers
     1.0000   1.0000   1.0000   1.0000   1.0000   1.0000   1.0000   1.0000
     1.0000   1.0000   1.0000   1.0000   1.0000   1.0000   1.0000   1.0000
     1.0000   1.0000   1.0000   1.0000   1.0000   1.0000   1.0000   1.0000
     0.0000   0.0000   0.0000   0.0000   0.0000   0.0000   0.0000   0.0000
     0.0000   0.0000   0.0000   0.0000   0.0000   0.0000   0.0000   0.0000
     0.0000   0.0000   0.0000   0.0000   0.0000   0.0000   0.0000   0.0000
     0.0000   0.0000   0.0000   0.0000   0.0000   0.0000   0.0000   0.0000
     0.0000   0.0000   0.0000   0.0000   0.0000   0.0000   0.0000   0.0000

[...]

          k = 0.3333-0.3400-0.3335 (  3577 PWs)   bands (ev):

   -14.2284 -14.2241 -14.1813 -14.1684 -14.1676 -12.0955 -11.9397 -11.9008
   -10.9928 -10.9902 -10.9614 -10.9313 -10.9270  -5.7930  -1.9496  -0.7490
    -0.5944  -0.4938  -0.4473   0.1785   0.3171   0.5226   1.0922   1.3236
     4.8484   5.4104   5.8352   6.4511   6.5010   6.8626   9.4266  10.4033
    10.6894  10.7568  11.3764  11.3986  11.9203  12.3920  12.5402  12.8380
    13.8697  14.1524  15.0899  15.2898  15.6592  15.8387  15.9402  16.0924
    16.1721  16.4427  16.8823  17.0464  17.3855  17.5849  18.2643  18.8251
    19.0850  19.2615  19.5130  19.7023  19.9769  20.6841  20.7472  21.0872

     occupation numbers
     1.0000   1.0000   1.0000   1.0000   1.0000   1.0000   1.0000   1.0000
     1.0000   1.0000   1.0000   1.0000   1.0000   1.0000   1.0000   1.0000
     1.0000   1.0000   1.0000   1.0000   1.0000   1.0000   1.0000   1.0000
     0.0000   0.0000   0.0000   0.0000   0.0000   0.0000   0.0000   0.0000
     0.0000   0.0000   0.0000   0.0000   0.0000   0.0000   0.0000   0.0000
     0.0000   0.0000   0.0000   0.0000   0.0000   0.0000   0.0000   0.0000
     0.0000   0.0000   0.0000   0.0000   0.0000   0.0000   0.0000   0.0000
     0.0000   0.0000   0.0000   0.0000   0.0000   0.0000   0.0000   0.0000

     highest occupied, lowest unoccupied level (ev):     1.4297    4.8484

!    total energy              =   -1115.63095527 Ry
     estimated scf accuracy    <       0.00000019 Ry

     The total energy is the sum of the following terms:
     one-electron contribution =    -183.38013914 Ry
     hartree contribution      =     117.23926151 Ry
     xc contribution           =    -120.19190839 Ry
     ewald contribution        =    -200.82189011 Ry
     one-center paw contrib.   =    -728.47627913 Ry
      -> PAW hartree energy AE =       0.00000000 Ry
      -> PAW hartree energy PS =       0.00000000 Ry
      -> PAW xc energy AE      =       0.00000000 Ry
      -> PAW xc energy PS      =       0.00000000 Ry
      -> total E_H with PAW    =     117.23926151 Ry
      -> total E_XC with PAW   =    -120.19190839 Ry

     convergence has been achieved in   7 iterations

     Writing all to output data dir bands_nm/myprefix.save/

     General routines

     Parallel routines

     PAW routines

   This run was terminated on:  12:25:22  14Jul2023

   JOB DONE.