     Program PWSCF v.7.0 starts on  4Jun2023 at 17:30:29

     K-points division:     npool     =       2
     R & G space division:  proc/nbgrp/npool/nimage =       4

     Reading input from espresso_5061.pwi
Warning: card &CELL ignored
Warning: card / ignored

     Current dimensions of program PWSCF are:
     Max number of different atomic species (ntypx) = 10
     Max number of k-points (npk) =  40000
     Max angular momentum in pseudopotentials (lmaxx) =  4
     Message from routine setup:
     using ibrav=0 with symmetry is DISCOURAGED, use correct ibrav instead

     Using Slab Decomposition

     bravais-lattice index     =            0
     lattice parameter (alat)  =       7.4123  a.u.
     unit-cell volume          =    1842.4712 (a.u.)^3
     number of atoms/cell      =           12
     number of atomic types    =            3
     number of electrons       =       120.00
     number of Kohn-Sham states=           64
     kinetic-energy cutoff     =      30.0000  Ry
     charge density cutoff     =     240.0000  Ry
     scf convergence threshold =      1.0E-06
     mixing beta               =       0.7000
     number of iterations used =            8  plain     mixing
     Exchange-correlation= SLA  PW   PBE  PBE
                           (   1   4   3   4   0   0   0)

     celldm(1)=   7.412264  celldm(2)=   0.000000  celldm(3)=   0.000000
     celldm(4)=   0.000000  celldm(5)=   0.000000  celldm(6)=   0.000000

     crystal axes: (cart. coord. in units of alat)
               a(1) = (   1.000000   0.000000   0.000000 )
               a(2) = (   0.000000   1.006383   0.000000 )
               a(3) = (   0.000000   0.000000   4.495570 )

     reciprocal axes: (cart. coord. in units 2 pi/alat)
               b(1) = (  1.000000  0.000000  0.000000 )
               b(2) = (  0.000000  0.993657  0.000000 )
               b(3) = (  0.000000  0.000000  0.222441 )

     PseudoPot. # 1 for Tb read from file:
     /home/pragov/projects/rrg-bengioy-ad/pragov/crystal_structure_design/SSSP/Tb.GGA-PBE-paw-v1.0.UPF
     MD5 check sum: f7bf3d58e9b293961564f5b9598c921e
     Pseudo is Projector augmented-wave + core cor, Zval = 19.0
     Generated using ATOMPAW code
     Shape of augmentation charge: BESSEL
     Using radial grid of 1111 points,  8 beta functions with:
                l(1) =   0
                l(2) =   0
                l(3) =   1
                l(4) =   1
                l(5) =   2
                l(6) =   2
                l(7) =   3
                l(8) =   3
     Q(r) pseudized with 0 coefficients

     PseudoPot. # 2 for As read from file:
     /home/pragov/projects/rrg-bengioy-ad/pragov/crystal_structure_design/SSSP/As.pbe-n-rrkjus_psl.0.2.UPF
     MD5 check sum: 767315de957beeeb34f87d97bf945c8f
     Pseudo is Ultrasoft + core correction, Zval =  5.0
     Generated using "atomic" code by A. Dal Corso  v.5.0.99 svn rev. 10869
     Using radial grid of 1209 points,  4 beta functions with:
                l(1) =   0
                l(2) =   0
                l(3) =   1
                l(4) =   1
     Q(r) pseudized with 0 coefficients

     PseudoPot. # 3 for Se read from file:
     /home/pragov/projects/rrg-bengioy-ad/pragov/crystal_structure_design/SSSP/Se_pbe_v1.uspp.F.UPF
     MD5 check sum: 1b3568f3a8ae88f9a2a0ad0698632c85
     Pseudo is Ultrasoft + core correction, Zval =  6.0
     Generated by new atomic code, or converted to UPF format
     Using radial grid of  877 points,  6 beta functions with:
                l(1) =   0
                l(2) =   0
                l(3) =   1
                l(4) =   1
                l(5) =   2
                l(6) =   2
     Q(r) pseudized with  8 coefficients,  rinner =    1.300   1.300   1.300
                                                       1.300   1.300

     atomic species   valence    mass     pseudopotential
        Tb            19.00   158.92535     Tb( 1.00)
        As             5.00    74.92159     As( 1.00)
        Se             6.00    78.97100     Se( 1.00)

      8 Sym. Ops., with inversion, found ( 6 have fractional translation)

                                    s                        frac. trans.

      isym =  1     identity

 cryst.   s( 1) = (     1          0          0      )
                  (     0          1          0      )
                  (     0          0          1      )

 cart.    s( 1) = (  1.0000000  0.0000000  0.0000000 )
                  (  0.0000000  1.0000000  0.0000000 )
                  (  0.0000000  0.0000000  1.0000000 )

      isym =  2     180 deg rotation - cart. axis [0,0,1]

 cryst.   s( 2) = (    -1          0          0      )    f =(  0.5000000 )
                  (     0         -1          0      )       (  0.5000000 )
                  (     0          0          1      )       (  0.5000000 )

 cart.    s( 2) = ( -1.0000000  0.0000000  0.0000000 )    f =(  0.5000000 )
                  (  0.0000000 -1.0000000  0.0000000 )       (  0.5031915 )
                  (  0.0000000  0.0000000  1.0000000 )       (  2.2477852 )

[...]

      isym =  4     180 deg rotation - cart. axis [1,0,0]

[...]

      isym =  5     inversion

 cryst.   s( 5) = (    -1          0          0      )
                  (     0         -1          0      )
                  (     0          0         -1      )

 cart.    s( 5) = ( -1.0000000  0.0000000  0.0000000 )
                  (  0.0000000 -1.0000000  0.0000000 )
                  (  0.0000000  0.0000000 -1.0000000 )

      isym =  6     inv. 180 deg rotation - cart. axis [0,0,1]

[...]

      isym =  8     inv. 180 deg rotation - cart. axis [1,0,0]

 cryst.   s( 8) = (    -1          0          0      )    f =(  0.5000000 )
                  (     0          1          0      )       (  0.0000000 )
                  (     0          0          1      )       (  0.0000000 )

 cart.    s( 8) = ( -1.0000000  0.0000000  0.0000000 )    f =(  0.5000000 )
                  (  0.0000000  1.0000000  0.0000000 )       (  0.0000000 )
                  (  0.0000000  0.0000000  1.0000000 )       (  0.0000000 )

   Cartesian axes

     site n.     atom                  positions (alat units)
         1           Tb  tau(   1) = (   0.7500000   0.7347744   2.8742924  )
         2           Tb  tau(   2) = (   0.2500000   0.2716087   1.6212780  )
         3           Tb  tau(   3) = (   0.7500000   0.7748002   0.6265072  )
         4           Tb  tau(   4) = (   0.2500000   0.2315828   3.8690633  )
         5           As  tau(   5) = (   0.2500000   0.7178098   4.4864939  )
         6           As  tau(   6) = (   0.7500000   0.2885733   0.0090766  )
         7           As  tau(   7) = (   0.2500000   0.7917648   2.2387087  )
         8           As  tau(   8) = (   0.7500000   0.2146182   2.2568618  )
         9           Se  tau(   9) = (   0.7500000   0.7359629   3.6516530  )
        10           Se  tau(  10) = (   0.2500000   0.2704202   0.8439175  )
        11           Se  tau(  11) = (   0.7500000   0.7736117   1.4038677  )
        12           Se  tau(  12) = (   0.2500000   0.2327714   3.0917027  )

   Crystallographic axes

     site n.     atom                  positions (cryst. coord.)
         1           Tb  tau(   1) = (  0.7500000  0.7301140  0.6393610  )
         2           Tb  tau(   2) = (  0.2500000  0.2698860  0.3606390  )
         3           Tb  tau(   3) = (  0.7500000  0.7698860  0.1393610  )
         4           Tb  tau(   4) = (  0.2500000  0.2301140  0.8606390  )
         5           As  tau(   5) = (  0.2500000  0.7132570  0.9979810  )
         6           As  tau(   6) = (  0.7500000  0.2867430  0.0020190  )
         7           As  tau(   7) = (  0.2500000  0.7867430  0.4979810  )
         8           As  tau(   8) = (  0.7500000  0.2132570  0.5020190  )
         9           Se  tau(   9) = (  0.7500000  0.7312950  0.8122780  )
        10           Se  tau(  10) = (  0.2500000  0.2687050  0.1877220  )
        11           Se  tau(  11) = (  0.7500000  0.7687050  0.3122780  )
        12           Se  tau(  12) = (  0.2500000  0.2312950  0.6877220  )

     number of k points=     8
                       cart. coord. in units 2pi/alat
        k(    1) = (   0.0000000   0.0000000   0.0000000), wk =   0.0740741
        k(    2) = (   0.0000000   0.0000000   0.0741471), wk =   0.1481481
        k(    3) = (   0.0000000   0.3312191   0.0000000), wk =   0.1481481
        k(    4) = (   0.0000000   0.3312191   0.0741471), wk =   0.2962963
        k(    5) = (   0.3333333   0.0000000   0.0000000), wk =   0.1481481
        k(    6) = (   0.3333333   0.0000000   0.0741471), wk =   0.2962963
        k(    7) = (   0.3333333   0.3312191   0.0000000), wk =   0.2962963
        k(    8) = (   0.3333333   0.3312191   0.0741471), wk =   0.5925926

                       cryst. coord.
        k(    1) = (   0.0000000   0.0000000   0.0000000), wk =   0.0740741
        k(    2) = (   0.0000000   0.0000000   0.3333333), wk =   0.1481481
        k(    3) = (   0.0000000   0.3333333   0.0000000), wk =   0.1481481
        k(    4) = (   0.0000000   0.3333333   0.3333333), wk =   0.2962963
        k(    5) = (   0.3333333   0.0000000   0.0000000), wk =   0.1481481
        k(    6) = (   0.3333333   0.0000000   0.3333333), wk =   0.2962963
        k(    7) = (   0.3333333   0.3333333   0.0000000), wk =   0.2962963
        k(    8) = (   0.3333333   0.3333333   0.3333333), wk =   0.5925926

     Initial potential from superposition of free atoms

     starting charge     119.9811, renormalised to     120.0000
     Starting wfcs are  160 randomized atomic wfcs
     Checking if some PAW data can be deallocated...

     Self-consistent Calculation

     iteration #  1     ecut=    30.00 Ry     beta= 0.70
     Davidson diagonalization with overlap

     ethr =  1.00E-02,  avg # of iterations =  1.0

     total energy              =   -3110.16457587 Ry
     estimated scf accuracy    <      44.37878778 Ry

[...]

     negative rho (up, down):  4.033E-04 0.000E+00

[...]

     c_bands:  1 eigenvalues not converged
     ethr =  3.89E-05,  avg # of iterations = 18.9

[...]

     c_bands:  5 eigenvalues not converged
     ethr =  3.13E-09,  avg # of iterations = 21.2

     total energy              =   -3161.93052619 Ry
     estimated scf accuracy    <       0.00000158 Ry

     iteration # 91     ecut=    30.00 Ry     beta= 0.70
     Davidson diagonalization with overlap

     ethr =  1.32E-09,  avg # of iterations =  8.5

     End of self-consistent calculation

          k = 0.0000 0.0000 0.0000 (  5175 PWs)   bands (ev):

   -33.3625 -33.3624 -33.3614 -33.3613 -10.5689 -10.5402 -10.5013 -10.4711
   -10.3651 -10.3635 -10.3635 -10.3621 -10.3571 -10.3556 -10.3556 -10.3543
    -3.1309  -2.8473  -2.7232  -2.2820  -1.8967  -1.7542   3.3095   3.3102
     5.8510   6.0399   6.6816   6.9718   6.9745   7.2389   7.2632   7.6606
     8.1206   8.1340   8.1911   8.1982   8.5156   9.1834   9.1921   9.2643
     9.2738   9.7013   9.7028   9.7349   9.8849   9.8930   9.9193   9.9247
     9.9379   9.9480   9.9608   9.9741   9.9846   9.9951   9.9973  10.0010
    10.0964  10.1112  10.1499  10.1808  10.1865  10.1875  10.2037  10.2892

     occupation numbers
     1.0000   1.0000   1.0000   1.0000   1.0000   1.0000   1.0000   1.0000
     1.0000   1.0000   1.0000   1.0000   1.0000   1.0000   1.0000   1.0000
     1.0000   1.0000   1.0000   1.0000   1.0000   1.0000   1.0000   1.0000
     1.0000   1.0000   1.0000   1.0000   1.0000   1.0000   1.0000   1.0000
     1.0000   1.0000   1.0000   1.0000   1.0000   1.0000   1.0000   1.0000
     1.0000   1.0000   1.0000   1.0000   1.0000   1.0000   1.0000   1.0000
     1.0000   1.0000   1.0000   1.0000   1.0000   1.0000   1.0000   1.0000
     1.0000   1.0000   1.0000   1.0000   0.0000   0.0000   0.0000   0.0000

[...]

          k = 0.3333 0.3312 0.0741 (  5100 PWs)   bands (ev):

   -33.3513 -33.3512 -33.3510 -33.3510 -10.5294 -10.5293 -10.5166 -10.5136
   -10.5017 -10.4999 -10.4895 -10.4875 -10.4690 -10.4639 -10.4544 -10.4526
    -2.0212  -2.0073  -1.7731  -1.7691  -1.1041  -1.0902   0.7352   0.7354
     5.0366   5.1142   6.3503   6.4713   6.7410   6.7415   6.8523   6.9044
     7.0759   7.1978   7.8329   8.0503   8.2612   8.4096   8.4959   8.5498
     8.8541   8.9346   9.0366   9.0493   9.8842   9.8858   9.8946   9.8956
     9.9030   9.9075   9.9197   9.9246   9.9419   9.9459   9.9535   9.9573
    10.0112  10.0180  10.0296  10.0421  10.2011  10.2056  10.2137  10.2144

     occupation numbers
     1.0000   1.0000   1.0000   1.0000   1.0000   1.0000   1.0000   1.0000
     1.0000   1.0000   1.0000   1.0000   1.0000   1.0000   1.0000   1.0000
     1.0000   1.0000   1.0000   1.0000   1.0000   1.0000   1.0000   1.0000
     1.0000   1.0000   1.0000   1.0000   1.0000   1.0000   1.0000   1.0000
     1.0000   1.0000   1.0000   1.0000   1.0000   1.0000   1.0000   1.0000
     1.0000   1.0000   1.0000   1.0000   1.0000   1.0000   1.0000   1.0000
     1.0000   1.0000   1.0000   1.0000   1.0000   1.0000   1.0000   1.0000
     1.0000   1.0000   1.0000   1.0000   0.0000   0.0000   0.0000   0.0000

     highest occupied, lowest unoccupied level (ev):    10.1812   10.1783

!    total energy              =   -3161.93052535 Ry
     estimated scf accuracy    <       0.00000098 Ry

     The total energy is the sum of the following terms:
     one-electron contribution =    -617.17897771 Ry
     hartree contribution      =     376.89596573 Ry
     xc contribution           =    -256.40822603 Ry
     ewald contribution        =    -771.68413387 Ry
     one-center paw contrib.   =   -1893.55515347 Ry
      -> PAW hartree energy AE =     434.00945906 Ry
      -> PAW hartree energy PS =    -406.94263868 Ry
      -> PAW xc energy AE      =   -1021.61551078 Ry
      -> PAW xc energy PS      =      47.77111366 Ry
      -> total E_H with PAW    =     403.96278611 Ry
      -> total E_XC with PAW   =   -1230.25262314 Ry

     convergence has been achieved in  91 iterations

     Writing all to output data dir calculations_bands/myprefix.save/

     General routines

     Parallel routines

     PAW routines

   This run was terminated on:  17:44: 8   4Jun2023

   JOB DONE.