     Program PWSCF v.7.1 starts on 15Jul2023 at 21: 2: 1

     Reading input from espresso_19907.pwi
Warning: card &CELL ignored
Warning: card / ignored

     Current dimensions of program PWSCF are:
     Max number of different atomic species (ntypx) = 10
     Max number of k-points (npk) =  40000
     Max angular momentum in pseudopotentials (lmaxx) =  4
     Message from routine setup:
     using ibrav=0 with symmetry is DISCOURAGED, use correct ibrav instead

     K-points division:     npool     =       2
     R & G space division:  proc/nbgrp/npool/nimage =       4
     Subspace diagonalization in iterative solution of the eigenvalue problem:
     one sub-group per band group will be used

     Using Slab Decomposition

     bravais-lattice index     =            0
     lattice parameter (alat)  =      12.2309  a.u.
     unit-cell volume          =    2409.0063 (a.u.)^3
     number of atoms/cell      =           18
     number of atomic types    =            3
     number of electrons       =       148.00
     number of Kohn-Sham states=          256
     kinetic-energy cutoff     =      30.0000  Ry
     charge density cutoff     =     240.0000  Ry
     scf convergence threshold =      1.0E-06
     mixing beta               =       0.7000
     number of iterations used =            8  plain     mixing
     Exchange-correlation= PBE
                           (   1   4   3   4   0   0   0)

     celldm(1)=  12.230887  celldm(2)=   0.000000  celldm(3)=   0.000000
     celldm(4)=   0.000000  celldm(5)=   0.000000  celldm(6)=   0.000000

     crystal axes: (cart. coord. in units of alat)
               a(1) = (   1.000000   0.000000   0.000000 )
               a(2) = (   0.379813   0.935355   0.000000 )
               a(3) = (   0.273413   0.402167   1.407627 )

     reciprocal axes: (cart. coord. in units 2 pi/alat)
               b(1) = (  1.000000 -0.406063 -0.078223 )
               b(2) = (  0.000000  1.069113 -0.305452 )
               b(3) = (  0.000000  0.000000  0.710415 )

     PseudoPot. # 1 for Sr read from file:
     /lustre07/scratch/pragov/crystal_structure_design/utils/SSSP/Sr_pbe_v1.uspp.F.UPF
     MD5 check sum: 6b418c05fbe9db5448babca5e47b7a5b
     Pseudo is Ultrasoft + core correction, Zval = 10.0
     Generated by new atomic code, or converted to UPF format
     Using radial grid of  883 points,  6 beta functions with:
                l(1) =   0
                l(2) =   0
                l(3) =   1
                l(4) =   1
                l(5) =   2
                l(6) =   2
     Q(r) pseudized with  6 coefficients,  rinner =    1.400   1.400   1.400
                                                       1.400   1.400

     PseudoPot. # 2 for Sn read from file:
     /lustre07/scratch/pragov/crystal_structure_design/utils/SSSP/Sn_pbe_v1.uspp.F.UPF
     MD5 check sum: 4cf58ce39ec5d5d420df3dd08604eb00
     Pseudo is Ultrasoft + core correction, Zval = 14.0
     Generated by new atomic code, or converted to UPF format
     Using radial grid of  891 points,  6 beta functions with:
                l(1) =   0
                l(2) =   0
                l(3) =   1
                l(4) =   1
                l(5) =   2
                l(6) =   2
     Q(r) pseudized with  6 coefficients,  rinner =    1.200   1.200   1.200
                                                       1.200   1.200

     PseudoPot. # 3 for N  read from file:
     /lustre07/scratch/pragov/crystal_structure_design/utils/SSSP/N.pbe-n-radius_5.UPF
     MD5 check sum: 16739722b17309cd8fe442a2ace49922
     Pseudo is Ultrasoft + core correction, Zval =  5.0
     Generated using "atomic" code by A. Dal Corso  v.5.1
     Using radial grid of 1085 points,  4 beta functions with:
                l(1) =   0
                l(2) =   0
                l(3) =   1
                l(4) =   1
     Q(r) pseudized with 0 coefficients

     atomic species   valence    mass     pseudopotential
        Sr            10.00    87.62000     Sr( 1.00)
        Sn            14.00   118.71000     Sn( 1.00)
        N              5.00    14.00700     N ( 1.00)

      2 Sym. Ops., with inversion, found

                                    s                        frac. trans.

      isym =  1     identity

 cryst.   s( 1) = (     1          0          0      )
                  (     0          1          0      )
                  (     0          0          1      )

 cart.    s( 1) = (  1.0000000 -0.0000000  0.0000000 )
                  (  0.0000000  1.0000000  0.0000000 )
                  (  0.0000000  0.0000000  1.0000000 )

      isym =  2     inversion

 cryst.   s( 2) = (    -1          0          0      )
                  (     0         -1          0      )
                  (     0          0         -1      )

 cart.    s( 2) = ( -1.0000000  0.0000000 -0.0000000 )
                  (  0.0000000 -1.0000000  0.0000000 )
                  (  0.0000000  0.0000000 -1.0000000 )

   Cartesian axes

     site n.     atom                  positions (alat units)
         1           Sr  tau(   1) = (   1.0379816   0.6107021   0.2479099  )
         2           Sr  tau(   2) = (   0.6152448   0.7268199   1.1597174  )
         3           Sr  tau(   3) = (   1.0972590   0.6099104   1.3812372  )
         4           Sr  tau(   4) = (   0.5559674   0.7276116   0.0263902  )
         5           Sr  tau(   5) = (   1.0702439   0.6858760   0.8016227  )
         6           Sr  tau(   6) = (   0.5829826   0.6516459   0.6060047  )
         7           Sr  tau(   7) = (   0.7612468   1.1386174   0.8532502  )
         8           Sr  tau(   8) = (   0.8919796   0.1989045   0.5543771  )
         9           Sn  tau(   9) = (   1.2441497   1.0977647   1.0652178  )
        10           Sn  tau(  10) = (   0.4090767   0.2397572   0.3424096  )
        11           N   tau(  11) = (   1.4119735   0.8995873   0.8564709  )
        12           N   tau(  12) = (   0.2412530   0.4379347   0.5511565  )
        13           N   tau(  13) = (   1.4617850   1.1513218   1.3037388  )
        14           N   tau(  14) = (   0.1914414   0.1862001   0.1038885  )
        15           N   tau(  15) = (   0.9731916   0.9131904   1.1341197  )
        16           N   tau(  16) = (   0.6800348   0.4243315   0.2735076  )
        17           N   tau(  17) = (   0.9056398   0.9153409   0.5167653  )
        18           N   tau(  18) = (   0.7475867   0.4221810   0.8908620  )

   Crystallographic axes

     site n.     atom                  positions (cryst. coord.)
         1           Sr  tau(   1) = (  0.7706060  0.5771850  0.1761190  )
         2           Sr  tau(   2) = (  0.2293940  0.4228150  0.8238810  )
         3           Sr  tau(   3) = (  0.7415530  0.2301620  0.9812520  )
         4           Sr  tau(   4) = (  0.2584470  0.7698380  0.0187480  )
         5           Sr  tau(   5) = (  0.7290300  0.4884220  0.5694850  )
         6           Sr  tau(   6) = (  0.2709700  0.5115780  0.4305150  )
         7           Sr  tau(   7) = (  0.2321530  0.9566840  0.6061620  )
         8           Sr  tau(   8) = (  0.7678470  0.0433160  0.3938380  )
         9           Sn  tau(   9) = (  0.7150640  0.8482620  0.7567470  )
        10           Sn  tau(  10) = (  0.2849360  0.1517380  0.2432530  )
        11           N   tau(  11) = (  0.9796890  0.7001500  0.6084500  )
        12           N   tau(  12) = (  0.0203110  0.2998500  0.3915500  )
        13           N   tau(  13) = (  0.8922940  0.8326640  0.9261960  )
        14           N   tau(  14) = (  0.1077060  0.1673360  0.0738040  )
        15           N   tau(  15) = (  0.5136650  0.6298850  0.8056960  )
        16           N   tau(  16) = (  0.4863350  0.3701150  0.1943040  )
        17           N   tau(  17) = (  0.4935310  0.8207560  0.3671180  )
        18           N   tau(  18) = (  0.5064690  0.1792440  0.6328820  )

     number of k points=    14
                       cart. coord. in units 2pi/alat
        k(    1) = (   0.0000000   0.0000000   0.0000000), wk =   0.0740741
        k(    2) = (   0.0000000   0.0000000   0.2368051), wk =   0.1481481
        k(    3) = (   0.0000000   0.3563710  -0.1018172), wk =   0.1481481
        k(    4) = (   0.0000000   0.3563710   0.1349879), wk =   0.1481481
        k(    5) = (   0.0000000   0.3563710  -0.3386223), wk =   0.1481481
        k(    6) = (   0.3333333  -0.1353543  -0.0260742), wk =   0.1481481
        k(    7) = (   0.3333333  -0.1353543   0.2107309), wk =   0.1481481
        k(    8) = (   0.3333333  -0.1353543  -0.2628793), wk =   0.1481481
        k(    9) = (   0.3333333   0.2210167  -0.1278914), wk =   0.1481481
        k(   10) = (   0.3333333   0.2210167   0.1089137), wk =   0.1481481
        k(   11) = (   0.3333333   0.2210167  -0.3646965), wk =   0.1481481
        k(   12) = (   0.3333333  -0.4917253   0.0757430), wk =   0.1481481
        k(   13) = (   0.3333333  -0.4917253   0.3125481), wk =   0.1481481
        k(   14) = (   0.3333333  -0.4917253  -0.1610621), wk =   0.1481481

                       cryst. coord.
        k(    1) = (   0.0000000   0.0000000   0.0000000), wk =   0.0740741
        k(    2) = (   0.0000000   0.0000000   0.3333333), wk =   0.1481481
        k(    3) = (   0.0000000   0.3333333   0.0000000), wk =   0.1481481
        k(    4) = (   0.0000000   0.3333333   0.3333333), wk =   0.1481481
        k(    5) = (   0.0000000   0.3333333  -0.3333333), wk =   0.1481481
        k(    6) = (   0.3333333   0.0000000   0.0000000), wk =   0.1481481
        k(    7) = (   0.3333333   0.0000000   0.3333333), wk =   0.1481481
        k(    8) = (   0.3333333   0.0000000  -0.3333333), wk =   0.1481481
        k(    9) = (   0.3333333   0.3333333  -0.0000000), wk =   0.1481481
        k(   10) = (   0.3333333   0.3333333   0.3333333), wk =   0.1481481
        k(   11) = (   0.3333333   0.3333333  -0.3333333), wk =   0.1481481
        k(   12) = (   0.3333333  -0.3333333   0.0000000), wk =   0.1481481
        k(   13) = (   0.3333333  -0.3333333   0.3333333), wk =   0.1481481
        k(   14) = (   0.3333333  -0.3333333  -0.3333333), wk =   0.1481481

     Check: negative core charge=   -0.000004

     Initial potential from superposition of free atoms

     starting charge     145.7306, renormalised to     148.0000

     negative rho (up, down):  5.130E-01 0.000E+00
     Starting wfcs are  154 randomized atomic wfcs +  102 random wfcs

     Self-consistent Calculation

     iteration #  1     ecut=    30.00 Ry     beta= 0.70
     Davidson diagonalization with overlap

     ethr =  1.00E-02,  avg # of iterations =  6.0

     negative rho (up, down):  5.102E-01 0.000E+00

     total energy              =   -1045.46811740 Ry
     estimated scf accuracy    <       8.18700692 Ry

[...]

     total energy              =   -1049.75697324 Ry
     estimated scf accuracy    <       0.00000108 Ry

     iteration # 13     ecut=    30.00 Ry     beta= 0.70
     Davidson diagonalization with overlap

     ethr =  7.29E-10,  avg # of iterations =  1.0

     negative rho (up, down):  5.306E-01 0.000E+00

     End of self-consistent calculation

          k = 0.0000 0.0000 0.0000 (  6675 PWs)   bands (ev):

   -25.4133 -25.3900 -25.2835 -25.2612 -25.2448 -25.2111 -24.9970 -24.9359
   -11.8199 -11.8180 -11.7857 -11.7833 -11.7660 -11.7650 -11.7077 -11.7063
   -11.6660 -11.6644  -8.0820  -8.0381  -7.8788  -7.8276  -7.7486  -7.7482
    -7.6559  -7.6051  -7.5514  -7.5259  -7.5073  -7.4177  -7.3363  -7.3243
    -7.3203  -7.3033  -7.1872  -7.1734  -7.0817  -7.0401  -7.0356  -6.9855
    -6.9425  -6.8013  -4.2366  -3.6460  -2.9388  -2.8705  -2.8440  -2.6901
    -2.5618  -2.4792   3.2626   3.3788   5.9566   5.9874   6.1662   6.3693
     6.4477   6.4479   6.7941   7.0532   7.3761   7.4707   7.5152   7.7158
     7.7895   7.9007   7.9650   8.0005   8.1361   8.1750   8.2185   8.2923
     8.3746   8.4811   9.2591  11.0511  11.2920  11.3673  11.8552  11.8994
    11.9631  12.4266  12.6189  12.6610  12.8768  12.9903  13.1136  13.2478
    13.3597  13.5228  13.5805  13.8373  14.0168  14.1025  14.2784  14.3854
    14.5235  14.5511  14.7834  14.8051  15.0929  15.2300  15.5239  15.5377
    15.7114  15.7637  16.1088  16.1375  16.2982  16.3299  16.7245  16.7908
    16.8340  17.0075  17.0363  17.0939  17.3267  17.5178  17.5428  17.6236
    17.8779  17.9955  18.2476  18.4502  18.4641  18.7657  18.7816  19.1088
    19.1617  19.3265  19.4769  19.8199  20.1385  20.2336  20.3387  20.5041
    20.6767  20.8702  20.9376  21.0435  21.3873  21.7365  21.7427  21.9879
    22.3090  22.4680  22.5197  22.9382  22.9467  23.1327  23.1844  23.3625
    23.4875  23.7016  23.7582  24.0206  24.3375  24.3983  24.6654  24.9913
    25.4677  25.4840  25.7657  25.7950  26.0921  26.4590  26.5441  26.6745
    26.7621  26.9883  27.2067  27.2959  27.4384  27.5761  27.7782  27.8839
    28.2345  28.3797  28.6762  28.7408  28.8172  28.8197  28.9351  28.9828
    29.0794  29.3054  29.4513  29.4756  29.5879  29.7026  29.8087  29.8411
    29.8927  30.0291  30.3023  30.3568  30.5723  30.6183  30.6937  30.8367
    30.9850  31.1537  31.1898  31.3849  31.3913  32.0383  32.1348  32.2196
    32.2694  32.3918  32.4862  32.6644  32.7711  32.9041  33.0800  33.2426
    33.2684  33.3518  33.6284  33.6719  33.7722  33.7938  33.9208  34.1404
    34.2956  34.3055  34.5996  34.6930  34.7918  34.7945  34.9775  35.0680
    35.3273  35.4328  35.4452  35.6675  35.8070  35.9205  36.0001  36.1123
    36.1842  36.3385  36.4065  36.4727  36.4896  36.8487  37.0069  37.1109
    37.1358  37.2815  37.4123  37.4898  37.7162  37.8169  37.8522  37.8965

     occupation numbers
     1.0000   1.0000   1.0000   1.0000   1.0000   1.0000   1.0000   1.0000
     1.0000   1.0000   1.0000   1.0000   1.0000   1.0000   1.0000   1.0000
     1.0000   1.0000   1.0000   1.0000   1.0000   1.0000   1.0000   1.0000
     1.0000   1.0000   1.0000   1.0000   1.0000   1.0000   1.0000   1.0000
     1.0000   1.0000   1.0000   1.0000   1.0000   1.0000   1.0000   1.0000
     1.0000   1.0000   1.0000   1.0000   1.0000   1.0000   1.0000   1.0000
     1.0000   1.0000   1.0000   1.0000   1.0000   1.0000   1.0000   1.0000
     1.0000   1.0000   1.0000   1.0000   1.0000   1.0000   1.0000   1.0000
     1.0000   1.0000   1.0000   1.0000   1.0000   1.0000   1.0000   1.0000
     1.0000   1.0000   0.0000   0.0000   0.0000   0.0000   0.0000   0.0000
     0.0000   0.0000   0.0000   0.0000   0.0000   0.0000   0.0000   0.0000
     0.0000   0.0000   0.0000   0.0000   0.0000   0.0000   0.0000   0.0000
     0.0000   0.0000   0.0000   0.0000   0.0000   0.0000   0.0000   0.0000
     0.0000   0.0000   0.0000   0.0000   0.0000   0.0000   0.0000   0.0000
     0.0000   0.0000   0.0000   0.0000   0.0000   0.0000   0.0000   0.0000
     0.0000   0.0000   0.0000   0.0000   0.0000   0.0000   0.0000   0.0000
     0.0000   0.0000   0.0000   0.0000   0.0000   0.0000   0.0000   0.0000
     0.0000   0.0000   0.0000   0.0000   0.0000   0.0000   0.0000   0.0000
     0.0000   0.0000   0.0000   0.0000   0.0000   0.0000   0.0000   0.0000
     0.0000   0.0000   0.0000   0.0000   0.0000   0.0000   0.0000   0.0000
     0.0000   0.0000   0.0000   0.0000   0.0000   0.0000   0.0000   0.0000
     0.0000   0.0000   0.0000   0.0000   0.0000   0.0000   0.0000   0.0000
     0.0000   0.0000   0.0000   0.0000   0.0000   0.0000   0.0000   0.0000
     0.0000   0.0000   0.0000   0.0000   0.0000   0.0000   0.0000   0.0000
     0.0000   0.0000   0.0000   0.0000   0.0000   0.0000   0.0000   0.0000
     0.0000   0.0000   0.0000   0.0000   0.0000   0.0000   0.0000   0.0000
     0.0000   0.0000   0.0000   0.0000   0.0000   0.0000   0.0000   0.0000
     0.0000   0.0000   0.0000   0.0000   0.0000   0.0000   0.0000   0.0000
     0.0000   0.0000   0.0000   0.0000   0.0000   0.0000   0.0000   0.0000
     0.0000   0.0000   0.0000   0.0000   0.0000   0.0000   0.0000   0.0000
     0.0000   0.0000   0.0000   0.0000   0.0000   0.0000   0.0000   0.0000
     0.0000   0.0000   0.0000   0.0000   0.0000   0.0000   0.0000   0.0000

[...]

          k = 0.3333-0.4917-0.1611 (  6671 PWs)   bands (ev):

   -25.3989 -25.3922 -25.2923 -25.2634 -25.2328 -25.2198 -24.9883 -24.9502
   -11.8188 -11.8176 -11.7839 -11.7835 -11.7658 -11.7650 -11.7073 -11.7065
   -11.6662 -11.6656  -7.9944  -7.9212  -7.8848  -7.8611  -7.7479  -7.7019
    -7.6688  -7.5903  -7.5685  -7.5255  -7.5042  -7.3805  -7.3725  -7.3407
    -7.2956  -7.2705  -7.2307  -7.1837  -7.1533  -7.1523  -7.0596  -7.0328
    -6.9638  -6.8780  -3.7129  -3.6571  -2.9799  -2.9409  -2.8683  -2.7573
    -2.6062  -2.5720   3.3648   3.3815   5.7548   5.9867   6.0976   6.1463
     6.2104   6.3338   6.9782   7.1801   7.3202   7.5633   7.6850   7.7933
     7.8049   7.8989   7.9357   7.9886   8.0148   8.1064   8.1920   8.2849
     8.2934   8.4614  10.7337  10.8349  11.0233  11.3998  11.6177  11.7334
    11.8709  12.0471  12.2128  12.5211  12.5909  12.7483  12.9195  13.0780
    13.3825  13.4875  13.7851  13.9132  14.0869  14.2991  14.5668  14.7143
    14.8381  15.0090  15.2020  15.3535  15.4343  15.6048  15.6236  15.7141
    15.8094  15.8532  15.9059  16.2292  16.3068  16.4332  16.5476  16.6365
    16.7851  16.8647  16.9281  17.0843  17.1460  17.2482  17.3539  17.4813
    17.5161  17.6970  17.8315  18.0955  18.2514  18.3015  18.4955  18.9389
    19.0353  19.4351  19.6149  19.9526  20.1544  20.3509  20.5061  20.6460
    20.7578  20.9108  21.1235  21.3714  21.7374  21.8452  22.0288  22.2205
    22.3473  22.4549  22.6312  22.9267  23.0687  23.3748  23.5801  23.6785
    23.7560  24.1595  24.3039  24.5778  24.7352  24.7684  24.9553  25.1041
    25.4133  25.5853  25.6909  25.9062  25.9646  26.0465  26.1907  26.4835
    26.5828  26.6962  27.1154  27.1601  27.2861  27.4394  27.4534  27.6188
    27.8054  27.8941  28.1879  28.3198  28.5003  28.7309  28.8167  28.8213
    28.8499  28.9191  28.9760  29.1193  29.2277  29.3517  29.3895  29.5672
    29.7988  29.9162  30.1338  30.1526  30.3763  30.5329  30.5686  30.7509
    30.8687  31.0627  31.1677  31.2477  31.3867  31.5010  31.6929  31.7891
    31.8726  32.0433  32.3863  32.4633  32.5888  32.6519  32.7190  32.9040
    32.9643  33.2141  33.2758  33.4585  33.7784  33.9187  34.0100  34.2007
    34.3336  34.4350  34.6149  34.8505  34.9027  35.0411  35.1883  35.4452
    35.4782  35.6465  35.7511  35.7683  35.8865  36.0090  36.0680  36.4382
    36.5453  36.6934  36.7556  36.7982  36.9840  37.0463  37.1162  37.2572
    37.3823  37.6408  37.8320  37.9050  37.9146  37.9977  38.1639  38.3268

     occupation numbers
     1.0000   1.0000   1.0000   1.0000   1.0000   1.0000   1.0000   1.0000
     1.0000   1.0000   1.0000   1.0000   1.0000   1.0000   1.0000   1.0000
     1.0000   1.0000   1.0000   1.0000   1.0000   1.0000   1.0000   1.0000
     1.0000   1.0000   1.0000   1.0000   1.0000   1.0000   1.0000   1.0000
     1.0000   1.0000   1.0000   1.0000   1.0000   1.0000   1.0000   1.0000
     1.0000   1.0000   1.0000   1.0000   1.0000   1.0000   1.0000   1.0000
     1.0000   1.0000   1.0000   1.0000   1.0000   1.0000   1.0000   1.0000
     1.0000   1.0000   1.0000   1.0000   1.0000   1.0000   1.0000   1.0000
     1.0000   1.0000   1.0000   1.0000   1.0000   1.0000   1.0000   1.0000
     1.0000   1.0000   0.0000   0.0000   0.0000   0.0000   0.0000   0.0000
     0.0000   0.0000   0.0000   0.0000   0.0000   0.0000   0.0000   0.0000
     0.0000   0.0000   0.0000   0.0000   0.0000   0.0000   0.0000   0.0000
     0.0000   0.0000   0.0000   0.0000   0.0000   0.0000   0.0000   0.0000
     0.0000   0.0000   0.0000   0.0000   0.0000   0.0000   0.0000   0.0000
     0.0000   0.0000   0.0000   0.0000   0.0000   0.0000   0.0000   0.0000
     0.0000   0.0000   0.0000   0.0000   0.0000   0.0000   0.0000   0.0000
     0.0000   0.0000   0.0000   0.0000   0.0000   0.0000   0.0000   0.0000
     0.0000   0.0000   0.0000   0.0000   0.0000   0.0000   0.0000   0.0000
     0.0000   0.0000   0.0000   0.0000   0.0000   0.0000   0.0000   0.0000
     0.0000   0.0000   0.0000   0.0000   0.0000   0.0000   0.0000   0.0000
     0.0000   0.0000   0.0000   0.0000   0.0000   0.0000   0.0000   0.0000
     0.0000   0.0000   0.0000   0.0000   0.0000   0.0000   0.0000   0.0000
     0.0000   0.0000   0.0000   0.0000   0.0000   0.0000   0.0000   0.0000
     0.0000   0.0000   0.0000   0.0000   0.0000   0.0000   0.0000   0.0000
     0.0000   0.0000   0.0000   0.0000   0.0000   0.0000   0.0000   0.0000
     0.0000   0.0000   0.0000   0.0000   0.0000   0.0000   0.0000   0.0000
     0.0000   0.0000   0.0000   0.0000   0.0000   0.0000   0.0000   0.0000
     0.0000   0.0000   0.0000   0.0000   0.0000   0.0000   0.0000   0.0000
     0.0000   0.0000   0.0000   0.0000   0.0000   0.0000   0.0000   0.0000
     0.0000   0.0000   0.0000   0.0000   0.0000   0.0000   0.0000   0.0000
     0.0000   0.0000   0.0000   0.0000   0.0000   0.0000   0.0000   0.0000
     0.0000   0.0000   0.0000   0.0000   0.0000   0.0000   0.0000   0.0000

     highest occupied, lowest unoccupied level (ev):     8.5332    9.2591

!    total energy              =   -1049.75697341 Ry
     estimated scf accuracy    <       0.00000003 Ry

     The total energy is the sum of the following terms:
     one-electron contribution =    -276.96065117 Ry
     hartree contribution      =     214.96417242 Ry
     xc contribution           =    -285.30780587 Ry
     ewald contribution        =    -702.45268880 Ry

     convergence has been achieved in  13 iterations

     Writing all to output data dir bands_nm/myprefix.save/

     General routines

     Parallel routines

   This run was terminated on:  21: 3:36  15Jul2023

   JOB DONE.