     Program PWSCF v.7.1 starts on 17Jul2023 at  1:38:11

     Reading input from espresso_25424.pwi
Warning: card &CELL ignored
Warning: card / ignored

     Current dimensions of program PWSCF are:
     Max number of different atomic species (ntypx) = 10
     Max number of k-points (npk) =  40000
     Max angular momentum in pseudopotentials (lmaxx) =  4
     file Ba.pbe-spn-kjpaw_psl.1.0.0.UPF: wavefunction(s)  5S 6S renormalized
     file O.pbe-n-kjpaw_psl.0.1.UPF: wavefunction(s)  2P renormalized
     Message from routine setup:
     using ibrav=0 with symmetry is DISCOURAGED, use correct ibrav instead

     K-points division:     npool     =       2
     R & G space division:  proc/nbgrp/npool/nimage =       4
     Subspace diagonalization in iterative solution of the eigenvalue problem:
     one sub-group per band group will be used

     Using Slab Decomposition

     bravais-lattice index     =            0
     lattice parameter (alat)  =      13.3247  a.u.
     unit-cell volume          =    4027.4641 (a.u.)^3
     number of atoms/cell      =           20
     number of atomic types    =            3
     number of electrons       =       160.00
     number of Kohn-Sham states=          256
     kinetic-energy cutoff     =      30.0000  Ry
     charge density cutoff     =     240.0000  Ry
     scf convergence threshold =      1.0E-06
     mixing beta               =       0.7000
     number of iterations used =            8  plain     mixing
     Exchange-correlation= SLA  PW   PBX  PBC
                           (   1   4   3   4   0   0   0)

     celldm(1)=  13.324729  celldm(2)=   0.000000  celldm(3)=   0.000000
     celldm(4)=   0.000000  celldm(5)=   0.000000  celldm(6)=   0.000000

     crystal axes: (cart. coord. in units of alat)
               a(1) = (   1.000000   0.000000   0.000000 )
               a(2) = (   0.000000   1.043392   0.000000 )
               a(3) = (   0.000000   0.000000   1.631582 )

     reciprocal axes: (cart. coord. in units 2 pi/alat)
               b(1) = (  1.000000  0.000000  0.000000 )
               b(2) = (  0.000000  0.958412  0.000000 )
               b(3) = (  0.000000  0.000000  0.612902 )

     PseudoPot. # 1 for Cs read from file:
     /lustre07/scratch/pragov/crystal_structure_design/utils/SSSP/Cs_pbe_v1.uspp.F.UPF
     MD5 check sum: 3476d69cb178dfad3ffaa59df4e07ca4
     Pseudo is Ultrasoft + core correction, Zval =  9.0
     Generated by new atomic code, or converted to UPF format
     Using radial grid of  905 points,  6 beta functions with:
                l(1) =   0
                l(2) =   0
                l(3) =   1
                l(4) =   1
                l(5) =   2
                l(6) =   2
     Q(r) pseudized with  6 coefficients,  rinner =    1.500   1.500   1.500
                                                       1.500   1.500

     PseudoPot. # 2 for Ba read from file:
     /lustre07/scratch/pragov/crystal_structure_design/utils/SSSP/Ba.pbe-spn-kjpaw_psl.1.0.0.UPF
     MD5 check sum: c432291d3e53af55f19d5e8866385beb
     Pseudo is Projector augmented-wave + core cor, Zval = 10.0
     Generated using "atomic" code by A. Dal Corso  v.5.1
     Shape of augmentation charge: PSQ
     Using radial grid of 1251 points,  7 beta functions with:
                l(1) =   0
                l(2) =   0
                l(3) =   0
                l(4) =   1
                l(5) =   1
                l(6) =   2
                l(7) =   2
     Q(r) pseudized with 0 coefficients

     PseudoPot. # 3 for O  read from file:
     /lustre07/scratch/pragov/crystal_structure_design/utils/SSSP/O.pbe-n-kjpaw_psl.0.1.UPF
     MD5 check sum: 0234752ac141de4415c5fc33072bef88
     Pseudo is Projector augmented-wave + core cor, Zval =  6.0
     Generated using "atomic" code by A. Dal Corso  v.5.0.99 svn rev. 10869
     Shape of augmentation charge: BESSEL
     Using radial grid of 1095 points,  4 beta functions with:
                l(1) =   0
                l(2) =   0
                l(3) =   1
                l(4) =   1
     Q(r) pseudized with 0 coefficients

     atomic species   valence    mass     pseudopotential
        Cs             9.00   132.90545     Cs( 1.00)
        Ba            10.00   137.32700     Ba( 1.00)
        O              6.00    15.99900     O ( 1.00)

      8 Sym. Ops., with inversion, found ( 6 have fractional translation)

                                    s                        frac. trans.

      isym =  1     identity

 cryst.   s( 1) = (     1          0          0      )
                  (     0          1          0      )
                  (     0          0          1      )

 cart.    s( 1) = (  1.0000000  0.0000000  0.0000000 )
                  (  0.0000000  1.0000000  0.0000000 )
                  (  0.0000000  0.0000000  1.0000000 )

      isym =  2     180 deg rotation - cart. axis [0,0,1]

 cryst.   s( 2) = (    -1          0          0      )    f =(  0.5000000 )
                  (     0         -1          0      )       (  0.0000000 )
                  (     0          0          1      )       ( -0.5000000 )

 cart.    s( 2) = ( -1.0000000  0.0000000  0.0000000 )    f =(  0.5000000 )
                  (  0.0000000 -1.0000000  0.0000000 )       (  0.0000000 )
                  (  0.0000000  0.0000000  1.0000000 )       ( -0.8157910 )

[...]

      isym =  4     180 deg rotation - cart. axis [1,0,0]

[...]

      isym =  5     inversion

 cryst.   s( 5) = (    -1          0          0      )
                  (     0         -1          0      )
                  (     0          0         -1      )

 cart.    s( 5) = ( -1.0000000  0.0000000  0.0000000 )
                  (  0.0000000 -1.0000000  0.0000000 )
                  (  0.0000000  0.0000000 -1.0000000 )

      isym =  6     inv. 180 deg rotation - cart. axis [0,0,1]

[...]

      isym =  8     inv. 180 deg rotation - cart. axis [1,0,0]

 cryst.   s( 8) = (    -1          0          0      )    f =(  0.0000000 )
                  (     0          1          0      )       (  0.5000000 )
                  (     0          0          1      )       (  0.0000000 )

 cart.    s( 8) = ( -1.0000000  0.0000000  0.0000000 )    f =(  0.0000000 )
                  (  0.0000000  1.0000000  0.0000000 )       (  0.5216961 )
                  (  0.0000000  0.0000000  1.0000000 )       (  0.0000000 )

   Cartesian axes

     site n.     atom                  positions (alat units)
         1           Cs  tau(   1) = (   0.4124760   0.6226621   0.2595945  )
         2           Cs  tau(   2) = (   0.5875240   0.1009659   0.2595945  )
         3           Cs  tau(   3) = (   0.0875240   0.1009659   0.5561965  )
         4           Cs  tau(   4) = (   0.9124760   0.6226621   0.5561965  )
         5           Cs  tau(   5) = (   0.0875240   0.4207302   1.0753855  )
         6           Cs  tau(   6) = (   0.9124760   0.9424263   1.0753855  )
         7           Cs  tau(   7) = (   0.4124760   0.9424263   1.3719875  )
         8           Cs  tau(   8) = (   0.5875240   0.4207302   1.3719875  )
         9           Ba  tau(   9) = (   0.0267060   0.2608481   0.0000000  )
        10           Ba  tau(  10) = (   0.9732940   0.7825442   0.0000000  )
        11           Ba  tau(  11) = (   0.4732940   0.7825442   0.8157910  )
        12           Ba  tau(  12) = (   0.5267060   0.2608481   0.8157910  )
        13           O   tau(  13) = (   0.1930800   1.0177540   0.1726671  )
        14           O   tau(  14) = (   0.8069200   0.4960579   0.1726671  )
        15           O   tau(  15) = (   0.3069200   0.4960579   0.6431239  )
        16           O   tau(  16) = (   0.6930800   1.0177540   0.6431239  )
        17           O   tau(  17) = (   0.3069200   0.0256382   0.9884581  )
        18           O   tau(  18) = (   0.6930800   0.5473344   0.9884581  )
        19           O   tau(  19) = (   0.1930800   0.5473344   1.4589149  )
        20           O   tau(  20) = (   0.8069200   0.0256382   1.4589149  )

   Crystallographic axes

     site n.     atom                  positions (cryst. coord.)
         1           Cs  tau(   1) = (  0.4124760  0.5967670  0.1591060  )
         2           Cs  tau(   2) = (  0.5875240  0.0967670  0.1591060  )
         3           Cs  tau(   3) = (  0.0875240  0.0967670  0.3408940  )
         4           Cs  tau(   4) = (  0.9124760  0.5967670  0.3408940  )
         5           Cs  tau(   5) = (  0.0875240  0.4032330  0.6591060  )
         6           Cs  tau(   6) = (  0.9124760  0.9032330  0.6591060  )
         7           Cs  tau(   7) = (  0.4124760  0.9032330  0.8408940  )
         8           Cs  tau(   8) = (  0.5875240  0.4032330  0.8408940  )
         9           Ba  tau(   9) = (  0.0267060  0.2500000  0.0000000  )
        10           Ba  tau(  10) = (  0.9732940  0.7500000  0.0000000  )
        11           Ba  tau(  11) = (  0.4732940  0.7500000  0.5000000  )
        12           Ba  tau(  12) = (  0.5267060  0.2500000  0.5000000  )
        13           O   tau(  13) = (  0.1930800  0.9754280  0.1058280  )
        14           O   tau(  14) = (  0.8069200  0.4754280  0.1058280  )
        15           O   tau(  15) = (  0.3069200  0.4754280  0.3941720  )
        16           O   tau(  16) = (  0.6930800  0.9754280  0.3941720  )
        17           O   tau(  17) = (  0.3069200  0.0245720  0.6058280  )
        18           O   tau(  18) = (  0.6930800  0.5245720  0.6058280  )
        19           O   tau(  19) = (  0.1930800  0.5245720  0.8941720  )
        20           O   tau(  20) = (  0.8069200  0.0245720  0.8941720  )

     number of k points=     8
                       cart. coord. in units 2pi/alat
        k(    1) = (   0.0000000   0.0000000   0.0000000), wk =   0.0740741
        k(    2) = (   0.0000000   0.0000000   0.2043007), wk =   0.1481481
        k(    3) = (   0.0000000   0.3194708   0.0000000), wk =   0.1481481
        k(    4) = (   0.0000000   0.3194708   0.2043007), wk =   0.2962963
        k(    5) = (   0.3333333   0.0000000   0.0000000), wk =   0.1481481
        k(    6) = (   0.3333333   0.0000000   0.2043007), wk =   0.2962963
        k(    7) = (   0.3333333   0.3194708   0.0000000), wk =   0.2962963
        k(    8) = (   0.3333333   0.3194708   0.2043007), wk =   0.5925926

                       cryst. coord.
        k(    1) = (   0.0000000   0.0000000   0.0000000), wk =   0.0740741
        k(    2) = (   0.0000000   0.0000000   0.3333333), wk =   0.1481481
        k(    3) = (   0.0000000   0.3333333   0.0000000), wk =   0.1481481
        k(    4) = (   0.0000000   0.3333333   0.3333333), wk =   0.2962963
        k(    5) = (   0.3333333   0.0000000   0.0000000), wk =   0.1481481
        k(    6) = (   0.3333333   0.0000000   0.3333333), wk =   0.2962963
        k(    7) = (   0.3333333   0.3333333   0.0000000), wk =   0.2962963
        k(    8) = (   0.3333333   0.3333333   0.3333333), wk =   0.5925926

     Check: negative core charge=   -0.000005

     Initial potential from superposition of free atoms

     starting charge     159.6169, renormalised to     160.0000
     Starting wfcs are  156 randomized atomic wfcs +  100 random wfcs
     Checking if some PAW data can be deallocated...

     Self-consistent Calculation

     iteration #  1     ecut=    30.00 Ry     beta= 0.70
     Davidson diagonalization with overlap

     ethr =  1.00E-02,  avg # of iterations =  8.4

     total energy              =   -2579.09686160 Ry
     estimated scf accuracy    <       7.86734436 Ry

[...]

     total energy              =   -2583.19523017 Ry
     estimated scf accuracy    <       0.00000293 Ry

     iteration # 12     ecut=    30.00 Ry     beta= 0.70
     Davidson diagonalization with overlap

     ethr =  1.83E-09,  avg # of iterations =  1.0

     End of self-consistent calculation

          k = 0.0000 0.0000 0.0000 ( 11179 PWs)   bands (ev):

   -19.5015 -19.5004 -19.3457 -19.3453 -15.2045 -15.1493 -15.1120 -15.0533
   -15.0371 -15.0200 -14.9688 -14.9577  -9.0975  -9.0653  -8.9133  -8.9067
    -8.8522  -8.8129  -8.5669  -8.4877  -4.8631  -4.8534  -4.8330  -4.8223
    -4.6804  -4.6263  -4.6133  -4.5747  -4.5024  -4.4893  -4.0879  -4.0876
    -2.6907  -2.6432  -2.5686  -2.5161  -2.4024  -2.2316  -2.1810  -2.1637
    -2.0754  -2.0243  -1.8848  -1.8269  -1.7782  -1.6925  -1.6608  -1.6516
    -1.6417  -1.5945  -1.5647  -1.5442  -1.4816  -1.4387  -1.4110  -1.3723
     5.1722   5.2247   5.2867   5.3967   5.4543   5.4999   5.5072   5.5336
     5.7132   5.7249   5.7506   5.7758   5.8090   5.8496   5.9414   5.9924
     6.0074   6.0341   6.0481   6.0809   6.1039   6.1254   6.5545   6.5989
     8.0652   9.3121   9.3676   9.4801   9.8261   9.8315  10.1421  10.1472
    10.2177  10.3385  10.4427  10.4657  10.5370  10.8332  10.8771  10.8902
    10.9718  11.0948  11.0964  11.2052  11.4058  11.4111  11.5575  11.7252
    11.7960  11.8247  11.8494  11.9531  11.9876  12.0509  12.1062  12.2623
    12.4331  12.4535  12.5535  12.7547  12.8151  12.8456  12.9158  13.1078
    13.1107  13.2870  13.5027  13.6226  14.1347  14.1782  14.2358  14.2614
    14.3947  14.4410  14.8570  14.9350  14.9418  15.0307  15.0761  15.1327
    15.2275  15.2468  15.4244  15.5793  15.6300  15.6982  16.1641  16.2281
    16.4594  16.5356  16.5958  16.6200  16.6831  16.7446  16.9709  17.1003
    17.3927  17.3999  17.4223  17.4832  17.5113  17.7280  17.8082  17.8887
    17.8998  17.9027  18.1064  18.1907  18.2433  18.2827  18.4175  18.5446
    18.8612  19.0542  19.1174  19.1238  19.1815  19.2237  19.3826  19.5188
    19.5845  19.5863  19.8590  19.8690  19.9082  20.0325  20.1524  20.2155
    20.3756  20.4120  20.5474  20.6239  20.7545  20.7736  20.7738  20.8747
    21.1918  21.2379  21.4255  21.6294  21.6680  21.6709  21.6929  21.7836
    21.8196  21.8597  21.9193  21.9485  21.9681  22.0421  22.2651  22.3420
    22.3502  22.4620  22.5217  22.5342  22.5600  22.5607  22.6336  22.6372
    22.6433  22.7065  22.7266  22.7526  22.7608  22.8550  22.9484  23.0321
    23.0601  23.1453  23.1639  23.2447  23.2682  23.3150  23.4548  23.4993
    23.5438  23.6236  23.6657  23.7536  23.9296  23.9445  23.9915  24.0850
    24.2823  24.3448  24.3867  24.4706  24.5170  24.5832  24.5993  24.6683
    24.7274  24.7848  24.8581  25.1220  25.1351  25.2278  25.4616  25.6102

     occupation numbers
     1.0000   1.0000   1.0000   1.0000   1.0000   1.0000   1.0000   1.0000
     1.0000   1.0000   1.0000   1.0000   1.0000   1.0000   1.0000   1.0000
     1.0000   1.0000   1.0000   1.0000   1.0000   1.0000   1.0000   1.0000
     1.0000   1.0000   1.0000   1.0000   1.0000   1.0000   1.0000   1.0000
     1.0000   1.0000   1.0000   1.0000   1.0000   1.0000   1.0000   1.0000
     1.0000   1.0000   1.0000   1.0000   1.0000   1.0000   1.0000   1.0000
     1.0000   1.0000   1.0000   1.0000   1.0000   1.0000   1.0000   1.0000
     1.0000   1.0000   1.0000   1.0000   1.0000   1.0000   1.0000   1.0000
     1.0000   1.0000   1.0000   1.0000   1.0000   1.0000   1.0000   1.0000
     1.0000   1.0000   1.0000   1.0000   1.0000   1.0000   1.0000   1.0000
     0.0000   0.0000   0.0000   0.0000   0.0000   0.0000   0.0000   0.0000
     0.0000   0.0000   0.0000   0.0000   0.0000   0.0000   0.0000   0.0000
     0.0000   0.0000   0.0000   0.0000   0.0000   0.0000   0.0000   0.0000
     0.0000   0.0000   0.0000   0.0000   0.0000   0.0000   0.0000   0.0000
     0.0000   0.0000   0.0000   0.0000   0.0000   0.0000   0.0000   0.0000
     0.0000   0.0000   0.0000   0.0000   0.0000   0.0000   0.0000   0.0000
     0.0000   0.0000   0.0000   0.0000   0.0000   0.0000   0.0000   0.0000
     0.0000   0.0000   0.0000   0.0000   0.0000   0.0000   0.0000   0.0000
     0.0000   0.0000   0.0000   0.0000   0.0000   0.0000   0.0000   0.0000
     0.0000   0.0000   0.0000   0.0000   0.0000   0.0000   0.0000   0.0000
     0.0000   0.0000   0.0000   0.0000   0.0000   0.0000   0.0000   0.0000
     0.0000   0.0000   0.0000   0.0000   0.0000   0.0000   0.0000   0.0000
     0.0000   0.0000   0.0000   0.0000   0.0000   0.0000   0.0000   0.0000
     0.0000   0.0000   0.0000   0.0000   0.0000   0.0000   0.0000   0.0000
     0.0000   0.0000   0.0000   0.0000   0.0000   0.0000   0.0000   0.0000
     0.0000   0.0000   0.0000   0.0000   0.0000   0.0000   0.0000   0.0000
     0.0000   0.0000   0.0000   0.0000   0.0000   0.0000   0.0000   0.0000
     0.0000   0.0000   0.0000   0.0000   0.0000   0.0000   0.0000   0.0000
     0.0000   0.0000   0.0000   0.0000   0.0000   0.0000   0.0000   0.0000
     0.0000   0.0000   0.0000   0.0000   0.0000   0.0000   0.0000   0.0000
     0.0000   0.0000   0.0000   0.0000   0.0000   0.0000   0.0000   0.0000
     0.0000   0.0000   0.0000   0.0000   0.0000   0.0000   0.0000   0.0000

[...]

          k = 0.3333 0.3195 0.2043 ( 11175 PWs)   bands (ev):

   -19.4630 -19.4628 -19.3854 -19.3852 -15.1401 -15.1232 -15.0735 -15.0605
   -15.0559 -15.0476 -15.0123 -14.9998  -8.9518  -8.9411  -8.8713  -8.8692
    -8.8603  -8.8538  -8.6889  -8.6707  -4.9298  -4.9250  -4.9226  -4.9167
    -4.5051  -4.5017  -4.4658  -4.4610  -4.4541  -4.4512  -4.2355  -4.2323
    -2.4593  -2.4473  -2.4412  -2.4320  -2.2241  -2.2093  -2.1787  -2.1156
    -2.0792  -2.0311  -1.9793  -1.9447  -1.8618  -1.7918  -1.7378  -1.7053
    -1.6617  -1.6243  -1.6176  -1.5970  -1.5539  -1.5378  -1.5078  -1.5039
     5.3426   5.3462   5.3927   5.4430   5.4650   5.4954   5.5046   5.5673
     5.6275   5.6911   5.7323   5.7439   5.8060   5.8440   5.8523   5.8835
     5.9547   5.9701   6.1051   6.1241   6.1666   6.1868   6.2711   6.2853
     9.1957   9.2739   9.4308   9.4815   9.5590   9.6361   9.9214  10.0253
    10.2110  10.2602  10.2976  10.3997  10.4654  10.5304  10.5689  10.6906
    10.8731  10.9595  11.1839  11.2927  11.4869  11.5810  11.7044  11.8053
    11.8591  11.9740  12.0438  12.1778  12.2286  12.4627  12.5469  12.5962
    12.6422  12.7070  12.8110  13.0081  13.1253  13.2000  13.2887  13.4222
    13.5197  13.5963  13.6567  13.7150  13.8559  13.9347  13.9952  14.1276
    14.3193  14.4563  14.4790  14.5782  14.6793  14.7405  14.8881  15.0111
    15.1498  15.2328  15.3264  15.4468  15.4720  15.5483  15.7744  15.8215
    15.9796  16.0051  16.1847  16.3387  16.5977  16.7641  16.8943  17.0210
    17.0447  17.1838  17.4122  17.5081  17.5347  17.7039  17.7421  17.8732
    18.0519  18.2059  18.3177  18.3671  18.5704  18.6324  18.6803  18.8352
    18.9273  18.9694  19.0278  19.2125  19.2329  19.3377  19.4006  19.4708
    19.5558  19.6853  19.7200  19.7630  19.9387  20.0985  20.1278  20.2244
    20.2820  20.4217  20.4386  20.5437  20.6015  20.7525  20.8528  20.9263
    20.9955  21.0984  21.2153  21.2247  21.3873  21.4041  21.4892  21.6052
    21.7043  21.7265  21.7812  21.9429  21.9459  22.1243  22.1786  22.2548
    22.3420  22.4543  22.4892  22.5172  22.5733  22.5914  22.5995  22.6209
    22.6371  22.6514  22.6825  22.7070  22.7310  22.8436  22.8623  22.8834
    22.9829  23.1044  23.2246  23.3180  23.4007  23.4863  23.5488  23.6294
    23.6806  23.7706  23.8787  24.0445  24.1031  24.1585  24.2732  24.2951
    24.3585  24.3715  24.5333  24.5818  24.6309  24.7632  24.8774  24.8983
    25.0129  25.1618  25.1676  25.2759  25.3952  25.5344  25.5599  25.6808

     occupation numbers
     1.0000   1.0000   1.0000   1.0000   1.0000   1.0000   1.0000   1.0000
     1.0000   1.0000   1.0000   1.0000   1.0000   1.0000   1.0000   1.0000
     1.0000   1.0000   1.0000   1.0000   1.0000   1.0000   1.0000   1.0000
     1.0000   1.0000   1.0000   1.0000   1.0000   1.0000   1.0000   1.0000
     1.0000   1.0000   1.0000   1.0000   1.0000   1.0000   1.0000   1.0000
     1.0000   1.0000   1.0000   1.0000   1.0000   1.0000   1.0000   1.0000
     1.0000   1.0000   1.0000   1.0000   1.0000   1.0000   1.0000   1.0000
     1.0000   1.0000   1.0000   1.0000   1.0000   1.0000   1.0000   1.0000
     1.0000   1.0000   1.0000   1.0000   1.0000   1.0000   1.0000   1.0000
     1.0000   1.0000   1.0000   1.0000   1.0000   1.0000   1.0000   1.0000
     0.0000   0.0000   0.0000   0.0000   0.0000   0.0000   0.0000   0.0000
     0.0000   0.0000   0.0000   0.0000   0.0000   0.0000   0.0000   0.0000
     0.0000   0.0000   0.0000   0.0000   0.0000   0.0000   0.0000   0.0000
     0.0000   0.0000   0.0000   0.0000   0.0000   0.0000   0.0000   0.0000
     0.0000   0.0000   0.0000   0.0000   0.0000   0.0000   0.0000   0.0000
     0.0000   0.0000   0.0000   0.0000   0.0000   0.0000   0.0000   0.0000
     0.0000   0.0000   0.0000   0.0000   0.0000   0.0000   0.0000   0.0000
     0.0000   0.0000   0.0000   0.0000   0.0000   0.0000   0.0000   0.0000
     0.0000   0.0000   0.0000   0.0000   0.0000   0.0000   0.0000   0.0000
     0.0000   0.0000   0.0000   0.0000   0.0000   0.0000   0.0000   0.0000
     0.0000   0.0000   0.0000   0.0000   0.0000   0.0000   0.0000   0.0000
     0.0000   0.0000   0.0000   0.0000   0.0000   0.0000   0.0000   0.0000
     0.0000   0.0000   0.0000   0.0000   0.0000   0.0000   0.0000   0.0000
     0.0000   0.0000   0.0000   0.0000   0.0000   0.0000   0.0000   0.0000
     0.0000   0.0000   0.0000   0.0000   0.0000   0.0000   0.0000   0.0000
     0.0000   0.0000   0.0000   0.0000   0.0000   0.0000   0.0000   0.0000
     0.0000   0.0000   0.0000   0.0000   0.0000   0.0000   0.0000   0.0000
     0.0000   0.0000   0.0000   0.0000   0.0000   0.0000   0.0000   0.0000
     0.0000   0.0000   0.0000   0.0000   0.0000   0.0000   0.0000   0.0000
     0.0000   0.0000   0.0000   0.0000   0.0000   0.0000   0.0000   0.0000
     0.0000   0.0000   0.0000   0.0000   0.0000   0.0000   0.0000   0.0000
     0.0000   0.0000   0.0000   0.0000   0.0000   0.0000   0.0000   0.0000

     highest occupied, lowest unoccupied level (ev):     6.5989    8.0652

!    total energy              =   -2583.19523058 Ry
     estimated scf accuracy    <       0.00000002 Ry

     The total energy is the sum of the following terms:
     one-electron contribution =    -183.09302342 Ry
     hartree contribution      =     175.58294238 Ry
     xc contribution           =    -383.36574800 Ry
     ewald contribution        =    -616.24909658 Ry
     one-center paw contrib.   =   -1576.07030496 Ry
      -> PAW hartree energy AE =       0.00000000 Ry
      -> PAW hartree energy PS =       0.00000000 Ry
      -> PAW xc energy AE      =       0.00000000 Ry
      -> PAW xc energy PS      =       0.00000000 Ry
      -> total E_H with PAW    =     175.58294238 Ry
      -> total E_XC with PAW   =    -383.36574800 Ry

     convergence has been achieved in  12 iterations

     Writing all to output data dir bands_nm/myprefix.save/

     General routines

     Parallel routines

     PAW routines

   This run was terminated on:   1:39:41  17Jul2023

   JOB DONE.