     Program PWSCF v.7.1 starts on 16Jul2023 at 23:57:19

     Reading input from espresso_27041.pwi
Warning: card &CELL ignored
Warning: card / ignored

     Current dimensions of program PWSCF are:
     Max number of different atomic species (ntypx) = 10
     Max number of k-points (npk) =  40000
     Max angular momentum in pseudopotentials (lmaxx) =  4
     file K.pbe-spn-kjpaw_psl.1.0.0.UPF: wavefunction(s)  3S renormalized
     file Ba.pbe-spn-kjpaw_psl.1.0.0.UPF: wavefunction(s)  5S 6S renormalized
     file Gd.paw.z_18.atompaw.wentzcovitch.v1.2.upf: wavefunction(s)  6S 0P 5D 0D 4F 0F renormalized
     file O.pbe-n-kjpaw_psl.0.1.UPF: wavefunction(s)  2P renormalized
     Message from routine setup:
     the system is metallic, specify occupations
     Message from routine setup:
     using ibrav=0 with symmetry is DISCOURAGED, use correct ibrav instead

     K-points division:     npool     =       2
     R & G space division:  proc/nbgrp/npool/nimage =       4
     Subspace diagonalization in iterative solution of the eigenvalue problem:
     a serial algorithm will be used

     Using Slab Decomposition

     bravais-lattice index     =            0
     lattice parameter (alat)  =      11.3755  a.u.
     unit-cell volume          =    1040.8792 (a.u.)^3
     number of atoms/cell      =           10
     number of atomic types    =            5
     number of electrons       =        87.00 (up:  47.00, down:  40.00)
     number of Kohn-Sham states=           64
     kinetic-energy cutoff     =      30.0000  Ry
     charge density cutoff     =     240.0000  Ry
     scf convergence threshold =      1.0E-06
     mixing beta               =       0.7000
     number of iterations used =            8  plain     mixing
     Exchange-correlation= SLA  PW   PBX  PBC
                           (   1   4   3   4   0   0   0)

     celldm(1)=  11.375534  celldm(2)=   0.000000  celldm(3)=   0.000000
     celldm(4)=   0.000000  celldm(5)=   0.000000  celldm(6)=   0.000000

     crystal axes: (cart. coord. in units of alat)
               a(1) = (   1.000000   0.000000   0.000000 )
               a(2) = (   0.500000   0.866025   0.000000 )
               a(3) = (   0.500000   0.288675   0.816497 )

     reciprocal axes: (cart. coord. in units 2 pi/alat)
               b(1) = (  1.000000 -0.577350 -0.408248 )
               b(2) = (  0.000000  1.154701 -0.408248 )
               b(3) = (  0.000000  0.000000  1.224745 )

     PseudoPot. # 1 for K  read from file:
     /lustre03/project/6004852/pragov/crystal_structure_design/crystal-design/crystal_design/utils/SSSP/K.pbe-spn-kjpaw_psl.1.0.0.UPF
     MD5 check sum: 7d58810084cac21f60fbe77ea2b688fd
     Pseudo is Projector augmented-wave + core cor, Zval =  9.0
     Generated using "atomic" code by A. Dal Corso  v.5.1
     Shape of augmentation charge: PSQ
     Using radial grid of 1165 points,  6 beta functions with:
                l(1) =   0
                l(2) =   0
                l(3) =   1
                l(4) =   1
                l(5) =   2
                l(6) =   2
     Q(r) pseudized with 0 coefficients

     PseudoPot. # 2 for Ba read from file:
     /lustre03/project/6004852/pragov/crystal_structure_design/crystal-design/crystal_design/utils/SSSP/Ba.pbe-spn-kjpaw_psl.1.0.0.UPF
     MD5 check sum: c432291d3e53af55f19d5e8866385beb
     Pseudo is Projector augmented-wave + core cor, Zval = 10.0
     Generated using "atomic" code by A. Dal Corso  v.5.1
     Shape of augmentation charge: PSQ
     Using radial grid of 1251 points,  7 beta functions with:
                l(1) =   0
                l(2) =   0
                l(3) =   0
                l(4) =   1
                l(5) =   1
                l(6) =   2
                l(7) =   2
     Q(r) pseudized with 0 coefficients

     PseudoPot. # 3 for Gd read from file:
     /lustre03/project/6004852/pragov/crystal_structure_design/crystal-design/crystal_design/utils/SSSP/Gd.paw.z_18.atompaw.wentzcovitch.v1.2.upf
     MD5 check sum: a44f32af2ba180e1a67c5cef9ff7f39b
     Pseudo is Projector augmented-wave + core cor, Zval = 18.0
     Generated using ATOMPAW code
     Shape of augmentation charge: BESSEL
     Using radial grid of 1110 points,  8 beta functions with:
                l(1) =   0
                l(2) =   0
                l(3) =   1
                l(4) =   1
                l(5) =   2
                l(6) =   2
                l(7) =   3
                l(8) =   3
     Q(r) pseudized with 0 coefficients

     PseudoPot. # 4 for W  read from file:
     /lustre03/project/6004852/pragov/crystal_structure_design/crystal-design/crystal_design/utils/SSSP/W_pbe_v1.2.uspp.F.UPF
     MD5 check sum: 9c083fa34c2a2ea0f02f1f893e16e1c8
     Pseudo is Ultrasoft + core correction, Zval = 14.0
     Generated by new atomic code, or converted to UPF format
     Using radial grid of  923 points,  8 beta functions with:
                l(1) =   0
                l(2) =   0
                l(3) =   0
                l(4) =   1
                l(5) =   1
                l(6) =   2
                l(7) =   2
                l(8) =   3
     Q(r) pseudized with  6 coefficients,  rinner =    1.350   1.350   1.350
                                                       1.350   1.350   1.350
                                                       1.350

     PseudoPot. # 5 for O  read from file:
     /lustre03/project/6004852/pragov/crystal_structure_design/crystal-design/crystal_design/utils/SSSP/O.pbe-n-kjpaw_psl.0.1.UPF
     MD5 check sum: 0234752ac141de4415c5fc33072bef88
     Pseudo is Projector augmented-wave + core cor, Zval =  6.0
     Generated using "atomic" code by A. Dal Corso  v.5.0.99 svn rev. 10869
     Shape of augmentation charge: BESSEL
     Using radial grid of 1095 points,  4 beta functions with:
                l(1) =   0
                l(2) =   0
                l(3) =   1
                l(4) =   1
     Q(r) pseudized with 0 coefficients

     atomic species   valence    mass     pseudopotential
        K              9.00    39.09830     K ( 1.00)
        Ba            10.00   137.32700     Ba( 1.00)
        Gd            18.00   157.25000     Gd( 1.00)
        W             14.00   183.84000     W ( 1.00)
        O              6.00    15.99900     O ( 1.00)

     Starting magnetic structure
     atomic species   magnetization
        K            0.000
        Ba           0.000
        Gd           0.000
        W            0.000
        O            0.000

      6 Sym. Ops. (no inversion) found

                                    s                        frac. trans.

      isym =  1     identity

 cryst.   s( 1) = (     1          0          0      )
                  (     0          1          0      )
                  (     0          0          1      )

 cart.    s( 1) = (  1.0000000  0.0000000  0.0000000 )
                  (  0.0000000  1.0000000  0.0000000 )
                  (  0.0000000  0.0000000  1.0000000 )

      isym =  2     120 deg rotation - cryst. axis [0,0,1]

[...]

      isym =  3     120 deg rotation - cryst. axis [0,0,-1]

[...]

      isym =  4     inv. 180 deg rotation - cart. axis [1,0,0]

[...]

      isym =  5     inv. 180 deg rotation - cryst. axis [0,1,0]

[...]

      isym =  6     inv. 180 deg rotation - cryst. axis [1,1,0]

 cryst.   s( 6) = (     1         -1          0      )
                  (     0         -1          0      )
                  (     0         -1          1      )

 cart.    s( 6) = (  0.5000000 -0.8660254  0.0000000 )
                  ( -0.8660254 -0.5000000  0.0000000 )
                  (  0.0000000  0.0000000  1.0000000 )

   Cartesian axes

     site n.     atom                  positions (alat units)
         1           K   tau(   1) = (   1.5000000   0.8660254   0.6123724  )
         2           Ba  tau(   2) = (   0.5000000   0.2886751   0.2041241  )
         3           Gd  tau(   3) = (   0.0000000   0.0000000   0.0000000  )
         4           W   tau(   4) = (   1.0000000   0.5773503   0.4082483  )
         5           O   tau(   5) = (   1.0000000   0.3111968   0.2200494  )
         6           O   tau(   6) = (   1.0000000   0.8435037   0.5964472  )
         7           O   tau(   7) = (   1.2304956   0.4442736   0.5964472  )
         8           O   tau(   8) = (   0.7695044   0.7104270   0.2200494  )
         9           O   tau(   9) = (   1.2304956   0.7104270   0.2200494  )
        10           O   tau(  10) = (   0.7695044   0.4442736   0.5964472  )

   Crystallographic axes

     site n.     atom                  positions (cryst. coord.)
         1           K   tau(   1) = (  0.7500000  0.7500000  0.7500000  )
         2           Ba  tau(   2) = (  0.2500000  0.2500000  0.2500000  )
         3           Gd  tau(   3) = (  0.0000000  0.0000000  0.0000000  )
         4           W   tau(   4) = (  0.5000000  0.5000000  0.5000000  )
         5           O   tau(   5) = (  0.7304956  0.2695044  0.2695044  )
         6           O   tau(   6) = (  0.2695044  0.7304956  0.7304956  )
         7           O   tau(   7) = (  0.7304956  0.2695044  0.7304956  )
         8           O   tau(   8) = (  0.2695044  0.7304956  0.2695044  )
         9           O   tau(   9) = (  0.7304956  0.7304956  0.2695044  )
        10           O   tau(  10) = (  0.2695044  0.2695044  0.7304956  )

     number of k points=     6
                       cart. coord. in units 2pi/alat
        k(    1) = (   0.0000000   0.0000000   0.0000000), wk =   0.0370370
        k(    2) = (   0.0000000   0.0000000   0.4082483), wk =   0.0740741
        k(    3) = (   0.0000000   0.3849002  -0.1360828), wk =   0.2222222
        k(    4) = (   0.0000000   0.3849002   0.2721655), wk =   0.2222222
        k(    5) = (   0.0000000   0.3849002  -0.5443311), wk =   0.2222222
        k(    6) = (   0.3333333  -0.5773503   0.0000000), wk =   0.2222222

                       cryst. coord.
        k(    1) = (   0.0000000   0.0000000   0.0000000), wk =   0.0370370
        k(    2) = (   0.0000000   0.0000000   0.3333333), wk =   0.0740741
        k(    3) = (   0.0000000   0.3333333   0.0000000), wk =   0.2222222
        k(    4) = (   0.0000000   0.3333333   0.3333333), wk =   0.2222222
        k(    5) = (   0.0000000   0.3333333  -0.3333333), wk =   0.2222222
        k(    6) = (   0.3333333  -0.3333333   0.0000000), wk =   0.2222222

     Check: negative core charge=   -0.000010
     Generating pointlists ...
     new r_m :   0.2066 (alat units)  2.3498 (a.u.) for type    1
     new r_m :   0.2066 (alat units)  2.3498 (a.u.) for type    2
     new r_m :   0.1572 (alat units)  1.7884 (a.u.) for type    3
     new r_m :   0.1345 (alat units)  1.5296 (a.u.) for type    4
     new r_m :   0.1345 (alat units)  1.5296 (a.u.) for type    5

     Initial potential from superposition of free atoms

     starting charge      86.8587, renormalised to      87.0000

     negative rho (up, down):  3.169E-02 3.169E-02
     Starting wfcs are   82 randomized atomic wfcs
     Checking if some PAW data can be deallocated...

     Self-consistent Calculation

     iteration #  1     ecut=    30.00 Ry     beta= 0.70
     Davidson diagonalization with overlap

     ethr =  1.00E-02,  avg # of iterations =  8.2

     negative rho (up, down):  2.105E-01 1.898E-01

     total energy              =   -1641.22155265 Ry
     estimated scf accuracy    <       4.90280695 Ry

     total magnetization       =     7.00 Bohr mag/cell
     absolute magnetization    =     8.94 Bohr mag/cell

[...]

     total energy              =   -1643.05373564 Ry
     estimated scf accuracy    <       0.00000127 Ry

[...]

     iteration # 15     ecut=    30.00 Ry     beta= 0.70
     Davidson diagonalization with overlap

     ethr =  1.45E-09,  avg # of iterations =  2.0

     negative rho (up, down):  3.034E-02 3.032E-02

     Magnetic moment per site  (integrated on atomic sphere of radius R)
     atom   1 (R=0.207)  charge=  7.7873  magn=  0.0005
     atom   2 (R=0.207)  charge=  7.1902  magn=  0.0012
     atom   3 (R=0.157)  charge= 13.8115  magn=  6.7740
     atom   4 (R=0.134)  charge=  8.4934  magn=  0.0068
     atom   5 (R=0.134)  charge=  5.3937  magn=  0.0022
     atom   6 (R=0.134)  charge=  5.3937  magn=  0.0022
     atom   7 (R=0.134)  charge=  5.3937  magn=  0.0022
     atom   8 (R=0.134)  charge=  5.3937  magn=  0.0022
     atom   9 (R=0.134)  charge=  5.3937  magn=  0.0022
     atom  10 (R=0.134)  charge=  5.3937  magn=  0.0022

     End of self-consistent calculation

 ------ SPIN UP ------------

          k = 0.0000 0.0000 0.0000 (  2891 PWs)   bands (ev):

   -65.9405 -33.8086 -30.1037 -30.1037 -30.1037 -19.3248 -17.1107 -11.6238
   -11.6238 -11.6238  -8.5182  -7.9915  -7.9915  -6.9920  -6.9920  -6.9920
    -2.9197  -2.9197  -2.9197  -2.4276  -2.4276  -2.4276   4.0403   4.0403
     4.2341   5.0267   5.0267   5.0267   6.4913   6.4913   6.4913   6.7686
     6.7686   6.7686   6.8680   6.8680   6.8680   6.9390   7.8107   7.8107
     7.8107   8.4091   8.4091   8.4092   8.5425   8.5426   8.5426  11.0489
    11.0489  11.0489  13.8499  14.0760  14.0760  14.6401  14.6401  14.6401
    15.5392  15.5392  15.7578  15.7578  15.7578  18.4064  18.5561  18.5567

     occupation numbers
     1.0000   1.0000   1.0000   1.0000   1.0000   1.0000   1.0000   1.0000
     1.0000   1.0000   1.0000   1.0000   1.0000   1.0000   1.0000   1.0000
     1.0000   1.0000   1.0000   1.0000   1.0000   1.0000   1.0000   1.0000
     1.0000   1.0000   1.0000   1.0000   1.0000   1.0000   1.0000   1.0000
     1.0000   1.0000   1.0000   1.0000   1.0000   1.0000   1.0000   1.0000
     1.0000   1.0000   1.0000   1.0000   1.0000   1.0000   1.0000   0.0000
     0.0000   0.0000   0.0000   0.0000   0.0000   0.0000   0.0000   0.0000
     0.0000   0.0000   0.0000   0.0000   0.0000   0.0000   0.0000   0.0000

[...]

 ------ SPIN DOWN ----------

[...]

          k = 0.3333-0.5774 0.0000 (  2894 PWs)   bands (ev):

   -65.9336 -30.7569 -30.0946 -30.0946 -30.0945 -19.3234 -17.1051  -9.9816
    -9.9089  -9.8443  -8.2567  -7.8798  -7.6655  -7.0202  -6.9231  -6.6105
    -2.8521  -2.8190  -2.8141  -2.3162  -2.2060  -2.1878   4.1277   4.6177
     4.7774   4.8493   4.9692   5.1466   6.1580   6.3262   6.4671   6.9571
     7.0300   7.2986   7.4676   7.5835   7.5914   7.8868   7.9194   8.2840
    11.5424  11.9483  11.9690  12.1254  12.2606  12.2968  12.3562  12.4907
    12.4970  12.5717  14.7846  15.1771  15.3169  15.4988  15.5546  15.5926
    16.5734  16.6474  16.7012  17.1729  17.2488  17.2845  17.8095  17.8863

     occupation numbers
     1.0000   1.0000   1.0000   1.0000   1.0000   1.0000   1.0000   1.0000
     1.0000   1.0000   1.0000   1.0000   1.0000   1.0000   1.0000   1.0000
     1.0000   1.0000   1.0000   1.0000   1.0000   1.0000   1.0000   1.0000
     1.0000   1.0000   1.0000   1.0000   1.0000   1.0000   1.0000   1.0000
     1.0000   1.0000   1.0000   1.0000   1.0000   1.0000   1.0000   1.0000
     0.0000   0.0000   0.0000   0.0000   0.0000   0.0000   0.0000   0.0000
     0.0000   0.0000   0.0000   0.0000   0.0000   0.0000   0.0000   0.0000
     0.0000   0.0000   0.0000   0.0000   0.0000   0.0000   0.0000   0.0000

     highest occupied, lowest unoccupied level (ev):     8.5453   10.9767

!    total energy              =   -1643.05373593 Ry
     estimated scf accuracy    <       0.00000003 Ry

     The total energy is the sum of the following terms:
     one-electron contribution =    -249.65127729 Ry
     hartree contribution      =     177.13705008 Ry
     xc contribution           =    -141.13665052 Ry
     ewald contribution        =    -476.31436287 Ry
     one-center paw contrib.   =    -953.08849533 Ry
      -> PAW hartree energy AE =      66.38651164 Ry
      -> PAW hartree energy PS =     -66.06409815 Ry
      -> PAW xc energy AE      =    -460.43805490 Ry
      -> PAW xc energy PS      =      29.74498261 Ry
      -> total E_H with PAW    =     177.45946357 Ry
      -> total E_XC with PAW   =    -571.82972282 Ry

     total magnetization       =     7.00 Bohr mag/cell
     absolute magnetization    =     7.01 Bohr mag/cell

     convergence has been achieved in  15 iterations

     Writing all to output data dir bands_nm_v2/myprefix.save/

     General routines

     Parallel routines

     PAW routines

   This run was terminated on:  23:57:55  16Jul2023

   JOB DONE.