     Program PWSCF v.7.1 starts on 15Jul2023 at 20:41:45

     Reading input from espresso_3112.pwi
Warning: card &CELL ignored
Warning: card / ignored

     Current dimensions of program PWSCF are:
     Max number of different atomic species (ntypx) = 10
     Max number of k-points (npk) =  40000
     Max angular momentum in pseudopotentials (lmaxx) =  4
     file Dy.paw.z_20.atompaw.wentzcovitch.v1.2.upf: wavefunction(s)  6S 0P 5D 0D 4F 0F renormalized
     Message from routine setup:
     using ibrav=0 with symmetry is DISCOURAGED, use correct ibrav instead

     K-points division:     npool     =       2
     R & G space division:  proc/nbgrp/npool/nimage =       4
     Subspace diagonalization in iterative solution of the eigenvalue problem:
     one sub-group per band group will be used

     Using Slab Decomposition

     bravais-lattice index     =            0
     lattice parameter (alat)  =       7.5723  a.u.
     unit-cell volume          =    1861.7287 (a.u.)^3
     number of atoms/cell      =           14
     number of atomic types    =            3
     number of electrons       =       190.00
     number of Kohn-Sham states=          256
     kinetic-energy cutoff     =      30.0000  Ry
     charge density cutoff     =     240.0000  Ry
     scf convergence threshold =      1.0E-06
     mixing beta               =       0.7000
     number of iterations used =            8  plain     mixing
     Exchange-correlation= PBE
                           (   1   4   3   4   0   0   0)

     celldm(1)=   7.572347  celldm(2)=   0.000000  celldm(3)=   0.000000
     celldm(4)=   0.000000  celldm(5)=   0.000000  celldm(6)=   0.000000

     crystal axes: (cart. coord. in units of alat)
               a(1) = (   1.000000   0.000000   0.000000 )
               a(2) = (  -0.500000   0.866025   0.000000 )
               a(3) = (   0.000000   0.000000   4.951014 )

     reciprocal axes: (cart. coord. in units 2 pi/alat)
               b(1) = (  1.000000  0.577350  0.000000 )
               b(2) = (  0.000000  1.154700  0.000000 )
               b(3) = (  0.000000  0.000000  0.201979 )

     PseudoPot. # 1 for Dy read from file:
     /lustre07/scratch/pragov/crystal_structure_design/utils/SSSP/Dy.paw.z_20.atompaw.wentzcovitch.v1.2.upf
     MD5 check sum: fad4f994dc38884d1fc17fd7bf5e13bf
     Pseudo is Projector augmented-wave + core cor, Zval = 20.0
     Generated using ATOMPAW code
     Shape of augmentation charge: BESSEL
     Using radial grid of 1112 points,  8 beta functions with:
                l(1) =   0
                l(2) =   0
                l(3) =   1
                l(4) =   1
                l(5) =   2
                l(6) =   2
                l(7) =   3
                l(8) =   3
     Q(r) pseudized with 0 coefficients

     PseudoPot. # 2 for Zn read from file:
     /lustre07/scratch/pragov/crystal_structure_design/utils/SSSP/Zn_pbe_v1.uspp.F.UPF
     MD5 check sum: df62231357ef9e81f77b2b3087fa5675
     Pseudo is Ultrasoft, Zval = 20.0
     Generated by new atomic code, or converted to UPF format
     Using radial grid of  943 points,  6 beta functions with:
                l(1) =   0
                l(2) =   0
                l(3) =   1
                l(4) =   1
                l(5) =   2
                l(6) =   2
     Q(r) pseudized with  8 coefficients,  rinner =    1.100   1.100   1.100
                                                       1.100   1.100

     PseudoPot. # 3 for P  read from file:
     /lustre07/scratch/pragov/crystal_structure_design/utils/SSSP/P.pbe-n-rrkjus_psl.1.0.0.UPF
     MD5 check sum: 8b930f418f0a4573dca56cd030ffe088
     Pseudo is Ultrasoft + core correction, Zval =  5.0
     Generated using "atomic" code by A. Dal Corso  v.5.1
     Using radial grid of 1147 points,  6 beta functions with:
                l(1) =   0
                l(2) =   0
                l(3) =   1
                l(4) =   1
                l(5) =   2
                l(6) =   2
     Q(r) pseudized with 0 coefficients

     atomic species   valence    mass     pseudopotential
        Dy            20.00   162.50000     Dy( 1.00)
        Zn            20.00    65.38000     Zn( 1.00)
        P              5.00    30.97376     P ( 1.00)

     24 Sym. Ops., with inversion, found (12 have fractional translation)

                                    s                        frac. trans.

      isym =  1     identity

 cryst.   s( 1) = (     1          0          0      )
                  (     0          1          0      )
                  (     0          0          1      )

 cart.    s( 1) = (  1.0000000  0.0000000  0.0000000 )
                  (  0.0000000  1.0000000  0.0000000 )
                  (  0.0000000  0.0000000  1.0000000 )

      isym =  2     180 deg rotation - cart. axis [0,0,1]

 cryst.   s( 2) = (    -1          0          0      )    f =(  0.0000000 )
                  (     0         -1          0      )       (  0.0000000 )
                  (     0          0          1      )       ( -0.5000000 )

 cart.    s( 2) = ( -1.0000000  0.0000000  0.0000000 )    f =(  0.0000000 )
                  (  0.0000000 -1.0000000  0.0000000 )       (  0.0000000 )
                  (  0.0000000  0.0000000  1.0000000 )       ( -2.4755071 )

[...]

      isym =  4     180 deg rotation - cart. axis [1,0,0]

[...]

      isym =  5      60 deg rotation - cryst. axis [0,0,1]

[...]

 cryst.   s( 8) = (    -1         -1          0      )
                  (     1          0          0      )
                  (     0          0          1      )

 cart.    s( 8) = ( -0.5000001  0.8660253  0.0000000 )
                  ( -0.8660255 -0.4999999  0.0000000 )
                  (  0.0000000  0.0000000  1.0000000 )

[...]

 cryst.   s( 9) = (     0         -1          0      )    f =(  0.0000000 )
                  (    -1          0          0      )       (  0.0000000 )
                  (     0          0         -1      )       (  0.5000000 )

 cart.    s( 9) = (  0.4999999 -0.8660255  0.0000000 )    f =(  0.0000000 )
                  ( -0.8660255 -0.4999999  0.0000000 )       (  0.0000000 )
                  (  0.0000000  0.0000000 -1.0000000 )       (  2.4755071 )

[...]

 cryst.   s(10) = (     1          1          0      )    f =(  0.0000000 )
                  (     0         -1          0      )       (  0.0000000 )
                  (     0          0         -1      )       (  0.5000000 )

 cart.    s(10) = (  0.5000001  0.8660252  0.0000000 )    f =(  0.0000000 )
                  (  0.8660255 -0.5000001  0.0000000 )       (  0.0000000 )
                  (  0.0000000  0.0000000 -1.0000000 )       (  2.4755071 )

[...]

 cryst.   s(11) = (    -1         -1          0      )
                  (     0          1          0      )
                  (     0          0         -1      )

 cart.    s(11) = ( -0.5000001 -0.8660252  0.0000000 )
                  ( -0.8660255  0.5000001  0.0000000 )
                  (  0.0000000  0.0000000 -1.0000000 )

      isym = 12     180 deg rotation - cryst. axis [1,1,0]

[...]

      isym = 13     inversion

[...]

      isym = 14     inv. 180 deg rotation - cart. axis [0,0,1]

[...]

      isym = 16     inv. 180 deg rotation - cart. axis [1,0,0]

[...]

      isym = 17     inv.  60 deg rotation - cryst. axis [0,0,1]

[...]

 cryst.   s(22) = (    -1         -1          0      )    f =(  0.0000000 )
                  (     0          1          0      )       (  0.0000000 )
                  (     0          0          1      )       ( -0.5000000 )

 cart.    s(22) = ( -0.5000001 -0.8660252  0.0000000 )    f =(  0.0000000 )
                  ( -0.8660255  0.5000001  0.0000000 )       (  0.0000000 )
                  (  0.0000000  0.0000000  1.0000000 )       ( -2.4755071 )

[...]

      isym = 24     inv. 180 deg rotation - cryst. axis [1,1,0]

 cryst.   s(24) = (     0         -1          0      )
                  (    -1          0          0      )
                  (     0          0          1      )

 cart.    s(24) = (  0.4999999 -0.8660255  0.0000000 )
                  ( -0.8660255 -0.4999999  0.0000000 )
                  (  0.0000000  0.0000000  1.0000000 )

   Cartesian axes

     site n.     atom                  positions (alat units)
         1           Dy  tau(   1) = (   0.0000000   0.0000000   0.0000000  )
         2           Dy  tau(   2) = (   0.0000000   0.0000000   2.4755071  )
         3           Zn  tau(   3) = (  -0.0000004   0.5773506   3.7132606  )
         4           Zn  tau(   4) = (   0.5000005   0.2886749   1.2377535  )
         5           Zn  tau(   5) = (  -0.0000004   0.5773506   0.6354082  )
         6           Zn  tau(   6) = (   0.5000005   0.2886749   4.3156060  )
         7           Zn  tau(   7) = (   0.5000005   0.2886749   3.1109153  )
         8           Zn  tau(   8) = (  -0.0000004   0.5773506   1.8400989  )
         9           P   tau(   9) = (  -0.0000004   0.5773506   2.8896891  )
        10           P   tau(  10) = (   0.5000005   0.2886749   2.0613250  )
        11           P   tau(  11) = (   0.5000005   0.2886749   0.4141820  )
        12           P   tau(  12) = (  -0.0000004   0.5773506   4.5368321  )
        13           P   tau(  13) = (  -0.0000004   0.5773506   1.2377535  )
        14           P   tau(  14) = (   0.5000005   0.2886749   3.7132606  )

   Crystallographic axes

     site n.     atom                  positions (cryst. coord.)
         1           Dy  tau(   1) = (  0.0000000  0.0000000  0.0000000  )
         2           Dy  tau(   2) = (  0.0000000  0.0000000  0.5000000  )
         3           Zn  tau(   3) = (  0.3333330  0.6666670  0.7500000  )
         4           Zn  tau(   4) = (  0.6666670  0.3333330  0.2500000  )
         5           Zn  tau(   5) = (  0.3333330  0.6666670  0.1283390  )
         6           Zn  tau(   6) = (  0.6666670  0.3333330  0.8716610  )
         7           Zn  tau(   7) = (  0.6666670  0.3333330  0.6283390  )
         8           Zn  tau(   8) = (  0.3333330  0.6666670  0.3716610  )
         9           P   tau(   9) = (  0.3333330  0.6666670  0.5836560  )
        10           P   tau(  10) = (  0.6666670  0.3333330  0.4163440  )
        11           P   tau(  11) = (  0.6666670  0.3333330  0.0836560  )
        12           P   tau(  12) = (  0.3333330  0.6666670  0.9163440  )
        13           P   tau(  13) = (  0.3333330  0.6666670  0.2500000  )
        14           P   tau(  14) = (  0.6666670  0.3333330  0.7500000  )

     number of k points=     6
                       cart. coord. in units 2pi/alat
        k(    1) = (   0.0000000   0.0000000   0.0000000), wk =   0.0740741
        k(    2) = (   0.0000000   0.0000000   0.0673263), wk =   0.1481481
        k(    3) = (   0.0000000   0.3849002   0.0000000), wk =   0.4444444
        k(    4) = (   0.0000000   0.3849002   0.0673263), wk =   0.8888889
        k(    5) = (   0.3333333   0.5773502   0.0000000), wk =   0.1481481
        k(    6) = (   0.3333333   0.5773502   0.0673263), wk =   0.2962963

                       cryst. coord.
        k(    1) = (   0.0000000   0.0000000   0.0000000), wk =   0.0740741
        k(    2) = (   0.0000000   0.0000000   0.3333333), wk =   0.1481481
        k(    3) = (   0.0000000   0.3333333   0.0000000), wk =   0.4444444
        k(    4) = (   0.0000000   0.3333333   0.3333333), wk =   0.8888889
        k(    5) = (   0.3333333   0.3333333   0.0000000), wk =   0.1481481
        k(    6) = (   0.3333333   0.3333333   0.3333333), wk =   0.2962963

     Initial potential from superposition of free atoms

     starting charge     189.9906, renormalised to     190.0000
     Starting wfcs are  166 randomized atomic wfcs +   90 random wfcs
     Checking if some PAW data can be deallocated...

     Self-consistent Calculation

     iteration #  1     ecut=    30.00 Ry     beta= 0.70
     Davidson diagonalization with overlap

     ethr =  1.00E-02,  avg # of iterations =  6.2

     total energy              =   -4360.33466029 Ry
     estimated scf accuracy    <      43.99614298 Ry

[...]

     total energy              =   -4407.77468263 Ry
     estimated scf accuracy    <       0.00000775 Ry

     iteration # 30     ecut=    30.00 Ry     beta= 0.70
     Davidson diagonalization with overlap

     ethr =  4.08E-09,  avg # of iterations =  1.0

     End of self-consistent calculation

          k = 0.0000 0.0000 0.0000 (  5225 PWs)   bands (ev):

  -116.6086-116.6075-116.6072-116.6051-116.2638-116.2620 -70.7110 -70.7110
   -70.7088 -70.7088 -70.7085 -70.7074 -70.7074 -70.7055 -70.7036 -70.7036
   -70.6994 -70.6898 -70.4066 -70.3947 -70.3444 -70.3444 -70.3418 -70.3418
   -35.3329 -35.3329 -11.6776 -11.6776 -11.4204 -11.4204 -11.4203 -11.4203
    -1.9765  -1.8197  -1.5062  -1.0889  -0.8131  -0.5302   2.3082   2.3455
     2.3455   2.3572   2.3572   2.3659   2.3739   2.3739   2.3848   2.3848
     2.4484   2.4484   2.4490   2.4490   2.4953   2.5469   2.5469   2.5498
     2.5498   2.6194   2.6867   2.6867   2.6940   2.6940   2.9489   2.9623
     2.9623   2.9640   2.9640   3.0247   4.3592   5.1400   6.1810   7.7544
     8.0026   8.1807   8.1808   8.2279   8.2279   8.7569   8.7570   8.8414
     8.8414   9.0118   9.4772   9.4780   9.5181   9.5182   9.5671   9.5673
     9.6014   9.6016   9.6125   9.6125   9.6294   9.6294   9.7986  10.1415
    10.1415  10.3131  10.3132  10.3961  11.0856  11.2204  11.7364  11.8954
    12.0508  12.1989  12.1989  12.2909  12.2909  12.5517  12.7488  13.5978
    13.8607  13.8608  14.0847  14.0847  14.3083  14.5064  14.5065  14.5964
    14.5966  15.0070  15.0071  15.4034  15.4036  16.0927  16.1476  16.6570
    17.5411  17.5412  17.6575  18.5390  18.7098  18.7099  18.7243  18.7244
    18.7635  18.9693  19.3970  19.7043  20.0285  20.1456  20.1456  20.1639
    20.1640  20.4422  20.4422  20.7439  22.3576  22.4096  22.4097  22.4942
    22.8311  22.8312  23.1933  23.1935  23.2198  24.0632  24.1376  24.1376
    24.4887  25.3997  25.3997  25.5270  25.8184  26.1399  26.1400  26.3251
    26.8081  26.8082  27.0115  27.7264  28.2245  28.4943  28.4944  28.6091
    28.7795  28.7796  29.8880  29.8880  30.0365  30.0366  30.9502  31.1533
    31.5730  31.5730  31.6577  31.6578  31.8970  32.7641  32.7641  33.0129
    33.0995  33.3029  33.6465  33.6466  33.7464  33.9323  33.9324  34.1243
    34.1243  34.2532  34.2532  34.6441  34.6441  34.9408  34.9408  34.9993
    34.9994  35.0122  35.0122  35.8061  35.9385  35.9385  36.2701  36.3209
    36.3750  36.3751  36.5621  36.5621  36.9502  36.9503  37.0839  37.0840
    37.0863  37.1618  37.5048  37.9698  38.1078  38.1133  38.1188  38.1189
    38.1431  38.3166  38.3167  38.4816  38.5971  38.5973  38.9574  38.9680
    39.7172  40.0344  40.0345  40.9981  41.1772  41.1773  41.2888  41.3773
    41.3774  41.5425  41.6711  42.5657  42.6426  42.6427  43.2307  43.2308

     occupation numbers
     1.0000   1.0000   1.0000   1.0000   1.0000   1.0000   1.0000   1.0000
     1.0000   1.0000   1.0000   1.0000   1.0000   1.0000   1.0000   1.0000
     1.0000   1.0000   1.0000   1.0000   1.0000   1.0000   1.0000   1.0000
     1.0000   1.0000   1.0000   1.0000   1.0000   1.0000   1.0000   1.0000
     1.0000   1.0000   1.0000   1.0000   1.0000   1.0000   1.0000   1.0000
     1.0000   1.0000   1.0000   1.0000   1.0000   1.0000   1.0000   1.0000
     1.0000   1.0000   1.0000   1.0000   1.0000   1.0000   1.0000   1.0000
     1.0000   1.0000   1.0000   1.0000   1.0000   1.0000   1.0000   1.0000
     1.0000   1.0000   1.0000   1.0000   1.0000   1.0000   1.0000   1.0000
     1.0000   1.0000   1.0000   1.0000   1.0000   1.0000   1.0000   1.0000
     1.0000   1.0000   1.0000   1.0000   1.0000   1.0000   1.0000   1.0000
     1.0000   1.0000   1.0000   1.0000   1.0000   1.0000   1.0000   0.0000
     0.0000   0.0000   0.0000   0.0000   0.0000   0.0000   0.0000   0.0000
     0.0000   0.0000   0.0000   0.0000   0.0000   0.0000   0.0000   0.0000
     0.0000   0.0000   0.0000   0.0000   0.0000   0.0000   0.0000   0.0000
     0.0000   0.0000   0.0000   0.0000   0.0000   0.0000   0.0000   0.0000
     0.0000   0.0000   0.0000   0.0000   0.0000   0.0000   0.0000   0.0000
     0.0000   0.0000   0.0000   0.0000   0.0000   0.0000   0.0000   0.0000
     0.0000   0.0000   0.0000   0.0000   0.0000   0.0000   0.0000   0.0000
     0.0000   0.0000   0.0000   0.0000   0.0000   0.0000   0.0000   0.0000
     0.0000   0.0000   0.0000   0.0000   0.0000   0.0000   0.0000   0.0000
     0.0000   0.0000   0.0000   0.0000   0.0000   0.0000   0.0000   0.0000
     0.0000   0.0000   0.0000   0.0000   0.0000   0.0000   0.0000   0.0000
     0.0000   0.0000   0.0000   0.0000   0.0000   0.0000   0.0000   0.0000
     0.0000   0.0000   0.0000   0.0000   0.0000   0.0000   0.0000   0.0000
     0.0000   0.0000   0.0000   0.0000   0.0000   0.0000   0.0000   0.0000
     0.0000   0.0000   0.0000   0.0000   0.0000   0.0000   0.0000   0.0000
     0.0000   0.0000   0.0000   0.0000   0.0000   0.0000   0.0000   0.0000
     0.0000   0.0000   0.0000   0.0000   0.0000   0.0000   0.0000   0.0000
     0.0000   0.0000   0.0000   0.0000   0.0000   0.0000   0.0000   0.0000
     0.0000   0.0000   0.0000   0.0000   0.0000   0.0000   0.0000   0.0000
     0.0000   0.0000   0.0000   0.0000   0.0000   0.0000   0.0000   0.0000

[...]

          k = 0.3333 0.5774 0.0673 (  5169 PWs)   bands (ev):

  -116.6060-116.6060-116.6050-116.6050-116.2613-116.2613 -70.7059 -70.7059
   -70.7010 -70.7004 -70.6998 -70.6998 -70.6990 -70.6990 -70.6982 -70.6967
   -70.6967 -70.6935 -70.4025 -70.4025 -70.3348 -70.3339 -70.3339 -70.3329
   -35.3226 -35.3226 -11.6047 -11.6047 -11.5932 -11.5932 -11.5932 -11.5932
    -0.6532  -0.6532  -0.2049  -0.2049  -0.1887  -0.1887   2.3159   2.3159
     2.3943   2.3961   2.4306   2.4341   2.4509   2.4509   2.5407   2.5407
     2.5618   2.5642   2.5737   2.5746   2.6341   2.6341   2.7412   2.7412
     2.8095   2.8107   2.8131   2.8131   2.9082   2.9113   2.9388   2.9388
     2.9685   2.9685   3.3695   3.3695   4.4301   4.4301   4.9155   4.9155
     4.9866   4.9866   5.5857   5.7263   6.2497   6.5818   7.2656   7.5005
     7.5074   7.5075   7.6610   7.6610   8.3086   8.3086   9.4665   9.4703
     9.4866   9.4866   9.4884   9.4884   9.4884   9.4897   9.6417   9.6431
     9.6580   9.6580   9.6861   9.6861  11.7887  11.7887  12.8433  12.9040
    12.9040  13.0843  13.6086  13.6086  14.1078  14.1589  14.1589  14.1641
    14.4920  14.4920  15.1620  15.4614  15.7412  15.7412  16.2788  16.2788
    17.1188  17.1559  17.1737  17.1737  17.5803  17.5803  18.0376  18.0376
    18.0616  18.2835  18.3954  18.6223  18.6223  18.8185  18.9311  18.9312
    19.5767  19.5767  20.1612  20.1612  20.1814  20.2677  20.3615  20.3615
    22.2132  22.2133  22.7472  23.2750  23.4951  23.4952  23.7095  23.8854
    24.3015  24.3847  24.5681  24.5682  24.6051  24.6051  24.8163  24.9770
    25.3563  25.3563  25.6800  25.6800  25.8680  25.9503  26.1429  26.1429
    27.0616  27.0616  27.0760  27.1737  27.6776  27.6776  27.8090  27.8091
    29.0749  29.0749  29.0907  29.4333  29.5074  29.5074  29.5224  29.9118
    29.9619  29.9619  30.2850  30.2850  30.7272  31.0868  31.0869  31.3976
    31.4439  31.5423  31.5423  31.6566  32.1993  32.4211  32.6119  32.6119
    32.6976  32.8207  32.8208  32.8673  32.9034  32.9034  33.1745  33.1745
    33.2391  33.3597  33.6006  33.6007  34.1216  34.1216  34.5030  34.5030
    34.8210  34.8211  35.0375  35.2362  35.2362  35.2481  35.4139  35.4140
    36.1625  36.1639  36.4908  36.4908  37.3562  37.7059  37.7059  37.7132
    37.8284  37.8285  38.3953  38.3954  38.4672  38.4672  38.5817  38.8272
    39.1747  39.1747  39.1936  39.2320  39.2320  39.9719  40.1406  40.1406
    40.6316  40.8479  40.8479  41.0345  41.2320  41.2526  41.2526  41.4543

     occupation numbers
     1.0000   1.0000   1.0000   1.0000   1.0000   1.0000   1.0000   1.0000
     1.0000   1.0000   1.0000   1.0000   1.0000   1.0000   1.0000   1.0000
     1.0000   1.0000   1.0000   1.0000   1.0000   1.0000   1.0000   1.0000
     1.0000   1.0000   1.0000   1.0000   1.0000   1.0000   1.0000   1.0000
     1.0000   1.0000   1.0000   1.0000   1.0000   1.0000   1.0000   1.0000
     1.0000   1.0000   1.0000   1.0000   1.0000   1.0000   1.0000   1.0000
     1.0000   1.0000   1.0000   1.0000   1.0000   1.0000   1.0000   1.0000
     1.0000   1.0000   1.0000   1.0000   1.0000   1.0000   1.0000   1.0000
     1.0000   1.0000   1.0000   1.0000   1.0000   1.0000   1.0000   1.0000
     1.0000   1.0000   1.0000   1.0000   1.0000   1.0000   1.0000   1.0000
     1.0000   1.0000   1.0000   1.0000   1.0000   1.0000   1.0000   1.0000
     1.0000   1.0000   1.0000   1.0000   1.0000   1.0000   1.0000   0.0000
     0.0000   0.0000   0.0000   0.0000   0.0000   0.0000   0.0000   0.0000
     0.0000   0.0000   0.0000   0.0000   0.0000   0.0000   0.0000   0.0000
     0.0000   0.0000   0.0000   0.0000   0.0000   0.0000   0.0000   0.0000
     0.0000   0.0000   0.0000   0.0000   0.0000   0.0000   0.0000   0.0000
     0.0000   0.0000   0.0000   0.0000   0.0000   0.0000   0.0000   0.0000
     0.0000   0.0000   0.0000   0.0000   0.0000   0.0000   0.0000   0.0000
     0.0000   0.0000   0.0000   0.0000   0.0000   0.0000   0.0000   0.0000
     0.0000   0.0000   0.0000   0.0000   0.0000   0.0000   0.0000   0.0000
     0.0000   0.0000   0.0000   0.0000   0.0000   0.0000   0.0000   0.0000
     0.0000   0.0000   0.0000   0.0000   0.0000   0.0000   0.0000   0.0000
     0.0000   0.0000   0.0000   0.0000   0.0000   0.0000   0.0000   0.0000
     0.0000   0.0000   0.0000   0.0000   0.0000   0.0000   0.0000   0.0000
     0.0000   0.0000   0.0000   0.0000   0.0000   0.0000   0.0000   0.0000
     0.0000   0.0000   0.0000   0.0000   0.0000   0.0000   0.0000   0.0000
     0.0000   0.0000   0.0000   0.0000   0.0000   0.0000   0.0000   0.0000
     0.0000   0.0000   0.0000   0.0000   0.0000   0.0000   0.0000   0.0000
     0.0000   0.0000   0.0000   0.0000   0.0000   0.0000   0.0000   0.0000
     0.0000   0.0000   0.0000   0.0000   0.0000   0.0000   0.0000   0.0000
     0.0000   0.0000   0.0000   0.0000   0.0000   0.0000   0.0000   0.0000
     0.0000   0.0000   0.0000   0.0000   0.0000   0.0000   0.0000   0.0000

     highest occupied, lowest unoccupied level (ev):     9.8826    9.6252

!    total energy              =   -4407.77468091 Ry
     estimated scf accuracy    <       0.00000089 Ry

     The total energy is the sum of the following terms:
     one-electron contribution =   -2986.73302686 Ry
     hartree contribution      =    1554.62464426 Ry
     xc contribution           =    -334.75271172 Ry
     ewald contribution        =   -1681.50581788 Ry
     one-center paw contrib.   =    -959.40776872 Ry
      -> PAW hartree energy AE =     513.25386478 Ry
      -> PAW hartree energy PS =    -475.67215784 Ry
      -> PAW xc energy AE      =   -1050.15959240 Ry
      -> PAW xc energy PS      =      53.17011674 Ry
      -> total E_H with PAW    =    1592.20635120 Ry
      -> total E_XC with PAW   =   -1331.74218738 Ry

     convergence has been achieved in  30 iterations

     Writing all to output data dir bands_nm/myprefix.save/

     General routines

     Parallel routines

     PAW routines

   This run was terminated on:  20:43:17  15Jul2023

   JOB DONE.