     Program PWSCF v.7.1 starts on  9Jul2023 at 19:36:57

     Reading input from espresso_20310.pwi
Warning: card &CELL ignored
Warning: card / ignored

     Current dimensions of program PWSCF are:
     Max number of different atomic species (ntypx) = 10
     Max number of k-points (npk) =  40000
     Max angular momentum in pseudopotentials (lmaxx) =  4
     Message from routine setup:
     using ibrav=0 with symmetry is DISCOURAGED, use correct ibrav instead

     K-points division:     npool     =       2
     R & G space division:  proc/nbgrp/npool/nimage =       4
     Subspace diagonalization in iterative solution of the eigenvalue problem:
     a serial algorithm will be used

     Using Slab Decomposition

     bravais-lattice index     =            0
     lattice parameter (alat)  =      13.8891  a.u.
     unit-cell volume          =     463.2001 (a.u.)^3
     number of atoms/cell      =            3
     number of atomic types    =            2
     number of electrons       =        30.00
     number of Kohn-Sham states=           64
     kinetic-energy cutoff     =      30.0000  Ry
     charge density cutoff     =     240.0000  Ry
     scf convergence threshold =      1.0E-06
     mixing beta               =       0.7000
     number of iterations used =            8  plain     mixing
     Exchange-correlation=  SLA  PW   PBX  PBC
                           (   1   4   3   4   0   0   0)

     celldm(1)=  13.889051  celldm(2)=   0.000000  celldm(3)=   0.000000
     celldm(4)=   0.000000  celldm(5)=   0.000000  celldm(6)=   0.000000

     crystal axes: (cart. coord. in units of alat)
               a(1) = (   1.000000   0.000000   0.000000 )
               a(2) = (   0.896556   0.442931   0.000000 )
               a(3) = (   0.896556   0.209386   0.390315 )

     reciprocal axes: (cart. coord. in units 2 pi/alat)
               b(1) = (  1.000000 -2.024142 -1.211147 )
               b(2) = (  0.000000  2.257687 -1.211147 )
               b(3) = (  0.000000  0.000000  2.562036 )

     PseudoPot. # 1 for Ni read from file:
     /home/pragov/projects/rrg-bengioy-ad/pragov/crystal_structure_design/SSSP/ni_pbe_v1.4.uspp.F.UPF
     MD5 check sum: 1ee80287db30b12d2bc1f57a5b5d6409
     Pseudo is Ultrasoft + core correction, Zval = 18.0
     Generated by new atomic code, or converted to UPF format
     Using radial grid of  865 points,  6 beta functions with:
                l(1) =   0
                l(2) =   0
                l(3) =   1
                l(4) =   1
                l(5) =   2
                l(6) =   2
     Q(r) pseudized with 10 coefficients,  rinner =    0.980   0.980   0.980
                                                       0.980   0.980

     PseudoPot. # 2 for S  read from file:
     /home/pragov/projects/rrg-bengioy-ad/pragov/crystal_structure_design/SSSP/s_pbe_v1.4.uspp.F.UPF
     MD5 check sum: 88d86576ff6df21479756cfb9bdac1df
     Pseudo is Ultrasoft + core correction, Zval =  6.0
     Generated by new atomic code, or converted to UPF format
     Using radial grid of  907 points,  6 beta functions with:
                l(1) =   0
                l(2) =   0
                l(3) =   1
                l(4) =   1
                l(5) =   2
                l(6) =   2
     Q(r) pseudized with  8 coefficients,  rinner =    1.300   1.300   1.300
                                                       1.300   1.300

     atomic species   valence    mass     pseudopotential
        Ni            18.00    58.69340     Ni( 1.00)
        S              6.00    32.06000     S ( 1.00)

      2 Sym. Ops., with inversion, found

                                    s                        frac. trans.

      isym =  1     identity

 cryst.   s( 1) = (     1          0          0      )
                  (     0          1          0      )
                  (     0          0          1      )

 cart.    s( 1) = (  1.0000000  0.0000000  0.0000000 )
                  (  0.0000000  1.0000000 -0.0000000 )
                  (  0.0000000  0.0000000  1.0000000 )

      isym =  2     inversion

 cryst.   s( 2) = (    -1          0          0      )
                  (     0         -1          0      )
                  (     0          0         -1      )

 cart.    s( 2) = ( -1.0000000  0.0000000  0.0000000 )
                  (  0.0000000 -1.0000000  0.0000000 )
                  (  0.0000000  0.0000000 -1.0000000 )

   Cartesian axes

     site n.     atom                  positions (alat units)
         1           Ni  tau(   1) = (   0.0000000   0.0000000   0.0000000  )
         2           S   tau(   2) = (   1.0861070   0.2536549   0.1517746  )
         3           S   tau(   3) = (   1.7070044   0.3986624   0.2385400  )

   Crystallographic axes

     site n.     atom                  positions (cryst. coord.)
         1           Ni  tau(   1) = (  0.0000000  0.0000000  0.0000000  )
         2           S   tau(   2) = (  0.3888520  0.3888520  0.3888520  )
         3           S   tau(   3) = (  0.6111480  0.6111480  0.6111480  )

     number of k points=    14
                       cart. coord. in units 2pi/alat
        k(    1) = (   0.0000000   0.0000000   0.0000000), wk =   0.0740741
        k(    2) = (   0.0000000   0.0000000   0.8540120), wk =   0.1481481
        k(    3) = (   0.0000000   0.7525625  -0.4037158), wk =   0.1481481
        k(    4) = (   0.0000000   0.7525625   0.4502963), wk =   0.1481481
        k(    5) = (   0.0000000   0.7525625  -1.2577278), wk =   0.1481481
        k(    6) = (   0.3333333  -0.6747142  -0.4037158), wk =   0.1481481
        k(    7) = (   0.3333333  -0.6747142   0.4502963), wk =   0.1481481
        k(    8) = (   0.3333333  -0.6747142  -1.2577278), wk =   0.1481481
        k(    9) = (   0.3333333   0.0778483  -0.8074315), wk =   0.1481481
        k(   10) = (   0.3333333   0.0778483   0.0465805), wk =   0.1481481
        k(   11) = (   0.3333333   0.0778483  -1.6614436), wk =   0.1481481
        k(   12) = (   0.3333333  -1.4272767   0.0000000), wk =   0.1481481
        k(   13) = (   0.3333333  -1.4272767   0.8540120), wk =   0.1481481
        k(   14) = (   0.3333333  -1.4272767  -0.8540120), wk =   0.1481481

                       cryst. coord.
        k(    1) = (   0.0000000   0.0000000   0.0000000), wk =   0.0740741
        k(    2) = (   0.0000000   0.0000000   0.3333333), wk =   0.1481481
        k(    3) = (   0.0000000   0.3333333   0.0000000), wk =   0.1481481
        k(    4) = (   0.0000000   0.3333333   0.3333333), wk =   0.1481481
        k(    5) = (   0.0000000   0.3333333  -0.3333333), wk =   0.1481481
        k(    6) = (   0.3333333   0.0000000   0.0000000), wk =   0.1481481
        k(    7) = (   0.3333333   0.0000000   0.3333333), wk =   0.1481481
        k(    8) = (   0.3333333   0.0000000  -0.3333333), wk =   0.1481481
        k(    9) = (   0.3333333   0.3333333   0.0000000), wk =   0.1481481
        k(   10) = (   0.3333333   0.3333333   0.3333333), wk =   0.1481481
        k(   11) = (   0.3333333   0.3333333  -0.3333333), wk =   0.1481481
        k(   12) = (   0.3333333  -0.3333333  -0.0000000), wk =   0.1481481
        k(   13) = (   0.3333333  -0.3333333   0.3333333), wk =   0.1481481
        k(   14) = (   0.3333333  -0.3333333  -0.3333333), wk =   0.1481481

     Check: negative core charge=   -0.000003

     Initial potential from superposition of free atoms

     starting charge      27.9999, renormalised to      30.0000
     Starting wfcs are   21 randomized atomic wfcs +   43 random wfcs

     Self-consistent Calculation

     iteration #  1     ecut=    30.00 Ry     beta= 0.70
     Davidson diagonalization with overlap

     ethr =  1.00E-02,  avg # of iterations =  6.7

     total energy              =    -355.33646759 Ry
     estimated scf accuracy    <      47.98546425 Ry

[...]

     negative rho (up, down):  6.310E-06 0.000E+00

[...]

     negative rho (up, down):  9.060E-06 0.000E+00

[...]

     total energy              =    -391.37451223 Ry
     estimated scf accuracy    <       0.00000125 Ry

     iteration # 19     ecut=    30.00 Ry     beta= 0.70
     Davidson diagonalization with overlap

     ethr =  4.15E-09,  avg # of iterations =  1.0

     End of self-consistent calculation

          k = 0.0000 0.0000 0.0000 (  1331 PWs)   bands (ev):

   -99.6972 -60.0501 -60.0501 -59.9175 -10.0259  -7.7319  -0.4637   0.3182
     0.3182   2.2078   2.2078   3.2395   4.0319   4.6620   4.6620   6.4578
     6.4578  10.0625  10.8545  13.1227  13.1227  13.3211  15.7970  15.7970
    16.1567  18.8047  18.8058  18.8058  19.5593  19.5593  20.7541  20.7637
    24.5458  25.6125  25.6125  25.9978  26.5188  26.5188  27.6233  29.1872
    29.3101  29.3101  31.0869  31.3252  31.5078  31.5078  34.3704  34.3704
    36.8031  36.8031  38.0478  38.9075  39.1012  39.1012  40.2689  41.6081
    41.6081  42.7503  43.7719  43.7719  43.8684  43.8684  44.5311  45.8558

     occupation numbers
     1.0000   1.0000   1.0000   1.0000   1.0000   1.0000   1.0000   1.0000
     1.0000   1.0000   1.0000   1.0000   1.0000   1.0000   1.0000   0.0000
     0.0000   0.0000   0.0000   0.0000   0.0000   0.0000   0.0000   0.0000
     0.0000   0.0000   0.0000   0.0000   0.0000   0.0000   0.0000   0.0000
     0.0000   0.0000   0.0000   0.0000   0.0000   0.0000   0.0000   0.0000
     0.0000   0.0000   0.0000   0.0000   0.0000   0.0000   0.0000   0.0000
     0.0000   0.0000   0.0000   0.0000   0.0000   0.0000   0.0000   0.0000
     0.0000   0.0000   0.0000   0.0000   0.0000   0.0000   0.0000   0.0000

[...]

          k = 0.3333-1.4273-0.8540 (  1292 PWs)   bands (ev):

   -99.6929 -60.0367 -60.0347 -59.9180  -8.7568  -7.4301  -0.7744   0.1126
     0.7080   0.9355   1.9619   2.5791   2.9980   3.3999   3.6112   5.4993
     6.2897  10.2404  11.2242  12.5967  14.4787  14.8565  15.3985  16.3856
    17.0522  17.5517  18.7292  19.5920  19.8528  20.3668  21.7548  22.8020
    24.5283  25.0150  26.5949  27.4939  27.8067  28.7635  29.0833  29.5056
    29.8115  29.9039  31.1706  31.4490  32.1625  32.6528  34.0645  34.8709
    35.6417  36.8079  36.8653  37.7528  39.3980  39.6629  40.6006  40.6650
    41.5627  41.5896  42.3711  42.4037  43.7009  44.5041  45.5494  45.7181

     occupation numbers
     1.0000   1.0000   1.0000   1.0000   1.0000   1.0000   1.0000   1.0000
     1.0000   1.0000   1.0000   1.0000   1.0000   1.0000   1.0000   0.0000
     0.0000   0.0000   0.0000   0.0000   0.0000   0.0000   0.0000   0.0000
     0.0000   0.0000   0.0000   0.0000   0.0000   0.0000   0.0000   0.0000
     0.0000   0.0000   0.0000   0.0000   0.0000   0.0000   0.0000   0.0000
     0.0000   0.0000   0.0000   0.0000   0.0000   0.0000   0.0000   0.0000
     0.0000   0.0000   0.0000   0.0000   0.0000   0.0000   0.0000   0.0000
     0.0000   0.0000   0.0000   0.0000   0.0000   0.0000   0.0000   0.0000

     highest occupied, lowest unoccupied level (ev):     4.6660    5.4417

!    total energy              =    -391.37451218 Ry
     estimated scf accuracy    <       0.00000026 Ry

     The total energy is the sum of the following terms:
     one-electron contribution =    -498.33192204 Ry
     hartree contribution      =     256.88456211 Ry
     xc contribution           =     -52.26351206 Ry
     ewald contribution        =     -97.66364019 Ry

     convergence has been achieved in  19 iterations

     Writing all to output data dir bands_nm/myprefix.save/

     General routines

     Parallel routines

   This run was terminated on:  19:37:14   9Jul2023

   JOB DONE.