     Program PWSCF v.7.0 starts on 22Jun2023 at 23:19:36

     K-points division:     npool     =       2
     R & G space division:  proc/nbgrp/npool/nimage =       4

     Reading input from espresso_19134.pwi
Warning: card &CELL ignored
Warning: card / ignored

     Current dimensions of program PWSCF are:
     Max number of different atomic species (ntypx) = 10
     Max number of k-points (npk) =  40000
     Max angular momentum in pseudopotentials (lmaxx) =  4
     Message from routine setup:
     using ibrav=0 with symmetry is DISCOURAGED, use correct ibrav instead

     Using Slab Decomposition

     bravais-lattice index     =            0
     lattice parameter (alat)  =      13.8333  a.u.
     unit-cell volume          =    2037.6920 (a.u.)^3
     number of atoms/cell      =           14
     number of atomic types    =            3
     number of electrons       =       126.00
     number of Kohn-Sham states=           64
     kinetic-energy cutoff     =      30.0000  Ry
     charge density cutoff     =     240.0000  Ry
     scf convergence threshold =      1.0E-06
     mixing beta               =       0.7000
     number of iterations used =            8  plain     mixing
     Exchange-correlation=  SLA  PW   PBX  PBC
                           (   1   4   3   4   0   0   0)

     celldm(1)=  13.833287  celldm(2)=   0.000000  celldm(3)=   0.000000
     celldm(4)=   0.000000  celldm(5)=   0.000000  celldm(6)=   0.000000

     crystal axes: (cart. coord. in units of alat)
               a(1) = (   1.000000   0.000000   0.000000 )
               a(2) = (  -0.339865   0.940474   0.000000 )
               a(3) = (  -0.330068  -0.470237   0.818494 )

     reciprocal axes: (cart. coord. in units 2 pi/alat)
               b(1) = (  1.000000  0.361376  0.610878 )
               b(2) = (  0.000000  1.063293  0.610878 )
               b(3) = (  0.000000  0.000000  1.221756 )

     PseudoPot. # 1 for Eu read from file:
     /home/pragov/projects/rrg-bengioy-ad/pragov/crystal_structure_design/SSSP/Eu.GGA-PBE-paw-v1.0.UPF
     MD5 check sum: acec5fd9176fb57ec8e299eae1ecaf48
     Pseudo is Projector augmented-wave + core cor, Zval = 17.0
     Generated using ATOMPAW code
     Shape of augmentation charge: BESSEL
     Using radial grid of 1109 points,  8 beta functions with:
                l(1) =   0
                l(2) =   0
                l(3) =   1
                l(4) =   1
                l(5) =   2
                l(6) =   2
                l(7) =   3
                l(8) =   3
     Q(r) pseudized with 0 coefficients

     PseudoPot. # 2 for Y  read from file:
     /home/pragov/projects/rrg-bengioy-ad/pragov/crystal_structure_design/SSSP/Y_pbe_v1.uspp.F.UPF
     MD5 check sum: 2cf71db95cafeb975fc457bd7f14888e
     Pseudo is Ultrasoft + core correction, Zval = 11.0
     Generated by new atomic code, or converted to UPF format
     Using radial grid of  885 points,  6 beta functions with:
                l(1) =   0
                l(2) =   0
                l(3) =   1
                l(4) =   1
                l(5) =   2
                l(6) =   2
     Q(r) pseudized with  6 coefficients,  rinner =    1.200   1.200   1.200
                                                       1.200   1.200

     PseudoPot. # 3 for S  read from file:
     /home/pragov/projects/rrg-bengioy-ad/pragov/crystal_structure_design/SSSP/s_pbe_v1.4.uspp.F.UPF
     MD5 check sum: 88d86576ff6df21479756cfb9bdac1df
     Pseudo is Ultrasoft + core correction, Zval =  6.0
     Generated by new atomic code, or converted to UPF format
     Using radial grid of  907 points,  6 beta functions with:
                l(1) =   0
                l(2) =   0
                l(3) =   1
                l(4) =   1
                l(5) =   2
                l(6) =   2
     Q(r) pseudized with  8 coefficients,  rinner =    1.300   1.300   1.300
                                                       1.300   1.300

     atomic species   valence    mass     pseudopotential
        Eu            17.00   151.96400     Eu( 1.00)
        Y             11.00    88.90584     Y ( 1.00)
        S              6.00    32.06000     S ( 1.00)

      2 Sym. Ops. (no inversion) found ( 1 have fractional translation)

                                    s                        frac. trans.

      isym =  1     identity

 cryst.   s( 1) = (     1          0          0      )
                  (     0          1          0      )
                  (     0          0          1      )

 cart.    s( 1) = (  1.0000000  0.0000000  0.0000000 )
                  (  0.0000000  1.0000000  0.0000000 )
                  (  0.0000000  0.0000000  1.0000000 )

      isym =  2     inv. 180 deg rotation - cart. axis [0,0,1]

 cryst.   s( 2) = (     1          0          0      )    f =( -0.2500000 )
                  (     0          1          0      )       (  0.2500000 )
                  (    -1         -1         -1      )       ( -0.5000000 )

 cart.    s( 2) = (  1.0000000  0.0000000 -0.0000000 )    f =( -0.1699324 )
                  (  0.0000000  1.0000000 -0.0000000 )       (  0.4702372 )
                  (  0.0000000  0.0000000 -1.0000000 )       ( -0.4092470 )

   Cartesian axes

     site n.     atom                  positions (alat units)
         1           Eu  tau(   1) = (   0.3300676   0.4702372   0.0000000  )
         2           Eu  tau(   2) = (   0.5000000   0.0000000   0.4092470  )
         3           Y   tau(   3) = (  -0.1684344   0.2937064   0.1026457  )
         4           Y   tau(   4) = (  -0.3383668   0.7639435   0.3066013  )
         5           Y   tau(   5) = (  -0.3364642   0.4116494   0.7158483  )
         6           Y   tau(   6) = (   0.1635358   0.4116494   0.5118927  )
         7           S   tau(   7) = (   0.3711550   0.1757671   0.7357622  )
         8           S   tau(   8) = (   0.5391620   0.4087988   0.3265153  )
         9           S   tau(   9) = (  -0.2728736  -0.2447519   0.6156859  )
        10           S   tau(  10) = (  -0.1288450   0.1757671   0.4919787  )
        11           S   tau(  11) = (   0.0226925   0.6006612   0.2064389  )
        12           S   tau(  12) = (   0.2271258  -0.2447528   0.6120551  )
        13           S   tau(  13) = (   0.1926242   0.1304231   0.2028081  )
        14           S   tau(  14) = (   0.3692296   0.8790359   0.0827317  )

   Crystallographic axes

     site n.     atom                  positions (cryst. coord.)
         1           Eu  tau(   1) = (  0.5000000  0.5000000  0.0000000  )
         2           Eu  tau(   2) = (  0.7500000  0.2500000  0.5000000  )
         3           Y   tau(   3) = (  0.0004080  0.3750000  0.1254080  )
         4           Y   tau(   4) = (  0.1250000  0.9995920  0.3745920  )
         5           Y   tau(   5) = (  0.2495920  0.8750000  0.8745920  )
         6           Y   tau(   6) = (  0.6250000  0.7504080  0.6254080  )
         7           S   tau(   7) = (  0.8841340  0.6363530  0.8989220  )
         8           S   tau(   8) = (  0.8863530  0.6341340  0.3989220  )
         9           S   tau(   9) = (  0.0147880  0.1158660  0.7522180  )
        10           S   tau(  10) = (  0.2352120  0.4874310  0.6010780  )
        11           S   tau(  11) = (  0.3658660  0.7647880  0.2522180  )
        12           S   tau(  12) = (  0.5125690  0.1136470  0.7477820  )
        13           S   tau(  13) = (  0.3636470  0.2625690  0.2477820  )
        14           S   tau(  14) = (  0.7374310  0.9852120  0.1010780  )

     number of k points=    10
                       cart. coord. in units 2pi/alat
        k(    1) = (   0.0000000   0.0000000   0.0000000), wk =   0.0740741
        k(    2) = (   0.0000000   0.0000000   0.4072520), wk =   0.1481481
        k(    3) = (   0.0000000   0.3544311   0.2036260), wk =   0.2962963
        k(    4) = (   0.0000000   0.3544311   0.6108780), wk =   0.1481481
        k(    5) = (   0.3333333   0.1204586   0.2036260), wk =   0.2962963
        k(    6) = (   0.3333333   0.1204586   0.6108780), wk =   0.1481481
        k(    7) = (   0.3333333   0.4748897   0.4072520), wk =   0.2962963
        k(    8) = (   0.3333333   0.4748897  -0.0000000), wk =   0.1481481
        k(    9) = (   0.3333333  -0.2339724  -0.0000000), wk =   0.1481481
        k(   10) = (   0.3333333  -0.2339724   0.4072520), wk =   0.2962963

                       cryst. coord.
        k(    1) = (   0.0000000   0.0000000   0.0000000), wk =   0.0740741
        k(    2) = (   0.0000000   0.0000000   0.3333333), wk =   0.1481481
        k(    3) = (   0.0000000   0.3333333   0.0000000), wk =   0.2962963
        k(    4) = (   0.0000000   0.3333333   0.3333333), wk =   0.1481481
        k(    5) = (   0.3333333   0.0000000  -0.0000000), wk =   0.2962963
        k(    6) = (   0.3333333   0.0000000   0.3333333), wk =   0.1481481
        k(    7) = (   0.3333333   0.3333333  -0.0000000), wk =   0.2962963
        k(    8) = (   0.3333333   0.3333333  -0.3333333), wk =   0.1481481
        k(    9) = (   0.3333333  -0.3333333  -0.0000000), wk =   0.1481481
        k(   10) = (   0.3333333  -0.3333333   0.3333333), wk =   0.2962963

     Check: negative core charge=   -0.000004

     Initial potential from superposition of free atoms

     starting charge     125.9724, renormalised to     126.0000

     negative rho (up, down):  1.799E-01 0.000E+00
     Starting wfcs are  148 randomized atomic wfcs
     Checking if some PAW data can be deallocated...

     Self-consistent Calculation

     iteration #  1     ecut=    30.00 Ry     beta= 0.70
     Davidson diagonalization with overlap

     ethr =  1.00E-02,  avg # of iterations =  1.0

     negative rho (up, down):  1.826E-01 0.000E+00

     total energy              =   -1821.70277204 Ry
     estimated scf accuracy    <       6.10008741 Ry

[...]

     c_bands:  2 eigenvalues not converged
     ethr =  2.28E-05,  avg # of iterations = 17.0

[...]

     c_bands:  2 eigenvalues not converged
     c_bands:  1 eigenvalues not converged
     ethr =  9.82E-09,  avg # of iterations = 17.7

[...]

     total energy              =   -1828.96585479 Ry
     estimated scf accuracy    <       0.00000127 Ry

     iteration #115     ecut=    30.00 Ry     beta= 0.70
     Davidson diagonalization with overlap

     ethr =  9.79E-10,  avg # of iterations = 12.8

     negative rho (up, down):  1.826E-01 0.000E+00

     End of self-consistent calculation

          k = 0.0000 0.0000 0.0000 (  5609 PWs)   bands (ev):

   -32.3144 -32.3063 -32.3060 -32.3005 -29.6672 -29.6652 -12.3958 -12.3952
   -12.3927 -12.3694 -12.3305 -12.3003 -12.2969 -12.2963 -12.2738 -12.2542
   -12.2540 -12.2241  -8.7481  -8.7064  -8.6807  -8.6646  -8.6560  -8.6316
    -2.9681  -2.1918  -1.6142  -1.6136  -1.5740  -1.5522  -1.3810  -1.3791
     5.4258   5.4264   5.5091   5.5476   5.6912   6.2382   6.3014   6.5766
     7.2957   7.2962   7.3052   7.4052   7.7509   7.7514   7.9011   8.5418
     8.5418   8.6397   8.7818   8.7819   8.8817   9.2512   9.3669   9.3696
    11.1996  11.3914  11.4642  11.4731  11.5017  11.5360  11.5774  11.6157

     occupation numbers
     1.0000   1.0000   1.0000   1.0000   1.0000   1.0000   1.0000   1.0000
     1.0000   1.0000   1.0000   1.0000   1.0000   1.0000   1.0000   1.0000
     1.0000   1.0000   1.0000   1.0000   1.0000   1.0000   1.0000   1.0000
     1.0000   1.0000   1.0000   1.0000   1.0000   1.0000   1.0000   1.0000
     1.0000   1.0000   1.0000   1.0000   1.0000   1.0000   1.0000   1.0000
     1.0000   1.0000   1.0000   1.0000   1.0000   1.0000   1.0000   1.0000
     1.0000   1.0000   1.0000   1.0000   1.0000   1.0000   1.0000   1.0000
     1.0000   1.0000   1.0000   1.0000   1.0000   1.0000   1.0000   0.0000

[...]

          k = 0.3333-0.2340 0.4073 (  5682 PWs)   bands (ev):

   -32.3105 -32.3069 -32.3064 -32.3033 -29.6665 -29.6660 -12.4015 -12.3862
   -12.3466 -12.3328 -12.3316 -12.3286 -12.3049 -12.2916 -12.2800 -12.2698
   -12.2608 -12.2488  -8.7421  -8.7312  -8.6829  -8.6644  -8.6437  -8.6409
    -2.3940  -2.0206  -1.9977  -1.9029  -1.8366  -1.7161  -1.2845  -1.2781
     5.4628   5.8556   6.0754   6.1158   6.2293   6.4987   6.5062   6.5236
     6.7471   6.7518   6.9510   7.2180   7.5898   7.7484   7.9243   8.1342
     8.1856   8.2148   8.2718   8.3246   8.8045   8.9806   9.1129   9.2964
    11.3381  11.3682  11.4677  11.4900  11.5305  11.5396  11.5852  11.6314

     occupation numbers
     1.0000   1.0000   1.0000   1.0000   1.0000   1.0000   1.0000   1.0000
     1.0000   1.0000   1.0000   1.0000   1.0000   1.0000   1.0000   1.0000
     1.0000   1.0000   1.0000   1.0000   1.0000   1.0000   1.0000   1.0000
     1.0000   1.0000   1.0000   1.0000   1.0000   1.0000   1.0000   1.0000
     1.0000   1.0000   1.0000   1.0000   1.0000   1.0000   1.0000   1.0000
     1.0000   1.0000   1.0000   1.0000   1.0000   1.0000   1.0000   1.0000
     1.0000   1.0000   1.0000   1.0000   1.0000   1.0000   1.0000   1.0000
     1.0000   1.0000   1.0000   1.0000   1.0000   1.0000   1.0000   0.0000

     highest occupied, lowest unoccupied level (ev):    11.6132   11.5855

!    total energy              =   -1828.96585513 Ry
     estimated scf accuracy    <       0.00000093 Ry

     The total energy is the sum of the following terms:
     one-electron contribution =    -212.05224843 Ry
     hartree contribution      =     173.17702453 Ry
     xc contribution           =    -196.47347483 Ry
     ewald contribution        =    -679.46674631 Ry
     one-center paw contrib.   =    -914.15041008 Ry
      -> PAW hartree energy AE =     315.36000469 Ry
      -> PAW hartree energy PS =    -301.11627733 Ry
      -> PAW xc energy AE      =    -966.71745897 Ry
      -> PAW xc energy PS      =      38.32332152 Ry
      -> total E_H with PAW    =     187.42075189 Ry
      -> total E_XC with PAW   =   -1124.86761228 Ry

     convergence has been achieved in 115 iterations

     Writing all to output data dir calculations_bands/myprefix.save/

     General routines

     Parallel routines

     PAW routines

   This run was terminated on:  23:23:58  22Jun2023

   JOB DONE.