     Program PWSCF v.7.1 starts on 15Jul2023 at 14:38:35

     Reading input from espresso_7787.pwi
Warning: card &CELL ignored
Warning: card / ignored

     Current dimensions of program PWSCF are:
     Max number of different atomic species (ntypx) = 10
     Max number of k-points (npk) =  40000
     Max angular momentum in pseudopotentials (lmaxx) =  4
     file O.pbe-n-kjpaw_psl.0.1.UPF: wavefunction(s)  2P renormalized
     Message from routine setup:
     the system is metallic, specify occupations
     Message from routine setup:
     using ibrav=0 with symmetry is DISCOURAGED, use correct ibrav instead

     K-points division:     npool     =       2
     R & G space division:  proc/nbgrp/npool/nimage =       4
     Subspace diagonalization in iterative solution of the eigenvalue problem:
     a serial algorithm will be used

     Using Slab Decomposition

     bravais-lattice index     =            0
     lattice parameter (alat)  =      14.4383  a.u.
     unit-cell volume          =     697.9086 (a.u.)^3
     number of atoms/cell      =           11
     number of atomic types    =            3
     number of electrons       =        83.00 (up:  47.00, down:  36.00)
     number of Kohn-Sham states=           64
     kinetic-energy cutoff     =      30.0000  Ry
     charge density cutoff     =     240.0000  Ry
     scf convergence threshold =      1.0E-06
     mixing beta               =       0.7000
     number of iterations used =            8  plain     mixing
     Exchange-correlation= SLA  PW   PBX  PBC
                           (   1   4   3   4   0   0   0)

     celldm(1)=  14.438328  celldm(2)=   0.000000  celldm(3)=   0.000000
     celldm(4)=   0.000000  celldm(5)=   0.000000  celldm(6)=   0.000000

     crystal axes: (cart. coord. in units of alat)
               a(1) = (   1.000000   0.000000   0.000000 )
               a(2) = (   0.925353   0.379106   0.000000 )
               a(3) = (   0.003732   0.000735   0.611628 )

     reciprocal axes: (cart. coord. in units 2 pi/alat)
               b(1) = (  1.000000 -2.440883 -0.003169 )
               b(2) = (  0.000000  2.637785 -0.003169 )
               b(3) = (  0.000000  0.000000  1.634981 )

     PseudoPot. # 1 for Mn read from file:
     /lustre07/scratch/pragov/crystal_structure_design/utils/SSSP/mn_pbe_v1.5.uspp.F.UPF
     MD5 check sum: 82ef2b46521d7a7d9e736dc3972e4928
     Pseudo is Ultrasoft + core correction, Zval = 15.0
     Generated by new atomic code, or converted to UPF format
     Using radial grid of  859 points,  6 beta functions with:
                l(1) =   0
                l(2) =   0
                l(3) =   1
                l(4) =   1
                l(5) =   2
                l(6) =   2
     Q(r) pseudized with  8 coefficients,  rinner =    0.950   0.950   0.950
                                                       0.950   0.950

     PseudoPot. # 2 for H  read from file:
     /lustre07/scratch/pragov/crystal_structure_design/utils/SSSP/H.pbe-rrkjus_psl.1.0.0.UPF
     MD5 check sum: f52b6d4d1c606e5624b1dc7b2218f220
     Pseudo is Ultrasoft, Zval =  1.0
     Generated using "atomic" code by A. Dal Corso  v.5.1
     Using radial grid of  929 points,  2 beta functions with:
                l(1) =   0
                l(2) =   0
     Q(r) pseudized with 0 coefficients

     PseudoPot. # 3 for O  read from file:
     /lustre07/scratch/pragov/crystal_structure_design/utils/SSSP/O.pbe-n-kjpaw_psl.0.1.UPF
     MD5 check sum: 0234752ac141de4415c5fc33072bef88
     Pseudo is Projector augmented-wave + core cor, Zval =  6.0
     Generated using "atomic" code by A. Dal Corso  v.5.0.99 svn rev. 10869
     Shape of augmentation charge: BESSEL
     Using radial grid of 1095 points,  4 beta functions with:
                l(1) =   0
                l(2) =   0
                l(3) =   1
                l(4) =   1
     Q(r) pseudized with 0 coefficients

     atomic species   valence    mass     pseudopotential
        Mn            15.00    54.93804     Mn( 1.00)
        H              1.00     1.00800     H ( 1.00)
        O              6.00    15.99900     O ( 1.00)

     Starting magnetic structure
     atomic species   magnetization
        Mn           0.000
        H            0.000
        O            0.000

      2 Sym. Ops., with inversion, found

                                    s                        frac. trans.

      isym =  1     identity

 cryst.   s( 1) = (     1          0          0      )
                  (     0          1          0      )
                  (     0          0          1      )

 cart.    s( 1) = (  1.0000000  0.0000000  0.0000000 )
                  (  0.0000000  1.0000000  0.0000000 )
                  (  0.0000000  0.0000000  1.0000000 )

      isym =  2     inversion

 cryst.   s( 2) = (    -1          0          0      )
                  (     0         -1          0      )
                  (     0          0         -1      )

 cart.    s( 2) = ( -1.0000000  0.0000000  0.0000000 )
                  (  0.0000000 -1.0000000  0.0000000 )
                  (  0.0000000  0.0000000 -1.0000000 )

   Cartesian axes

     site n.     atom                  positions (alat units)
         1           Mn  tau(   1) = (   0.0018660   0.0003674   0.3058139  )
         2           Mn  tau(   2) = (   1.2405827   0.2442732   0.0187164  )
         3           Mn  tau(   3) = (   0.6885026   0.1355675   0.5929114  )
         4           H   tau(   4) = (   1.5813202   0.3113651   0.2430597  )
         5           H   tau(   5) = (   0.3477651   0.0684757   0.3685681  )
         6           O   tau(   6) = (   0.8792023   0.1731167   0.1671279  )
         7           O   tau(   7) = (   1.0498830   0.2067241   0.4444999  )
         8           O   tau(   8) = (   1.7053648   0.3357898   0.4361451  )
         9           O   tau(   9) = (   0.2237205   0.0440510   0.1754827  )
        10           O   tau(  10) = (   1.5349689   0.3022385   0.1205763  )
        11           O   tau(  11) = (   0.3941164   0.0776023   0.4910515  )

   Crystallographic axes

     site n.     atom                  positions (cryst. coord.)
         1           Mn  tau(   1) = (  0.0000000 -0.0000000  0.5000000  )
         2           Mn  tau(   2) = (  0.6442810  0.6442810  0.0306010  )
         3           Mn  tau(   3) = (  0.3557190  0.3557190  0.9693990  )
         4           H   tau(   4) = (  0.8205440  0.8205440  0.3973980  )
         5           H   tau(   5) = (  0.1794560  0.1794560  0.6026020  )
         6           O   tau(   6) = (  0.4561150  0.4561150  0.2732510  )
         7           O   tau(   7) = (  0.5438850  0.5438850  0.7267490  )
         8           O   tau(   8) = (  0.8843590  0.8843590  0.7130890  )
         9           O   tau(   9) = (  0.1156410  0.1156410  0.2869110  )
        10           O   tau(  10) = (  0.7968580  0.7968580  0.1971400  )
        11           O   tau(  11) = (  0.2031420  0.2031420  0.8028600  )

     number of k points=    14
                       cart. coord. in units 2pi/alat
        k(    1) = (   0.0000000   0.0000000   0.0000000), wk =   0.0370370
        k(    2) = (   0.0000000   0.0000000   0.5449938), wk =   0.0740741
        k(    3) = (   0.0000000   0.8792617  -0.0010564), wk =   0.0740741
        k(    4) = (   0.0000000   0.8792617   0.5439374), wk =   0.0740741
        k(    5) = (   0.0000000   0.8792617  -0.5460502), wk =   0.0740741
        k(    6) = (   0.3333333  -0.8136277  -0.0010564), wk =   0.0740741
        k(    7) = (   0.3333333  -0.8136277   0.5439374), wk =   0.0740741
        k(    8) = (   0.3333333  -0.8136277  -0.5460502), wk =   0.0740741
        k(    9) = (   0.3333333   0.0656340  -0.0021128), wk =   0.0740741
        k(   10) = (   0.3333333   0.0656340   0.5428810), wk =   0.0740741
        k(   11) = (   0.3333333   0.0656340  -0.5471066), wk =   0.0740741
        k(   12) = (   0.3333333  -1.6928894  -0.0000000), wk =   0.0740741
        k(   13) = (   0.3333333  -1.6928894   0.5449938), wk =   0.0740741
        k(   14) = (   0.3333333  -1.6928894  -0.5449938), wk =   0.0740741

                       cryst. coord.
        k(    1) = (   0.0000000   0.0000000   0.0000000), wk =   0.0370370
        k(    2) = (   0.0000000   0.0000000   0.3333333), wk =   0.0740741
        k(    3) = (   0.0000000   0.3333333   0.0000000), wk =   0.0740741
        k(    4) = (   0.0000000   0.3333333   0.3333333), wk =   0.0740741
        k(    5) = (   0.0000000   0.3333333  -0.3333333), wk =   0.0740741
        k(    6) = (   0.3333333   0.0000000   0.0000000), wk =   0.0740741
        k(    7) = (   0.3333333   0.0000000   0.3333333), wk =   0.0740741
        k(    8) = (   0.3333333   0.0000000  -0.3333333), wk =   0.0740741
        k(    9) = (   0.3333333   0.3333333   0.0000000), wk =   0.0740741
        k(   10) = (   0.3333333   0.3333333   0.3333333), wk =   0.0740741
        k(   11) = (   0.3333333   0.3333333  -0.3333333), wk =   0.0740741
        k(   12) = (   0.3333333  -0.3333333   0.0000000), wk =   0.0740741
        k(   13) = (   0.3333333  -0.3333333   0.3333333), wk =   0.0740741
        k(   14) = (   0.3333333  -0.3333333  -0.3333333), wk =   0.0740741

     Check: negative core charge=   -0.000032
     Generating pointlists ...
     new r_m :   0.1045 (alat units)  1.5082 (a.u.) for type    1
     new r_m :   0.0542 (alat units)  0.7819 (a.u.) for type    2
     new r_m :   0.0542 (alat units)  0.7819 (a.u.) for type    3

     Initial potential from superposition of free atoms

     starting charge      81.4997, renormalised to      83.0000
     Starting wfcs are   65 randomized atomic wfcs
     Checking if some PAW data can be deallocated...

     Self-consistent Calculation

     iteration #  1     ecut=    30.00 Ry     beta= 0.70
     Davidson diagonalization with overlap

     ethr =  1.00E-02,  avg # of iterations =  5.5

     total energy              =    -882.50582320 Ry
     estimated scf accuracy    <       5.87831717 Ry

     total magnetization       =    11.00 Bohr mag/cell
     absolute magnetization    =    11.00 Bohr mag/cell

[...]

     total energy              =    -885.84716374 Ry
     estimated scf accuracy    <       0.00000228 Ry

[...]

     iteration # 13     ecut=    30.00 Ry     beta= 0.70
     Davidson diagonalization with overlap

     ethr =  2.75E-09,  avg # of iterations =  1.5

     Magnetic moment per site  (integrated on atomic sphere of radius R)
     atom   1 (R=0.104)  charge= 11.8070  magn=  2.7305
     atom   2 (R=0.104)  charge= 11.8495  magn=  3.2300
     atom   3 (R=0.104)  charge= 11.8495  magn=  3.2300
     atom   4 (R=0.054)  charge=  0.3936  magn=  0.0054
     atom   5 (R=0.054)  charge=  0.3936  magn=  0.0054
     atom   6 (R=0.054)  charge=  2.0066  magn=  0.0545
     atom   7 (R=0.054)  charge=  2.0066  magn=  0.0545
     atom   8 (R=0.054)  charge=  2.0074  magn= -0.0095
     atom   9 (R=0.054)  charge=  2.0074  magn= -0.0095
     atom  10 (R=0.054)  charge=  2.0278  magn=  0.0101
     atom  11 (R=0.054)  charge=  2.0278  magn=  0.0101

     End of self-consistent calculation

 ------ SPIN UP ------------

          k = 0.0000 0.0000 0.0000 (  1923 PWs)   bands (ev):

   -73.3552 -73.3547 -73.3243 -42.0998 -42.0887 -42.0777 -42.0716 -41.9841
   -41.9487 -41.9460 -41.8621 -41.8529 -11.8965 -11.3805 -10.2341  -9.8149
    -9.4249  -8.7776  -0.1205   0.8990   2.0397   2.5641   3.0711   3.1918
     3.2060   3.3520   3.4483   3.7376   4.3186   4.8519   5.0047   5.6008
     5.6969   5.7692   5.8167   6.1419   6.1857   6.1908   6.4986   6.7083
     6.8832   6.9985   7.1740   7.5331   7.9091   8.3257   8.6781  10.0147
    10.0950  10.3004  11.0346  12.8885  16.2015  16.6260  17.4904  19.2474
    19.8100  19.8765  20.3700  21.5538  21.6444  21.9458  22.3805  23.0663

     occupation numbers
     1.0000   1.0000   1.0000   1.0000   1.0000   1.0000   1.0000   1.0000
     1.0000   1.0000   1.0000   1.0000   1.0000   1.0000   1.0000   1.0000
     1.0000   1.0000   1.0000   1.0000   1.0000   1.0000   1.0000   1.0000
     1.0000   1.0000   1.0000   1.0000   1.0000   1.0000   1.0000   1.0000
     1.0000   1.0000   1.0000   1.0000   1.0000   1.0000   1.0000   1.0000
     1.0000   1.0000   1.0000   1.0000   1.0000   1.0000   1.0000   0.0000
     0.0000   0.0000   0.0000   0.0000   0.0000   0.0000   0.0000   0.0000
     0.0000   0.0000   0.0000   0.0000   0.0000   0.0000   0.0000   0.0000

[...]

 ------ SPIN DOWN ----------

[...]

          k = 0.3333-1.6929-0.5450 (  1942 PWs)   bands (ev):

   -69.7063 -69.0848 -69.0842 -38.5523 -38.4452 -38.3750 -38.1813 -38.1791
   -38.1115 -38.1112 -37.2943 -37.2922 -11.3043 -11.1558  -9.9064  -9.7212
    -8.9851  -8.7546   0.8867   1.3776   3.1122   3.2165   3.3449   3.4852
     3.7113   3.8800   4.1913   4.4325   4.7010   4.8808   5.0273   5.4189
     5.4768   6.0704   6.4909   7.2211   9.8165   9.9302  10.1090  10.1326
    10.2021  10.3658  10.4623  10.5113  10.7465  11.0594  11.2588  11.4964
    11.5905  12.2358  12.3374  16.5833  17.5345  18.7495  18.8557  19.6178
    20.5500  20.9662  21.0965  21.2533  21.5974  22.5021  22.6909  23.0010

     occupation numbers
     1.0000   1.0000   1.0000   1.0000   1.0000   1.0000   1.0000   1.0000
     1.0000   1.0000   1.0000   1.0000   1.0000   1.0000   1.0000   1.0000
     1.0000   1.0000   1.0000   1.0000   1.0000   1.0000   1.0000   1.0000
     1.0000   1.0000   1.0000   1.0000   1.0000   1.0000   1.0000   1.0000
     1.0000   1.0000   1.0000   1.0000   0.0000   0.0000   0.0000   0.0000
     0.0000   0.0000   0.0000   0.0000   0.0000   0.0000   0.0000   0.0000
     0.0000   0.0000   0.0000   0.0000   0.0000   0.0000   0.0000   0.0000
     0.0000   0.0000   0.0000   0.0000   0.0000   0.0000   0.0000   0.0000

     highest occupied, lowest unoccupied level (ev):     9.0933    8.9621

!    total energy              =    -885.84716374 Ry
     estimated scf accuracy    <       0.00000052 Ry

     The total energy is the sum of the following terms:
     one-electron contribution =    -477.22883968 Ry
     hartree contribution      =     275.61514988 Ry
     xc contribution           =    -125.54371483 Ry
     ewald contribution        =    -501.54907879 Ry
     one-center paw contrib.   =     -57.14068033 Ry
      -> PAW hartree energy AE =       0.00000000 Ry
      -> PAW hartree energy PS =       0.00000000 Ry
      -> PAW xc energy AE      =       0.00000000 Ry
      -> PAW xc energy PS      =       0.00000000 Ry
      -> total E_H with PAW    =     275.61514988 Ry
      -> total E_XC with PAW   =    -125.54371483 Ry

     total magnetization       =    11.00 Bohr mag/cell
     absolute magnetization    =    11.31 Bohr mag/cell

     convergence has been achieved in  13 iterations

     Writing all to output data dir bands_nm/myprefix.save/

     General routines

     Parallel routines

     PAW routines

   This run was terminated on:  14:38:52  15Jul2023

   JOB DONE.