     Program PWSCF v.7.1 starts on 17Jul2023 at  1:34: 1

     Reading input from espresso_11099.pwi
Warning: card &CELL ignored
Warning: card / ignored

     Current dimensions of program PWSCF are:
     Max number of different atomic species (ntypx) = 10
     Max number of k-points (npk) =  40000
     Max angular momentum in pseudopotentials (lmaxx) =  4
     file Cu.paw.z_11.ld1.psl.v1.0.0-low.upf: wavefunction(s)  4S 3D renormalized
     Message from routine setup:
     using ibrav=0 with symmetry is DISCOURAGED, use correct ibrav instead

     K-points division:     npool     =       2
     R & G space division:  proc/nbgrp/npool/nimage =       4
     Subspace diagonalization in iterative solution of the eigenvalue problem:
     one sub-group per band group will be used

     Using Slab Decomposition

     bravais-lattice index     =            0
     lattice parameter (alat)  =       7.3982  a.u.
     unit-cell volume          =    2288.1109 (a.u.)^3
     number of atoms/cell      =           18
     number of atomic types    =            3
     number of electrons       =       164.00
     number of Kohn-Sham states=          256
     kinetic-energy cutoff     =      30.0000  Ry
     charge density cutoff     =     240.0000  Ry
     scf convergence threshold =      1.0E-06
     mixing beta               =       0.7000
     number of iterations used =            8  plain     mixing
     Exchange-correlation=  SLA  PW   PBX  PBC
                           (   1   4   3   4   0   0   0)

     celldm(1)=   7.398189  celldm(2)=   0.000000  celldm(3)=   0.000000
     celldm(4)=   0.000000  celldm(5)=   0.000000  celldm(6)=   0.000000

     crystal axes: (cart. coord. in units of alat)
               a(1) = (   1.000000   0.000000   0.000000 )
               a(2) = (   0.000000   2.302681   0.000000 )
               a(3) = (   0.000000   0.000000   2.453957 )

     reciprocal axes: (cart. coord. in units 2 pi/alat)
               b(1) = (  1.000000  0.000000  0.000000 )
               b(2) = (  0.000000  0.434276  0.000000 )
               b(3) = (  0.000000  0.000000  0.407505 )

     PseudoPot. # 1 for Cs read from file:
     /lustre07/scratch/pragov/crystal_structure_design/utils/SSSP/Cs_pbe_v1.uspp.F.UPF
     MD5 check sum: 3476d69cb178dfad3ffaa59df4e07ca4
     Pseudo is Ultrasoft + core correction, Zval =  9.0
     Generated by new atomic code, or converted to UPF format
     Using radial grid of  905 points,  6 beta functions with:
                l(1) =   0
                l(2) =   0
                l(3) =   1
                l(4) =   1
                l(5) =   2
                l(6) =   2
     Q(r) pseudized with  6 coefficients,  rinner =    1.500   1.500   1.500
                                                       1.500   1.500

     PseudoPot. # 2 for Cu read from file:
     /lustre07/scratch/pragov/crystal_structure_design/utils/SSSP/Cu.paw.z_11.ld1.psl.v1.0.0-low.upf
     MD5 check sum: 619f40885d92a09a85a8b37550532d0c
     Pseudo is Projector augmented-wave + core cor, Zval = 11.0
     Generated using &quot;atomic&quot; code by A. Dal Corso  v.6.3MaX
     Shape of augmentation charge: PSQ
     Using radial grid of 1199 points,  6 beta functions with:
                l(1) =   0
                l(2) =   0
                l(3) =   1
                l(4) =   1
                l(5) =   2
                l(6) =   2
     Q(r) pseudized with 0 coefficients

     PseudoPot. # 3 for S  read from file:
     /lustre07/scratch/pragov/crystal_structure_design/utils/SSSP/s_pbe_v1.4.uspp.F.UPF
     MD5 check sum: 88d86576ff6df21479756cfb9bdac1df
     Pseudo is Ultrasoft + core correction, Zval =  6.0
     Generated by new atomic code, or converted to UPF format
     Using radial grid of  907 points,  6 beta functions with:
                l(1) =   0
                l(2) =   0
                l(3) =   1
                l(4) =   1
                l(5) =   2
                l(6) =   2
     Q(r) pseudized with  8 coefficients,  rinner =    1.300   1.300   1.300
                                                       1.300   1.300

     atomic species   valence    mass     pseudopotential
        Cs             9.00   132.90545     Cs( 1.00)
        Cu            11.00    63.54600     Cu( 1.00)
        S              6.00    32.06000     S ( 1.00)

      8 Sym. Ops., with inversion, found ( 4 have fractional translation)

                                    s                        frac. trans.

      isym =  1     identity

 cryst.   s( 1) = (     1          0          0      )
                  (     0          1          0      )
                  (     0          0          1      )

 cart.    s( 1) = (  1.0000000  0.0000000  0.0000000 )
                  (  0.0000000  1.0000000  0.0000000 )
                  (  0.0000000  0.0000000  1.0000000 )

      isym =  2     180 deg rotation - cart. axis [0,0,1]

 cryst.   s( 2) = (    -1          0          0      )    f =(  0.0000000 )
                  (     0         -1          0      )       ( -0.0000000 )
                  (     0          0          1      )       (  0.5000000 )

 cart.    s( 2) = ( -1.0000000  0.0000000  0.0000000 )    f =(  0.0000000 )
                  (  0.0000000 -1.0000000  0.0000000 )       ( -0.0000000 )
                  (  0.0000000  0.0000000  1.0000000 )       (  1.2269786 )

[...]

      isym =  4     180 deg rotation - cart. axis [1,0,0]

[...]

      isym =  5     inversion

[...]

      isym =  6     inv. 180 deg rotation - cart. axis [0,0,1]

[...]

 cryst.   s( 7) = (     1          0          0      )    f =(  0.0000000 )
                  (     0         -1          0      )       ( -0.0000000 )
                  (     0          0          1      )       (  0.5000000 )

 cart.    s( 7) = (  1.0000000  0.0000000  0.0000000 )    f =(  0.0000000 )
                  (  0.0000000 -1.0000000  0.0000000 )       ( -0.0000000 )
                  (  0.0000000  0.0000000  1.0000000 )       (  1.2269786 )

      isym =  8     inv. 180 deg rotation - cart. axis [1,0,0]

 cryst.   s( 8) = (    -1          0          0      )
                  (     0          1          0      )
                  (     0          0          1      )

 cart.    s( 8) = ( -1.0000000  0.0000000  0.0000000 )
                  (  0.0000000  1.0000000  0.0000000 )
                  (  0.0000000  0.0000000  1.0000000 )

   Cartesian axes

     site n.     atom                  positions (alat units)
         1           Cs  tau(   1) = (   0.0000000   0.1358306   0.6134893  )
         2           Cs  tau(   2) = (   0.0000000   2.1668507   1.8404679  )
         3           Cu  tau(   3) = (   0.5000000   1.6451368   0.6134893  )
         4           Cu  tau(   4) = (   0.5000000   1.3280829   2.1759950  )
         5           Cu  tau(   5) = (   0.0000000   1.4736723   0.1916369  )
         6           Cu  tau(   6) = (   0.5000000   0.9745983   0.9490164  )
         7           Cu  tau(   7) = (   0.5000000   0.9745983   0.2779622  )
         8           Cu  tau(   8) = (   0.0000000   0.8290090   2.2623203  )
         9           Cu  tau(   9) = (   0.0000000   0.8290090   1.4186155  )
        10           Cu  tau(  10) = (   0.5000000   1.3280829   1.5049408  )
        11           Cu  tau(  11) = (   0.0000000   1.4736723   1.0353417  )
        12           Cu  tau(  12) = (   0.5000000   0.6575445   1.8404679  )
        13           S   tau(  13) = (   0.5000000   0.5073313   1.2956869  )
        14           S   tau(  14) = (   0.0000000   1.0534813   0.6134893  )
        15           S   tau(  15) = (   0.5000000   1.7953499   0.0687083  )
        16           S   tau(  16) = (   0.0000000   1.2492000   1.8404679  )
        17           S   tau(  17) = (   0.5000000   0.5073313   2.3852488  )
        18           S   tau(  18) = (   0.5000000   1.7953499   1.1582702  )

   Crystallographic axes

     site n.     atom                  positions (cryst. coord.)
         1           Cs  tau(   1) = (  0.0000000  0.0589880  0.2500000  )
         2           Cs  tau(   2) = (  0.0000000  0.9410120  0.7500000  )
         3           Cu  tau(   3) = (  0.5000000  0.7144440  0.2500000  )
         4           Cu  tau(   4) = (  0.5000000  0.5767550  0.8867290  )
         5           Cu  tau(   5) = (  0.0000000  0.6399810  0.0780930  )
         6           Cu  tau(   6) = (  0.5000000  0.4232450  0.3867290  )
         7           Cu  tau(   7) = (  0.5000000  0.4232450  0.1132710  )
         8           Cu  tau(   8) = (  0.0000000  0.3600190  0.9219070  )
         9           Cu  tau(   9) = (  0.0000000  0.3600190  0.5780930  )
        10           Cu  tau(  10) = (  0.5000000  0.5767550  0.6132710  )
        11           Cu  tau(  11) = (  0.0000000  0.6399810  0.4219070  )
        12           Cu  tau(  12) = (  0.5000000  0.2855560  0.7500000  )
        13           S   tau(  13) = (  0.5000000  0.2203220  0.5279990  )
        14           S   tau(  14) = (  0.0000000  0.4575020  0.2500000  )
        15           S   tau(  15) = (  0.5000000  0.7796780  0.0279990  )
        16           S   tau(  16) = (  0.0000000  0.5424980  0.7500000  )
        17           S   tau(  17) = (  0.5000000  0.2203220  0.9720010  )
        18           S   tau(  18) = (  0.5000000  0.7796780  0.4720010  )

     number of k points=     8
                       cart. coord. in units 2pi/alat
        k(    1) = (   0.0000000   0.0000000   0.0000000), wk =   0.0740741
        k(    2) = (   0.0000000   0.0000000   0.1358350), wk =   0.1481481
        k(    3) = (   0.0000000   0.1447588   0.0000000), wk =   0.1481481
        k(    4) = (   0.0000000   0.1447588   0.1358350), wk =   0.2962963
        k(    5) = (   0.3333333   0.0000000   0.0000000), wk =   0.1481481
        k(    6) = (   0.3333333   0.0000000   0.1358350), wk =   0.2962963
        k(    7) = (   0.3333333   0.1447588   0.0000000), wk =   0.2962963
        k(    8) = (   0.3333333   0.1447588   0.1358350), wk =   0.5925926

                       cryst. coord.
        k(    1) = (   0.0000000   0.0000000   0.0000000), wk =   0.0740741
        k(    2) = (   0.0000000   0.0000000   0.3333333), wk =   0.1481481
        k(    3) = (   0.0000000   0.3333333   0.0000000), wk =   0.1481481
        k(    4) = (   0.0000000   0.3333333   0.3333333), wk =   0.2962963
        k(    5) = (   0.3333333   0.0000000   0.0000000), wk =   0.1481481
        k(    6) = (   0.3333333   0.0000000   0.3333333), wk =   0.2962963
        k(    7) = (   0.3333333   0.3333333   0.0000000), wk =   0.2962963
        k(    8) = (   0.3333333   0.3333333   0.3333333), wk =   0.5925926

     Check: negative core charge=   -0.000002

     Initial potential from superposition of free atoms

     starting charge     163.9187, renormalised to     164.0000
     Starting wfcs are  140 randomized atomic wfcs +  116 random wfcs
     Checking if some PAW data can be deallocated...

     Self-consistent Calculation

     iteration #  1     ecut=    30.00 Ry     beta= 0.70
     Davidson diagonalization with overlap

     ethr =  1.00E-02,  avg # of iterations =  7.0

     Threshold (ethr) on eigenvalues was too large:
     Diagonalizing with lowered threshold

     Davidson diagonalization with overlap

[...]

     total energy              =   -2401.68349772 Ry
     estimated scf accuracy    <       0.58862380 Ry

[...]

     total energy              =   -2402.00711765 Ry
     estimated scf accuracy    <       0.00001379 Ry

     iteration # 10     ecut=    30.00 Ry     beta= 0.70
     Davidson diagonalization with overlap

     ethr =  8.41E-09,  avg # of iterations =  1.1

     End of self-consistent calculation

          k = 0.0000 0.0000 0.0000 (  6359 PWs)   bands (ev):

   -13.5769 -13.5652  -5.8802  -5.5896  -4.9786  -4.9059  -4.7898  -4.7404
    -0.5839  -0.4722  -0.4084  -0.3640   0.0905   0.1157   1.4499   2.4500
     2.5466   2.6201   3.0877   3.1261   3.1404   3.2501   3.6422   3.6845
     3.6939   4.0025   4.1276   4.1317   4.1741   4.1749   4.4066   4.4635
     4.7875   5.0507   5.0878   5.1052   5.3251   5.3419   5.4126   5.4189
     5.4792   5.5454   5.6002   5.6256   5.6867   5.6984   5.7019   5.7136
     5.7195   5.8991   6.0218   6.0378   6.1099   6.1221   6.1606   6.2047
     6.2523   6.2690   6.2923   6.2998   6.3186   6.3838   6.3932   6.3955
     6.4422   6.5169   6.6958   6.7615   6.7995   6.8241   6.8486   6.9011
     7.1713   7.3204   7.7559   7.8195   7.9275   8.0445   8.0782   8.1736
     8.2947   8.6315   8.9584   9.7250   9.8926  10.5425  10.9369  11.0907
    11.2260  11.3127  11.9341  12.4412  12.7027  12.8492  12.9665  13.6416
    13.7663  13.7687  13.7690  14.1697  14.4668  14.4738  14.5306  14.5367
    14.7532  14.8926  15.0233  15.3045  15.3430  15.3536  15.4670  15.5190
    15.8834  15.9471  16.1025  16.3761  16.6031  16.6607  16.7515  17.0799
    17.0911  17.2545  17.2855  17.7267  18.1200  18.4253  18.4974  18.5341
    18.5559  18.9881  19.2274  19.5307  19.5769  19.9626  20.0318  20.1126
    20.6634  20.7238  20.7717  21.0676  21.4433  21.4805  21.6137  21.6778
    21.8611  21.9717  22.0541  22.1849  22.3859  22.5483  22.7285  23.0221
    23.3152  23.4814  23.6607  23.7909  23.8629  23.9950  24.0239  24.0321
    24.2630  24.3282  24.6102  24.8931  25.0905  25.1239  25.3386  25.3510
    25.5393  25.7215  25.7904  26.0309  26.4399  26.5257  26.5581  26.8212
    27.0278  27.0755  27.2307  27.3546  27.4437  27.7193  27.8799  28.0263
    28.0554  28.1098  28.3506  28.3948  28.6501  28.7950  29.0307  29.1309
    29.3308  29.3445  29.4359  29.4775  29.6438  29.8501  30.0147  30.0860
    30.1927  30.4670  30.5479  30.5594  30.8744  31.1650  31.3688  31.4221
    31.5639  31.7267  32.0908  32.6324  32.7558  33.0363  33.0592  33.3274
    33.4052  33.5007  33.8062  34.1471  34.2332  34.2349  34.3167  34.3392
    34.5756  34.6460  34.6887  34.9658  35.0706  35.1151  35.2535  35.3433
    35.6206  35.7594  35.8052  36.1059  36.1102  36.1800  36.3512  36.4376
    36.4659  36.5321  36.6105  36.6916  36.9230  36.9303  37.4027  37.4711
    37.7127  37.8530  37.9021  37.9912  38.1567  38.1894  38.1929  38.7907

     occupation numbers
     1.0000   1.0000   1.0000   1.0000   1.0000   1.0000   1.0000   1.0000
     1.0000   1.0000   1.0000   1.0000   1.0000   1.0000   1.0000   1.0000
     1.0000   1.0000   1.0000   1.0000   1.0000   1.0000   1.0000   1.0000
     1.0000   1.0000   1.0000   1.0000   1.0000   1.0000   1.0000   1.0000
     1.0000   1.0000   1.0000   1.0000   1.0000   1.0000   1.0000   1.0000
     1.0000   1.0000   1.0000   1.0000   1.0000   1.0000   1.0000   1.0000
     1.0000   1.0000   1.0000   1.0000   1.0000   1.0000   1.0000   1.0000
     1.0000   1.0000   1.0000   1.0000   1.0000   1.0000   1.0000   1.0000
     1.0000   1.0000   1.0000   1.0000   1.0000   1.0000   1.0000   1.0000
     1.0000   1.0000   1.0000   1.0000   1.0000   1.0000   1.0000   1.0000
     1.0000   1.0000   0.0000   0.0000   0.0000   0.0000   0.0000   0.0000
     0.0000   0.0000   0.0000   0.0000   0.0000   0.0000   0.0000   0.0000
     0.0000   0.0000   0.0000   0.0000   0.0000   0.0000   0.0000   0.0000
     0.0000   0.0000   0.0000   0.0000   0.0000   0.0000   0.0000   0.0000
     0.0000   0.0000   0.0000   0.0000   0.0000   0.0000   0.0000   0.0000
     0.0000   0.0000   0.0000   0.0000   0.0000   0.0000   0.0000   0.0000
     0.0000   0.0000   0.0000   0.0000   0.0000   0.0000   0.0000   0.0000
     0.0000   0.0000   0.0000   0.0000   0.0000   0.0000   0.0000   0.0000
     0.0000   0.0000   0.0000   0.0000   0.0000   0.0000   0.0000   0.0000
     0.0000   0.0000   0.0000   0.0000   0.0000   0.0000   0.0000   0.0000
     0.0000   0.0000   0.0000   0.0000   0.0000   0.0000   0.0000   0.0000
     0.0000   0.0000   0.0000   0.0000   0.0000   0.0000   0.0000   0.0000
     0.0000   0.0000   0.0000   0.0000   0.0000   0.0000   0.0000   0.0000
     0.0000   0.0000   0.0000   0.0000   0.0000   0.0000   0.0000   0.0000
     0.0000   0.0000   0.0000   0.0000   0.0000   0.0000   0.0000   0.0000
     0.0000   0.0000   0.0000   0.0000   0.0000   0.0000   0.0000   0.0000
     0.0000   0.0000   0.0000   0.0000   0.0000   0.0000   0.0000   0.0000
     0.0000   0.0000   0.0000   0.0000   0.0000   0.0000   0.0000   0.0000
     0.0000   0.0000   0.0000   0.0000   0.0000   0.0000   0.0000   0.0000
     0.0000   0.0000   0.0000   0.0000   0.0000   0.0000   0.0000   0.0000
     0.0000   0.0000   0.0000   0.0000   0.0000   0.0000   0.0000   0.0000
     0.0000   0.0000   0.0000   0.0000   0.0000   0.0000   0.0000   0.0000

[...]

          k = 0.3333 0.1448 0.1358 (  6344 PWs)   bands (ev):

   -13.4814 -13.4767  -5.4423  -5.3647  -4.7808  -4.7398  -4.5938  -4.5677
    -0.8418  -0.8138  -0.3796  -0.3613  -0.3386  -0.2661   1.6557   1.6995
     2.0984   2.5416   2.7378   2.8303   3.3164   3.3558   3.7328   3.7484
     3.8860   3.9302   3.9805   4.0293   4.1370   4.1448   4.3230   4.4266
     4.9268   5.0622   5.0700   5.1570   5.3191   5.3428   5.4038   5.4410
     5.4610   5.5133   5.5552   5.5806   5.6274   5.6390   5.7099   5.7658
     5.8108   5.8541   5.8971   5.9377   5.9498   6.0150   6.0447   6.0544
     6.0966   6.1229   6.1616   6.2286   6.2620   6.2841   6.3418   6.3777
     6.4178   6.4389   6.4621   6.4792   6.6429   6.6664   6.7407   6.7700
     6.8104   6.9674   7.0884   7.1111   7.3842   7.5020   7.5959   7.6751
     7.7128   7.7563   9.8990  10.3872  10.9129  11.0545  11.1498  11.3127
    11.4377  11.6849  11.9834  12.4204  12.6347  12.7383  13.0214  13.1679
    13.3644  13.6844  13.7273  13.8642  14.2088  14.4025  14.4678  14.5456
    14.7194  14.8222  14.8283  15.0636  15.3776  15.8918  16.0337  16.2500
    16.5621  16.8697  16.9876  17.1740  17.3074  17.5034  17.5924  17.8514
    18.0025  18.1583  18.2931  18.3490  18.5245  18.9124  19.1536  19.2594
    19.5539  19.7015  19.9542  20.0890  20.2923  20.5782  20.6414  20.8301
    21.3239  21.4386  21.5983  21.7836  21.8569  22.0605  22.2014  22.2775
    22.4599  22.5433  22.7168  22.7346  22.8056  23.0116  23.0950  23.2440
    23.3282  23.4656  23.5494  23.6854  23.8541  23.8681  23.9926  24.0659
    24.2588  24.3223  24.3544  24.4698  24.5985  24.7046  24.8098  24.9216
    25.2875  25.4454  25.7205  25.8384  25.8534  26.0933  26.3044  26.4601
    26.6384  26.6585  26.6828  26.9887  27.0918  27.3291  27.4578  27.7595
    27.8394  28.0758  28.1940  28.4530  28.6147  28.8256  29.0287  29.2609
    29.3606  29.6348  29.7755  29.9181  30.0850  30.1518  30.3481  30.4731
    30.6116  30.6654  30.8143  30.9065  31.1863  31.3503  31.4303  31.6087
    31.6378  31.7583  31.7862  31.9596  32.1231  32.3380  32.4545  32.5149
    32.6876  32.8025  32.8779  33.1062  33.1911  33.3457  33.5924  33.6706
    33.8667  33.9562  34.0861  34.2716  34.4481  34.5733  34.6418  34.7095
    35.0176  35.0384  35.2079  35.4233  35.6193  35.6795  35.8318  35.8767
    35.9397  36.2555  36.2806  36.4269  36.6582  36.7450  36.8480  36.8868
    37.1163  37.3078  37.3863  37.5460  37.5743  37.6108  37.8388  37.9673

     occupation numbers
     1.0000   1.0000   1.0000   1.0000   1.0000   1.0000   1.0000   1.0000
     1.0000   1.0000   1.0000   1.0000   1.0000   1.0000   1.0000   1.0000
     1.0000   1.0000   1.0000   1.0000   1.0000   1.0000   1.0000   1.0000
     1.0000   1.0000   1.0000   1.0000   1.0000   1.0000   1.0000   1.0000
     1.0000   1.0000   1.0000   1.0000   1.0000   1.0000   1.0000   1.0000
     1.0000   1.0000   1.0000   1.0000   1.0000   1.0000   1.0000   1.0000
     1.0000   1.0000   1.0000   1.0000   1.0000   1.0000   1.0000   1.0000
     1.0000   1.0000   1.0000   1.0000   1.0000   1.0000   1.0000   1.0000
     1.0000   1.0000   1.0000   1.0000   1.0000   1.0000   1.0000   1.0000
     1.0000   1.0000   1.0000   1.0000   1.0000   1.0000   1.0000   1.0000
     1.0000   1.0000   0.0000   0.0000   0.0000   0.0000   0.0000   0.0000
     0.0000   0.0000   0.0000   0.0000   0.0000   0.0000   0.0000   0.0000
     0.0000   0.0000   0.0000   0.0000   0.0000   0.0000   0.0000   0.0000
     0.0000   0.0000   0.0000   0.0000   0.0000   0.0000   0.0000   0.0000
     0.0000   0.0000   0.0000   0.0000   0.0000   0.0000   0.0000   0.0000
     0.0000   0.0000   0.0000   0.0000   0.0000   0.0000   0.0000   0.0000
     0.0000   0.0000   0.0000   0.0000   0.0000   0.0000   0.0000   0.0000
     0.0000   0.0000   0.0000   0.0000   0.0000   0.0000   0.0000   0.0000
     0.0000   0.0000   0.0000   0.0000   0.0000   0.0000   0.0000   0.0000
     0.0000   0.0000   0.0000   0.0000   0.0000   0.0000   0.0000   0.0000
     0.0000   0.0000   0.0000   0.0000   0.0000   0.0000   0.0000   0.0000
     0.0000   0.0000   0.0000   0.0000   0.0000   0.0000   0.0000   0.0000
     0.0000   0.0000   0.0000   0.0000   0.0000   0.0000   0.0000   0.0000
     0.0000   0.0000   0.0000   0.0000   0.0000   0.0000   0.0000   0.0000
     0.0000   0.0000   0.0000   0.0000   0.0000   0.0000   0.0000   0.0000
     0.0000   0.0000   0.0000   0.0000   0.0000   0.0000   0.0000   0.0000
     0.0000   0.0000   0.0000   0.0000   0.0000   0.0000   0.0000   0.0000
     0.0000   0.0000   0.0000   0.0000   0.0000   0.0000   0.0000   0.0000
     0.0000   0.0000   0.0000   0.0000   0.0000   0.0000   0.0000   0.0000
     0.0000   0.0000   0.0000   0.0000   0.0000   0.0000   0.0000   0.0000
     0.0000   0.0000   0.0000   0.0000   0.0000   0.0000   0.0000   0.0000
     0.0000   0.0000   0.0000   0.0000   0.0000   0.0000   0.0000   0.0000

     highest occupied, lowest unoccupied level (ev):     8.6480    8.9584

!    total energy              =   -2402.00711983 Ry
     estimated scf accuracy    <       0.00000030 Ry

     The total energy is the sum of the following terms:
     one-electron contribution =   -1039.50651927 Ry
     hartree contribution      =     697.99271224 Ry
     xc contribution           =    -558.00541413 Ry
     ewald contribution        =    -604.26790161 Ry
     one-center paw contrib.   =    -898.21999705 Ry
      -> PAW hartree energy AE =      99.37176611 Ry
      -> PAW hartree energy PS =     -98.64516822 Ry
      -> PAW xc energy AE      =    -135.04159753 Ry
      -> PAW xc energy PS      =      44.48879447 Ry
      -> total E_H with PAW    =     698.71931014 Ry
      -> total E_XC with PAW   =    -648.55821719 Ry

     convergence has been achieved in  10 iterations

     Writing all to output data dir bands_nm/myprefix.save/

     General routines

     Parallel routines

     PAW routines

   This run was terminated on:   1:35: 4  17Jul2023

   JOB DONE.