     Program PWSCF v.7.1 starts on 16Jul2023 at 15:40:25

     Reading input from espresso_23606.pwi
Warning: card &CELL ignored
Warning: card / ignored

     Current dimensions of program PWSCF are:
     Max number of different atomic species (ntypx) = 10
     Max number of k-points (npk) =  40000
     Max angular momentum in pseudopotentials (lmaxx) =  4
     Message from routine setup:
     using ibrav=0 with symmetry is DISCOURAGED, use correct ibrav instead

     K-points division:     npool     =       2
     R & G space division:  proc/nbgrp/npool/nimage =       4
     Subspace diagonalization in iterative solution of the eigenvalue problem:
     a serial algorithm will be used

     Using Slab Decomposition

     bravais-lattice index     =            0
     lattice parameter (alat)  =      10.5260  a.u.
     unit-cell volume          =    3299.4142 (a.u.)^3
     number of atoms/cell      =            8
     number of atomic types    =            2
     number of electrons       =        64.00
     number of Kohn-Sham states=           64
     kinetic-energy cutoff     =      30.0000  Ry
     charge density cutoff     =     240.0000  Ry
     scf convergence threshold =      1.0E-06
     mixing beta               =       0.7000
     number of iterations used =            8  plain     mixing
     Exchange-correlation= SLA  PW   PBX  PBC
                           (   1   4   3   4   0   0   0)

     celldm(1)=  10.525972  celldm(2)=   0.000000  celldm(3)=   0.000000
     celldm(4)=   0.000000  celldm(5)=   0.000000  celldm(6)=   0.000000

     crystal axes: (cart. coord. in units of alat)
               a(1) = (   1.000000   0.000000   0.000000 )
               a(2) = (   0.000000   1.992267   0.000000 )
               a(3) = (   0.000000   0.000000   1.420047 )

     reciprocal axes: (cart. coord. in units 2 pi/alat)
               b(1) = (  1.000000  0.000000  0.000000 )
               b(2) = (  0.000000  0.501941  0.000000 )
               b(3) = (  0.000000  0.000000  0.704202 )

     PseudoPot. # 1 for Cs read from file:
     /lustre07/scratch/pragov/crystal_structure_design/utils/SSSP/Cs_pbe_v1.uspp.F.UPF
     MD5 check sum: 3476d69cb178dfad3ffaa59df4e07ca4
     Pseudo is Ultrasoft + core correction, Zval =  9.0
     Generated by new atomic code, or converted to UPF format
     Using radial grid of  905 points,  6 beta functions with:
                l(1) =   0
                l(2) =   0
                l(3) =   1
                l(4) =   1
                l(5) =   2
                l(6) =   2
     Q(r) pseudized with  6 coefficients,  rinner =    1.500   1.500   1.500
                                                       1.500   1.500

     PseudoPot. # 2 for I  read from file:
     /lustre07/scratch/pragov/crystal_structure_design/utils/SSSP/I.pbe-n-kjpaw_psl.0.2.UPF
     MD5 check sum: d4ef18d9c8f18dc85e5843bca1e50dc0
     Pseudo is Projector augmented-wave + core cor, Zval =  7.0
     Generated using "atomic" code by A. Dal Corso  v.5.0.99 svn rev. 10869
     Shape of augmentation charge: PSQ
     Using radial grid of 1247 points,  4 beta functions with:
                l(1) =   0
                l(2) =   0
                l(3) =   1
                l(4) =   1
     Q(r) pseudized with 0 coefficients

     atomic species   valence    mass     pseudopotential
        Cs             9.00   132.90545     Cs( 1.00)
        I              7.00   126.90447     I ( 1.00)

      8 Sym. Ops., with inversion, found ( 6 have fractional translation)

                                    s                        frac. trans.

      isym =  1     identity

 cryst.   s( 1) = (     1          0          0      )
                  (     0          1          0      )
                  (     0          0          1      )

 cart.    s( 1) = (  1.0000000  0.0000000  0.0000000 )
                  (  0.0000000  1.0000000  0.0000000 )
                  (  0.0000000  0.0000000  1.0000000 )

      isym =  2     180 deg rotation - cart. axis [0,0,1]

 cryst.   s( 2) = (    -1          0          0      )    f =(  0.0000000 )
                  (     0         -1          0      )       (  0.5000000 )
                  (     0          0          1      )       (  0.5000000 )

 cart.    s( 2) = ( -1.0000000  0.0000000  0.0000000 )    f =(  0.0000000 )
                  (  0.0000000 -1.0000000  0.0000000 )       (  0.9961336 )
                  (  0.0000000  0.0000000  1.0000000 )       (  0.7100234 )

[...]

      isym =  4     180 deg rotation - cart. axis [1,0,0]

[...]

      isym =  5     inversion

 cryst.   s( 5) = (    -1          0          0      )
                  (     0         -1          0      )
                  (     0          0         -1      )

 cart.    s( 5) = ( -1.0000000  0.0000000  0.0000000 )
                  (  0.0000000 -1.0000000  0.0000000 )
                  (  0.0000000  0.0000000 -1.0000000 )

      isym =  6     inv. 180 deg rotation - cart. axis [0,0,1]

[...]

      isym =  8     inv. 180 deg rotation - cart. axis [1,0,0]

 cryst.   s( 8) = (    -1          0          0      )    f =(  0.5000000 )
                  (     0          1          0      )       (  0.0000000 )
                  (     0          0          1      )       (  0.0000000 )

 cart.    s( 8) = ( -1.0000000  0.0000000  0.0000000 )    f =(  0.5000000 )
                  (  0.0000000  1.0000000  0.0000000 )       (  0.0000000 )
                  (  0.0000000  0.0000000  1.0000000 )       (  0.0000000 )

   Cartesian axes

     site n.     atom                  positions (alat units)
         1           Cs  tau(   1) = (   0.7500000   1.7588044   1.0640061  )
         2           Cs  tau(   2) = (   0.7500000   0.7626708   1.0660641  )
         3           Cs  tau(   3) = (   0.2500000   0.2334628   0.3560407  )
         4           Cs  tau(   4) = (   0.2500000   1.2295964   0.3539827  )
         5           I   tau(   5) = (   0.7500000   1.7319229   0.3524803  )
         6           I   tau(   6) = (   0.7500000   0.7357893   0.3575431  )
         7           I   tau(   7) = (   0.2500000   0.2603443   1.0675665  )
         8           I   tau(   8) = (   0.2500000   1.2564779   1.0625037  )

   Crystallographic axes

     site n.     atom                  positions (cryst. coord.)
         1           Cs  tau(   1) = (  0.7500000  0.8828155  0.7492754  )
         2           Cs  tau(   2) = (  0.7500000  0.3828155  0.7507246  )
         3           Cs  tau(   3) = (  0.2500000  0.1171845  0.2507246  )
         4           Cs  tau(   4) = (  0.2500000  0.6171845  0.2492754  )
         5           I   tau(   5) = (  0.7500000  0.8693226  0.2482174  )
         6           I   tau(   6) = (  0.7500000  0.3693226  0.2517826  )
         7           I   tau(   7) = (  0.2500000  0.1306774  0.7517826  )
         8           I   tau(   8) = (  0.2500000  0.6306774  0.7482174  )

     number of k points=     8
                       cart. coord. in units 2pi/alat
        k(    1) = (   0.0000000   0.0000000   0.0000000), wk =   0.0740741
        k(    2) = (   0.0000000   0.0000000   0.2347340), wk =   0.1481481
        k(    3) = (   0.0000000   0.1673136   0.0000000), wk =   0.1481481
        k(    4) = (   0.0000000   0.1673136   0.2347340), wk =   0.2962963
        k(    5) = (   0.3333333   0.0000000   0.0000000), wk =   0.1481481
        k(    6) = (   0.3333333   0.0000000   0.2347340), wk =   0.2962963
        k(    7) = (   0.3333333   0.1673136   0.0000000), wk =   0.2962963
        k(    8) = (   0.3333333   0.1673136   0.2347340), wk =   0.5925926

                       cryst. coord.
        k(    1) = (   0.0000000   0.0000000   0.0000000), wk =   0.0740741
        k(    2) = (   0.0000000   0.0000000   0.3333333), wk =   0.1481481
        k(    3) = (   0.0000000   0.3333333   0.0000000), wk =   0.1481481
        k(    4) = (   0.0000000   0.3333333   0.3333333), wk =   0.2962963
        k(    5) = (   0.3333333   0.0000000   0.0000000), wk =   0.1481481
        k(    6) = (   0.3333333   0.0000000   0.3333333), wk =   0.2962963
        k(    7) = (   0.3333333   0.3333333   0.0000000), wk =   0.2962963
        k(    8) = (   0.3333333   0.3333333   0.3333333), wk =   0.5925926

     Initial potential from superposition of free atoms

     starting charge      63.8422, renormalised to      64.0000
     Starting wfcs are   68 randomized atomic wfcs
     Checking if some PAW data can be deallocated...

     Self-consistent Calculation

     iteration #  1     ecut=    30.00 Ry     beta= 0.70
     Davidson diagonalization with overlap

     ethr =  1.00E-02,  avg # of iterations =  6.5

     Threshold (ethr) on eigenvalues was too large:
     Diagonalizing with lowered threshold

     Davidson diagonalization with overlap

[...]

     total energy              =   -1768.78297869 Ry
     estimated scf accuracy    <       0.16301645 Ry

[...]

     c_bands:  1 eigenvalues not converged
     ethr =  1.57E-06,  avg # of iterations = 13.9

[...]

     total energy              =   -1768.83373472 Ry
     estimated scf accuracy    <       0.00000136 Ry

     iteration #  6     ecut=    30.00 Ry     beta= 0.70
     Davidson diagonalization with overlap

     ethr =  2.13E-09,  avg # of iterations =  4.2

     End of self-consistent calculation

          k = 0.0000 0.0000 0.0000 (  9129 PWs)   bands (ev):

   -19.0743 -19.0687 -19.0672 -19.0663  -9.2488  -9.2383  -9.2277  -9.1987
    -6.0071  -5.9395  -5.9231  -5.9211  -5.9178  -5.8749  -5.8664  -5.8664
    -5.8659  -5.8651  -5.8490  -5.8392   0.3495   0.3501   0.6289   0.6376
     0.6594   0.7301   0.8141   0.8398   0.8449   0.9327   0.9363   0.9391
     4.7823   5.4400   6.5529   6.5651   6.5829   6.5875   6.6258   6.6594
     6.7081   6.7538   7.1133   7.1299   7.5123   7.6733   7.7494   7.7604
     7.8447   8.1933   8.4595   8.4675   8.6898   9.1205   9.1852   9.3526
     9.4047   9.5286   9.5511   9.7166  10.3329  10.4100  10.5929  10.8144

     occupation numbers
     1.0000   1.0000   1.0000   1.0000   1.0000   1.0000   1.0000   1.0000
     1.0000   1.0000   1.0000   1.0000   1.0000   1.0000   1.0000   1.0000
     1.0000   1.0000   1.0000   1.0000   1.0000   1.0000   1.0000   1.0000
     1.0000   1.0000   1.0000   1.0000   1.0000   1.0000   1.0000   1.0000
     0.0000   0.0000   0.0000   0.0000   0.0000   0.0000   0.0000   0.0000
     0.0000   0.0000   0.0000   0.0000   0.0000   0.0000   0.0000   0.0000
     0.0000   0.0000   0.0000   0.0000   0.0000   0.0000   0.0000   0.0000
     0.0000   0.0000   0.0000   0.0000   0.0000   0.0000   0.0000   0.0000

[...]

          k = 0.3333 0.1673 0.2347 (  9171 PWs)   bands (ev):

   -19.0689 -19.0675 -19.0672 -19.0665  -9.2460  -9.2396  -9.2317  -9.2273
    -5.9679  -5.9298  -5.9284  -5.9085  -5.9000  -5.8949  -5.8916  -5.8739
    -5.8719  -5.8638  -5.8511  -5.8470   0.3716   0.3733   0.4406   0.4652
     0.6564   0.6831   0.6872   0.6903   0.7111   0.7123   0.7740   0.7966
     6.1599   6.3061   6.3996   6.5626   6.6486   6.6773   6.8963   7.2096
     7.5925   7.6005   7.7265   7.8286   8.0059   8.0118   8.0679   8.1835
     8.2219   8.2974   8.4515   8.4833   8.7413   8.7736   8.9928   9.3903
     9.4364   9.4945   9.7297   9.8638  10.0689  10.3458  10.3964  10.4900

     occupation numbers
     1.0000   1.0000   1.0000   1.0000   1.0000   1.0000   1.0000   1.0000
     1.0000   1.0000   1.0000   1.0000   1.0000   1.0000   1.0000   1.0000
     1.0000   1.0000   1.0000   1.0000   1.0000   1.0000   1.0000   1.0000
     1.0000   1.0000   1.0000   1.0000   1.0000   1.0000   1.0000   1.0000
     0.0000   0.0000   0.0000   0.0000   0.0000   0.0000   0.0000   0.0000
     0.0000   0.0000   0.0000   0.0000   0.0000   0.0000   0.0000   0.0000
     0.0000   0.0000   0.0000   0.0000   0.0000   0.0000   0.0000   0.0000
     0.0000   0.0000   0.0000   0.0000   0.0000   0.0000   0.0000   0.0000

     highest occupied, lowest unoccupied level (ev):     0.9391    4.7823

!    total energy              =   -1768.83373565 Ry
     estimated scf accuracy    <       0.00000024 Ry

     The total energy is the sum of the following terms:
     one-electron contribution =     -46.54655889 Ry
     hartree contribution      =      44.99119872 Ry
     xc contribution           =    -288.13226182 Ry
     ewald contribution        =    -197.04517810 Ry
     one-center paw contrib.   =   -1282.10093556 Ry
      -> PAW hartree energy AE =       0.00000000 Ry
      -> PAW hartree energy PS =       0.00000000 Ry
      -> PAW xc energy AE      =       0.00000000 Ry
      -> PAW xc energy PS      =       0.00000000 Ry
      -> total E_H with PAW    =      44.99119872 Ry
      -> total E_XC with PAW   =    -288.13226182 Ry

     convergence has been achieved in   6 iterations

     Writing all to output data dir bands_nm/myprefix.save/

     General routines

     Parallel routines

     PAW routines

   This run was terminated on:  15:40:38  16Jul2023

   JOB DONE.