     Program PWSCF v.7.1 starts on 14Jul2023 at  2:41:32

     Reading input from espresso_17475.pwi
Warning: card &CELL ignored
Warning: card / ignored

     Current dimensions of program PWSCF are:
     Max number of different atomic species (ntypx) = 10
     Max number of k-points (npk) =  40000
     Max angular momentum in pseudopotentials (lmaxx) =  4
     Message from routine setup:
     using ibrav=0 with symmetry is DISCOURAGED, use correct ibrav instead

     K-points division:     npool     =       2
     R & G space division:  proc/nbgrp/npool/nimage =       4
     Subspace diagonalization in iterative solution of the eigenvalue problem:
     a serial algorithm will be used

     Using Slab Decomposition

     bravais-lattice index     =            0
     lattice parameter (alat)  =      12.1094  a.u.
     unit-cell volume          =    1710.4093 (a.u.)^3
     number of atoms/cell      =           12
     number of atomic types    =            2
     number of electrons       =       108.00
     number of Kohn-Sham states=           64
     kinetic-energy cutoff     =      30.0000  Ry
     charge density cutoff     =     240.0000  Ry
     scf convergence threshold =      1.0E-06
     mixing beta               =       0.7000
     number of iterations used =            8  plain     mixing
     Exchange-correlation=  SLA  PW   PBX  PBC
                           (   1   4   3   4   0   0   0)

     celldm(1)=  12.109412  celldm(2)=   0.000000  celldm(3)=   0.000000
     celldm(4)=   0.000000  celldm(5)=   0.000000  celldm(6)=   0.000000

     crystal axes: (cart. coord. in units of alat)
               a(1) = (   1.000000   0.000000   0.000000 )
               a(2) = (   0.490360   0.891025   0.000000 )
               a(3) = (   0.248170   0.392741   1.081038 )

     reciprocal axes: (cart. coord. in units 2 pi/alat)
               b(1) = (  1.000000 -0.550332 -0.029631 )
               b(2) = (  0.000000  1.122303 -0.407733 )
               b(3) = (  0.000000  0.000000  0.925037 )

     PseudoPot. # 1 for Tc read from file:
     /lustre07/scratch/pragov/crystal_structure_design/utils/SSSP/Tc_ONCV_PBE-1.0.oncvpsp.upf
     MD5 check sum: 1c2b1e6c8b361b656073c0c20ed4f60a
     Pseudo is Norm-conserving, Zval = 15.0
     Generated using ONCVPSP code by D. R. Hamann
     Using radial grid of 1492 points,  6 beta functions with:
                l(1) =   0
                l(2) =   0
                l(3) =   1
                l(4) =   1
                l(5) =   2
                l(6) =   2

     PseudoPot. # 2 for S  read from file:
     /lustre07/scratch/pragov/crystal_structure_design/utils/SSSP/s_pbe_v1.4.uspp.F.UPF
     MD5 check sum: 88d86576ff6df21479756cfb9bdac1df
     Pseudo is Ultrasoft + core correction, Zval =  6.0
     Generated by new atomic code, or converted to UPF format
     Using radial grid of  907 points,  6 beta functions with:
                l(1) =   0
                l(2) =   0
                l(3) =   1
                l(4) =   1
                l(5) =   2
                l(6) =   2
     Q(r) pseudized with  8 coefficients,  rinner =    1.300   1.300   1.300
                                                       1.300   1.300

     atomic species   valence    mass     pseudopotential
        Tc            15.00    97.90721     Tc( 1.00)
        S              6.00    32.06000     S ( 1.00)

      2 Sym. Ops., with inversion, found

                                    s                        frac. trans.

      isym =  1     identity

 cryst.   s( 1) = (     1          0          0      )
                  (     0          1          0      )
                  (     0          0          1      )

 cart.    s( 1) = (  1.0000000  0.0000000  0.0000000 )
                  (  0.0000000  1.0000000  0.0000000 )
                  (  0.0000000  0.0000000  1.0000000 )

      isym =  2     inversion

 cryst.   s( 2) = (    -1          0          0      )
                  (     0         -1          0      )
                  (     0          0         -1      )

 cart.    s( 2) = ( -1.0000000  0.0000000  0.0000000 )
                  (  0.0000000 -1.0000000  0.0000000 )
                  (  0.0000000  0.0000000 -1.0000000 )

   Cartesian axes

     site n.     atom                  positions (alat units)
         1           Tc  tau(   1) = (   0.7760293   0.4515463   0.5428010  )
         2           Tc  tau(   2) = (   0.9625011   0.8322199   0.5382369  )
         3           Tc  tau(   3) = (   1.2158402   0.4751185   0.5489229  )
         4           Tc  tau(   4) = (   0.5226901   0.8086477   0.5321150  )
         5           S   tau(   5) = (   0.4877364   0.2809135   0.3563685  )
         6           S   tau(   6) = (   1.2507940   1.0028527   0.7246694  )
         7           S   tau(   7) = (   1.0096886   0.2555587   0.3316592  )
         8           S   tau(   8) = (   0.7288417   1.0282075   0.7493787  )
         9           S   tau(   9) = (   0.7531086   0.6948872   0.2710573  )
        10           S   tau(  10) = (   0.9854217   0.5888790   0.8099806  )
        11           S   tau(  11) = (   1.2368861   0.7325209   0.2972249  )
        12           S   tau(  12) = (   0.5016443   0.5512453   0.7838130  )

   Crystallographic axes

     site n.     atom                  positions (cryst. coord.)
         1           Tc  tau(   1) = (  0.5114450  0.2854540  0.5021110  )
         2           Tc  tau(   2) = (  0.4885550  0.7145460  0.4978890  )
         3           Tc  tau(   3) = (  0.9381020  0.3094130  0.5077740  )
         4           Tc  tau(   4) = (  0.0618980  0.6905870  0.4922260  )
         5           S   tau(   5) = (  0.3225810  0.1699670  0.3296540  )
         6           S   tau(   6) = (  0.6774190  0.8300330  0.6703460  )
         7           S   tau(   7) = (  0.8592190  0.1515860  0.3067970  )
         8           S   tau(   8) = (  0.1407810  0.8484140  0.6932030  )
         9           S   tau(   9) = (  0.3626580  0.6693550  0.2507380  )
        10           S   tau(  10) = (  0.6373420  0.3306450  0.7492620  )
        11           S   tau(  11) = (  0.8249490  0.7009220  0.2749440  )
        12           S   tau(  12) = (  0.1750510  0.2990780  0.7250560  )

     number of k points=    14
                       cart. coord. in units 2pi/alat
        k(    1) = (   0.0000000   0.0000000   0.0000000), wk =   0.0740741
        k(    2) = (   0.0000000   0.0000000   0.3083456), wk =   0.1481481
        k(    3) = (   0.0000000   0.3741010  -0.1359109), wk =   0.1481481
        k(    4) = (   0.0000000   0.3741010   0.1724347), wk =   0.1481481
        k(    5) = (   0.0000000   0.3741010  -0.4442565), wk =   0.1481481
        k(    6) = (   0.3333333  -0.1834441  -0.0098770), wk =   0.1481481
        k(    7) = (   0.3333333  -0.1834441   0.2984687), wk =   0.1481481
        k(    8) = (   0.3333333  -0.1834441  -0.3182226), wk =   0.1481481
        k(    9) = (   0.3333333   0.1906568  -0.1457879), wk =   0.1481481
        k(   10) = (   0.3333333   0.1906568   0.1625578), wk =   0.1481481
        k(   11) = (   0.3333333   0.1906568  -0.4541335), wk =   0.1481481
        k(   12) = (   0.3333333  -0.5575451   0.1260339), wk =   0.1481481
        k(   13) = (   0.3333333  -0.5575451   0.4343795), wk =   0.1481481
        k(   14) = (   0.3333333  -0.5575451  -0.1823117), wk =   0.1481481

                       cryst. coord.
        k(    1) = (   0.0000000   0.0000000   0.0000000), wk =   0.0740741
        k(    2) = (   0.0000000   0.0000000   0.3333333), wk =   0.1481481
        k(    3) = (   0.0000000   0.3333333   0.0000000), wk =   0.1481481
        k(    4) = (   0.0000000   0.3333333   0.3333333), wk =   0.1481481
        k(    5) = (   0.0000000   0.3333333  -0.3333333), wk =   0.1481481
        k(    6) = (   0.3333333   0.0000000   0.0000000), wk =   0.1481481
        k(    7) = (   0.3333333   0.0000000   0.3333333), wk =   0.1481481
        k(    8) = (   0.3333333   0.0000000  -0.3333333), wk =   0.1481481
        k(    9) = (   0.3333333   0.3333333   0.0000000), wk =   0.1481481
        k(   10) = (   0.3333333   0.3333333   0.3333333), wk =   0.1481481
        k(   11) = (   0.3333333   0.3333333  -0.3333333), wk =   0.1481481
        k(   12) = (   0.3333333  -0.3333333   0.0000000), wk =   0.1481481
        k(   13) = (   0.3333333  -0.3333333   0.3333333), wk =   0.1481481
        k(   14) = (   0.3333333  -0.3333333  -0.3333333), wk =   0.1481481

     Initial potential from superposition of free atoms

     starting charge     107.9968, renormalised to     108.0000
     Starting wfcs are   72 randomized atomic wfcs

     Self-consistent Calculation

     iteration #  1     ecut=    30.00 Ry     beta= 0.70
     Davidson diagonalization with overlap

     ethr =  1.00E-02,  avg # of iterations =  2.0

     Threshold (ethr) on eigenvalues was too large:
     Diagonalizing with lowered threshold

     Davidson diagonalization with overlap

[...]

     total energy              =    -838.02348712 Ry
     estimated scf accuracy    <       0.64381753 Ry

[...]

     c_bands:  1 eigenvalues not converged
     ethr =  5.78E-06,  avg # of iterations =  5.9

[...]

     total energy              =    -838.35568808 Ry
     estimated scf accuracy    <       0.00000364 Ry

     iteration # 10     ecut=    30.00 Ry     beta= 0.70
     Davidson diagonalization with overlap

     ethr =  3.37E-09,  avg # of iterations =  2.0

     End of self-consistent calculation

          k = 0.0000 0.0000 0.0000 (  4749 PWs)   bands (ev):

   -59.2713 -59.2301 -59.2165 -59.1989 -31.5775 -31.5568 -31.5230 -31.3452
   -31.2895 -31.2780 -31.2561 -31.2410 -31.2370 -31.2074 -31.1318 -31.0922
    -6.4022  -5.2822  -4.8942  -4.8159  -4.4472  -4.3953  -4.0809  -4.0274
     1.5867   1.6266   1.7088   2.2326   2.9827   3.2017   3.2127   3.3161
     3.6669   3.6996   4.1186   4.1230   4.2477   4.3516   4.4188   5.2084
     5.2878   5.3440   5.5611   5.7568   5.8886   6.1721   6.5801   6.7587
     6.9273   6.9315   7.2029   7.3926   7.5250   7.5488   8.9340   9.1744
     9.3079   9.4306   9.5971   9.7869  10.7495  10.9195  11.0119  11.0216

     occupation numbers
     1.0000   1.0000   1.0000   1.0000   1.0000   1.0000   1.0000   1.0000
     1.0000   1.0000   1.0000   1.0000   1.0000   1.0000   1.0000   1.0000
     1.0000   1.0000   1.0000   1.0000   1.0000   1.0000   1.0000   1.0000
     1.0000   1.0000   1.0000   1.0000   1.0000   1.0000   1.0000   1.0000
     1.0000   1.0000   1.0000   1.0000   1.0000   1.0000   1.0000   1.0000
     1.0000   1.0000   1.0000   1.0000   1.0000   1.0000   1.0000   1.0000
     1.0000   1.0000   1.0000   1.0000   1.0000   1.0000   0.0000   0.0000
     0.0000   0.0000   0.0000   0.0000   0.0000   0.0000   0.0000   0.0000

[...]

          k = 0.3333-0.5575-0.1823 (  4749 PWs)   bands (ev):

   -59.2643 -59.2433 -59.2100 -59.1992 -31.5524 -31.5434 -31.4668 -31.3834
   -31.3221 -31.2978 -31.2590 -31.2499 -31.2436 -31.1700 -31.1436 -31.1067
    -5.4846  -5.3646  -5.3025  -5.1339  -4.8016  -4.4075  -4.2754  -3.9189
     2.2742   2.3480   2.4312   2.7937   2.9511   3.0781   3.2319   3.3949
     3.5104   3.7122   3.8825   4.0429   4.1180   4.2476   4.4653   4.8057
     4.9038   5.0495   5.3183   5.5120   5.8017   6.0525   6.1699   6.4422
     6.7350   6.8848   7.0112   7.1421   7.3003   7.4264   8.9270   9.1520
     9.4260   9.5567   9.7226   9.7553   9.8955  10.0807  10.1663  10.5142

     occupation numbers
     1.0000   1.0000   1.0000   1.0000   1.0000   1.0000   1.0000   1.0000
     1.0000   1.0000   1.0000   1.0000   1.0000   1.0000   1.0000   1.0000
     1.0000   1.0000   1.0000   1.0000   1.0000   1.0000   1.0000   1.0000
     1.0000   1.0000   1.0000   1.0000   1.0000   1.0000   1.0000   1.0000
     1.0000   1.0000   1.0000   1.0000   1.0000   1.0000   1.0000   1.0000
     1.0000   1.0000   1.0000   1.0000   1.0000   1.0000   1.0000   1.0000
     1.0000   1.0000   1.0000   1.0000   1.0000   1.0000   0.0000   0.0000
     0.0000   0.0000   0.0000   0.0000   0.0000   0.0000   0.0000   0.0000

     highest occupied, lowest unoccupied level (ev):     7.6457    8.8919

!    total energy              =    -838.35568869 Ry
     estimated scf accuracy    <       0.00000040 Ry

     The total energy is the sum of the following terms:
     one-electron contribution =    -697.37506070 Ry
     hartree contribution      =     381.95111554 Ry
     xc contribution           =    -137.96266217 Ry
     ewald contribution        =    -384.96908136 Ry

     convergence has been achieved in  10 iterations

     Writing all to output data dir bands_nm/myprefix.save/

     General routines

     Parallel routines

   This run was terminated on:   2:41:45  14Jul2023

   JOB DONE.