     Program PWSCF v.7.1 starts on 16Jul2023 at 14:55: 4

     Reading input from espresso_26904.pwi
Warning: card &CELL ignored
Warning: card / ignored

     Current dimensions of program PWSCF are:
     Max number of different atomic species (ntypx) = 10
     Max number of k-points (npk) =  40000
     Max angular momentum in pseudopotentials (lmaxx) =  4
     file C.pbe-n-kjpaw_psl.1.0.0.UPF: wavefunction(s)  2S 2P renormalized
     Message from routine setup:
     using ibrav=0 with symmetry is DISCOURAGED, use correct ibrav instead

     K-points division:     npool     =       2
     R & G space division:  proc/nbgrp/npool/nimage =       4
     Subspace diagonalization in iterative solution of the eigenvalue problem:
     a serial algorithm will be used

     Using Slab Decomposition

     bravais-lattice index     =            0
     lattice parameter (alat)  =      14.5111  a.u.
     unit-cell volume          =    2160.6627 (a.u.)^3
     number of atoms/cell      =           16
     number of atomic types    =            5
     number of electrons       =        90.00
     number of Kohn-Sham states=           64
     kinetic-energy cutoff     =      30.0000  Ry
     charge density cutoff     =     240.0000  Ry
     scf convergence threshold =      1.0E-06
     mixing beta               =       0.7000
     number of iterations used =            8  plain     mixing
     Exchange-correlation= PBE
                           (   1   4   3   4   0   0   0)

     celldm(1)=  14.511111  celldm(2)=   0.000000  celldm(3)=   0.000000
     celldm(4)=   0.000000  celldm(5)=   0.000000  celldm(6)=   0.000000

     crystal axes: (cart. coord. in units of alat)
               a(1) = (   1.000000   0.000000   0.000000 )
               a(2) = (   0.500000   0.866025   0.000000 )
               a(3) = (   0.500000   0.288675   0.816497 )

     reciprocal axes: (cart. coord. in units 2 pi/alat)
               b(1) = (  1.000000 -0.577350 -0.408248 )
               b(2) = (  0.000000  1.154701 -0.408248 )
               b(3) = (  0.000000  0.000000  1.224745 )

     PseudoPot. # 1 for Cs read from file:
     /lustre07/scratch/pragov/crystal_structure_design/utils/SSSP/Cs_pbe_v1.uspp.F.UPF
     MD5 check sum: 3476d69cb178dfad3ffaa59df4e07ca4
     Pseudo is Ultrasoft + core correction, Zval =  9.0
     Generated by new atomic code, or converted to UPF format
     Using radial grid of  905 points,  6 beta functions with:
                l(1) =   0
                l(2) =   0
                l(3) =   1
                l(4) =   1
                l(5) =   2
                l(6) =   2
     Q(r) pseudized with  6 coefficients,  rinner =    1.500   1.500   1.500
                                                       1.500   1.500

     PseudoPot. # 2 for Li read from file:
     /lustre07/scratch/pragov/crystal_structure_design/utils/SSSP/li_pbe_v1.4.uspp.F.UPF
     MD5 check sum: e912e257baa3777c20ea3d68f190483c
     Pseudo is Ultrasoft, Zval =  3.0
     Generated by new atomic code, or converted to UPF format
     Using radial grid of  751 points,  5 beta functions with:
                l(1) =   0
                l(2) =   0
                l(3) =   0
                l(4) =   1
                l(5) =   1
     Q(r) pseudized with 10 coefficients,  rinner =    1.150   1.150   1.150

     PseudoPot. # 3 for Ir read from file:
     /lustre07/scratch/pragov/crystal_structure_design/utils/SSSP/Ir_pbe_v1.2.uspp.F.UPF
     MD5 check sum: 8836f839c3459d2b385c504ce6d91f2c
     Pseudo is Ultrasoft + core correction, Zval = 15.0
     Generated by new atomic code, or converted to UPF format
     Using radial grid of  983 points,  7 beta functions with:
                l(1) =   0
                l(2) =   0
                l(3) =   1
                l(4) =   1
                l(5) =   1
                l(6) =   2
                l(7) =   2
     Q(r) pseudized with  8 coefficients,  rinner =    1.400   1.400   1.400
                                                       1.400   1.400

     PseudoPot. # 4 for C  read from file:
     /lustre07/scratch/pragov/crystal_structure_design/utils/SSSP/C.pbe-n-kjpaw_psl.1.0.0.UPF
     MD5 check sum: 5d2aebdfa2cae82b50a7e79e9516da0f
     Pseudo is Projector augmented-wave + core cor, Zval =  4.0
     Generated using "atomic" code by A. Dal Corso  v.5.1
     Shape of augmentation charge: PSQ
     Using radial grid of 1073 points,  4 beta functions with:
                l(1) =   0
                l(2) =   0
                l(3) =   1
                l(4) =   1
     Q(r) pseudized with 0 coefficients

     PseudoPot. # 5 for N  read from file:
     /lustre07/scratch/pragov/crystal_structure_design/utils/SSSP/N.pbe-n-radius_5.UPF
     MD5 check sum: 16739722b17309cd8fe442a2ace49922
     Pseudo is Ultrasoft + core correction, Zval =  5.0
     Generated using "atomic" code by A. Dal Corso  v.5.1
     Using radial grid of 1085 points,  4 beta functions with:
                l(1) =   0
                l(2) =   0
                l(3) =   1
                l(4) =   1
     Q(r) pseudized with 0 coefficients

     atomic species   valence    mass     pseudopotential
        Cs             9.00   132.90545     Cs( 1.00)
        Li             3.00     6.94000     Li( 1.00)
        Ir            15.00   192.21700     Ir( 1.00)
        C              4.00    12.01100     C ( 1.00)
        N              5.00    14.00700     N ( 1.00)

     12 Sym. Ops., with inversion, found

                                    s                        frac. trans.

      isym =  1     identity

 cryst.   s( 1) = (     1          0          0      )
                  (     0          1          0      )
                  (     0          0          1      )

 cart.    s( 1) = (  1.0000000  0.0000000  0.0000000 )
                  (  0.0000000  1.0000000  0.0000000 )
                  (  0.0000000  0.0000000  1.0000000 )

      isym =  2     180 deg rotation - cart. axis [1,0,0]

[...]

      isym =  3     120 deg rotation - cryst. axis [0,0,1]

[...]

      isym =  6     180 deg rotation - cryst. axis [1,1,0]

[...]

      isym =  7     inversion

[...]

      isym =  8     inv. 180 deg rotation - cart. axis [1,0,0]

[...]

      isym =  9     inv. 120 deg rotation - cryst. axis [0,0,1]

 cryst.   s( 9) = (     1         -1          0      )
                  (     1          0          0      )
                  (     1          0         -1      )

 cart.    s( 9) = (  0.5000000  0.8660254  0.0000000 )
                  ( -0.8660254  0.5000000 -0.0000000 )
                  (  0.0000000  0.0000000 -1.0000000 )

[...]

 cryst.   s(10) = (     0          1          0      )
                  (    -1          1          0      )
                  (     0          1         -1      )

 cart.    s(10) = (  0.5000000 -0.8660254  0.0000000 )
                  (  0.8660254  0.5000000  0.0000000 )
                  (  0.0000000  0.0000000 -1.0000000 )

[...]

      isym = 12     inv. 180 deg rotation - cryst. axis [1,1,0]

 cryst.   s(12) = (     1         -1          0      )
                  (     0         -1          0      )
                  (     0         -1          1      )

 cart.    s(12) = (  0.5000000 -0.8660254  0.0000000 )
                  ( -0.8660254 -0.5000000  0.0000000 )
                  (  0.0000000  0.0000000  1.0000000 )

   Cartesian axes

     site n.     atom                  positions (alat units)
         1           Cs  tau(   1) = (   1.5000000   0.8660254   0.6123724  )
         2           Cs  tau(   2) = (   0.5000000   0.2886751   0.2041241  )
         3           Li  tau(   3) = (   1.0000000   0.5773503   0.4082483  )
         4           Ir  tau(   4) = (   0.0000000   0.0000000   0.0000000  )
         5           C   tau(   5) = (   1.0000000   0.2149510   0.1519933  )
         6           C   tau(   6) = (   1.3138470   0.3961506   0.6645033  )
         7           C   tau(   7) = (   1.3138470   0.7585499   0.1519933  )
         8           C   tau(   8) = (   1.0000000   0.9397496   0.6645033  )
         9           C   tau(   9) = (   0.6861530   0.3961506   0.6645033  )
        10           C   tau(  10) = (   0.6861530   0.7585499   0.1519933  )
        11           N   tau(  11) = (   1.0000000   0.8148745   0.5762033  )
        12           N   tau(  12) = (   0.7942980   0.4585882   0.5762033  )
        13           N   tau(  13) = (   1.2057020   0.6961124   0.2402933  )
        14           N   tau(  14) = (   1.2057020   0.4585882   0.5762033  )
        15           N   tau(  15) = (   1.0000000   0.3398261   0.2402933  )
        16           N   tau(  16) = (   0.7942980   0.6961124   0.2402933  )

   Crystallographic axes

     site n.     atom                  positions (cryst. coord.)
         1           Cs  tau(   1) = (  0.7500000  0.7500000  0.7500000  )
         2           Cs  tau(   2) = (  0.2500000  0.2500000  0.2500000  )
         3           Li  tau(   3) = (  0.5000000  0.5000000  0.5000000  )
         4           Ir  tau(   4) = (  0.0000000  0.0000000  0.0000000  )
         5           C   tau(   5) = (  0.8138470  0.1861530  0.1861530  )
         6           C   tau(   6) = (  0.8138470  0.1861530  0.8138470  )
         7           C   tau(   7) = (  0.8138470  0.8138470  0.1861530  )
         8           C   tau(   8) = (  0.1861530  0.8138470  0.8138470  )
         9           C   tau(   9) = (  0.1861530  0.1861530  0.8138470  )
        10           C   tau(  10) = (  0.1861530  0.8138470  0.1861530  )
        11           N   tau(  11) = (  0.2942980  0.7057020  0.7057020  )
        12           N   tau(  12) = (  0.2942980  0.2942980  0.7057020  )
        13           N   tau(  13) = (  0.7057020  0.7057020  0.2942980  )
        14           N   tau(  14) = (  0.7057020  0.2942980  0.7057020  )
        15           N   tau(  15) = (  0.7057020  0.2942980  0.2942980  )
        16           N   tau(  16) = (  0.2942980  0.7057020  0.2942980  )

     number of k points=     6
                       cart. coord. in units 2pi/alat
        k(    1) = (   0.0000000   0.0000000   0.0000000), wk =   0.0740741
        k(    2) = (   0.0000000   0.0000000   0.4082483), wk =   0.1481481
        k(    3) = (   0.0000000   0.3849002  -0.1360828), wk =   0.4444444
        k(    4) = (   0.0000000   0.3849002   0.2721655), wk =   0.4444444
        k(    5) = (   0.0000000   0.3849002  -0.5443311), wk =   0.4444444
        k(    6) = (   0.3333333  -0.5773503   0.0000000), wk =   0.4444444

                       cryst. coord.
        k(    1) = (   0.0000000   0.0000000   0.0000000), wk =   0.0740741
        k(    2) = (   0.0000000   0.0000000   0.3333333), wk =   0.1481481
        k(    3) = (   0.0000000   0.3333333   0.0000000), wk =   0.4444444
        k(    4) = (   0.0000000   0.3333333   0.3333333), wk =   0.4444444
        k(    5) = (   0.0000000   0.3333333  -0.3333333), wk =   0.4444444
        k(    6) = (   0.3333333  -0.3333333   0.0000000), wk =   0.4444444

     Check: negative core charge=   -0.000013

     Initial potential from superposition of free atoms

     starting charge      88.9702, renormalised to      90.0000

     negative rho (up, down):  3.697E-01 0.000E+00
     Starting wfcs are   91 randomized atomic wfcs
     Checking if some PAW data can be deallocated...

     Self-consistent Calculation

     iteration #  1     ecut=    30.00 Ry     beta= 0.70
     Davidson diagonalization with overlap

     ethr =  1.00E-02,  avg # of iterations =  2.3

     negative rho (up, down):  2.605E-01 0.000E+00

     total energy              =    -549.77718999 Ry
     estimated scf accuracy    <       7.37472194 Ry

[...]

     total energy              =    -554.33569990 Ry
     estimated scf accuracy    <       0.00000311 Ry

     iteration #  9     ecut=    30.00 Ry     beta= 0.70
     Davidson diagonalization with overlap

     ethr =  3.45E-09,  avg # of iterations =  2.0

     negative rho (up, down):  3.068E-01 0.000E+00

     End of self-consistent calculation

          k = 0.0000 0.0000 0.0000 (  5985 PWs)   bands (ev):

   -46.5159 -46.5159 -46.5159 -40.2233 -18.1862 -18.1772 -14.3811 -14.2320
   -14.2320 -14.2320 -14.1847 -14.1847  -6.1877  -5.0569  -5.0569  -5.0569
    -4.9864  -4.9864  -4.9864  -4.8296  -4.8296  -3.1563  -3.1563  -3.1563
    -1.9154  -1.9128  -1.9128  -1.9128  -0.5121  -0.5121  -0.4336  -0.4336
    -0.4336  -0.2706  -0.2706  -0.2706  -0.0658  -0.0658  -0.0658   0.1994
     0.1994   0.1994   1.1457   1.1457   1.1457   6.9060   7.0523   7.0523
     7.0523   7.1548   7.1548   7.6332   7.6332   7.6332   8.1133   8.1133
     8.1133   8.6860   8.6860   9.6449   9.6450   9.6666   9.6668   9.6669

     occupation numbers
     1.0000   1.0000   1.0000   1.0000   1.0000   1.0000   1.0000   1.0000
     1.0000   1.0000   1.0000   1.0000   1.0000   1.0000   1.0000   1.0000
     1.0000   1.0000   1.0000   1.0000   1.0000   1.0000   1.0000   1.0000
     1.0000   1.0000   1.0000   1.0000   1.0000   1.0000   1.0000   1.0000
     1.0000   1.0000   1.0000   1.0000   1.0000   1.0000   1.0000   1.0000
     1.0000   1.0000   1.0000   1.0000   1.0000   0.0000   0.0000   0.0000
     0.0000   0.0000   0.0000   0.0000   0.0000   0.0000   0.0000   0.0000
     0.0000   0.0000   0.0000   0.0000   0.0000   0.0000   0.0000   0.0000

[...]

          k = 0.3333-0.5774 0.0000 (  5960 PWs)   bands (ev):

   -46.5159 -46.5158 -46.5158 -40.2230 -18.1810 -18.1810 -14.3165 -14.2859
   -14.2317 -14.2227 -14.2037 -14.1932  -6.1330  -5.0142  -5.0058  -4.9778
    -4.9679  -4.9586  -4.9397  -4.8921  -4.8555  -3.2785  -3.1002  -2.9836
    -1.9920  -1.9344  -1.8550  -1.6340  -1.2234  -1.0871  -1.0036  -0.5441
    -0.4579  -0.4405  -0.3202  -0.2667  -0.1845  -0.0627   0.0622   0.3111
     0.5163   0.5827   1.2879   1.4277   1.4580   7.1788   7.2171   7.3433
     7.4564   7.6940   7.7476   7.7805   8.0362   8.1103   8.2141   8.3531
     8.3598   8.3709   8.7171   8.7847   8.8696   9.0591   9.2124   9.3520

     occupation numbers
     1.0000   1.0000   1.0000   1.0000   1.0000   1.0000   1.0000   1.0000
     1.0000   1.0000   1.0000   1.0000   1.0000   1.0000   1.0000   1.0000
     1.0000   1.0000   1.0000   1.0000   1.0000   1.0000   1.0000   1.0000
     1.0000   1.0000   1.0000   1.0000   1.0000   1.0000   1.0000   1.0000
     1.0000   1.0000   1.0000   1.0000   1.0000   1.0000   1.0000   1.0000
     1.0000   1.0000   1.0000   1.0000   1.0000   0.0000   0.0000   0.0000
     0.0000   0.0000   0.0000   0.0000   0.0000   0.0000   0.0000   0.0000
     0.0000   0.0000   0.0000   0.0000   0.0000   0.0000   0.0000   0.0000

     highest occupied, lowest unoccupied level (ev):     1.4580    6.9060

!    total energy              =    -554.33570031 Ry
     estimated scf accuracy    <       0.00000005 Ry

     The total energy is the sum of the following terms:
     one-electron contribution =    -273.19682505 Ry
     hartree contribution      =     168.01122089 Ry
     xc contribution           =    -173.57495338 Ry
     ewald contribution        =    -238.48753120 Ry
     one-center paw contrib.   =     -37.08761156 Ry
      -> PAW hartree energy AE =       0.00000000 Ry
      -> PAW hartree energy PS =       0.00000000 Ry
      -> PAW xc energy AE      =       0.00000000 Ry
      -> PAW xc energy PS      =       0.00000000 Ry
      -> total E_H with PAW    =     168.01122089 Ry
      -> total E_XC with PAW   =    -173.57495338 Ry

     convergence has been achieved in   9 iterations

     Writing all to output data dir bands_nm/myprefix.save/

     General routines

     Parallel routines

     PAW routines

   This run was terminated on:  14:55:12  16Jul2023

   JOB DONE.