     Program PWSCF v.7.1 starts on 15Jul2023 at 14:36:45

     Reading input from espresso_19501.pwi
Warning: card &CELL ignored
Warning: card / ignored

     Current dimensions of program PWSCF are:
     Max number of different atomic species (ntypx) = 10
     Max number of k-points (npk) =  40000
     Max angular momentum in pseudopotentials (lmaxx) =  4
     file Ba.pbe-spn-kjpaw_psl.1.0.0.UPF: wavefunction(s)  5S 6S renormalized
     file Gd.paw.z_18.atompaw.wentzcovitch.v1.2.upf: wavefunction(s)  6S 0P 5D 0D 4F 0F renormalized
     file O.pbe-n-kjpaw_psl.0.1.UPF: wavefunction(s)  2P renormalized
     Message from routine setup:
     the system is metallic, specify occupations
     Message from routine setup:
     using ibrav=0 with symmetry is DISCOURAGED, use correct ibrav instead

     K-points division:     npool     =       2
     R & G space division:  proc/nbgrp/npool/nimage =       4
     Subspace diagonalization in iterative solution of the eigenvalue problem:
     a serial algorithm will be used

     Using Slab Decomposition

     bravais-lattice index     =            0
     lattice parameter (alat)  =      11.4880  a.u.
     unit-cell volume          =    1072.0528 (a.u.)^3
     number of atoms/cell      =           10
     number of atomic types    =            4
     number of electrons       =        87.00 (up:  47.00, down:  40.00)
     number of Kohn-Sham states=           64
     kinetic-energy cutoff     =      30.0000  Ry
     charge density cutoff     =     240.0000  Ry
     scf convergence threshold =      1.0E-06
     mixing beta               =       0.7000
     number of iterations used =            8  plain     mixing
     Exchange-correlation= SLA  PW   PBX  PBC
                           (   1   4   3   4   0   0   0)

     celldm(1)=  11.487982  celldm(2)=   0.000000  celldm(3)=   0.000000
     celldm(4)=   0.000000  celldm(5)=   0.000000  celldm(6)=   0.000000

     crystal axes: (cart. coord. in units of alat)
               a(1) = (   1.000000   0.000000   0.000000 )
               a(2) = (   0.500000   0.866025   0.000000 )
               a(3) = (   0.500000   0.288675   0.816497 )

     reciprocal axes: (cart. coord. in units 2 pi/alat)
               b(1) = (  1.000000 -0.577350 -0.408248 )
               b(2) = (  0.000000  1.154701 -0.408248 )
               b(3) = (  0.000000  0.000000  1.224745 )

     PseudoPot. # 1 for Ba read from file:
     /lustre07/scratch/pragov/crystal_structure_design/utils/SSSP/Ba.pbe-spn-kjpaw_psl.1.0.0.UPF
     MD5 check sum: c432291d3e53af55f19d5e8866385beb
     Pseudo is Projector augmented-wave + core cor, Zval = 10.0
     Generated using "atomic" code by A. Dal Corso  v.5.1
     Shape of augmentation charge: PSQ
     Using radial grid of 1251 points,  7 beta functions with:
                l(1) =   0
                l(2) =   0
                l(3) =   0
                l(4) =   1
                l(5) =   1
                l(6) =   2
                l(7) =   2
     Q(r) pseudized with 0 coefficients

     PseudoPot. # 2 for Gd read from file:
     /lustre07/scratch/pragov/crystal_structure_design/utils/SSSP/Gd.paw.z_18.atompaw.wentzcovitch.v1.2.upf
     MD5 check sum: a44f32af2ba180e1a67c5cef9ff7f39b
     Pseudo is Projector augmented-wave + core cor, Zval = 18.0
     Generated using ATOMPAW code
     Shape of augmentation charge: BESSEL
     Using radial grid of 1110 points,  8 beta functions with:
                l(1) =   0
                l(2) =   0
                l(3) =   1
                l(4) =   1
                l(5) =   2
                l(6) =   2
                l(7) =   3
                l(8) =   3
     Q(r) pseudized with 0 coefficients

     PseudoPot. # 3 for Ta read from file:
     /lustre07/scratch/pragov/crystal_structure_design/utils/SSSP/Ta_pbe_v1.uspp.F.UPF
     MD5 check sum: f8bbe9446314a3b8ea5d9f3e3836c939
     Pseudo is Ultrasoft + core correction, Zval = 13.0
     Generated by new atomic code, or converted to UPF format
     Using radial grid of  921 points,  7 beta functions with:
                l(1) =   0
                l(2) =   0
                l(3) =   1
                l(4) =   1
                l(5) =   2
                l(6) =   2
                l(7) =   3
     Q(r) pseudized with  6 coefficients,  rinner =    1.300   1.300   1.300
                                                       1.300   1.300   1.300
                                                       1.300

     PseudoPot. # 4 for O  read from file:
     /lustre07/scratch/pragov/crystal_structure_design/utils/SSSP/O.pbe-n-kjpaw_psl.0.1.UPF
     MD5 check sum: 0234752ac141de4415c5fc33072bef88
     Pseudo is Projector augmented-wave + core cor, Zval =  6.0
     Generated using "atomic" code by A. Dal Corso  v.5.0.99 svn rev. 10869
     Shape of augmentation charge: BESSEL
     Using radial grid of 1095 points,  4 beta functions with:
                l(1) =   0
                l(2) =   0
                l(3) =   1
                l(4) =   1
     Q(r) pseudized with 0 coefficients

     atomic species   valence    mass     pseudopotential
        Ba            10.00   137.32700     Ba( 1.00)
        Gd            18.00   157.25000     Gd( 1.00)
        Ta            13.00   180.94788     Ta( 1.00)
        O              6.00    15.99900     O ( 1.00)

     Starting magnetic structure
     atomic species   magnetization
        Ba           0.000
        Gd           0.000
        Ta           0.000
        O            0.000

     12 Sym. Ops., with inversion, found

                                    s                        frac. trans.

      isym =  1     identity

 cryst.   s( 1) = (     1          0          0      )
                  (     0          1          0      )
                  (     0          0          1      )

 cart.    s( 1) = (  1.0000000  0.0000000  0.0000000 )
                  (  0.0000000  1.0000000  0.0000000 )
                  (  0.0000000  0.0000000  1.0000000 )

      isym =  2     180 deg rotation - cart. axis [1,0,0]

[...]

      isym =  3     120 deg rotation - cryst. axis [0,0,1]

[...]

      isym =  6     180 deg rotation - cryst. axis [1,1,0]

[...]

      isym =  7     inversion

[...]

      isym =  8     inv. 180 deg rotation - cart. axis [1,0,0]

[...]

      isym =  9     inv. 120 deg rotation - cryst. axis [0,0,1]

 cryst.   s( 9) = (     1         -1          0      )
                  (     1          0          0      )
                  (     1          0         -1      )

 cart.    s( 9) = (  0.5000000  0.8660254 -0.0000000 )
                  ( -0.8660254  0.5000000 -0.0000000 )
                  (  0.0000000  0.0000000 -1.0000000 )

[...]

 cryst.   s(10) = (     0          1          0      )
                  (    -1          1          0      )
                  (     0          1         -1      )

 cart.    s(10) = (  0.5000000 -0.8660254  0.0000000 )
                  (  0.8660254  0.5000000 -0.0000000 )
                  (  0.0000000  0.0000000 -1.0000000 )

[...]

      isym = 12     inv. 180 deg rotation - cryst. axis [1,1,0]

 cryst.   s(12) = (     1         -1          0      )
                  (     0         -1          0      )
                  (     0         -1          1      )

 cart.    s(12) = (  0.5000000 -0.8660254  0.0000000 )
                  ( -0.8660254 -0.5000000  0.0000000 )
                  (  0.0000000  0.0000000  1.0000000 )

   Cartesian axes

     site n.     atom                  positions (alat units)
         1           Ba  tau(   1) = (   0.5000000   0.2886751   0.2041241  )
         2           Ba  tau(   2) = (   1.5000000   0.8660254   0.6123724  )
         3           Gd  tau(   3) = (   1.0000000   0.5773503   0.4082483  )
         4           Ta  tau(   4) = (   0.0000000   0.0000000   0.0000000  )
         5           O   tau(   5) = (   1.0000000   0.2703477   0.1911647  )
         6           O   tau(   6) = (   1.0000000   0.8843528   0.6253319  )
         7           O   tau(   7) = (   0.7341280   0.7308515   0.1911647  )
         8           O   tau(   8) = (   1.2658720   0.4238490   0.6253319  )
         9           O   tau(   9) = (   0.7341280   0.4238490   0.6253319  )
        10           O   tau(  10) = (   1.2658720   0.7308515   0.1911647  )

   Crystallographic axes

     site n.     atom                  positions (cryst. coord.)
         1           Ba  tau(   1) = (  0.2500000  0.2500000  0.2500000  )
         2           Ba  tau(   2) = (  0.7500000  0.7500000  0.7500000  )
         3           Gd  tau(   3) = (  0.5000000  0.5000000  0.5000000  )
         4           Ta  tau(   4) = (  0.0000000  0.0000000  0.0000000  )
         5           O   tau(   5) = (  0.7658720  0.2341280  0.2341280  )
         6           O   tau(   6) = (  0.2341280  0.7658720  0.7658720  )
         7           O   tau(   7) = (  0.2341280  0.7658720  0.2341280  )
         8           O   tau(   8) = (  0.7658720  0.2341280  0.7658720  )
         9           O   tau(   9) = (  0.2341280  0.2341280  0.7658720  )
        10           O   tau(  10) = (  0.7658720  0.7658720  0.2341280  )

     number of k points=     6
                       cart. coord. in units 2pi/alat
        k(    1) = (   0.0000000   0.0000000   0.0000000), wk =   0.0370370
        k(    2) = (   0.0000000   0.0000000   0.4082483), wk =   0.0740741
        k(    3) = (   0.0000000   0.3849002  -0.1360828), wk =   0.2222222
        k(    4) = (   0.0000000   0.3849002   0.2721655), wk =   0.2222222
        k(    5) = (   0.0000000   0.3849002  -0.5443311), wk =   0.2222222
        k(    6) = (   0.3333333  -0.5773503   0.0000000), wk =   0.2222222

                       cryst. coord.
        k(    1) = (   0.0000000   0.0000000   0.0000000), wk =   0.0370370
        k(    2) = (   0.0000000   0.0000000   0.3333333), wk =   0.0740741
        k(    3) = (   0.0000000   0.3333333  -0.0000000), wk =   0.2222222
        k(    4) = (   0.0000000   0.3333333   0.3333333), wk =   0.2222222
        k(    5) = (   0.0000000   0.3333333  -0.3333333), wk =   0.2222222
        k(    6) = (   0.3333333  -0.3333333   0.0000000), wk =   0.2222222

     Check: negative core charge=   -0.000008
     Generating pointlists ...
     new r_m :   0.2065 (alat units)  2.3718 (a.u.) for type    1
     new r_m :   0.1551 (alat units)  1.7818 (a.u.) for type    2
     new r_m :   0.1366 (alat units)  1.5690 (a.u.) for type    3
     new r_m :   0.1366 (alat units)  1.5690 (a.u.) for type    4

     Initial potential from superposition of free atoms

     starting charge      86.9597, renormalised to      87.0000

     negative rho (up, down):  4.723E-02 4.723E-02
     Starting wfcs are   79 randomized atomic wfcs
     Checking if some PAW data can be deallocated...

     Self-consistent Calculation

     iteration #  1     ecut=    30.00 Ry     beta= 0.70
     Davidson diagonalization with overlap

     ethr =  1.00E-02,  avg # of iterations =  7.1

     negative rho (up, down):  3.591E-01 7.131E-02

     total energy              =   -1947.72526237 Ry
     estimated scf accuracy    <       4.67804936 Ry

     total magnetization       =     7.00 Bohr mag/cell
     absolute magnetization    =     9.31 Bohr mag/cell

[...]

     total energy              =   -1949.28492541 Ry
     estimated scf accuracy    <       0.00000175 Ry

[...]

     iteration # 16     ecut=    30.00 Ry     beta= 0.70
     Davidson diagonalization with overlap

     ethr =  2.01E-09,  avg # of iterations =  2.8

     negative rho (up, down):  4.821E-02 4.822E-02

     Magnetic moment per site  (integrated on atomic sphere of radius R)
     atom   1 (R=0.206)  charge=  7.2451  magn=  0.0011
     atom   2 (R=0.206)  charge=  7.2451  magn=  0.0011
     atom   3 (R=0.155)  charge= 13.7969  magn=  6.7690
     atom   4 (R=0.137)  charge=  7.9870  magn=  0.0041
     atom   5 (R=0.137)  charge=  5.5137  magn=  0.0025
     atom   6 (R=0.137)  charge=  5.5137  magn=  0.0025
     atom   7 (R=0.137)  charge=  5.5137  magn=  0.0025
     atom   8 (R=0.137)  charge=  5.5137  magn=  0.0025
     atom   9 (R=0.137)  charge=  5.5137  magn=  0.0025
     atom  10 (R=0.137)  charge=  5.5137  magn=  0.0025

     End of self-consistent calculation

 ------ SPIN UP ------------

          k = 0.0000 0.0000 0.0000 (  2975 PWs)   bands (ev):

   -57.5470 -32.4566 -24.0783 -24.0783 -24.0783 -16.0881 -15.9998 -10.3359
   -10.3359 -10.3359  -7.0943  -6.6391  -6.6391  -5.6714  -5.6714  -5.6714
    -1.5586  -1.5586  -1.5586  -1.1834  -1.1834  -1.1834   5.7167   5.8427
     5.8427   6.7857   6.7857   6.7857   7.8881   7.8881   7.8881   8.0430
     8.0430   8.0430   8.1809   8.1809   8.1809   8.3045   8.9644   8.9644
     8.9644   9.5774   9.5774   9.5774   9.7444   9.7444   9.7444  12.9541
    12.9541  12.9541  14.0454  14.0454  14.6989  15.3329  15.3329  15.3330
    16.5432  16.5432  16.5432  17.5812  17.5812  18.1878  18.1878  18.1879

     occupation numbers
     1.0000   1.0000   1.0000   1.0000   1.0000   1.0000   1.0000   1.0000
     1.0000   1.0000   1.0000   1.0000   1.0000   1.0000   1.0000   1.0000
     1.0000   1.0000   1.0000   1.0000   1.0000   1.0000   1.0000   1.0000
     1.0000   1.0000   1.0000   1.0000   1.0000   1.0000   1.0000   1.0000
     1.0000   1.0000   1.0000   1.0000   1.0000   1.0000   1.0000   1.0000
     1.0000   1.0000   1.0000   1.0000   1.0000   1.0000   1.0000   0.0000
     0.0000   0.0000   0.0000   0.0000   0.0000   0.0000   0.0000   0.0000
     0.0000   0.0000   0.0000   0.0000   0.0000   0.0000   0.0000   0.0000

[...]

 ------ SPIN DOWN ----------

[...]

          k = 0.3333-0.5774 0.0000 (  2970 PWs)   bands (ev):

   -57.5428 -29.4091 -24.0728 -24.0727 -24.0725 -16.0391 -16.0390  -8.7105
    -8.6504  -8.5842  -6.8803  -6.5843  -6.3484  -5.6530  -5.5474  -5.2683
    -1.2520  -1.2492  -1.1908  -1.1609  -1.1090  -1.0965   5.8572   6.2966
     6.4011   6.4592   6.5281   6.8049   7.4348   7.6354   7.6920   7.9697
     8.1676   8.4986   8.6171   8.7275   8.7678   8.9120   9.0470   9.3054
    13.4056  13.4615  13.5557  13.6218  13.6760  13.6865  13.7366  14.2052
    14.5327  14.5551  15.6748  16.0244  16.0692  16.2945  16.3548  16.4404
    16.6257  16.7958  16.9893  17.4559  17.5609  17.8830  18.4528  18.8531

     occupation numbers
     1.0000   1.0000   1.0000   1.0000   1.0000   1.0000   1.0000   1.0000
     1.0000   1.0000   1.0000   1.0000   1.0000   1.0000   1.0000   1.0000
     1.0000   1.0000   1.0000   1.0000   1.0000   1.0000   1.0000   1.0000
     1.0000   1.0000   1.0000   1.0000   1.0000   1.0000   1.0000   1.0000
     1.0000   1.0000   1.0000   1.0000   1.0000   1.0000   1.0000   1.0000
     0.0000   0.0000   0.0000   0.0000   0.0000   0.0000   0.0000   0.0000
     0.0000   0.0000   0.0000   0.0000   0.0000   0.0000   0.0000   0.0000
     0.0000   0.0000   0.0000   0.0000   0.0000   0.0000   0.0000   0.0000

     highest occupied, lowest unoccupied level (ev):     9.7444   12.9541

!    total energy              =   -1949.28492570 Ry
     estimated scf accuracy    <       0.00000003 Ry

     The total energy is the sum of the following terms:
     one-electron contribution =    -217.26451131 Ry
     hartree contribution      =     165.70517139 Ry
     xc contribution           =    -151.42214257 Ry
     ewald contribution        =    -473.66988647 Ry
     one-center paw contrib.   =   -1272.63355674 Ry
      -> PAW hartree energy AE =      57.19015604 Ry
      -> PAW hartree energy PS =     -56.96623213 Ry
      -> PAW xc energy AE      =    -788.41766797 Ry
      -> PAW xc energy PS      =      38.28669217 Ry
      -> total E_H with PAW    =     165.92909530 Ry
      -> total E_XC with PAW   =    -901.55311837 Ry

     total magnetization       =     7.00 Bohr mag/cell
     absolute magnetization    =     7.01 Bohr mag/cell

     convergence has been achieved in  16 iterations

     Writing all to output data dir bands_nm/myprefix.save/

     General routines

     Parallel routines

     PAW routines

   This run was terminated on:  14:37:10  15Jul2023

   JOB DONE.