     Program PWSCF v.7.1 starts on 14Jul2023 at 18:15:10

     Reading input from espresso_15440.pwi
Warning: card &CELL ignored
Warning: card / ignored

     Current dimensions of program PWSCF are:
     Max number of different atomic species (ntypx) = 10
     Max number of k-points (npk) =  40000
     Max angular momentum in pseudopotentials (lmaxx) =  4
     file Nd.paw.z_14.atompaw.wentzcovitch.v1.2.upf: wavefunction(s)  6S 0P 5D 0D 0F renormalized
     file O.pbe-n-kjpaw_psl.0.1.UPF: wavefunction(s)  2P renormalized
     Message from routine setup:
     using ibrav=0 with symmetry is DISCOURAGED, use correct ibrav instead

     K-points division:     npool     =       2
     R & G space division:  proc/nbgrp/npool/nimage =       4
     Subspace diagonalization in iterative solution of the eigenvalue problem:
     a serial algorithm will be used

     Using Slab Decomposition

     bravais-lattice index     =            0
     lattice parameter (alat)  =      15.1701  a.u.
     unit-cell volume          =    1320.9339 (a.u.)^3
     number of atoms/cell      =           13
     number of atomic types    =            4
     number of electrons       =       110.00
     number of Kohn-Sham states=           64
     kinetic-energy cutoff     =      30.0000  Ry
     charge density cutoff     =     240.0000  Ry
     scf convergence threshold =      1.0E-06
     mixing beta               =       0.7000
     number of iterations used =            8  plain     mixing
     Exchange-correlation= SLA  PW   PBX  PBC
                           (   1   4   3   4   0   0   0)

     celldm(1)=  15.170092  celldm(2)=   0.000000  celldm(3)=   0.000000
     celldm(4)=   0.000000  celldm(5)=   0.000000  celldm(6)=   0.000000

     crystal axes: (cart. coord. in units of alat)
               a(1) = (   1.000000   0.000000   0.000000 )
               a(2) = (   0.878647   0.477473   0.000000 )
               a(3) = (   0.338931   0.086142   0.792443 )

     reciprocal axes: (cart. coord. in units 2 pi/alat)
               b(1) = (  1.000000 -1.840203 -0.227666 )
               b(2) = (  0.000000  2.094361 -0.227666 )
               b(3) = (  0.000000  0.000000  1.261921 )

     PseudoPot. # 1 for Nd read from file:
     /lustre07/scratch/pragov/crystal_structure_design/utils/SSSP/Nd.paw.z_14.atompaw.wentzcovitch.v1.2.upf
     MD5 check sum: 8a77231a7dfbac907351543c5ef6bfc9
     Pseudo is Projector augmented-wave + core cor, Zval = 14.0
     Generated using ATOMPAW code
     Shape of augmentation charge: BESSEL
     Using radial grid of 1105 points,  8 beta functions with:
                l(1) =   0
                l(2) =   0
                l(3) =   1
                l(4) =   1
                l(5) =   2
                l(6) =   2
                l(7) =   3
                l(8) =   3
     Q(r) pseudized with 0 coefficients

     PseudoPot. # 2 for Ta read from file:
     /lustre07/scratch/pragov/crystal_structure_design/utils/SSSP/Ta_pbe_v1.uspp.F.UPF
     MD5 check sum: f8bbe9446314a3b8ea5d9f3e3836c939
     Pseudo is Ultrasoft + core correction, Zval = 13.0
     Generated by new atomic code, or converted to UPF format
     Using radial grid of  921 points,  7 beta functions with:
                l(1) =   0
                l(2) =   0
                l(3) =   1
                l(4) =   1
                l(5) =   2
                l(6) =   2
                l(7) =   3
     Q(r) pseudized with  6 coefficients,  rinner =    1.300   1.300   1.300
                                                       1.300   1.300   1.300
                                                       1.300

     PseudoPot. # 3 for Cl read from file:
     /lustre07/scratch/pragov/crystal_structure_design/utils/SSSP/cl_pbe_v1.4.uspp.F.UPF
     MD5 check sum: fc6f6913ecf08c9257cb748ef0700058
     Pseudo is Ultrasoft + core correction, Zval =  7.0
     Generated by new atomic code, or converted to UPF format
     Using radial grid of  909 points,  6 beta functions with:
                l(1) =   0
                l(2) =   0
                l(3) =   1
                l(4) =   1
                l(5) =   2
                l(6) =   2
     Q(r) pseudized with  8 coefficients,  rinner =    1.300   1.300   1.300
                                                       1.300   1.300

     PseudoPot. # 4 for O  read from file:
     /lustre07/scratch/pragov/crystal_structure_design/utils/SSSP/O.pbe-n-kjpaw_psl.0.1.UPF
     MD5 check sum: 0234752ac141de4415c5fc33072bef88
     Pseudo is Projector augmented-wave + core cor, Zval =  6.0
     Generated using "atomic" code by A. Dal Corso  v.5.0.99 svn rev. 10869
     Shape of augmentation charge: BESSEL
     Using radial grid of 1095 points,  4 beta functions with:
                l(1) =   0
                l(2) =   0
                l(3) =   1
                l(4) =   1
     Q(r) pseudized with 0 coefficients

     atomic species   valence    mass     pseudopotential
        Nd            14.00   144.24200     Nd( 1.00)
        Ta            13.00   180.94788     Ta( 1.00)
        Cl             7.00    35.45000     Cl( 1.00)
        O              6.00    15.99900     O ( 1.00)

      2 Sym. Ops., with inversion, found

                                    s                        frac. trans.

      isym =  1     identity

 cryst.   s( 1) = (     1          0          0      )
                  (     0          1          0      )
                  (     0          0          1      )

 cart.    s( 1) = (  1.0000000  0.0000000  0.0000000 )
                  (  0.0000000  1.0000000 -0.0000000 )
                  (  0.0000000  0.0000000  1.0000000 )

      isym =  2     inversion

 cryst.   s( 2) = (    -1          0          0      )
                  (     0         -1          0      )
                  (     0          0         -1      )

 cart.    s( 2) = ( -1.0000000 -0.0000000  0.0000000 )
                  (  0.0000000 -1.0000000  0.0000000 )
                  (  0.0000000  0.0000000 -1.0000000 )

   Cartesian axes

     site n.     atom                  positions (alat units)
         1           Nd  tau(   1) = (   0.6333014   0.1609585   0.1303141  )
         2           Nd  tau(   2) = (   1.5842767   0.4026562   0.6621289  )
         3           Ta  tau(   3) = (   2.0842152   0.5297194   0.6332942  )
         4           Ta  tau(   4) = (   0.1333629   0.0338952   0.1591487  )
         5           Cl  tau(   5) = (   1.4224587   0.3615289   0.3442848  )
         6           Cl  tau(   6) = (   0.7951194   0.2020857   0.4481582  )
         7           O   tau(   7) = (   1.1373961   0.2890780   0.6631757  )
         8           O   tau(   8) = (   1.0801820   0.2745366   0.1292673  )
         9           O   tau(   9) = (   1.7779440   0.4518782   0.1213539  )
        10           O   tau(  10) = (   0.1694657   0.0430710   0.3962215  )
        11           O   tau(  11) = (   1.8657400   0.4741923   0.7377501  )
        12           O   tau(  12) = (   0.4396340   0.1117364   0.6710890  )
        13           O   tau(  13) = (   0.3518380   0.0894224   0.0546928  )

   Crystallographic axes

     site n.     atom                  positions (cryst. coord.)
         1           Nd  tau(   1) = (  0.3074370  0.3074370  0.1644460  )
         2           Nd  tau(   2) = (  0.6925630  0.6925630  0.8355540  )
         3           Ta  tau(   3) = (  0.9652440  0.9652440  0.7991670  )
         4           Ta  tau(   4) = (  0.0347560  0.0347560  0.2008330  )
         5           Cl  tau(   5) = (  0.6787900  0.6787900  0.4344600  )
         6           Cl  tau(   6) = (  0.3212100  0.3212100  0.5655400  )
         7           O   tau(   7) = (  0.4544510  0.4544510  0.8368750  )
         8           O   tau(   8) = (  0.5455490  0.5455490  0.1631250  )
         9           O   tau(   9) = (  0.9187680  0.9187680  0.1531390  )
        10           O   tau(  10) = (  0.0000000 -0.0000000  0.5000000  )
        11           O   tau(  11) = (  0.8251690  0.8251690  0.9309820  )
        12           O   tau(  12) = (  0.0812320  0.0812320  0.8468610  )
        13           O   tau(  13) = (  0.1748310  0.1748310  0.0690180  )

     number of k points=    14
                       cart. coord. in units 2pi/alat
        k(    1) = (   0.0000000   0.0000000   0.0000000), wk =   0.0740741
        k(    2) = (   0.0000000   0.0000000   0.4206402), wk =   0.1481481
        k(    3) = (   0.0000000   0.6981204  -0.0758888), wk =   0.1481481
        k(    4) = (   0.0000000   0.6981204   0.3447514), wk =   0.1481481
        k(    5) = (   0.0000000   0.6981204  -0.4965289), wk =   0.1481481
        k(    6) = (   0.3333333  -0.6134011  -0.0758888), wk =   0.1481481
        k(    7) = (   0.3333333  -0.6134011   0.3447514), wk =   0.1481481
        k(    8) = (   0.3333333  -0.6134011  -0.4965289), wk =   0.1481481
        k(    9) = (   0.3333333   0.0847192  -0.1517775), wk =   0.1481481
        k(   10) = (   0.3333333   0.0847192   0.2688626), wk =   0.1481481
        k(   11) = (   0.3333333   0.0847192  -0.5724177), wk =   0.1481481
        k(   12) = (   0.3333333  -1.3115215   0.0000000), wk =   0.1481481
        k(   13) = (   0.3333333  -1.3115215   0.4206402), wk =   0.1481481
        k(   14) = (   0.3333333  -1.3115215  -0.4206402), wk =   0.1481481

                       cryst. coord.
        k(    1) = (   0.0000000   0.0000000   0.0000000), wk =   0.0740741
        k(    2) = (   0.0000000   0.0000000   0.3333333), wk =   0.1481481
        k(    3) = (   0.0000000   0.3333333   0.0000000), wk =   0.1481481
        k(    4) = (   0.0000000   0.3333333   0.3333333), wk =   0.1481481
        k(    5) = (   0.0000000   0.3333333  -0.3333333), wk =   0.1481481
        k(    6) = (   0.3333333   0.0000000   0.0000000), wk =   0.1481481
        k(    7) = (   0.3333333   0.0000000   0.3333333), wk =   0.1481481
        k(    8) = (   0.3333333   0.0000000  -0.3333333), wk =   0.1481481
        k(    9) = (   0.3333333   0.3333333   0.0000000), wk =   0.1481481
        k(   10) = (   0.3333333   0.3333333   0.3333333), wk =   0.1481481
        k(   11) = (   0.3333333   0.3333333  -0.3333333), wk =   0.1481481
        k(   12) = (   0.3333333  -0.3333333   0.0000000), wk =   0.1481481
        k(   13) = (   0.3333333  -0.3333333   0.3333333), wk =   0.1481481
        k(   14) = (   0.3333333  -0.3333333  -0.3333333), wk =   0.1481481

     Check: negative core charge=   -0.000007

     Initial potential from superposition of free atoms

     starting charge     109.9854, renormalised to     110.0000

     negative rho (up, down):  2.169E-01 0.000E+00
     Starting wfcs are  126 randomized atomic wfcs
     Checking if some PAW data can be deallocated...

     Self-consistent Calculation

     iteration #  1     ecut=    30.00 Ry     beta= 0.70
     Davidson diagonalization with overlap

     ethr =  1.00E-02,  avg # of iterations =  1.0

     negative rho (up, down):  2.183E-01 0.000E+00

     total energy              =   -1715.35315439 Ry
     estimated scf accuracy    <       3.89918611 Ry

[...]

     total energy              =   -1717.81729772 Ry
     estimated scf accuracy    <       0.00000158 Ry

     iteration #103     ecut=    30.00 Ry     beta= 0.70
     Davidson diagonalization with overlap

     ethr =  1.43E-09,  avg # of iterations =  9.5

     negative rho (up, down):  2.200E-01 0.000E+00

     End of self-consistent calculation

          k = 0.0000 0.0000 0.0000 (  3693 PWs)   bands (ev):

   -59.0997 -59.0959 -26.4449 -26.4159 -25.7330 -25.6209 -25.6101 -25.6002
   -25.5909 -25.5380  -9.5909  -9.3845  -9.1461  -8.6152  -8.4063  -8.1131
    -8.0590  -7.5857  -7.4972  -7.4809  -7.2760  -6.6574  -6.1698  -4.5381
    -4.4989   3.7581   4.3173   4.8956   4.8981   5.1253   5.1456   5.4072
     5.4393   5.6481   6.0676   6.0774   6.1308   6.3097   6.4471   6.5877
     6.8531   6.9245   6.9441   6.9866   6.9985   7.2748   7.5331   7.7657
     7.7910   8.0891   8.1208   8.2669  10.6053  10.6802  10.6811  10.7166
    10.7504  10.7556  10.8312  10.8437  10.8999  10.9098  10.9120  11.0042

     occupation numbers
     1.0000   1.0000   1.0000   1.0000   1.0000   1.0000   1.0000   1.0000
     1.0000   1.0000   1.0000   1.0000   1.0000   1.0000   1.0000   1.0000
     1.0000   1.0000   1.0000   1.0000   1.0000   1.0000   1.0000   1.0000
     1.0000   1.0000   1.0000   1.0000   1.0000   1.0000   1.0000   1.0000
     1.0000   1.0000   1.0000   1.0000   1.0000   1.0000   1.0000   1.0000
     1.0000   1.0000   1.0000   1.0000   1.0000   1.0000   1.0000   1.0000
     1.0000   1.0000   1.0000   1.0000   1.0000   1.0000   1.0000   0.0000
     0.0000   0.0000   0.0000   0.0000   0.0000   0.0000   0.0000   0.0000

[...]

          k = 0.3333-1.3115-0.4206 (  3650 PWs)   bands (ev):

   -59.0986 -59.0957 -26.4175 -26.4046 -25.6990 -25.6786 -25.6719 -25.6406
   -25.5905 -25.5500  -9.5090  -9.2898  -8.6651  -8.6528  -8.4787  -8.3730
    -7.7265  -7.6199  -7.3487  -7.2107  -6.9842  -6.4851  -6.3575  -4.5628
    -4.4692   3.5180   3.5703   3.6319   4.2915   4.4397   4.4625   4.7466
     5.0873   5.2638   5.6137   5.9415   6.0844   6.2564   6.3819   6.5389
     6.6976   6.8202   7.0225   7.0972   7.3517   7.4750   7.5508   7.7178
     7.7656   7.9496   8.0068   8.1192  10.6168  10.6417  10.6553  10.6856
    10.7028  10.7580  10.8058  10.8399  10.8731  10.8974  10.9662  10.9784

     occupation numbers
     1.0000   1.0000   1.0000   1.0000   1.0000   1.0000   1.0000   1.0000
     1.0000   1.0000   1.0000   1.0000   1.0000   1.0000   1.0000   1.0000
     1.0000   1.0000   1.0000   1.0000   1.0000   1.0000   1.0000   1.0000
     1.0000   1.0000   1.0000   1.0000   1.0000   1.0000   1.0000   1.0000
     1.0000   1.0000   1.0000   1.0000   1.0000   1.0000   1.0000   1.0000
     1.0000   1.0000   1.0000   1.0000   1.0000   1.0000   1.0000   1.0000
     1.0000   1.0000   1.0000   1.0000   1.0000   1.0000   1.0000   0.0000
     0.0000   0.0000   0.0000   0.0000   0.0000   0.0000   0.0000   0.0000

     highest occupied, lowest unoccupied level (ev):    10.7013   10.6767

!    total energy              =   -1717.81730466 Ry
     estimated scf accuracy    <       0.00000067 Ry

     The total energy is the sum of the following terms:
     one-electron contribution =    -247.37310454 Ry
     hartree contribution      =     192.01386510 Ry
     xc contribution           =    -183.24279634 Ry
     ewald contribution        =    -552.72318700 Ry
     one-center paw contrib.   =    -926.49208189 Ry
      -> PAW hartree energy AE =     158.78920187 Ry
      -> PAW hartree energy PS =    -157.75053454 Ry
      -> PAW xc energy AE      =    -885.70910557 Ry
      -> PAW xc energy PS      =      24.82808018 Ry
      -> total E_H with PAW    =     193.05253244 Ry
      -> total E_XC with PAW   =   -1044.12382173 Ry

     convergence has been achieved in 103 iterations

     Writing all to output data dir bands_nm/myprefix.save/

     General routines

     Parallel routines

     PAW routines

   This run was terminated on:  18:17:39  14Jul2023

   JOB DONE.