     Program PWSCF v.7.1 starts on 15Jul2023 at 18:39:18

     Reading input from espresso_24890.pwi
Warning: card &CELL ignored
Warning: card / ignored

     Current dimensions of program PWSCF are:
     Max number of different atomic species (ntypx) = 10
     Max number of k-points (npk) =  40000
     Max angular momentum in pseudopotentials (lmaxx) =  4
     Message from routine setup:
     using ibrav=0 with symmetry is DISCOURAGED, use correct ibrav instead

     K-points division:     npool     =       2
     R & G space division:  proc/nbgrp/npool/nimage =       4
     Subspace diagonalization in iterative solution of the eigenvalue problem:
     one sub-group per band group will be used

     Using Slab Decomposition

     bravais-lattice index     =            0
     lattice parameter (alat)  =      12.0067  a.u.
     unit-cell volume          =    2594.7816 (a.u.)^3
     number of atoms/cell      =           20
     number of atomic types    =            3
     number of electrons       =       176.00
     number of Kohn-Sham states=          256
     kinetic-energy cutoff     =      30.0000  Ry
     charge density cutoff     =     240.0000  Ry
     scf convergence threshold =      1.0E-06
     mixing beta               =       0.7000
     number of iterations used =            8  plain     mixing
     Exchange-correlation= PBE
                           (   1   4   3   4   0   0   0)

     celldm(1)=  12.006748  celldm(2)=   0.000000  celldm(3)=   0.000000
     celldm(4)=   0.000000  celldm(5)=   0.000000  celldm(6)=   0.000000

     crystal axes: (cart. coord. in units of alat)
               a(1) = (   1.000000   0.000000   0.000000 )
               a(2) = (  -0.630149   0.776475   0.000000 )
               a(3) = (   0.000000   0.000000   1.930622 )

     reciprocal axes: (cart. coord. in units 2 pi/alat)
               b(1) = (  1.000000  0.811551  0.000000 )
               b(2) = (  0.000000  1.287872  0.000000 )
               b(3) = (  0.000000  0.000000  0.517968 )

     PseudoPot. # 1 for Sr read from file:
     /lustre07/scratch/pragov/crystal_structure_design/utils/SSSP/Sr_pbe_v1.uspp.F.UPF
     MD5 check sum: 6b418c05fbe9db5448babca5e47b7a5b
     Pseudo is Ultrasoft + core correction, Zval = 10.0
     Generated by new atomic code, or converted to UPF format
     Using radial grid of  883 points,  6 beta functions with:
                l(1) =   0
                l(2) =   0
                l(3) =   1
                l(4) =   1
                l(5) =   2
                l(6) =   2
     Q(r) pseudized with  6 coefficients,  rinner =    1.400   1.400   1.400
                                                       1.400   1.400

     PseudoPot. # 2 for Ge read from file:
     /lustre07/scratch/pragov/crystal_structure_design/utils/SSSP/ge_pbe_v1.4.uspp.F.UPF
     MD5 check sum: 9c9eaa91e581c3f09632fb3098b2c6b2
     Pseudo is Ultrasoft + core correction, Zval = 14.0
     Generated by new atomic code, or converted to UPF format
     Using radial grid of  873 points,  6 beta functions with:
                l(1) =   0
                l(2) =   0
                l(3) =   1
                l(4) =   1
                l(5) =   2
                l(6) =   2
     Q(r) pseudized with  8 coefficients,  rinner =    1.400   1.400   1.400
                                                       1.400   1.400

     PseudoPot. # 3 for N  read from file:
     /lustre07/scratch/pragov/crystal_structure_design/utils/SSSP/N.pbe-n-radius_5.UPF
     MD5 check sum: 16739722b17309cd8fe442a2ace49922
     Pseudo is Ultrasoft + core correction, Zval =  5.0
     Generated using "atomic" code by A. Dal Corso  v.5.1
     Using radial grid of 1085 points,  4 beta functions with:
                l(1) =   0
                l(2) =   0
                l(3) =   1
                l(4) =   1
     Q(r) pseudized with 0 coefficients

     atomic species   valence    mass     pseudopotential
        Sr            10.00    87.62000     Sr( 1.00)
        Ge            14.00    72.63000     Ge( 1.00)
        N              5.00    14.00700     N ( 1.00)

      4 Sym. Ops., with inversion, found ( 2 have fractional translation)

                                    s                        frac. trans.

      isym =  1     identity

 cryst.   s( 1) = (     1          0          0      )
                  (     0          1          0      )
                  (     0          0          1      )

 cart.    s( 1) = (  1.0000000  0.0000000  0.0000000 )
                  (  0.0000000  1.0000000  0.0000000 )
                  (  0.0000000  0.0000000  1.0000000 )

      isym =  2     180 deg rotation - cart. axis [0,0,1]

 cryst.   s( 2) = (    -1          0          0      )    f =(  0.5000000 )
                  (     0         -1          0      )       (  0.5000000 )
                  (     0          0          1      )       (  0.5000000 )

 cart.    s( 2) = ( -1.0000000  0.0000000  0.0000000 )    f =(  0.1849257 )
                  (  0.0000000 -1.0000000  0.0000000 )       (  0.3882373 )
                  (  0.0000000  0.0000000  1.0000000 )       (  0.9653112 )

      isym =  3     inversion

 cryst.   s( 3) = (    -1          0          0      )
                  (     0         -1          0      )
                  (     0          0         -1      )

 cart.    s( 3) = ( -1.0000000  0.0000000  0.0000000 )
                  (  0.0000000 -1.0000000  0.0000000 )
                  (  0.0000000  0.0000000 -1.0000000 )

      isym =  4     inv. 180 deg rotation - cart. axis [0,0,1]

 cryst.   s( 4) = (     1          0          0      )    f =(  0.5000000 )
                  (     0          1          0      )       ( -0.5000000 )
                  (     0          0         -1      )       (  0.5000000 )

 cart.    s( 4) = (  1.0000000  0.0000000  0.0000000 )    f =(  0.8150743 )
                  (  0.0000000  1.0000000  0.0000000 )       ( -0.3882373 )
                  (  0.0000000  0.0000000 -1.0000000 )       (  0.9653112 )

   Cartesian axes

     site n.     atom                  positions (alat units)
         1           Sr  tau(   1) = (  -0.3953680   0.6646436   1.8180208  )
         2           Sr  tau(   2) = (   0.2630457   0.3510271   0.2746677  )
         3           Sr  tau(   3) = (  -0.5520286   0.7392644   0.6906435  )
         4           Sr  tau(   4) = (   0.1068058   0.4254475   1.6559547  )
         5           Sr  tau(   5) = (  -0.0498548   0.5000683   0.8527096  )
         6           Sr  tau(   6) = (   0.9218800   0.0372102   1.2399790  )
         7           Sr  tau(   7) = (   0.7652195   0.1118310   0.1126016  )
         8           Sr  tau(   8) = (   0.4197062   0.2764063   1.0779129  )
         9           Ge  tau(   9) = (  -0.2058910   0.5743917   1.3127596  )
        10           Ge  tau(  10) = (   0.5757424   0.2020830   0.6178629  )
        11           Ge  tau(  11) = (   0.6091833   0.1861544   1.5831741  )
        12           Ge  tau(  12) = (  -0.2393318   0.5903203   0.3474483  )
        13           N   tau(  13) = (  -0.0759893   0.5125167   0.1151597  )
        14           N   tau(  14) = (   0.8712183   0.0613415   1.6573602  )
        15           N   tau(  15) = (   0.7390849   0.1242794   0.8501515  )
        16           N   tau(  16) = (   0.0561440   0.4495788   1.2385735  )
        17           N   tau(  17) = (   0.4458408   0.2639579   1.8154628  )
        18           N   tau(  18) = (  -0.3692345   0.6521952   1.0804709  )
        19           N   tau(  19) = (   0.3137075   0.3268958   0.6920490  )
        20           N   tau(  20) = (  -0.5013668   0.7151331   0.2732622  )

   Crystallographic axes

     site n.     atom                  positions (cryst. coord.)
         1           Sr  tau(   1) = (  0.1440240  0.8559760  0.9416760  )
         2           Sr  tau(   2) = (  0.5479220  0.4520780  0.1422690  )
         3           Sr  tau(   3) = (  0.0479220  0.9520780  0.3577310  )
         4           Sr  tau(   4) = (  0.4520780  0.5479220  0.8577310  )
         5           Sr  tau(   5) = (  0.3559760  0.6440240  0.4416760  )
         6           Sr  tau(   6) = (  0.9520780  0.0479220  0.6422690  )
         7           Sr  tau(   7) = (  0.8559760  0.1440240  0.0583240  )
         8           Sr  tau(   8) = (  0.6440240  0.3559760  0.5583240  )
         9           Ge  tau(   9) = (  0.2602570  0.7397430  0.6799670  )
        10           Ge  tau(  10) = (  0.7397430  0.2602570  0.3200330  )
        11           Ge  tau(  11) = (  0.7602570  0.2397430  0.8200330  )
        12           Ge  tau(  12) = (  0.2397430  0.7602570  0.1799670  )
        13           N   tau(  13) = (  0.3399440  0.6600560  0.0596490  )
        14           N   tau(  14) = (  0.9210000  0.0790000  0.8584590  )
        15           N   tau(  15) = (  0.8399440  0.1600560  0.4403510  )
        16           N   tau(  16) = (  0.4210000  0.5790000  0.6415410  )
        17           N   tau(  17) = (  0.6600560  0.3399440  0.9403510  )
        18           N   tau(  18) = (  0.1600550  0.8399440  0.5596490  )
        19           N   tau(  19) = (  0.5790000  0.4210000  0.3584590  )
        20           N   tau(  20) = (  0.0790000  0.9210000  0.1415410  )

     number of k points=    10
                       cart. coord. in units 2pi/alat
        k(    1) = (   0.0000000   0.0000000   0.0000000), wk =   0.0740741
        k(    2) = (   0.0000000   0.0000000   0.1726559), wk =   0.1481481
        k(    3) = (   0.0000000   0.4292907   0.0000000), wk =   0.1481481
        k(    4) = (   0.0000000   0.4292907   0.1726559), wk =   0.2962963
        k(    5) = (   0.3333333   0.2705169   0.0000000), wk =   0.1481481
        k(    6) = (   0.3333333   0.2705169   0.1726559), wk =   0.2962963
        k(    7) = (   0.3333333   0.6998076   0.0000000), wk =   0.1481481
        k(    8) = (   0.3333333   0.6998076   0.1726559), wk =   0.2962963
        k(    9) = (   0.3333333  -0.1587738   0.0000000), wk =   0.1481481
        k(   10) = (   0.3333333  -0.1587738   0.1726559), wk =   0.2962963

                       cryst. coord.
        k(    1) = (   0.0000000   0.0000000   0.0000000), wk =   0.0740741
        k(    2) = (   0.0000000   0.0000000   0.3333333), wk =   0.1481481
        k(    3) = (   0.0000000   0.3333333   0.0000000), wk =   0.1481481
        k(    4) = (   0.0000000   0.3333333   0.3333333), wk =   0.2962963
        k(    5) = (   0.3333333   0.0000000   0.0000000), wk =   0.1481481
        k(    6) = (   0.3333333   0.0000000   0.3333333), wk =   0.2962963
        k(    7) = (   0.3333333   0.3333333   0.0000000), wk =   0.1481481
        k(    8) = (   0.3333333   0.3333333   0.3333333), wk =   0.2962963
        k(    9) = (   0.3333333  -0.3333333   0.0000000), wk =   0.1481481
        k(   10) = (   0.3333333  -0.3333333   0.3333333), wk =   0.2962963

     Check: negative core charge=   -0.000004

     Initial potential from superposition of free atoms

     starting charge     175.7272, renormalised to     176.0000

     negative rho (up, down):  5.042E-01 0.000E+00
     Starting wfcs are  172 randomized atomic wfcs +   84 random wfcs

     Self-consistent Calculation

     iteration #  1     ecut=    30.00 Ry     beta= 0.70
     Davidson diagonalization with overlap

     ethr =  1.00E-02,  avg # of iterations =  6.5

     negative rho (up, down):  5.134E-01 0.000E+00

     total energy              =   -1573.31665342 Ry
     estimated scf accuracy    <       8.61709746 Ry

[...]

     total energy              =   -1578.08572551 Ry
     estimated scf accuracy    <       0.00001308 Ry

     iteration # 10     ecut=    30.00 Ry     beta= 0.70
     Davidson diagonalization with overlap

     ethr =  7.43E-09,  avg # of iterations =  1.9

     negative rho (up, down):  5.298E-01 0.000E+00

     End of self-consistent calculation

          k = 0.0000 0.0000 0.0000 (  7195 PWs)   bands (ev):

   -25.4465 -25.4215 -25.4205 -25.3954 -25.2474 -25.2473 -25.2140 -25.2139
   -15.2430 -15.2426 -15.2361 -15.2347 -15.1736 -15.1703 -15.1693 -15.1667
   -15.1650 -15.1627 -15.1621 -15.1620 -15.1603 -15.1594 -15.1475 -15.1452
   -15.0831 -15.0806 -15.0803 -15.0802  -7.8756  -7.8437  -7.8171  -7.7805
    -7.7646  -7.7079  -7.6894  -7.6734  -7.6564  -7.6009  -7.5976  -7.5808
    -7.5261  -7.4930  -7.4468  -7.4091  -7.3883  -7.3873  -7.3775  -7.3044
    -7.2302  -7.1872  -7.1719  -7.1719  -4.9830  -4.5802  -4.5423  -4.4210
    -3.6647  -3.6490  -3.6313  -3.4347   1.7703   1.8331   2.9057   2.9842
     5.4117   5.6595   5.6803   5.7142   5.7649   5.8682   5.9946   6.2530
     6.6251   6.7649   6.9905   7.0434   7.3901   7.4494   7.7141   7.7234
     7.7499   7.7706   7.7758   7.8606   8.0683   8.4909   8.8645   8.9260
     9.3094   9.5480  10.8962  11.1080  11.1473  11.5616  11.7239  11.9003
    12.4016  12.4860  12.5379  12.6047  12.6873  12.9273  12.9829  13.0225
    13.0268  13.3507  13.8291  13.9506  14.1969  14.3154  14.4323  14.5865
    14.7060  14.7394  14.7735  15.0661  15.0947  15.2268  15.2508  15.6678
    15.7296  15.7799  15.8421  15.9728  15.9771  16.0587  16.0681  16.1508
    16.2998  16.5542  16.5844  16.6672  16.7362  16.8850  16.9239  17.1577
    17.1896  17.2438  17.5507  17.7437  17.9192  17.9591  18.2424  18.3830
    18.5768  19.1285  19.1786  19.2830  19.4099  19.5120  19.5481  20.0051
    20.0062  20.0805  20.4618  20.5256  20.5361  20.6411  20.7749  21.3990
    21.4160  21.6463  21.8323  22.0379  22.0430  22.3078  22.4498  22.7082
    23.2060  23.2685  23.5814  23.7000  23.9437  23.9471  24.0407  24.1299
    24.1765  25.0272  25.0816  25.1022  25.4466  25.4783  25.7098  25.7824
    25.8226  26.0963  26.3867  26.4102  26.4186  26.4236  26.7940  26.9219
    26.9892  27.2474  27.4663  27.7178  27.7860  27.8723  27.9251  27.9892
    28.3258  28.4153  28.6244  28.7007  28.7196  28.8006  28.8560  28.9524
    28.9729  29.2730  29.7170  29.8381  29.9746  29.9917  30.0175  30.0897
    30.0972  30.5588  30.5757  30.8108  30.8150  30.8447  31.0234  31.0630
    31.3303  31.4094  31.4207  31.7831  31.8690  31.9031  31.9594  32.1839
    32.1961  32.3015  32.3059  32.4629  32.5527  32.7329  32.7668  32.9968
    33.1803  33.2700  33.2840  33.4012  33.5654  33.7797  34.0803  34.3108
    34.3571  34.3802  34.4601  34.6106  34.7079  34.7153  34.7184  34.7436

     occupation numbers
     1.0000   1.0000   1.0000   1.0000   1.0000   1.0000   1.0000   1.0000
     1.0000   1.0000   1.0000   1.0000   1.0000   1.0000   1.0000   1.0000
     1.0000   1.0000   1.0000   1.0000   1.0000   1.0000   1.0000   1.0000
     1.0000   1.0000   1.0000   1.0000   1.0000   1.0000   1.0000   1.0000
     1.0000   1.0000   1.0000   1.0000   1.0000   1.0000   1.0000   1.0000
     1.0000   1.0000   1.0000   1.0000   1.0000   1.0000   1.0000   1.0000
     1.0000   1.0000   1.0000   1.0000   1.0000   1.0000   1.0000   1.0000
     1.0000   1.0000   1.0000   1.0000   1.0000   1.0000   1.0000   1.0000
     1.0000   1.0000   1.0000   1.0000   1.0000   1.0000   1.0000   1.0000
     1.0000   1.0000   1.0000   1.0000   1.0000   1.0000   1.0000   1.0000
     1.0000   1.0000   1.0000   1.0000   1.0000   1.0000   1.0000   1.0000
     0.0000   0.0000   0.0000   0.0000   0.0000   0.0000   0.0000   0.0000
     0.0000   0.0000   0.0000   0.0000   0.0000   0.0000   0.0000   0.0000
     0.0000   0.0000   0.0000   0.0000   0.0000   0.0000   0.0000   0.0000
     0.0000   0.0000   0.0000   0.0000   0.0000   0.0000   0.0000   0.0000
     0.0000   0.0000   0.0000   0.0000   0.0000   0.0000   0.0000   0.0000
     0.0000   0.0000   0.0000   0.0000   0.0000   0.0000   0.0000   0.0000
     0.0000   0.0000   0.0000   0.0000   0.0000   0.0000   0.0000   0.0000
     0.0000   0.0000   0.0000   0.0000   0.0000   0.0000   0.0000   0.0000
     0.0000   0.0000   0.0000   0.0000   0.0000   0.0000   0.0000   0.0000
     0.0000   0.0000   0.0000   0.0000   0.0000   0.0000   0.0000   0.0000
     0.0000   0.0000   0.0000   0.0000   0.0000   0.0000   0.0000   0.0000
     0.0000   0.0000   0.0000   0.0000   0.0000   0.0000   0.0000   0.0000
     0.0000   0.0000   0.0000   0.0000   0.0000   0.0000   0.0000   0.0000
     0.0000   0.0000   0.0000   0.0000   0.0000   0.0000   0.0000   0.0000
     0.0000   0.0000   0.0000   0.0000   0.0000   0.0000   0.0000   0.0000
     0.0000   0.0000   0.0000   0.0000   0.0000   0.0000   0.0000   0.0000
     0.0000   0.0000   0.0000   0.0000   0.0000   0.0000   0.0000   0.0000
     0.0000   0.0000   0.0000   0.0000   0.0000   0.0000   0.0000   0.0000
     0.0000   0.0000   0.0000   0.0000   0.0000   0.0000   0.0000   0.0000
     0.0000   0.0000   0.0000   0.0000   0.0000   0.0000   0.0000   0.0000
     0.0000   0.0000   0.0000   0.0000   0.0000   0.0000   0.0000   0.0000

[...]

          k = 0.3333-0.1588 0.1727 (  7171 PWs)   bands (ev):

   -25.4387 -25.4300 -25.4062 -25.3977 -25.2422 -25.2421 -25.2251 -25.2251
   -15.2419 -15.2415 -15.2345 -15.2343 -15.1730 -15.1703 -15.1695 -15.1686
   -15.1643 -15.1642 -15.1607 -15.1599 -15.1575 -15.1562 -15.1473 -15.1472
   -15.0829 -15.0807 -15.0799 -15.0794  -7.9297  -7.9020  -7.8472  -7.7991
    -7.7781  -7.7434  -7.7400  -7.6955  -7.6074  -7.5874  -7.5599  -7.5458
    -7.5316  -7.4776  -7.4102  -7.3396  -7.3304  -7.3223  -7.3196  -7.3081
    -7.2709  -7.2642  -7.2363  -7.2164  -4.6224  -4.5809  -4.4969  -4.4684
    -3.7400  -3.6953  -3.6058  -3.5544   1.6282   1.6907   2.9815   3.0575
     5.7431   5.7791   5.7865   5.8124   5.8630   5.9069   6.0311   6.1546
     6.4668   6.6357   6.7810   6.9705   7.4900   7.5702   7.6594   7.7518
     7.7771   7.8179   7.9014   7.9607   7.9982   8.1175   8.8577   9.1751
     9.3038   9.5662  10.6356  10.9134  11.0368  11.0435  11.3380  11.4665
    11.4710  11.8009  12.2682  12.5008  12.9125  12.9908  13.4830  13.6108
    13.6310  13.8478  13.9037  13.9575  14.1132  14.1146  14.2017  14.5458
    14.6226  14.8824  14.9875  15.2048  15.3196  15.4057  15.4085  15.5489
    15.6753  15.8522  15.8564  16.0188  16.1553  16.2187  16.2738  16.3732
    16.3996  16.4360  16.7583  16.8634  16.9125  17.0433  17.1562  17.1582
    17.2201  17.4015  17.4472  17.6381  17.8046  17.8484  18.1128  18.1914
    18.3759  18.6933  18.8685  19.0600  19.5109  19.5872  19.7837  19.8886
    19.9480  20.1122  20.7083  20.9514  21.1222  21.1422  21.3429  21.7289
    21.7313  21.9743  22.0180  22.1107  22.2507  22.6134  22.7891  23.1606
    23.3002  23.4292  23.5180  23.7427  23.8289  23.8529  24.4005  24.4364
    24.6176  24.7658  25.0166  25.0230  25.2173  25.3341  25.4232  25.7288
    25.9780  26.0088  26.1747  26.3484  26.4476  26.7531  26.7601  26.8640
    26.8896  27.0478  27.0800  27.1790  27.4733  27.5250  27.7702  27.9617
    27.9916  28.0676  28.3409  28.4650  28.4750  28.6646  28.6800  28.9279
    28.9385  29.0520  29.1519  29.3889  29.4745  29.5709  29.7957  29.8199
    29.8857  30.1020  30.1882  30.2791  30.4081  30.4220  30.5860  30.8847
    30.9964  31.0171  31.0777  31.1985  31.5047  31.6338  31.7680  31.8226
    32.0788  32.2245  32.2651  32.2922  32.4543  32.5163  32.7046  32.8637
    33.0400  33.1975  33.4063  33.4184  33.6810  33.8495  33.8670  34.0254
    34.0564  34.1254  34.2538  34.3070  34.4590  34.7072  34.7327  34.7771

     occupation numbers
     1.0000   1.0000   1.0000   1.0000   1.0000   1.0000   1.0000   1.0000
     1.0000   1.0000   1.0000   1.0000   1.0000   1.0000   1.0000   1.0000
     1.0000   1.0000   1.0000   1.0000   1.0000   1.0000   1.0000   1.0000
     1.0000   1.0000   1.0000   1.0000   1.0000   1.0000   1.0000   1.0000
     1.0000   1.0000   1.0000   1.0000   1.0000   1.0000   1.0000   1.0000
     1.0000   1.0000   1.0000   1.0000   1.0000   1.0000   1.0000   1.0000
     1.0000   1.0000   1.0000   1.0000   1.0000   1.0000   1.0000   1.0000
     1.0000   1.0000   1.0000   1.0000   1.0000   1.0000   1.0000   1.0000
     1.0000   1.0000   1.0000   1.0000   1.0000   1.0000   1.0000   1.0000
     1.0000   1.0000   1.0000   1.0000   1.0000   1.0000   1.0000   1.0000
     1.0000   1.0000   1.0000   1.0000   1.0000   1.0000   1.0000   1.0000
     0.0000   0.0000   0.0000   0.0000   0.0000   0.0000   0.0000   0.0000
     0.0000   0.0000   0.0000   0.0000   0.0000   0.0000   0.0000   0.0000
     0.0000   0.0000   0.0000   0.0000   0.0000   0.0000   0.0000   0.0000
     0.0000   0.0000   0.0000   0.0000   0.0000   0.0000   0.0000   0.0000
     0.0000   0.0000   0.0000   0.0000   0.0000   0.0000   0.0000   0.0000
     0.0000   0.0000   0.0000   0.0000   0.0000   0.0000   0.0000   0.0000
     0.0000   0.0000   0.0000   0.0000   0.0000   0.0000   0.0000   0.0000
     0.0000   0.0000   0.0000   0.0000   0.0000   0.0000   0.0000   0.0000
     0.0000   0.0000   0.0000   0.0000   0.0000   0.0000   0.0000   0.0000
     0.0000   0.0000   0.0000   0.0000   0.0000   0.0000   0.0000   0.0000
     0.0000   0.0000   0.0000   0.0000   0.0000   0.0000   0.0000   0.0000
     0.0000   0.0000   0.0000   0.0000   0.0000   0.0000   0.0000   0.0000
     0.0000   0.0000   0.0000   0.0000   0.0000   0.0000   0.0000   0.0000
     0.0000   0.0000   0.0000   0.0000   0.0000   0.0000   0.0000   0.0000
     0.0000   0.0000   0.0000   0.0000   0.0000   0.0000   0.0000   0.0000
     0.0000   0.0000   0.0000   0.0000   0.0000   0.0000   0.0000   0.0000
     0.0000   0.0000   0.0000   0.0000   0.0000   0.0000   0.0000   0.0000
     0.0000   0.0000   0.0000   0.0000   0.0000   0.0000   0.0000   0.0000
     0.0000   0.0000   0.0000   0.0000   0.0000   0.0000   0.0000   0.0000
     0.0000   0.0000   0.0000   0.0000   0.0000   0.0000   0.0000   0.0000
     0.0000   0.0000   0.0000   0.0000   0.0000   0.0000   0.0000   0.0000

     highest occupied, lowest unoccupied level (ev):     9.1751    9.3038

!    total energy              =   -1578.08572669 Ry
     estimated scf accuracy    <       0.00000082 Ry

     The total energy is the sum of the following terms:
     one-electron contribution =    -721.19945877 Ry
     hartree contribution      =     470.34961729 Ry
     xc contribution           =    -423.28387290 Ry
     ewald contribution        =    -903.95201231 Ry

     convergence has been achieved in  10 iterations

     Writing all to output data dir bands_nm/myprefix.save/

     General routines

     Parallel routines

   This run was terminated on:  18:40:28  15Jul2023

   JOB DONE.