     Program PWSCF v.7.1 starts on 14Jul2023 at 17:56:50

     Reading input from espresso_14677.pwi
Warning: card &CELL ignored
Warning: card / ignored

     Current dimensions of program PWSCF are:
     Max number of different atomic species (ntypx) = 10
     Max number of k-points (npk) =  40000
     Max angular momentum in pseudopotentials (lmaxx) =  4
     Message from routine setup:
     using ibrav=0 with symmetry is DISCOURAGED, use correct ibrav instead

     K-points division:     npool     =       2
     R & G space division:  proc/nbgrp/npool/nimage =       4
     Subspace diagonalization in iterative solution of the eigenvalue problem:
     a serial algorithm will be used

     Using Slab Decomposition

     bravais-lattice index     =            0
     lattice parameter (alat)  =      26.7869  a.u.
     unit-cell volume          =    2055.4635 (a.u.)^3
     number of atoms/cell      =           10
     number of atomic types    =            3
     number of electrons       =       100.00
     number of Kohn-Sham states=           64
     kinetic-energy cutoff     =      30.0000  Ry
     charge density cutoff     =     240.0000  Ry
     scf convergence threshold =      1.0E-06
     mixing beta               =       0.7000
     number of iterations used =            8  plain     mixing
     Exchange-correlation=  SLA  PW   PBX  PBC
                           (   1   4   3   4   0   0   0)

     celldm(1)=  26.786946  celldm(2)=   0.000000  celldm(3)=   0.000000
     celldm(4)=   0.000000  celldm(5)=   0.000000  celldm(6)=   0.000000

     crystal axes: (cart. coord. in units of alat)
               a(1) = (   1.000000   0.000000   0.000000 )
               a(2) = (  -0.922879   0.385091   0.000000 )
               a(3) = (   0.000000   0.000000   0.277701 )

     reciprocal axes: (cart. coord. in units 2 pi/alat)
               b(1) = (  1.000000  2.396521  0.000000 )
               b(2) = (  0.000000  2.596789  0.000000 )
               b(3) = (  0.000000  0.000000  3.601000 )

     PseudoPot. # 1 for Tl read from file:
     /lustre07/scratch/pragov/crystal_structure_design/utils/SSSP/Tl_pbe_v1.2.uspp.F.UPF
     MD5 check sum: b76cf1f7e72655a2b2c53cf6385d7059
     Pseudo is Ultrasoft + core correction, Zval = 13.0
     Generated by new atomic code, or converted to UPF format
     Using radial grid of  899 points,  6 beta functions with:
                l(1) =   0
                l(2) =   0
                l(3) =   1
                l(4) =   1
                l(5) =   2
                l(6) =   2
     Q(r) pseudized with  6 coefficients,  rinner =    1.100   1.100   1.100
                                                       1.100   1.100

     PseudoPot. # 2 for Br read from file:
     /lustre07/scratch/pragov/crystal_structure_design/utils/SSSP/br_pbe_v1.4.uspp.F.UPF
     MD5 check sum: d3ffb7b29f6225aa16fe06858fb2a80b
     Pseudo is Ultrasoft + core correction, Zval =  7.0
     Generated by new atomic code, or converted to UPF format
     Using radial grid of  879 points,  6 beta functions with:
                l(1) =   0
                l(2) =   0
                l(3) =   1
                l(4) =   1
                l(5) =   2
                l(6) =   2
     Q(r) pseudized with  8 coefficients,  rinner =    1.100   1.100   1.100
                                                       1.100   1.100

     PseudoPot. # 3 for Cl read from file:
     /lustre07/scratch/pragov/crystal_structure_design/utils/SSSP/cl_pbe_v1.4.uspp.F.UPF
     MD5 check sum: fc6f6913ecf08c9257cb748ef0700058
     Pseudo is Ultrasoft + core correction, Zval =  7.0
     Generated by new atomic code, or converted to UPF format
     Using radial grid of  909 points,  6 beta functions with:
                l(1) =   0
                l(2) =   0
                l(3) =   1
                l(4) =   1
                l(5) =   2
                l(6) =   2
     Q(r) pseudized with  8 coefficients,  rinner =    1.300   1.300   1.300
                                                       1.300   1.300

     atomic species   valence    mass     pseudopotential
        Tl            13.00   204.38000     Tl( 1.00)
        Br             7.00    79.90400     Br( 1.00)
        Cl             7.00    35.45000     Cl( 1.00)

      4 Sym. Ops., with inversion, found

                                    s                        frac. trans.

      isym =  1     identity

 cryst.   s( 1) = (     1          0          0      )
                  (     0          1          0      )
                  (     0          0          1      )

 cart.    s( 1) = (  1.0000000  0.0000000  0.0000000 )
                  (  0.0000000  1.0000000  0.0000000 )
                  (  0.0000000  0.0000000  1.0000000 )

      isym =  2     180 deg rotation - cart. axis [0,0,1]

[...]

      isym =  3     inversion

[...]

      isym =  4     inv. 180 deg rotation - cart. axis [0,0,1]

 cryst.   s( 4) = (     1          0          0      )
                  (     0          1          0      )
                  (     0          0         -1      )

 cart.    s( 4) = (  1.0000000  0.0000000  0.0000000 )
                  (  0.0000000  1.0000000  0.0000000 )
                  (  0.0000000  0.0000000 -1.0000000 )

   Cartesian axes

     site n.     atom                  positions (alat units)
         1           Tl  tau(   1) = (   0.6154050   0.0770220   0.0000000  )
         2           Tl  tau(   2) = (  -0.1573807   0.2317862   0.0000000  )
         3           Tl  tau(   3) = (   0.0000000   0.0000000   0.0000000  )
         4           Tl  tau(   4) = (   0.2345020   0.1533047   0.0000000  )
         5           Tl  tau(   5) = (  -0.5382837   0.3080689   0.0000000  )
         6           Br  tau(   6) = (   0.0385607   0.1925455   0.1388503  )
         7           Cl  tau(   7) = (  -0.7297793   0.3464193   0.1388503  )
         8           Cl  tau(   8) = (   0.4237460   0.1154052   0.1388503  )
         9           Cl  tau(   9) = (  -0.3466246   0.2696857   0.1388503  )
        10           Cl  tau(  10) = (   0.8069007   0.0386716   0.1388503  )

   Crystallographic axes

     site n.     atom                  positions (cryst. coord.)
         1           Tl  tau(   1) = (  0.7999900  0.2000100  0.0000000  )
         2           Tl  tau(   2) = (  0.3981000  0.6019000  0.0000000  )
         3           Tl  tau(   3) = (  0.0000000  0.0000000  0.0000000  )
         4           Tl  tau(   4) = (  0.6019000  0.3981000  0.0000000  )
         5           Tl  tau(   5) = (  0.2000100  0.7999900  0.0000000  )
         6           Br  tau(   6) = (  0.5000000  0.5000000  0.5000000  )
         7           Cl  tau(   7) = (  0.1004220  0.8995780  0.5000000  )
         8           Cl  tau(   8) = (  0.7003170  0.2996830  0.5000000  )
         9           Cl  tau(   9) = (  0.2996830  0.7003170  0.5000000  )
        10           Cl  tau(  10) = (  0.8995780  0.1004220  0.5000000  )

     number of k points=    10
                       cart. coord. in units 2pi/alat
        k(    1) = (   0.0000000   0.0000000   0.0000000), wk =   0.0740741
        k(    2) = (   0.0000000   0.0000000   1.2003333), wk =   0.1481481
        k(    3) = (   0.0000000   0.8655964   0.0000000), wk =   0.1481481
        k(    4) = (   0.0000000   0.8655964   1.2003333), wk =   0.2962963
        k(    5) = (   0.3333333   0.7988405   0.0000000), wk =   0.1481481
        k(    6) = (   0.3333333   0.7988405   1.2003333), wk =   0.2962963
        k(    7) = (   0.3333333   1.6644369   0.0000000), wk =   0.1481481
        k(    8) = (   0.3333333   1.6644369   1.2003333), wk =   0.2962963
        k(    9) = (   0.3333333  -0.0667560   0.0000000), wk =   0.1481481
        k(   10) = (   0.3333333  -0.0667560   1.2003333), wk =   0.2962963

                       cryst. coord.
        k(    1) = (   0.0000000   0.0000000   0.0000000), wk =   0.0740741
        k(    2) = (   0.0000000   0.0000000   0.3333333), wk =   0.1481481
        k(    3) = (   0.0000000   0.3333333   0.0000000), wk =   0.1481481
        k(    4) = (   0.0000000   0.3333333   0.3333333), wk =   0.2962963
        k(    5) = (   0.3333333   0.0000000   0.0000000), wk =   0.1481481
        k(    6) = (   0.3333333   0.0000000   0.3333333), wk =   0.2962963
        k(    7) = (   0.3333333   0.3333333   0.0000000), wk =   0.1481481
        k(    8) = (   0.3333333   0.3333333   0.3333333), wk =   0.2962963
        k(    9) = (   0.3333333  -0.3333333   0.0000000), wk =   0.1481481
        k(   10) = (   0.3333333  -0.3333333   0.3333333), wk =   0.2962963

     Check: negative core charge=   -0.000005

     Initial potential from superposition of free atoms

     starting charge      99.9756, renormalised to     100.0000

     negative rho (up, down):  3.128E-01 0.000E+00
     Starting wfcs are   65 randomized atomic wfcs

     Self-consistent Calculation

     iteration #  1     ecut=    30.00 Ry     beta= 0.70
     Davidson diagonalization with overlap

     ethr =  1.00E-02,  avg # of iterations =  2.3

     Threshold (ethr) on eigenvalues was too large:
     Diagonalizing with lowered threshold

     Davidson diagonalization with overlap

[...]

     negative rho (up, down):  3.146E-01 0.000E+00

     total energy              =    -905.29384339 Ry
     estimated scf accuracy    <       0.45550496 Ry

[...]

     total energy              =    -905.48709916 Ry
     estimated scf accuracy    <       0.00000307 Ry

     iteration #  8     ecut=    30.00 Ry     beta= 0.70
     Davidson diagonalization with overlap

     ethr =  3.07E-09,  avg # of iterations =  4.1

     negative rho (up, down):  3.093E-01 0.000E+00

     End of self-consistent calculation

          k = 0.0000 0.0000 0.0000 (  5721 PWs)   bands (ev):

    -8.8169  -8.7108  -8.6596  -8.5264  -8.5173  -5.2500  -5.2475  -5.2185
    -5.1990  -5.1766  -5.1701  -5.1454  -5.1444  -5.1035  -5.1033  -5.0974
    -5.0925  -5.0875  -5.0848  -5.0736  -5.0661  -5.0625  -5.0588  -5.0562
    -5.0522  -5.0294  -5.0238  -5.0220  -5.0208  -5.0029  -0.1138  -0.0272
     0.1805   0.6007   0.6149   2.1315   2.1606   2.8870   2.8957   2.9463
     2.9668   3.3659   3.3859   3.3981   3.5669   3.6294   3.7490   4.0166
     4.1227   4.2840   8.9263   9.0795   9.1961   9.2257   9.4246   9.6375
    10.3472  10.5633  11.5985  11.7063  12.1120  12.1130  12.1254  12.1983

     occupation numbers
     1.0000   1.0000   1.0000   1.0000   1.0000   1.0000   1.0000   1.0000
     1.0000   1.0000   1.0000   1.0000   1.0000   1.0000   1.0000   1.0000
     1.0000   1.0000   1.0000   1.0000   1.0000   1.0000   1.0000   1.0000
     1.0000   1.0000   1.0000   1.0000   1.0000   1.0000   1.0000   1.0000
     1.0000   1.0000   1.0000   1.0000   1.0000   1.0000   1.0000   1.0000
     1.0000   1.0000   1.0000   1.0000   1.0000   1.0000   1.0000   1.0000
     1.0000   1.0000   0.0000   0.0000   0.0000   0.0000   0.0000   0.0000
     0.0000   0.0000   0.0000   0.0000   0.0000   0.0000   0.0000   0.0000

[...]

          k = 0.3333-0.0668 1.2003 (  5683 PWs)   bands (ev):

    -8.6485  -8.6199  -8.5172  -8.4559  -8.3875  -5.2339  -5.1890  -5.1689
    -5.1677  -5.1588  -5.1428  -5.1426  -5.1332  -5.1231  -5.1153  -5.1108
    -5.1044  -5.0993  -5.0962  -5.0896  -5.0782  -5.0711  -5.0705  -5.0626
    -5.0572  -5.0541  -5.0470  -5.0289  -5.0176  -4.9877  -0.2999  -0.1352
     0.4806   0.9118   1.8449   2.6502   2.7166   2.7789   2.8766   2.8768
     3.0518   3.0716   3.1017   3.3911   3.4360   3.4738   3.6613   3.7690
     4.2694   4.3235   7.7827   7.8243   8.0214   8.3128   8.3401   8.3652
     8.4396   8.8538   8.8814   9.5981  10.0508  10.2542  10.9484  11.1441

     occupation numbers
     1.0000   1.0000   1.0000   1.0000   1.0000   1.0000   1.0000   1.0000
     1.0000   1.0000   1.0000   1.0000   1.0000   1.0000   1.0000   1.0000
     1.0000   1.0000   1.0000   1.0000   1.0000   1.0000   1.0000   1.0000
     1.0000   1.0000   1.0000   1.0000   1.0000   1.0000   1.0000   1.0000
     1.0000   1.0000   1.0000   1.0000   1.0000   1.0000   1.0000   1.0000
     1.0000   1.0000   1.0000   1.0000   1.0000   1.0000   1.0000   1.0000
     1.0000   1.0000   0.0000   0.0000   0.0000   0.0000   0.0000   0.0000
     0.0000   0.0000   0.0000   0.0000   0.0000   0.0000   0.0000   0.0000

     highest occupied, lowest unoccupied level (ev):     4.4160    7.2907

!    total energy              =    -905.48710057 Ry
     estimated scf accuracy    <       0.00000064 Ry

     The total energy is the sum of the following terms:
     one-electron contribution =    -164.18471620 Ry
     hartree contribution      =     146.77359412 Ry
     xc contribution           =    -374.12405716 Ry
     ewald contribution        =    -513.95192133 Ry

     convergence has been achieved in   8 iterations

     Writing all to output data dir bands_nm/myprefix.save/

     General routines

     Parallel routines

   This run was terminated on:  17:57:33  14Jul2023

   JOB DONE.