     Program PWSCF v.7.1 starts on 14Jul2023 at 18:32:30

     Reading input from espresso_21265.pwi
Warning: card &CELL ignored
Warning: card / ignored

     Current dimensions of program PWSCF are:
     Max number of different atomic species (ntypx) = 10
     Max number of k-points (npk) =  40000
     Max angular momentum in pseudopotentials (lmaxx) =  4
     file Al.pbe-n-kjpaw_psl.1.0.0.UPF: wavefunction(s)  3S 3P renormalized
     file Fe.pbe-spn-kjpaw_psl.0.2.1.UPF: wavefunction(s)  3D renormalized
     file O.pbe-n-kjpaw_psl.0.1.UPF: wavefunction(s)  2P renormalized
     Message from routine setup:
     using ibrav=0 with symmetry is DISCOURAGED, use correct ibrav instead

     K-points division:     npool     =       2
     R & G space division:  proc/nbgrp/npool/nimage =       4
     Subspace diagonalization in iterative solution of the eigenvalue problem:
     a serial algorithm will be used

     Using Slab Decomposition

     bravais-lattice index     =            0
     lattice parameter (alat)  =      10.1149  a.u.
     unit-cell volume          =    1237.2914 (a.u.)^3
     number of atoms/cell      =           16
     number of atomic types    =            4
     number of electrons       =        98.00
     number of Kohn-Sham states=           64
     kinetic-energy cutoff     =      30.0000  Ry
     charge density cutoff     =     240.0000  Ry
     scf convergence threshold =      1.0E-06
     mixing beta               =       0.7000
     number of iterations used =            8  plain     mixing
     Exchange-correlation= SLA  PW   PBX  PBC
                           (   1   4   3   4   0   0   0)

     celldm(1)=  10.114947  celldm(2)=   0.000000  celldm(3)=   0.000000
     celldm(4)=   0.000000  celldm(5)=   0.000000  celldm(6)=   0.000000

     crystal axes: (cart. coord. in units of alat)
               a(1) = (   1.000000   0.000000   0.000000 )
               a(2) = (   0.010203   0.999948   0.000000 )
               a(3) = (   0.000000   0.000000   1.195650 )

     reciprocal axes: (cart. coord. in units 2 pi/alat)
               b(1) = (  1.000000 -0.010204  0.000000 )
               b(2) = (  0.000000  1.000052  0.000000 )
               b(3) = (  0.000000  0.000000  0.836365 )

     PseudoPot. # 1 for Li read from file:
     /lustre07/scratch/pragov/crystal_structure_design/utils/SSSP/li_pbe_v1.4.uspp.F.UPF
     MD5 check sum: e912e257baa3777c20ea3d68f190483c
     Pseudo is Ultrasoft, Zval =  3.0
     Generated by new atomic code, or converted to UPF format
     Using radial grid of  751 points,  5 beta functions with:
                l(1) =   0
                l(2) =   0
                l(3) =   0
                l(4) =   1
                l(5) =   1
     Q(r) pseudized with 10 coefficients,  rinner =    1.150   1.150   1.150

     PseudoPot. # 2 for Al read from file:
     /lustre07/scratch/pragov/crystal_structure_design/utils/SSSP/Al.pbe-n-kjpaw_psl.1.0.0.UPF
     MD5 check sum: cfc449ca30b5f3223ec38ddd88ac046d
     Pseudo is Projector augmented-wave + core cor, Zval =  3.0
     Generated using "atomic" code by A. Dal Corso  v.5.1
     Shape of augmentation charge: PSQ
     Using radial grid of 1135 points,  6 beta functions with:
                l(1) =   0
                l(2) =   0
                l(3) =   1
                l(4) =   1
                l(5) =   2
                l(6) =   2
     Q(r) pseudized with 0 coefficients

     PseudoPot. # 3 for Fe read from file:
     /lustre07/scratch/pragov/crystal_structure_design/utils/SSSP/Fe.pbe-spn-kjpaw_psl.0.2.1.UPF
     MD5 check sum: e86618425769142926afa95317d90200
     Pseudo is Projector augmented-wave + core cor, Zval = 16.0
     Generated using "atomic" code by A. Dal Corso  v.5.0.99 svn rev. 10869
     Shape of augmentation charge: PSQ
     Using radial grid of 1191 points,  6 beta functions with:
                l(1) =   0
                l(2) =   0
                l(3) =   1
                l(4) =   1
                l(5) =   2
                l(6) =   2
     Q(r) pseudized with 0 coefficients

     PseudoPot. # 4 for O  read from file:
     /lustre07/scratch/pragov/crystal_structure_design/utils/SSSP/O.pbe-n-kjpaw_psl.0.1.UPF
     MD5 check sum: 0234752ac141de4415c5fc33072bef88
     Pseudo is Projector augmented-wave + core cor, Zval =  6.0
     Generated using "atomic" code by A. Dal Corso  v.5.0.99 svn rev. 10869
     Shape of augmentation charge: BESSEL
     Using radial grid of 1095 points,  4 beta functions with:
                l(1) =   0
                l(2) =   0
                l(3) =   1
                l(4) =   1
     Q(r) pseudized with 0 coefficients

     atomic species   valence    mass     pseudopotential
        Li             3.00     6.94000     Li( 1.00)
        Al             3.00    26.98154     Al( 1.00)
        Fe            16.00    55.84500     Fe( 1.00)
        O              6.00    15.99900     O ( 1.00)

      2 Sym. Ops. (no inversion) found ( 1 have fractional translation)

                                    s                        frac. trans.

      isym =  1     identity

 cryst.   s( 1) = (     1          0          0      )
                  (     0          1          0      )
                  (     0          0          1      )

 cart.    s( 1) = (  1.0000000 -0.0000000  0.0000000 )
                  (  0.0000000  1.0000000  0.0000000 )
                  (  0.0000000  0.0000000  1.0000000 )

      isym =  2     180 deg rotation - cart. axis [0,0,1]

 cryst.   s( 2) = (    -1          0          0      )    f =(  0.0000000 )
                  (     0         -1          0      )       ( -0.0000000 )
                  (     0          0          1      )       (  0.5000000 )

 cart.    s( 2) = ( -1.0000000  0.0000000  0.0000000 )    f =(  0.0000000 )
                  (  0.0000000 -1.0000000  0.0000000 )       ( -0.0000000 )
                  (  0.0000000  0.0000000  1.0000000 )       (  0.5978248 )

   Cartesian axes

     site n.     atom                  positions (alat units)
         1           Li  tau(   1) = (   0.3233580   0.6835812   0.5978248  )
         2           Li  tau(   2) = (   0.6868451   0.3163664   0.0000000  )
         3           Li  tau(   3) = (   0.1873462   0.1854443   0.8967372  )
         4           Li  tau(   4) = (   0.8228569   0.8145034   0.2989124  )
         5           Al  tau(   5) = (   0.3327532   0.6740897   0.0000000  )
         6           Al  tau(   6) = (   0.6774500   0.3258590   0.5978248  )
         7           Fe  tau(   7) = (   0.8332984   0.8248398   0.8967372  )
         8           Fe  tau(   8) = (   0.1769058   0.1751088   0.2989124  )
         9           O   tau(   9) = (   0.2092141   0.8190311   0.2719911  )
        10           O   tau(  10) = (   0.1890828   0.7991002   0.9236584  )
        11           O   tau(  11) = (   0.8009890   0.1809185   0.8698159  )
        12           O   tau(  12) = (   0.8211234   0.2008475   0.3258336  )
        13           O   tau(  13) = (   0.2990749   0.3421231   0.0126380  )
        14           O   tau(  14) = (   0.6650432   0.7043771   1.1830139  )
        15           O   tau(  15) = (   0.3451569   0.2955685   0.5851868  )
        16           O   tau(  16) = (   0.7111262   0.6578216   0.6104604  )

   Crystallographic axes

     site n.     atom                  positions (cryst. coord.)
         1           Li  tau(   1) = (  0.3163830  0.6836170  0.5000000  )
         2           Li  tau(   2) = (  0.6836170  0.3163830  0.0000000  )
         3           Li  tau(   3) = (  0.1854540  0.1854540  0.7500000  )
         4           Li  tau(   4) = (  0.8145460  0.8145460  0.2500000  )
         5           Al  tau(   5) = (  0.3258750  0.6741250  0.0000000  )
         6           Al  tau(   6) = (  0.6741250  0.3258760  0.5000000  )
         7           Fe  tau(   7) = (  0.8248820  0.8248830  0.7500000  )
         8           Fe  tau(   8) = (  0.1751190  0.1751180  0.2500000  )
         9           O   tau(   9) = (  0.2008570  0.8190740  0.2274840  )
        10           O   tau(  10) = (  0.1809290  0.7991420  0.7725160  )
        11           O   tau(  11) = (  0.7991430  0.1809280  0.7274840  )
        12           O   tau(  12) = (  0.8190740  0.2008580  0.2725160  )
        13           O   tau(  13) = (  0.2955840  0.3421410  0.0105700  )
        14           O   tau(  14) = (  0.6578560  0.7044140  0.9894320  )
        15           O   tau(  15) = (  0.3421410  0.2955840  0.4894300  )
        16           O   tau(  16) = (  0.7044140  0.6578560  0.5105680  )

     number of k points=    10
                       cart. coord. in units 2pi/alat
        k(    1) = (   0.0000000   0.0000000   0.0000000), wk =   0.0740741
        k(    2) = (   0.0000000   0.0000000   0.2787885), wk =   0.1481481
        k(    3) = (   0.0000000   0.3333508   0.0000000), wk =   0.1481481
        k(    4) = (   0.0000000   0.3333508   0.2787885), wk =   0.2962963
        k(    5) = (   0.3333333  -0.0034012   0.0000000), wk =   0.1481481
        k(    6) = (   0.3333333  -0.0034012   0.2787885), wk =   0.2962963
        k(    7) = (   0.3333333   0.3299495   0.0000000), wk =   0.1481481
        k(    8) = (   0.3333333   0.3299495   0.2787885), wk =   0.2962963
        k(    9) = (   0.3333333  -0.3367520   0.0000000), wk =   0.1481481
        k(   10) = (   0.3333333  -0.3367520   0.2787885), wk =   0.2962963

                       cryst. coord.
        k(    1) = (   0.0000000   0.0000000   0.0000000), wk =   0.0740741
        k(    2) = (   0.0000000   0.0000000   0.3333333), wk =   0.1481481
        k(    3) = (   0.0000000   0.3333333   0.0000000), wk =   0.1481481
        k(    4) = (   0.0000000   0.3333333   0.3333333), wk =   0.2962963
        k(    5) = (   0.3333333  -0.0000000   0.0000000), wk =   0.1481481
        k(    6) = (   0.3333333  -0.0000000   0.3333333), wk =   0.2962963
        k(    7) = (   0.3333333   0.3333333   0.0000000), wk =   0.1481481
        k(    8) = (   0.3333333   0.3333333   0.3333333), wk =   0.2962963
        k(    9) = (   0.3333333  -0.3333333   0.0000000), wk =   0.1481481
        k(   10) = (   0.3333333  -0.3333333   0.3333333), wk =   0.2962963

     Check: negative core charge=   -0.000080

     Initial potential from superposition of free atoms

     starting charge      96.1916, renormalised to      98.0000
     Starting wfcs are   86 randomized atomic wfcs
     Checking if some PAW data can be deallocated...

     Self-consistent Calculation

     iteration #  1     ecut=    30.00 Ry     beta= 0.70
     Davidson diagonalization with overlap

     ethr =  1.00E-02,  avg # of iterations =  3.2

     total energy              =   -1121.45666176 Ry
     estimated scf accuracy    <      10.27771688 Ry

[...]

     total energy              =   -1128.73650965 Ry
     estimated scf accuracy    <       0.00000190 Ry

     iteration # 22     ecut=    30.00 Ry     beta= 0.70
     Davidson diagonalization with overlap

     ethr =  1.94E-09,  avg # of iterations =  1.0

     End of self-consistent calculation

          k = 0.0000 0.0000 0.0000 (  3441 PWs)   bands (ev):

   -82.0743 -82.0715 -47.9720 -47.9572 -47.5728 -47.5692 -47.4809 -47.4725
   -38.7928 -38.7924 -38.6522 -38.6520 -13.4505 -13.0561 -12.7439 -12.5748
   -12.5563 -12.5487 -12.5047 -12.4488  -0.9539  -0.2680   0.3421   0.3791
     0.4376   0.6408   0.6483   1.0228   1.1223   1.2591   1.2812   1.4512
     1.5590   1.7211   1.9206   1.9612   2.1019   2.2314   2.2731   2.3264
     2.5739   2.6482   2.7344   3.2848   4.6145   4.6521   5.0024   5.0861
     5.8526   6.1957   6.2135   6.2252   6.3166   6.4753   8.1070  12.1247
    12.3692  12.7194  13.0376  13.0748  13.2666  13.6111  13.7885  14.4303

     occupation numbers
     1.0000   1.0000   1.0000   1.0000   1.0000   1.0000   1.0000   1.0000
     1.0000   1.0000   1.0000   1.0000   1.0000   1.0000   1.0000   1.0000
     1.0000   1.0000   1.0000   1.0000   1.0000   1.0000   1.0000   1.0000
     1.0000   1.0000   1.0000   1.0000   1.0000   1.0000   1.0000   1.0000
     1.0000   1.0000   1.0000   1.0000   1.0000   1.0000   1.0000   1.0000
     1.0000   1.0000   1.0000   1.0000   1.0000   1.0000   1.0000   1.0000
     1.0000   0.0000   0.0000   0.0000   0.0000   0.0000   0.0000   0.0000
     0.0000   0.0000   0.0000   0.0000   0.0000   0.0000   0.0000   0.0000

[...]

          k = 0.3333-0.3368 0.2788 (  3442 PWs)   bands (ev):

   -82.0731 -82.0712 -47.9708 -47.9653 -47.5684 -47.5653 -47.4717 -47.4681
   -38.7926 -38.7923 -38.6522 -38.6519 -13.1867 -13.1135 -12.7491 -12.7329
   -12.5864 -12.5535 -12.5101 -12.4774  -0.6968  -0.6335   0.0625   0.3063
     0.4269   0.5952   0.8177   0.8589   0.9624   1.1611   1.2553   1.4960
     1.5348   1.8258   1.9706   2.1511   2.1529   2.1856   2.4199   2.4987
     2.7982   2.8222   2.9462   3.0441   4.5659   4.5856   4.9125   4.9702
     6.1307   6.1562   6.2255   6.3536   6.4044   6.4340  10.2076  10.9772
    11.5501  11.6495  12.1300  12.4073  12.5223  12.9677  14.5008  15.1340

     occupation numbers
     1.0000   1.0000   1.0000   1.0000   1.0000   1.0000   1.0000   1.0000
     1.0000   1.0000   1.0000   1.0000   1.0000   1.0000   1.0000   1.0000
     1.0000   1.0000   1.0000   1.0000   1.0000   1.0000   1.0000   1.0000
     1.0000   1.0000   1.0000   1.0000   1.0000   1.0000   1.0000   1.0000
     1.0000   1.0000   1.0000   1.0000   1.0000   1.0000   1.0000   1.0000
     1.0000   1.0000   1.0000   1.0000   1.0000   1.0000   1.0000   1.0000
     1.0000   0.0000   0.0000   0.0000   0.0000   0.0000   0.0000   0.0000
     0.0000   0.0000   0.0000   0.0000   0.0000   0.0000   0.0000   0.0000

     highest occupied, lowest unoccupied level (ev):     6.1312    6.1001

!    total energy              =   -1128.73650995 Ry
     estimated scf accuracy    <       0.00000013 Ry

     The total energy is the sum of the following terms:
     one-electron contribution =    -570.25781982 Ry
     hartree contribution      =     323.59918070 Ry
     xc contribution           =    -148.24461768 Ry
     ewald contribution        =    -436.17074707 Ry
     one-center paw contrib.   =    -297.66250608 Ry
      -> PAW hartree energy AE =       0.00000000 Ry
      -> PAW hartree energy PS =       0.00000000 Ry
      -> PAW xc energy AE      =       0.00000000 Ry
      -> PAW xc energy PS      =       0.00000000 Ry
      -> total E_H with PAW    =     323.59918070 Ry
      -> total E_XC with PAW   =    -148.24461768 Ry

     convergence has been achieved in  22 iterations

     Writing all to output data dir bands_nm/myprefix.save/

     General routines

     Parallel routines

     PAW routines

   This run was terminated on:  18:33: 3  14Jul2023

   JOB DONE.