     Program PWSCF v.7.1 starts on 16Jul2023 at 15:33: 0

     Reading input from espresso_24640.pwi
Warning: card &CELL ignored
Warning: card / ignored

     Current dimensions of program PWSCF are:
     Max number of different atomic species (ntypx) = 10
     Max number of k-points (npk) =  40000
     Max angular momentum in pseudopotentials (lmaxx) =  4
     file O.pbe-n-kjpaw_psl.0.1.UPF: wavefunction(s)  2P renormalized
     Message from routine setup:
     using ibrav=0 with symmetry is DISCOURAGED, use correct ibrav instead

     K-points division:     npool     =       2
     R & G space division:  proc/nbgrp/npool/nimage =       4
     Subspace diagonalization in iterative solution of the eigenvalue problem:
     a serial algorithm will be used

     Using Slab Decomposition

     bravais-lattice index     =            0
     lattice parameter (alat)  =      13.2160  a.u.
     unit-cell volume          =    1246.2534 (a.u.)^3
     number of atoms/cell      =           12
     number of atomic types    =            2
     number of electrons       =        96.00
     number of Kohn-Sham states=           64
     kinetic-energy cutoff     =      30.0000  Ry
     charge density cutoff     =     240.0000  Ry
     scf convergence threshold =      1.0E-06
     mixing beta               =       0.7000
     number of iterations used =            8  plain     mixing
     Exchange-correlation= SLA  PW   PBX  PBC
                           (   1   4   3   4   0   0   0)

     celldm(1)=  13.215962  celldm(2)=   0.000000  celldm(3)=   0.000000
     celldm(4)=   0.000000  celldm(5)=   0.000000  celldm(6)=   0.000000

     crystal axes: (cart. coord. in units of alat)
               a(1) = (   1.000000   0.000000   0.000000 )
               a(2) = (   0.832902   0.553420   0.000000 )
               a(3) = (   0.277668   0.083838   0.975562 )

     reciprocal axes: (cart. coord. in units 2 pi/alat)
               b(1) = (  1.000000 -1.505008 -0.155286 )
               b(2) = (  0.000000  1.806944 -0.155286 )
               b(3) = (  0.000000  0.000000  1.025050 )

     PseudoPot. # 1 for Zr read from file:
     /lustre07/scratch/pragov/crystal_structure_design/utils/SSSP/Zr_pbe_v1.uspp.F.UPF
     MD5 check sum: 5db81b1e868ab7776c4564c113de050b
     Pseudo is Ultrasoft + core correction, Zval = 12.0
     Generated by new atomic code, or converted to UPF format
     Using radial grid of  887 points,  6 beta functions with:
                l(1) =   0
                l(2) =   0
                l(3) =   1
                l(4) =   1
                l(5) =   2
                l(6) =   2
     Q(r) pseudized with  6 coefficients,  rinner =    1.200   1.200   1.200
                                                       1.200   1.200

     PseudoPot. # 2 for O  read from file:
     /lustre07/scratch/pragov/crystal_structure_design/utils/SSSP/O.pbe-n-kjpaw_psl.0.1.UPF
     MD5 check sum: 0234752ac141de4415c5fc33072bef88
     Pseudo is Projector augmented-wave + core cor, Zval =  6.0
     Generated using "atomic" code by A. Dal Corso  v.5.0.99 svn rev. 10869
     Shape of augmentation charge: BESSEL
     Using radial grid of 1095 points,  4 beta functions with:
                l(1) =   0
                l(2) =   0
                l(3) =   1
                l(4) =   1
     Q(r) pseudized with 0 coefficients

     atomic species   valence    mass     pseudopotential
        Zr            12.00    91.22400     Zr( 1.00)
        O              6.00    15.99900     O ( 1.00)

      2 Sym. Ops., with inversion, found

                                    s                        frac. trans.

      isym =  1     identity

 cryst.   s( 1) = (     1          0          0      )
                  (     0          1          0      )
                  (     0          0          1      )

 cart.    s( 1) = (  1.0000000  0.0000000  0.0000000 )
                  (  0.0000000  1.0000000  0.0000000 )
                  (  0.0000000  0.0000000  1.0000000 )

      isym =  2     inversion

 cryst.   s( 2) = (    -1          0          0      )
                  (     0         -1          0      )
                  (     0          0         -1      )

 cart.    s( 2) = ( -1.0000000  0.0000000  0.0000000 )
                  (  0.0000000 -1.0000000  0.0000000 )
                  (  0.0000000  0.0000000 -1.0000000 )

   Cartesian axes

     site n.     atom                  positions (alat units)
         1           Zr  tau(   1) = (   1.8470469   0.5576913   0.6927113  )
         2           Zr  tau(   2) = (   1.5559069   0.4697855   0.2800399  )
         3           Zr  tau(   3) = (   0.5546630   0.1674731   0.6955219  )
         4           Zr  tau(   4) = (   0.2635230   0.0795673   0.2828505  )
         5           O   tau(   5) = (   1.8280941   0.5519688   0.3686424  )
         6           O   tau(   6) = (   0.8525307   0.2574104   0.6891885  )
         7           O   tau(   7) = (   1.5919847   0.4806787   0.0041061  )
         8           O   tau(   8) = (   1.5375487   0.4642425   0.6306714  )
         9           O   tau(   9) = (   0.5730212   0.1730162   0.3448904  )
        10           O   tau(  10) = (   0.5185852   0.1565799   0.9714556  )
        11           O   tau(  11) = (   1.2580392   0.3798483   0.2863732  )
        12           O   tau(  12) = (   0.2824758   0.0852898   0.6069194  )

   Crystallographic axes

     site n.     atom                  positions (cryst. coord.)
         1           Zr  tau(   1) = (  0.9001490  0.9001490  0.7100640  )
         2           Zr  tau(   2) = (  0.8053900  0.8053900  0.2870550  )
         3           Zr  tau(   3) = (  0.1946100  0.1946100  0.7129450  )
         4           Zr  tau(   4) = (  0.0998510  0.0998510  0.2899360  )
         5           O   tau(   5) = (  0.9401320  0.9401320  0.3778770  )
         6           O   tau(   6) = (  0.3581050  0.3581050  0.7064530  )
         7           O   tau(   7) = (  0.8679220  0.8679220  0.0042090  )
         8           O   tau(   8) = (  0.7409260  0.7409260  0.6464700  )
         9           O   tau(   9) = (  0.2590740  0.2590740  0.3535300  )
        10           O   tau(  10) = (  0.1320780  0.1320780  0.9957910  )
        11           O   tau(  11) = (  0.6418950  0.6418950  0.2935470  )
        12           O   tau(  12) = (  0.0598680  0.0598680  0.6221230  )

     number of k points=    14
                       cart. coord. in units 2pi/alat
        k(    1) = (   0.0000000   0.0000000   0.0000000), wk =   0.0740741
        k(    2) = (   0.0000000   0.0000000   0.3416835), wk =   0.1481481
        k(    3) = (   0.0000000   0.6023148  -0.0517619), wk =   0.1481481
        k(    4) = (   0.0000000   0.6023148   0.2899216), wk =   0.1481481
        k(    5) = (   0.0000000   0.6023148  -0.3934454), wk =   0.1481481
        k(    6) = (   0.3333333  -0.5016692  -0.0517619), wk =   0.1481481
        k(    7) = (   0.3333333  -0.5016692   0.2899216), wk =   0.1481481
        k(    8) = (   0.3333333  -0.5016692  -0.3934454), wk =   0.1481481
        k(    9) = (   0.3333333   0.1006456  -0.1035238), wk =   0.1481481
        k(   10) = (   0.3333333   0.1006456   0.2381596), wk =   0.1481481
        k(   11) = (   0.3333333   0.1006456  -0.4452073), wk =   0.1481481
        k(   12) = (   0.3333333  -1.1039840   0.0000000), wk =   0.1481481
        k(   13) = (   0.3333333  -1.1039840   0.3416835), wk =   0.1481481
        k(   14) = (   0.3333333  -1.1039840  -0.3416835), wk =   0.1481481

                       cryst. coord.
        k(    1) = (   0.0000000   0.0000000   0.0000000), wk =   0.0740741
        k(    2) = (   0.0000000   0.0000000   0.3333333), wk =   0.1481481
        k(    3) = (   0.0000000   0.3333333   0.0000000), wk =   0.1481481
        k(    4) = (   0.0000000   0.3333333   0.3333333), wk =   0.1481481
        k(    5) = (   0.0000000   0.3333333  -0.3333333), wk =   0.1481481
        k(    6) = (   0.3333333   0.0000000   0.0000000), wk =   0.1481481
        k(    7) = (   0.3333333   0.0000000   0.3333333), wk =   0.1481481
        k(    8) = (   0.3333333   0.0000000  -0.3333333), wk =   0.1481481
        k(    9) = (   0.3333333   0.3333333   0.0000000), wk =   0.1481481
        k(   10) = (   0.3333333   0.3333333   0.3333333), wk =   0.1481481
        k(   11) = (   0.3333333   0.3333333  -0.3333333), wk =   0.1481481
        k(   12) = (   0.3333333  -0.3333333  -0.0000000), wk =   0.1481481
        k(   13) = (   0.3333333  -0.3333333   0.3333333), wk =   0.1481481
        k(   14) = (   0.3333333  -0.3333333  -0.3333333), wk =   0.1481481

     Check: negative core charge=   -0.000013

     Initial potential from superposition of free atoms

     starting charge      95.9914, renormalised to      96.0000

     negative rho (up, down):  2.426E-01 0.000E+00
     Starting wfcs are   84 randomized atomic wfcs
     Checking if some PAW data can be deallocated...

     Self-consistent Calculation

     iteration #  1     ecut=    30.00 Ry     beta= 0.70
     Davidson diagonalization with overlap

     ethr =  1.00E-02,  avg # of iterations =  2.0

     negative rho (up, down):  2.542E-01 0.000E+00

     total energy              =    -729.07333779 Ry
     estimated scf accuracy    <       4.29795814 Ry

[...]

     total energy              =    -731.28735888 Ry
     estimated scf accuracy    <       0.00000179 Ry

     iteration # 12     ecut=    30.00 Ry     beta= 0.70
     Davidson diagonalization with overlap

     ethr =  1.87E-09,  avg # of iterations =  2.0

     negative rho (up, down):  2.603E-01 0.000E+00

     End of self-consistent calculation

          k = 0.0000 0.0000 0.0000 (  3449 PWs)   bands (ev):

   -41.0484 -41.0257 -40.9986 -40.9922 -19.5347 -19.4978 -19.4801 -19.2786
   -19.1712 -19.1223 -19.1063 -19.0306 -19.0211 -19.0202 -19.0081 -18.9763
   -10.6906 -10.3688 -10.0464 -10.0114  -9.5351  -9.4768  -8.9208  -8.9017
     2.5347   2.5614   2.8166   2.9081   3.3290   3.4335   3.6756   3.7321
     3.7814   4.2400   4.4873   4.5857   4.5985   4.8599   5.0455   5.0981
     5.1502   5.2193   5.3057   5.4635   5.6695   5.7286   5.7947   5.9727
    10.4146  10.6854  10.8185  11.1340  11.2310  11.6101  11.6708  12.2160
    12.6040  12.7862  12.7904  12.8529  12.9915  13.4690  13.5463  13.8901

     occupation numbers
     1.0000   1.0000   1.0000   1.0000   1.0000   1.0000   1.0000   1.0000
     1.0000   1.0000   1.0000   1.0000   1.0000   1.0000   1.0000   1.0000
     1.0000   1.0000   1.0000   1.0000   1.0000   1.0000   1.0000   1.0000
     1.0000   1.0000   1.0000   1.0000   1.0000   1.0000   1.0000   1.0000
     1.0000   1.0000   1.0000   1.0000   1.0000   1.0000   1.0000   1.0000
     1.0000   1.0000   1.0000   1.0000   1.0000   1.0000   1.0000   1.0000
     0.0000   0.0000   0.0000   0.0000   0.0000   0.0000   0.0000   0.0000
     0.0000   0.0000   0.0000   0.0000   0.0000   0.0000   0.0000   0.0000

[...]

          k = 0.3333-1.1040-0.3417 (  3449 PWs)   bands (ev):

   -41.0313 -41.0229 -41.0071 -40.9905 -19.5063 -19.4501 -19.4148 -19.3907
   -19.3461 -19.2720 -19.2259 -19.1524 -19.0756 -19.0447 -19.0285 -19.0170
   -10.0104  -9.9556  -9.7272  -9.6586  -9.3408  -9.2517  -8.9515  -8.8806
     2.2835   2.3585   2.7303   2.8694   2.9254   3.0650   3.0887   3.5832
     3.8061   3.8614   4.0327   4.1270   4.4657   4.5422   4.7554   4.9282
     5.0902   5.2287   5.3225   5.4578   5.5646   5.7173   5.9654   6.1063
    10.8188  10.9572  11.0741  11.2715  11.5043  11.5862  11.6355  11.8874
    12.2229  12.2844  12.7155  12.7599  13.2720  13.5213  13.8815  14.0485

     occupation numbers
     1.0000   1.0000   1.0000   1.0000   1.0000   1.0000   1.0000   1.0000
     1.0000   1.0000   1.0000   1.0000   1.0000   1.0000   1.0000   1.0000
     1.0000   1.0000   1.0000   1.0000   1.0000   1.0000   1.0000   1.0000
     1.0000   1.0000   1.0000   1.0000   1.0000   1.0000   1.0000   1.0000
     1.0000   1.0000   1.0000   1.0000   1.0000   1.0000   1.0000   1.0000
     1.0000   1.0000   1.0000   1.0000   1.0000   1.0000   1.0000   1.0000
     0.0000   0.0000   0.0000   0.0000   0.0000   0.0000   0.0000   0.0000
     0.0000   0.0000   0.0000   0.0000   0.0000   0.0000   0.0000   0.0000

     highest occupied, lowest unoccupied level (ev):     6.1063   10.3695

!    total energy              =    -731.28735907 Ry
     estimated scf accuracy    <       0.00000006 Ry

     The total energy is the sum of the following terms:
     one-electron contribution =    -300.90635091 Ry
     hartree contribution      =     193.75912967 Ry
     xc contribution           =    -130.77761137 Ry
     ewald contribution        =    -417.19855670 Ry
     one-center paw contrib.   =     -76.16396976 Ry
      -> PAW hartree energy AE =       0.00000000 Ry
      -> PAW hartree energy PS =       0.00000000 Ry
      -> PAW xc energy AE      =       0.00000000 Ry
      -> PAW xc energy PS      =       0.00000000 Ry
      -> total E_H with PAW    =     193.75912967 Ry
      -> total E_XC with PAW   =    -130.77761137 Ry

     convergence has been achieved in  12 iterations

     Writing all to output data dir bands_nm/myprefix.save/

     General routines

     Parallel routines

     PAW routines

   This run was terminated on:  15:33:21  16Jul2023

   JOB DONE.