     Program PWSCF v.7.1 starts on 15Jul2023 at 21:19:35

     Reading input from espresso_24977.pwi
Warning: card &CELL ignored
Warning: card / ignored

     Current dimensions of program PWSCF are:
     Max number of different atomic species (ntypx) = 10
     Max number of k-points (npk) =  40000
     Max angular momentum in pseudopotentials (lmaxx) =  4
     Message from routine setup:
     using ibrav=0 with symmetry is DISCOURAGED, use correct ibrav instead

     K-points division:     npool     =       2
     R & G space division:  proc/nbgrp/npool/nimage =       4
     Subspace diagonalization in iterative solution of the eigenvalue problem:
     one sub-group per band group will be used

     Using Slab Decomposition

     bravais-lattice index     =            0
     lattice parameter (alat)  =      11.7310  a.u.
     unit-cell volume          =    1614.3761 (a.u.)^3
     number of atoms/cell      =           12
     number of atomic types    =            3
     number of electrons       =       144.00
     number of Kohn-Sham states=          256
     kinetic-energy cutoff     =      30.0000  Ry
     charge density cutoff     =     240.0000  Ry
     scf convergence threshold =      1.0E-06
     mixing beta               =       0.7000
     number of iterations used =            8  plain     mixing
     Exchange-correlation=  SLA  PW   PBX  PBC
                           (   1   4   3   4   0   0   0)

     celldm(1)=  11.730996  celldm(2)=   0.000000  celldm(3)=   0.000000
     celldm(4)=   0.000000  celldm(5)=   0.000000  celldm(6)=   0.000000

     crystal axes: (cart. coord. in units of alat)
               a(1) = (   1.000000   0.000000   0.000000 )
               a(2) = (   0.000000   1.000000   0.000000 )
               a(3) = (   0.000000   0.000000   1.000000 )

     reciprocal axes: (cart. coord. in units 2 pi/alat)
               b(1) = (  1.000000  0.000000  0.000000 )
               b(2) = (  0.000000  1.000000  0.000000 )
               b(3) = (  0.000000  0.000000  1.000000 )

     PseudoPot. # 1 for Sn read from file:
     /lustre07/scratch/pragov/crystal_structure_design/utils/SSSP/Sn_pbe_v1.uspp.F.UPF
     MD5 check sum: 4cf58ce39ec5d5d420df3dd08604eb00
     Pseudo is Ultrasoft + core correction, Zval = 14.0
     Generated by new atomic code, or converted to UPF format
     Using radial grid of  891 points,  6 beta functions with:
                l(1) =   0
                l(2) =   0
                l(3) =   1
                l(4) =   1
                l(5) =   2
                l(6) =   2
     Q(r) pseudized with  6 coefficients,  rinner =    1.200   1.200   1.200
                                                       1.200   1.200

     PseudoPot. # 2 for Pt read from file:
     /lustre07/scratch/pragov/crystal_structure_design/utils/SSSP/pt_pbe_v1.4.uspp.F.UPF
     MD5 check sum: f09d6de1a584b5a045c4fc126da2d0c4
     Pseudo is Ultrasoft + core correction, Zval = 16.0
     Generated by new atomic code, or converted to UPF format
     Using radial grid of  985 points,  6 beta functions with:
                l(1) =   0
                l(2) =   0
                l(3) =   1
                l(4) =   1
                l(5) =   2
                l(6) =   2
     Q(r) pseudized with  8 coefficients,  rinner =    1.300   1.300   1.300
                                                       1.300   1.300

     PseudoPot. # 3 for S  read from file:
     /lustre07/scratch/pragov/crystal_structure_design/utils/SSSP/s_pbe_v1.4.uspp.F.UPF
     MD5 check sum: 88d86576ff6df21479756cfb9bdac1df
     Pseudo is Ultrasoft + core correction, Zval =  6.0
     Generated by new atomic code, or converted to UPF format
     Using radial grid of  907 points,  6 beta functions with:
                l(1) =   0
                l(2) =   0
                l(3) =   1
                l(4) =   1
                l(5) =   2
                l(6) =   2
     Q(r) pseudized with  8 coefficients,  rinner =    1.300   1.300   1.300
                                                       1.300   1.300

     atomic species   valence    mass     pseudopotential
        Sn            14.00   118.71000     Sn( 1.00)
        Pt            16.00   195.08400     Pt( 1.00)
        S              6.00    32.06000     S ( 1.00)

     12 Sym. Ops. (no inversion) found ( 9 have fractional translation)

                                    s                        frac. trans.

      isym =  1     identity

 cryst.   s( 1) = (     1          0          0      )
                  (     0          1          0      )
                  (     0          0          1      )

 cart.    s( 1) = (  1.0000000  0.0000000  0.0000000 )
                  (  0.0000000  1.0000000  0.0000000 )
                  (  0.0000000  0.0000000  1.0000000 )

      isym =  2     180 deg rotation - cart. axis [0,0,1]

 cryst.   s( 2) = (    -1          0          0      )    f =(  0.5000000 )
                  (     0         -1          0      )       (  0.0000000 )
                  (     0          0          1      )       (  0.5000000 )

 cart.    s( 2) = ( -1.0000000  0.0000000  0.0000000 )    f =(  0.5000000 )
                  (  0.0000000 -1.0000000  0.0000000 )       (  0.0000000 )
                  (  0.0000000  0.0000000  1.0000000 )       (  0.5000000 )

[...]

 cryst.   s( 8) = (     0          0          1      )    f =(  0.5000000 )
                  (    -1          0          0      )       (  0.0000000 )
                  (     0         -1          0      )       (  0.5000000 )

 cart.    s( 8) = (  0.0000000 -1.0000000  0.0000000 )    f =(  0.5000000 )
                  (  0.0000000  0.0000000 -1.0000000 )       (  0.0000000 )
                  (  1.0000000  0.0000000  0.0000000 )       (  0.5000000 )

[...]

 cryst.   s( 9) = (     0          1          0      )
                  (     0          0          1      )
                  (     1          0          0      )

 cart.    s( 9) = (  0.0000000  0.0000000  1.0000000 )
                  (  1.0000000  0.0000000  0.0000000 )
                  (  0.0000000  1.0000000  0.0000000 )

[...]

 cryst.   s(10) = (     0         -1          0      )    f =(  0.5000000 )
                  (     0          0         -1      )       (  0.5000000 )
                  (     1          0          0      )       (  0.0000000 )

 cart.    s(10) = (  0.0000000  0.0000000  1.0000000 )    f =(  0.5000000 )
                  ( -1.0000000  0.0000000  0.0000000 )       (  0.5000000 )
                  (  0.0000000 -1.0000000  0.0000000 )       (  0.0000000 )

[...]

      isym = 12     120 deg rotation - cart. axis [-1,-1,1]

 cryst.   s(12) = (     0          1          0      )    f =(  0.0000000 )
                  (     0          0         -1      )       ( -0.5000000 )
                  (    -1          0          0      )       (  0.5000000 )

 cart.    s(12) = (  0.0000000  0.0000000 -1.0000000 )    f =(  0.0000000 )
                  (  1.0000000  0.0000000  0.0000000 )       ( -0.5000000 )
                  (  0.0000000 -1.0000000  0.0000000 )       (  0.5000000 )

   Cartesian axes

     site n.     atom                  positions (alat units)
         1           Sn  tau(   1) = (   0.1177660   0.6177660   0.8822340  )
         2           Sn  tau(   2) = (   0.6177660   0.8822340   0.1177660  )
         3           Sn  tau(   3) = (   0.8822340   0.1177660   0.6177660  )
         4           Sn  tau(   4) = (   0.3822340   0.3822340   0.3822340  )
         5           Pt  tau(   5) = (   0.4888770   0.9888770   0.5111230  )
         6           Pt  tau(   6) = (   0.9888770   0.5111230   0.4888770  )
         7           Pt  tau(   7) = (   0.5111230   0.4888770   0.9888770  )
         8           Pt  tau(   8) = (   0.0111230   0.0111230   0.0111230  )
         9           S   tau(   9) = (   0.8797660   0.3797660   0.1202340  )
        10           S   tau(  10) = (   0.3797660   0.1202340   0.8797660  )
        11           S   tau(  11) = (   0.1202340   0.8797660   0.3797660  )
        12           S   tau(  12) = (   0.6202340   0.6202340   0.6202340  )

   Crystallographic axes

     site n.     atom                  positions (cryst. coord.)
         1           Sn  tau(   1) = (  0.1177660  0.6177660  0.8822340  )
         2           Sn  tau(   2) = (  0.6177660  0.8822340  0.1177660  )
         3           Sn  tau(   3) = (  0.8822340  0.1177660  0.6177660  )
         4           Sn  tau(   4) = (  0.3822340  0.3822340  0.3822340  )
         5           Pt  tau(   5) = (  0.4888770  0.9888770  0.5111230  )
         6           Pt  tau(   6) = (  0.9888770  0.5111230  0.4888770  )
         7           Pt  tau(   7) = (  0.5111230  0.4888770  0.9888770  )
         8           Pt  tau(   8) = (  0.0111230  0.0111230  0.0111230  )
         9           S   tau(   9) = (  0.8797660  0.3797660  0.1202340  )
        10           S   tau(  10) = (  0.3797660  0.1202340  0.8797660  )
        11           S   tau(  11) = (  0.1202340  0.8797660  0.3797660  )
        12           S   tau(  12) = (  0.6202340  0.6202340  0.6202340  )

     number of k points=     4
                       cart. coord. in units 2pi/alat
        k(    1) = (   0.0000000   0.0000000   0.0000000), wk =   0.0740741
        k(    2) = (   0.0000000   0.0000000   0.3333333), wk =   0.4444444
        k(    3) = (   0.0000000   0.3333333   0.3333333), wk =   0.8888889
        k(    4) = (   0.3333333   0.3333333   0.3333333), wk =   0.5925926

                       cryst. coord.
        k(    1) = (   0.0000000   0.0000000   0.0000000), wk =   0.0740741
        k(    2) = (   0.0000000   0.0000000   0.3333333), wk =   0.4444444
        k(    3) = (   0.0000000   0.3333333   0.3333333), wk =   0.8888889
        k(    4) = (   0.3333333   0.3333333   0.3333333), wk =   0.5925926

     Initial potential from superposition of free atoms

     starting charge     137.9996, renormalised to     144.0000

     negative rho (up, down):  7.746E-01 0.000E+00
     Starting wfcs are  100 randomized atomic wfcs +  156 random wfcs

     Self-consistent Calculation

     iteration #  1     ecut=    30.00 Ry     beta= 0.70
     Davidson diagonalization with overlap

     ethr =  1.00E-02,  avg # of iterations =  9.2

     negative rho (up, down):  6.603E-01 0.000E+00

     total energy              =   -1581.59989521 Ry
     estimated scf accuracy    <      18.36109061 Ry

[...]

     total energy              =   -1592.60731735 Ry
     estimated scf accuracy    <       0.00000678 Ry

     iteration #  8     ecut=    30.00 Ry     beta= 0.70
     Davidson diagonalization with overlap

     ethr =  4.71E-09,  avg # of iterations =  2.8

     negative rho (up, down):  7.099E-01 0.000E+00

     End of self-consistent calculation

          k = 0.0000 0.0000 0.0000 (  4457 PWs)   bands (ev):

   -40.1885 -40.1885 -40.1885 -40.1878 -40.1878 -40.1876 -40.1876 -40.1876
   -40.1247 -40.1245 -40.1245 -40.1245  -8.6069  -8.5954  -8.5954  -8.5954
    -8.5413  -8.5413  -8.5413  -8.5322  -8.5322  -8.5213  -8.5213  -8.5213
    -8.4759  -8.4759  -8.4759  -8.4549  -8.4549  -8.4549  -8.4363  -8.4363
    -1.5000  -0.5466  -0.5466  -0.5466   5.0916   5.0916   5.0916   5.3749
     6.8403   6.8403   6.8403   7.4051   7.4051   7.4051   7.6651   7.6651
     8.1077   8.1077   8.1077   9.3829   9.4284   9.4284   9.4284   9.5225
     9.5225   9.5225   9.6788   9.6788   9.8464   9.8464   9.8464   9.9482
     9.9482  10.2553  10.7102  10.7102  10.7102  11.9470  11.9470  11.9470
    13.2178  13.2178  13.2178  14.7297  15.9011  15.9011  15.9011  17.1624
    17.1624  17.5746  17.5746  17.5746  18.6823  18.9041  18.9041  18.9041
    19.6387  19.6387  19.6387  21.0967  21.9719  21.9719  21.9719  22.0446
    22.0446  22.7737  22.7737  22.7737  23.0996  23.0996  23.0996  23.8991
    23.8991  24.0795  24.0795  24.0795  24.5649  24.7963  24.7963  24.7963
    25.7524  25.7524  25.7524  26.0900  26.0900  27.1845  27.3378  27.3378
    27.3378  28.1172  28.1172  28.1172  28.6454  28.6454  28.6454  28.8035
    28.8035  29.4350  30.1406  30.1406  30.1406  30.8546  30.8546  30.8546
    31.0457  31.0457  31.4775  31.4775  31.4775  31.8698  31.8698  31.8698
    31.8743  32.9190  32.9190  32.9190  33.2224  33.7787  33.9434  33.9434
    33.9434  35.7829  35.7829  35.7829  35.8586  35.8586  35.8586  36.2991
    36.2991  36.7432  36.7432  36.8543  36.8543  36.8543  37.6065  37.6065
    37.6065  38.3713  38.3713  38.3713  38.6738  38.6738  38.6738  38.8448
    38.8448  38.8448  39.1431  39.2885  39.2885  40.4990  40.5429  40.5429
    40.5429  40.9255  40.9255  40.9255  41.1614  41.4069  41.4069  41.4069
    41.5740  41.5740  41.7774  41.7774  41.7774  42.1359  42.1359  42.1359
    42.4037  42.4037  42.4037  42.7480  42.7480  42.7480  43.1506  43.3494
    43.3494  43.3494  43.9210  44.8030  44.8030  44.8030  44.9353  45.0221
    45.0221  45.7443  45.7443  45.7443  46.3814  46.3814  46.3814  46.4807
    46.4807  46.4807  47.1848  47.1848  47.1848  47.3388  47.3388  48.1088
    48.1088  48.1088  48.8266  48.8266  48.8266  49.4202  49.7568  49.7568
    49.7568  49.8489  49.8489  50.2107  50.2950  50.2950  50.2950  50.5831
    51.0703  51.0703  51.0703  51.6185  51.6185  51.6186  51.9476  51.9476

     occupation numbers
     1.0000   1.0000   1.0000   1.0000   1.0000   1.0000   1.0000   1.0000
     1.0000   1.0000   1.0000   1.0000   1.0000   1.0000   1.0000   1.0000
     1.0000   1.0000   1.0000   1.0000   1.0000   1.0000   1.0000   1.0000
     1.0000   1.0000   1.0000   1.0000   1.0000   1.0000   1.0000   1.0000
     1.0000   1.0000   1.0000   1.0000   1.0000   1.0000   1.0000   1.0000
     1.0000   1.0000   1.0000   1.0000   1.0000   1.0000   1.0000   1.0000
     1.0000   1.0000   1.0000   1.0000   1.0000   1.0000   1.0000   1.0000
     1.0000   1.0000   1.0000   1.0000   1.0000   1.0000   1.0000   1.0000
     1.0000   1.0000   1.0000   1.0000   1.0000   1.0000   1.0000   1.0000
     0.0000   0.0000   0.0000   0.0000   0.0000   0.0000   0.0000   0.0000
     0.0000   0.0000   0.0000   0.0000   0.0000   0.0000   0.0000   0.0000
     0.0000   0.0000   0.0000   0.0000   0.0000   0.0000   0.0000   0.0000
     0.0000   0.0000   0.0000   0.0000   0.0000   0.0000   0.0000   0.0000
     0.0000   0.0000   0.0000   0.0000   0.0000   0.0000   0.0000   0.0000
     0.0000   0.0000   0.0000   0.0000   0.0000   0.0000   0.0000   0.0000
     0.0000   0.0000   0.0000   0.0000   0.0000   0.0000   0.0000   0.0000
     0.0000   0.0000   0.0000   0.0000   0.0000   0.0000   0.0000   0.0000
     0.0000   0.0000   0.0000   0.0000   0.0000   0.0000   0.0000   0.0000
     0.0000   0.0000   0.0000   0.0000   0.0000   0.0000   0.0000   0.0000
     0.0000   0.0000   0.0000   0.0000   0.0000   0.0000   0.0000   0.0000
     0.0000   0.0000   0.0000   0.0000   0.0000   0.0000   0.0000   0.0000
     0.0000   0.0000   0.0000   0.0000   0.0000   0.0000   0.0000   0.0000
     0.0000   0.0000   0.0000   0.0000   0.0000   0.0000   0.0000   0.0000
     0.0000   0.0000   0.0000   0.0000   0.0000   0.0000   0.0000   0.0000
     0.0000   0.0000   0.0000   0.0000   0.0000   0.0000   0.0000   0.0000
     0.0000   0.0000   0.0000   0.0000   0.0000   0.0000   0.0000   0.0000
     0.0000   0.0000   0.0000   0.0000   0.0000   0.0000   0.0000   0.0000
     0.0000   0.0000   0.0000   0.0000   0.0000   0.0000   0.0000   0.0000
     0.0000   0.0000   0.0000   0.0000   0.0000   0.0000   0.0000   0.0000
     0.0000   0.0000   0.0000   0.0000   0.0000   0.0000   0.0000   0.0000
     0.0000   0.0000   0.0000   0.0000   0.0000   0.0000   0.0000   0.0000
     0.0000   0.0000   0.0000   0.0000   0.0000   0.0000   0.0000   0.0000

[...]

          k = 0.3333 0.3333 0.3333 (  4476 PWs)   bands (ev):

   -40.1885 -40.1884 -40.1884 -40.1883 -40.1877 -40.1877 -40.1877 -40.1876
   -40.1247 -40.1246 -40.1246 -40.1246  -8.6052  -8.6034  -8.5978  -8.5964
    -8.5453  -8.5437  -8.5398  -8.5392  -8.5259  -8.5228  -8.5189  -8.5176
    -8.4696  -8.4694  -8.4636  -8.4566  -8.4563  -8.4486  -8.4480  -8.4464
    -0.9513  -0.7663  -0.5860  -0.4995   4.0812   4.1806   4.8849   4.9662
     6.7555   6.8220   6.9164   7.2171   7.3884   7.4490   7.5250   7.5931
     8.5688   8.7082   8.7410   9.1464   9.2923   9.3209   9.5042   9.5559
     9.6446   9.6908   9.7110   9.7628  10.0738  10.0953  10.2540  10.5611
    10.7202  10.7883  10.7887  11.2666  11.2770  11.7617  11.9371  11.9781
    13.3132  13.7292  14.5307  14.7228  14.9921  15.8683  16.0221  16.0782
    16.4776  16.4805  17.0210  17.1920  17.5005  17.9988  18.3567  18.4908
    19.7776  20.2534  20.3605  20.5066  20.5334  20.8535  20.8589  21.1784
    21.6883  21.9056  22.0410  22.1837  22.8123  22.9022  23.1685  23.5554
    23.9458  24.1793  24.8193  24.9077  25.4028  25.4256  25.6335  25.8855
    26.3647  26.3722  26.4358  26.7401  26.9805  27.2551  27.6255  27.8229
    27.9566  28.2471  28.3991  28.4975  28.5469  29.3360  29.4261  29.7183
    29.8106  30.2156  30.3411  30.7004  30.8048  30.8140  31.2322  31.2879
    31.8518  31.8575  31.8660  31.8662  31.9190  32.0069  32.1646  32.4668
    32.5491  32.9140  33.1330  33.2128  33.3871  33.4059  33.5238  34.1761
    34.1782  34.4396  34.4625  34.8030  34.8138  35.1276  35.2157  35.6404
    35.8982  35.9214  35.9357  36.2986  36.3419  36.3831  36.5357  37.0478
    37.1370  37.2401  37.5254  37.7583  37.9451  37.9680  38.5547  38.7035
    38.7551  38.8855  38.9971  39.2440  39.3455  39.4021  39.9447  40.1389
    40.3695  40.5118  40.5215  40.8705  40.9272  41.1104  41.1114  41.1442
    41.2185  41.2472  41.2713  41.4101  41.5603  42.0901  42.2182  42.3565
    42.4014  42.4736  42.8520  42.9547  43.1287  43.2802  43.7747  43.9969
    44.2318  44.2473  44.2773  44.5237  44.8814  44.9681  45.1415  45.1450
    45.4591  45.6335  45.8482  46.1926  46.2978  46.2991  46.5960  46.6960
    46.7100  46.9878  47.4277  47.4519  47.4804  47.7467  48.1521  48.2111
    48.2309  48.4021  48.5189  48.5931  48.6276  48.9224  49.0551  49.1951
    49.4206  49.7936  49.8990  50.0459  50.2796  50.6086  50.6473  50.6505
    51.0166  51.2113  51.2947  51.6179  51.6399  51.8191  52.1472  52.2617

     occupation numbers
     1.0000   1.0000   1.0000   1.0000   1.0000   1.0000   1.0000   1.0000
     1.0000   1.0000   1.0000   1.0000   1.0000   1.0000   1.0000   1.0000
     1.0000   1.0000   1.0000   1.0000   1.0000   1.0000   1.0000   1.0000
     1.0000   1.0000   1.0000   1.0000   1.0000   1.0000   1.0000   1.0000
     1.0000   1.0000   1.0000   1.0000   1.0000   1.0000   1.0000   1.0000
     1.0000   1.0000   1.0000   1.0000   1.0000   1.0000   1.0000   1.0000
     1.0000   1.0000   1.0000   1.0000   1.0000   1.0000   1.0000   1.0000
     1.0000   1.0000   1.0000   1.0000   1.0000   1.0000   1.0000   1.0000
     1.0000   1.0000   1.0000   1.0000   1.0000   1.0000   1.0000   1.0000
     0.0000   0.0000   0.0000   0.0000   0.0000   0.0000   0.0000   0.0000
     0.0000   0.0000   0.0000   0.0000   0.0000   0.0000   0.0000   0.0000
     0.0000   0.0000   0.0000   0.0000   0.0000   0.0000   0.0000   0.0000
     0.0000   0.0000   0.0000   0.0000   0.0000   0.0000   0.0000   0.0000
     0.0000   0.0000   0.0000   0.0000   0.0000   0.0000   0.0000   0.0000
     0.0000   0.0000   0.0000   0.0000   0.0000   0.0000   0.0000   0.0000
     0.0000   0.0000   0.0000   0.0000   0.0000   0.0000   0.0000   0.0000
     0.0000   0.0000   0.0000   0.0000   0.0000   0.0000   0.0000   0.0000
     0.0000   0.0000   0.0000   0.0000   0.0000   0.0000   0.0000   0.0000
     0.0000   0.0000   0.0000   0.0000   0.0000   0.0000   0.0000   0.0000
     0.0000   0.0000   0.0000   0.0000   0.0000   0.0000   0.0000   0.0000
     0.0000   0.0000   0.0000   0.0000   0.0000   0.0000   0.0000   0.0000
     0.0000   0.0000   0.0000   0.0000   0.0000   0.0000   0.0000   0.0000
     0.0000   0.0000   0.0000   0.0000   0.0000   0.0000   0.0000   0.0000
     0.0000   0.0000   0.0000   0.0000   0.0000   0.0000   0.0000   0.0000
     0.0000   0.0000   0.0000   0.0000   0.0000   0.0000   0.0000   0.0000
     0.0000   0.0000   0.0000   0.0000   0.0000   0.0000   0.0000   0.0000
     0.0000   0.0000   0.0000   0.0000   0.0000   0.0000   0.0000   0.0000
     0.0000   0.0000   0.0000   0.0000   0.0000   0.0000   0.0000   0.0000
     0.0000   0.0000   0.0000   0.0000   0.0000   0.0000   0.0000   0.0000
     0.0000   0.0000   0.0000   0.0000   0.0000   0.0000   0.0000   0.0000
     0.0000   0.0000   0.0000   0.0000   0.0000   0.0000   0.0000   0.0000
     0.0000   0.0000   0.0000   0.0000   0.0000   0.0000   0.0000   0.0000

     highest occupied, lowest unoccupied level (ev):    12.4402   13.2178

!    total energy              =   -1592.60731866 Ry
     estimated scf accuracy    <       0.00000042 Ry

     The total energy is the sum of the following terms:
     one-electron contribution =    -451.87547474 Ry
     hartree contribution      =     324.23725983 Ry
     xc contribution           =    -452.01006448 Ry
     ewald contribution        =   -1012.95903928 Ry

     convergence has been achieved in   8 iterations

     Writing all to output data dir bands_nm/myprefix.save/

     General routines

     Parallel routines

   This run was terminated on:  21:19:52  15Jul2023

   JOB DONE.