     Program PWSCF v.7.1 starts on 15Jul2023 at 20:40: 0

     Reading input from espresso_21563.pwi
Warning: card &CELL ignored
Warning: card / ignored

     Current dimensions of program PWSCF are:
     Max number of different atomic species (ntypx) = 10
     Max number of k-points (npk) =  40000
     Max angular momentum in pseudopotentials (lmaxx) =  4
     file K.pbe-spn-kjpaw_psl.1.0.0.UPF: wavefunction(s)  3S renormalized
     file O.pbe-n-kjpaw_psl.0.1.UPF: wavefunction(s)  2P renormalized
     Message from routine setup:
     using ibrav=0 with symmetry is DISCOURAGED, use correct ibrav instead

     K-points division:     npool     =       2
     R & G space division:  proc/nbgrp/npool/nimage =       4
     Subspace diagonalization in iterative solution of the eigenvalue problem:
     one sub-group per band group will be used

     Using Slab Decomposition

     bravais-lattice index     =            0
     lattice parameter (alat)  =      10.4876  a.u.
     unit-cell volume          =    1780.6490 (a.u.)^3
     number of atoms/cell      =           20
     number of atomic types    =            5
     number of electrons       =       170.00
     number of Kohn-Sham states=          256
     kinetic-energy cutoff     =      30.0000  Ry
     charge density cutoff     =     240.0000  Ry
     scf convergence threshold =      1.0E-06
     mixing beta               =       0.7000
     number of iterations used =            8  plain     mixing
     Exchange-correlation= SLA  PW   PBX  PBC
                           (   1   4   3   4   0   0   0)

     celldm(1)=  10.487575  celldm(2)=   0.000000  celldm(3)=   0.000000
     celldm(4)=   0.000000  celldm(5)=   0.000000  celldm(6)=   0.000000

     crystal axes: (cart. coord. in units of alat)
               a(1) = (   1.000000   0.000000   0.000000 )
               a(2) = (   0.000000   1.032550   0.000000 )
               a(3) = (  -0.017278   0.000000   1.495002 )

     reciprocal axes: (cart. coord. in units 2 pi/alat)
               b(1) = (  1.000000  0.000000  0.011557 )
               b(2) = (  0.000000  0.968476  0.000000 )
               b(3) = (  0.000000  0.000000  0.668895 )

     PseudoPot. # 1 for K  read from file:
     /lustre07/scratch/pragov/crystal_structure_design/utils/SSSP/K.pbe-spn-kjpaw_psl.1.0.0.UPF
     MD5 check sum: 7d58810084cac21f60fbe77ea2b688fd
     Pseudo is Projector augmented-wave + core cor, Zval =  9.0
     Generated using "atomic" code by A. Dal Corso  v.5.1
     Shape of augmentation charge: PSQ
     Using radial grid of 1165 points,  6 beta functions with:
                l(1) =   0
                l(2) =   0
                l(3) =   1
                l(4) =   1
                l(5) =   2
                l(6) =   2
     Q(r) pseudized with 0 coefficients

     PseudoPot. # 2 for Y  read from file:
     /lustre07/scratch/pragov/crystal_structure_design/utils/SSSP/Y_pbe_v1.uspp.F.UPF
     MD5 check sum: 2cf71db95cafeb975fc457bd7f14888e
     Pseudo is Ultrasoft + core correction, Zval = 11.0
     Generated by new atomic code, or converted to UPF format
     Using radial grid of  885 points,  6 beta functions with:
                l(1) =   0
                l(2) =   0
                l(3) =   1
                l(4) =   1
                l(5) =   2
                l(6) =   2
     Q(r) pseudized with  6 coefficients,  rinner =    1.200   1.200   1.200
                                                       1.200   1.200

     PseudoPot. # 3 for Mn read from file:
     /lustre07/scratch/pragov/crystal_structure_design/utils/SSSP/mn_pbe_v1.5.uspp.F.UPF
     MD5 check sum: 82ef2b46521d7a7d9e736dc3972e4928
     Pseudo is Ultrasoft + core correction, Zval = 15.0
     Generated by new atomic code, or converted to UPF format
     Using radial grid of  859 points,  6 beta functions with:
                l(1) =   0
                l(2) =   0
                l(3) =   1
                l(4) =   1
                l(5) =   2
                l(6) =   2
     Q(r) pseudized with  8 coefficients,  rinner =    0.950   0.950   0.950
                                                       0.950   0.950

     PseudoPot. # 4 for W  read from file:
     /lustre07/scratch/pragov/crystal_structure_design/utils/SSSP/W_pbe_v1.2.uspp.F.UPF
     MD5 check sum: 9c083fa34c2a2ea0f02f1f893e16e1c8
     Pseudo is Ultrasoft + core correction, Zval = 14.0
     Generated by new atomic code, or converted to UPF format
     Using radial grid of  923 points,  8 beta functions with:
                l(1) =   0
                l(2) =   0
                l(3) =   0
                l(4) =   1
                l(5) =   1
                l(6) =   2
                l(7) =   2
                l(8) =   3
     Q(r) pseudized with  6 coefficients,  rinner =    1.350   1.350   1.350
                                                       1.350   1.350   1.350
                                                       1.350

     PseudoPot. # 5 for O  read from file:
     /lustre07/scratch/pragov/crystal_structure_design/utils/SSSP/O.pbe-n-kjpaw_psl.0.1.UPF
     MD5 check sum: 0234752ac141de4415c5fc33072bef88
     Pseudo is Projector augmented-wave + core cor, Zval =  6.0
     Generated using "atomic" code by A. Dal Corso  v.5.0.99 svn rev. 10869
     Shape of augmentation charge: BESSEL
     Using radial grid of 1095 points,  4 beta functions with:
                l(1) =   0
                l(2) =   0
                l(3) =   1
                l(4) =   1
     Q(r) pseudized with 0 coefficients

     atomic species   valence    mass     pseudopotential
        K              9.00    39.09830     K ( 1.00)
        Y             11.00    88.90584     Y ( 1.00)
        Mn            15.00    54.93804     Mn( 1.00)
        W             14.00   183.84000     W ( 1.00)
        O              6.00    15.99900     O ( 1.00)

      2 Sym. Ops. (no inversion) found ( 1 have fractional translation)

                                    s                        frac. trans.

      isym =  1     identity

 cryst.   s( 1) = (     1          0          0      )
                  (     0          1          0      )
                  (     0          0          1      )

 cart.    s( 1) = (  1.0000000  0.0000000  0.0000000 )
                  (  0.0000000  1.0000000  0.0000000 )
                  (  0.0000000  0.0000000  1.0000000 )

      isym =  2     180 deg rotation - cart. axis [0,1,0]

 cryst.   s( 2) = (    -1          0          0      )    f =( -0.0000000 )
                  (     0          1          0      )       (  0.5000000 )
                  (     0          0         -1      )       ( -0.0000000 )

 cart.    s( 2) = ( -1.0000000  0.0000000  0.0000000 )    f =( -0.0000000 )
                  (  0.0000000  1.0000000  0.0000000 )       (  0.5162752 )
                  (  0.0000000  0.0000000 -1.0000000 )       ( -0.0000000 )

   Cartesian axes

     site n.     atom                  positions (alat units)
         1           K   tau(   1) = (   0.2455006   0.7729218   0.0054029  )
         2           K   tau(   2) = (   0.7372219   0.2566466   1.4895989  )
         3           Y   tau(   3) = (   0.2496392   0.8643397   0.7502682  )
         4           Y   tau(   4) = (   0.7330832   0.3480645   0.7447337  )
         5           Mn  tau(   5) = (   0.7445180   0.8059707   0.3761395  )
         6           Mn  tau(   6) = (   0.2382044   0.2896955   1.1188624  )
         7           W   tau(   7) = (   0.7524914   0.7946859   1.1128061  )
         8           W   tau(   8) = (   0.2302310   0.2784107   0.3821957  )
         9           O   tau(   9) = (   0.5531912   0.0438710   1.0124556  )
        10           O   tau(  10) = (   0.4295313   0.5601462   0.4825462  )
        11           O   tau(  11) = (   0.5204574   0.0795208   0.4855647  )
        12           O   tau(  12) = (   0.4622650   0.5957961   1.0094372  )
        13           O   tau(  13) = (   0.9403614   0.4609398   0.3698724  )
        14           O   tau(  14) = (   0.0423610   0.9772151   1.1251294  )
        15           O   tau(  15) = (   0.9126770   0.4863251   1.1307536  )
        16           O   tau(  16) = (   0.0700454   1.0026003   0.3642482  )
        17           O   tau(  17) = (   0.8475897   0.7538940   0.7530788  )
        18           O   tau(  18) = (   0.1351327   0.2376188   0.7419231  )
        19           O   tau(  19) = (   0.6934813   0.8059170   1.4451705  )
        20           O   tau(  20) = (   0.2892411   0.2896418   0.0498314  )

   Crystallographic axes

     site n.     atom                  positions (cryst. coord.)
         1           K   tau(   1) = (  0.2455630  0.7485560  0.0036140  )
         2           K   tau(   2) = (  0.7544370  0.2485560  0.9963860  )
         3           Y   tau(   3) = (  0.2583100  0.8370920  0.5018510  )
         4           Y   tau(   4) = (  0.7416900  0.3370920  0.4981490  )
         5           Mn  tau(   5) = (  0.7488650  0.7805630  0.2515980  )
         6           Mn  tau(   6) = (  0.2511350  0.2805630  0.7484020  )
         7           W   tau(   7) = (  0.7653520  0.7696340  0.7443510  )
         8           W   tau(   8) = (  0.2346480  0.2696340  0.2556490  )
         9           O   tau(   9) = (  0.5648920  0.0424880  0.6772270  )
        10           O   tau(  10) = (  0.4351080  0.5424880  0.3227730  )
        11           O   tau(  11) = (  0.5260690  0.0770140  0.3247920  )
        12           O   tau(  12) = (  0.4739310  0.5770140  0.6752080  )
        13           O   tau(  13) = (  0.9446360  0.4464090  0.2474060  )
        14           O   tau(  14) = (  0.0553640  0.9464090  0.7525940  )
        15           O   tau(  15) = (  0.9257450  0.4709940  0.7563560  )
        16           O   tau(  16) = (  0.0742550  0.9709940  0.2436440  )
        17           O   tau(  17) = (  0.8562930  0.7301280  0.5037310  )
        18           O   tau(  18) = (  0.1437070  0.2301280  0.4962690  )
        19           O   tau(  19) = (  0.7101830  0.7805110  0.9666680  )
        20           O   tau(  20) = (  0.2898170  0.2805110  0.0333320  )

     number of k points=    10
                       cart. coord. in units 2pi/alat
        k(    1) = (   0.0000000   0.0000000   0.0000000), wk =   0.0740741
        k(    2) = (   0.0000000   0.0000000   0.2229652), wk =   0.1481481
        k(    3) = (   0.0000000   0.3228252   0.0000000), wk =   0.1481481
        k(    4) = (   0.0000000   0.3228252   0.2229652), wk =   0.2962963
        k(    5) = (   0.3333333   0.0000000   0.0038523), wk =   0.1481481
        k(    6) = (   0.3333333   0.0000000   0.2268175), wk =   0.1481481
        k(    7) = (   0.3333333   0.0000000  -0.2191129), wk =   0.1481481
        k(    8) = (   0.3333333   0.3228252   0.0038523), wk =   0.2962963
        k(    9) = (   0.3333333   0.3228252   0.2268175), wk =   0.2962963
        k(   10) = (   0.3333333   0.3228252  -0.2191129), wk =   0.2962963

                       cryst. coord.
        k(    1) = (   0.0000000   0.0000000   0.0000000), wk =   0.0740741
        k(    2) = (   0.0000000   0.0000000   0.3333333), wk =   0.1481481
        k(    3) = (   0.0000000   0.3333333   0.0000000), wk =   0.1481481
        k(    4) = (   0.0000000   0.3333333   0.3333333), wk =   0.2962963
        k(    5) = (   0.3333333   0.0000000  -0.0000000), wk =   0.1481481
        k(    6) = (   0.3333333   0.0000000   0.3333333), wk =   0.1481481
        k(    7) = (   0.3333333   0.0000000  -0.3333333), wk =   0.1481481
        k(    8) = (   0.3333333   0.3333333  -0.0000000), wk =   0.2962963
        k(    9) = (   0.3333333   0.3333333   0.3333333), wk =   0.2962963
        k(   10) = (   0.3333333   0.3333333  -0.3333333), wk =   0.2962963

     Check: negative core charge=   -0.000017

     Initial potential from superposition of free atoms

     starting charge     168.7525, renormalised to     170.0000

     negative rho (up, down):  2.163E-01 0.000E+00
     Starting wfcs are  142 randomized atomic wfcs +  114 random wfcs
     Checking if some PAW data can be deallocated...

     Self-consistent Calculation

     iteration #  1     ecut=    30.00 Ry     beta= 0.70
     Davidson diagonalization with overlap

     ethr =  1.00E-02,  avg # of iterations =  7.0

     negative rho (up, down):  2.079E-01 0.000E+00

     total energy              =   -1639.06857394 Ry
     estimated scf accuracy    <       5.94039104 Ry

[...]

     total energy              =   -1642.24685308 Ry
     estimated scf accuracy    <       0.00000134 Ry

     iteration # 18     ecut=    30.00 Ry     beta= 0.70
     Davidson diagonalization with overlap

     ethr =  7.86E-10,  avg # of iterations =  1.0

     negative rho (up, down):  2.124E-01 0.000E+00

     End of self-consistent calculation

          k = 0.0000 0.0000 0.0000 (  4951 PWs)   bands (ev):

   -68.8096 -68.8094 -65.9383 -65.9383 -37.5655 -37.5628 -37.5493 -37.5468
   -37.5225 -37.5209 -32.0591 -32.0421 -30.1805 -30.1794 -30.1713 -30.1712
   -30.1335 -30.1333 -18.9606 -18.9279 -12.4514 -12.4124 -12.3150 -12.1435
   -12.0744 -12.0543  -9.2382  -8.6666  -8.5020  -8.3511  -8.3418  -8.3041
    -7.9359  -7.9010  -7.8869  -7.8855  -7.6133  -7.5521  -2.6516  -2.6267
    -2.5090  -2.4941  -2.4540  -2.4401   3.2967   3.4608   3.7020   4.0549
     4.0773   4.1225   4.1978   4.3065   4.4437   4.4496   4.5598   4.7413
     5.4461   5.5592   5.5637   5.6644   5.8958   5.9063   6.2657   6.5445
     6.5823   6.6970   6.8372   7.0096   7.0410   7.0973   7.2567   7.3146
     7.3232   7.4350   7.4946   7.6473   7.6948   7.7632   7.7827   7.8704
     9.9852   9.9876  10.0515  10.1099  10.3744  10.4031  10.8253  10.8624
    10.9273  11.1427  11.8711  12.0221  12.1052  12.1455  12.2766  12.3832
    13.5855  14.0343  14.5778  14.5848  14.7200  14.9949  15.0893  15.5768
    15.8794  15.9054  16.0586  16.0748  16.6146  16.7109  16.7378  16.9250
    17.1154  17.3722  17.7970  17.9153  18.0636  18.4767  18.7352  18.9864
    19.1358  19.2092  19.5107  19.5169  19.9144  19.9356  20.6407  20.6458
    21.1505  21.5879  21.7032  21.7420  22.1537  22.2805  22.5065  22.5607
    22.8820  23.0571  23.6514  23.6679  23.8954  23.9931  24.3683  24.4681
    24.5730  24.5862  25.3019  25.6260  25.8499  26.2490  26.5732  26.7571
    26.8454  27.0340  27.5097  27.5483  27.9642  28.3146  28.6765  29.0495
    29.1620  29.1892  29.2932  29.3871  29.6580  29.7328  30.1040  30.3185
    30.5318  30.7206  30.9211  31.0363  31.2600  31.4514  31.6738  31.7684
    32.0716  32.1183  32.5698  32.6460  33.0541  33.0608  33.3456  33.5254
    33.5428  33.7632  34.1133  34.4536  34.6203  34.6515  35.0033  35.1493
    35.2547  35.4185  35.6491  35.8068  35.9690  36.0008  36.2653  36.3341
    36.3426  36.7118  36.8123  36.9967  37.1377  37.1585  37.3739  37.7305
    37.9332  38.1476  38.2736  38.2904  38.6713  38.7447  39.1789  39.2637
    39.5276  39.7534  39.9407  39.9500  40.1153  40.1301  40.4371  40.6663
    40.7909  40.8567  40.9024  41.0177  41.4161  41.5092  41.6603  41.7490
    41.7648  42.0503  42.1771  42.3704  42.4952  42.8645  42.8687  42.9639
    43.1121  43.3444  43.5673  43.6129  43.7326  43.9927  44.0127  44.0275
    44.3840  44.6158  44.7083  44.9071  45.0080  45.2061  45.3384  45.7569

     occupation numbers
     1.0000   1.0000   1.0000   1.0000   1.0000   1.0000   1.0000   1.0000
     1.0000   1.0000   1.0000   1.0000   1.0000   1.0000   1.0000   1.0000
     1.0000   1.0000   1.0000   1.0000   1.0000   1.0000   1.0000   1.0000
     1.0000   1.0000   1.0000   1.0000   1.0000   1.0000   1.0000   1.0000
     1.0000   1.0000   1.0000   1.0000   1.0000   1.0000   1.0000   1.0000
     1.0000   1.0000   1.0000   1.0000   1.0000   1.0000   1.0000   1.0000
     1.0000   1.0000   1.0000   1.0000   1.0000   1.0000   1.0000   1.0000
     1.0000   1.0000   1.0000   1.0000   1.0000   1.0000   1.0000   1.0000
     1.0000   1.0000   1.0000   1.0000   1.0000   1.0000   1.0000   1.0000
     1.0000   1.0000   1.0000   1.0000   1.0000   1.0000   1.0000   1.0000
     1.0000   1.0000   1.0000   1.0000   1.0000   0.0000   0.0000   0.0000
     0.0000   0.0000   0.0000   0.0000   0.0000   0.0000   0.0000   0.0000
     0.0000   0.0000   0.0000   0.0000   0.0000   0.0000   0.0000   0.0000
     0.0000   0.0000   0.0000   0.0000   0.0000   0.0000   0.0000   0.0000
     0.0000   0.0000   0.0000   0.0000   0.0000   0.0000   0.0000   0.0000
     0.0000   0.0000   0.0000   0.0000   0.0000   0.0000   0.0000   0.0000
     0.0000   0.0000   0.0000   0.0000   0.0000   0.0000   0.0000   0.0000
     0.0000   0.0000   0.0000   0.0000   0.0000   0.0000   0.0000   0.0000
     0.0000   0.0000   0.0000   0.0000   0.0000   0.0000   0.0000   0.0000
     0.0000   0.0000   0.0000   0.0000   0.0000   0.0000   0.0000   0.0000
     0.0000   0.0000   0.0000   0.0000   0.0000   0.0000   0.0000   0.0000
     0.0000   0.0000   0.0000   0.0000   0.0000   0.0000   0.0000   0.0000
     0.0000   0.0000   0.0000   0.0000   0.0000   0.0000   0.0000   0.0000
     0.0000   0.0000   0.0000   0.0000   0.0000   0.0000   0.0000   0.0000
     0.0000   0.0000   0.0000   0.0000   0.0000   0.0000   0.0000   0.0000
     0.0000   0.0000   0.0000   0.0000   0.0000   0.0000   0.0000   0.0000
     0.0000   0.0000   0.0000   0.0000   0.0000   0.0000   0.0000   0.0000
     0.0000   0.0000   0.0000   0.0000   0.0000   0.0000   0.0000   0.0000
     0.0000   0.0000   0.0000   0.0000   0.0000   0.0000   0.0000   0.0000
     0.0000   0.0000   0.0000   0.0000   0.0000   0.0000   0.0000   0.0000
     0.0000   0.0000   0.0000   0.0000   0.0000   0.0000   0.0000   0.0000
     0.0000   0.0000   0.0000   0.0000   0.0000   0.0000   0.0000   0.0000

[...]

          k = 0.3333 0.3228-0.2191 (  4938 PWs)   bands (ev):

   -68.8095 -68.8094 -65.9383 -65.9382 -37.5630 -37.5623 -37.5471 -37.5465
   -37.5242 -37.5224 -32.0529 -32.0486 -30.1802 -30.1799 -30.1710 -30.1709
   -30.1334 -30.1334 -18.9470 -18.9388 -12.4967 -12.4171 -12.2509 -12.1814
   -12.1335 -12.0400  -8.8572  -8.7230  -8.5090  -8.4274  -8.3518  -8.3422
    -8.0990  -7.9743  -7.8003  -7.7759  -7.7006  -7.6127  -2.5394  -2.5073
    -2.4873  -2.4782  -2.4416  -2.4153   3.4157   3.4492   3.9200   3.9899
     4.1064   4.1767   4.2089   4.3610   4.4495   4.5152   4.6481   4.7120
     5.3811   5.5021   5.6757   5.8321   5.9235   5.9813   6.2082   6.2933
     6.3765   6.4157   6.5736   6.6576   6.7280   6.8279   6.9546   7.1240
     7.2135   7.3587   7.3834   7.4828   7.5647   7.6342   7.7602   7.8424
    10.1348  10.1671  10.3065  10.3300  10.3845  10.4038  10.9769  11.1049
    11.2065  11.3440  11.8762  11.9616  12.0160  12.0876  12.1986  12.2853
    14.1576  14.4486  14.5677  14.7073  15.0394  15.1962  15.3509  15.5426
    15.7464  15.9540  16.1255  16.4029  16.5321  16.6403  16.9405  17.2105
    17.3991  17.6727  17.7505  17.9267  18.0448  18.3169  18.5083  18.7676
    19.1268  19.4564  19.5844  19.7206  20.0045  20.2730  20.4221  20.6389
    20.8505  21.1162  21.3716  21.8594  22.2810  22.5302  22.8616  23.1550
    23.3251  23.5316  23.6424  23.7453  23.9946  24.1108  24.2984  24.3851
    24.5656  24.8145  25.1221  25.2471  25.4222  25.7737  26.0425  26.4016
    26.5588  26.7140  27.0900  27.3089  27.5595  27.6901  28.0458  28.1981
    28.5543  28.6906  28.9940  29.1922  29.3693  29.6090  29.8690  30.2231
    30.3743  30.6044  31.0412  31.1495  31.2635  31.6029  31.7245  31.8361
    32.1118  32.4256  32.6628  32.9319  33.1266  33.2236  33.3700  33.5764
    33.7356  33.9195  34.0210  34.3152  34.4613  34.6462  34.8148  34.8859
    35.1725  35.3172  35.5794  35.8419  35.9463  36.2797  36.3445  36.6840
    36.7798  36.9686  37.0782  37.2999  37.4301  37.5705  37.8848  38.0194
    38.1299  38.2301  38.4121  38.6630  38.7591  38.8477  39.1592  39.3133
    39.4018  39.7033  39.7819  40.0136  40.1264  40.1564  40.3831  40.6623
    40.7504  40.8755  41.3173  41.4621  41.6228  41.7136  41.8755  42.0014
    42.1562  42.3393  42.4446  42.6644  42.6900  42.9924  43.1207  43.3214
    43.3595  43.4565  43.6428  43.7492  43.8885  44.0163  44.2232  44.3988
    44.6441  44.7202  44.8421  45.0283  45.1397  45.3204  45.4539  45.5334

     occupation numbers
     1.0000   1.0000   1.0000   1.0000   1.0000   1.0000   1.0000   1.0000
     1.0000   1.0000   1.0000   1.0000   1.0000   1.0000   1.0000   1.0000
     1.0000   1.0000   1.0000   1.0000   1.0000   1.0000   1.0000   1.0000
     1.0000   1.0000   1.0000   1.0000   1.0000   1.0000   1.0000   1.0000
     1.0000   1.0000   1.0000   1.0000   1.0000   1.0000   1.0000   1.0000
     1.0000   1.0000   1.0000   1.0000   1.0000   1.0000   1.0000   1.0000
     1.0000   1.0000   1.0000   1.0000   1.0000   1.0000   1.0000   1.0000
     1.0000   1.0000   1.0000   1.0000   1.0000   1.0000   1.0000   1.0000
     1.0000   1.0000   1.0000   1.0000   1.0000   1.0000   1.0000   1.0000
     1.0000   1.0000   1.0000   1.0000   1.0000   1.0000   1.0000   1.0000
     1.0000   1.0000   1.0000   1.0000   1.0000   0.0000   0.0000   0.0000
     0.0000   0.0000   0.0000   0.0000   0.0000   0.0000   0.0000   0.0000
     0.0000   0.0000   0.0000   0.0000   0.0000   0.0000   0.0000   0.0000
     0.0000   0.0000   0.0000   0.0000   0.0000   0.0000   0.0000   0.0000
     0.0000   0.0000   0.0000   0.0000   0.0000   0.0000   0.0000   0.0000
     0.0000   0.0000   0.0000   0.0000   0.0000   0.0000   0.0000   0.0000
     0.0000   0.0000   0.0000   0.0000   0.0000   0.0000   0.0000   0.0000
     0.0000   0.0000   0.0000   0.0000   0.0000   0.0000   0.0000   0.0000
     0.0000   0.0000   0.0000   0.0000   0.0000   0.0000   0.0000   0.0000
     0.0000   0.0000   0.0000   0.0000   0.0000   0.0000   0.0000   0.0000
     0.0000   0.0000   0.0000   0.0000   0.0000   0.0000   0.0000   0.0000
     0.0000   0.0000   0.0000   0.0000   0.0000   0.0000   0.0000   0.0000
     0.0000   0.0000   0.0000   0.0000   0.0000   0.0000   0.0000   0.0000
     0.0000   0.0000   0.0000   0.0000   0.0000   0.0000   0.0000   0.0000
     0.0000   0.0000   0.0000   0.0000   0.0000   0.0000   0.0000   0.0000
     0.0000   0.0000   0.0000   0.0000   0.0000   0.0000   0.0000   0.0000
     0.0000   0.0000   0.0000   0.0000   0.0000   0.0000   0.0000   0.0000
     0.0000   0.0000   0.0000   0.0000   0.0000   0.0000   0.0000   0.0000
     0.0000   0.0000   0.0000   0.0000   0.0000   0.0000   0.0000   0.0000
     0.0000   0.0000   0.0000   0.0000   0.0000   0.0000   0.0000   0.0000
     0.0000   0.0000   0.0000   0.0000   0.0000   0.0000   0.0000   0.0000
     0.0000   0.0000   0.0000   0.0000   0.0000   0.0000   0.0000   0.0000

     highest occupied, lowest unoccupied level (ev):    10.3972   10.3421

!    total energy              =   -1642.24685309 Ry
     estimated scf accuracy    <       0.00000024 Ry

     The total energy is the sum of the following terms:
     one-electron contribution =    -547.77532523 Ry
     hartree contribution      =     359.33044390 Ry
     xc contribution           =    -290.75858949 Ry
     ewald contribution        =    -937.92890103 Ry
     one-center paw contrib.   =    -225.11448124 Ry
      -> PAW hartree energy AE =      76.05268307 Ry
      -> PAW hartree energy PS =     -75.63081990 Ry
      -> PAW xc energy AE      =    -132.52191110 Ry
      -> PAW xc energy PS      =      21.26272122 Ry
      -> total E_H with PAW    =     359.75230707 Ry
      -> total E_XC with PAW   =    -402.01777937 Ry

     convergence has been achieved in  18 iterations

     Writing all to output data dir bands_nm/myprefix.save/

     General routines

     Parallel routines

     PAW routines

   This run was terminated on:  20:41:31  15Jul2023

   JOB DONE.