     Program PWSCF v.7.0 starts on  2Jun2023 at 19:29:58

     Reading input from espresso_53.pwi
Warning: card &CELL ignored
Warning: card / ignored

     Current dimensions of program PWSCF are:
     Max number of different atomic species (ntypx) = 10
     Max number of k-points (npk) =  40000
     Max angular momentum in pseudopotentials (lmaxx) =  4
     Message from routine setup:
     using ibrav=0 with symmetry is DISCOURAGED, use correct ibrav instead

     Subspace diagonalization in iterative solution of the eigenvalue problem:
     a serial algorithm will be used

     Using Slab Decomposition

     bravais-lattice index     =            0
     lattice parameter (alat)  =      20.8164  a.u.
     unit-cell volume          =    1140.4832 (a.u.)^3
     number of atoms/cell      =            5
     number of atomic types    =            3
     number of electrons       =        50.00
     number of Kohn-Sham states=           64
     kinetic-energy cutoff     =      30.0000  Ry
     charge density cutoff     =     240.0000  Ry
     scf convergence threshold =      1.0E-06
     mixing beta               =       0.7000
     number of iterations used =            8  plain     mixing
     Exchange-correlation= SLA  PW   PBX  PBC
                           (   1   4   3   4   0   0   0)

     celldm(1)=  20.816446  celldm(2)=   0.000000  celldm(3)=   0.000000
     celldm(4)=   0.000000  celldm(5)=   0.000000  celldm(6)=   0.000000

     crystal axes: (cart. coord. in units of alat)
               a(1) = (   1.000000   0.000000   0.000000 )
               a(2) = (   0.925109   0.379702   0.000000 )
               a(3) = (   0.925109   0.182465   0.332986 )

     reciprocal axes: (cart. coord. in units 2 pi/alat)
               b(1) = (  1.000000 -2.436409 -1.443149 )
               b(2) = (  0.000000  2.633646 -1.443149 )
               b(3) = (  0.000000  0.000000  3.003126 )

     PseudoPot. # 1 for Y  read from file:
     /home/pragov/projects/rrg-bengioy-ad/pragov/crystal_structure_design/SSSP/Y_pbe_v1.uspp.F.UPF
     MD5 check sum: 2cf71db95cafeb975fc457bd7f14888e
     Pseudo is Ultrasoft + core correction, Zval = 11.0
     Generated by new atomic code, or converted to UPF format
     Using radial grid of  885 points,  6 beta functions with:
                l(1) =   0
                l(2) =   0
                l(3) =   1
                l(4) =   1
                l(5) =   2
                l(6) =   2
     Q(r) pseudized with  6 coefficients,  rinner =    1.200   1.200   1.200
                                                       1.200   1.200

     PseudoPot. # 2 for Ge read from file:
     /home/pragov/projects/rrg-bengioy-ad/pragov/crystal_structure_design/SSSP/ge_pbe_v1.4.uspp.F.UPF
     MD5 check sum: 9c9eaa91e581c3f09632fb3098b2c6b2
     Pseudo is Ultrasoft + core correction, Zval = 14.0
     Generated by new atomic code, or converted to UPF format
     Using radial grid of  873 points,  6 beta functions with:
                l(1) =   0
                l(2) =   0
                l(3) =   1
                l(4) =   1
                l(5) =   2
                l(6) =   2
     Q(r) pseudized with  8 coefficients,  rinner =    1.400   1.400   1.400
                                                       1.400   1.400

     PseudoPot. # 3 for I  read from file:
     /home/pragov/projects/rrg-bengioy-ad/pragov/crystal_structure_design/SSSP/I.pbe-n-kjpaw_psl.0.2.UPF
     MD5 check sum: d4ef18d9c8f18dc85e5843bca1e50dc0
     Pseudo is Projector augmented-wave + core cor, Zval =  7.0
     Generated using "atomic" code by A. Dal Corso  v.5.0.99 svn rev. 10869
     Shape of augmentation charge: PSQ
     Using radial grid of 1247 points,  4 beta functions with:
                l(1) =   0
                l(2) =   0
                l(3) =   1
                l(4) =   1
     Q(r) pseudized with 0 coefficients

     atomic species   valence    mass     pseudopotential
        Y             11.00    88.90584     Y ( 1.00)
        Ge            14.00    72.63000     Ge( 1.00)
        I              7.00   126.90447     I ( 1.00)

      2 Sym. Ops., with inversion, found

                                    s                        frac. trans.

      isym =  1     identity

 cryst.   s( 1) = (     1          0          0      )
                  (     0          1          0      )
                  (     0          0          1      )

 cart.    s( 1) = (  1.0000000  0.0000000 -0.0000000 )
                  (  0.0000000  1.0000000  0.0000000 )
                  (  0.0000000  0.0000000  1.0000000 )

      isym =  2     inversion

 cryst.   s( 2) = (    -1          0          0      )
                  (     0         -1          0      )
                  (     0          0         -1      )

 cart.    s( 2) = ( -1.0000000 -0.0000000  0.0000000 )
                  (  0.0000000 -1.0000000 -0.0000000 )
                  (  0.0000000  0.0000000 -1.0000000 )

   Cartesian axes

     site n.     atom                  positions (alat units)
         1           Y   tau(   1) = (   1.7615458   0.3474412   0.2057986  )
         2           Y   tau(   2) = (   1.0886730   0.2147263   0.1271878  )
         3           Ge  tau(   3) = (   0.0000000   0.0000000   0.0000000  )
         4           I   tau(   4) = (   0.6329878   0.1248483   0.0739509  )
         5           I   tau(   5) = (   2.2172301   0.4373188   0.2590354  )

   Crystallographic axes

     site n.     atom                  positions (cryst. coord.)
         1           Y   tau(   1) = (  0.6180390  0.6180390  0.6180390  )
         2           Y   tau(   2) = (  0.3819610  0.3819620  0.3819610  )
         3           Ge  tau(   3) = (  0.0000000  0.0000000  0.0000000  )
         4           I   tau(   4) = (  0.2220840  0.2220840  0.2220840  )
         5           I   tau(   5) = (  0.7779160  0.7779160  0.7779160  )

     number of k points=    14
                       cart. coord. in units 2pi/alat
        k(    1) = (   0.0000000   0.0000000   0.0000000), wk =   0.0740741
        k(    2) = (   0.0000000   0.0000000   1.0010420), wk =   0.1481481
        k(    3) = (   0.0000000   0.8778818  -0.4810496), wk =   0.1481481
        k(    4) = (   0.0000000   0.8778818   0.5199924), wk =   0.1481481
        k(    5) = (   0.0000000   0.8778818  -1.4820916), wk =   0.1481481
        k(    6) = (   0.3333333  -0.8121363  -0.4810496), wk =   0.1481481
        k(    7) = (   0.3333333  -0.8121363   0.5199924), wk =   0.1481481
        k(    8) = (   0.3333333  -0.8121363  -1.4820916), wk =   0.1481481
        k(    9) = (   0.3333333   0.0657455  -0.9620992), wk =   0.1481481
        k(   10) = (   0.3333333   0.0657455   0.0389428), wk =   0.1481481
        k(   11) = (   0.3333333   0.0657455  -1.9631412), wk =   0.1481481
        k(   12) = (   0.3333333  -1.6900182   0.0000000), wk =   0.1481481
        k(   13) = (   0.3333333  -1.6900182   1.0010420), wk =   0.1481481
        k(   14) = (   0.3333333  -1.6900182  -1.0010420), wk =   0.1481481

                       cryst. coord.
        k(    1) = (   0.0000000   0.0000000   0.0000000), wk =   0.0740741
        k(    2) = (   0.0000000   0.0000000   0.3333333), wk =   0.1481481
        k(    3) = (   0.0000000   0.3333333   0.0000000), wk =   0.1481481
        k(    4) = (   0.0000000   0.3333333   0.3333333), wk =   0.1481481
        k(    5) = (   0.0000000   0.3333333  -0.3333333), wk =   0.1481481
        k(    6) = (   0.3333333  -0.0000000  -0.0000000), wk =   0.1481481
        k(    7) = (   0.3333333  -0.0000000   0.3333333), wk =   0.1481481
        k(    8) = (   0.3333333  -0.0000000  -0.3333333), wk =   0.1481481
        k(    9) = (   0.3333333   0.3333333  -0.0000000), wk =   0.1481481
        k(   10) = (   0.3333333   0.3333333   0.3333333), wk =   0.1481481
        k(   11) = (   0.3333333   0.3333333  -0.3333333), wk =   0.1481481
        k(   12) = (   0.3333333  -0.3333333  -0.0000000), wk =   0.1481481
        k(   13) = (   0.3333333  -0.3333333   0.3333333), wk =   0.1481481
        k(   14) = (   0.3333333  -0.3333333  -0.3333333), wk =   0.1481481

     Check: negative core charge=   -0.000003

     Initial potential from superposition of free atoms

     starting charge      49.9900, renormalised to      50.0000

     negative rho (up, down):  8.714E-02 0.000E+00
     Starting wfcs are   43 randomized atomic wfcs +   21 random wfcs
     Checking if some PAW data can be deallocated...

     Self-consistent Calculation

     iteration #  1     ecut=    30.00 Ry     beta= 0.70
     Davidson diagonalization with overlap

     ethr =  1.00E-02,  avg # of iterations =  6.6

     Threshold (ethr) on eigenvalues was too large:
     Diagonalizing with lowered threshold

     Davidson diagonalization with overlap

[...]

     negative rho (up, down):  8.770E-02 0.000E+00

     total energy              =   -1146.68191619 Ry
     estimated scf accuracy    <       0.41158743 Ry

[...]

     total energy              =   -1146.89691982 Ry
     estimated scf accuracy    <       0.00000186 Ry

     iteration #  8     ecut=    30.00 Ry     beta= 0.70
     Davidson diagonalization with overlap

     ethr =  3.72E-09,  avg # of iterations =  3.0

     negative rho (up, down):  8.761E-02 0.000E+00

     End of self-consistent calculation

          k = 0.0000 0.0000 0.0000 (  3107 PWs)   bands (ev):

   -36.0057 -35.9974 -16.1614 -16.1614 -16.1183 -15.9720 -15.9697 -15.9697
   -15.9298 -15.9298 -15.9286 -15.7711 -15.7711  -6.4935  -6.3185  -0.9758
     2.9870   3.0075   4.4763   4.4763   4.5107   4.5107   6.1847   6.8284
     6.8284   8.3584   8.3584   8.4416   9.2459   9.4932   9.4932   9.6106
     9.6106   9.9037  11.0720  12.5997  12.8913  12.8913  13.6840  13.6840
    14.4344  14.7388  14.8373  14.8373  15.7269  16.6698  16.9506  16.9506
    17.1797  18.0596  18.0596  18.6165  18.6358  18.6358  19.6999  20.6930
    20.6930  20.7783  20.7783  21.1996  22.4752  22.6966  22.6966  22.9654

     occupation numbers
     1.0000   1.0000   1.0000   1.0000   1.0000   1.0000   1.0000   1.0000
     1.0000   1.0000   1.0000   1.0000   1.0000   1.0000   1.0000   1.0000
     1.0000   1.0000   1.0000   1.0000   1.0000   1.0000   1.0000   1.0000
     1.0000   0.0000   0.0000   0.0000   0.0000   0.0000   0.0000   0.0000
     0.0000   0.0000   0.0000   0.0000   0.0000   0.0000   0.0000   0.0000
     0.0000   0.0000   0.0000   0.0000   0.0000   0.0000   0.0000   0.0000
     0.0000   0.0000   0.0000   0.0000   0.0000   0.0000   0.0000   0.0000
     0.0000   0.0000   0.0000   0.0000   0.0000   0.0000   0.0000   0.0000

[...]

          k = 0.3333-1.6900-1.0010 (  3171 PWs)   bands (ev):

   -36.0005 -35.9958 -16.1654 -16.1569 -16.0715 -16.0525 -15.9949 -15.9708
   -15.9580 -15.9396 -15.9376 -15.8150 -15.7792  -6.2171  -6.1201  -0.4471
     2.7842   2.9726   3.1506   3.6329   4.1220   4.2655   5.3508   5.9231
     6.4865   7.2542   9.2401   9.3410   9.5529   9.8898  10.2174  10.4632
    10.7800  10.9728  11.8377  12.1515  12.3414  12.7120  13.4154  13.9066
    14.5410  14.7029  15.1157  15.7587  15.8102  16.3871  16.7740  17.1550
    17.4796  18.1940  18.8673  19.3505  19.5913  19.9162  20.1120  21.2033
    21.2131  21.6308  22.3405  22.4978  22.9511  23.1533  23.4956  23.6164

     occupation numbers
     1.0000   1.0000   1.0000   1.0000   1.0000   1.0000   1.0000   1.0000
     1.0000   1.0000   1.0000   1.0000   1.0000   1.0000   1.0000   1.0000
     1.0000   1.0000   1.0000   1.0000   1.0000   1.0000   1.0000   1.0000
     1.0000   0.0000   0.0000   0.0000   0.0000   0.0000   0.0000   0.0000
     0.0000   0.0000   0.0000   0.0000   0.0000   0.0000   0.0000   0.0000
     0.0000   0.0000   0.0000   0.0000   0.0000   0.0000   0.0000   0.0000
     0.0000   0.0000   0.0000   0.0000   0.0000   0.0000   0.0000   0.0000
     0.0000   0.0000   0.0000   0.0000   0.0000   0.0000   0.0000   0.0000

     highest occupied, lowest unoccupied level (ev):     6.8284    7.2542

!    total energy              =   -1146.89692034 Ry
     estimated scf accuracy    <       0.00000011 Ry

     The total energy is the sum of the following terms:
     one-electron contribution =    -350.64119775 Ry
     hartree contribution      =     199.52069100 Ry
     xc contribution           =    -185.74697512 Ry
     ewald contribution        =    -168.97690193 Ry
     one-center paw contrib.   =    -641.05253654 Ry
      -> PAW hartree energy AE =      19.50312553 Ry
      -> PAW hartree energy PS =     -19.62635563 Ry
      -> PAW xc energy AE      =    -721.91566518 Ry
      -> PAW xc energy PS      =      80.98635874 Ry
      -> total E_H with PAW    =     199.39746090 Ry
      -> total E_XC with PAW   =    -826.67628156 Ry

     convergence has been achieved in   8 iterations

     Writing all to output data dir calculations_bands/myprefix.save/

     General routines

     Parallel routines

     PAW routines

   This run was terminated on:  19:34:37   2Jun2023

   JOB DONE.