     Program PWSCF v.7.1 starts on 15Jul2023 at 17:55:35

     Reading input from espresso_20195.pwi
Warning: card &CELL ignored
Warning: card / ignored

     Current dimensions of program PWSCF are:
     Max number of different atomic species (ntypx) = 10
     Max number of k-points (npk) =  40000
     Max angular momentum in pseudopotentials (lmaxx) =  4
     file Ce.paw.z_12.atompaw.wentzcovitch.v1.2.upf: wavefunction(s)  6S 0P 5D 0D 4F 0F renormalized
     file Fe.pbe-spn-kjpaw_psl.0.2.1.UPF: wavefunction(s)  3D renormalized
     file O.pbe-n-kjpaw_psl.0.1.UPF: wavefunction(s)  2P renormalized
     Message from routine setup:
     using ibrav=0 with symmetry is DISCOURAGED, use correct ibrav instead

     K-points division:     npool     =       2
     R & G space division:  proc/nbgrp/npool/nimage =       4
     Subspace diagonalization in iterative solution of the eigenvalue problem:
     one sub-group per band group will be used

     Using Slab Decomposition

     bravais-lattice index     =            0
     lattice parameter (alat)  =      10.3312  a.u.
     unit-cell volume          =    1659.5830 (a.u.)^3
     number of atoms/cell      =           20
     number of atomic types    =            3
     number of electrons       =       184.00
     number of Kohn-Sham states=          256
     kinetic-energy cutoff     =      30.0000  Ry
     charge density cutoff     =     240.0000  Ry
     scf convergence threshold =      1.0E-06
     mixing beta               =       0.7000
     number of iterations used =            8  plain     mixing
     Exchange-correlation= SLA  PW   PBX  PBC
                           (   1   4   3   4   0   0   0)

     celldm(1)=  10.331197  celldm(2)=   0.000000  celldm(3)=   0.000000
     celldm(4)=   0.000000  celldm(5)=   0.000000  celldm(6)=   0.000000

     crystal axes: (cart. coord. in units of alat)
               a(1) = (   1.000000   0.000000   0.000000 )
               a(2) = (   0.000000   1.057969   0.000000 )
               a(3) = (   0.000000   0.000000   1.422572 )

     reciprocal axes: (cart. coord. in units 2 pi/alat)
               b(1) = (  1.000000  0.000000  0.000000 )
               b(2) = (  0.000000  0.945208  0.000000 )
               b(3) = (  0.000000  0.000000  0.702952 )

     PseudoPot. # 1 for Ce read from file:
     /lustre07/scratch/pragov/crystal_structure_design/utils/SSSP/Ce.paw.z_12.atompaw.wentzcovitch.v1.2.upf
     MD5 check sum: 2241420ff980c77e0c917a2dc8a7e08e
     Pseudo is Projector augmented-wave + core cor, Zval = 12.0
     Generated using ATOMPAW code
     Shape of augmentation charge: BESSEL
     Using radial grid of 1102 points,  8 beta functions with:
                l(1) =   0
                l(2) =   0
                l(3) =   1
                l(4) =   1
                l(5) =   2
                l(6) =   2
                l(7) =   3
                l(8) =   3
     Q(r) pseudized with 0 coefficients

     PseudoPot. # 2 for Fe read from file:
     /lustre07/scratch/pragov/crystal_structure_design/utils/SSSP/Fe.pbe-spn-kjpaw_psl.0.2.1.UPF
     MD5 check sum: e86618425769142926afa95317d90200
     Pseudo is Projector augmented-wave + core cor, Zval = 16.0
     Generated using "atomic" code by A. Dal Corso  v.5.0.99 svn rev. 10869
     Shape of augmentation charge: PSQ
     Using radial grid of 1191 points,  6 beta functions with:
                l(1) =   0
                l(2) =   0
                l(3) =   1
                l(4) =   1
                l(5) =   2
                l(6) =   2
     Q(r) pseudized with 0 coefficients

     PseudoPot. # 3 for O  read from file:
     /lustre07/scratch/pragov/crystal_structure_design/utils/SSSP/O.pbe-n-kjpaw_psl.0.1.UPF
     MD5 check sum: 0234752ac141de4415c5fc33072bef88
     Pseudo is Projector augmented-wave + core cor, Zval =  6.0
     Generated using "atomic" code by A. Dal Corso  v.5.0.99 svn rev. 10869
     Shape of augmentation charge: BESSEL
     Using radial grid of 1095 points,  4 beta functions with:
                l(1) =   0
                l(2) =   0
                l(3) =   1
                l(4) =   1
     Q(r) pseudized with 0 coefficients

     atomic species   valence    mass     pseudopotential
        Ce            12.00   140.11600     Ce( 1.00)
        Fe            16.00    55.84500     Fe( 1.00)
        O              6.00    15.99900     O ( 1.00)

      8 Sym. Ops., with inversion, found ( 6 have fractional translation)

                                    s                        frac. trans.

      isym =  1     identity

 cryst.   s( 1) = (     1          0          0      )
                  (     0          1          0      )
                  (     0          0          1      )

 cart.    s( 1) = (  1.0000000  0.0000000  0.0000000 )
                  (  0.0000000  1.0000000  0.0000000 )
                  (  0.0000000  0.0000000  1.0000000 )

      isym =  2     180 deg rotation - cart. axis [0,0,1]

 cryst.   s( 2) = (    -1          0          0      )    f =(  0.0000000 )
                  (     0         -1          0      )       (  0.0000000 )
                  (     0          0          1      )       ( -0.5000000 )

 cart.    s( 2) = ( -1.0000000  0.0000000  0.0000000 )    f =(  0.0000000 )
                  (  0.0000000 -1.0000000  0.0000000 )       (  0.0000000 )
                  (  0.0000000  0.0000000  1.0000000 )       ( -0.7112860 )

[...]

      isym =  4     180 deg rotation - cart. axis [1,0,0]

[...]

      isym =  5     inversion

 cryst.   s( 5) = (    -1          0          0      )
                  (     0         -1          0      )
                  (     0          0         -1      )

 cart.    s( 5) = ( -1.0000000  0.0000000  0.0000000 )
                  (  0.0000000 -1.0000000  0.0000000 )
                  (  0.0000000  0.0000000 -1.0000000 )

      isym =  6     inv. 180 deg rotation - cart. axis [0,0,1]

[...]

      isym =  8     inv. 180 deg rotation - cart. axis [1,0,0]

 cryst.   s( 8) = (    -1          0          0      )    f =(  0.5000000 )
                  (     0          1          0      )       (  0.5000000 )
                  (     0          0          1      )       (  0.0000000 )

 cart.    s( 8) = ( -1.0000000  0.0000000  0.0000000 )    f =(  0.5000000 )
                  (  0.0000000  1.0000000  0.0000000 )       (  0.5289843 )
                  (  0.0000000  0.0000000  1.0000000 )       (  0.0000000 )

   Cartesian axes

     site n.     atom                  positions (alat units)
         1           Ce  tau(   1) = (   0.0246810   0.4404249   1.0669291  )
         2           Ce  tau(   2) = (   0.4753190   0.9694092   1.0669291  )
         3           Ce  tau(   3) = (   0.5246810   0.0885594   0.3556430  )
         4           Ce  tau(   4) = (   0.9753190   0.6175436   0.3556430  )
         5           Fe  tau(   5) = (   0.0000000   0.0000000   0.0000000  )
         6           Fe  tau(   6) = (   0.0000000   0.0000000   0.7112860  )
         7           Fe  tau(   7) = (   0.5000000   0.5289843   0.0000000  )
         8           Fe  tau(   8) = (   0.5000000   0.5289843   0.7112860  )
         9           O   tau(   9) = (   0.1358870   1.0082885   0.3556430  )
        10           O   tau(  10) = (   0.1819750   0.7205781   0.8081917  )
        11           O   tau(  11) = (   0.1819750   0.7205781   1.3256665  )
        12           O   tau(  12) = (   0.3180250   0.1915939   0.8081917  )
        13           O   tau(  13) = (   0.3180250   0.1915939   1.3256665  )
        14           O   tau(  14) = (   0.3641130   0.4793042   0.3556430  )
        15           O   tau(  15) = (   0.6358870   0.5786644   1.0669291  )
        16           O   tau(  16) = (   0.6819750   0.8663747   0.0969056  )
        17           O   tau(  17) = (   0.6819750   0.8663747   0.6143804  )
        18           O   tau(  18) = (   0.8180250   0.3373904   0.0969056  )
        19           O   tau(  19) = (   0.8180250   0.3373904   0.6143804  )
        20           O   tau(  20) = (   0.8641130   0.0496801   1.0669291  )

   Crystallographic axes

     site n.     atom                  positions (cryst. coord.)
         1           Ce  tau(   1) = (  0.0246810  0.4162930  0.7500000  )
         2           Ce  tau(   2) = (  0.4753190  0.9162930  0.7500000  )
         3           Ce  tau(   3) = (  0.5246810  0.0837070  0.2500000  )
         4           Ce  tau(   4) = (  0.9753190  0.5837070  0.2500000  )
         5           Fe  tau(   5) = (  0.0000000  0.0000000  0.0000000  )
         6           Fe  tau(   6) = (  0.0000000  0.0000000  0.5000000  )
         7           Fe  tau(   7) = (  0.5000000  0.5000000  0.0000000  )
         8           Fe  tau(   8) = (  0.5000000  0.5000000  0.5000000  )
         9           O   tau(   9) = (  0.1358870  0.9530420  0.2500000  )
        10           O   tau(  10) = (  0.1819750  0.6810960  0.5681200  )
        11           O   tau(  11) = (  0.1819750  0.6810960  0.9318800  )
        12           O   tau(  12) = (  0.3180250  0.1810960  0.5681200  )
        13           O   tau(  13) = (  0.3180250  0.1810960  0.9318800  )
        14           O   tau(  14) = (  0.3641130  0.4530420  0.2500000  )
        15           O   tau(  15) = (  0.6358870  0.5469580  0.7500000  )
        16           O   tau(  16) = (  0.6819750  0.8189040  0.0681200  )
        17           O   tau(  17) = (  0.6819750  0.8189040  0.4318800  )
        18           O   tau(  18) = (  0.8180250  0.3189040  0.0681200  )
        19           O   tau(  19) = (  0.8180250  0.3189040  0.4318800  )
        20           O   tau(  20) = (  0.8641130  0.0469580  0.7500000  )

     number of k points=     8
                       cart. coord. in units 2pi/alat
        k(    1) = (   0.0000000   0.0000000   0.0000000), wk =   0.0740741
        k(    2) = (   0.0000000   0.0000000   0.2343174), wk =   0.1481481
        k(    3) = (   0.0000000   0.3150692   0.0000000), wk =   0.1481481
        k(    4) = (   0.0000000   0.3150692   0.2343174), wk =   0.2962963
        k(    5) = (   0.3333333   0.0000000   0.0000000), wk =   0.1481481
        k(    6) = (   0.3333333   0.0000000   0.2343174), wk =   0.2962963
        k(    7) = (   0.3333333   0.3150692   0.0000000), wk =   0.2962963
        k(    8) = (   0.3333333   0.3150692   0.2343174), wk =   0.5925926

                       cryst. coord.
        k(    1) = (   0.0000000   0.0000000   0.0000000), wk =   0.0740741
        k(    2) = (   0.0000000   0.0000000   0.3333333), wk =   0.1481481
        k(    3) = (   0.0000000   0.3333333   0.0000000), wk =   0.1481481
        k(    4) = (   0.0000000   0.3333333   0.3333333), wk =   0.2962963
        k(    5) = (   0.3333333   0.0000000   0.0000000), wk =   0.1481481
        k(    6) = (   0.3333333   0.0000000   0.3333333), wk =   0.2962963
        k(    7) = (   0.3333333   0.3333333   0.0000000), wk =   0.2962963
        k(    8) = (   0.3333333   0.3333333   0.3333333), wk =   0.5925926

     Check: negative core charge=   -0.000106

     Initial potential from superposition of free atoms

     starting charge     183.9703, renormalised to     184.0000
     Starting wfcs are  228 randomized atomic wfcs +   28 random wfcs
     Checking if some PAW data can be deallocated...

     Self-consistent Calculation

     iteration #  1     ecut=    30.00 Ry     beta= 0.70
     Davidson diagonalization with overlap

     ethr =  1.00E-02,  avg # of iterations =  6.4

     negative rho (up, down):  3.615E-03 0.000E+00

     total energy              =   -3684.74381247 Ry
     estimated scf accuracy    <      60.92625117 Ry

[...]

     negative rho (up, down):  7.703E-06 0.000E+00

[...]

     total energy              =   -3745.00888260 Ry
     estimated scf accuracy    <       0.00001299 Ry

     iteration # 19     ecut=    30.00 Ry     beta= 0.70
     Davidson diagonalization with overlap

     ethr =  7.06E-09,  avg # of iterations =  1.0

     End of self-consistent calculation

          k = 0.0000 0.0000 0.0000 (  4581 PWs)   bands (ev):

   -74.6732 -74.6713 -74.6705 -74.6631 -40.2827 -40.2765 -40.2700 -40.2641
   -40.2621 -40.2517 -40.2508 -40.2480 -40.2245 -40.2222 -40.2092 -40.1910
   -21.8355 -21.7958 -21.7278 -21.6993  -7.5083  -7.4970  -7.4747  -7.4517
    -7.2211  -6.3487  -6.2823  -6.2809  -6.1536  -6.0476  -5.6647  -5.6606
    -4.5725  -4.5669  -4.4650  -4.4053  -4.1850  -3.9415  -3.5828  -2.7519
    -2.6413  -2.5329  -2.3180  -2.2584   6.3249   6.3289   6.7201   6.9678
     7.0396   7.7111   7.7576   7.7713   7.8528   7.8701   7.9723   8.0960
     8.1875   8.2268   8.3198   8.3997   8.4187   8.6178   8.6572   8.6805
     8.7106   8.7294   8.7662   8.8108   8.8888   8.9651   9.1752   9.4927
     9.5404   9.6440   9.7324   9.8354   9.9618  10.0259  10.2617  10.4845
    11.2097  11.3607  11.3937  11.4833  11.5236  11.6769  11.7831  11.8861
    11.9263  11.9395  12.0688  12.0875  12.7455  12.7715  12.7856  12.7957
    12.7974  12.8073  12.8192  12.8437  12.9156  12.9306  12.9379  12.9453
    12.9691  13.0054  13.0089  13.0111  13.0557  13.0604  13.0618  13.1084
    13.1099  13.1379  13.1950  13.2248  13.2351  13.2446  13.2684  13.2703
    13.3289  13.3389  13.5023  13.7313  13.9903  14.5287  14.5715  14.5752
    16.6995  16.9583  17.0587  17.2958  17.3355  17.4560  17.5913  17.9571
    17.9909  18.5223  18.5707  18.5933  18.5973  18.8967  19.8209  19.8779
    20.0423  20.0756  20.2148  20.4940  20.6069  20.7842  21.2674  22.6550
    22.8597  22.8775  23.5939  23.7893  24.0528  24.7118  24.8742  24.9988
    25.1346  25.3396  25.4985  25.5140  25.6073  26.2199  26.7620  26.8148
    26.8466  27.5841  27.8750  28.0483  28.0810  28.5920  28.7939  29.6977
    29.9371  29.9980  30.0916  30.2050  30.2257  30.4202  30.7299  31.3174
    31.3500  31.4217  31.6716  32.0278  32.1799  32.4678  32.6725  33.0525
    33.1895  33.3481  33.7466  33.8568  34.1072  34.3231  34.8532  34.9854
    34.9862  35.5910  36.0450  36.1274  36.1545  36.2009  36.6993  36.8315
    36.9637  37.1802  37.3960  38.0302  38.0505  38.0539  38.1285  38.6448
    38.7878  39.2285  39.2668  39.6105  39.6420  39.9975  40.0849  40.1426
    40.3794  40.4879  40.6689  40.6709  41.1640  41.2463  41.3340  41.7171
    41.9069  41.9319  42.0651  42.5059  42.5152  42.8748  43.0905  43.0965
    43.3584  43.4392  43.5534  43.6947  43.7967  43.9183  44.1748  44.3689
    44.4305  44.4672  45.1018  45.1990  45.2436  45.4955  45.5830  45.9634

     occupation numbers
     1.0000   1.0000   1.0000   1.0000   1.0000   1.0000   1.0000   1.0000
     1.0000   1.0000   1.0000   1.0000   1.0000   1.0000   1.0000   1.0000
     1.0000   1.0000   1.0000   1.0000   1.0000   1.0000   1.0000   1.0000
     1.0000   1.0000   1.0000   1.0000   1.0000   1.0000   1.0000   1.0000
     1.0000   1.0000   1.0000   1.0000   1.0000   1.0000   1.0000   1.0000
     1.0000   1.0000   1.0000   1.0000   1.0000   1.0000   1.0000   1.0000
     1.0000   1.0000   1.0000   1.0000   1.0000   1.0000   1.0000   1.0000
     1.0000   1.0000   1.0000   1.0000   1.0000   1.0000   1.0000   1.0000
     1.0000   1.0000   1.0000   1.0000   1.0000   1.0000   1.0000   1.0000
     1.0000   1.0000   1.0000   1.0000   1.0000   1.0000   1.0000   1.0000
     1.0000   1.0000   1.0000   1.0000   1.0000   1.0000   1.0000   1.0000
     1.0000   1.0000   1.0000   1.0000   0.0000   0.0000   0.0000   0.0000
     0.0000   0.0000   0.0000   0.0000   0.0000   0.0000   0.0000   0.0000
     0.0000   0.0000   0.0000   0.0000   0.0000   0.0000   0.0000   0.0000
     0.0000   0.0000   0.0000   0.0000   0.0000   0.0000   0.0000   0.0000
     0.0000   0.0000   0.0000   0.0000   0.0000   0.0000   0.0000   0.0000
     0.0000   0.0000   0.0000   0.0000   0.0000   0.0000   0.0000   0.0000
     0.0000   0.0000   0.0000   0.0000   0.0000   0.0000   0.0000   0.0000
     0.0000   0.0000   0.0000   0.0000   0.0000   0.0000   0.0000   0.0000
     0.0000   0.0000   0.0000   0.0000   0.0000   0.0000   0.0000   0.0000
     0.0000   0.0000   0.0000   0.0000   0.0000   0.0000   0.0000   0.0000
     0.0000   0.0000   0.0000   0.0000   0.0000   0.0000   0.0000   0.0000
     0.0000   0.0000   0.0000   0.0000   0.0000   0.0000   0.0000   0.0000
     0.0000   0.0000   0.0000   0.0000   0.0000   0.0000   0.0000   0.0000
     0.0000   0.0000   0.0000   0.0000   0.0000   0.0000   0.0000   0.0000
     0.0000   0.0000   0.0000   0.0000   0.0000   0.0000   0.0000   0.0000
     0.0000   0.0000   0.0000   0.0000   0.0000   0.0000   0.0000   0.0000
     0.0000   0.0000   0.0000   0.0000   0.0000   0.0000   0.0000   0.0000
     0.0000   0.0000   0.0000   0.0000   0.0000   0.0000   0.0000   0.0000
     0.0000   0.0000   0.0000   0.0000   0.0000   0.0000   0.0000   0.0000
     0.0000   0.0000   0.0000   0.0000   0.0000   0.0000   0.0000   0.0000
     0.0000   0.0000   0.0000   0.0000   0.0000   0.0000   0.0000   0.0000

[...]

          k = 0.3333 0.3151 0.2343 (  4608 PWs)   bands (ev):

   -74.6724 -74.6722 -74.6711 -74.6697 -40.2939 -40.2904 -40.2892 -40.2862
   -40.2564 -40.2561 -40.2540 -40.2480 -40.2187 -40.2182 -40.2114 -40.2074
   -21.7865 -21.7726 -21.7545 -21.7420  -7.6898  -7.5488  -7.4684  -7.3185
    -6.9066  -6.7318  -6.4646  -6.3882  -6.2758  -6.0944  -5.8756  -5.8327
    -4.4056  -4.3688  -4.0486  -3.9440  -3.7417  -3.6619  -3.3287  -3.1629
    -2.8028  -2.7290  -2.4438  -2.3523   6.6011   6.6712   6.7321   6.9214
     7.3918   7.5010   7.5480   7.6562   7.7370   7.8099   7.8678   8.0062
     8.0555   8.1319   8.1764   8.2126   8.3357   8.3603   8.4411   8.5604
     8.6665   8.7061   8.7751   8.9160   8.9795   9.1518   9.2195   9.2918
     9.4620   9.5973   9.6726   9.7439   9.8038   9.8833   9.9211  10.0470
    11.4827  11.5843  11.6420  11.6787  11.7206  11.7647  11.7911  11.8595
    11.9415  11.9938  12.0488  12.0690  12.7582  12.7691  12.7919  12.7964
    12.8250  12.8349  12.8488  12.8575  12.9000  12.9063  12.9320  12.9477
    13.0004  13.0278  13.0435  13.0643  13.0746  13.0868  13.0950  13.1197
    13.1341  13.1446  13.1511  13.2012  13.2436  13.2854  13.3144  13.3339
    13.3968  13.4313  13.5686  13.6609  13.8068  14.0412  14.2111  14.4073
    17.1791  17.2722  17.3975  17.4432  17.4962  17.5890  17.7929  17.9113
    18.2655  18.4386  18.5809  18.6162  19.1138  19.2234  19.2642  19.5726
    19.8719  20.2249  20.2761  20.3467  20.8205  21.1320  21.4851  22.2294
    22.4553  22.6655  23.2629  23.5342  23.7761  24.2674  24.9343  25.1108
    25.3598  25.5397  25.5949  25.9353  26.2056  26.2680  26.8065  27.1023
    27.4632  27.7006  27.8454  28.2771  28.4473  28.5099  28.9140  29.1842
    29.2342  29.4365  29.7713  29.8159  30.2335  30.3561  30.5755  30.7374
    31.1509  31.2994  31.8192  31.9481  32.2026  32.4490  32.9407  33.0852
    33.7137  33.8902  33.9631  34.3796  34.4804  34.7805  34.9906  35.3931
    35.6358  35.7102  35.9378  36.2740  36.3930  36.6854  36.7805  36.8736
    37.0609  37.1043  37.5371  37.6886  37.8283  37.8672  38.1056  38.3020
    38.5589  38.8119  38.9834  39.1562  39.2891  39.4893  39.8820  39.8962
    40.0887  40.2791  40.5076  40.6852  40.7068  41.0941  41.2307  41.4216
    41.8409  42.1129  42.1618  42.2873  42.5245  42.7656  42.8482  43.0035
    43.1625  43.4185  43.5232  43.7792  43.9566  44.0749  44.1020  44.2673
    44.4205  44.4861  44.7063  44.8937  45.0288  45.1507  45.3795  45.5632

     occupation numbers
     1.0000   1.0000   1.0000   1.0000   1.0000   1.0000   1.0000   1.0000
     1.0000   1.0000   1.0000   1.0000   1.0000   1.0000   1.0000   1.0000
     1.0000   1.0000   1.0000   1.0000   1.0000   1.0000   1.0000   1.0000
     1.0000   1.0000   1.0000   1.0000   1.0000   1.0000   1.0000   1.0000
     1.0000   1.0000   1.0000   1.0000   1.0000   1.0000   1.0000   1.0000
     1.0000   1.0000   1.0000   1.0000   1.0000   1.0000   1.0000   1.0000
     1.0000   1.0000   1.0000   1.0000   1.0000   1.0000   1.0000   1.0000
     1.0000   1.0000   1.0000   1.0000   1.0000   1.0000   1.0000   1.0000
     1.0000   1.0000   1.0000   1.0000   1.0000   1.0000   1.0000   1.0000
     1.0000   1.0000   1.0000   1.0000   1.0000   1.0000   1.0000   1.0000
     1.0000   1.0000   1.0000   1.0000   1.0000   1.0000   1.0000   1.0000
     1.0000   1.0000   1.0000   1.0000   0.0000   0.0000   0.0000   0.0000
     0.0000   0.0000   0.0000   0.0000   0.0000   0.0000   0.0000   0.0000
     0.0000   0.0000   0.0000   0.0000   0.0000   0.0000   0.0000   0.0000
     0.0000   0.0000   0.0000   0.0000   0.0000   0.0000   0.0000   0.0000
     0.0000   0.0000   0.0000   0.0000   0.0000   0.0000   0.0000   0.0000
     0.0000   0.0000   0.0000   0.0000   0.0000   0.0000   0.0000   0.0000
     0.0000   0.0000   0.0000   0.0000   0.0000   0.0000   0.0000   0.0000
     0.0000   0.0000   0.0000   0.0000   0.0000   0.0000   0.0000   0.0000
     0.0000   0.0000   0.0000   0.0000   0.0000   0.0000   0.0000   0.0000
     0.0000   0.0000   0.0000   0.0000   0.0000   0.0000   0.0000   0.0000
     0.0000   0.0000   0.0000   0.0000   0.0000   0.0000   0.0000   0.0000
     0.0000   0.0000   0.0000   0.0000   0.0000   0.0000   0.0000   0.0000
     0.0000   0.0000   0.0000   0.0000   0.0000   0.0000   0.0000   0.0000
     0.0000   0.0000   0.0000   0.0000   0.0000   0.0000   0.0000   0.0000
     0.0000   0.0000   0.0000   0.0000   0.0000   0.0000   0.0000   0.0000
     0.0000   0.0000   0.0000   0.0000   0.0000   0.0000   0.0000   0.0000
     0.0000   0.0000   0.0000   0.0000   0.0000   0.0000   0.0000   0.0000
     0.0000   0.0000   0.0000   0.0000   0.0000   0.0000   0.0000   0.0000
     0.0000   0.0000   0.0000   0.0000   0.0000   0.0000   0.0000   0.0000
     0.0000   0.0000   0.0000   0.0000   0.0000   0.0000   0.0000   0.0000
     0.0000   0.0000   0.0000   0.0000   0.0000   0.0000   0.0000   0.0000

     highest occupied, lowest unoccupied level (ev):    12.0875   12.7291

!    total energy              =   -3745.00888296 Ry
     total all-electron energy =    -13916.357734 Ry
     estimated scf accuracy    <       0.00000087 Ry

     The total energy is the sum of the following terms:
     one-electron contribution =    -714.14998651 Ry
     hartree contribution      =     481.91691813 Ry
     xc contribution           =    -282.99110202 Ry
     ewald contribution        =   -1192.08475686 Ry
     one-center paw contrib.   =   -2037.69995570 Ry
      -> PAW hartree energy AE =     130.26900041 Ry
      -> PAW hartree energy PS =    -129.67161638 Ry
      -> PAW xc energy AE      =   -1250.84500929 Ry
      -> PAW xc energy PS      =      35.91744325 Ry
      -> total E_H with PAW    =     482.51430217 Ry
      -> total E_XC with PAW   =   -1497.91866806 Ry

     convergence has been achieved in  19 iterations

     Writing all to output data dir bands_nm/myprefix.save/

     General routines

     Parallel routines

     PAW routines

   This run was terminated on:  17:56:50  15Jul2023

   JOB DONE.