     Program PWSCF v.7.1 starts on 15Jul2023 at 22: 3:40

     Reading input from espresso_21320.pwi
Warning: card &CELL ignored
Warning: card / ignored

     Current dimensions of program PWSCF are:
     Max number of different atomic species (ntypx) = 10
     Max number of k-points (npk) =  40000
     Max angular momentum in pseudopotentials (lmaxx) =  4
     Message from routine setup:
     using ibrav=0 with symmetry is DISCOURAGED, use correct ibrav instead

     K-points division:     npool     =       2
     R & G space division:  proc/nbgrp/npool/nimage =       4
     Subspace diagonalization in iterative solution of the eigenvalue problem:
     one sub-group per band group will be used

     Using Slab Decomposition

     bravais-lattice index     =            0
     lattice parameter (alat)  =      20.7652  a.u.
     unit-cell volume          =    2942.5469 (a.u.)^3
     number of atoms/cell      =           20
     number of atomic types    =            3
     number of electrons       =       176.00
     number of Kohn-Sham states=          256
     kinetic-energy cutoff     =      30.0000  Ry
     charge density cutoff     =     240.0000  Ry
     scf convergence threshold =      1.0E-06
     mixing beta               =       0.7000
     number of iterations used =            8  plain     mixing
     Exchange-correlation=  SLA  PW   PBX  PBC
                           (   1   4   3   4   0   0   0)

     celldm(1)=  20.765247  celldm(2)=   0.000000  celldm(3)=   0.000000
     celldm(4)=   0.000000  celldm(5)=   0.000000  celldm(6)=   0.000000

     crystal axes: (cart. coord. in units of alat)
               a(1) = (   1.000000   0.000000   0.000000 )
               a(2) = (   0.819932   0.572461   0.000000 )
               a(3) = (   0.037843   0.011904   0.574072 )

     reciprocal axes: (cart. coord. in units 2 pi/alat)
               b(1) = (  1.000000 -1.432292 -0.036222 )
               b(2) = (  0.000000  1.746843 -0.036222 )
               b(3) = (  0.000000  0.000000  1.741943 )

     PseudoPot. # 1 for Cs read from file:
     /lustre07/scratch/pragov/crystal_structure_design/utils/SSSP/Cs_pbe_v1.uspp.F.UPF
     MD5 check sum: 3476d69cb178dfad3ffaa59df4e07ca4
     Pseudo is Ultrasoft + core correction, Zval =  9.0
     Generated by new atomic code, or converted to UPF format
     Using radial grid of  905 points,  6 beta functions with:
                l(1) =   0
                l(2) =   0
                l(3) =   1
                l(4) =   1
                l(5) =   2
                l(6) =   2
     Q(r) pseudized with  6 coefficients,  rinner =    1.500   1.500   1.500
                                                       1.500   1.500

     PseudoPot. # 2 for Sb read from file:
     /lustre07/scratch/pragov/crystal_structure_design/utils/SSSP/sb_pbe_v1.4.uspp.F.UPF
     MD5 check sum: 9bc50dfb53373b713f5709b9110fe27f
     Pseudo is Ultrasoft + core correction, Zval = 15.0
     Generated by new atomic code, or converted to UPF format
     Using radial grid of  891 points,  6 beta functions with:
                l(1) =   0
                l(2) =   0
                l(3) =   1
                l(4) =   1
                l(5) =   2
                l(6) =   2
     Q(r) pseudized with  8 coefficients,  rinner =    1.350   1.350   1.350
                                                       1.350   1.350

     PseudoPot. # 3 for F  read from file:
     /lustre07/scratch/pragov/crystal_structure_design/utils/SSSP/f_pbe_v1.4.uspp.F.UPF
     MD5 check sum: 4c38b6a325caf53ec0e86aed9459de46
     Pseudo is Ultrasoft, Zval =  7.0
     Generated by new atomic code, or converted to UPF format
     Using radial grid of  799 points,  4 beta functions with:
                l(1) =   0
                l(2) =   0
                l(3) =   1
                l(4) =   1
     Q(r) pseudized with  8 coefficients,  rinner =    0.950   0.950   0.950

     atomic species   valence    mass     pseudopotential
        Cs             9.00   132.90545     Cs( 1.00)
        Sb            15.00   121.76000     Sb( 1.00)
        F              7.00    18.99840     F ( 1.00)

      2 Sym. Ops., with inversion, found

                                    s                        frac. trans.

      isym =  1     identity

 cryst.   s( 1) = (     1          0          0      )
                  (     0          1          0      )
                  (     0          0          1      )

 cart.    s( 1) = (  1.0000000  0.0000000  0.0000000 )
                  (  0.0000000  1.0000000 -0.0000000 )
                  (  0.0000000  0.0000000  1.0000000 )

      isym =  2     inversion

 cryst.   s( 2) = (    -1          0          0      )
                  (     0         -1          0      )
                  (     0          0         -1      )

 cart.    s( 2) = ( -1.0000000  0.0000000  0.0000000 )
                  (  0.0000000 -1.0000000  0.0000000 )
                  (  0.0000000  0.0000000 -1.0000000 )

   Cartesian axes

     site n.     atom                  positions (alat units)
         1           Cs  tau(   1) = (   0.9611464   0.1565741   0.1435179  )
         2           Cs  tau(   2) = (   0.8966289   0.4277908   0.4305537  )
         3           Sb  tau(   3) = (   1.2734349   0.2450842   0.4087499  )
         4           Sb  tau(   4) = (   1.1655092   0.5220879   0.1217141  )
         5           Sb  tau(   5) = (   0.5843404   0.3392807   0.1653217  )
         6           Sb  tau(   6) = (   0.6922661   0.0622770   0.4523575  )
         7           F   tau(   7) = (   1.5706146   0.5588436   0.0172044  )
         8           F   tau(   8) = (   0.6626710   0.2200790   0.5354653  )
         9           F   tau(   9) = (   0.2871607   0.0255213   0.5568672  )
        10           F   tau(  10) = (   0.7600463   0.3687000   0.1187708  )
        11           F   tau(  11) = (   1.0977290   0.2156649   0.4553008  )
        12           F   tau(  12) = (   1.2073653   0.3914131   0.3256421  )
        13           F   tau(  13) = (   0.2311404   0.1375108   0.2698314  )
        14           F   tau(  14) = (   1.0046010   0.4456249   0.1682650  )
        15           F   tau(  15) = (   0.6504100   0.1929518   0.2484295  )
        16           F   tau(  16) = (   0.4288876   0.2921825   0.2870358  )
        17           F   tau(  17) = (   0.8531743   0.1387400   0.4058066  )
        18           F   tau(  18) = (   1.6266349   0.4468541   0.3042401  )
        19           F   tau(  19) = (   0.5000000   0.0000000   0.0000000  )
        20           F   tau(  20) = (   1.1951043   0.3642859   0.0386063  )

   Crystallographic axes

     site n.     atom                  positions (cryst. coord.)
         1           Cs  tau(   1) = (  0.7316880  0.2683120  0.2500000  )
         2           Cs  tau(   2) = (  0.2683120  0.7316880  0.7500000  )
         3           Sb  tau(   3) = (  0.9075970  0.4133180  0.7120190  )
         4           Sb  tau(   4) = (  0.4133180  0.9075970  0.2120190  )
         5           Sb  tau(   5) = (  0.0924030  0.5866820  0.2879810  )
         6           Sb  tau(   6) = (  0.5866820  0.0924030  0.7879810  )
         7           F   tau(   7) = (  0.7695640  0.9755890  0.0299690  )
         8           F   tau(   8) = (  0.3280580  0.3650480  0.9327500  )
         9           F   tau(   9) = (  0.2304360  0.0244110  0.9700310  )
        10           F   tau(  10) = (  0.2276580  0.6397590  0.2068920  )
        11           F   tau(  11) = (  0.7723420  0.3602410  0.7931080  )
        12           F   tau(  12) = (  0.6349520  0.6719420  0.5672500  )
        13           F   tau(  13) = (  0.0244110  0.2304360  0.4700310  )
        14           F   tau(  14) = (  0.3602410  0.7723420  0.2931080  )
        15           F   tau(  15) = (  0.3650480  0.3280580  0.4327500  )
        16           F   tau(  16) = ( -0.0000000  0.5000000  0.5000000  )
        17           F   tau(  17) = (  0.6397590  0.2276580  0.7068920  )
        18           F   tau(  18) = (  0.9755890  0.7695640  0.5299690  )
        19           F   tau(  19) = (  0.5000000  0.0000000  0.0000000  )
        20           F   tau(  20) = (  0.6719420  0.6349520  0.0672500  )

     number of k points=    14
                       cart. coord. in units 2pi/alat
        k(    1) = (   0.0000000   0.0000000   0.0000000), wk =   0.0740741
        k(    2) = (   0.0000000   0.0000000   0.5806477), wk =   0.1481481
        k(    3) = (   0.0000000   0.5822811  -0.0120739), wk =   0.1481481
        k(    4) = (   0.0000000   0.5822811   0.5685737), wk =   0.1481481
        k(    5) = (   0.0000000   0.5822811  -0.5927216), wk =   0.1481481
        k(    6) = (   0.3333333  -0.4774308  -0.0120739), wk =   0.1481481
        k(    7) = (   0.3333333  -0.4774308   0.5685737), wk =   0.1481481
        k(    8) = (   0.3333333  -0.4774308  -0.5927216), wk =   0.1481481
        k(    9) = (   0.3333333   0.1048503  -0.0241479), wk =   0.1481481
        k(   10) = (   0.3333333   0.1048503   0.5564998), wk =   0.1481481
        k(   11) = (   0.3333333   0.1048503  -0.6047955), wk =   0.1481481
        k(   12) = (   0.3333333  -1.0597119   0.0000000), wk =   0.1481481
        k(   13) = (   0.3333333  -1.0597119   0.5806477), wk =   0.1481481
        k(   14) = (   0.3333333  -1.0597119  -0.5806477), wk =   0.1481481

                       cryst. coord.
        k(    1) = (   0.0000000   0.0000000   0.0000000), wk =   0.0740741
        k(    2) = (   0.0000000   0.0000000   0.3333333), wk =   0.1481481
        k(    3) = (   0.0000000   0.3333333  -0.0000000), wk =   0.1481481
        k(    4) = (   0.0000000   0.3333333   0.3333333), wk =   0.1481481
        k(    5) = (   0.0000000   0.3333333  -0.3333333), wk =   0.1481481
        k(    6) = (   0.3333333   0.0000000   0.0000000), wk =   0.1481481
        k(    7) = (   0.3333333   0.0000000   0.3333333), wk =   0.1481481
        k(    8) = (   0.3333333   0.0000000  -0.3333333), wk =   0.1481481
        k(    9) = (   0.3333333   0.3333333   0.0000000), wk =   0.1481481
        k(   10) = (   0.3333333   0.3333333   0.3333333), wk =   0.1481481
        k(   11) = (   0.3333333   0.3333333  -0.3333333), wk =   0.1481481
        k(   12) = (   0.3333333  -0.3333333   0.0000000), wk =   0.1481481
        k(   13) = (   0.3333333  -0.3333333   0.3333333), wk =   0.1481481
        k(   14) = (   0.3333333  -0.3333333  -0.3333333), wk =   0.1481481

     Check: negative core charge=   -0.000004

     Initial potential from superposition of free atoms

     starting charge     171.9212, renormalised to     176.0000
     Starting wfcs are  118 randomized atomic wfcs +  138 random wfcs

     Self-consistent Calculation

     iteration #  1     ecut=    30.00 Ry     beta= 0.70
     Davidson diagonalization with overlap

     ethr =  1.00E-02,  avg # of iterations =  6.8

     Threshold (ethr) on eigenvalues was too large:
     Diagonalizing with lowered threshold

     Davidson diagonalization with overlap

[...]

     total energy              =   -1546.96396221 Ry
     estimated scf accuracy    <       1.73958790 Ry

[...]

     total energy              =   -1547.61325857 Ry
     estimated scf accuracy    <       0.00000441 Ry

     iteration #  9     ecut=    30.00 Ry     beta= 0.70
     Davidson diagonalization with overlap

     ethr =  2.50E-09,  avg # of iterations =  1.8

     End of self-consistent calculation

          k = 0.0000 0.0000 0.0000 (  8163 PWs)   bands (ev):

   -26.1889 -26.1842 -26.1621 -26.1571 -26.1531 -26.1491 -26.1475 -26.1384
   -26.0357 -26.0323 -26.0308 -26.0306 -25.9997 -25.9994 -25.9989 -25.9988
   -25.9494 -25.9471 -25.9457 -25.9429 -20.2462 -20.1703 -20.0844 -20.0163
   -19.6325 -19.6315 -19.5056 -19.5046 -19.2968 -19.2521 -19.1583 -19.0257
   -19.0087 -18.9789 -17.0199 -16.9941  -6.5910  -6.1041  -5.7349  -5.0927
    -4.1164  -4.1076  -3.8591  -3.8423  -3.7712  -3.7548  -2.9743  -2.9162
    -2.8231  -2.5972  -2.4341  -2.3724  -1.8304  -1.8147  -1.6578  -1.6066
    -1.4895  -1.2771  -1.2061  -1.1418  -1.0589  -0.9832  -0.9774  -0.8692
    -0.8057  -0.7655  -0.7309  -0.6624  -0.5939  -0.5388  -0.3858  -0.3825
    -0.3608  -0.3096  -0.1522  -0.0955  -0.0850  -0.0650  -0.0181   0.0515
     0.0940   0.1075   0.1987   0.2593   0.3328   1.2509   1.4769   2.1165
     6.3175   6.4494   6.8549   6.9828   7.6858   7.9186   8.2711   8.5480
     8.5829   8.6383   8.6656   8.7017   8.9181   9.7181   9.8360  10.0199
    10.3534  10.5318  11.0248  11.3314  11.3674  11.4739  11.5145  11.9800
    12.1697  12.7368  12.7389  12.8428  12.9762  13.0840  13.3072  13.4818
    13.6326  13.9618  14.0798  14.7178  15.0934  15.1380  15.1805  15.2540
    15.3555  15.4934  15.6906  15.8493  16.0557  16.0893  16.1744  16.4352
    16.7073  16.9320  16.9854  17.5262  17.5287  17.8126  18.0689  18.3597
    18.4061  18.5101  18.5570  18.8337  18.9448  19.1517  19.1623  19.1833
    19.4225  19.4340  19.4537  19.5003  19.6251  19.6725  19.8446  20.1344
    20.1531  20.2209  20.2387  20.3693  20.4697  20.4822  20.5676  20.6322
    20.8245  21.0535  21.0647  21.1154  21.4128  21.5016  21.5457  21.5614
    21.6791  22.0111  22.0373  22.4391  22.5979  22.6666  22.7767  22.9023
    22.9649  23.2093  23.2118  23.4597  23.4953  23.6030  23.7634  23.8852
    23.9637  24.0933  24.3025  24.3287  24.3788  24.4416  24.7937  24.9289
    25.3315  25.3904  25.4799  25.5101  25.6110  25.7678  25.9426  26.0593
    26.1561  26.2376  26.3412  26.4212  26.5286  26.7014  26.8860  27.1761
    27.3453  27.4040  27.6179  27.9840  28.0807  28.1953  28.2736  28.3286
    28.4375  28.5388  28.6489  28.6864  28.7109  28.9713  29.0379  29.2115
    29.3641  29.5372  29.7186  29.8334  29.8524  30.2948  30.3989  30.5917
    30.7127  30.8155  30.8216  30.8789  30.9169  31.0008  31.2389  31.3286
    31.4295  31.4641  31.5467  31.7120  31.7461  31.8920  32.0240  32.0602

     occupation numbers
     1.0000   1.0000   1.0000   1.0000   1.0000   1.0000   1.0000   1.0000
     1.0000   1.0000   1.0000   1.0000   1.0000   1.0000   1.0000   1.0000
     1.0000   1.0000   1.0000   1.0000   1.0000   1.0000   1.0000   1.0000
     1.0000   1.0000   1.0000   1.0000   1.0000   1.0000   1.0000   1.0000
     1.0000   1.0000   1.0000   1.0000   1.0000   1.0000   1.0000   1.0000
     1.0000   1.0000   1.0000   1.0000   1.0000   1.0000   1.0000   1.0000
     1.0000   1.0000   1.0000   1.0000   1.0000   1.0000   1.0000   1.0000
     1.0000   1.0000   1.0000   1.0000   1.0000   1.0000   1.0000   1.0000
     1.0000   1.0000   1.0000   1.0000   1.0000   1.0000   1.0000   1.0000
     1.0000   1.0000   1.0000   1.0000   1.0000   1.0000   1.0000   1.0000
     1.0000   1.0000   1.0000   1.0000   1.0000   1.0000   1.0000   1.0000
     0.0000   0.0000   0.0000   0.0000   0.0000   0.0000   0.0000   0.0000
     0.0000   0.0000   0.0000   0.0000   0.0000   0.0000   0.0000   0.0000
     0.0000   0.0000   0.0000   0.0000   0.0000   0.0000   0.0000   0.0000
     0.0000   0.0000   0.0000   0.0000   0.0000   0.0000   0.0000   0.0000
     0.0000   0.0000   0.0000   0.0000   0.0000   0.0000   0.0000   0.0000
     0.0000   0.0000   0.0000   0.0000   0.0000   0.0000   0.0000   0.0000
     0.0000   0.0000   0.0000   0.0000   0.0000   0.0000   0.0000   0.0000
     0.0000   0.0000   0.0000   0.0000   0.0000   0.0000   0.0000   0.0000
     0.0000   0.0000   0.0000   0.0000   0.0000   0.0000   0.0000   0.0000
     0.0000   0.0000   0.0000   0.0000   0.0000   0.0000   0.0000   0.0000
     0.0000   0.0000   0.0000   0.0000   0.0000   0.0000   0.0000   0.0000
     0.0000   0.0000   0.0000   0.0000   0.0000   0.0000   0.0000   0.0000
     0.0000   0.0000   0.0000   0.0000   0.0000   0.0000   0.0000   0.0000
     0.0000   0.0000   0.0000   0.0000   0.0000   0.0000   0.0000   0.0000
     0.0000   0.0000   0.0000   0.0000   0.0000   0.0000   0.0000   0.0000
     0.0000   0.0000   0.0000   0.0000   0.0000   0.0000   0.0000   0.0000
     0.0000   0.0000   0.0000   0.0000   0.0000   0.0000   0.0000   0.0000
     0.0000   0.0000   0.0000   0.0000   0.0000   0.0000   0.0000   0.0000
     0.0000   0.0000   0.0000   0.0000   0.0000   0.0000   0.0000   0.0000
     0.0000   0.0000   0.0000   0.0000   0.0000   0.0000   0.0000   0.0000
     0.0000   0.0000   0.0000   0.0000   0.0000   0.0000   0.0000   0.0000

[...]

          k = 0.3333-1.0597-0.5806 (  8165 PWs)   bands (ev):

   -26.1773 -26.1758 -26.1696 -26.1661 -26.1592 -26.1555 -26.1447 -26.1404
   -26.0329 -26.0318 -26.0317 -26.0307 -26.0000 -25.9998 -25.9984 -25.9973
   -25.9487 -25.9477 -25.9440 -25.9428 -20.1804 -20.1487 -20.1093 -20.0678
   -19.5967 -19.5949 -19.5617 -19.5616 -19.2771 -19.2675 -19.0984 -19.0878
   -18.9977 -18.9661 -17.0131 -17.0061  -6.2874  -6.1041  -5.7896  -5.5121
    -4.0585  -4.0069  -3.8871  -3.8816  -3.7893  -3.7039  -2.8739  -2.8220
    -2.7206  -2.6342  -2.4730  -2.4202  -1.7939  -1.7468  -1.6594  -1.5823
    -1.4327  -1.3505  -1.1748  -1.1290  -1.0323  -1.0092  -0.9846  -0.9213
    -0.8915  -0.8722  -0.7858  -0.7446  -0.5875  -0.5613  -0.5070  -0.5021
    -0.2952  -0.2398  -0.2177  -0.1361  -0.1022  -0.0295   0.0306   0.0413
     0.0911   0.1095   0.2003   0.2230   0.8510   0.9706   1.6349   1.8912
     6.4953   6.6275   6.7047   7.1284   7.7242   7.7952   8.1736   8.3585
     8.5404   8.6722   8.8805   9.1095   9.3047   9.5374  10.0172  10.0510
    10.4349  10.6388  10.7229  10.8886  11.1208  11.3555  11.6384  12.0857
    12.1170  12.3792  12.5026  12.8206  12.9774  13.1316  13.3434  13.5388
    13.6814  14.0706  14.1925  14.5484  14.7243  14.8563  15.1489  15.2963
    15.5280  15.6803  15.7468  15.9537  15.9974  16.2363  16.2903  16.4922
    16.7619  16.9963  17.0498  17.1815  17.2846  17.4856  17.6788  17.7288
    18.0509  18.2668  18.3409  18.4093  18.8320  18.8717  18.9404  19.0310
    19.1795  19.3632  19.5606  19.6662  19.8196  19.8775  20.0091  20.1004
    20.2398  20.3060  20.3978  20.4668  20.5782  20.6371  20.6815  20.7348
    20.8713  20.9005  21.3117  21.3754  21.6949  21.8605  21.9776  22.1353
    22.2501  22.3877  22.4984  22.5518  22.6921  22.7860  22.8749  22.9886
    23.0923  23.4127  23.4231  23.5213  23.8332  23.9008  24.0724  24.1688
    24.3159  24.4689  24.4848  24.6220  24.8131  24.9864  25.0302  25.1083
    25.1758  25.3402  25.4973  25.6085  25.8417  25.8671  25.9944  26.1683
    26.2454  26.3729  26.5819  26.6043  26.8049  27.0416  27.2107  27.2240
    27.3051  27.3638  27.4375  27.5931  27.7208  27.8335  27.9662  28.1618
    28.2819  28.3184  28.4597  28.6258  28.6774  28.7830  28.9011  29.0476
    29.1360  29.2700  29.3668  29.4204  29.6228  29.6385  29.8201  29.9540
    29.9699  30.1803  30.3384  30.3976  30.5357  30.6582  30.8913  31.0299
    31.0887  31.2067  31.2656  31.3406  31.4730  31.5993  31.6722  31.8551

     occupation numbers
     1.0000   1.0000   1.0000   1.0000   1.0000   1.0000   1.0000   1.0000
     1.0000   1.0000   1.0000   1.0000   1.0000   1.0000   1.0000   1.0000
     1.0000   1.0000   1.0000   1.0000   1.0000   1.0000   1.0000   1.0000
     1.0000   1.0000   1.0000   1.0000   1.0000   1.0000   1.0000   1.0000
     1.0000   1.0000   1.0000   1.0000   1.0000   1.0000   1.0000   1.0000
     1.0000   1.0000   1.0000   1.0000   1.0000   1.0000   1.0000   1.0000
     1.0000   1.0000   1.0000   1.0000   1.0000   1.0000   1.0000   1.0000
     1.0000   1.0000   1.0000   1.0000   1.0000   1.0000   1.0000   1.0000
     1.0000   1.0000   1.0000   1.0000   1.0000   1.0000   1.0000   1.0000
     1.0000   1.0000   1.0000   1.0000   1.0000   1.0000   1.0000   1.0000
     1.0000   1.0000   1.0000   1.0000   1.0000   1.0000   1.0000   1.0000
     0.0000   0.0000   0.0000   0.0000   0.0000   0.0000   0.0000   0.0000
     0.0000   0.0000   0.0000   0.0000   0.0000   0.0000   0.0000   0.0000
     0.0000   0.0000   0.0000   0.0000   0.0000   0.0000   0.0000   0.0000
     0.0000   0.0000   0.0000   0.0000   0.0000   0.0000   0.0000   0.0000
     0.0000   0.0000   0.0000   0.0000   0.0000   0.0000   0.0000   0.0000
     0.0000   0.0000   0.0000   0.0000   0.0000   0.0000   0.0000   0.0000
     0.0000   0.0000   0.0000   0.0000   0.0000   0.0000   0.0000   0.0000
     0.0000   0.0000   0.0000   0.0000   0.0000   0.0000   0.0000   0.0000
     0.0000   0.0000   0.0000   0.0000   0.0000   0.0000   0.0000   0.0000
     0.0000   0.0000   0.0000   0.0000   0.0000   0.0000   0.0000   0.0000
     0.0000   0.0000   0.0000   0.0000   0.0000   0.0000   0.0000   0.0000
     0.0000   0.0000   0.0000   0.0000   0.0000   0.0000   0.0000   0.0000
     0.0000   0.0000   0.0000   0.0000   0.0000   0.0000   0.0000   0.0000
     0.0000   0.0000   0.0000   0.0000   0.0000   0.0000   0.0000   0.0000
     0.0000   0.0000   0.0000   0.0000   0.0000   0.0000   0.0000   0.0000
     0.0000   0.0000   0.0000   0.0000   0.0000   0.0000   0.0000   0.0000
     0.0000   0.0000   0.0000   0.0000   0.0000   0.0000   0.0000   0.0000
     0.0000   0.0000   0.0000   0.0000   0.0000   0.0000   0.0000   0.0000
     0.0000   0.0000   0.0000   0.0000   0.0000   0.0000   0.0000   0.0000
     0.0000   0.0000   0.0000   0.0000   0.0000   0.0000   0.0000   0.0000
     0.0000   0.0000   0.0000   0.0000   0.0000   0.0000   0.0000   0.0000

     highest occupied, lowest unoccupied level (ev):     2.1822    6.3099

!    total energy              =   -1547.61325953 Ry
     estimated scf accuracy    <       0.00000013 Ry

     The total energy is the sum of the following terms:
     one-electron contribution =   -1049.99585885 Ry
     hartree contribution      =     610.87881412 Ry
     xc contribution           =    -367.77191541 Ry
     ewald contribution        =    -740.72429939 Ry

     convergence has been achieved in   9 iterations

     Writing all to output data dir bands_nm/myprefix.save/

     General routines

     Parallel routines

   This run was terminated on:  22: 6:51  15Jul2023

   JOB DONE.