     Program PWSCF v.7.1 starts on 14Jul2023 at  1:47: 7

     Reading input from espresso_4501.pwi
Warning: card &CELL ignored
Warning: card / ignored

     Current dimensions of program PWSCF are:
     Max number of different atomic species (ntypx) = 10
     Max number of k-points (npk) =  40000
     Max angular momentum in pseudopotentials (lmaxx) =  4
     file K.pbe-spn-kjpaw_psl.1.0.0.UPF: wavefunction(s)  3S renormalized
     Message from routine setup:
     using ibrav=0 with symmetry is DISCOURAGED, use correct ibrav instead

     K-points division:     npool     =       2
     R & G space division:  proc/nbgrp/npool/nimage =       4
     Subspace diagonalization in iterative solution of the eigenvalue problem:
     a serial algorithm will be used

     Using Slab Decomposition

     bravais-lattice index     =            0
     lattice parameter (alat)  =      14.5446  a.u.
     unit-cell volume          =    1953.3665 (a.u.)^3
     number of atoms/cell      =           12
     number of atomic types    =            3
     number of electrons       =       118.00
     number of Kohn-Sham states=           64
     kinetic-energy cutoff     =      30.0000  Ry
     charge density cutoff     =     240.0000  Ry
     scf convergence threshold =      1.0E-06
     mixing beta               =       0.7000
     number of iterations used =            8  plain     mixing
     Exchange-correlation=  SLA  PW   PBX  PBC
                           (   1   4   3   4   0   0   0)

     celldm(1)=  14.544572  celldm(2)=   0.000000  celldm(3)=   0.000000
     celldm(4)=   0.000000  celldm(5)=   0.000000  celldm(6)=   0.000000

     crystal axes: (cart. coord. in units of alat)
               a(1) = (   1.000000   0.000000   0.000000 )
               a(2) = (   0.564998   0.825093   0.000000 )
               a(3) = (   0.564998   0.297876   0.769446 )

     reciprocal axes: (cart. coord. in units 2 pi/alat)
               b(1) = (  1.000000 -0.684769 -0.469196 )
               b(2) = (  0.000000  1.211985 -0.469196 )
               b(3) = (  0.000000  0.000000  1.299636 )

     PseudoPot. # 1 for K  read from file:
     /lustre07/scratch/pragov/crystal_structure_design/utils/SSSP/K.pbe-spn-kjpaw_psl.1.0.0.UPF
     MD5 check sum: 7d58810084cac21f60fbe77ea2b688fd
     Pseudo is Projector augmented-wave + core cor, Zval =  9.0
     Generated using "atomic" code by A. Dal Corso  v.5.1
     Shape of augmentation charge: PSQ
     Using radial grid of 1165 points,  6 beta functions with:
                l(1) =   0
                l(2) =   0
                l(3) =   1
                l(4) =   1
                l(5) =   2
                l(6) =   2
     Q(r) pseudized with 0 coefficients

     PseudoPot. # 2 for Pt read from file:
     /lustre07/scratch/pragov/crystal_structure_design/utils/SSSP/pt_pbe_v1.4.uspp.F.UPF
     MD5 check sum: f09d6de1a584b5a045c4fc126da2d0c4
     Pseudo is Ultrasoft + core correction, Zval = 16.0
     Generated by new atomic code, or converted to UPF format
     Using radial grid of  985 points,  6 beta functions with:
                l(1) =   0
                l(2) =   0
                l(3) =   1
                l(4) =   1
                l(5) =   2
                l(6) =   2
     Q(r) pseudized with  8 coefficients,  rinner =    1.300   1.300   1.300
                                                       1.300   1.300

     PseudoPot. # 3 for S  read from file:
     /lustre07/scratch/pragov/crystal_structure_design/utils/SSSP/s_pbe_v1.4.uspp.F.UPF
     MD5 check sum: 88d86576ff6df21479756cfb9bdac1df
     Pseudo is Ultrasoft + core correction, Zval =  6.0
     Generated by new atomic code, or converted to UPF format
     Using radial grid of  907 points,  6 beta functions with:
                l(1) =   0
                l(2) =   0
                l(3) =   1
                l(4) =   1
                l(5) =   2
                l(6) =   2
     Q(r) pseudized with  8 coefficients,  rinner =    1.300   1.300   1.300
                                                       1.300   1.300

     atomic species   valence    mass     pseudopotential
        K              9.00    39.09830     K ( 1.00)
        Pt            16.00   195.08400     Pt( 1.00)
        S              6.00    32.06000     S ( 1.00)

      2 Sym. Ops., with inversion, found

                                    s                        frac. trans.

      isym =  1     identity

 cryst.   s( 1) = (     1          0          0      )
                  (     0          1          0      )
                  (     0          0          1      )

 cart.    s( 1) = (  1.0000000 -0.0000000  0.0000000 )
                  (  0.0000000  1.0000000  0.0000000 )
                  (  0.0000000  0.0000000  1.0000000 )

      isym =  2     inversion

 cryst.   s( 2) = (    -1          0          0      )
                  (     0         -1          0      )
                  (     0          0         -1      )

 cart.    s( 2) = ( -1.0000000  0.0000000  0.0000000 )
                  (  0.0000000 -1.0000000  0.0000000 )
                  (  0.0000000  0.0000000 -1.0000000 )

   Cartesian axes

     site n.     atom                  positions (alat units)
         1           K   tau(   1) = (   1.4781230   0.7792908   0.5339618  )
         2           K   tau(   2) = (   0.6518723   0.3436778   0.2354844  )
         3           Pt  tau(   3) = (   1.0649976   0.5614843   0.3847231  )
         4           Pt  tau(   4) = (   0.2824988   0.1489380   0.3847231  )
         5           Pt  tau(   5) = (   0.2824988   0.4125463   0.0000000  )
         6           Pt  tau(   6) = (   0.5000000   0.0000000   0.0000000  )
         7           S   tau(   7) = (   1.0433739   0.8201500   0.5619581  )
         8           S   tau(   8) = (   1.2662034   0.6675633   0.1678101  )
         9           S   tau(   9) = (   1.2662034   0.3974972   0.5619581  )
        10           S   tau(  10) = (   0.8637919   0.7254714   0.2074881  )
        11           S   tau(  11) = (   1.0866214   0.3028186   0.2074881  )
        12           S   tau(  12) = (   0.8637919   0.4554053   0.6016362  )

   Crystallographic axes

     site n.     atom                  positions (cryst. coord.)
         1           K   tau(   1) = (  0.6939560  0.6939560  0.6939560  )
         2           K   tau(   2) = (  0.3060440  0.3060440  0.3060440  )
         3           Pt  tau(   3) = (  0.5000000  0.5000000  0.5000000  )
         4           Pt  tau(   4) = ( -0.0000000  0.0000000  0.5000000  )
         5           Pt  tau(   5) = ( -0.0000000  0.5000000  0.0000000  )
         6           Pt  tau(   6) = (  0.5000000  0.0000000  0.0000000  )
         7           S   tau(   7) = (  0.2180920  0.7303410  0.7303410  )
         8           S   tau(   8) = (  0.7303410  0.7303410  0.2180920  )
         9           S   tau(   9) = (  0.7303410  0.2180920  0.7303410  )
        10           S   tau(  10) = (  0.2696590  0.7819080  0.2696590  )
        11           S   tau(  11) = (  0.7819080  0.2696590  0.2696590  )
        12           S   tau(  12) = (  0.2696590  0.2696590  0.7819080  )

     number of k points=    14
                       cart. coord. in units 2pi/alat
        k(    1) = (   0.0000000   0.0000000   0.0000000), wk =   0.0740741
        k(    2) = (   0.0000000   0.0000000   0.4332120), wk =   0.1481481
        k(    3) = (   0.0000000   0.4039951  -0.1563988), wk =   0.1481481
        k(    4) = (   0.0000000   0.4039951   0.2768132), wk =   0.1481481
        k(    5) = (   0.0000000   0.4039951  -0.5896108), wk =   0.1481481
        k(    6) = (   0.3333333  -0.2282563  -0.1563988), wk =   0.1481481
        k(    7) = (   0.3333333  -0.2282563   0.2768132), wk =   0.1481481
        k(    8) = (   0.3333333  -0.2282563  -0.5896108), wk =   0.1481481
        k(    9) = (   0.3333333   0.1757388  -0.3127976), wk =   0.1481481
        k(   10) = (   0.3333333   0.1757388   0.1204144), wk =   0.1481481
        k(   11) = (   0.3333333   0.1757388  -0.7460096), wk =   0.1481481
        k(   12) = (   0.3333333  -0.6322514  -0.0000000), wk =   0.1481481
        k(   13) = (   0.3333333  -0.6322514   0.4332120), wk =   0.1481481
        k(   14) = (   0.3333333  -0.6322514  -0.4332120), wk =   0.1481481

                       cryst. coord.
        k(    1) = (   0.0000000   0.0000000   0.0000000), wk =   0.0740741
        k(    2) = (   0.0000000   0.0000000   0.3333333), wk =   0.1481481
        k(    3) = (   0.0000000   0.3333333   0.0000000), wk =   0.1481481
        k(    4) = (   0.0000000   0.3333333   0.3333333), wk =   0.1481481
        k(    5) = (   0.0000000   0.3333333  -0.3333333), wk =   0.1481481
        k(    6) = (   0.3333333  -0.0000000   0.0000000), wk =   0.1481481
        k(    7) = (   0.3333333  -0.0000000   0.3333333), wk =   0.1481481
        k(    8) = (   0.3333333  -0.0000000  -0.3333333), wk =   0.1481481
        k(    9) = (   0.3333333   0.3333333   0.0000000), wk =   0.1481481
        k(   10) = (   0.3333333   0.3333333   0.3333333), wk =   0.1481481
        k(   11) = (   0.3333333   0.3333333  -0.3333333), wk =   0.1481481
        k(   12) = (   0.3333333  -0.3333333   0.0000000), wk =   0.1481481
        k(   13) = (   0.3333333  -0.3333333   0.3333333), wk =   0.1481481
        k(   14) = (   0.3333333  -0.3333333  -0.3333333), wk =   0.1481481

     Check: negative core charge=   -0.000002

     Initial potential from superposition of free atoms

     starting charge     115.9621, renormalised to     118.0000

     negative rho (up, down):  7.495E-01 0.000E+00
     Starting wfcs are   88 randomized atomic wfcs
     Checking if some PAW data can be deallocated...

     Self-consistent Calculation

     iteration #  1     ecut=    30.00 Ry     beta= 0.70
     Davidson diagonalization with overlap

     ethr =  1.00E-02,  avg # of iterations =  2.9

     negative rho (up, down):  6.817E-01 0.000E+00

     total energy              =   -1210.85523322 Ry
     estimated scf accuracy    <       5.51440340 Ry

[...]

     total energy              =   -1213.98036105 Ry
     estimated scf accuracy    <       0.00000732 Ry

     iteration # 10     ecut=    30.00 Ry     beta= 0.70
     Davidson diagonalization with overlap

     ethr =  6.20E-09,  avg # of iterations =  2.0

     negative rho (up, down):  7.037E-01 0.000E+00

     End of self-consistent calculation

          k = 0.0000 0.0000 0.0000 (  5421 PWs)   bands (ev):

   -45.8010 -45.8009 -45.6587 -44.9179 -44.9167 -44.9108 -44.8410 -44.8342
   -44.8331 -44.2073 -44.2005 -44.1994 -22.7001 -22.6931  -6.8330  -6.2554
    -6.2554  -6.2086  -6.1966  -6.1966  -6.1691  -5.5087  -5.5086  -5.1861
    -5.1861  -4.8654   0.6579   0.9987   0.9988   1.7997   1.7998   2.0754
     2.1176   3.1186   3.1186   3.2702   3.4272   3.4272   4.3329   4.6872
     4.6873   4.7153   4.9763   5.1024   5.1029   5.2729   5.2730   5.3983
     5.4039   5.4042   5.6693   5.6697   5.8608   5.8897   6.0056   6.0056
     6.4091   6.9104   6.9108   9.6350   9.8746   9.8747  10.3465  10.4462

     occupation numbers
     1.0000   1.0000   1.0000   1.0000   1.0000   1.0000   1.0000   1.0000
     1.0000   1.0000   1.0000   1.0000   1.0000   1.0000   1.0000   1.0000
     1.0000   1.0000   1.0000   1.0000   1.0000   1.0000   1.0000   1.0000
     1.0000   1.0000   1.0000   1.0000   1.0000   1.0000   1.0000   1.0000
     1.0000   1.0000   1.0000   1.0000   1.0000   1.0000   1.0000   1.0000
     1.0000   1.0000   1.0000   1.0000   1.0000   1.0000   1.0000   1.0000
     1.0000   1.0000   1.0000   1.0000   1.0000   1.0000   1.0000   1.0000
     1.0000   1.0000   1.0000   0.0000   0.0000   0.0000   0.0000   0.0000

[...]

          k = 0.3333-0.6323-0.4332 (  5406 PWs)   bands (ev):

   -45.8009 -45.8008 -45.6586 -44.9177 -44.9152 -44.9122 -44.8397 -44.8346
   -44.8340 -44.2060 -44.2009 -44.2003 -22.6985 -22.6947  -6.6366  -6.2829
    -6.2768  -6.2156  -6.1913  -6.1779  -6.0630  -5.7554  -5.4978  -5.2501
    -5.1852  -4.9951   1.1506   1.4186   1.4468   1.8666   1.9109   2.0765
     2.2925   2.4473   2.7896   2.8115   3.4956   3.5873   3.5963   3.7517
     4.3494   4.3973   4.7502   4.8725   5.0159   5.1969   5.3675   5.4963
     5.5674   5.6019   5.7412   5.9545   6.0686   6.3574   6.5365   6.6294
     6.8347   6.9259   7.1783   8.8941   9.1794   9.4408   9.5478   9.9710

     occupation numbers
     1.0000   1.0000   1.0000   1.0000   1.0000   1.0000   1.0000   1.0000
     1.0000   1.0000   1.0000   1.0000   1.0000   1.0000   1.0000   1.0000
     1.0000   1.0000   1.0000   1.0000   1.0000   1.0000   1.0000   1.0000
     1.0000   1.0000   1.0000   1.0000   1.0000   1.0000   1.0000   1.0000
     1.0000   1.0000   1.0000   1.0000   1.0000   1.0000   1.0000   1.0000
     1.0000   1.0000   1.0000   1.0000   1.0000   1.0000   1.0000   1.0000
     1.0000   1.0000   1.0000   1.0000   1.0000   1.0000   1.0000   1.0000
     1.0000   1.0000   1.0000   0.0000   0.0000   0.0000   0.0000   0.0000

     highest occupied, lowest unoccupied level (ev):     7.1784    8.7829

!    total energy              =   -1213.98036151 Ry
     estimated scf accuracy    <       0.00000090 Ry

     The total energy is the sum of the following terms:
     one-electron contribution =    -589.26566150 Ry
     hartree contribution      =     345.43809067 Ry
     xc contribution           =    -300.88342274 Ry
     ewald contribution        =    -558.43566921 Ry
     one-center paw contrib.   =    -110.83369872 Ry
      -> PAW hartree energy AE =      75.33205910 Ry
      -> PAW hartree energy PS =     -74.91189494 Ry
      -> PAW xc energy AE      =    -132.42591023 Ry
      -> PAW xc energy PS      =      21.17204734 Ry
      -> total E_H with PAW    =     345.85825483 Ry
      -> total E_XC with PAW   =    -412.13728562 Ry

     convergence has been achieved in  10 iterations

     Writing all to output data dir bands_nm/myprefix.save/

     General routines

     Parallel routines

     PAW routines

   This run was terminated on:   1:47:25  14Jul2023

   JOB DONE.