     Program PWSCF v.7.0 starts on  6Jun2023 at 11:39: 7

     K-points division:     npool     =       2
     R & G space division:  proc/nbgrp/npool/nimage =       4

     Reading input from espresso_16494.pwi
Warning: card &CELL ignored
Warning: card / ignored

     Current dimensions of program PWSCF are:
     Max number of different atomic species (ntypx) = 10
     Max number of k-points (npk) =  40000
     Max angular momentum in pseudopotentials (lmaxx) =  4
     Message from routine setup:
     using ibrav=0 with symmetry is DISCOURAGED, use correct ibrav instead

     Using Slab Decomposition

     bravais-lattice index     =            0
     lattice parameter (alat)  =      16.4876  a.u.
     unit-cell volume          =     595.9791 (a.u.)^3
     number of atoms/cell      =            7
     number of atomic types    =            2
     number of electrons       =        56.00
     number of Kohn-Sham states=           64
     kinetic-energy cutoff     =      30.0000  Ry
     charge density cutoff     =     240.0000  Ry
     scf convergence threshold =      1.0E-06
     mixing beta               =       0.7000
     number of iterations used =            8  plain     mixing
     Exchange-correlation= PBE
                           (   1   4   3   4   0   0   0)

     celldm(1)=  16.487552  celldm(2)=   0.000000  celldm(3)=   0.000000
     celldm(4)=   0.000000  celldm(5)=   0.000000  celldm(6)=   0.000000

     crystal axes: (cart. coord. in units of alat)
               a(1) = (   1.000000   0.000000   0.000000 )
               a(2) = (   0.921127   0.389263   0.000000 )
               a(3) = (   0.921126   0.186641   0.341601 )

     reciprocal axes: (cart. coord. in units 2 pi/alat)
               b(1) = (  1.000000 -2.366333 -1.403603 )
               b(2) = (  0.000000  2.568955 -1.403603 )
               b(3) = (  0.000000  0.000000  2.927393 )

     PseudoPot. # 1 for Zr read from file:
     /home/pragov/projects/rrg-bengioy-ad/pragov/crystal_structure_design/SSSP/Zr_pbe_v1.uspp.F.UPF
     MD5 check sum: 5db81b1e868ab7776c4564c113de050b
     Pseudo is Ultrasoft + core correction, Zval = 12.0
     Generated by new atomic code, or converted to UPF format
     Using radial grid of  887 points,  6 beta functions with:
                l(1) =   0
                l(2) =   0
                l(3) =   1
                l(4) =   1
                l(5) =   2
                l(6) =   2
     Q(r) pseudized with  6 coefficients,  rinner =    1.200   1.200   1.200
                                                       1.200   1.200

     PseudoPot. # 2 for N  read from file:
     /home/pragov/projects/rrg-bengioy-ad/pragov/crystal_structure_design/SSSP/N.pbe-n-radius_5.UPF
     MD5 check sum: 16739722b17309cd8fe442a2ace49922
     Pseudo is Ultrasoft + core correction, Zval =  5.0
     Generated using "atomic" code by A. Dal Corso  v.5.1
     Using radial grid of 1085 points,  4 beta functions with:
                l(1) =   0
                l(2) =   0
                l(3) =   1
                l(4) =   1
     Q(r) pseudized with 0 coefficients

     atomic species   valence    mass     pseudopotential
        Zr            12.00    91.22400     Zr( 1.00)
        N              5.00    14.00700     N ( 1.00)

      2 Sym. Ops., with inversion, found

                                    s                        frac. trans.

      isym =  1     identity

 cryst.   s( 1) = (     1          0          0      )
                  (     0          1          0      )
                  (     0          0          1      )

 cart.    s( 1) = (  1.0000000 -0.0000000  0.0000000 )
                  (  0.0000000  1.0000000 -0.0000000 )
                  (  0.0000000  0.0000000  1.0000000 )

      isym =  2     inversion

 cryst.   s( 2) = (    -1          0          0      )
                  (     0         -1          0      )
                  (     0          0         -1      )

 cart.    s( 2) = ( -1.0000000  0.0000000 -0.0000000 )
                  (  0.0000000 -1.0000000  0.0000000 )
                  (  0.0000000  0.0000000 -1.0000000 )

   Cartesian axes

     site n.     atom                  positions (alat units)
         1           Zr  tau(   1) = (   2.2104315   0.4478830   0.2656644  )
         2           Zr  tau(   2) = (   0.6318215   0.1280212   0.0759365  )
         3           Zr  tau(   3) = (   0.0000000   0.0000000   0.0000000  )
         4           N   tau(   4) = (   1.0751049   0.2178404   0.1292133  )
         5           N   tau(   5) = (   0.3755639   0.0760977   0.0451378  )
         6           N   tau(   6) = (   2.4666890   0.4998065   0.2964631  )
         7           N   tau(   7) = (   1.7671480   0.3580638   0.2123876  )

   Crystallographic axes

     site n.     atom                  positions (cryst. coord.)
         1           Zr  tau(   1) = (  0.7777040  0.7777040  0.7777040  )
         2           Zr  tau(   2) = (  0.2222960  0.2222960  0.2222960  )
         3           Zr  tau(   3) = (  0.0000000  0.0000000  0.0000000  )
         4           N   tau(   4) = (  0.3782580  0.3782580  0.3782580  )
         5           N   tau(   5) = (  0.1321360  0.1321360  0.1321360  )
         6           N   tau(   6) = (  0.8678640  0.8678640  0.8678640  )
         7           N   tau(   7) = (  0.6217420  0.6217420  0.6217420  )

     number of k points=    14
                       cart. coord. in units 2pi/alat
        k(    1) = (   0.0000000   0.0000000   0.0000000), wk =   0.0740741
        k(    2) = (   0.0000000   0.0000000   0.9757976), wk =   0.1481481
        k(    3) = (   0.0000000   0.8563184  -0.4678677), wk =   0.1481481
        k(    4) = (   0.0000000   0.8563184   0.5079300), wk =   0.1481481
        k(    5) = (   0.0000000   0.8563184  -1.4436653), wk =   0.1481481
        k(    6) = (   0.3333333  -0.7887775  -0.4678677), wk =   0.1481481
        k(    7) = (   0.3333333  -0.7887775   0.5079300), wk =   0.1481481
        k(    8) = (   0.3333333  -0.7887775  -1.4436653), wk =   0.1481481
        k(    9) = (   0.3333333   0.0675408  -0.9357354), wk =   0.1481481
        k(   10) = (   0.3333333   0.0675408   0.0400623), wk =   0.1481481
        k(   11) = (   0.3333333   0.0675408  -1.9115330), wk =   0.1481481
        k(   12) = (   0.3333333  -1.6450959   0.0000000), wk =   0.1481481
        k(   13) = (   0.3333333  -1.6450959   0.9757976), wk =   0.1481481
        k(   14) = (   0.3333333  -1.6450959  -0.9757976), wk =   0.1481481

                       cryst. coord.
        k(    1) = (   0.0000000   0.0000000   0.0000000), wk =   0.0740741
        k(    2) = (   0.0000000   0.0000000   0.3333333), wk =   0.1481481
        k(    3) = (   0.0000000   0.3333333   0.0000000), wk =   0.1481481
        k(    4) = (   0.0000000   0.3333333   0.3333333), wk =   0.1481481
        k(    5) = (   0.0000000   0.3333333  -0.3333333), wk =   0.1481481
        k(    6) = (   0.3333333  -0.0000000   0.0000000), wk =   0.1481481
        k(    7) = (   0.3333333  -0.0000000   0.3333333), wk =   0.1481481
        k(    8) = (   0.3333333  -0.0000000  -0.3333333), wk =   0.1481481
        k(    9) = (   0.3333333   0.3333333   0.0000000), wk =   0.1481481
        k(   10) = (   0.3333333   0.3333333   0.3333333), wk =   0.1481481
        k(   11) = (   0.3333333   0.3333333  -0.3333333), wk =   0.1481481
        k(   12) = (   0.3333333  -0.3333333   0.0000000), wk =   0.1481481
        k(   13) = (   0.3333333  -0.3333333   0.3333333), wk =   0.1481481
        k(   14) = (   0.3333333  -0.3333333  -0.3333333), wk =   0.1481481

     Check: negative core charge=   -0.000005

     Initial potential from superposition of free atoms

     starting charge      55.9935, renormalised to      56.0000

     negative rho (up, down):  1.810E-01 0.000E+00
     Starting wfcs are   55 randomized atomic wfcs +    9 random wfcs

     Self-consistent Calculation

     iteration #  1     ecut=    30.00 Ry     beta= 0.70
     Davidson diagonalization with overlap

     ethr =  1.00E-02,  avg # of iterations =  5.2

     negative rho (up, down):  1.885E-01 0.000E+00

     total energy              =    -377.26817880 Ry
     estimated scf accuracy    <       3.19357204 Ry

[...]

     total energy              =    -378.94238213 Ry
     estimated scf accuracy    <       0.00000907 Ry

     iteration # 12     ecut=    30.00 Ry     beta= 0.70
     Davidson diagonalization with overlap

     ethr =  1.62E-08,  avg # of iterations =  1.0

     negative rho (up, down):  1.918E-01 0.000E+00

     End of self-consistent calculation

          k = 0.0000 0.0000 0.0000 (  1665 PWs)   bands (ev):

   -35.4707 -34.6001 -34.5655 -13.6650 -13.2414 -13.2414 -12.9666 -12.5495
   -12.5080 -12.5080 -12.4580 -12.4580  -0.7350   0.3569   0.4711   1.4684
     8.7411   9.2972   9.2972  10.0586  10.0586  10.4326  10.5776  10.5776
    11.4651  12.9431  12.9431  14.1074  15.1406  15.1406  15.7588  16.9298
    17.1048  17.1048  17.2678  17.2678  18.6055  19.0322  19.7007  19.7007
    21.7241  22.1914  22.1914  23.0768  23.0768  23.3790  23.7064  25.9927
    26.6820  26.6820  28.1900  31.1843  31.3146  31.3146  31.6866  31.6866
    33.3478  33.4093  33.4093  34.3025  34.6279  34.6279  36.7105  36.7106

     occupation numbers
     1.0000   1.0000   1.0000   1.0000   1.0000   1.0000   1.0000   1.0000
     1.0000   1.0000   1.0000   1.0000   1.0000   1.0000   1.0000   1.0000
     1.0000   1.0000   1.0000   1.0000   1.0000   1.0000   1.0000   1.0000
     1.0000   1.0000   1.0000   1.0000   0.0000   0.0000   0.0000   0.0000
     0.0000   0.0000   0.0000   0.0000   0.0000   0.0000   0.0000   0.0000
     0.0000   0.0000   0.0000   0.0000   0.0000   0.0000   0.0000   0.0000
     0.0000   0.0000   0.0000   0.0000   0.0000   0.0000   0.0000   0.0000
     0.0000   0.0000   0.0000   0.0000   0.0000   0.0000   0.0000   0.0000

[...]

          k = 0.3333-1.6451-0.9758 (  1658 PWs)   bands (ev):

   -35.4405 -34.5580 -34.5375 -13.6128 -13.5736 -13.3164 -13.0153 -12.9720
   -12.7018 -12.6100 -12.5739 -12.5408   0.3416   0.7305   0.8723   1.1866
     8.7647   9.2157   9.6486  10.0953  10.1106  10.5751  10.7156  11.5973
    11.6806  12.0684  12.2634  13.0636  15.5757  16.4241  16.8624  17.1188
    17.5090  17.7077  17.9222  18.1722  18.9007  19.4920  19.6606  20.3422
    20.6566  20.8510  21.8611  22.1888  23.1040  25.0113  25.6052  25.7554
    26.2697  27.3740  28.6889  28.7628  29.3625  30.6707  31.1072  31.6940
    32.0039  32.4305  33.4603  33.5277  35.2413  35.2554  35.3913  35.7353

     occupation numbers
     1.0000   1.0000   1.0000   1.0000   1.0000   1.0000   1.0000   1.0000
     1.0000   1.0000   1.0000   1.0000   1.0000   1.0000   1.0000   1.0000
     1.0000   1.0000   1.0000   1.0000   1.0000   1.0000   1.0000   1.0000
     1.0000   1.0000   1.0000   1.0000   0.0000   0.0000   0.0000   0.0000
     0.0000   0.0000   0.0000   0.0000   0.0000   0.0000   0.0000   0.0000
     0.0000   0.0000   0.0000   0.0000   0.0000   0.0000   0.0000   0.0000
     0.0000   0.0000   0.0000   0.0000   0.0000   0.0000   0.0000   0.0000
     0.0000   0.0000   0.0000   0.0000   0.0000   0.0000   0.0000   0.0000

     highest occupied, lowest unoccupied level (ev):    14.1074   15.1406

!    total energy              =    -378.94238307 Ry
     estimated scf accuracy    <       0.00000015 Ry

     The total energy is the sum of the following terms:
     one-electron contribution =     -39.54616855 Ry
     hartree contribution      =      51.23943471 Ry
     xc contribution           =     -75.27859611 Ry
     ewald contribution        =    -315.35705312 Ry

     convergence has been achieved in  12 iterations

     Writing all to output data dir calculations_bands/myprefix.save/

     General routines

     Parallel routines

   This run was terminated on:  11:39:28   6Jun2023

   JOB DONE.