     Program PWSCF v.7.0 starts on  7Jun2023 at  3:18: 0

     K-points division:     npool     =       2
     R & G space division:  proc/nbgrp/npool/nimage =       4

     Reading input from espresso_1398.pwi
Warning: card &CELL ignored
Warning: card / ignored

     Current dimensions of program PWSCF are:
     Max number of different atomic species (ntypx) = 10
     Max number of k-points (npk) =  40000
     Max angular momentum in pseudopotentials (lmaxx) =  4
     file Mg.pbe-n-kjpaw_psl.0.3.0.UPF: wavefunction(s)  3S renormalized
     file Cd.pbe-dn-rrkjus_psl.0.3.1.UPF: wavefunction(s)  4D renormalized

     Using Slab Decomposition

     bravais-lattice index     =            0
     lattice parameter (alat)  =      15.1837  a.u.
     unit-cell volume          =     957.8884 (a.u.)^3
     number of atoms/cell      =            4
     number of atomic types    =            3
     number of electrons       =        26.00
     number of Kohn-Sham states=           64
     kinetic-energy cutoff     =      30.0000  Ry
     charge density cutoff     =     240.0000  Ry
     scf convergence threshold =      1.0E-06
     mixing beta               =       0.7000
     number of iterations used =            8  plain     mixing
     Exchange-correlation= SLA  PW   PBE  PBE
                           (   1   4   3   4   0   0   0)

     celldm(1)=  15.183684  celldm(2)=   0.000000  celldm(3)=   0.000000
     celldm(4)=   0.000000  celldm(5)=   0.000000  celldm(6)=   0.000000

     crystal axes: (cart. coord. in units of alat)
               a(1) = (   1.000000   0.000000   0.000000 )
               a(2) = (   0.832368   0.554223   0.000000 )
               a(3) = (   0.832368   0.251760   0.493741 )

     reciprocal axes: (cart. coord. in units 2 pi/alat)
               b(1) = (  1.000000 -1.501865 -0.920034 )
               b(2) = (  0.000000  1.804328 -0.920034 )
               b(3) = (  0.000000  0.000000  2.025355 )

     PseudoPot. # 1 for Mg read from file:
     /home/pragov/projects/rrg-bengioy-ad/pragov/crystal_structure_design/SSSP/Mg.pbe-n-kjpaw_psl.0.3.0.UPF
     MD5 check sum: 24ecedc7f3e3cbe212e682f4413594e4
     Pseudo is Projector augmented-wave + core cor, Zval =  2.0
     Generated using "atomic" code by A. Dal Corso  v.5.0.99 svn rev. 10869
     Shape of augmentation charge: PSQ
     Using radial grid of 1129 points,  4 beta functions with:
                l(1) =   0
                l(2) =   0
                l(3) =   1
                l(4) =   1
     Q(r) pseudized with 0 coefficients

     PseudoPot. # 2 for Cd read from file:
     /home/pragov/projects/rrg-bengioy-ad/pragov/crystal_structure_design/SSSP/Cd.pbe-dn-rrkjus_psl.0.3.1.UPF
     MD5 check sum: 558e9f355611b531a870a69ef6ace9e2
     Pseudo is Ultrasoft + core correction, Zval = 12.0
     Generated using "atomic" code by A. Dal Corso  v.5.0.99 svn rev. 10869
     Using radial grid of 1239 points,  6 beta functions with:
                l(1) =   0
                l(2) =   0
                l(3) =   1
                l(4) =   1
                l(5) =   2
                l(6) =   2
     Q(r) pseudized with 0 coefficients

     PseudoPot. # 3 for Te read from file:
     /home/pragov/projects/rrg-bengioy-ad/pragov/crystal_structure_design/SSSP/Te_pbe_v1.uspp.F.UPF
     MD5 check sum: c319670d6894cc26e93307826a071b75
     Pseudo is Ultrasoft + core correction, Zval =  6.0
     Generated by new atomic code, or converted to UPF format
     Using radial grid of  891 points,  5 beta functions with:
                l(1) =   0
                l(2) =   0
                l(3) =   1
                l(4) =   1
                l(5) =   2
     Q(r) pseudized with  6 coefficients,  rinner =    1.800   1.800   1.800
                                                       1.800   1.800

     atomic species   valence    mass     pseudopotential
        Mg             2.00    24.30500     Mg( 1.00)
        Cd            12.00   112.41400     Cd( 1.00)
        Te             6.00   127.60000     Te( 1.00)

     No symmetry found

                                    s                        frac. trans.

      isym =  1     identity

 cryst.   s( 1) = (     1          0          0      )
                  (     0          1          0      )
                  (     0          0          1      )

 cart.    s( 1) = (  1.0000000 -0.0000000  0.0000000 )
                  (  0.0000000  1.0000000  0.0000000 )
                  (  0.0000000  0.0000000  1.0000000 )

   Cartesian axes

     site n.     atom                  positions (alat units)
         1           Mg  tau(   1) = (   1.3309905   0.4025750   0.2466151  )
         2           Cd  tau(   2) = (   0.0008767   0.0002652   0.0001624  )
         3           Te  tau(   3) = (   0.3377473   0.1021560   0.0625802  )
         4           Te  tau(   4) = (   1.6613033   0.5024822   0.3078177  )

   Crystallographic axes

     site n.     atom                  positions (cryst. coord.)
         1           Mg  tau(   1) = (  0.4994830  0.4994830  0.4994830  )
         2           Cd  tau(   2) = (  0.0003290  0.0003290  0.0003290  )
         3           Te  tau(   3) = (  0.1267470  0.1267470  0.1267470  )
         4           Te  tau(   4) = (  0.6234400  0.6234400  0.6234400  )

     number of k points=    14
                       cart. coord. in units 2pi/alat
        k(    1) = (   0.0000000   0.0000000   0.0000000), wk =   0.0740741
        k(    2) = (   0.0000000   0.0000000   0.6751182), wk =   0.1481481
        k(    3) = (   0.0000000   0.6014426  -0.3066779), wk =   0.1481481
        k(    4) = (   0.0000000   0.6014426   0.3684403), wk =   0.1481481
        k(    5) = (   0.0000000   0.6014426  -0.9817962), wk =   0.1481481
        k(    6) = (   0.3333333  -0.5006217  -0.3066779), wk =   0.1481481
        k(    7) = (   0.3333333  -0.5006217   0.3684403), wk =   0.1481481
        k(    8) = (   0.3333333  -0.5006217  -0.9817962), wk =   0.1481481
        k(    9) = (   0.3333333   0.1008209  -0.6133559), wk =   0.1481481
        k(   10) = (   0.3333333   0.1008209   0.0617623), wk =   0.1481481
        k(   11) = (   0.3333333   0.1008209  -1.2884741), wk =   0.1481481
        k(   12) = (   0.3333333  -1.1020643   0.0000000), wk =   0.1481481
        k(   13) = (   0.3333333  -1.1020643   0.6751182), wk =   0.1481481
        k(   14) = (   0.3333333  -1.1020643  -0.6751182), wk =   0.1481481

                       cryst. coord.
        k(    1) = (   0.0000000   0.0000000   0.0000000), wk =   0.0740741
        k(    2) = (   0.0000000   0.0000000   0.3333333), wk =   0.1481481
        k(    3) = (   0.0000000   0.3333333  -0.0000000), wk =   0.1481481
        k(    4) = (   0.0000000   0.3333333   0.3333333), wk =   0.1481481
        k(    5) = (   0.0000000   0.3333333  -0.3333333), wk =   0.1481481
        k(    6) = (   0.3333333  -0.0000000  -0.0000000), wk =   0.1481481
        k(    7) = (   0.3333333  -0.0000000   0.3333333), wk =   0.1481481
        k(    8) = (   0.3333333  -0.0000000  -0.3333333), wk =   0.1481481
        k(    9) = (   0.3333333   0.3333333  -0.0000000), wk =   0.1481481
        k(   10) = (   0.3333333   0.3333333   0.3333333), wk =   0.1481481
        k(   11) = (   0.3333333   0.3333333  -0.3333333), wk =   0.1481481
        k(   12) = (   0.3333333  -0.3333333  -0.0000000), wk =   0.1481481
        k(   13) = (   0.3333333  -0.3333333   0.3333333), wk =   0.1481481
        k(   14) = (   0.3333333  -0.3333333  -0.3333333), wk =   0.1481481

     Initial potential from superposition of free atoms

     starting charge      25.9938, renormalised to      26.0000
     Starting wfcs are   21 randomized atomic wfcs +   43 random wfcs
     Checking if some PAW data can be deallocated...

     Self-consistent Calculation

     iteration #  1     ecut=    30.00 Ry     beta= 0.70
     Davidson diagonalization with overlap

     ethr =  1.00E-02,  avg # of iterations =  6.9

     Threshold (ethr) on eigenvalues was too large:
     Diagonalizing with lowered threshold

     Davidson diagonalization with overlap

[...]

     total energy              =    -208.97755489 Ry
     estimated scf accuracy    <       0.11009859 Ry

[...]

     total energy              =    -209.00947459 Ry
     estimated scf accuracy    <       0.00010652 Ry

     iteration #  6     ecut=    30.00 Ry     beta= 0.70
     Davidson diagonalization with overlap

     ethr =  4.10E-07,  avg # of iterations =  1.9

     End of self-consistent calculation

          k = 0.0000 0.0000 0.0000 (  2707 PWs)   bands (ev):

    -7.2509  -6.7906  -4.5076  -4.5076  -4.3217  -4.3217  -4.2748  -0.4088
     2.5706   2.5706   3.2115   3.2969   3.2969   4.4957   5.8009   8.1617
     8.1617   8.1925   8.4859   8.4859  10.4258  11.3296  11.9914  11.9914
    12.3752  13.4001  13.4001  13.5880  13.8436  13.8436  14.5667  14.6442
    14.6442  15.9235  19.6501  20.9472  21.3359  21.3359  21.7333  21.7334
    23.6769  23.6780  23.6780  24.2844  24.3111  24.3111  24.8943  24.9491
    24.9596  24.9596  25.0629  25.0629  25.5967  26.1664  26.1664  26.2937
    26.6655  26.6655  29.3079  29.6509  29.6510  29.7433  29.7433  30.0224

     occupation numbers
     1.0000   1.0000   1.0000   1.0000   1.0000   1.0000   1.0000   1.0000
     1.0000   1.0000   1.0000   1.0000   1.0000   0.0000   0.0000   0.0000
     0.0000   0.0000   0.0000   0.0000   0.0000   0.0000   0.0000   0.0000
     0.0000   0.0000   0.0000   0.0000   0.0000   0.0000   0.0000   0.0000
     0.0000   0.0000   0.0000   0.0000   0.0000   0.0000   0.0000   0.0000
     0.0000   0.0000   0.0000   0.0000   0.0000   0.0000   0.0000   0.0000
     0.0000   0.0000   0.0000   0.0000   0.0000   0.0000   0.0000   0.0000
     0.0000   0.0000   0.0000   0.0000   0.0000   0.0000   0.0000   0.0000

[...]

          k = 0.3333-1.1021-0.6751 (  2663 PWs)   bands (ev):

    -6.9069  -6.7133  -4.4495  -4.3893  -4.3283  -4.3046  -4.1610  -0.1289
     0.4641   1.8284   2.0607   2.1116   2.6757   6.0968   6.5117   6.8692
     8.3426   8.9843   9.6787  10.5891  10.8027  10.8461  11.3995  12.6814
    13.4353  13.6398  14.5279  15.3808  16.0295  16.1239  16.3728  16.8707
    16.9308  16.9684  17.4685  17.5510  18.2546  18.3866  18.9545  20.8759
    21.6407  21.9823  22.6349  23.1512  23.3474  23.4390  23.7145  24.1907
    24.3001  25.0337  25.3661  25.5861  25.8104  25.9225  26.1623  26.5197
    26.7098  27.4948  28.2777  29.0596  29.7464  29.9877  30.3332  30.5581

     occupation numbers
     1.0000   1.0000   1.0000   1.0000   1.0000   1.0000   1.0000   1.0000
     1.0000   1.0000   1.0000   1.0000   1.0000   0.0000   0.0000   0.0000
     0.0000   0.0000   0.0000   0.0000   0.0000   0.0000   0.0000   0.0000
     0.0000   0.0000   0.0000   0.0000   0.0000   0.0000   0.0000   0.0000
     0.0000   0.0000   0.0000   0.0000   0.0000   0.0000   0.0000   0.0000
     0.0000   0.0000   0.0000   0.0000   0.0000   0.0000   0.0000   0.0000
     0.0000   0.0000   0.0000   0.0000   0.0000   0.0000   0.0000   0.0000
     0.0000   0.0000   0.0000   0.0000   0.0000   0.0000   0.0000   0.0000

     highest occupied, lowest unoccupied level (ev):     3.2969    4.4957

!    total energy              =    -209.00949840 Ry
     estimated scf accuracy    <       0.00000095 Ry

     The total energy is the sum of the following terms:
     one-electron contribution =     -77.76892597 Ry
     hartree contribution      =      54.64677439 Ry
     xc contribution           =     -73.40809402 Ry
     ewald contribution        =     -81.19719169 Ry
     one-center paw contrib.   =     -31.28206111 Ry
      -> PAW hartree energy AE =       0.64686281 Ry
      -> PAW hartree energy PS =      -0.64534160 Ry
      -> PAW xc energy AE      =     -32.51917280 Ry
      -> PAW xc energy PS      =       1.23559047 Ry
      -> total E_H with PAW    =      54.64829561 Ry
      -> total E_XC with PAW   =    -104.69167635 Ry

     convergence has been achieved in   6 iterations

     Writing all to output data dir calculations_bands/myprefix.save/

     General routines

     Parallel routines

     PAW routines

   This run was terminated on:   3:18:15   7Jun2023

   JOB DONE.