     Program PWSCF v.7.0 starts on  7Jun2023 at  1:38: 2

     K-points division:     npool     =       2
     R & G space division:  proc/nbgrp/npool/nimage =       4

     Reading input from espresso_1156.pwi
Warning: card &CELL ignored
Warning: card / ignored

     Current dimensions of program PWSCF are:
     Max number of different atomic species (ntypx) = 10
     Max number of k-points (npk) =  40000
     Max angular momentum in pseudopotentials (lmaxx) =  4
     file Al.pbe-n-kjpaw_psl.1.0.0.UPF: wavefunction(s)  3S 3P renormalized

     Using Slab Decomposition

     bravais-lattice index     =            0
     lattice parameter (alat)  =      13.0206  a.u.
     unit-cell volume          =    1760.4134 (a.u.)^3
     number of atoms/cell      =           10
     number of atomic types    =            2
     number of electrons       =        48.00
     number of Kohn-Sham states=           64
     kinetic-energy cutoff     =      30.0000  Ry
     charge density cutoff     =     240.0000  Ry
     scf convergence threshold =      1.0E-06
     mixing beta               =       0.7000
     number of iterations used =            8  plain     mixing
     Exchange-correlation= SLA  PW   PBE  PBE
                           (   1   4   3   4   0   0   0)

     celldm(1)=  13.020551  celldm(2)=   0.000000  celldm(3)=   0.000000
     celldm(4)=   0.000000  celldm(5)=   0.000000  celldm(6)=   0.000000

     crystal axes: (cart. coord. in units of alat)
               a(1) = (   1.000000   0.000000   0.000000 )
               a(2) = (   0.506275   0.862372   0.000000 )
               a(3) = (   0.482595   0.276295   0.924766 )

     reciprocal axes: (cart. coord. in units 2 pi/alat)
               b(1) = (  1.000000 -0.587073 -0.346455 )
               b(2) = (  0.000000  1.159593 -0.346455 )
               b(3) = (  0.000000  0.000000  1.081354 )

     PseudoPot. # 1 for Al read from file:
     /home/pragov/projects/rrg-bengioy-ad/pragov/crystal_structure_design/SSSP/Al.pbe-n-kjpaw_psl.1.0.0.UPF
     MD5 check sum: cfc449ca30b5f3223ec38ddd88ac046d
     Pseudo is Projector augmented-wave + core cor, Zval =  3.0
     Generated using "atomic" code by A. Dal Corso  v.5.1
     Shape of augmentation charge: PSQ
     Using radial grid of 1135 points,  6 beta functions with:
                l(1) =   0
                l(2) =   0
                l(3) =   1
                l(4) =   1
                l(5) =   2
                l(6) =   2
     Q(r) pseudized with 0 coefficients

     PseudoPot. # 2 for Se read from file:
     /home/pragov/projects/rrg-bengioy-ad/pragov/crystal_structure_design/SSSP/Se_pbe_v1.uspp.F.UPF
     MD5 check sum: 1b3568f3a8ae88f9a2a0ad0698632c85
     Pseudo is Ultrasoft + core correction, Zval =  6.0
     Generated by new atomic code, or converted to UPF format
     Using radial grid of  877 points,  6 beta functions with:
                l(1) =   0
                l(2) =   0
                l(3) =   1
                l(4) =   1
                l(5) =   2
                l(6) =   2
     Q(r) pseudized with  8 coefficients,  rinner =    1.300   1.300   1.300
                                                       1.300   1.300

     atomic species   valence    mass     pseudopotential
        Al             3.00    26.98154     Al( 1.00)
        Se             6.00    78.97100     Se( 1.00)

     No symmetry found

                                    s                        frac. trans.

      isym =  1     identity

 cryst.   s( 1) = (     1          0          0      )
                  (     0          1          0      )
                  (     0          0          1      )

 cart.    s( 1) = (  1.0000000  0.0000000 -0.0000000 )
                  (  0.0000000  1.0000000  0.0000000 )
                  (  0.0000000  0.0000000  1.0000000 )

   Cartesian axes

     site n.     atom                  positions (alat units)
         1           Al  tau(   1) = (   1.2830416   0.6240711   0.8050922  )
         2           Al  tau(   2) = (   0.9464561   0.6523595   0.3427091  )
         3           Al  tau(   3) = (   0.7599901   0.3613589   0.8169866  )
         4           Al  tau(   4) = (   0.4550923   0.3342994   0.3546035  )
         5           Se  tau(   5) = (   0.9599278   0.0795394   0.0122883  )
         6           Se  tau(   6) = (   0.7958781   0.9256935   0.4746714  )
         7           Se  tau(   7) = (   1.4444190   0.9259934   0.9109844  )
         8           Se  tau(   8) = (   1.2885268   0.6386710   0.4486013  )
         9           Se  tau(   9) = (   0.9462978   0.6448388   0.9225218  )
        10           Se  tau(  10) = (   0.7938804   0.3514470   0.4601387  )

   Crystallographic axes

     site n.     atom                  positions (cryst. coord.)
         1           Al  tau(   1) = (  0.6377380  0.4447400  0.8705900  )
         2           Al  tau(   2) = (  0.4447400  0.6377380  0.3705900  )
         3           Al  tau(   3) = (  0.2647970  0.1359800  0.8834520  )
         4           Al  tau(   4) = (  0.1359800  0.2647970  0.3834520  )
         5           Se  tau(   5) = (  0.9089750  0.0879760  0.0132880  )
         6           Se  tau(   6) = (  0.0879760  0.9089750  0.5132880  )
         7           Se  tau(   7) = (  0.5851780  0.7581600  0.9850970  )
         8           Se  tau(   8) = (  0.7581600  0.5851780  0.4850970  )
         9           Se  tau(   9) = (  0.2481180  0.4281380  0.9975730  )
        10           Se  tau(  10) = (  0.4281380  0.2481180  0.4975730  )

     number of k points=    14
                       cart. coord. in units 2pi/alat
        k(    1) = (   0.0000000   0.0000000   0.0000000), wk =   0.0740741
        k(    2) = (   0.0000000   0.0000000   0.3604515), wk =   0.1481481
        k(    3) = (   0.0000000   0.3865309  -0.1154850), wk =   0.1481481
        k(    4) = (   0.0000000   0.3865309   0.2449665), wk =   0.1481481
        k(    5) = (   0.0000000   0.3865309  -0.4759364), wk =   0.1481481
        k(    6) = (   0.3333333  -0.1956911  -0.1154850), wk =   0.1481481
        k(    7) = (   0.3333333  -0.1956911   0.2449665), wk =   0.1481481
        k(    8) = (   0.3333333  -0.1956911  -0.4759364), wk =   0.1481481
        k(    9) = (   0.3333333   0.1908398  -0.2309700), wk =   0.1481481
        k(   10) = (   0.3333333   0.1908398   0.1294815), wk =   0.1481481
        k(   11) = (   0.3333333   0.1908398  -0.5914214), wk =   0.1481481
        k(   12) = (   0.3333333  -0.5822219   0.0000000), wk =   0.1481481
        k(   13) = (   0.3333333  -0.5822219   0.3604515), wk =   0.1481481
        k(   14) = (   0.3333333  -0.5822219  -0.3604515), wk =   0.1481481

                       cryst. coord.
        k(    1) = (   0.0000000   0.0000000   0.0000000), wk =   0.0740741
        k(    2) = (   0.0000000   0.0000000   0.3333333), wk =   0.1481481
        k(    3) = (   0.0000000   0.3333333  -0.0000000), wk =   0.1481481
        k(    4) = (   0.0000000   0.3333333   0.3333333), wk =   0.1481481
        k(    5) = (   0.0000000   0.3333333  -0.3333333), wk =   0.1481481
        k(    6) = (   0.3333333   0.0000000   0.0000000), wk =   0.1481481
        k(    7) = (   0.3333333   0.0000000   0.3333333), wk =   0.1481481
        k(    8) = (   0.3333333   0.0000000  -0.3333333), wk =   0.1481481
        k(    9) = (   0.3333333   0.3333333   0.0000000), wk =   0.1481481
        k(   10) = (   0.3333333   0.3333333   0.3333333), wk =   0.1481481
        k(   11) = (   0.3333333   0.3333333  -0.3333333), wk =   0.1481481
        k(   12) = (   0.3333333  -0.3333333   0.0000000), wk =   0.1481481
        k(   13) = (   0.3333333  -0.3333333   0.3333333), wk =   0.1481481
        k(   14) = (   0.3333333  -0.3333333  -0.3333333), wk =   0.1481481

     Initial potential from superposition of free atoms

     starting charge      47.9904, renormalised to      48.0000
     Starting wfcs are   40 randomized atomic wfcs +   24 random wfcs
     Checking if some PAW data can be deallocated...

     Self-consistent Calculation

     iteration #  1     ecut=    30.00 Ry     beta= 0.70
     Davidson diagonalization with overlap

     ethr =  1.00E-02,  avg # of iterations =  6.1

     Threshold (ethr) on eigenvalues was too large:
     Diagonalizing with lowered threshold

     Davidson diagonalization with overlap

[...]

     total energy              =    -420.16336896 Ry
     estimated scf accuracy    <       0.31911889 Ry

[...]

     total energy              =    -420.24206716 Ry
     estimated scf accuracy    <       0.00000514 Ry

     iteration #  7     ecut=    30.00 Ry     beta= 0.70
     Davidson diagonalization with overlap

     ethr =  1.07E-08,  avg # of iterations =  2.0

     End of self-consistent calculation

          k = 0.0000 0.0000 0.0000 (  4881 PWs)   bands (ev):

    -9.6271  -8.6836  -8.6059  -8.5957  -7.8808  -7.8670  -2.0501  -1.9898
    -1.9236  -0.0960   0.1350   0.1721   0.5780   0.7664   0.7805   1.5008
     1.6424   2.0530   2.4688   2.6727   2.9091   3.1601   3.3782   3.9862
     5.7974   6.4193   6.8750   7.2680   7.7805   8.1908   8.5744   8.9227
     8.9699   9.2100   9.7946  10.1509  10.1697  10.2717  10.3868  10.6416
    11.0502  11.5946  11.9476  11.9986  12.3200  12.4549  12.8879  12.9378
    13.2329  13.5758  13.9865  14.0758  14.3311  14.3499  14.4192  14.7961
    14.8650  15.2404  15.7133  15.9452  16.0927  16.3261  16.8058  18.2938

     occupation numbers
     1.0000   1.0000   1.0000   1.0000   1.0000   1.0000   1.0000   1.0000
     1.0000   1.0000   1.0000   1.0000   1.0000   1.0000   1.0000   1.0000
     1.0000   1.0000   1.0000   1.0000   1.0000   1.0000   1.0000   1.0000
     0.0000   0.0000   0.0000   0.0000   0.0000   0.0000   0.0000   0.0000
     0.0000   0.0000   0.0000   0.0000   0.0000   0.0000   0.0000   0.0000
     0.0000   0.0000   0.0000   0.0000   0.0000   0.0000   0.0000   0.0000
     0.0000   0.0000   0.0000   0.0000   0.0000   0.0000   0.0000   0.0000
     0.0000   0.0000   0.0000   0.0000   0.0000   0.0000   0.0000   0.0000

[...]

          k = 0.3333-0.5822-0.3605 (  4886 PWs)   bands (ev):

    -9.1689  -8.9705  -8.8162  -8.5881  -8.0280  -7.9071  -1.8036  -1.4970
    -1.2249  -0.8188  -0.1942   0.4444   0.6214   1.1226   1.2676   1.4266
     1.4687   1.7676   2.2268   2.4256   2.6350   2.8790   3.1631   3.6541
     6.4123   6.5402   6.7914   7.0006   7.5600   7.8660   8.0869   8.3211
     8.5474   9.3900   9.5075   9.8932  10.1919  10.5114  10.9927  11.3448
    11.5077  11.7834  11.9435  12.3879  12.6573  12.8743  13.1197  13.3022
    13.4320  13.7224  13.8830  14.0428  14.2883  14.5431  14.9444  15.2666
    15.3243  15.7184  15.8510  16.1181  16.4488  17.0582  17.4336  17.8588

     occupation numbers
     1.0000   1.0000   1.0000   1.0000   1.0000   1.0000   1.0000   1.0000
     1.0000   1.0000   1.0000   1.0000   1.0000   1.0000   1.0000   1.0000
     1.0000   1.0000   1.0000   1.0000   1.0000   1.0000   1.0000   1.0000
     0.0000   0.0000   0.0000   0.0000   0.0000   0.0000   0.0000   0.0000
     0.0000   0.0000   0.0000   0.0000   0.0000   0.0000   0.0000   0.0000
     0.0000   0.0000   0.0000   0.0000   0.0000   0.0000   0.0000   0.0000
     0.0000   0.0000   0.0000   0.0000   0.0000   0.0000   0.0000   0.0000
     0.0000   0.0000   0.0000   0.0000   0.0000   0.0000   0.0000   0.0000

     highest occupied, lowest unoccupied level (ev):     3.9862    5.7974

!    total energy              =    -420.24206846 Ry
     estimated scf accuracy    <       0.00000070 Ry

     The total energy is the sum of the following terms:
     one-electron contribution =       7.72599071 Ry
     hartree contribution      =      17.33735216 Ry
     xc contribution           =    -188.58577265 Ry
     ewald contribution        =    -118.04793749 Ry
     one-center paw contrib.   =    -138.67170120 Ry
      -> PAW hartree energy AE =       2.67564057 Ry
      -> PAW hartree energy PS =      -2.66727964 Ry
      -> PAW xc energy AE      =     -73.10185351 Ry
      -> PAW xc energy PS      =       3.75718672 Ry
      -> total E_H with PAW    =      17.34571309 Ry
      -> total E_XC with PAW   =    -257.93043944 Ry

     convergence has been achieved in   7 iterations

     Writing all to output data dir calculations_bands/myprefix.save/

     General routines

     Parallel routines

     PAW routines

   This run was terminated on:   1:38:23   7Jun2023

   JOB DONE.