     Program PWSCF v.7.0 starts on  5Jun2023 at 23:12:46

     K-points division:     npool     =       2
     R & G space division:  proc/nbgrp/npool/nimage =       4

     Reading input from espresso_12292.pwi
Warning: card &CELL ignored
Warning: card / ignored

     Current dimensions of program PWSCF are:
     Max number of different atomic species (ntypx) = 10
     Max number of k-points (npk) =  40000
     Max angular momentum in pseudopotentials (lmaxx) =  4
     file C.pbe-n-kjpaw_psl.1.0.0.UPF: wavefunction(s)  2S 2P renormalized
     Message from routine setup:
     using ibrav=0 with symmetry is DISCOURAGED, use correct ibrav instead

     Using Slab Decomposition

     bravais-lattice index     =            0
     lattice parameter (alat)  =       7.2028  a.u.
     unit-cell volume          =    1400.6042 (a.u.)^3
     number of atoms/cell      =           16
     number of atomic types    =            4
     number of electrons       =        84.00
     number of Kohn-Sham states=           64
     kinetic-energy cutoff     =      30.0000  Ry
     charge density cutoff     =     240.0000  Ry
     scf convergence threshold =      1.0E-06
     mixing beta               =       0.7000
     number of iterations used =            8  plain     mixing
     Exchange-correlation= PBE
                           (   1   4   3   4   0   0   0)

     celldm(1)=   7.202806  celldm(2)=   0.000000  celldm(3)=   0.000000
     celldm(4)=   0.000000  celldm(5)=   0.000000  celldm(6)=   0.000000

     crystal axes: (cart. coord. in units of alat)
               a(1) = (   1.000000   0.000000   0.000000 )
               a(2) = (   0.000000   1.433349   0.000000 )
               a(3) = (   0.000000   0.534727   2.614919 )

     reciprocal axes: (cart. coord. in units 2 pi/alat)
               b(1) = (  1.000000  0.000000  0.000000 )
               b(2) = (  0.000000  0.697667 -0.142667 )
               b(3) = (  0.000000  0.000000  0.382421 )

     PseudoPot. # 1 for Li read from file:
     /home/pragov/projects/rrg-bengioy-ad/pragov/crystal_structure_design/SSSP/li_pbe_v1.4.uspp.F.UPF
     MD5 check sum: e912e257baa3777c20ea3d68f190483c
     Pseudo is Ultrasoft, Zval =  3.0
     Generated by new atomic code, or converted to UPF format
     Using radial grid of  751 points,  5 beta functions with:
                l(1) =   0
                l(2) =   0
                l(3) =   0
                l(4) =   1
                l(5) =   1
     Q(r) pseudized with 10 coefficients,  rinner =    1.150   1.150   1.150

     PseudoPot. # 2 for La read from file:
     /home/pragov/projects/rrg-bengioy-ad/pragov/crystal_structure_design/SSSP/La.GGA-PBE-paw-v1.0.UPF
     MD5 check sum: 436541e95c1ad8901025bd0b0ed42ae2
     Pseudo is Projector augmented-wave + core cor, Zval = 11.0
     Generated using ATOMPAW code
     Shape of augmentation charge: BESSEL
     Using radial grid of 1101 points,  8 beta functions with:
                l(1) =   0
                l(2) =   0
                l(3) =   1
                l(4) =   1
                l(5) =   2
                l(6) =   2
                l(7) =   3
                l(8) =   3
     Q(r) pseudized with 0 coefficients

     PseudoPot. # 3 for C  read from file:
     /home/pragov/projects/rrg-bengioy-ad/pragov/crystal_structure_design/SSSP/C.pbe-n-kjpaw_psl.1.0.0.UPF
     MD5 check sum: 5d2aebdfa2cae82b50a7e79e9516da0f
     Pseudo is Projector augmented-wave + core cor, Zval =  4.0
     Generated using "atomic" code by A. Dal Corso  v.5.1
     Shape of augmentation charge: PSQ
     Using radial grid of 1073 points,  4 beta functions with:
                l(1) =   0
                l(2) =   0
                l(3) =   1
                l(4) =   1
     Q(r) pseudized with 0 coefficients

     PseudoPot. # 4 for N  read from file:
     /home/pragov/projects/rrg-bengioy-ad/pragov/crystal_structure_design/SSSP/N.pbe-n-radius_5.UPF
     MD5 check sum: 16739722b17309cd8fe442a2ace49922
     Pseudo is Ultrasoft + core correction, Zval =  5.0
     Generated using "atomic" code by A. Dal Corso  v.5.1
     Using radial grid of 1085 points,  4 beta functions with:
                l(1) =   0
                l(2) =   0
                l(3) =   1
                l(4) =   1
     Q(r) pseudized with 0 coefficients

     atomic species   valence    mass     pseudopotential
        Li             3.00     6.94000     Li( 1.00)
        La            11.00   138.90547     La( 1.00)
        C              4.00    12.01100     C ( 1.00)
        N              5.00    14.00700     N ( 1.00)

      4 Sym. Ops., with inversion, found ( 2 have fractional translation)

                                    s                        frac. trans.

      isym =  1     identity

 cryst.   s( 1) = (     1          0          0      )
                  (     0          1          0      )
                  (     0          0          1      )

 cart.    s( 1) = (  1.0000000  0.0000000  0.0000000 )
                  (  0.0000000  1.0000000 -0.0000000 )
                  (  0.0000000  0.0000000  1.0000000 )

      isym =  2     180 deg rotation - cart. axis [1,0,0]

 cryst.   s( 2) = (     1          0          0      )    f =(  0.5000000 )
                  (     0         -1          0      )       (  0.0000000 )
                  (     0          0         -1      )       ( -0.0000000 )

 cart.    s( 2) = (  1.0000000  0.0000000  0.0000000 )    f =(  0.5000000 )
                  (  0.0000000 -1.0000000  0.0000000 )       (  0.0000000 )
                  (  0.0000000  0.0000000 -1.0000000 )       ( -0.0000000 )

      isym =  3     inversion

 cryst.   s( 3) = (    -1          0          0      )
                  (     0         -1          0      )
                  (     0          0         -1      )

 cart.    s( 3) = ( -1.0000000  0.0000000  0.0000000 )
                  (  0.0000000 -1.0000000  0.0000000 )
                  (  0.0000000  0.0000000 -1.0000000 )

      isym =  4     inv. 180 deg rotation - cart. axis [1,0,0]

 cryst.   s( 4) = (    -1          0          0      )    f =(  0.5000000 )
                  (     0          1          0      )       (  0.0000000 )
                  (     0          0          1      )       (  0.0000000 )

 cart.    s( 4) = ( -1.0000000  0.0000000  0.0000000 )    f =(  0.5000000 )
                  (  0.0000000  1.0000000 -0.0000000 )       (  0.0000000 )
                  (  0.0000000  0.0000000  1.0000000 )       (  0.0000000 )

   Cartesian axes

     site n.     atom                  positions (alat units)
         1           Li  tau(   1) = (   0.7500000   0.7705459   0.9317062  )
         2           Li  tau(   2) = (   0.2500000   1.1975304   1.6832130  )
         3           La  tau(   3) = (   0.2500000   0.1323503   0.5056365  )
         4           La  tau(   4) = (   0.7500000   1.8357260   2.1092827  )
         5           C   tau(   5) = (   0.7500000   0.8819034   0.2876829  )
         6           C   tau(   6) = (   0.2500000   1.0861729   2.3272362  )
         7           C   tau(   7) = (   0.7500000   1.3733794   1.2367313  )
         8           C   tau(   8) = (   0.2500000   0.5946970   1.3781879  )
         9           N   tau(   9) = (   0.7500000   0.5848122   0.4153747  )
        10           N   tau(  10) = (   0.2500000   1.3832641   2.1995445  )
        11           N   tau(  11) = (   0.2500000   0.7820528   2.4415553  )
        12           N   tau(  12) = (   0.7500000   1.1860235   0.1733639  )
        13           N   tau(  13) = (   0.2500000   0.5648017   1.0574053  )
        14           N   tau(  14) = (   0.7500000   1.4032747   1.5575139  )
        15           N   tau(  15) = (   0.7500000   1.3251483   0.9126173  )
        16           N   tau(  16) = (   0.2500000   0.6429281   1.7023019  )

   Crystallographic axes

     site n.     atom                  positions (cryst. coord.)
         1           Li  tau(   1) = (  0.7500000  0.4046610  0.3563040  )
         2           Li  tau(   2) = (  0.2500000  0.5953390  0.6436960  )
         3           La  tau(   3) = (  0.2500000  0.0201990  0.1933660  )
         4           La  tau(   4) = (  0.7500000  0.9798010  0.8066340  )
         5           C   tau(   5) = (  0.7500000  0.5742320  0.1100160  )
         6           C   tau(   6) = (  0.2500000  0.4257680  0.8899840  )
         7           C   tau(   7) = (  0.7500000  0.7817210  0.4729520  )
         8           C   tau(   8) = (  0.2500000  0.2182790  0.5270480  )
         9           N   tau(   9) = (  0.7500000  0.3487440  0.1588480  )
        10           N   tau(  10) = (  0.2500000  0.6512560  0.8411520  )
        11           N   tau(  11) = (  0.2500000  0.1972840  0.9337020  )
        12           N   tau(  12) = (  0.7500000  0.8027160  0.0662980  )
        13           N   tau(  13) = (  0.2500000  0.2431870  0.4043740  )
        14           N   tau(  14) = (  0.7500000  0.7568130  0.5956260  )
        15           N   tau(  15) = (  0.7500000  0.7943120  0.3490040  )
        16           N   tau(  16) = (  0.2500000  0.2056880  0.6509960  )

     number of k points=    10
                       cart. coord. in units 2pi/alat
        k(    1) = (   0.0000000   0.0000000   0.0000000), wk =   0.0740741
        k(    2) = (   0.0000000   0.0000000   0.1274737), wk =   0.1481481
        k(    3) = (   0.0000000   0.2325556  -0.0475555), wk =   0.1481481
        k(    4) = (   0.0000000   0.2325556   0.0799181), wk =   0.1481481
        k(    5) = (   0.0000000   0.2325556  -0.1750292), wk =   0.1481481
        k(    6) = (   0.3333333   0.0000000   0.0000000), wk =   0.1481481
        k(    7) = (   0.3333333   0.0000000   0.1274737), wk =   0.2962963
        k(    8) = (   0.3333333   0.2325556  -0.0475555), wk =   0.2962963
        k(    9) = (   0.3333333   0.2325556   0.0799181), wk =   0.2962963
        k(   10) = (   0.3333333   0.2325556  -0.1750292), wk =   0.2962963

                       cryst. coord.
        k(    1) = (   0.0000000   0.0000000   0.0000000), wk =   0.0740741
        k(    2) = (   0.0000000   0.0000000   0.3333333), wk =   0.1481481
        k(    3) = (   0.0000000   0.3333333  -0.0000000), wk =   0.1481481
        k(    4) = (   0.0000000   0.3333333   0.3333333), wk =   0.1481481
        k(    5) = (   0.0000000   0.3333333  -0.3333333), wk =   0.1481481
        k(    6) = (   0.3333333   0.0000000   0.0000000), wk =   0.1481481
        k(    7) = (   0.3333333   0.0000000   0.3333333), wk =   0.2962963
        k(    8) = (   0.3333333   0.3333333  -0.0000000), wk =   0.2962963
        k(    9) = (   0.3333333   0.3333333   0.3333333), wk =   0.2962963
        k(   10) = (   0.3333333   0.3333333  -0.3333333), wk =   0.2962963

     Check: negative core charge=   -0.000014

     Initial potential from superposition of free atoms

     starting charge      83.0812, renormalised to      84.0000
     Starting wfcs are  122 randomized atomic wfcs
     Checking if some PAW data can be deallocated...

     Self-consistent Calculation

     iteration #  1     ecut=    30.00 Ry     beta= 0.70
     Davidson diagonalization with overlap

     ethr =  1.00E-02,  avg # of iterations =  2.0

     total energy              =   -1180.20175593 Ry
     estimated scf accuracy    <       2.80337142 Ry

[...]

     c_bands:  1 eigenvalues not converged
     ethr =  8.86E-06,  avg # of iterations = 11.5

[...]

     total energy              =   -1181.43661317 Ry
     estimated scf accuracy    <       0.00002883 Ry

     iteration # 12     ecut=    30.00 Ry     beta= 0.70
     Davidson diagonalization with overlap

     ethr =  3.43E-08,  avg # of iterations =  2.7

     End of self-consistent calculation

          k = 0.0000 0.0000 0.0000 (  3867 PWs)   bands (ev):

   -37.9904 -37.9898 -25.1541 -25.1400 -12.0980 -11.8659 -11.7417 -11.4513
   -10.4182 -10.3735  -9.9713  -9.6859  -8.6123  -8.5997  -8.5651  -8.5049
    -8.3232  -8.2676  -0.5277  -0.0205   0.3111   0.6023   0.8738   1.1737
     1.3505   1.3579   1.4403   1.6230   1.8435   1.9153   2.1908   2.2584
     2.4954   2.8044   4.3611   4.5549   4.6589   4.8724   4.9125   5.0941
     5.5662   5.7857   9.1552   9.2703   9.6713   9.6832   9.7083   9.7175
     9.7417   9.7518   9.7908   9.8232   9.8271   9.9101   9.9229   9.9345
     9.9697   9.9940  10.4032  10.4504  10.6446  11.1337  11.3918  11.6433

     occupation numbers
     1.0000   1.0000   1.0000   1.0000   1.0000   1.0000   1.0000   1.0000
     1.0000   1.0000   1.0000   1.0000   1.0000   1.0000   1.0000   1.0000
     1.0000   1.0000   1.0000   1.0000   1.0000   1.0000   1.0000   1.0000
     1.0000   1.0000   1.0000   1.0000   1.0000   1.0000   1.0000   1.0000
     1.0000   1.0000   1.0000   1.0000   1.0000   1.0000   1.0000   1.0000
     1.0000   1.0000   0.0000   0.0000   0.0000   0.0000   0.0000   0.0000
     0.0000   0.0000   0.0000   0.0000   0.0000   0.0000   0.0000   0.0000
     0.0000   0.0000   0.0000   0.0000   0.0000   0.0000   0.0000   0.0000

[...]

          k = 0.3333 0.2326-0.1750 (  3877 PWs)   bands (ev):

   -37.9900 -37.9895 -25.1007 -25.0937 -12.0081 -11.8915 -11.6681 -11.5446
   -10.4125 -10.3434  -9.8827  -9.6364  -8.9026  -8.8570  -8.7722  -8.6050
    -8.4545  -8.3655   0.0856   0.2674   0.2938   0.4206   0.7583   0.9266
     0.9520   1.0395   1.3946   1.4546   1.7417   1.9197   2.0109   2.1247
     2.1548   2.3696   4.2856   4.6313   4.7467   4.9281   5.2539   5.4414
     5.4988   5.6875   9.3857   9.4398   9.4510   9.5431   9.6803   9.6924
     9.7378   9.7530   9.7819   9.8109   9.8600   9.8877   9.9183   9.9447
    10.3391  10.4036  10.7436  10.9179  11.2717  11.4370  11.9280  12.0894

     occupation numbers
     1.0000   1.0000   1.0000   1.0000   1.0000   1.0000   1.0000   1.0000
     1.0000   1.0000   1.0000   1.0000   1.0000   1.0000   1.0000   1.0000
     1.0000   1.0000   1.0000   1.0000   1.0000   1.0000   1.0000   1.0000
     1.0000   1.0000   1.0000   1.0000   1.0000   1.0000   1.0000   1.0000
     1.0000   1.0000   1.0000   1.0000   1.0000   1.0000   1.0000   1.0000
     1.0000   1.0000   0.0000   0.0000   0.0000   0.0000   0.0000   0.0000
     0.0000   0.0000   0.0000   0.0000   0.0000   0.0000   0.0000   0.0000
     0.0000   0.0000   0.0000   0.0000   0.0000   0.0000   0.0000   0.0000

     highest occupied, lowest unoccupied level (ev):     5.7926    9.0987

!    total energy              =   -1181.43662038 Ry
     estimated scf accuracy    <       0.00000043 Ry

     The total energy is the sum of the following terms:
     one-electron contribution =     -84.26875846 Ry
     hartree contribution      =      82.67709503 Ry
     xc contribution           =     -86.37356699 Ry
     ewald contribution        =    -272.58276904 Ry
     one-center paw contrib.   =    -820.88862092 Ry
      -> PAW hartree energy AE =       0.00000000 Ry
      -> PAW hartree energy PS =       0.00000000 Ry
      -> PAW xc energy AE      =       0.00000000 Ry
      -> PAW xc energy PS      =       0.00000000 Ry
      -> total E_H with PAW    =      82.67709503 Ry
      -> total E_XC with PAW   =     -86.37356699 Ry

     convergence has been achieved in  12 iterations

     Writing all to output data dir calculations_bands/myprefix.save/

     General routines

     Parallel routines

     PAW routines

   This run was terminated on:  23:13:15   5Jun2023

   JOB DONE.