     Program PWSCF v.7.1 starts on  9Jul2023 at 14:11:51

     Reading input from espresso_19711.pwi
Warning: card &CELL ignored
Warning: card / ignored

     Current dimensions of program PWSCF are:
     Max number of different atomic species (ntypx) = 10
     Max number of k-points (npk) =  40000
     Max angular momentum in pseudopotentials (lmaxx) =  4
     Message from routine setup:
     using ibrav=0 with symmetry is DISCOURAGED, use correct ibrav instead

     K-points division:     npool     =       2
     R & G space division:  proc/nbgrp/npool/nimage =       4
     Subspace diagonalization in iterative solution of the eigenvalue problem:
     a serial algorithm will be used

     Using Slab Decomposition

     bravais-lattice index     =            0
     lattice parameter (alat)  =      16.0168  a.u.
     unit-cell volume          =    2779.2246 (a.u.)^3
     number of atoms/cell      =           12
     number of atomic types    =            4
     number of electrons       =       122.00
     number of Kohn-Sham states=           64
     kinetic-energy cutoff     =      30.0000  Ry
     charge density cutoff     =     240.0000  Ry
     scf convergence threshold =      1.0E-06
     mixing beta               =       0.7000
     number of iterations used =            8  plain     mixing
     Exchange-correlation= SLA  PW   PBE  PBE
                           (   1   4   3   4   0   0   0)

     celldm(1)=  16.016820  celldm(2)=   0.000000  celldm(3)=   0.000000
     celldm(4)=   0.000000  celldm(5)=   0.000000  celldm(6)=   0.000000

     crystal axes: (cart. coord. in units of alat)
               a(1) = (   1.000000   0.000000   0.000000 )
               a(2) = (  -0.864678   0.502326   0.000000 )
               a(3) = (   0.000000   0.000000   1.346509 )

     reciprocal axes: (cart. coord. in units 2 pi/alat)
               b(1) = (  1.000000  1.721350  0.000000 )
               b(2) = (  0.000000  1.990740  0.000000 )
               b(3) = (  0.000000  0.000000  0.742661 )

     PseudoPot. # 1 for Cs read from file:
     /home/pragov/projects/rrg-bengioy-ad/pragov/crystal_structure_design/SSSP/Cs_pbe_v1.uspp.F.UPF
     MD5 check sum: 3476d69cb178dfad3ffaa59df4e07ca4
     Pseudo is Ultrasoft + core correction, Zval =  9.0
     Generated by new atomic code, or converted to UPF format
     Using radial grid of  905 points,  6 beta functions with:
                l(1) =   0
                l(2) =   0
                l(3) =   1
                l(4) =   1
                l(5) =   2
                l(6) =   2
     Q(r) pseudized with  6 coefficients,  rinner =    1.500   1.500   1.500
                                                       1.500   1.500

     PseudoPot. # 2 for Nd read from file:
     /home/pragov/projects/rrg-bengioy-ad/pragov/crystal_structure_design/SSSP/Nd.GGA-PBE-paw-v1.0.UPF
     MD5 check sum: 1d1e94942b6eb1cde76049b71bb7dcb0
     Pseudo is Projector augmented-wave + core cor, Zval = 14.0
     Generated using ATOMPAW code
     Shape of augmentation charge: BESSEL
     Using radial grid of 1105 points,  8 beta functions with:
                l(1) =   0
                l(2) =   0
                l(3) =   1
                l(4) =   1
                l(5) =   2
                l(6) =   2
                l(7) =   3
                l(8) =   3
     Q(r) pseudized with 0 coefficients

     PseudoPot. # 3 for Hg read from file:
     /home/pragov/projects/rrg-bengioy-ad/pragov/crystal_structure_design/SSSP/Hg_ONCV_PBE-1.0.oncvpsp.upf
     MD5 check sum: dd5a8773074bfcf4280086d4d95875c4
     Pseudo is Norm-conserving, Zval = 20.0
     Generated using ONCVPSP code by D. R. Hamann
     Using radial grid of 1262 points,  8 beta functions with:
                l(1) =   0
                l(2) =   0
                l(3) =   1
                l(4) =   1
                l(5) =   2
                l(6) =   2
                l(7) =   3
                l(8) =   3

     PseudoPot. # 4 for Se read from file:
     /home/pragov/projects/rrg-bengioy-ad/pragov/crystal_structure_design/SSSP/Se_pbe_v1.uspp.F.UPF
     MD5 check sum: 1b3568f3a8ae88f9a2a0ad0698632c85
     Pseudo is Ultrasoft + core correction, Zval =  6.0
     Generated by new atomic code, or converted to UPF format
     Using radial grid of  877 points,  6 beta functions with:
                l(1) =   0
                l(2) =   0
                l(3) =   1
                l(4) =   1
                l(5) =   2
                l(6) =   2
     Q(r) pseudized with  8 coefficients,  rinner =    1.300   1.300   1.300
                                                       1.300   1.300

     atomic species   valence    mass     pseudopotential
        Cs             9.00   132.90545     Cs( 1.00)
        Nd            14.00   144.24200     Nd( 1.00)
        Hg            20.00   200.59200     Hg( 1.00)
        Se             6.00    78.97100     Se( 1.00)

      4 Sym. Ops., with inversion, found ( 2 have fractional translation)

                                    s                        frac. trans.

      isym =  1     identity

 cryst.   s( 1) = (     1          0          0      )
                  (     0          1          0      )
                  (     0          0          1      )

 cart.    s( 1) = (  1.0000000  0.0000000  0.0000000 )
                  (  0.0000000  1.0000000  0.0000000 )
                  (  0.0000000  0.0000000  1.0000000 )

      isym =  2     180 deg rotation - cart. axis [0,0,1]

 cryst.   s( 2) = (    -1          0          0      )    f =(  0.0000000 )
                  (     0         -1          0      )       (  0.0000000 )
                  (     0          0          1      )       ( -0.5000000 )

 cart.    s( 2) = ( -1.0000000  0.0000000  0.0000000 )    f =(  0.0000000 )
                  (  0.0000000 -1.0000000  0.0000000 )       (  0.0000000 )
                  (  0.0000000  0.0000000  1.0000000 )       ( -0.6732545 )

      isym =  3     inversion

 cryst.   s( 3) = (    -1          0          0      )
                  (     0         -1          0      )
                  (     0          0         -1      )

 cart.    s( 3) = ( -1.0000000  0.0000000  0.0000000 )
                  (  0.0000000 -1.0000000  0.0000000 )
                  (  0.0000000  0.0000000 -1.0000000 )

      isym =  4     inv. 180 deg rotation - cart. axis [0,0,1]

 cryst.   s( 4) = (     1          0          0      )    f =(  0.0000000 )
                  (     0          1          0      )       (  0.0000000 )
                  (     0          0         -1      )       (  0.5000000 )

 cart.    s( 4) = (  1.0000000  0.0000000  0.0000000 )    f =(  0.0000000 )
                  (  0.0000000  1.0000000  0.0000000 )       (  0.0000000 )
                  (  0.0000000  0.0000000 -1.0000000 )       (  0.6732545 )

   Cartesian axes

     site n.     atom                  positions (alat units)
         1           Cs  tau(   1) = (   0.5219766   0.1287747   0.3366273  )
         2           Cs  tau(   2) = (  -0.3866551   0.3735511   1.0098818  )
         3           Nd  tau(   3) = (   0.0000000   0.0000000   0.0000000  )
         4           Nd  tau(   4) = (   0.0000000   0.0000000   0.6732545  )
         5           Hg  tau(   5) = (   0.1495780   0.2290952   1.0098818  )
         6           Hg  tau(   6) = (  -0.0142564   0.2732306   0.3366273  )
         7           Se  tau(   7) = (  -0.1586273   0.3121227   0.6098622  )
         8           Se  tau(   8) = (  -0.7504389   0.4715508   0.3366273  )
         9           Se  tau(   9) = (   0.8857605   0.0307750   1.0098818  )
        10           Se  tau(  10) = (   0.2939488   0.1902032   0.7366468  )
        11           Se  tau(  11) = (  -0.1586273   0.3121227   0.0633923  )
        12           Se  tau(  12) = (   0.2939488   0.1902032   1.2831167  )

   Crystallographic axes

     site n.     atom                  positions (cryst. coord.)
         1           Cs  tau(   1) = (  0.7436430  0.2563570  0.2500000  )
         2           Cs  tau(   2) = (  0.2563570  0.7436430  0.7500000  )
         3           Nd  tau(   3) = (  0.0000000  0.0000000  0.0000000  )
         4           Nd  tau(   4) = (  0.0000000  0.0000000  0.5000000  )
         5           Hg  tau(   5) = (  0.5439310  0.4560690  0.7500000  )
         6           Hg  tau(   6) = (  0.4560690  0.5439310  0.2500000  )
         7           Se  tau(   7) = (  0.3786450  0.6213550  0.4529210  )
         8           Se  tau(   8) = (  0.0612650  0.9387350  0.2500000  )
         9           Se  tau(   9) = (  0.9387350  0.0612650  0.7500000  )
        10           Se  tau(  10) = (  0.6213550  0.3786450  0.5470790  )
        11           Se  tau(  11) = (  0.3786450  0.6213550  0.0470790  )
        12           Se  tau(  12) = (  0.6213550  0.3786450  0.9529210  )

     number of k points=    10
                       cart. coord. in units 2pi/alat
        k(    1) = (   0.0000000   0.0000000   0.0000000), wk =   0.0740741
        k(    2) = (   0.0000000   0.0000000   0.2475537), wk =   0.1481481
        k(    3) = (   0.0000000   0.6635799   0.0000000), wk =   0.1481481
        k(    4) = (   0.0000000   0.6635799   0.2475537), wk =   0.2962963
        k(    5) = (   0.3333333   0.5737832   0.0000000), wk =   0.1481481
        k(    6) = (   0.3333333   0.5737832   0.2475537), wk =   0.2962963
        k(    7) = (   0.3333333   1.2373632   0.0000000), wk =   0.1481481
        k(    8) = (   0.3333333   1.2373632   0.2475537), wk =   0.2962963
        k(    9) = (   0.3333333  -0.0897967   0.0000000), wk =   0.1481481
        k(   10) = (   0.3333333  -0.0897967   0.2475537), wk =   0.2962963

                       cryst. coord.
        k(    1) = (   0.0000000   0.0000000   0.0000000), wk =   0.0740741
        k(    2) = (   0.0000000   0.0000000   0.3333333), wk =   0.1481481
        k(    3) = (   0.0000000   0.3333333   0.0000000), wk =   0.1481481
        k(    4) = (   0.0000000   0.3333333   0.3333333), wk =   0.2962963
        k(    5) = (   0.3333333   0.0000000   0.0000000), wk =   0.1481481
        k(    6) = (   0.3333333   0.0000000   0.3333333), wk =   0.2962963
        k(    7) = (   0.3333333   0.3333333   0.0000000), wk =   0.1481481
        k(    8) = (   0.3333333   0.3333333   0.3333333), wk =   0.2962963
        k(    9) = (   0.3333333  -0.3333333   0.0000000), wk =   0.1481481
        k(   10) = (   0.3333333  -0.3333333   0.3333333), wk =   0.2962963

     Initial potential from superposition of free atoms

     starting charge     121.9083, renormalised to     122.0000
     Starting wfcs are  134 randomized atomic wfcs
     Checking if some PAW data can be deallocated...

     Self-consistent Calculation

     iteration #  1     ecut=    30.00 Ry     beta= 0.70
     Davidson diagonalization with overlap

     ethr =  1.00E-02,  avg # of iterations =  1.8

     total energy              =   -2079.10611354 Ry
     estimated scf accuracy    <       4.15726153 Ry

[...]

     c_bands:  1 eigenvalues not converged
     c_bands:  1 eigenvalues not converged
     c_bands:  3 eigenvalues not converged
     c_bands:  2 eigenvalues not converged
     c_bands:  1 eigenvalues not converged
     ethr =  4.60E-04,  avg # of iterations = 19.5

[...]

     c_bands:  1 eigenvalues not converged
     c_bands:  1 eigenvalues not converged
     ethr =  1.95E-08,  avg # of iterations = 18.5

[...]

     total energy              =   -2083.15239543 Ry
     estimated scf accuracy    <       0.00000886 Ry

     iteration #239     ecut=    30.00 Ry     beta= 0.70
     Davidson diagonalization with overlap

     ethr =  3.56E-09,  avg # of iterations =  3.9

     End of self-consistent calculation

          k = 0.0000 0.0000 0.0000 (  7725 PWs)   bands (ev):

  -109.6751-109.6750 -57.5704 -57.5658 -57.5135 -57.5103 -57.5084 -57.5078
   -30.4229 -30.4227 -15.2814 -15.2801 -11.8536 -11.7951 -11.7571 -11.7471
   -11.6423 -11.6421  -6.2420  -5.8718  -5.8066  -5.8006  -5.5773  -5.4467
    -2.1675  -2.1104  -2.0894  -2.0727  -1.9371  -1.9318  -0.5390  -0.5233
    -0.5177  -0.4489  -0.4439  -0.4235  -0.3937  -0.3790  -0.3776  -0.3414
     1.5911   1.7634   3.1799   3.6366   3.7008   3.7612   4.2330   4.4224
     4.5359   4.6025   4.6134   4.9255   5.0161   5.0869   5.3443   5.4559
     5.4789   5.5956   6.8265   6.8476   6.8975   6.9410   7.0412   7.0428

     occupation numbers
     1.0000   1.0000   1.0000   1.0000   1.0000   1.0000   1.0000   1.0000
     1.0000   1.0000   1.0000   1.0000   1.0000   1.0000   1.0000   1.0000
     1.0000   1.0000   1.0000   1.0000   1.0000   1.0000   1.0000   1.0000
     1.0000   1.0000   1.0000   1.0000   1.0000   1.0000   1.0000   1.0000
     1.0000   1.0000   1.0000   1.0000   1.0000   1.0000   1.0000   1.0000
     1.0000   1.0000   1.0000   1.0000   1.0000   1.0000   1.0000   1.0000
     1.0000   1.0000   1.0000   1.0000   1.0000   1.0000   1.0000   1.0000
     1.0000   1.0000   1.0000   1.0000   1.0000   0.0000   0.0000   0.0000

[...]

          k = 0.3333-0.0898 0.2476 (  7725 PWs)   bands (ev):

  -109.6751-109.6750 -57.5689 -57.5665 -57.5115 -57.5103 -57.5099 -57.5095
   -30.4229 -30.4228 -15.2810 -15.2804 -11.8386 -11.8089 -11.7554 -11.7508
   -11.6422 -11.6421  -6.1813  -6.0053  -5.7721  -5.7522  -5.5454  -5.4999
    -2.1245  -2.1059  -2.0846  -2.0719  -1.9328  -1.9303  -0.5225  -0.5166
    -0.5019  -0.4723  -0.4540  -0.4150  -0.4035  -0.3838  -0.3793  -0.3624
     1.5525   1.6521   3.2694   3.4118   3.9278   3.9928   4.3152   4.4476
     4.5119   4.6811   4.7512   4.8599   4.8664   5.1252   5.2278   5.2650
     5.3734   5.4977   6.8409   6.8658   6.8790   6.9126   7.0398   7.0405

     occupation numbers
     1.0000   1.0000   1.0000   1.0000   1.0000   1.0000   1.0000   1.0000
     1.0000   1.0000   1.0000   1.0000   1.0000   1.0000   1.0000   1.0000
     1.0000   1.0000   1.0000   1.0000   1.0000   1.0000   1.0000   1.0000
     1.0000   1.0000   1.0000   1.0000   1.0000   1.0000   1.0000   1.0000
     1.0000   1.0000   1.0000   1.0000   1.0000   1.0000   1.0000   1.0000
     1.0000   1.0000   1.0000   1.0000   1.0000   1.0000   1.0000   1.0000
     1.0000   1.0000   1.0000   1.0000   1.0000   1.0000   1.0000   1.0000
     1.0000   1.0000   1.0000   1.0000   1.0000   0.0000   0.0000   0.0000

     highest occupied, lowest unoccupied level (ev):     6.8975    6.8981

!    total energy              =   -2083.15239539 Ry
     estimated scf accuracy    <       0.00000082 Ry

     The total energy is the sum of the following terms:
     one-electron contribution =    -776.60398511 Ry
     hartree contribution      =     426.71508001 Ry
     xc contribution           =    -321.37700336 Ry
     ewald contribution        =    -551.72427861 Ry
     one-center paw contrib.   =    -860.16220832 Ry
      -> PAW hartree energy AE =       0.00000000 Ry
      -> PAW hartree energy PS =       0.00000000 Ry
      -> PAW xc energy AE      =       0.00000000 Ry
      -> PAW xc energy PS      =       0.00000000 Ry
      -> total E_H with PAW    =     426.71508001 Ry
      -> total E_XC with PAW   =    -321.37700336 Ry

     convergence has been achieved in 239 iterations

     Writing all to output data dir bands_nm/myprefix.save/

     General routines

     Parallel routines

     PAW routines

   This run was terminated on:  14:27:52   9Jul2023

   JOB DONE.