     Program PWSCF v.7.1 starts on 17Jul2023 at  0:40:34

     Reading input from espresso_23680.pwi
Warning: card &CELL ignored
Warning: card / ignored

     Current dimensions of program PWSCF are:
     Max number of different atomic species (ntypx) = 10
     Max number of k-points (npk) =  40000
     Max angular momentum in pseudopotentials (lmaxx) =  4

     K-points division:     npool     =       2
     R & G space division:  proc/nbgrp/npool/nimage =       4
     Subspace diagonalization in iterative solution of the eigenvalue problem:
     one sub-group per band group will be used

     Using Slab Decomposition

     bravais-lattice index     =            0
     lattice parameter (alat)  =      16.5492  a.u.
     unit-cell volume          =    3667.1650 (a.u.)^3
     number of atoms/cell      =           18
     number of atomic types    =            3
     number of electrons       =       160.00
     number of Kohn-Sham states=          256
     kinetic-energy cutoff     =      30.0000  Ry
     charge density cutoff     =     240.0000  Ry
     scf convergence threshold =      1.0E-06
     mixing beta               =       0.7000
     number of iterations used =            8  plain     mixing
     Exchange-correlation=  SLA  PW   PBX  PBC
                           (   1   4   3   4   0   0   0)

     celldm(1)=  16.549168  celldm(2)=   0.000000  celldm(3)=   0.000000
     celldm(4)=   0.000000  celldm(5)=   0.000000  celldm(6)=   0.000000

     crystal axes: (cart. coord. in units of alat)
               a(1) = (   1.000000   0.000000   0.000000 )
               a(2) = (   0.097879   0.995198   0.000000 )
               a(3) = (   0.271072   0.245720   0.813003 )

     reciprocal axes: (cart. coord. in units 2 pi/alat)
               b(1) = (  1.000000 -0.098351 -0.303695 )
               b(2) = (  0.000000  1.004825 -0.303695 )
               b(3) = (  0.000000  0.000000  1.230007 )

     PseudoPot. # 1 for Tl read from file:
     /lustre07/scratch/pragov/crystal_structure_design/utils/SSSP/Tl_pbe_v1.2.uspp.F.UPF
     MD5 check sum: b76cf1f7e72655a2b2c53cf6385d7059
     Pseudo is Ultrasoft + core correction, Zval = 13.0
     Generated by new atomic code, or converted to UPF format
     Using radial grid of  899 points,  6 beta functions with:
                l(1) =   0
                l(2) =   0
                l(3) =   1
                l(4) =   1
                l(5) =   2
                l(6) =   2
     Q(r) pseudized with  6 coefficients,  rinner =    1.100   1.100   1.100
                                                       1.100   1.100

     PseudoPot. # 2 for Si read from file:
     /lustre07/scratch/pragov/crystal_structure_design/utils/SSSP/Si.pbe-n-rrkjus_psl.1.0.0.UPF
     MD5 check sum: 0b0bb1205258b0d07b9f9672cf965d36
     Pseudo is Ultrasoft + core correction, Zval =  4.0
     Generated using "atomic" code by A. Dal Corso  v.5.1
     Using radial grid of 1141 points,  6 beta functions with:
                l(1) =   0
                l(2) =   0
                l(3) =   1
                l(4) =   1
                l(5) =   2
                l(6) =   2
     Q(r) pseudized with 0 coefficients

     PseudoPot. # 3 for S  read from file:
     /lustre07/scratch/pragov/crystal_structure_design/utils/SSSP/s_pbe_v1.4.uspp.F.UPF
     MD5 check sum: 88d86576ff6df21479756cfb9bdac1df
     Pseudo is Ultrasoft + core correction, Zval =  6.0
     Generated by new atomic code, or converted to UPF format
     Using radial grid of  907 points,  6 beta functions with:
                l(1) =   0
                l(2) =   0
                l(3) =   1
                l(4) =   1
                l(5) =   2
                l(6) =   2
     Q(r) pseudized with  8 coefficients,  rinner =    1.300   1.300   1.300
                                                       1.300   1.300

     atomic species   valence    mass     pseudopotential
        Tl            13.00   204.38000     Tl( 1.00)
        Si             4.00    28.08500     Si( 1.00)
        S              6.00    32.06000     S ( 1.00)

     No symmetry found

                                    s                        frac. trans.

      isym =  1     identity

 cryst.   s( 1) = (     1          0          0      )
                  (     0          1          0      )
                  (     0          0          1      )

 cart.    s( 1) = (  1.0000000  0.0000000  0.0000000 )
                  (  0.0000000  1.0000000  0.0000000 )
                  (  0.0000000  0.0000000  1.0000000 )

   Cartesian axes

     site n.     atom                  positions (alat units)
         1           Tl  tau(   1) = (   0.9059690   0.7998767   0.0625858  )
         2           Tl  tau(   2) = (   1.0202475   0.9461875   0.4690875  )
         3           Tl  tau(   3) = (   0.5276902   0.9693259   0.0300917  )
         4           Tl  tau(   4) = (   1.1518574   0.5531396   0.4365934  )
         5           Tl  tau(   5) = (   1.0366534   0.2809183   0.0635265  )
         6           Tl  tau(   6) = (   0.5165722   1.1270396   0.4700281  )
         7           Tl  tau(   7) = (   0.6191191   0.3684689   0.0058666  )
         8           Tl  tau(   8) = (   0.5628345   0.7029408   0.4123683  )
         9           Si  tau(   9) = (   0.2702716   0.6213727   0.0227226  )
        10           Si  tau(  10) = (   0.7803792   0.3310144   0.4292243  )
        11           S   tau(  11) = (   0.9699882   0.2662559   0.5689007  )
        12           S   tau(  12) = (   0.5951779   0.4059912   0.5726926  )
        13           S   tau(  13) = (   0.3267612   0.4297221   0.1661909  )
        14           S   tau(  14) = (   0.7288157   0.9152923   0.6856358  )
        15           S   tau(  15) = (   0.7086644   0.1427717   0.2897528  )
        16           S   tau(  16) = (   0.3469857   0.8141471   0.6962544  )
        17           S   tau(  17) = (   0.8466970   0.5128682   0.2791341  )
        18           S   tau(  18) = (   0.2243828   0.8164098   0.1623990  )

   Crystallographic axes

     site n.     atom                  positions (cryst. coord.)
         1           Tl  tau(   1) = (  0.8082930  0.7847290  0.0769810  )
         2           Tl  tau(   2) = (  0.7847290  0.8082930  0.5769810  )
         3           Tl  tau(   3) = (  0.4232170  0.9648640  0.0370130  )
         4           Tl  tau(   4) = (  0.9648640  0.4232170  0.5370130  )
         5           Tl  tau(   5) = (  0.9897320  0.2629810  0.0781380  )
         6           Tl  tau(   6) = (  0.2629810  0.9897320  0.5781380  )
         7           Tl  tau(   7) = (  0.5810980  0.3684650  0.0072160  )
         8           Tl  tau(   8) = (  0.3684650  0.5810980  0.5072160  )
         9           Si  tau(   9) = (  0.2022580  0.6174700  0.0279490  )
        10           Si  tau(  10) = (  0.6174700  0.2022580  0.5279490  )
        11           S   tau(  11) = (  0.7710290  0.0947680  0.6997520  )
        12           S   tau(  12) = (  0.3813240  0.2340260  0.7044160  )
        13           S   tau(  13) = (  0.2340260  0.3813240  0.2044160  )
        14           S   tau(  14) = (  0.4305710  0.7114840  0.8433370  )
        15           S   tau(  15) = (  0.6066260  0.0554640  0.3563980  )
        16           S   tau(  16) = (  0.0554640  0.6066260  0.8563980  )
        17           S   tau(  17) = (  0.7114840  0.4305710  0.3433370  )
        18           S   tau(  18) = (  0.0947680  0.7710290  0.1997520  )

     number of k points=    14
                       cart. coord. in units 2pi/alat
        k(    1) = (   0.0000000   0.0000000   0.0000000), wk =   0.0740741
        k(    2) = (   0.0000000   0.0000000   0.4100024), wk =   0.1481481
        k(    3) = (   0.0000000   0.3349416  -0.1012318), wk =   0.1481481
        k(    4) = (   0.0000000   0.3349416   0.3087706), wk =   0.1481481
        k(    5) = (   0.0000000   0.3349416  -0.5112342), wk =   0.1481481
        k(    6) = (   0.3333333  -0.0327838  -0.1012318), wk =   0.1481481
        k(    7) = (   0.3333333  -0.0327838   0.3087706), wk =   0.1481481
        k(    8) = (   0.3333333  -0.0327838  -0.5112342), wk =   0.1481481
        k(    9) = (   0.3333333   0.3021578  -0.2024636), wk =   0.1481481
        k(   10) = (   0.3333333   0.3021578   0.2075388), wk =   0.1481481
        k(   11) = (   0.3333333   0.3021578  -0.6124660), wk =   0.1481481
        k(   12) = (   0.3333333  -0.3677254   0.0000000), wk =   0.1481481
        k(   13) = (   0.3333333  -0.3677254   0.4100024), wk =   0.1481481
        k(   14) = (   0.3333333  -0.3677254  -0.4100024), wk =   0.1481481

                       cryst. coord.
        k(    1) = (   0.0000000   0.0000000   0.0000000), wk =   0.0740741
        k(    2) = (   0.0000000   0.0000000   0.3333333), wk =   0.1481481
        k(    3) = (   0.0000000   0.3333333   0.0000000), wk =   0.1481481
        k(    4) = (   0.0000000   0.3333333   0.3333333), wk =   0.1481481
        k(    5) = (   0.0000000   0.3333333  -0.3333333), wk =   0.1481481
        k(    6) = (   0.3333333   0.0000000   0.0000000), wk =   0.1481481
        k(    7) = (   0.3333333   0.0000000   0.3333333), wk =   0.1481481
        k(    8) = (   0.3333333   0.0000000  -0.3333333), wk =   0.1481481
        k(    9) = (   0.3333333   0.3333333   0.0000000), wk =   0.1481481
        k(   10) = (   0.3333333   0.3333333   0.3333333), wk =   0.1481481
        k(   11) = (   0.3333333   0.3333333  -0.3333333), wk =   0.1481481
        k(   12) = (   0.3333333  -0.3333333  -0.0000000), wk =   0.1481481
        k(   13) = (   0.3333333  -0.3333333   0.3333333), wk =   0.1481481
        k(   14) = (   0.3333333  -0.3333333  -0.3333333), wk =   0.1481481

     Check: negative core charge=   -0.000005

     Initial potential from superposition of free atoms

     starting charge     159.9597, renormalised to     160.0000

     negative rho (up, down):  4.043E-01 0.000E+00
     Starting wfcs are  112 randomized atomic wfcs +  144 random wfcs

     Self-consistent Calculation

     iteration #  1     ecut=    30.00 Ry     beta= 0.70
     Davidson diagonalization with overlap

     ethr =  1.00E-02,  avg # of iterations =  8.2

     Threshold (ethr) on eigenvalues was too large:
     Diagonalizing with lowered threshold

     Davidson diagonalization with overlap

[...]

     negative rho (up, down):  4.045E-01 0.000E+00

     total energy              =   -1375.51435618 Ry
     estimated scf accuracy    <       1.12492474 Ry

[...]

     c_bands:  1 eigenvalues not converged
     ethr =  7.60E-06,  avg # of iterations = 14.2

[...]

     total energy              =   -1375.99085270 Ry
     estimated scf accuracy    <       0.00000112 Ry

     iteration # 10     ecut=    30.00 Ry     beta= 0.70
     Davidson diagonalization with overlap

     ethr =  6.99E-10,  avg # of iterations =  4.3

     negative rho (up, down):  4.036E-01 0.000E+00

     End of self-consistent calculation

          k = 0.0000 0.0000 0.0000 ( 10163 PWs)   bands (ev):

    -8.1901  -8.0567  -6.7896  -6.7473  -6.7290  -6.6761  -6.6525  -6.6013
    -5.4312  -5.3760  -5.3717  -5.3708  -5.3472  -5.3435  -5.3363  -5.3244
    -5.3238  -5.3154  -5.3139  -5.3076  -5.3067  -5.3054  -5.3016  -5.2908
    -5.2827  -5.2784  -5.2756  -5.2693  -5.2609  -5.2604  -5.2468  -5.2467
    -5.2427  -5.2375  -5.2335  -5.2281  -5.2133  -5.2056  -5.2029  -5.1948
    -5.1801  -5.1667  -5.1501  -5.1157  -5.1048  -5.0983  -5.0826  -5.0492
    -1.7808  -1.0341  -0.3924  -0.3108  -0.2208  -0.1975   0.3696   0.4034
     0.6880   0.8113   1.2556   1.4621   1.6872   1.7502   2.0641   2.0742
     2.9089   3.1084   3.4659   3.4821   3.7288   3.9049   3.9783   4.0499
     4.0780   4.1191   4.1940   4.3132   4.4230   4.4649   4.6025   4.6407
     6.8901   6.8995   7.2967   7.3113   7.8074   8.1003   8.3931   8.6064
     8.7968   8.8569   8.9742   9.1677   9.2227   9.4494   9.4972   9.9491
     9.9763  10.0039  10.1622  10.4369  10.5198  10.6293  10.8186  11.1116
    11.1384  11.2588  11.4854  11.6150  11.6936  11.8348  11.8581  11.9683
    12.2277  12.4455  12.7002  13.0342  13.2259  13.5809  13.7832  13.9286
    14.1323  14.1685  14.3811  14.4917  14.6715  14.8682  15.0686  15.1325
    15.2436  15.5155  15.5886  15.6322  15.8550  15.8977  16.1283  16.1712
    16.2719  16.5292  16.5671  16.6587  16.6644  16.8657  16.9632  17.1336
    17.1611  17.4235  17.6367  17.6383  17.8131  17.8379  18.0231  18.0685
    18.2721  18.3393  18.4598  18.7009  18.7911  18.9157  19.1085  19.2743
    19.3221  19.4559  19.5776  19.7803  19.8951  19.9687  19.9960  20.1320
    20.4235  20.4909  20.5548  20.5889  20.6254  20.8650  20.8738  20.9033
    20.9374  21.0423  21.1904  21.2679  21.4221  21.4595  21.6222  21.7281
    21.8994  21.9085  22.1132  22.1156  22.2233  22.3964  22.4008  22.4972
    22.6569  22.6674  22.7852  22.9459  23.0633  23.1247  23.2667  23.4158
    23.5871  23.6526  23.7586  23.8302  23.8706  24.0031  24.1494  24.3337
    24.3889  24.4066  24.5082  24.5982  24.6342  24.7505  24.8032  24.8756
    24.8967  25.2256  25.3237  25.3664  25.3682  25.5855  25.6436  25.8211
    25.9258  25.9435  26.0310  26.0447  26.2078  26.3681  26.4176  26.4844
    26.5382  26.5915  26.6997  26.8221  26.8290  27.0595  27.1493  27.1915
    27.2695  27.4518  27.6067  27.6345  27.6698  27.7780  27.9287  28.0222
    28.0400  28.2119  28.3155  28.4379  28.4483  28.5770  28.6736  28.7151

     occupation numbers
     1.0000   1.0000   1.0000   1.0000   1.0000   1.0000   1.0000   1.0000
     1.0000   1.0000   1.0000   1.0000   1.0000   1.0000   1.0000   1.0000
     1.0000   1.0000   1.0000   1.0000   1.0000   1.0000   1.0000   1.0000
     1.0000   1.0000   1.0000   1.0000   1.0000   1.0000   1.0000   1.0000
     1.0000   1.0000   1.0000   1.0000   1.0000   1.0000   1.0000   1.0000
     1.0000   1.0000   1.0000   1.0000   1.0000   1.0000   1.0000   1.0000
     1.0000   1.0000   1.0000   1.0000   1.0000   1.0000   1.0000   1.0000
     1.0000   1.0000   1.0000   1.0000   1.0000   1.0000   1.0000   1.0000
     1.0000   1.0000   1.0000   1.0000   1.0000   1.0000   1.0000   1.0000
     1.0000   1.0000   1.0000   1.0000   1.0000   1.0000   1.0000   1.0000
     0.0000   0.0000   0.0000   0.0000   0.0000   0.0000   0.0000   0.0000
     0.0000   0.0000   0.0000   0.0000   0.0000   0.0000   0.0000   0.0000
     0.0000   0.0000   0.0000   0.0000   0.0000   0.0000   0.0000   0.0000
     0.0000   0.0000   0.0000   0.0000   0.0000   0.0000   0.0000   0.0000
     0.0000   0.0000   0.0000   0.0000   0.0000   0.0000   0.0000   0.0000
     0.0000   0.0000   0.0000   0.0000   0.0000   0.0000   0.0000   0.0000
     0.0000   0.0000   0.0000   0.0000   0.0000   0.0000   0.0000   0.0000
     0.0000   0.0000   0.0000   0.0000   0.0000   0.0000   0.0000   0.0000
     0.0000   0.0000   0.0000   0.0000   0.0000   0.0000   0.0000   0.0000
     0.0000   0.0000   0.0000   0.0000   0.0000   0.0000   0.0000   0.0000
     0.0000   0.0000   0.0000   0.0000   0.0000   0.0000   0.0000   0.0000
     0.0000   0.0000   0.0000   0.0000   0.0000   0.0000   0.0000   0.0000
     0.0000   0.0000   0.0000   0.0000   0.0000   0.0000   0.0000   0.0000
     0.0000   0.0000   0.0000   0.0000   0.0000   0.0000   0.0000   0.0000
     0.0000   0.0000   0.0000   0.0000   0.0000   0.0000   0.0000   0.0000
     0.0000   0.0000   0.0000   0.0000   0.0000   0.0000   0.0000   0.0000
     0.0000   0.0000   0.0000   0.0000   0.0000   0.0000   0.0000   0.0000
     0.0000   0.0000   0.0000   0.0000   0.0000   0.0000   0.0000   0.0000
     0.0000   0.0000   0.0000   0.0000   0.0000   0.0000   0.0000   0.0000
     0.0000   0.0000   0.0000   0.0000   0.0000   0.0000   0.0000   0.0000
     0.0000   0.0000   0.0000   0.0000   0.0000   0.0000   0.0000   0.0000
     0.0000   0.0000   0.0000   0.0000   0.0000   0.0000   0.0000   0.0000

[...]

          k = 0.3333-0.3677-0.4100 ( 10163 PWs)   bands (ev):

    -8.1254  -8.0983  -6.7874  -6.7661  -6.7205  -6.6766  -6.6491  -6.6410
    -5.3952  -5.3738  -5.3685  -5.3593  -5.3514  -5.3469  -5.3396  -5.3364
    -5.3293  -5.3248  -5.3236  -5.3189  -5.3128  -5.3082  -5.2985  -5.2934
    -5.2886  -5.2840  -5.2696  -5.2636  -5.2621  -5.2595  -5.2523  -5.2464
    -5.2413  -5.2335  -5.2306  -5.2211  -5.2152  -5.2032  -5.2028  -5.1993
    -5.1904  -5.1874  -5.1435  -5.1388  -5.1123  -5.0831  -5.0679  -5.0438
    -1.3363  -1.1819  -0.5438  -0.4192  -0.2404  -0.1081   0.1216   0.2662
     0.6919   0.9644   1.4852   1.5932   1.6955   1.7583   1.9062   2.1433
     3.0322   3.2396   3.3448   3.5774   3.6768   3.7167   3.7958   3.9261
     4.0487   4.0913   4.2403   4.3344   4.3663   4.4298   4.5314   4.5938
     7.3049   7.4095   7.5635   7.6594   7.8584   8.0757   8.2812   8.3583
     8.5423   8.5774   8.8093   9.0361   9.2515   9.4821   9.5679   9.7155
     9.9012  10.0577  10.2554  10.3695  10.5342  10.6830  10.7262  10.8945
    10.9920  11.1222  11.2391  11.3530  11.5202  11.6757  11.8487  11.9023
    12.6096  12.8698  13.0020  13.1181  13.3075  13.6288  13.7288  14.0055
    14.1528  14.3042  14.5183  14.6331  14.8124  14.9150  15.0578  15.2748
    15.3486  15.4684  15.5614  15.7494  15.9342  15.9661  16.1834  16.2285
    16.4401  16.5635  16.6068  16.8034  16.8737  16.9610  17.0326  17.1638
    17.2864  17.3086  17.4951  17.6483  17.7973  17.9066  18.0195  18.1156
    18.1910  18.2528  18.4388  18.5692  18.6308  18.7545  18.8494  18.9448
    19.1395  19.1942  19.4514  19.5830  19.6996  19.7954  19.8788  20.0349
    20.1325  20.2091  20.3093  20.4564  20.5701  20.6730  20.8927  20.9191
    21.0779  21.1708  21.2815  21.4168  21.4456  21.5079  21.6850  21.7505
    21.9542  22.0075  22.1554  22.2981  22.3625  22.4493  22.5462  22.6149
    22.6838  22.7979  22.9632  23.0221  23.1351  23.1827  23.3818  23.4539
    23.5469  23.6279  23.7363  23.7811  23.8469  24.0110  24.0606  24.1472
    24.2014  24.3915  24.4671  24.5550  24.6811  24.7765  24.8542  24.8985
    25.0579  25.1320  25.1967  25.2857  25.4220  25.5505  25.5975  25.7010
    25.8557  25.8762  25.9957  26.1265  26.2410  26.3645  26.4713  26.5199
    26.6030  26.6991  26.8054  26.8501  26.9350  26.9820  27.1249  27.2714
    27.3858  27.4065  27.5764  27.7041  27.7080  27.8206  27.9281  28.0285
    28.0608  28.1764  28.3038  28.4394  28.4868  28.5282  28.6162  28.7538

     occupation numbers
     1.0000   1.0000   1.0000   1.0000   1.0000   1.0000   1.0000   1.0000
     1.0000   1.0000   1.0000   1.0000   1.0000   1.0000   1.0000   1.0000
     1.0000   1.0000   1.0000   1.0000   1.0000   1.0000   1.0000   1.0000
     1.0000   1.0000   1.0000   1.0000   1.0000   1.0000   1.0000   1.0000
     1.0000   1.0000   1.0000   1.0000   1.0000   1.0000   1.0000   1.0000
     1.0000   1.0000   1.0000   1.0000   1.0000   1.0000   1.0000   1.0000
     1.0000   1.0000   1.0000   1.0000   1.0000   1.0000   1.0000   1.0000
     1.0000   1.0000   1.0000   1.0000   1.0000   1.0000   1.0000   1.0000
     1.0000   1.0000   1.0000   1.0000   1.0000   1.0000   1.0000   1.0000
     1.0000   1.0000   1.0000   1.0000   1.0000   1.0000   1.0000   1.0000
     0.0000   0.0000   0.0000   0.0000   0.0000   0.0000   0.0000   0.0000
     0.0000   0.0000   0.0000   0.0000   0.0000   0.0000   0.0000   0.0000
     0.0000   0.0000   0.0000   0.0000   0.0000   0.0000   0.0000   0.0000
     0.0000   0.0000   0.0000   0.0000   0.0000   0.0000   0.0000   0.0000
     0.0000   0.0000   0.0000   0.0000   0.0000   0.0000   0.0000   0.0000
     0.0000   0.0000   0.0000   0.0000   0.0000   0.0000   0.0000   0.0000
     0.0000   0.0000   0.0000   0.0000   0.0000   0.0000   0.0000   0.0000
     0.0000   0.0000   0.0000   0.0000   0.0000   0.0000   0.0000   0.0000
     0.0000   0.0000   0.0000   0.0000   0.0000   0.0000   0.0000   0.0000
     0.0000   0.0000   0.0000   0.0000   0.0000   0.0000   0.0000   0.0000
     0.0000   0.0000   0.0000   0.0000   0.0000   0.0000   0.0000   0.0000
     0.0000   0.0000   0.0000   0.0000   0.0000   0.0000   0.0000   0.0000
     0.0000   0.0000   0.0000   0.0000   0.0000   0.0000   0.0000   0.0000
     0.0000   0.0000   0.0000   0.0000   0.0000   0.0000   0.0000   0.0000
     0.0000   0.0000   0.0000   0.0000   0.0000   0.0000   0.0000   0.0000
     0.0000   0.0000   0.0000   0.0000   0.0000   0.0000   0.0000   0.0000
     0.0000   0.0000   0.0000   0.0000   0.0000   0.0000   0.0000   0.0000
     0.0000   0.0000   0.0000   0.0000   0.0000   0.0000   0.0000   0.0000
     0.0000   0.0000   0.0000   0.0000   0.0000   0.0000   0.0000   0.0000
     0.0000   0.0000   0.0000   0.0000   0.0000   0.0000   0.0000   0.0000
     0.0000   0.0000   0.0000   0.0000   0.0000   0.0000   0.0000   0.0000
     0.0000   0.0000   0.0000   0.0000   0.0000   0.0000   0.0000   0.0000

     highest occupied, lowest unoccupied level (ev):     4.8301    6.8901

!    total energy              =   -1375.99085313 Ry
     estimated scf accuracy    <       0.00000023 Ry

     The total energy is the sum of the following terms:
     one-electron contribution =    -310.37841926 Ry
     hartree contribution      =     255.11602887 Ry
     xc contribution           =    -576.39772539 Ry
     ewald contribution        =    -744.33073734 Ry

     convergence has been achieved in  10 iterations

     Writing all to output data dir bands_nm/myprefix.save/

     General routines

     Parallel routines

   This run was terminated on:   0:43:13  17Jul2023

   JOB DONE.