     Program PWSCF v.7.1 starts on 16Jul2023 at 21:26: 1

     Reading input from espresso_24313.pwi
Warning: card &CELL ignored
Warning: card / ignored

     Current dimensions of program PWSCF are:
     Max number of different atomic species (ntypx) = 10
     Max number of k-points (npk) =  40000
     Max angular momentum in pseudopotentials (lmaxx) =  4

     K-points division:     npool     =       2
     R & G space division:  proc/nbgrp/npool/nimage =       4
     Subspace diagonalization in iterative solution of the eigenvalue problem:
     one sub-group per band group will be used

     Using Slab Decomposition

     bravais-lattice index     =            0
     lattice parameter (alat)  =      10.0544  a.u.
     unit-cell volume          =    1217.2996 (a.u.)^3
     number of atoms/cell      =           14
     number of atomic types    =            3
     number of electrons       =       144.00
     number of Kohn-Sham states=          256
     kinetic-energy cutoff     =      30.0000  Ry
     charge density cutoff     =     240.0000  Ry
     scf convergence threshold =      1.0E-06
     mixing beta               =       0.7000
     number of iterations used =            8  plain     mixing
     Exchange-correlation=  SLA  PW   PBX  PBC
                           (   1   4   3   4   0   0   0)

     celldm(1)=  10.054427  celldm(2)=   0.000000  celldm(3)=   0.000000
     celldm(4)=   0.000000  celldm(5)=   0.000000  celldm(6)=   0.000000

     crystal axes: (cart. coord. in units of alat)
               a(1) = (   1.000000   0.000000   0.000000 )
               a(2) = (  -0.312115   0.946260   0.000000 )
               a(3) = (  -0.497046  -0.362625   1.265654 )

     reciprocal axes: (cart. coord. in units 2 pi/alat)
               b(1) = (  1.000000  0.329840  0.487222 )
               b(2) = (  0.000000  1.056792  0.302784 )
               b(3) = (  0.000000  0.000000  0.790106 )

     PseudoPot. # 1 for Zn read from file:
     /lustre07/scratch/pragov/crystal_structure_design/utils/SSSP/Zn_pbe_v1.uspp.F.UPF
     MD5 check sum: df62231357ef9e81f77b2b3087fa5675
     Pseudo is Ultrasoft, Zval = 20.0
     Generated by new atomic code, or converted to UPF format
     Using radial grid of  943 points,  6 beta functions with:
                l(1) =   0
                l(2) =   0
                l(3) =   1
                l(4) =   1
                l(5) =   2
                l(6) =   2
     Q(r) pseudized with  8 coefficients,  rinner =    1.100   1.100   1.100
                                                       1.100   1.100

     PseudoPot. # 2 for Co read from file:
     /lustre07/scratch/pragov/crystal_structure_design/utils/SSSP/Co_pbe_v1.2.uspp.F.UPF
     MD5 check sum: 5f91765df6ddd3222702df6e7b74a16d
     Pseudo is Ultrasoft + core correction, Zval = 17.0
     Generated by new atomic code, or converted to UPF format
     Using radial grid of  863 points,  6 beta functions with:
                l(1) =   0
                l(2) =   0
                l(3) =   1
                l(4) =   1
                l(5) =   2
                l(6) =   2
     Q(r) pseudized with  8 coefficients,  rinner =    1.200   1.200   1.200
                                                       1.200   1.200

     PseudoPot. # 3 for F  read from file:
     /lustre07/scratch/pragov/crystal_structure_design/utils/SSSP/f_pbe_v1.4.uspp.F.UPF
     MD5 check sum: 4c38b6a325caf53ec0e86aed9459de46
     Pseudo is Ultrasoft, Zval =  7.0
     Generated by new atomic code, or converted to UPF format
     Using radial grid of  799 points,  4 beta functions with:
                l(1) =   0
                l(2) =   0
                l(3) =   1
                l(4) =   1
     Q(r) pseudized with  8 coefficients,  rinner =    0.950   0.950   0.950

     atomic species   valence    mass     pseudopotential
        Zn            20.00    65.38000     Zn( 1.00)
        Co            17.00    58.93319     Co( 1.00)
        F              7.00    18.99840     F ( 1.00)

     No symmetry found

                                    s                        frac. trans.

      isym =  1     identity

 cryst.   s( 1) = (     1          0          0      )
                  (     0          1          0      )
                  (     0          0          1      )

 cart.    s( 1) = (  1.0000000  0.0000000  0.0000000 )
                  (  0.0000000  1.0000000  0.0000000 )
                  (  0.0000000  0.0000000  1.0000000 )

   Cartesian axes

     site n.     atom                  positions (alat units)
         1           Zn  tau(   1) = (  -0.2581993   0.2273736   0.9550359  )
         2           Zn  tau(   2) = (   0.4507083   0.3525679   0.3246267  )
         3           Co  tau(   3) = (   0.6836646   0.9444448   0.0007176  )
         4           Co  tau(   4) = (   0.2504772  -0.1795839   0.6337153  )
         5           F   tau(   5) = (   0.2100617   0.0291369   0.3164265  )
         6           F   tau(   6) = (  -0.0257604   0.5573734   0.9518783  )
         7           F   tau(   7) = (   0.1681351   0.5593956   0.4772030  )
         8           F   tau(   8) = (   0.7296255   0.1548591   0.1595169  )
         9           F   tau(   9) = (   0.5156203   0.6229992   0.0601317  )
        10           F   tau(  10) = (  -0.3138453   0.5100409   0.5790075  )
        11           F   tau(  11) = (  -0.3418177  -0.0427297   1.2046867  )
        12           F   tau(  12) = (   0.5050054   0.0793296   0.6909126  )
        13           F   tau(  13) = (  -0.5462665   0.4263912   1.1064279  )
        14           F   tau(  14) = (   0.0238342   0.0304128   0.7932209  )

   Crystallographic axes

     site n.     atom                  positions (cryst. coord.)
         1           Zn  tau(   1) = (  0.2821124  0.5294559  0.7545792  )
         2           Zn  tau(   2) = (  0.7251647  0.4708825  0.2564893  )
         3           Co  tau(   3) = (  0.9955304  0.9982988  0.0005670  )
         4           Co  tau(   4) = (  0.5000033  0.0020960  0.5007020  )
         5           F   tau(   5) = (  0.3738422  0.1266005  0.2500103  )
         6           F   tau(   6) = (  0.6218601  0.8772410  0.7520843  )
         7           F   tau(   7) = (  0.5851503  0.7356540  0.3770407  )
         8           F   tau(   8) = (  0.8584245  0.2119530  0.1260352  )
         9           F   tau(   9) = (  0.7504082  0.6765874  0.0475104  )
        10           F   tau(  10) = (  0.1364921  0.7143211  0.4574771  )
        11           F   tau(  11) = (  0.2310383  0.3196032  0.9518296  )
        12           F   tau(  12) = (  0.8677994  0.2930320  0.5458939  )
        13           F   tau(  13) = (  0.1334507  0.7856151  0.8741948  )
        14           F   tau(  14) = (  0.4203404  0.2723144  0.6267282  )

     number of k points=    14
                       cart. coord. in units 2pi/alat
        k(    1) = (   0.0000000   0.0000000   0.0000000), wk =   0.0740741
        k(    2) = (   0.0000000   0.0000000   0.2633685), wk =   0.1481481
        k(    3) = (   0.0000000   0.3522639   0.1009279), wk =   0.1481481
        k(    4) = (   0.0000000   0.3522639   0.3642965), wk =   0.1481481
        k(    5) = (   0.0000000   0.3522639  -0.1624406), wk =   0.1481481
        k(    6) = (   0.3333333   0.1099468   0.1624074), wk =   0.1481481
        k(    7) = (   0.3333333   0.1099468   0.4257759), wk =   0.1481481
        k(    8) = (   0.3333333   0.1099468  -0.1009611), wk =   0.1481481
        k(    9) = (   0.3333333   0.4622108   0.2633353), wk =   0.1481481
        k(   10) = (   0.3333333   0.4622108   0.5267038), wk =   0.1481481
        k(   11) = (   0.3333333   0.4622108  -0.0000332), wk =   0.1481481
        k(   12) = (   0.3333333  -0.2423171   0.0614794), wk =   0.1481481
        k(   13) = (   0.3333333  -0.2423171   0.3248480), wk =   0.1481481
        k(   14) = (   0.3333333  -0.2423171  -0.2018891), wk =   0.1481481

                       cryst. coord.
        k(    1) = (   0.0000000   0.0000000   0.0000000), wk =   0.0740741
        k(    2) = (   0.0000000   0.0000000   0.3333333), wk =   0.1481481
        k(    3) = (   0.0000000   0.3333333   0.0000000), wk =   0.1481481
        k(    4) = (   0.0000000   0.3333333   0.3333333), wk =   0.1481481
        k(    5) = (   0.0000000   0.3333333  -0.3333333), wk =   0.1481481
        k(    6) = (   0.3333333   0.0000000   0.0000000), wk =   0.1481481
        k(    7) = (   0.3333333   0.0000000   0.3333333), wk =   0.1481481
        k(    8) = (   0.3333333   0.0000000  -0.3333333), wk =   0.1481481
        k(    9) = (   0.3333333   0.3333333   0.0000000), wk =   0.1481481
        k(   10) = (   0.3333333   0.3333333   0.3333333), wk =   0.1481481
        k(   11) = (   0.3333333   0.3333333  -0.3333333), wk =   0.1481481
        k(   12) = (   0.3333333  -0.3333333   0.0000000), wk =   0.1481481
        k(   13) = (   0.3333333  -0.3333333   0.3333333), wk =   0.1481481
        k(   14) = (   0.3333333  -0.3333333  -0.3333333), wk =   0.1481481

     Check: negative core charge=   -0.000008

     Initial potential from superposition of free atoms

     starting charge     141.9997, renormalised to     144.0000
     Starting wfcs are   92 randomized atomic wfcs +  164 random wfcs

     Self-consistent Calculation

     iteration #  1     ecut=    30.00 Ry     beta= 0.70
     Davidson diagonalization with overlap

     ethr =  1.00E-02,  avg # of iterations =  6.0

     total energy              =   -1971.23889799 Ry
     estimated scf accuracy    <      41.95093393 Ry

[...]

     total energy              =   -2006.25296495 Ry
     estimated scf accuracy    <       0.00000104 Ry

     iteration # 27     ecut=    30.00 Ry     beta= 0.70
     Davidson diagonalization with overlap

     ethr =  7.23E-10,  avg # of iterations =  1.0

     End of self-consistent calculation

          k = 0.0000 0.0000 0.0000 (  3363 PWs)   bands (ev):

  -120.3148-120.2807 -91.9617 -91.9589 -74.4787 -74.4506 -74.4434 -74.4377
   -74.4154 -74.4042 -55.3177 -55.3084 -55.1309 -55.1292 -55.0493 -55.0473
   -19.5972 -19.4178 -18.7044 -18.6316 -18.3820 -18.3070 -18.0818 -18.0465
   -18.0020 -17.9721  -3.1698  -2.9807  -2.4761  -2.4470  -2.2658  -2.1808
    -2.0736  -2.0166  -1.8508  -1.7915  -1.6994  -1.5391  -1.5362  -1.4932
    -1.4255  -1.3310  -1.2934  -1.1412  -0.7645  -0.4402  -0.2025  -0.1841
     0.1142   0.1945   0.2188   0.3819   0.5884   0.6578   0.7363   0.8187
     0.8722   1.0953   1.2284   1.2606   1.3785   1.4327   1.5107   1.6118
     1.6867   1.8151   2.6355   2.7979   3.1691   3.2022   3.2877   3.3587
     3.5964   4.2701   4.8904   5.0964   7.2259   9.7597  12.3469  13.1853
    13.5805  14.0644  14.2011  14.7872  15.3315  15.4255  15.9121  16.0299
    16.2027  16.3313  16.5837  17.5875  18.3924  18.5538  18.6351  18.6917
    19.5045  19.7375  20.0271  20.4724  20.6782  20.8917  21.3932  22.6357
    22.8844  23.3302  24.0649  24.7098  25.1339  25.2731  25.3178  25.5554
    25.6860  26.3497  26.6204  26.9170  26.9517  27.5648  27.7039  28.1399
    28.5719  28.8325  29.0319  29.1238  29.6807  30.0941  30.2594  30.6315
    30.7260  31.2372  31.2597  31.4937  31.7172  31.7864  32.0369  32.6524
    32.9571  33.0857  33.4199  33.5671  33.8233  34.1068  34.7277  34.8126
    35.1980  35.2387  35.8801  36.2363  36.5702  36.8497  37.0861  37.1845
    37.4570  37.6382  37.8439  37.9084  38.0995  38.3052  38.5897  38.9576
    39.0908  39.4450  39.6144  40.2804  40.3429  40.8225  41.1508  41.2758
    41.3245  41.7385  41.7925  41.8506  41.9347  42.4081  42.8411  42.9774
    43.0288  43.5834  43.8752  44.1464  44.2373  44.5746  45.3434  45.3896
    45.6446  45.7660  45.8650  46.0972  46.2924  46.5225  46.6660  46.8171
    47.0721  47.4532  47.5248  47.7491  48.1664  48.2300  48.4281  48.6005
    48.7241  48.8310  49.5139  49.5798  50.0524  50.1171  50.1590  50.3346
    50.7845  51.4231  51.6994  51.8853  52.0511  52.2417  52.2852  52.6466
    53.0125  53.1090  53.1421  53.3159  53.4049  53.7966  53.9845  54.1441
    54.3851  54.4762  54.6004  54.6482  55.1313  55.2292  55.2552  55.5170
    55.9148  56.2786  56.4066  56.5475  56.5515  56.6407  56.6978  56.8270
    57.0218  57.0572  57.1905  57.3387  57.3780  57.8108  57.9950  58.2815
    58.5782  58.6691  58.7062  58.7505  59.5117  59.5352  59.8314  59.9891

     occupation numbers
     1.0000   1.0000   1.0000   1.0000   1.0000   1.0000   1.0000   1.0000
     1.0000   1.0000   1.0000   1.0000   1.0000   1.0000   1.0000   1.0000
     1.0000   1.0000   1.0000   1.0000   1.0000   1.0000   1.0000   1.0000
     1.0000   1.0000   1.0000   1.0000   1.0000   1.0000   1.0000   1.0000
     1.0000   1.0000   1.0000   1.0000   1.0000   1.0000   1.0000   1.0000
     1.0000   1.0000   1.0000   1.0000   1.0000   1.0000   1.0000   1.0000
     1.0000   1.0000   1.0000   1.0000   1.0000   1.0000   1.0000   1.0000
     1.0000   1.0000   1.0000   1.0000   1.0000   1.0000   1.0000   1.0000
     1.0000   1.0000   1.0000   1.0000   1.0000   1.0000   1.0000   1.0000
     0.0000   0.0000   0.0000   0.0000   0.0000   0.0000   0.0000   0.0000
     0.0000   0.0000   0.0000   0.0000   0.0000   0.0000   0.0000   0.0000
     0.0000   0.0000   0.0000   0.0000   0.0000   0.0000   0.0000   0.0000
     0.0000   0.0000   0.0000   0.0000   0.0000   0.0000   0.0000   0.0000
     0.0000   0.0000   0.0000   0.0000   0.0000   0.0000   0.0000   0.0000
     0.0000   0.0000   0.0000   0.0000   0.0000   0.0000   0.0000   0.0000
     0.0000   0.0000   0.0000   0.0000   0.0000   0.0000   0.0000   0.0000
     0.0000   0.0000   0.0000   0.0000   0.0000   0.0000   0.0000   0.0000
     0.0000   0.0000   0.0000   0.0000   0.0000   0.0000   0.0000   0.0000
     0.0000   0.0000   0.0000   0.0000   0.0000   0.0000   0.0000   0.0000
     0.0000   0.0000   0.0000   0.0000   0.0000   0.0000   0.0000   0.0000
     0.0000   0.0000   0.0000   0.0000   0.0000   0.0000   0.0000   0.0000
     0.0000   0.0000   0.0000   0.0000   0.0000   0.0000   0.0000   0.0000
     0.0000   0.0000   0.0000   0.0000   0.0000   0.0000   0.0000   0.0000
     0.0000   0.0000   0.0000   0.0000   0.0000   0.0000   0.0000   0.0000
     0.0000   0.0000   0.0000   0.0000   0.0000   0.0000   0.0000   0.0000
     0.0000   0.0000   0.0000   0.0000   0.0000   0.0000   0.0000   0.0000
     0.0000   0.0000   0.0000   0.0000   0.0000   0.0000   0.0000   0.0000
     0.0000   0.0000   0.0000   0.0000   0.0000   0.0000   0.0000   0.0000
     0.0000   0.0000   0.0000   0.0000   0.0000   0.0000   0.0000   0.0000
     0.0000   0.0000   0.0000   0.0000   0.0000   0.0000   0.0000   0.0000
     0.0000   0.0000   0.0000   0.0000   0.0000   0.0000   0.0000   0.0000
     0.0000   0.0000   0.0000   0.0000   0.0000   0.0000   0.0000   0.0000

[...]

          k = 0.3333-0.2423-0.2019 (  3367 PWs)   bands (ev):

  -120.3148-120.2807 -91.9617 -91.9589 -74.4797 -74.4525 -74.4453 -74.4345
   -74.4170 -74.4008 -55.3185 -55.3093 -55.1323 -55.1296 -55.0478 -55.0450
   -19.5603 -19.4208 -18.6571 -18.6192 -18.3772 -18.3062 -18.1168 -18.0934
   -18.0224 -17.9936  -3.2090  -2.6633  -2.6321  -2.4774  -2.4329  -2.1726
    -2.0629  -2.0264  -1.7071  -1.6339  -1.5545  -1.5183  -1.4917  -1.4638
    -1.4342  -1.2624  -1.1641  -1.0196  -0.6934  -0.4768  -0.2484  -0.1576
    -0.0907   0.2744   0.3357   0.4134   0.5174   0.6618   0.7592   0.8530
     0.8894   0.9694   1.0160   1.1120   1.2714   1.3562   1.3795   1.4498
     1.5662   1.6631   2.6411   2.8091   3.1701   3.2809   3.3711   3.4106
     3.5591   4.2652   4.4238   4.8934   8.7967   9.7173  12.0517  12.5997
    13.2560  13.8259  14.0097  14.4509  14.9614  15.4819  15.6963  16.2744
    16.9407  17.1745  17.6119  17.7120  18.2649  18.4582  18.7265  19.1579
    19.5635  19.8604  20.7069  20.7631  20.9621  21.3375  21.7122  22.5900
    22.6652  23.2290  23.3106  23.8200  24.1493  24.2511  24.9804  25.1326
    25.5171  25.7330  25.9849  26.1270  26.8414  26.9058  27.2082  27.7453
    27.8410  28.4220  28.8989  29.0412  29.1976  29.7839  29.9606  30.3967
    30.6093  30.8305  31.5036  31.7247  32.6600  32.8473  32.9423  33.5513
    33.9681  34.1432  34.2377  34.4888  34.6601  35.0478  35.3652  35.4566
    35.5421  35.7444  35.9853  36.4143  36.7481  37.2253  37.2717  37.5792
    37.6904  38.0165  38.1678  38.4505  38.6389  38.7006  39.1918  39.3097
    39.8266  39.9058  40.3456  40.4505  40.5997  40.7600  40.8097  40.9029
    41.5629  41.6175  41.9437  42.0302  42.0960  42.5894  42.8577  43.0165
    43.1230  43.2996  43.6118  44.2827  44.3510  44.5537  44.7327  44.8180
    45.0169  45.1409  45.4810  45.5551  45.7498  45.8999  45.9632  46.0620
    46.2803  46.3429  46.7908  47.3448  47.5026  47.5428  47.8636  48.0011
    48.3542  48.6969  48.7860  49.1410  49.1926  49.3010  49.5619  49.6932
    49.8875  49.9772  50.1276  50.6370  51.0168  51.0776  51.2580  51.5091
    51.7554  52.1188  52.2497  52.3986  52.6573  52.8700  53.3544  53.4554
    53.5901  53.7977  54.1024  54.3405  54.5207  55.1963  55.3576  55.5065
    55.6366  56.3306  56.5006  56.6918  57.0021  57.0837  57.7140  57.8555
    58.0203  58.3973  58.4747  58.7802  58.9573  59.0560  59.4645  59.6003
    59.8067  60.1469  60.2665  60.2963  60.4438  60.6233  60.8236  60.9907

     occupation numbers
     1.0000   1.0000   1.0000   1.0000   1.0000   1.0000   1.0000   1.0000
     1.0000   1.0000   1.0000   1.0000   1.0000   1.0000   1.0000   1.0000
     1.0000   1.0000   1.0000   1.0000   1.0000   1.0000   1.0000   1.0000
     1.0000   1.0000   1.0000   1.0000   1.0000   1.0000   1.0000   1.0000
     1.0000   1.0000   1.0000   1.0000   1.0000   1.0000   1.0000   1.0000
     1.0000   1.0000   1.0000   1.0000   1.0000   1.0000   1.0000   1.0000
     1.0000   1.0000   1.0000   1.0000   1.0000   1.0000   1.0000   1.0000
     1.0000   1.0000   1.0000   1.0000   1.0000   1.0000   1.0000   1.0000
     1.0000   1.0000   1.0000   1.0000   1.0000   1.0000   1.0000   1.0000
     0.0000   0.0000   0.0000   0.0000   0.0000   0.0000   0.0000   0.0000
     0.0000   0.0000   0.0000   0.0000   0.0000   0.0000   0.0000   0.0000
     0.0000   0.0000   0.0000   0.0000   0.0000   0.0000   0.0000   0.0000
     0.0000   0.0000   0.0000   0.0000   0.0000   0.0000   0.0000   0.0000
     0.0000   0.0000   0.0000   0.0000   0.0000   0.0000   0.0000   0.0000
     0.0000   0.0000   0.0000   0.0000   0.0000   0.0000   0.0000   0.0000
     0.0000   0.0000   0.0000   0.0000   0.0000   0.0000   0.0000   0.0000
     0.0000   0.0000   0.0000   0.0000   0.0000   0.0000   0.0000   0.0000
     0.0000   0.0000   0.0000   0.0000   0.0000   0.0000   0.0000   0.0000
     0.0000   0.0000   0.0000   0.0000   0.0000   0.0000   0.0000   0.0000
     0.0000   0.0000   0.0000   0.0000   0.0000   0.0000   0.0000   0.0000
     0.0000   0.0000   0.0000   0.0000   0.0000   0.0000   0.0000   0.0000
     0.0000   0.0000   0.0000   0.0000   0.0000   0.0000   0.0000   0.0000
     0.0000   0.0000   0.0000   0.0000   0.0000   0.0000   0.0000   0.0000
     0.0000   0.0000   0.0000   0.0000   0.0000   0.0000   0.0000   0.0000
     0.0000   0.0000   0.0000   0.0000   0.0000   0.0000   0.0000   0.0000
     0.0000   0.0000   0.0000   0.0000   0.0000   0.0000   0.0000   0.0000
     0.0000   0.0000   0.0000   0.0000   0.0000   0.0000   0.0000   0.0000
     0.0000   0.0000   0.0000   0.0000   0.0000   0.0000   0.0000   0.0000
     0.0000   0.0000   0.0000   0.0000   0.0000   0.0000   0.0000   0.0000
     0.0000   0.0000   0.0000   0.0000   0.0000   0.0000   0.0000   0.0000
     0.0000   0.0000   0.0000   0.0000   0.0000   0.0000   0.0000   0.0000
     0.0000   0.0000   0.0000   0.0000   0.0000   0.0000   0.0000   0.0000

     highest occupied, lowest unoccupied level (ev):     3.4440    3.5502

!    total energy              =   -2006.25296508 Ry
     estimated scf accuracy    <       0.00000012 Ry

     The total energy is the sum of the following terms:
     one-electron contribution =   -1692.40294243 Ry
     hartree contribution      =     899.85762544 Ry
     xc contribution           =    -242.58841973 Ry
     ewald contribution        =    -971.11922836 Ry

     convergence has been achieved in  27 iterations

     Writing all to output data dir bands_nm/myprefix.save/

     General routines

     Parallel routines

   This run was terminated on:  21:28:39  16Jul2023

   JOB DONE.