     Program PWSCF v.7.1 starts on 16Jul2023 at 13:47:39

     Reading input from espresso_26454.pwi
Warning: card &CELL ignored
Warning: card / ignored

     Current dimensions of program PWSCF are:
     Max number of different atomic species (ntypx) = 10
     Max number of k-points (npk) =  40000
     Max angular momentum in pseudopotentials (lmaxx) =  4
     file Al.pbe-n-kjpaw_psl.1.0.0.UPF: wavefunction(s)  3S 3P renormalized
     file O.pbe-n-kjpaw_psl.0.1.UPF: wavefunction(s)  2P renormalized

     K-points division:     npool     =       2
     R & G space division:  proc/nbgrp/npool/nimage =       4
     Subspace diagonalization in iterative solution of the eigenvalue problem:
     a serial algorithm will be used

     Using Slab Decomposition

     bravais-lattice index     =            0
     lattice parameter (alat)  =       9.8596  a.u.
     unit-cell volume          =    1139.3395 (a.u.)^3
     number of atoms/cell      =           17
     number of atomic types    =            4
     number of electrons       =        72.00
     number of Kohn-Sham states=           64
     kinetic-energy cutoff     =      30.0000  Ry
     charge density cutoff     =     240.0000  Ry
     scf convergence threshold =      1.0E-06
     mixing beta               =       0.7000
     number of iterations used =            8  plain     mixing
     Exchange-correlation= SLA  PW   PBX  PBC
                           (   1   4   3   4   0   0   0)

     celldm(1)=   9.859554  celldm(2)=   0.000000  celldm(3)=   0.000000
     celldm(4)=   0.000000  celldm(5)=   0.000000  celldm(6)=   0.000000

     crystal axes: (cart. coord. in units of alat)
               a(1) = (   1.000000   0.000000   0.000000 )
               a(2) = (  -0.494119   0.869394   0.000000 )
               a(3) = (   0.022080   0.037946   1.367302 )

     reciprocal axes: (cart. coord. in units 2 pi/alat)
               b(1) = (  1.000000  0.568348 -0.031922 )
               b(2) = (  0.000000  1.150226 -0.031922 )
               b(3) = (  0.000000  0.000000  0.731367 )

     PseudoPot. # 1 for Al read from file:
     /lustre07/scratch/pragov/crystal_structure_design/utils/SSSP/Al.pbe-n-kjpaw_psl.1.0.0.UPF
     MD5 check sum: cfc449ca30b5f3223ec38ddd88ac046d
     Pseudo is Projector augmented-wave + core cor, Zval =  3.0
     Generated using "atomic" code by A. Dal Corso  v.5.1
     Shape of augmentation charge: PSQ
     Using radial grid of 1135 points,  6 beta functions with:
                l(1) =   0
                l(2) =   0
                l(3) =   1
                l(4) =   1
                l(5) =   2
                l(6) =   2
     Q(r) pseudized with 0 coefficients

     PseudoPot. # 2 for Si read from file:
     /lustre07/scratch/pragov/crystal_structure_design/utils/SSSP/Si.pbe-n-rrkjus_psl.1.0.0.UPF
     MD5 check sum: 0b0bb1205258b0d07b9f9672cf965d36
     Pseudo is Ultrasoft + core correction, Zval =  4.0
     Generated using "atomic" code by A. Dal Corso  v.5.1
     Using radial grid of 1141 points,  6 beta functions with:
                l(1) =   0
                l(2) =   0
                l(3) =   1
                l(4) =   1
                l(5) =   2
                l(6) =   2
     Q(r) pseudized with 0 coefficients

     PseudoPot. # 3 for H  read from file:
     /lustre07/scratch/pragov/crystal_structure_design/utils/SSSP/H.pbe-rrkjus_psl.1.0.0.UPF
     MD5 check sum: f52b6d4d1c606e5624b1dc7b2218f220
     Pseudo is Ultrasoft, Zval =  1.0
     Generated using "atomic" code by A. Dal Corso  v.5.1
     Using radial grid of  929 points,  2 beta functions with:
                l(1) =   0
                l(2) =   0
     Q(r) pseudized with 0 coefficients

     PseudoPot. # 4 for O  read from file:
     /lustre07/scratch/pragov/crystal_structure_design/utils/SSSP/O.pbe-n-kjpaw_psl.0.1.UPF
     MD5 check sum: 0234752ac141de4415c5fc33072bef88
     Pseudo is Projector augmented-wave + core cor, Zval =  6.0
     Generated using "atomic" code by A. Dal Corso  v.5.0.99 svn rev. 10869
     Shape of augmentation charge: BESSEL
     Using radial grid of 1095 points,  4 beta functions with:
                l(1) =   0
                l(2) =   0
                l(3) =   1
                l(4) =   1
     Q(r) pseudized with 0 coefficients

     atomic species   valence    mass     pseudopotential
        Al             3.00    26.98154     Al( 1.00)
        Si             4.00    28.08500     Si( 1.00)
        H              1.00     1.00800     H ( 1.00)
        O              6.00    15.99900     O ( 1.00)

     No symmetry found

                                    s                        frac. trans.

      isym =  1     identity

 cryst.   s( 1) = (     1          0          0      )
                  (     0          1          0      )
                  (     0          0          1      )

 cart.    s( 1) = (  1.0000000  0.0000000  0.0000000 )
                  (  0.0000000  1.0000000  0.0000000 )
                  (  0.0000000  0.0000000  1.0000000 )

   Cartesian axes

     site n.     atom                  positions (alat units)
         1           Al  tau(   1) = (   0.3465845   0.0301824   0.7079344  )
         2           Al  tau(   2) = (  -0.1450135   0.3162323   0.7079344  )
         3           Si  tau(   3) = (  -0.0029082   0.5815789   0.1765009  )
         4           Si  tau(   4) = (   0.5070585   0.2848407   0.1765009  )
         5           H   tau(   5) = (   0.4546749   0.7813927   0.4843778  )
         6           H   tau(   6) = (   0.2172172   0.3733039   1.0395941  )
         7           H   tau(   7) = (   0.6692532   0.0408783   1.0646075  )
         8           H   tau(   8) = (  -0.2951513   0.6020437   1.0646075  )
         9           O   tau(   9) = (   0.0157650   0.8678029   0.0463775  )
        10           O   tau(  10) = (   0.7466731   0.4425039   0.0463775  )
        11           O   tau(  11) = (   0.2511078   0.4315475   0.0703942  )
        12           O   tau(  12) = (   0.5359468   0.2719915   0.4853308  )
        13           O   tau(  13) = (  -0.0283536   0.6003452   0.4853308  )
        14           O   tau(  14) = (   0.0422951   0.0726873   0.4985539  )
        15           O   tau(  15) = (   0.6573315   0.0708715   0.8803102  )
        16           O   tau(  16) = (  -0.2631847   0.6064992   0.8803102  )
        17           O   tau(  17) = (   0.1573036   0.2703379   0.8960834  )

   Crystallographic axes

     site n.     atom                  positions (cryst. coord.)
         1           Al  tau(   1) = (  0.3411400  0.0121180  0.5177600  )
         2           Al  tau(   2) = (  0.0121180  0.3411400  0.5177600  )
         3           Si  tau(   3) = (  0.3219970  0.6633130  0.1290870  )
         4           Si  tau(   4) = (  0.6633130  0.3219970  0.1290870  )
         5           H   tau(   5) = (  0.8833160  0.8833160  0.3542580  )
         6           H   tau(   6) = (  0.3961980  0.3961980  0.7603250  )
         7           H   tau(   7) = (  0.6585020  0.0130350  0.7786190  )
         8           H   tau(   8) = (  0.0130350  0.6585020  0.7786190  )
         9           O   tau(   9) = (  0.5074990  0.9966890  0.0339190  )
        10           O   tau(  10) = (  0.9966890  0.5074990  0.0339190  )
        11           O   tau(  11) = (  0.4941300  0.4941300  0.0514840  )
        12           O   tau(  12) = (  0.6750400  0.2973590  0.3549550  )
        13           O   tau(  13) = (  0.2973590  0.6750400  0.3549550  )
        14           O   tau(  14) = (  0.0676920  0.0676920  0.3646260  )
        15           O   tau(  15) = (  0.6695100  0.0534170  0.6438300  )
        16           O   tau(  16) = (  0.0534170  0.6695100  0.6438300  )
        17           O   tau(  17) = (  0.2823450  0.2823450  0.6553660  )

     number of k points=    14
                       cart. coord. in units 2pi/alat
        k(    1) = (   0.0000000   0.0000000   0.0000000), wk =   0.0740741
        k(    2) = (   0.0000000   0.0000000   0.2437891), wk =   0.1481481
        k(    3) = (   0.0000000   0.3834087  -0.0106406), wk =   0.1481481
        k(    4) = (   0.0000000   0.3834087   0.2331484), wk =   0.1481481
        k(    5) = (   0.0000000   0.3834087  -0.2544297), wk =   0.1481481
        k(    6) = (   0.3333333   0.1894495  -0.0106406), wk =   0.1481481
        k(    7) = (   0.3333333   0.1894495   0.2331484), wk =   0.1481481
        k(    8) = (   0.3333333   0.1894495  -0.2544297), wk =   0.1481481
        k(    9) = (   0.3333333   0.5728582  -0.0212813), wk =   0.1481481
        k(   10) = (   0.3333333   0.5728582   0.2225078), wk =   0.1481481
        k(   11) = (   0.3333333   0.5728582  -0.2650703), wk =   0.1481481
        k(   12) = (   0.3333333  -0.1939592   0.0000000), wk =   0.1481481
        k(   13) = (   0.3333333  -0.1939592   0.2437891), wk =   0.1481481
        k(   14) = (   0.3333333  -0.1939592  -0.2437891), wk =   0.1481481

                       cryst. coord.
        k(    1) = (   0.0000000   0.0000000   0.0000000), wk =   0.0740741
        k(    2) = (   0.0000000   0.0000000   0.3333333), wk =   0.1481481
        k(    3) = (   0.0000000   0.3333333  -0.0000000), wk =   0.1481481
        k(    4) = (   0.0000000   0.3333333   0.3333333), wk =   0.1481481
        k(    5) = (   0.0000000   0.3333333  -0.3333333), wk =   0.1481481
        k(    6) = (   0.3333333   0.0000000   0.0000000), wk =   0.1481481
        k(    7) = (   0.3333333   0.0000000   0.3333333), wk =   0.1481481
        k(    8) = (   0.3333333   0.0000000  -0.3333333), wk =   0.1481481
        k(    9) = (   0.3333333   0.3333333   0.0000000), wk =   0.1481481
        k(   10) = (   0.3333333   0.3333333   0.3333333), wk =   0.1481481
        k(   11) = (   0.3333333   0.3333333  -0.3333333), wk =   0.1481481
        k(   12) = (   0.3333333  -0.3333333   0.0000000), wk =   0.1481481
        k(   13) = (   0.3333333  -0.3333333   0.3333333), wk =   0.1481481
        k(   14) = (   0.3333333  -0.3333333  -0.3333333), wk =   0.1481481

     Check: negative core charge=   -0.000011

     Initial potential from superposition of free atoms

     starting charge      71.9942, renormalised to      72.0000
     Starting wfcs are   56 randomized atomic wfcs +    8 random wfcs
     Checking if some PAW data can be deallocated...

     Self-consistent Calculation

     iteration #  1     ecut=    30.00 Ry     beta= 0.70
     Davidson diagonalization with overlap

     ethr =  1.00E-02,  avg # of iterations =  6.8

     total energy              =    -481.27395409 Ry
     estimated scf accuracy    <       2.86419822 Ry

[...]

     total energy              =    -482.41918164 Ry
     estimated scf accuracy    <       0.00000149 Ry

     iteration #  9     ecut=    30.00 Ry     beta= 0.70
     Davidson diagonalization with overlap

     ethr =  2.06E-09,  avg # of iterations =  1.6

     End of self-consistent calculation

          k = 0.0000 0.0000 0.0000 (  3169 PWs)   bands (ev):

   -17.1385 -15.6676 -15.3939 -15.3485 -14.8408 -14.7224 -14.6317 -14.3295
   -14.3176  -6.6240  -3.9239  -3.4050  -3.1294  -2.9176  -2.7320  -2.4773
    -2.2719  -1.5538  -1.1871  -0.7210  -0.4545   0.0681   0.4143   0.4927
     0.5388   0.7723   0.8883   1.2915   1.3041   1.6250   2.1522   2.2600
     2.2769   2.4786   2.6740   2.7025   7.7364  10.5808  11.0940  11.2205
    11.8001  11.8957  12.3706  12.5619  12.7264  13.9734  14.0205  14.2378
    14.6063  14.8277  15.0910  15.5211  15.9919  16.0003  16.0550  16.7033
    16.8525  16.9288  17.3739  17.6611  17.7296  18.4355  18.5510  18.9917

     occupation numbers
     1.0000   1.0000   1.0000   1.0000   1.0000   1.0000   1.0000   1.0000
     1.0000   1.0000   1.0000   1.0000   1.0000   1.0000   1.0000   1.0000
     1.0000   1.0000   1.0000   1.0000   1.0000   1.0000   1.0000   1.0000
     1.0000   1.0000   1.0000   1.0000   1.0000   1.0000   1.0000   1.0000
     1.0000   1.0000   1.0000   1.0000   0.0000   0.0000   0.0000   0.0000
     0.0000   0.0000   0.0000   0.0000   0.0000   0.0000   0.0000   0.0000
     0.0000   0.0000   0.0000   0.0000   0.0000   0.0000   0.0000   0.0000
     0.0000   0.0000   0.0000   0.0000   0.0000   0.0000   0.0000   0.0000

[...]

          k = 0.3333-0.1940-0.2438 (  3169 PWs)   bands (ev):

   -16.8392 -15.8396 -15.5159 -15.4000 -15.0215 -14.7379 -14.5569 -14.3813
   -14.2743  -5.7763  -4.2005  -3.7380  -3.4334  -3.0799  -2.3535  -2.1113
    -1.6014  -1.4528  -1.1612  -0.6509  -0.5176  -0.0873   0.1126   0.3444
     0.3978   0.4726   0.9317   1.2478   1.3699   1.6130   1.6786   1.7488
     1.9988   2.3984   2.6036   2.7984   9.4733  10.6323  11.1639  11.6247
    11.7751  12.3027  12.4997  12.8127  13.1401  13.6115  13.8829  14.0843
    14.3288  14.5690  15.1151  15.7468  15.9761  16.1859  16.3900  16.5780
    16.8344  17.0357  17.2691  17.5403  17.9043  18.1838  18.7315  18.9388

     occupation numbers
     1.0000   1.0000   1.0000   1.0000   1.0000   1.0000   1.0000   1.0000
     1.0000   1.0000   1.0000   1.0000   1.0000   1.0000   1.0000   1.0000
     1.0000   1.0000   1.0000   1.0000   1.0000   1.0000   1.0000   1.0000
     1.0000   1.0000   1.0000   1.0000   1.0000   1.0000   1.0000   1.0000
     1.0000   1.0000   1.0000   1.0000   0.0000   0.0000   0.0000   0.0000
     0.0000   0.0000   0.0000   0.0000   0.0000   0.0000   0.0000   0.0000
     0.0000   0.0000   0.0000   0.0000   0.0000   0.0000   0.0000   0.0000
     0.0000   0.0000   0.0000   0.0000   0.0000   0.0000   0.0000   0.0000

     highest occupied, lowest unoccupied level (ev):     2.8048    7.7364

!    total energy              =    -482.41918184 Ry
     estimated scf accuracy    <       0.00000008 Ry

     The total energy is the sum of the following terms:
     one-electron contribution =    -150.53574049 Ry
     hartree contribution      =     115.26056200 Ry
     xc contribution           =     -88.70087873 Ry
     ewald contribution        =    -203.57953976 Ry
     one-center paw contrib.   =    -154.86358485 Ry
      -> PAW hartree energy AE =       4.01073861 Ry
      -> PAW hartree energy PS =      -4.00483576 Ry
      -> PAW xc energy AE      =     -73.65119172 Ry
      -> PAW xc energy PS      =       4.35357020 Ry
      -> total E_H with PAW    =     115.26646484 Ry
      -> total E_XC with PAW   =    -157.99850025 Ry

     convergence has been achieved in   9 iterations

     Writing all to output data dir bands_nm/myprefix.save/

     General routines

     Parallel routines

     PAW routines

   This run was terminated on:  13:47:47  16Jul2023

   JOB DONE.