     Program PWSCF v.7.1 starts on 15Jul2023 at 14:10:19

     Reading input from espresso_11541.pwi
Warning: card &CELL ignored
Warning: card / ignored

     Current dimensions of program PWSCF are:
     Max number of different atomic species (ntypx) = 10
     Max number of k-points (npk) =  40000
     Max angular momentum in pseudopotentials (lmaxx) =  4
     file K.pbe-spn-kjpaw_psl.1.0.0.UPF: wavefunction(s)  3S renormalized
     Message from routine setup:
     the system is metallic, specify occupations
     Message from routine setup:
     using ibrav=0 with symmetry is DISCOURAGED, use correct ibrav instead

     K-points division:     npool     =       2
     R & G space division:  proc/nbgrp/npool/nimage =       4
     Subspace diagonalization in iterative solution of the eigenvalue problem:
     a serial algorithm will be used

     Using Slab Decomposition

     bravais-lattice index     =            0
     lattice parameter (alat)  =      12.3393  a.u.
     unit-cell volume          =    1328.4688 (a.u.)^3
     number of atoms/cell      =           10
     number of atomic types    =            3
     number of electrons       =        83.00 (up:  43.00, down:  40.00)
     number of Kohn-Sham states=           64
     kinetic-energy cutoff     =      30.0000  Ry
     charge density cutoff     =     240.0000  Ry
     scf convergence threshold =      1.0E-06
     mixing beta               =       0.7000
     number of iterations used =            8  plain     mixing
     Exchange-correlation=  SLA  PW   PBX  PBC
                           (   1   4   3   4   0   0   0)

     celldm(1)=  12.339251  celldm(2)=   0.000000  celldm(3)=   0.000000
     celldm(4)=   0.000000  celldm(5)=   0.000000  celldm(6)=   0.000000

     crystal axes: (cart. coord. in units of alat)
               a(1) = (   1.000000   0.000000   0.000000 )
               a(2) = (   0.500000   0.866025   0.000000 )
               a(3) = (   0.500000   0.288675   0.816497 )

     reciprocal axes: (cart. coord. in units 2 pi/alat)
               b(1) = (  1.000000 -0.577350 -0.408248 )
               b(2) = (  0.000000  1.154701 -0.408248 )
               b(3) = (  0.000000  0.000000  1.224745 )

     PseudoPot. # 1 for K  read from file:
     /lustre07/scratch/pragov/crystal_structure_design/utils/SSSP/K.pbe-spn-kjpaw_psl.1.0.0.UPF
     MD5 check sum: 7d58810084cac21f60fbe77ea2b688fd
     Pseudo is Projector augmented-wave + core cor, Zval =  9.0
     Generated using "atomic" code by A. Dal Corso  v.5.1
     Shape of augmentation charge: PSQ
     Using radial grid of 1165 points,  6 beta functions with:
                l(1) =   0
                l(2) =   0
                l(3) =   1
                l(4) =   1
                l(5) =   2
                l(6) =   2
     Q(r) pseudized with 0 coefficients

     PseudoPot. # 2 for W  read from file:
     /lustre07/scratch/pragov/crystal_structure_design/utils/SSSP/W_pbe_v1.2.uspp.F.UPF
     MD5 check sum: 9c083fa34c2a2ea0f02f1f893e16e1c8
     Pseudo is Ultrasoft + core correction, Zval = 14.0
     Generated by new atomic code, or converted to UPF format
     Using radial grid of  923 points,  8 beta functions with:
                l(1) =   0
                l(2) =   0
                l(3) =   0
                l(4) =   1
                l(5) =   1
                l(6) =   2
                l(7) =   2
                l(8) =   3
     Q(r) pseudized with  6 coefficients,  rinner =    1.350   1.350   1.350
                                                       1.350   1.350   1.350
                                                       1.350

     PseudoPot. # 3 for F  read from file:
     /lustre07/scratch/pragov/crystal_structure_design/utils/SSSP/f_pbe_v1.4.uspp.F.UPF
     MD5 check sum: 4c38b6a325caf53ec0e86aed9459de46
     Pseudo is Ultrasoft, Zval =  7.0
     Generated by new atomic code, or converted to UPF format
     Using radial grid of  799 points,  4 beta functions with:
                l(1) =   0
                l(2) =   0
                l(3) =   1
                l(4) =   1
     Q(r) pseudized with  8 coefficients,  rinner =    0.950   0.950   0.950

     atomic species   valence    mass     pseudopotential
        K              9.00    39.09830     K ( 1.00)
        W             14.00   183.84000     W ( 1.00)
        F              7.00    18.99840     F ( 1.00)

     Starting magnetic structure
     atomic species   magnetization
        K            0.000
        W            0.000
        F            0.000

     12 Sym. Ops., with inversion, found

                                    s                        frac. trans.

      isym =  1     identity

 cryst.   s( 1) = (     1          0          0      )
                  (     0          1          0      )
                  (     0          0          1      )

 cart.    s( 1) = (  1.0000000  0.0000000  0.0000000 )
                  (  0.0000000  1.0000000  0.0000000 )
                  (  0.0000000  0.0000000  1.0000000 )

      isym =  2     180 deg rotation - cart. axis [1,0,0]

[...]

      isym =  3     120 deg rotation - cryst. axis [0,0,1]

[...]

      isym =  6     180 deg rotation - cryst. axis [1,1,0]

[...]

      isym =  7     inversion

[...]

      isym =  8     inv. 180 deg rotation - cart. axis [1,0,0]

[...]

      isym =  9     inv. 120 deg rotation - cryst. axis [0,0,1]

 cryst.   s( 9) = (     1         -1          0      )
                  (     1          0          0      )
                  (     1          0         -1      )

 cart.    s( 9) = (  0.5000000  0.8660254  0.0000000 )
                  ( -0.8660254  0.5000000  0.0000000 )
                  (  0.0000000  0.0000000 -1.0000000 )

[...]

 cryst.   s(10) = (     0          1          0      )
                  (    -1          1          0      )
                  (     0          1         -1      )

 cart.    s(10) = (  0.5000000 -0.8660254  0.0000000 )
                  (  0.8660254  0.5000000 -0.0000000 )
                  (  0.0000000  0.0000000 -1.0000000 )

[...]

      isym = 12     inv. 180 deg rotation - cryst. axis [1,1,0]

 cryst.   s(12) = (     1         -1          0      )
                  (     0         -1          0      )
                  (     0         -1          1      )

 cart.    s(12) = (  0.5000000 -0.8660254  0.0000000 )
                  ( -0.8660254 -0.5000000  0.0000000 )
                  (  0.0000000  0.0000000  1.0000000 )

   Cartesian axes

     site n.     atom                  positions (alat units)
         1           K   tau(   1) = (   1.5000000   0.8660254   0.6123724  )
         2           K   tau(   2) = (   0.5000000   0.2886751   0.2041241  )
         3           K   tau(   3) = (   1.0000000   0.5773503   0.4082483  )
         4           W   tau(   4) = (   0.0000000   0.0000000   0.0000000  )
         5           F   tau(   5) = (   0.7285540   0.7340697   0.1866136  )
         6           F   tau(   6) = (   1.2714460   0.7340697   0.1866136  )
         7           F   tau(   7) = (   0.7285540   0.4206308   0.6298830  )
         8           F   tau(   8) = (   1.0000000   0.8907891   0.6298830  )
         9           F   tau(   9) = (   1.2714460   0.4206308   0.6298830  )
        10           F   tau(  10) = (   1.0000000   0.2639114   0.1866136  )

   Crystallographic axes

     site n.     atom                  positions (cryst. coord.)
         1           K   tau(   1) = (  0.7500000  0.7500000  0.7500000  )
         2           K   tau(   2) = (  0.2500000  0.2500000  0.2500000  )
         3           K   tau(   3) = (  0.5000000  0.5000000  0.5000000  )
         4           W   tau(   4) = (  0.0000000  0.0000000  0.0000000  )
         5           F   tau(   5) = (  0.2285540  0.7714460  0.2285540  )
         6           F   tau(   6) = (  0.7714460  0.7714460  0.2285540  )
         7           F   tau(   7) = (  0.2285540  0.2285540  0.7714460  )
         8           F   tau(   8) = (  0.2285540  0.7714460  0.7714460  )
         9           F   tau(   9) = (  0.7714460  0.2285540  0.7714460  )
        10           F   tau(  10) = (  0.7714460  0.2285540  0.2285540  )

     number of k points=     6
                       cart. coord. in units 2pi/alat
        k(    1) = (   0.0000000   0.0000000   0.0000000), wk =   0.0370370
        k(    2) = (   0.0000000   0.0000000   0.4082483), wk =   0.0740741
        k(    3) = (   0.0000000   0.3849002  -0.1360828), wk =   0.2222222
        k(    4) = (   0.0000000   0.3849002   0.2721655), wk =   0.2222222
        k(    5) = (   0.0000000   0.3849002  -0.5443311), wk =   0.2222222
        k(    6) = (   0.3333333  -0.5773503   0.0000000), wk =   0.2222222

                       cryst. coord.
        k(    1) = (   0.0000000   0.0000000   0.0000000), wk =   0.0370370
        k(    2) = (   0.0000000   0.0000000   0.3333333), wk =   0.0740741
        k(    3) = (   0.0000000   0.3333333   0.0000000), wk =   0.2222222
        k(    4) = (   0.0000000   0.3333333   0.3333333), wk =   0.2222222
        k(    5) = (   0.0000000   0.3333333  -0.3333333), wk =   0.2222222
        k(    6) = (   0.3333333  -0.3333333   0.0000000), wk =   0.2222222

     Check: negative core charge=   -0.000004
     Generating pointlists ...
     new r_m :   0.1584 (alat units)  1.9539 (a.u.) for type    1
     new r_m :   0.1333 (alat units)  1.6452 (a.u.) for type    2
     new r_m :   0.1333 (alat units)  1.6452 (a.u.) for type    3

     Initial potential from superposition of free atoms

     starting charge      82.8432, renormalised to      83.0000

     negative rho (up, down):  3.193E-02 3.193E-02
     Starting wfcs are   61 randomized atomic wfcs +    3 random wfcs
     Checking if some PAW data can be deallocated...

     Self-consistent Calculation

     iteration #  1     ecut=    30.00 Ry     beta= 0.70
     Davidson diagonalization with overlap

     ethr =  1.00E-02,  avg # of iterations =  7.2

     negative rho (up, down):  3.359E-02 3.002E-02

     total energy              =    -790.09763394 Ry
     estimated scf accuracy    <       1.10305873 Ry

     total magnetization       =     3.00 Bohr mag/cell
     absolute magnetization    =     3.01 Bohr mag/cell

[...]

     total energy              =    -790.60162689 Ry
     estimated scf accuracy    <       0.00000479 Ry

[...]

     iteration #  7     ecut=    30.00 Ry     beta= 0.70
     Davidson diagonalization with overlap

     ethr =  5.77E-09,  avg # of iterations =  2.2

     negative rho (up, down):  3.484E-02 2.904E-02

     Magnetic moment per site  (integrated on atomic sphere of radius R)
     atom   1 (R=0.158)  charge=  7.1895  magn=  0.0008
     atom   2 (R=0.158)  charge=  7.1895  magn=  0.0008
     atom   3 (R=0.158)  charge=  7.2518  magn=  0.0000
     atom   4 (R=0.133)  charge=  9.3720  magn=  1.5022
     atom   5 (R=0.133)  charge=  6.6844  magn=  0.0427
     atom   6 (R=0.133)  charge=  6.6844  magn=  0.0427
     atom   7 (R=0.133)  charge=  6.6844  magn=  0.0427
     atom   8 (R=0.133)  charge=  6.6844  magn=  0.0427
     atom   9 (R=0.133)  charge=  6.6844  magn=  0.0427
     atom  10 (R=0.133)  charge=  6.6844  magn=  0.0427

     End of self-consistent calculation

 ------ SPIN UP ------------

          k = 0.0000 0.0000 0.0000 (  3695 PWs)   bands (ev):

   -69.2239 -33.6654 -33.6654 -33.6650 -25.9424 -25.9368 -24.1832 -18.6869
   -18.5155 -18.5155 -18.3854 -18.3854 -18.3854  -9.4274  -9.4274  -9.4274
    -9.3941  -9.3941  -9.3941  -7.7479  -7.7479  -7.7479  -1.7071  -1.3188
    -1.3188  -0.8504  -0.8504  -0.8504  -0.2969  -0.2969  -0.2969   0.3548
     0.3548   0.3548   0.4386   0.4386   0.4386   0.7317   0.7317   0.7317
     5.7977   5.7977   5.7980   6.5991   9.0215   9.0215  10.4193  10.4193
    10.4571  10.4571  10.4572  11.3907  11.3907  11.3907  11.4267  12.4861
    12.4861  12.4861  12.7833  12.8930  12.8930  14.3649  14.3649  14.3650

     occupation numbers
     1.0000   1.0000   1.0000   1.0000   1.0000   1.0000   1.0000   1.0000
     1.0000   1.0000   1.0000   1.0000   1.0000   1.0000   1.0000   1.0000
     1.0000   1.0000   1.0000   1.0000   1.0000   1.0000   1.0000   1.0000
     1.0000   1.0000   1.0000   1.0000   1.0000   1.0000   1.0000   1.0000
     1.0000   1.0000   1.0000   1.0000   1.0000   1.0000   1.0000   1.0000
     1.0000   1.0000   1.0000   0.0000   0.0000   0.0000   0.0000   0.0000
     0.0000   0.0000   0.0000   0.0000   0.0000   0.0000   0.0000   0.0000
     0.0000   0.0000   0.0000   0.0000   0.0000   0.0000   0.0000   0.0000

[...]

 ------ SPIN DOWN ----------

[...]

          k = 0.3333-0.5774 0.0000 (  3685 PWs)   bands (ev):

   -68.0151 -32.0737 -32.0737 -32.0733 -25.9385 -25.9385 -24.1828 -18.6185
   -18.4570 -18.4433 -18.3083 -18.2893 -18.2892  -9.4132  -9.4119  -9.4048
    -9.3956  -9.3906  -9.3821  -7.7598  -7.7546  -7.7470  -1.3073  -1.1398
    -0.9942  -0.5309  -0.4365  -0.3703  -0.3325  -0.2587  -0.1598   0.2649
     0.3463   0.3554   0.3571   0.3622   0.4811   0.6511   0.6855   0.7645
     8.0399   8.0638   8.0661   8.8506   9.2747   9.4577  10.0811  10.1773
    10.9026  10.9414  10.9426  11.4649  11.5265  11.6365  11.7221  11.8527
    12.1614  12.6561  12.7284  13.3300  13.3439  13.5845  14.4450  15.0491

     occupation numbers
     1.0000   1.0000   1.0000   1.0000   1.0000   1.0000   1.0000   1.0000
     1.0000   1.0000   1.0000   1.0000   1.0000   1.0000   1.0000   1.0000
     1.0000   1.0000   1.0000   1.0000   1.0000   1.0000   1.0000   1.0000
     1.0000   1.0000   1.0000   1.0000   1.0000   1.0000   1.0000   1.0000
     1.0000   1.0000   1.0000   1.0000   1.0000   1.0000   1.0000   1.0000
     0.0000   0.0000   0.0000   0.0000   0.0000   0.0000   0.0000   0.0000
     0.0000   0.0000   0.0000   0.0000   0.0000   0.0000   0.0000   0.0000
     0.0000   0.0000   0.0000   0.0000   0.0000   0.0000   0.0000   0.0000

     highest occupied, lowest unoccupied level (ev):     5.8976    6.5991

!    total energy              =    -790.60162866 Ry
     estimated scf accuracy    <       0.00000053 Ry

     The total energy is the sum of the following terms:
     one-electron contribution =    -332.95308861 Ry
     hartree contribution      =     202.40015936 Ry
     xc contribution           =    -131.35547422 Ry
     ewald contribution        =    -362.44186974 Ry
     one-center paw contrib.   =    -166.25135545 Ry
      -> PAW hartree energy AE =      75.04847252 Ry
      -> PAW hartree energy PS =     -74.62905749 Ry
      -> PAW xc energy AE      =    -132.38947195 Ry
      -> PAW xc energy PS      =      21.13814437 Ry
      -> total E_H with PAW    =     202.81957438 Ry
      -> total E_XC with PAW   =    -242.60680181 Ry

     total magnetization       =     3.00 Bohr mag/cell
     absolute magnetization    =     3.11 Bohr mag/cell

     convergence has been achieved in   7 iterations

     Writing all to output data dir bands_nm/myprefix.save/

     General routines

     Parallel routines

     PAW routines

   This run was terminated on:  14:10:29  15Jul2023

   JOB DONE.