     Program PWSCF v.7.1 starts on 13Jul2023 at  4:26: 0

     Reading input from espresso_7905.pwi
Warning: card &CELL ignored
Warning: card / ignored

     Current dimensions of program PWSCF are:
     Max number of different atomic species (ntypx) = 10
     Max number of k-points (npk) =  40000
     Max angular momentum in pseudopotentials (lmaxx) =  4
     file In.pbe-dn-rrkjus_psl.0.2.2.UPF: wavefunction(s)  5S renormalized
     file O.pbe-n-kjpaw_psl.0.1.UPF: wavefunction(s)  2P renormalized
     Message from routine setup:
     using ibrav=0 with symmetry is DISCOURAGED, use correct ibrav instead

     K-points division:     npool     =       2
     R & G space division:  proc/nbgrp/npool/nimage =       8
     Subspace diagonalization in iterative solution of the eigenvalue problem:
     a serial algorithm will be used

     Using Slab Decomposition

     bravais-lattice index     =            0
     lattice parameter (alat)  =      11.6175  a.u.
     unit-cell volume          =     385.9738 (a.u.)^3
     number of atoms/cell      =            4
     number of atomic types    =            3
     number of electrons       =        44.00
     number of Kohn-Sham states=           64
     kinetic-energy cutoff     =      30.0000  Ry
     charge density cutoff     =     240.0000  Ry
     scf convergence threshold =      1.0E-06
     mixing beta               =       0.7000
     number of iterations used =            8  plain     mixing
     Exchange-correlation= SLA  PW   PBX  PBC
                           (   1   4   3   4   0   0   0)

     celldm(1)=  11.617526  celldm(2)=   0.000000  celldm(3)=   0.000000
     celldm(4)=   0.000000  celldm(5)=   0.000000  celldm(6)=   0.000000

     crystal axes: (cart. coord. in units of alat)
               a(1) = (   1.000000   0.000000   0.000000 )
               a(2) = (   0.850203   0.526455   0.000000 )
               a(3) = (   0.850203   0.241916   0.467580 )

     reciprocal axes: (cart. coord. in units 2 pi/alat)
               b(1) = (  1.000000 -1.614960 -0.982760 )
               b(2) = (  0.000000  1.899499 -0.982760 )
               b(3) = (  0.000000  0.000000  2.138671 )

     PseudoPot. # 1 for In read from file:
     /lustre07/scratch/pragov/crystal_structure_design/utils/SSSP/In.pbe-dn-rrkjus_psl.0.2.2.UPF
     MD5 check sum: 25e7c42c3b55b68f4bf926be2e7201a4
     Pseudo is Ultrasoft + core correction, Zval = 13.0
     Generated using "atomic" code by A. Dal Corso  v.5.0.99 svn rev. 10869
     Using radial grid of 1241 points,  6 beta functions with:
                l(1) =   0
                l(2) =   0
                l(3) =   1
                l(4) =   1
                l(5) =   2
                l(6) =   2
     Q(r) pseudized with 0 coefficients

     PseudoPot. # 2 for Cu read from file:
     /lustre07/scratch/pragov/crystal_structure_design/utils/SSSP/Cu_pbe_v1.2.uspp.F.UPF
     MD5 check sum: 6e991ff952a84172a2a52a1c1e996048
     Pseudo is Ultrasoft + core correction, Zval = 19.0
     Generated by new atomic code, or converted to UPF format
     Using radial grid of  867 points,  6 beta functions with:
                l(1) =   0
                l(2) =   0
                l(3) =   1
                l(4) =   1
                l(5) =   2
                l(6) =   2
     Q(r) pseudized with  8 coefficients,  rinner =    1.150   1.150   1.150
                                                       1.150   1.150

     PseudoPot. # 3 for O  read from file:
     /lustre07/scratch/pragov/crystal_structure_design/utils/SSSP/O.pbe-n-kjpaw_psl.0.1.UPF
     MD5 check sum: 0234752ac141de4415c5fc33072bef88
     Pseudo is Projector augmented-wave + core cor, Zval =  6.0
     Generated using "atomic" code by A. Dal Corso  v.5.0.99 svn rev. 10869
     Shape of augmentation charge: BESSEL
     Using radial grid of 1095 points,  4 beta functions with:
                l(1) =   0
                l(2) =   0
                l(3) =   1
                l(4) =   1
     Q(r) pseudized with 0 coefficients

     atomic species   valence    mass     pseudopotential
        In            13.00   114.81800     In( 1.00)
        Cu            19.00    63.54600     Cu( 1.00)
        O              6.00    15.99900     O ( 1.00)

      2 Sym. Ops., with inversion, found

                                    s                        frac. trans.

      isym =  1     identity

 cryst.   s( 1) = (     1          0          0      )
                  (     0          1          0      )
                  (     0          0          1      )

 cart.    s( 1) = (  1.0000000 -0.0000000 -0.0000000 )
                  (  0.0000000  1.0000000  0.0000000 )
                  (  0.0000000  0.0000000  1.0000000 )

      isym =  2     inversion

 cryst.   s( 2) = (    -1          0          0      )
                  (     0         -1          0      )
                  (     0          0         -1      )

 cart.    s( 2) = ( -1.0000000  0.0000000  0.0000000 )
                  (  0.0000000 -1.0000000  0.0000000 )
                  (  0.0000000  0.0000000 -1.0000000 )

   Cartesian axes

     site n.     atom                  positions (alat units)
         1           In  tau(   1) = (   1.3502033   0.3841852   0.2337900  )
         2           Cu  tau(   2) = (   0.0000000   0.0000000   0.0000000  )
         3           O   tau(   3) = (   2.4145253   0.6870261   0.4180792  )
         4           O   tau(   4) = (   0.2858812   0.0813443   0.0495008  )

   Crystallographic axes

     site n.     atom                  positions (cryst. coord.)
         1           In  tau(   1) = (  0.5000000  0.5000000  0.5000000  )
         2           Cu  tau(   2) = (  0.0000000  0.0000000  0.0000000  )
         3           O   tau(   3) = (  0.8941340  0.8941340  0.8941340  )
         4           O   tau(   4) = (  0.1058660  0.1058660  0.1058660  )

     number of k points=    14
                       cart. coord. in units 2pi/alat
        k(    1) = (   0.0000000   0.0000000   0.0000000), wk =   0.0740741
        k(    2) = (   0.0000000   0.0000000   0.7128904), wk =   0.1481481
        k(    3) = (   0.0000000   0.6331664  -0.3275866), wk =   0.1481481
        k(    4) = (   0.0000000   0.6331664   0.3853038), wk =   0.1481481
        k(    5) = (   0.0000000   0.6331664  -1.0404769), wk =   0.1481481
        k(    6) = (   0.3333333  -0.5383201  -0.3275866), wk =   0.1481481
        k(    7) = (   0.3333333  -0.5383201   0.3853038), wk =   0.1481481
        k(    8) = (   0.3333333  -0.5383201  -1.0404769), wk =   0.1481481
        k(    9) = (   0.3333333   0.0948463  -0.6551731), wk =   0.1481481
        k(   10) = (   0.3333333   0.0948463   0.0577173), wk =   0.1481481
        k(   11) = (   0.3333333   0.0948463  -1.3680635), wk =   0.1481481
        k(   12) = (   0.3333333  -1.1714865  -0.0000000), wk =   0.1481481
        k(   13) = (   0.3333333  -1.1714865   0.7128904), wk =   0.1481481
        k(   14) = (   0.3333333  -1.1714865  -0.7128904), wk =   0.1481481

                       cryst. coord.
        k(    1) = (   0.0000000   0.0000000   0.0000000), wk =   0.0740741
        k(    2) = (   0.0000000   0.0000000   0.3333333), wk =   0.1481481
        k(    3) = (   0.0000000   0.3333333   0.0000000), wk =   0.1481481
        k(    4) = (   0.0000000   0.3333333   0.3333333), wk =   0.1481481
        k(    5) = (   0.0000000   0.3333333  -0.3333333), wk =   0.1481481
        k(    6) = (   0.3333333   0.0000000   0.0000000), wk =   0.1481481
        k(    7) = (   0.3333333   0.0000000   0.3333333), wk =   0.1481481
        k(    8) = (   0.3333333   0.0000000  -0.3333333), wk =   0.1481481
        k(    9) = (   0.3333333   0.3333333  -0.0000000), wk =   0.1481481
        k(   10) = (   0.3333333   0.3333333   0.3333333), wk =   0.1481481
        k(   11) = (   0.3333333   0.3333333  -0.3333333), wk =   0.1481481
        k(   12) = (   0.3333333  -0.3333333   0.0000000), wk =   0.1481481
        k(   13) = (   0.3333333  -0.3333333   0.3333333), wk =   0.1481481
        k(   14) = (   0.3333333  -0.3333333  -0.3333333), wk =   0.1481481

     Check: negative core charge=   -0.000008

     Initial potential from superposition of free atoms

     starting charge      42.9963, renormalised to      44.0000
     Starting wfcs are   30 randomized atomic wfcs +   34 random wfcs
     Checking if some PAW data can be deallocated...

     Self-consistent Calculation

     iteration #  1     ecut=    30.00 Ry     beta= 0.70
     Davidson diagonalization with overlap

     ethr =  1.00E-02,  avg # of iterations =  6.0

     total energy              =    -631.33038504 Ry
     estimated scf accuracy    <       1.03733074 Ry

[...]

     total energy              =    -631.79160751 Ry
     estimated scf accuracy    <       0.00000117 Ry

     iteration #  9     ecut=    30.00 Ry     beta= 0.70
     Davidson diagonalization with overlap

     ethr =  2.66E-09,  avg # of iterations =  2.4

     End of self-consistent calculation

          k = 0.0000 0.0000 0.0000 (  1075 PWs)   bands (ev):

  -102.5241 -60.0954 -59.8178 -59.8178 -10.6344  -9.4470  -5.4191  -5.4191
    -5.2972  -5.0726  -5.0726   2.0786   5.3997   5.7992   5.7992   5.8421
     5.8421   6.1230   7.5218   7.5218   8.3015   8.3015   8.8631  12.6648
    13.9418  19.2585  19.2585  20.8942  22.9985  22.9985  23.4278  23.6633
    23.6633  23.9986  25.6568  27.7822  27.7822  29.0037  29.9318  29.9318
    32.6285  32.7842  32.7842  34.2834  34.2834  35.2596  36.4075  37.7445
    37.7445  39.1541  40.4261  40.4261  43.0224  46.0236  46.1632  46.4253
    46.4253  47.0795  47.7997  47.7997  51.6943  51.6943  52.2076  52.3050

     occupation numbers
     1.0000   1.0000   1.0000   1.0000   1.0000   1.0000   1.0000   1.0000
     1.0000   1.0000   1.0000   1.0000   1.0000   1.0000   1.0000   1.0000
     1.0000   1.0000   1.0000   1.0000   1.0000   1.0000   0.0000   0.0000
     0.0000   0.0000   0.0000   0.0000   0.0000   0.0000   0.0000   0.0000
     0.0000   0.0000   0.0000   0.0000   0.0000   0.0000   0.0000   0.0000
     0.0000   0.0000   0.0000   0.0000   0.0000   0.0000   0.0000   0.0000
     0.0000   0.0000   0.0000   0.0000   0.0000   0.0000   0.0000   0.0000
     0.0000   0.0000   0.0000   0.0000   0.0000   0.0000   0.0000   0.0000

[...]

          k = 0.3333-1.1715-0.7129 (  1067 PWs)   bands (ev):

  -102.5237 -60.0976 -59.8176 -59.8156 -10.0545  -9.8703  -5.2958  -5.2625
    -5.0948  -5.0094  -4.6339   2.4318   3.3266   4.4975   4.7562   5.0464
     6.1933   7.1432   7.8046   7.8167   8.0287   8.1871  11.7859  12.4091
    15.3989  16.8474  17.3428  19.3242  19.7357  20.2451  20.3333  23.4913
    25.8745  26.8661  28.1954  28.3755  30.2873  31.5953  32.4283  32.5732
    33.5526  33.6722  34.4252  35.2996  35.7804  37.1121  37.8191  38.1126
    40.4116  41.0521  41.0603  41.6878  42.5822  43.1906  43.4221  44.9111
    45.7479  46.1903  47.1628  47.5390  48.1060  49.1909  49.3278  50.3818

     occupation numbers
     1.0000   1.0000   1.0000   1.0000   1.0000   1.0000   1.0000   1.0000
     1.0000   1.0000   1.0000   1.0000   1.0000   1.0000   1.0000   1.0000
     1.0000   1.0000   1.0000   1.0000   1.0000   1.0000   0.0000   0.0000
     0.0000   0.0000   0.0000   0.0000   0.0000   0.0000   0.0000   0.0000
     0.0000   0.0000   0.0000   0.0000   0.0000   0.0000   0.0000   0.0000
     0.0000   0.0000   0.0000   0.0000   0.0000   0.0000   0.0000   0.0000
     0.0000   0.0000   0.0000   0.0000   0.0000   0.0000   0.0000   0.0000
     0.0000   0.0000   0.0000   0.0000   0.0000   0.0000   0.0000   0.0000

     highest occupied, lowest unoccupied level (ev):     8.6535    8.8631

!    total energy              =    -631.79160737 Ry
     estimated scf accuracy    <       0.00000079 Ry

     The total energy is the sum of the following terms:
     one-electron contribution =    -416.95139739 Ry
     hartree contribution      =     236.57323454 Ry
     xc contribution           =    -101.39037554 Ry
     ewald contribution        =    -330.97674046 Ry
     one-center paw contrib.   =     -19.04632853 Ry
      -> PAW hartree energy AE =       0.00000000 Ry
      -> PAW hartree energy PS =       0.00000000 Ry
      -> PAW xc energy AE      =       0.00000000 Ry
      -> PAW xc energy PS      =       0.00000000 Ry
      -> total E_H with PAW    =     236.57323454 Ry
      -> total E_XC with PAW   =    -101.39037554 Ry

     convergence has been achieved in   9 iterations

     Writing all to output data dir bands_nm/myprefix.save/

     General routines

     Parallel routines

     PAW routines

   This run was terminated on:   4:26:13  13Jul2023

   JOB DONE.