     Program PWSCF v.7.1 starts on 14Jul2023 at 18:22:14

     Reading input from espresso_20577.pwi
Warning: card &CELL ignored
Warning: card / ignored

     Current dimensions of program PWSCF are:
     Max number of different atomic species (ntypx) = 10
     Max number of k-points (npk) =  40000
     Max angular momentum in pseudopotentials (lmaxx) =  4
     file In.pbe-dn-rrkjus_psl.0.2.2.UPF: wavefunction(s)  5S renormalized
     Message from routine setup:
     using ibrav=0 with symmetry is DISCOURAGED, use correct ibrav instead

     K-points division:     npool     =       2
     R & G space division:  proc/nbgrp/npool/nimage =       4
     Subspace diagonalization in iterative solution of the eigenvalue problem:
     a serial algorithm will be used

     Using Slab Decomposition

     bravais-lattice index     =            0
     lattice parameter (alat)  =       7.3816  a.u.
     unit-cell volume          =    1675.0446 (a.u.)^3
     number of atoms/cell      =           11
     number of atomic types    =            3
     number of electrons       =       122.00
     number of Kohn-Sham states=           64
     kinetic-energy cutoff     =      30.0000  Ry
     charge density cutoff     =     240.0000  Ry
     scf convergence threshold =      1.0E-06
     mixing beta               =       0.7000
     number of iterations used =            8  plain     mixing
     Exchange-correlation=  SLA  PW   PBX  PBC
                           (   1   4   3   4   0   0   0)

     celldm(1)=   7.381649  celldm(2)=   0.000000  celldm(3)=   0.000000
     celldm(4)=   0.000000  celldm(5)=   0.000000  celldm(6)=   0.000000

     crystal axes: (cart. coord. in units of alat)
               a(1) = (   1.000000   0.000000   0.000000 )
               a(2) = (  -0.500000   0.866025   0.000000 )
               a(3) = (   0.000000   0.000000   4.808787 )

     reciprocal axes: (cart. coord. in units 2 pi/alat)
               b(1) = (  1.000000  0.577350  0.000000 )
               b(2) = (  0.000000  1.154701  0.000000 )
               b(3) = (  0.000000  0.000000  0.207953 )

     PseudoPot. # 1 for Zn read from file:
     /lustre07/scratch/pragov/crystal_structure_design/utils/SSSP/Zn_pbe_v1.uspp.F.UPF
     MD5 check sum: df62231357ef9e81f77b2b3087fa5675
     Pseudo is Ultrasoft, Zval = 20.0
     Generated by new atomic code, or converted to UPF format
     Using radial grid of  943 points,  6 beta functions with:
                l(1) =   0
                l(2) =   0
                l(3) =   1
                l(4) =   1
                l(5) =   2
                l(6) =   2
     Q(r) pseudized with  8 coefficients,  rinner =    1.100   1.100   1.100
                                                       1.100   1.100

     PseudoPot. # 2 for In read from file:
     /lustre07/scratch/pragov/crystal_structure_design/utils/SSSP/In.pbe-dn-rrkjus_psl.0.2.2.UPF
     MD5 check sum: 25e7c42c3b55b68f4bf926be2e7201a4
     Pseudo is Ultrasoft + core correction, Zval = 13.0
     Generated using "atomic" code by A. Dal Corso  v.5.0.99 svn rev. 10869
     Using radial grid of 1241 points,  6 beta functions with:
                l(1) =   0
                l(2) =   0
                l(3) =   1
                l(4) =   1
                l(5) =   2
                l(6) =   2
     Q(r) pseudized with 0 coefficients

     PseudoPot. # 3 for S  read from file:
     /lustre07/scratch/pragov/crystal_structure_design/utils/SSSP/s_pbe_v1.4.uspp.F.UPF
     MD5 check sum: 88d86576ff6df21479756cfb9bdac1df
     Pseudo is Ultrasoft + core correction, Zval =  6.0
     Generated by new atomic code, or converted to UPF format
     Using radial grid of  907 points,  6 beta functions with:
                l(1) =   0
                l(2) =   0
                l(3) =   1
                l(4) =   1
                l(5) =   2
                l(6) =   2
     Q(r) pseudized with  8 coefficients,  rinner =    1.300   1.300   1.300
                                                       1.300   1.300

     atomic species   valence    mass     pseudopotential
        Zn            20.00    65.38000     Zn( 1.00)
        In            13.00   114.81800     In( 1.00)
        S              6.00    32.06000     S ( 1.00)

      6 Sym. Ops. (no inversion) found

                                    s                        frac. trans.

      isym =  1     identity

 cryst.   s( 1) = (     1          0          0      )
                  (     0          1          0      )
                  (     0          0          1      )

 cart.    s( 1) = (  1.0000000  0.0000000  0.0000000 )
                  (  0.0000000  1.0000000  0.0000000 )
                  (  0.0000000  0.0000000  1.0000000 )

      isym =  2     120 deg rotation - cryst. axis [0,0,1]

[...]

      isym =  3     120 deg rotation - cryst. axis [0,0,-1]

[...]

      isym =  4     inv. 180 deg rotation - cart. axis [1,0,0]

[...]

      isym =  5     inv. 180 deg rotation - cryst. axis [0,1,0]

[...]

      isym =  6     inv. 180 deg rotation - cryst. axis [1,1,0]

 cryst.   s( 6) = (     0         -1          0      )
                  (    -1          0          0      )
                  (     0          0          1      )

 cart.    s( 6) = (  0.5000001 -0.8660253  0.0000000 )
                  ( -0.8660253 -0.5000001  0.0000000 )
                  (  0.0000000  0.0000000  1.0000000 )

   Cartesian axes

     site n.     atom                  positions (alat units)
         1           Zn  tau(   1) = (  -0.0000006   0.5773505   3.8361573  )
         2           Zn  tau(   2) = (   0.5000005   0.2886748   3.0117869  )
         3           Zn  tau(   3) = (  -0.0000006   0.5773505   1.0789861  )
         4           In  tau(   4) = (   0.0000000   0.0000000   2.0274329  )
         5           In  tau(   5) = (   0.5000005   0.2886748   0.2306823  )
         6           S   tau(   6) = (   0.5000005   0.2886748   4.0153231  )
         7           S   tau(   7) = (  -0.0000006   0.5773505   3.1776371  )
         8           S   tau(   8) = (   0.5000005   0.2886748   0.8724631  )
         9           S   tau(   9) = (  -0.0000006   0.5773505   1.6541267  )
        10           S   tau(  10) = (  -0.0000006   0.5773505   4.7756261  )
        11           S   tau(  11) = (   0.5000005   0.2886748   2.3663226  )

   Crystallographic axes

     site n.     atom                  positions (cryst. coord.)
         1           Zn  tau(   1) = (  0.3333330  0.6666670  0.7977390  )
         2           Zn  tau(   2) = (  0.6666670  0.3333330  0.6263090  )
         3           Zn  tau(   3) = (  0.3333330  0.6666670  0.2243780  )
         4           In  tau(   4) = (  0.0000000  0.0000000  0.4216100  )
         5           In  tau(   5) = (  0.6666670  0.3333330  0.0479710  )
         6           S   tau(   6) = (  0.6666670  0.3333330  0.8349970  )
         7           S   tau(   7) = (  0.3333330  0.6666670  0.6607980  )
         8           S   tau(   8) = (  0.6666670  0.3333330  0.1814310  )
         9           S   tau(   9) = (  0.3333330  0.6666670  0.3439800  )
        10           S   tau(  10) = (  0.3333330  0.6666670  0.9931040  )
        11           S   tau(  11) = (  0.6666670  0.3333330  0.4920830  )

     number of k points=     7
                       cart. coord. in units 2pi/alat
        k(    1) = (   0.0000000   0.0000000   0.0000000), wk =   0.0740741
        k(    2) = (   0.0000000   0.0000000   0.0693175), wk =   0.1481481
        k(    3) = (   0.0000000   0.3849002   0.0000000), wk =   0.4444444
        k(    4) = (   0.0000000   0.3849002   0.0693175), wk =   0.4444444
        k(    5) = (   0.3333333   0.5773504   0.0000000), wk =   0.1481481
        k(    6) = (   0.3333333   0.5773504   0.0693175), wk =   0.2962963
        k(    7) = (   0.0000000  -0.3849002   0.0693175), wk =   0.4444444

                       cryst. coord.
        k(    1) = (   0.0000000   0.0000000   0.0000000), wk =   0.0740741
        k(    2) = (   0.0000000   0.0000000   0.3333333), wk =   0.1481481
        k(    3) = (   0.0000000   0.3333333   0.0000000), wk =   0.4444444
        k(    4) = (   0.0000000   0.3333333   0.3333333), wk =   0.4444444
        k(    5) = (   0.3333333   0.3333333   0.0000000), wk =   0.1481481
        k(    6) = (   0.3333333   0.3333333   0.3333333), wk =   0.2962963
        k(    7) = (   0.0000000  -0.3333333   0.3333333), wk =   0.4444444

     Initial potential from superposition of free atoms

     starting charge     121.9919, renormalised to     122.0000
     Starting wfcs are   81 randomized atomic wfcs

     Self-consistent Calculation

     iteration #  1     ecut=    30.00 Ry     beta= 0.70
     Davidson diagonalization with overlap

     ethr =  1.00E-02,  avg # of iterations =  2.7

     Threshold (ethr) on eigenvalues was too large:
     Diagonalizing with lowered threshold

     Davidson diagonalization with overlap

[...]

     total energy              =   -1818.78142722 Ry
     estimated scf accuracy    <       0.87886630 Ry

[...]

     c_bands:  1 eigenvalues not converged
     c_bands:  1 eigenvalues not converged
     ethr =  7.20E-04,  avg # of iterations = 11.6

[...]

     total energy              =   -1819.21373713 Ry
     estimated scf accuracy    <       0.00008794 Ry

     iteration # 27     ecut=    30.00 Ry     beta= 0.70
     Davidson diagonalization with overlap

     ethr =  7.21E-08,  avg # of iterations =  4.3

     End of self-consistent calculation

          k = 0.0000 0.0000 0.0000 (  4669 PWs)   bands (ev):

  -120.0550-118.5108-117.9123 -74.1634 -74.1634 -74.1554 -72.6457 -72.6037
   -72.6037 -72.0395 -72.0072 -72.0072  -9.2232  -9.0106  -9.0106  -8.8389
    -8.8389  -7.9998  -7.9248  -7.9248  -7.8968  -7.7895  -7.7895  -7.2424
    -6.8852  -5.9518  -5.6379  -4.8672  -1.2625  -1.2625  -1.2449  -0.9154
    -0.9154  -0.0485   0.2465   0.2465   0.4672   0.6453   0.6453   0.8853
     0.8853   1.0487   1.2582   1.2582   1.6122   2.6375   3.8541   3.8542
     3.9272   4.2426   4.2426   4.5005   5.1050   5.1050   5.3982   5.3982
     6.1602   6.1603   6.1828   6.8176   6.9064   6.9065   7.6253   8.3942

     occupation numbers
     1.0000   1.0000   1.0000   1.0000   1.0000   1.0000   1.0000   1.0000
     1.0000   1.0000   1.0000   1.0000   1.0000   1.0000   1.0000   1.0000
     1.0000   1.0000   1.0000   1.0000   1.0000   1.0000   1.0000   1.0000
     1.0000   1.0000   1.0000   1.0000   1.0000   1.0000   1.0000   1.0000
     1.0000   1.0000   1.0000   1.0000   1.0000   1.0000   1.0000   1.0000
     1.0000   1.0000   1.0000   1.0000   1.0000   1.0000   1.0000   1.0000
     1.0000   1.0000   1.0000   1.0000   1.0000   1.0000   1.0000   1.0000
     1.0000   1.0000   1.0000   1.0000   1.0000   0.0000   0.0000   0.0000

[...]

          k = 0.0000-0.3849 0.0693 (  4652 PWs)   bands (ev):

  -120.0553-118.5111-117.9127 -74.1680 -74.1628 -74.1534 -72.6436 -72.6084
   -72.6034 -72.0374 -72.0120 -72.0069  -9.3663  -9.0546  -8.9529  -8.8761
    -8.8198  -8.2308  -7.8841  -7.8402  -7.7846  -7.7624  -7.2521  -6.5686
    -6.2854  -5.3738  -5.1372  -4.4518  -1.2276  -1.1602  -1.0700  -0.9452
    -0.8936  -0.1011   0.3173   0.3839   0.4469   0.6065   0.6586   0.8097
     0.9802   1.0097   1.1635   1.2347   1.2737   1.2928   1.9147   2.3919
     2.9779   3.0281   3.3110   3.4627   3.4767   4.0286   4.0415   4.4069
     5.1368   5.3006   5.5980   6.0781   6.2903   7.7642   8.2534   8.6872

     occupation numbers
     1.0000   1.0000   1.0000   1.0000   1.0000   1.0000   1.0000   1.0000
     1.0000   1.0000   1.0000   1.0000   1.0000   1.0000   1.0000   1.0000
     1.0000   1.0000   1.0000   1.0000   1.0000   1.0000   1.0000   1.0000
     1.0000   1.0000   1.0000   1.0000   1.0000   1.0000   1.0000   1.0000
     1.0000   1.0000   1.0000   1.0000   1.0000   1.0000   1.0000   1.0000
     1.0000   1.0000   1.0000   1.0000   1.0000   1.0000   1.0000   1.0000
     1.0000   1.0000   1.0000   1.0000   1.0000   1.0000   1.0000   1.0000
     1.0000   1.0000   1.0000   1.0000   1.0000   0.0000   0.0000   0.0000

     highest occupied, lowest unoccupied level (ev):     6.9068    6.9065

!    total energy              =   -1819.21375209 Ry
     estimated scf accuracy    <       0.00000047 Ry

     The total energy is the sum of the following terms:
     one-electron contribution =   -1665.22514158 Ry
     hartree contribution      =     881.00891695 Ry
     xc contribution           =    -272.64813746 Ry
     ewald contribution        =    -762.34939001 Ry

     convergence has been achieved in  27 iterations

     Writing all to output data dir bands_nm/myprefix.save/

     General routines

     Parallel routines

   This run was terminated on:  18:22:32  14Jul2023

   JOB DONE.