     Program PWSCF v.7.1 starts on 15Jul2023 at 21:24:17

     Reading input from espresso_21932.pwi
Warning: card &CELL ignored
Warning: card / ignored

     Current dimensions of program PWSCF are:
     Max number of different atomic species (ntypx) = 10
     Max number of k-points (npk) =  40000
     Max angular momentum in pseudopotentials (lmaxx) =  4
     file O.pbe-n-kjpaw_psl.0.1.UPF: wavefunction(s)  2P renormalized
     Message from routine setup:
     using ibrav=0 with symmetry is DISCOURAGED, use correct ibrav instead

     K-points division:     npool     =       2
     R & G space division:  proc/nbgrp/npool/nimage =       4
     Subspace diagonalization in iterative solution of the eigenvalue problem:
     one sub-group per band group will be used

     Using Slab Decomposition

     bravais-lattice index     =            0
     lattice parameter (alat)  =      10.3339  a.u.
     unit-cell volume          =    1700.2579 (a.u.)^3
     number of atoms/cell      =           20
     number of atomic types    =            3
     number of electrons       =       160.00
     number of Kohn-Sham states=          256
     kinetic-energy cutoff     =      30.0000  Ry
     charge density cutoff     =     240.0000  Ry
     scf convergence threshold =      1.0E-06
     mixing beta               =       0.7000
     number of iterations used =            8  plain     mixing
     Exchange-correlation= SLA  PW   PBX  PBC
                           (   1   4   3   4   0   0   0)

     celldm(1)=  10.333869  celldm(2)=   0.000000  celldm(3)=   0.000000
     celldm(4)=   0.000000  celldm(5)=   0.000000  celldm(6)=   0.000000

     crystal axes: (cart. coord. in units of alat)
               a(1) = (   1.000000   0.000000   0.000000 )
               a(2) = (   0.000000   1.053714   0.000000 )
               a(3) = (   0.000000   0.000000   1.462188 )

     reciprocal axes: (cart. coord. in units 2 pi/alat)
               b(1) = (  1.000000  0.000000  0.000000 )
               b(2) = (  0.000000  0.949024  0.000000 )
               b(3) = (  0.000000  0.000000  0.683907 )

     PseudoPot. # 1 for Y  read from file:
     /lustre07/scratch/pragov/crystal_structure_design/utils/SSSP/Y_pbe_v1.uspp.F.UPF
     MD5 check sum: 2cf71db95cafeb975fc457bd7f14888e
     Pseudo is Ultrasoft + core correction, Zval = 11.0
     Generated by new atomic code, or converted to UPF format
     Using radial grid of  885 points,  6 beta functions with:
                l(1) =   0
                l(2) =   0
                l(3) =   1
                l(4) =   1
                l(5) =   2
                l(6) =   2
     Q(r) pseudized with  6 coefficients,  rinner =    1.200   1.200   1.200
                                                       1.200   1.200

     PseudoPot. # 2 for Sc read from file:
     /lustre07/scratch/pragov/crystal_structure_design/utils/SSSP/Sc_ONCV_PBE-1.0.oncvpsp.upf
     MD5 check sum: e21af8023abb52e52cb7cd3133e4a229
     Pseudo is Norm-conserving, Zval = 11.0
     Generated using ONCVPSP code by D. R. Hamann
     Using radial grid of 1662 points,  6 beta functions with:
                l(1) =   0
                l(2) =   0
                l(3) =   1
                l(4) =   1
                l(5) =   2
                l(6) =   2

     PseudoPot. # 3 for O  read from file:
     /lustre07/scratch/pragov/crystal_structure_design/utils/SSSP/O.pbe-n-kjpaw_psl.0.1.UPF
     MD5 check sum: 0234752ac141de4415c5fc33072bef88
     Pseudo is Projector augmented-wave + core cor, Zval =  6.0
     Generated using "atomic" code by A. Dal Corso  v.5.0.99 svn rev. 10869
     Shape of augmentation charge: BESSEL
     Using radial grid of 1095 points,  4 beta functions with:
                l(1) =   0
                l(2) =   0
                l(3) =   1
                l(4) =   1
     Q(r) pseudized with 0 coefficients

     atomic species   valence    mass     pseudopotential
        Y             11.00    88.90584     Y ( 1.00)
        Sc            11.00    44.95591     Sc( 1.00)
        O              6.00    15.99900     O ( 1.00)

      8 Sym. Ops., with inversion, found ( 6 have fractional translation)

                                    s                        frac. trans.

      isym =  1     identity

 cryst.   s( 1) = (     1          0          0      )
                  (     0          1          0      )
                  (     0          0          1      )

 cart.    s( 1) = (  1.0000000  0.0000000  0.0000000 )
                  (  0.0000000  1.0000000  0.0000000 )
                  (  0.0000000  0.0000000  1.0000000 )

      isym =  2     180 deg rotation - cart. axis [0,0,1]

 cryst.   s( 2) = (    -1          0          0      )    f =(  0.0000000 )
                  (     0         -1          0      )       (  0.0000000 )
                  (     0          0          1      )       (  0.5000000 )

 cart.    s( 2) = ( -1.0000000  0.0000000  0.0000000 )    f =(  0.0000000 )
                  (  0.0000000 -1.0000000  0.0000000 )       (  0.0000000 )
                  (  0.0000000  0.0000000  1.0000000 )       (  0.7310940 )

[...]

      isym =  4     180 deg rotation - cart. axis [1,0,0]

[...]

      isym =  5     inversion

 cryst.   s( 5) = (    -1          0          0      )
                  (     0         -1          0      )
                  (     0          0         -1      )

 cart.    s( 5) = ( -1.0000000  0.0000000  0.0000000 )
                  (  0.0000000 -1.0000000  0.0000000 )
                  (  0.0000000  0.0000000 -1.0000000 )

      isym =  6     inv. 180 deg rotation - cart. axis [0,0,1]

[...]

      isym =  8     inv. 180 deg rotation - cart. axis [1,0,0]

 cryst.   s( 8) = (    -1          0          0      )    f =(  0.5000000 )
                  (     0          1          0      )       (  0.5000000 )
                  (     0          0          1      )       (  0.0000000 )

 cart.    s( 8) = ( -1.0000000  0.0000000  0.0000000 )    f =(  0.5000000 )
                  (  0.0000000  1.0000000  0.0000000 )       (  0.5268570 )
                  (  0.0000000  0.0000000  1.0000000 )       (  0.0000000 )

   Cartesian axes

     site n.     atom                  positions (alat units)
         1           Y   tau(   1) = (   0.9803480   0.9877768   1.0966410  )
         2           Y   tau(   2) = (   0.4803480   0.5927942   0.3655470  )
         3           Y   tau(   3) = (   0.5196520   0.4609198   1.0966410  )
         4           Y   tau(   4) = (   0.0196520   0.0659372   0.3655470  )
         5           Sc  tau(   5) = (   0.5000000   0.0000000   0.0000000  )
         6           Sc  tau(   6) = (   0.0000000   0.5268570   0.7310940  )
         7           Sc  tau(   7) = (   0.0000000   0.5268570   0.0000000  )
         8           Sc  tau(   8) = (   0.5000000   0.0000000   0.7310940  )
         9           O   tau(   9) = (   0.6289500   0.9944731   0.3655470  )
        10           O   tau(  10) = (   0.1900850   0.8515589   0.6345428  )
        11           O   tau(  11) = (   0.1900850   0.8515589   0.0965512  )
        12           O   tau(  12) = (   0.6900850   0.7290120   0.8276452  )
        13           O   tau(  13) = (   0.6900850   0.7290120   1.3656368  )
        14           O   tau(  14) = (   0.1289500   0.5860978   1.0966410  )
        15           O   tau(  15) = (   0.8710500   0.4676161   0.3655470  )
        16           O   tau(  16) = (   0.3099150   0.3247020   0.6345428  )
        17           O   tau(  17) = (   0.3099150   0.3247020   0.0965512  )
        18           O   tau(  18) = (   0.8099150   0.2021550   0.8276452  )
        19           O   tau(  19) = (   0.8099150   0.2021550   1.3656368  )
        20           O   tau(  20) = (   0.3710500   0.0592409   1.0966410  )

   Crystallographic axes

     site n.     atom                  positions (cryst. coord.)
         1           Y   tau(   1) = (  0.9803480  0.9374240  0.7500000  )
         2           Y   tau(   2) = (  0.4803480  0.5625760  0.2500000  )
         3           Y   tau(   3) = (  0.5196520  0.4374240  0.7500000  )
         4           Y   tau(   4) = (  0.0196520  0.0625760  0.2500000  )
         5           Sc  tau(   5) = (  0.5000000  0.0000000  0.0000000  )
         6           Sc  tau(   6) = (  0.0000000  0.5000000  0.5000000  )
         7           Sc  tau(   7) = (  0.0000000  0.5000000  0.0000000  )
         8           Sc  tau(   8) = (  0.5000000  0.0000000  0.5000000  )
         9           O   tau(   9) = (  0.6289500  0.9437790  0.2500000  )
        10           O   tau(  10) = (  0.1900850  0.8081500  0.4339680  )
        11           O   tau(  11) = (  0.1900850  0.8081500  0.0660320  )
        12           O   tau(  12) = (  0.6900850  0.6918500  0.5660320  )
        13           O   tau(  13) = (  0.6900850  0.6918500  0.9339680  )
        14           O   tau(  14) = (  0.1289500  0.5562210  0.7500000  )
        15           O   tau(  15) = (  0.8710500  0.4437790  0.2500000  )
        16           O   tau(  16) = (  0.3099150  0.3081500  0.4339680  )
        17           O   tau(  17) = (  0.3099150  0.3081500  0.0660320  )
        18           O   tau(  18) = (  0.8099150  0.1918500  0.5660320  )
        19           O   tau(  19) = (  0.8099150  0.1918500  0.9339680  )
        20           O   tau(  20) = (  0.3710500  0.0562210  0.7500000  )

     number of k points=     8
                       cart. coord. in units 2pi/alat
        k(    1) = (   0.0000000   0.0000000   0.0000000), wk =   0.0740741
        k(    2) = (   0.0000000   0.0000000   0.2279689), wk =   0.1481481
        k(    3) = (   0.0000000   0.3163414   0.0000000), wk =   0.1481481
        k(    4) = (   0.0000000   0.3163414   0.2279689), wk =   0.2962963
        k(    5) = (   0.3333333   0.0000000   0.0000000), wk =   0.1481481
        k(    6) = (   0.3333333   0.0000000   0.2279689), wk =   0.2962963
        k(    7) = (   0.3333333   0.3163414   0.0000000), wk =   0.2962963
        k(    8) = (   0.3333333   0.3163414   0.2279689), wk =   0.5925926

                       cryst. coord.
        k(    1) = (   0.0000000   0.0000000   0.0000000), wk =   0.0740741
        k(    2) = (   0.0000000   0.0000000   0.3333333), wk =   0.1481481
        k(    3) = (   0.0000000   0.3333333   0.0000000), wk =   0.1481481
        k(    4) = (   0.0000000   0.3333333   0.3333333), wk =   0.2962963
        k(    5) = (   0.3333333   0.0000000   0.0000000), wk =   0.1481481
        k(    6) = (   0.3333333   0.0000000   0.3333333), wk =   0.2962963
        k(    7) = (   0.3333333   0.3333333   0.0000000), wk =   0.2962963
        k(    8) = (   0.3333333   0.3333333   0.3333333), wk =   0.5925926

     Check: negative core charge=   -0.000015

     Initial potential from superposition of free atoms

     starting charge     159.9715, renormalised to     160.0000

     negative rho (up, down):  1.696E-01 0.000E+00
     Starting wfcs are  140 randomized atomic wfcs +  116 random wfcs
     Checking if some PAW data can be deallocated...

     Self-consistent Calculation

     iteration #  1     ecut=    30.00 Ry     beta= 0.70
     Davidson diagonalization with overlap

     ethr =  1.00E-02,  avg # of iterations =  6.0

     negative rho (up, down):  1.735E-01 0.000E+00

     total energy              =   -1217.43326765 Ry
     estimated scf accuracy    <       5.52864887 Ry

[...]

     total energy              =   -1220.16628180 Ry
     estimated scf accuracy    <       0.00001791 Ry

     iteration #  8     ecut=    30.00 Ry     beta= 0.70
     Davidson diagonalization with overlap

     ethr =  1.12E-08,  avg # of iterations =  1.0

     negative rho (up, down):  1.765E-01 0.000E+00

     End of self-consistent calculation

          k = 0.0000 0.0000 0.0000 (  4711 PWs)   bands (ev):

   -37.6824 -37.6794 -37.6758 -37.6730 -30.7800 -30.7753 -30.7610 -30.7560
   -16.5209 -16.5096 -16.4934 -16.4828 -16.4682 -16.4336 -16.3614 -16.3579
   -16.3554 -16.3358 -16.3263 -16.3189 -11.2069 -11.1896 -11.1787 -11.1781
   -11.1502 -10.9743 -10.9148 -10.8392 -10.8234 -10.8092 -10.7644 -10.7643
    -7.2868  -6.7010  -6.4371  -6.4210  -6.3700  -6.1789  -6.1673  -6.1401
    -6.1083  -5.9982  -5.7307  -5.6839   5.5295   5.9407   6.1591   6.1822
     6.3104   6.4402   6.7113   6.7796   6.8345   6.8745   6.9837   7.1350
     7.2126   7.2933   7.4571   7.5340   7.5964   7.6812   7.6832   7.7397
     7.7806   7.9994   8.0035   8.1733   8.2062   8.3168   8.3286   8.4352
     8.6036   8.7023   8.7743   8.8915   9.0303   9.1685   9.2170   9.3403
    13.8818  13.9783  13.9941  14.1629  14.4595  14.5493  14.7552  14.8488
    15.0833  15.1358  15.2694  15.2733  15.2781  15.3436  15.5291  15.5791
    15.6242  15.7207  15.9578  16.2284  16.3241  16.4115  16.5657  16.6323
    16.6871  16.8571  16.8915  16.9092  16.9192  17.0782  17.2554  17.4919
    17.6037  17.6281  17.9953  18.0331  18.1107  18.4747  18.5545  18.6775
    19.0426  19.0772  19.3959  20.0702  20.7492  21.1833  21.5616  22.9458
    23.1391  23.1433  23.2455  23.4319  23.6445  23.6783  23.8968  24.2917
    24.6543  24.6664  24.7231  24.7520  24.8089  25.2869  25.3334  25.7441
    25.8960  26.2719  26.8524  27.3288  27.3968  27.5439  28.0514  28.1072
    28.3971  28.6835  28.7079  29.3688  29.4285  29.7462  29.9188  30.1434
    30.2478  30.3031  30.7944  30.9254  31.1775  31.7070  31.9089  31.9654
    32.3981  32.4644  32.5640  32.7267  32.8472  33.1446  33.4597  33.4667
    33.9765  33.9924  34.1562  34.5714  34.7836  34.8763  34.9279  35.1769
    35.3641  35.5126  35.6707  35.7171  35.8315  36.0095  36.1867  36.7016
    36.8786  36.9077  36.9608  37.2201  37.5906  37.7137  37.7611  38.0396
    38.4701  38.6674  38.6747  38.9652  39.1540  39.2395  39.5191  39.6770
    40.0410  40.6496  40.7281  40.8511  40.9087  41.0639  41.1320  41.2977
    41.4668  41.6122  41.7347  41.7510  41.8931  42.2118  42.3563  42.6291
    42.8857  42.9216  42.9368  43.1990  43.2326  43.3681  43.6306  43.8438
    43.8720  44.1928  44.2444  44.3867  44.4840  44.6396  44.6608  44.7638
    44.8031  45.0045  45.3701  45.3915  45.4953  45.6406  46.0483  46.2842
    46.3197  46.3373  46.3410  46.4538  46.6764  46.9447  47.1466  47.2291

     occupation numbers
     1.0000   1.0000   1.0000   1.0000   1.0000   1.0000   1.0000   1.0000
     1.0000   1.0000   1.0000   1.0000   1.0000   1.0000   1.0000   1.0000
     1.0000   1.0000   1.0000   1.0000   1.0000   1.0000   1.0000   1.0000
     1.0000   1.0000   1.0000   1.0000   1.0000   1.0000   1.0000   1.0000
     1.0000   1.0000   1.0000   1.0000   1.0000   1.0000   1.0000   1.0000
     1.0000   1.0000   1.0000   1.0000   1.0000   1.0000   1.0000   1.0000
     1.0000   1.0000   1.0000   1.0000   1.0000   1.0000   1.0000   1.0000
     1.0000   1.0000   1.0000   1.0000   1.0000   1.0000   1.0000   1.0000
     1.0000   1.0000   1.0000   1.0000   1.0000   1.0000   1.0000   1.0000
     1.0000   1.0000   1.0000   1.0000   1.0000   1.0000   1.0000   1.0000
     0.0000   0.0000   0.0000   0.0000   0.0000   0.0000   0.0000   0.0000
     0.0000   0.0000   0.0000   0.0000   0.0000   0.0000   0.0000   0.0000
     0.0000   0.0000   0.0000   0.0000   0.0000   0.0000   0.0000   0.0000
     0.0000   0.0000   0.0000   0.0000   0.0000   0.0000   0.0000   0.0000
     0.0000   0.0000   0.0000   0.0000   0.0000   0.0000   0.0000   0.0000
     0.0000   0.0000   0.0000   0.0000   0.0000   0.0000   0.0000   0.0000
     0.0000   0.0000   0.0000   0.0000   0.0000   0.0000   0.0000   0.0000
     0.0000   0.0000   0.0000   0.0000   0.0000   0.0000   0.0000   0.0000
     0.0000   0.0000   0.0000   0.0000   0.0000   0.0000   0.0000   0.0000
     0.0000   0.0000   0.0000   0.0000   0.0000   0.0000   0.0000   0.0000
     0.0000   0.0000   0.0000   0.0000   0.0000   0.0000   0.0000   0.0000
     0.0000   0.0000   0.0000   0.0000   0.0000   0.0000   0.0000   0.0000
     0.0000   0.0000   0.0000   0.0000   0.0000   0.0000   0.0000   0.0000
     0.0000   0.0000   0.0000   0.0000   0.0000   0.0000   0.0000   0.0000
     0.0000   0.0000   0.0000   0.0000   0.0000   0.0000   0.0000   0.0000
     0.0000   0.0000   0.0000   0.0000   0.0000   0.0000   0.0000   0.0000
     0.0000   0.0000   0.0000   0.0000   0.0000   0.0000   0.0000   0.0000
     0.0000   0.0000   0.0000   0.0000   0.0000   0.0000   0.0000   0.0000
     0.0000   0.0000   0.0000   0.0000   0.0000   0.0000   0.0000   0.0000
     0.0000   0.0000   0.0000   0.0000   0.0000   0.0000   0.0000   0.0000
     0.0000   0.0000   0.0000   0.0000   0.0000   0.0000   0.0000   0.0000
     0.0000   0.0000   0.0000   0.0000   0.0000   0.0000   0.0000   0.0000

[...]

          k = 0.3333 0.3163 0.2280 (  4713 PWs)   bands (ev):

   -37.6791 -37.6777 -37.6775 -37.6761 -30.7721 -30.7699 -30.7663 -30.7641
   -16.5063 -16.5000 -16.4803 -16.4686 -16.4343 -16.4274 -16.3907 -16.3794
   -16.3708 -16.3520 -16.3385 -16.3313 -11.2503 -11.1997 -11.1660 -11.1165
   -11.0322 -10.9924 -10.9238 -10.9005 -10.8831 -10.8713 -10.7824 -10.7733
    -6.6593  -6.5954  -6.4952  -6.4567  -6.3924  -6.3008  -6.2312  -6.1775
    -5.9918  -5.9664  -5.9121  -5.8524   5.9953   6.0577   6.1921   6.2608
     6.4206   6.4497   6.6018   6.6690   6.7493   6.8741   6.9690   7.1082
     7.1275   7.2470   7.2740   7.3587   7.4567   7.5130   7.5611   7.7589
     7.8514   7.9272   8.0040   8.0660   8.2061   8.3323   8.4413   8.5201
     8.5823   8.6430   8.7188   8.8048   8.8622   8.9190   8.9861   9.0107
    14.0176  14.0896  14.1114  14.2135  14.6393  14.7010  14.7953  14.9207
    14.9848  15.0163  15.1310  15.2201  15.4152  15.5189  15.7302  15.8468
    15.8937  15.9767  16.0506  16.1901  16.2726  16.4641  16.5810  16.7111
    16.7675  16.8975  17.0357  17.1704  17.2094  17.3827  17.5658  17.6269
    17.6868  17.8200  17.8678  17.9889  18.0869  18.2003  18.2781  18.5354
    18.6482  19.1342  20.0173  20.3406  20.6035  20.9003  21.2607  21.6359
    22.2567  22.4668  23.5416  23.7040  23.9172  24.1860  24.2719  24.4307
    24.8070  24.9434  25.1421  25.3236  25.3999  25.4804  25.6978  26.1943
    26.4290  26.6638  26.8255  26.9715  27.1165  27.3972  27.4892  27.5934
    27.8176  28.2244  28.6491  28.7860  28.9564  29.1421  29.3812  29.7849
    30.0774  30.3074  30.5333  30.6319  31.4034  31.5321  31.9110  32.0409
    32.2016  32.5591  32.7240  32.9943  33.2281  33.3332  33.4692  33.6119
    33.7767  33.8677  33.9817  34.5564  34.5866  34.7114  34.9686  35.0889
    35.2582  35.4624  35.6122  35.9034  36.0199  36.2706  36.4225  36.7002
    36.8437  37.1634  37.2682  37.4403  37.6948  37.7921  38.0621  38.1614
    38.5180  38.6980  38.8745  39.0055  39.2124  39.3302  39.5645  39.6652
    39.8772  40.0977  40.4096  40.5519  40.7006  40.9572  41.0137  41.3493
    41.4991  41.6322  41.7517  41.9029  41.9527  42.1282  42.2978  42.3713
    42.4032  42.7109  42.9893  43.1058  43.4022  43.5817  43.6431  43.6718
    43.8513  43.9276  44.1165  44.2295  44.4433  44.6020  44.8496  44.9002
    44.9641  45.0600  45.1963  45.3964  45.4610  45.4939  45.8206  45.9512
    45.9818  46.2041  46.3447  46.6483  46.7979  46.9018  47.0951  47.2228

     occupation numbers
     1.0000   1.0000   1.0000   1.0000   1.0000   1.0000   1.0000   1.0000
     1.0000   1.0000   1.0000   1.0000   1.0000   1.0000   1.0000   1.0000
     1.0000   1.0000   1.0000   1.0000   1.0000   1.0000   1.0000   1.0000
     1.0000   1.0000   1.0000   1.0000   1.0000   1.0000   1.0000   1.0000
     1.0000   1.0000   1.0000   1.0000   1.0000   1.0000   1.0000   1.0000
     1.0000   1.0000   1.0000   1.0000   1.0000   1.0000   1.0000   1.0000
     1.0000   1.0000   1.0000   1.0000   1.0000   1.0000   1.0000   1.0000
     1.0000   1.0000   1.0000   1.0000   1.0000   1.0000   1.0000   1.0000
     1.0000   1.0000   1.0000   1.0000   1.0000   1.0000   1.0000   1.0000
     1.0000   1.0000   1.0000   1.0000   1.0000   1.0000   1.0000   1.0000
     0.0000   0.0000   0.0000   0.0000   0.0000   0.0000   0.0000   0.0000
     0.0000   0.0000   0.0000   0.0000   0.0000   0.0000   0.0000   0.0000
     0.0000   0.0000   0.0000   0.0000   0.0000   0.0000   0.0000   0.0000
     0.0000   0.0000   0.0000   0.0000   0.0000   0.0000   0.0000   0.0000
     0.0000   0.0000   0.0000   0.0000   0.0000   0.0000   0.0000   0.0000
     0.0000   0.0000   0.0000   0.0000   0.0000   0.0000   0.0000   0.0000
     0.0000   0.0000   0.0000   0.0000   0.0000   0.0000   0.0000   0.0000
     0.0000   0.0000   0.0000   0.0000   0.0000   0.0000   0.0000   0.0000
     0.0000   0.0000   0.0000   0.0000   0.0000   0.0000   0.0000   0.0000
     0.0000   0.0000   0.0000   0.0000   0.0000   0.0000   0.0000   0.0000
     0.0000   0.0000   0.0000   0.0000   0.0000   0.0000   0.0000   0.0000
     0.0000   0.0000   0.0000   0.0000   0.0000   0.0000   0.0000   0.0000
     0.0000   0.0000   0.0000   0.0000   0.0000   0.0000   0.0000   0.0000
     0.0000   0.0000   0.0000   0.0000   0.0000   0.0000   0.0000   0.0000
     0.0000   0.0000   0.0000   0.0000   0.0000   0.0000   0.0000   0.0000
     0.0000   0.0000   0.0000   0.0000   0.0000   0.0000   0.0000   0.0000
     0.0000   0.0000   0.0000   0.0000   0.0000   0.0000   0.0000   0.0000
     0.0000   0.0000   0.0000   0.0000   0.0000   0.0000   0.0000   0.0000
     0.0000   0.0000   0.0000   0.0000   0.0000   0.0000   0.0000   0.0000
     0.0000   0.0000   0.0000   0.0000   0.0000   0.0000   0.0000   0.0000
     0.0000   0.0000   0.0000   0.0000   0.0000   0.0000   0.0000   0.0000
     0.0000   0.0000   0.0000   0.0000   0.0000   0.0000   0.0000   0.0000

     highest occupied, lowest unoccupied level (ev):     9.3403   13.8818

!    total energy              =   -1220.16628587 Ry
     estimated scf accuracy    <       0.00000051 Ry

     The total energy is the sum of the following terms:
     one-electron contribution =    -232.51944169 Ry
     hartree contribution      =     203.22787373 Ry
     xc contribution           =    -225.96500285 Ry
     ewald contribution        =    -850.67558810 Ry
     one-center paw contrib.   =    -114.23412696 Ry
      -> PAW hartree energy AE =       0.00000000 Ry
      -> PAW hartree energy PS =       0.00000000 Ry
      -> PAW xc energy AE      =       0.00000000 Ry
      -> PAW xc energy PS      =       0.00000000 Ry
      -> total E_H with PAW    =     203.22787373 Ry
      -> total E_XC with PAW   =    -225.96500285 Ry

     convergence has been achieved in   8 iterations

     Writing all to output data dir bands_nm/myprefix.save/

     General routines

     Parallel routines

     PAW routines

   This run was terminated on:  21:24:47  15Jul2023

   JOB DONE.