     Program PWSCF v.7.1 starts on 15Jul2023 at 17:59:30

     Reading input from espresso_13227.pwi
Warning: card &CELL ignored
Warning: card / ignored

     Current dimensions of program PWSCF are:
     Max number of different atomic species (ntypx) = 10
     Max number of k-points (npk) =  40000
     Max angular momentum in pseudopotentials (lmaxx) =  4

     K-points division:     npool     =       2
     R & G space division:  proc/nbgrp/npool/nimage =       4
     Subspace diagonalization in iterative solution of the eigenvalue problem:
     one sub-group per band group will be used

     Using Slab Decomposition

     bravais-lattice index     =            0
     lattice parameter (alat)  =       9.7908  a.u.
     unit-cell volume          =    1152.1923 (a.u.)^3
     number of atoms/cell      =           14
     number of atomic types    =            3
     number of electrons       =       146.00
     number of Kohn-Sham states=          256
     kinetic-energy cutoff     =      30.0000  Ry
     charge density cutoff     =     240.0000  Ry
     scf convergence threshold =      1.0E-06
     mixing beta               =       0.7000
     number of iterations used =            8  plain     mixing
     Exchange-correlation=  SLA  PW   PBX  PBC
                           (   1   4   3   4   0   0   0)

     celldm(1)=   9.790778  celldm(2)=   0.000000  celldm(3)=   0.000000
     celldm(4)=   0.000000  celldm(5)=   0.000000  celldm(6)=   0.000000

     crystal axes: (cart. coord. in units of alat)
               a(1) = (   1.000000   0.000000   0.000000 )
               a(2) = (  -0.341426   0.939907   0.000000 )
               a(3) = (  -0.452293  -0.384281   1.306136 )

     reciprocal axes: (cart. coord. in units 2 pi/alat)
               b(1) = (  1.000000  0.363255  0.453157 )
               b(2) = (  0.000000  1.063935  0.313022 )
               b(3) = (  0.000000  0.000000  0.765617 )

     PseudoPot. # 1 for Zn read from file:
     /lustre07/scratch/pragov/crystal_structure_design/utils/SSSP/Zn_pbe_v1.uspp.F.UPF
     MD5 check sum: df62231357ef9e81f77b2b3087fa5675
     Pseudo is Ultrasoft, Zval = 20.0
     Generated by new atomic code, or converted to UPF format
     Using radial grid of  943 points,  6 beta functions with:
                l(1) =   0
                l(2) =   0
                l(3) =   1
                l(4) =   1
                l(5) =   2
                l(6) =   2
     Q(r) pseudized with  8 coefficients,  rinner =    1.100   1.100   1.100
                                                       1.100   1.100

     PseudoPot. # 2 for Ni read from file:
     /lustre07/scratch/pragov/crystal_structure_design/utils/SSSP/ni_pbe_v1.4.uspp.F.UPF
     MD5 check sum: 1ee80287db30b12d2bc1f57a5b5d6409
     Pseudo is Ultrasoft + core correction, Zval = 18.0
     Generated by new atomic code, or converted to UPF format
     Using radial grid of  865 points,  6 beta functions with:
                l(1) =   0
                l(2) =   0
                l(3) =   1
                l(4) =   1
                l(5) =   2
                l(6) =   2
     Q(r) pseudized with 10 coefficients,  rinner =    0.980   0.980   0.980
                                                       0.980   0.980

     PseudoPot. # 3 for F  read from file:
     /lustre07/scratch/pragov/crystal_structure_design/utils/SSSP/f_pbe_v1.4.uspp.F.UPF
     MD5 check sum: 4c38b6a325caf53ec0e86aed9459de46
     Pseudo is Ultrasoft, Zval =  7.0
     Generated by new atomic code, or converted to UPF format
     Using radial grid of  799 points,  4 beta functions with:
                l(1) =   0
                l(2) =   0
                l(3) =   1
                l(4) =   1
     Q(r) pseudized with  8 coefficients,  rinner =    0.950   0.950   0.950

     atomic species   valence    mass     pseudopotential
        Zn            20.00    65.38000     Zn( 1.00)
        Ni            18.00    58.69340     Ni( 1.00)
        F              7.00    18.99840     F ( 1.00)

     No symmetry found

                                    s                        frac. trans.

      isym =  1     identity

 cryst.   s( 1) = (     1          0          0      )
                  (     0          1          0      )
                  (     0          0          1      )

 cart.    s( 1) = (  1.0000000  0.0000000 -0.0000000 )
                  (  0.0000000  1.0000000  0.0000000 )
                  (  0.0000000  0.0000000  1.0000000 )

   Cartesian axes

     site n.     atom                  positions (alat units)
         1           Zn  tau(   1) = (  -0.2347529   0.2199461   0.9795994  )
         2           Zn  tau(   2) = (   0.4398634   0.3388955   0.3276129  )
         3           Ni  tau(   3) = (  -0.0003773   0.0037737   0.0009522  )
         4           Ni  tau(   4) = (   0.2731401  -0.1913527   0.6535147  )
         5           F   tau(   5) = (   0.2095329   0.0154268   0.3290078  )
         6           F   tau(   6) = (  -0.0051588   0.5431157   0.9787740  )
         7           F   tau(   7) = (   0.1677211   0.5501019   0.4835512  )
         8           F   tau(   8) = (   0.7305672   0.1639363   0.1609578  )
         9           F   tau(   9) = (   0.5000337   0.6322095   0.0590347  )
        10           F   tau(  10) = (  -0.3102996   0.4932028   0.5999227  )
        11           F   tau(  11) = (  -0.2925194  -0.0690487   1.2518922  )
        12           F   tau(  12) = (   0.5160807   0.0609421   0.7082418  )
        13           F   tau(  13) = (  -0.5271255   0.3995735   1.1399877  )
        14           F   tau(  14) = (   0.0369713   0.0066904   0.8235697  )

   Crystallographic axes

     site n.     atom                  positions (cryst. coord.)
         1           Zn  tau(   1) = (  0.2890560  0.5406450  0.7499980  )
         2           Zn  tau(   2) = (  0.7114290  0.4631130  0.2508260  )
         3           Ni  tau(   3) = (  0.0014250  0.0043130  0.0007290  )
         4           Ni  tau(   4) = (  0.4997750  0.0009780  0.5003420  )
         5           F   tau(   5) = (  0.3642290  0.1194000  0.2518940  )
         6           F   tau(   6) = (  0.6356690  0.8842180  0.7493660  )
         7           F   tau(   7) = (  0.5866730  0.7366350  0.3702150  )
         8           F   tau(   8) = (  0.8630570  0.2248010  0.1232320  )
         9           F   tau(   9) = (  0.7564390  0.6911090  0.0451980  )
        10           F   tau(  10) = (  0.1407180  0.7125250  0.4593110  )
        11           F   tau(  11) = (  0.2497020  0.3184070  0.9584700  )
        12           F   tau(  12) = (  0.8591630  0.2865340  0.5422420  )
        13           F   tau(  13) = (  0.1346150  0.7819620  0.8727940  )
        14           F   tau(  14) = (  0.4126080  0.2649140  0.6305390  )

     number of k points=    14
                       cart. coord. in units 2pi/alat
        k(    1) = (   0.0000000   0.0000000   0.0000000), wk =   0.0740741
        k(    2) = (   0.0000000   0.0000000   0.2552057), wk =   0.1481481
        k(    3) = (   0.0000000   0.3546450   0.1043408), wk =   0.1481481
        k(    4) = (   0.0000000   0.3546450   0.3595465), wk =   0.1481481
        k(    5) = (   0.0000000   0.3546450  -0.1508649), wk =   0.1481481
        k(    6) = (   0.3333333   0.1210850   0.1510523), wk =   0.1481481
        k(    7) = (   0.3333333   0.1210850   0.4062580), wk =   0.1481481
        k(    8) = (   0.3333333   0.1210850  -0.1041533), wk =   0.1481481
        k(    9) = (   0.3333333   0.4757301   0.2553932), wk =   0.1481481
        k(   10) = (   0.3333333   0.4757301   0.5105988), wk =   0.1481481
        k(   11) = (   0.3333333   0.4757301   0.0001875), wk =   0.1481481
        k(   12) = (   0.3333333  -0.2335600   0.0467115), wk =   0.1481481
        k(   13) = (   0.3333333  -0.2335600   0.3019172), wk =   0.1481481
        k(   14) = (   0.3333333  -0.2335600  -0.2084942), wk =   0.1481481

                       cryst. coord.
        k(    1) = (   0.0000000   0.0000000   0.0000000), wk =   0.0740741
        k(    2) = (   0.0000000   0.0000000   0.3333333), wk =   0.1481481
        k(    3) = (   0.0000000   0.3333333  -0.0000000), wk =   0.1481481
        k(    4) = (   0.0000000   0.3333333   0.3333333), wk =   0.1481481
        k(    5) = (   0.0000000   0.3333333  -0.3333333), wk =   0.1481481
        k(    6) = (   0.3333333   0.0000000  -0.0000000), wk =   0.1481481
        k(    7) = (   0.3333333   0.0000000   0.3333333), wk =   0.1481481
        k(    8) = (   0.3333333   0.0000000  -0.3333333), wk =   0.1481481
        k(    9) = (   0.3333333   0.3333333   0.0000000), wk =   0.1481481
        k(   10) = (   0.3333333   0.3333333   0.3333333), wk =   0.1481481
        k(   11) = (   0.3333333   0.3333333  -0.3333333), wk =   0.1481481
        k(   12) = (   0.3333333  -0.3333333  -0.0000000), wk =   0.1481481
        k(   13) = (   0.3333333  -0.3333333   0.3333333), wk =   0.1481481
        k(   14) = (   0.3333333  -0.3333333  -0.3333333), wk =   0.1481481

     Check: negative core charge=   -0.000003

     Initial potential from superposition of free atoms

     starting charge     141.9997, renormalised to     146.0000
     Starting wfcs are   92 randomized atomic wfcs +  164 random wfcs

     Self-consistent Calculation

     iteration #  1     ecut=    30.00 Ry     beta= 0.70
     Davidson diagonalization with overlap

     ethr =  1.00E-02,  avg # of iterations =  6.1

     total energy              =   -2028.17996896 Ry
     estimated scf accuracy    <      84.09679504 Ry

[...]

     total energy              =   -2095.54169989 Ry
     estimated scf accuracy    <       0.00000692 Ry

     iteration # 19     ecut=    30.00 Ry     beta= 0.70
     Davidson diagonalization with overlap

     ethr =  4.74E-09,  avg # of iterations =  1.0

     End of self-consistent calculation

          k = 0.0000 0.0000 0.0000 (  3199 PWs)   bands (ev):

  -119.7603-119.7539-100.2063-100.2037 -73.9304 -73.9237 -73.8926 -73.8857
   -73.8855 -73.8787 -60.7788 -60.7729 -60.7229 -60.7077 -59.9749 -59.9720
   -18.9051 -18.4541 -18.4375 -18.2150 -18.0515 -17.9909 -17.8354 -17.7896
   -17.7725 -17.7474  -2.9166  -2.7442  -2.3404  -2.1222  -1.8675  -1.8554
    -1.5880  -1.5286  -1.4431  -1.3987  -1.1842  -1.1072  -1.0976  -1.0712
    -1.0192  -0.8764  -0.8705  -0.7273  -0.2375  -0.1819   0.0342   0.3358
     0.3992   0.6023   0.6568   0.8712   1.0134   1.0809   1.0966   1.2361
     1.3245   1.4699   1.7132   1.8124   1.8400   1.8647   1.8792   2.0437
     2.0804   2.2921   2.9326   3.0168   3.1011   3.1836   3.3019   3.3325
     3.8297   4.5837   4.8349   5.0189   8.0327  10.6711  13.0657  14.2892
    14.4709  14.9344  15.1935  15.7899  15.8062  15.9929  16.8729  16.9423
    17.0830  17.3615  17.5908  18.6448  19.4743  19.5111  19.5246  19.5858
    20.3660  20.8428  21.1113  21.3525  21.4781  21.6296  22.5105  23.8511
    23.9063  24.2103  25.4067  25.9913  26.0109  26.0767  26.1257  26.4263
    26.7030  27.7158  27.7980  27.8955  27.9914  28.8267  28.9312  28.9669
    29.6970  30.0828  30.6092  30.6390  31.2264  31.3595  31.5405  31.7549
    31.8473  32.3129  32.7704  32.9893  33.0942  33.3808  33.8838  33.9528
    34.3883  34.4435  34.4750  34.6888  34.9284  34.9606  35.9302  36.3370
    36.4548  37.1767  37.2772  37.3356  37.6086  38.1127  38.3854  38.5230
    39.0784  39.1731  39.4654  39.6635  39.8618  40.0616  40.3661  40.9185
    41.3855  41.4507  41.7136  41.8624  42.0319  42.3743  42.4213  43.2117
    43.2586  43.5123  43.5937  43.6408  44.0631  44.1071  44.5997  44.8297
    45.0754  45.5031  45.6789  45.8499  46.3663  46.5842  46.9823  47.5402
    47.6349  47.7641  47.7957  47.9230  48.1650  48.3954  48.4767  48.6473
    49.2781  49.4373  49.5173  49.7998  50.2457  50.2807  50.3611  50.4361
    50.6380  51.0041  51.0881  51.1756  51.6858  51.7418  52.0078  52.0662
    52.8392  53.1279  53.1759  53.2584  53.4412  53.9275  54.1773  54.2884
    54.7879  55.0444  55.3029  55.4754  55.8013  56.1391  56.2090  56.3509
    56.5998  56.9848  57.0502  57.0635  57.5243  57.5556  57.6886  57.8417
    58.4233  58.5289  58.5870  58.8178  58.9984  59.1143  59.1891  59.4282
    59.5201  59.8406  59.9798  60.0271  60.1618  60.2269  60.5896  60.7925
    60.8351  60.9397  61.1230  61.2306  61.6277  61.7104  61.7902  62.2788

     occupation numbers
     1.0000   1.0000   1.0000   1.0000   1.0000   1.0000   1.0000   1.0000
     1.0000   1.0000   1.0000   1.0000   1.0000   1.0000   1.0000   1.0000
     1.0000   1.0000   1.0000   1.0000   1.0000   1.0000   1.0000   1.0000
     1.0000   1.0000   1.0000   1.0000   1.0000   1.0000   1.0000   1.0000
     1.0000   1.0000   1.0000   1.0000   1.0000   1.0000   1.0000   1.0000
     1.0000   1.0000   1.0000   1.0000   1.0000   1.0000   1.0000   1.0000
     1.0000   1.0000   1.0000   1.0000   1.0000   1.0000   1.0000   1.0000
     1.0000   1.0000   1.0000   1.0000   1.0000   1.0000   1.0000   1.0000
     1.0000   1.0000   1.0000   1.0000   1.0000   1.0000   1.0000   1.0000
     1.0000   0.0000   0.0000   0.0000   0.0000   0.0000   0.0000   0.0000
     0.0000   0.0000   0.0000   0.0000   0.0000   0.0000   0.0000   0.0000
     0.0000   0.0000   0.0000   0.0000   0.0000   0.0000   0.0000   0.0000
     0.0000   0.0000   0.0000   0.0000   0.0000   0.0000   0.0000   0.0000
     0.0000   0.0000   0.0000   0.0000   0.0000   0.0000   0.0000   0.0000
     0.0000   0.0000   0.0000   0.0000   0.0000   0.0000   0.0000   0.0000
     0.0000   0.0000   0.0000   0.0000   0.0000   0.0000   0.0000   0.0000
     0.0000   0.0000   0.0000   0.0000   0.0000   0.0000   0.0000   0.0000
     0.0000   0.0000   0.0000   0.0000   0.0000   0.0000   0.0000   0.0000
     0.0000   0.0000   0.0000   0.0000   0.0000   0.0000   0.0000   0.0000
     0.0000   0.0000   0.0000   0.0000   0.0000   0.0000   0.0000   0.0000
     0.0000   0.0000   0.0000   0.0000   0.0000   0.0000   0.0000   0.0000
     0.0000   0.0000   0.0000   0.0000   0.0000   0.0000   0.0000   0.0000
     0.0000   0.0000   0.0000   0.0000   0.0000   0.0000   0.0000   0.0000
     0.0000   0.0000   0.0000   0.0000   0.0000   0.0000   0.0000   0.0000
     0.0000   0.0000   0.0000   0.0000   0.0000   0.0000   0.0000   0.0000
     0.0000   0.0000   0.0000   0.0000   0.0000   0.0000   0.0000   0.0000
     0.0000   0.0000   0.0000   0.0000   0.0000   0.0000   0.0000   0.0000
     0.0000   0.0000   0.0000   0.0000   0.0000   0.0000   0.0000   0.0000
     0.0000   0.0000   0.0000   0.0000   0.0000   0.0000   0.0000   0.0000
     0.0000   0.0000   0.0000   0.0000   0.0000   0.0000   0.0000   0.0000
     0.0000   0.0000   0.0000   0.0000   0.0000   0.0000   0.0000   0.0000
     0.0000   0.0000   0.0000   0.0000   0.0000   0.0000   0.0000   0.0000

[...]

          k = 0.3333-0.2336-0.2085 (  3192 PWs)   bands (ev):

  -119.7601-119.7538-100.2060-100.2034 -73.9279 -73.9217 -73.8930 -73.8863
   -73.8847 -73.8787 -60.7784 -60.7730 -60.7210 -60.7100 -59.9773 -59.9643
   -18.7803 -18.4700 -18.4328 -18.2156 -18.0414 -17.9900 -17.8790 -17.8377
   -17.8067 -17.7773  -2.8996  -2.4872  -2.4625  -2.4515  -1.8553  -1.6503
    -1.5132  -1.4162  -1.4035  -1.2138  -1.1245  -1.0797  -1.0273  -0.9958
    -0.9781  -0.9242  -0.7853  -0.7093  -0.2072  -0.1287  -0.0256   0.3093
     0.4308   0.7197   0.7396   0.8033   0.8667   1.0313   1.0549   1.2725
     1.2794   1.3838   1.5486   1.6823   1.7003   1.7150   1.8128   1.9262
     2.0195   2.1347   2.9476   3.1187   3.1637   3.2570   3.3160   3.3922
     3.7676   4.3150   4.6072   4.8653   9.6041  10.6040  13.0881  13.3922
    14.1360  14.8380  14.9223  15.3005  15.5121  16.1400  16.7234  17.0499
    17.8361  17.9132  18.5950  18.6565  19.3504  19.3777  19.5015  20.2635
    20.5215  20.8892  21.5210  21.6462  21.8926  22.3720  23.0908  23.5419
    23.8910  24.0454  24.1679  24.7303  25.4410  25.5471  25.9542  25.9886
    26.5422  26.9241  27.3117  27.3721  28.3149  28.3523  28.5516  28.7752
    28.9305  29.2722  29.9342  30.0211  30.1949  30.6933  31.2321  31.3759
    32.0706  32.6758  32.9617  33.7819  33.8320  33.9030  34.1667  34.6553
    35.1166  35.2653  35.5429  35.7980  35.9678  36.3548  36.7494  36.7990
    37.0106  37.2606  37.7308  38.2535  38.5371  38.6168  38.6804  39.0080
    39.0920  39.5453  39.6304  39.9601  40.5492  40.7378  41.1473  41.1940
    41.6158  41.7211  42.0286  42.2520  42.3126  42.4048  42.5297  42.8947
    43.2642  43.3129  43.6721  43.7040  44.0176  44.5655  44.5960  44.6614
    45.1662  45.2168  45.5705  45.6252  45.9721  46.2295  46.5787  46.6314
    46.7692  46.9667  47.1487  47.4630  47.5732  47.6199  47.7658  47.9504
    48.3399  48.6354  48.9191  49.0590  49.6414  49.7232  50.0388  50.1618
    50.3599  50.5474  50.6108  50.9665  51.0123  51.4979  51.6598  51.7719
    51.8970  52.3199  52.4707  52.7304  53.1630  53.3334  53.5397  53.7421
    53.8320  53.9325  54.0025  54.6674  54.7369  54.8122  55.3207  55.4281
    55.8856  55.9446  56.3316  56.4530  56.9499  57.0545  57.2550  57.5368
    57.6065  58.4349  58.5280  58.5973  59.3912  59.5976  59.7385  59.8633
    60.1619  60.3225  60.4644  60.5875  61.2321  61.2841  61.6276  61.8015
    61.9234  62.2729  62.3696  62.5215  62.6596  62.7826  63.0884  63.1996

     occupation numbers
     1.0000   1.0000   1.0000   1.0000   1.0000   1.0000   1.0000   1.0000
     1.0000   1.0000   1.0000   1.0000   1.0000   1.0000   1.0000   1.0000
     1.0000   1.0000   1.0000   1.0000   1.0000   1.0000   1.0000   1.0000
     1.0000   1.0000   1.0000   1.0000   1.0000   1.0000   1.0000   1.0000
     1.0000   1.0000   1.0000   1.0000   1.0000   1.0000   1.0000   1.0000
     1.0000   1.0000   1.0000   1.0000   1.0000   1.0000   1.0000   1.0000
     1.0000   1.0000   1.0000   1.0000   1.0000   1.0000   1.0000   1.0000
     1.0000   1.0000   1.0000   1.0000   1.0000   1.0000   1.0000   1.0000
     1.0000   1.0000   1.0000   1.0000   1.0000   1.0000   1.0000   1.0000
     1.0000   0.0000   0.0000   0.0000   0.0000   0.0000   0.0000   0.0000
     0.0000   0.0000   0.0000   0.0000   0.0000   0.0000   0.0000   0.0000
     0.0000   0.0000   0.0000   0.0000   0.0000   0.0000   0.0000   0.0000
     0.0000   0.0000   0.0000   0.0000   0.0000   0.0000   0.0000   0.0000
     0.0000   0.0000   0.0000   0.0000   0.0000   0.0000   0.0000   0.0000
     0.0000   0.0000   0.0000   0.0000   0.0000   0.0000   0.0000   0.0000
     0.0000   0.0000   0.0000   0.0000   0.0000   0.0000   0.0000   0.0000
     0.0000   0.0000   0.0000   0.0000   0.0000   0.0000   0.0000   0.0000
     0.0000   0.0000   0.0000   0.0000   0.0000   0.0000   0.0000   0.0000
     0.0000   0.0000   0.0000   0.0000   0.0000   0.0000   0.0000   0.0000
     0.0000   0.0000   0.0000   0.0000   0.0000   0.0000   0.0000   0.0000
     0.0000   0.0000   0.0000   0.0000   0.0000   0.0000   0.0000   0.0000
     0.0000   0.0000   0.0000   0.0000   0.0000   0.0000   0.0000   0.0000
     0.0000   0.0000   0.0000   0.0000   0.0000   0.0000   0.0000   0.0000
     0.0000   0.0000   0.0000   0.0000   0.0000   0.0000   0.0000   0.0000
     0.0000   0.0000   0.0000   0.0000   0.0000   0.0000   0.0000   0.0000
     0.0000   0.0000   0.0000   0.0000   0.0000   0.0000   0.0000   0.0000
     0.0000   0.0000   0.0000   0.0000   0.0000   0.0000   0.0000   0.0000
     0.0000   0.0000   0.0000   0.0000   0.0000   0.0000   0.0000   0.0000
     0.0000   0.0000   0.0000   0.0000   0.0000   0.0000   0.0000   0.0000
     0.0000   0.0000   0.0000   0.0000   0.0000   0.0000   0.0000   0.0000
     0.0000   0.0000   0.0000   0.0000   0.0000   0.0000   0.0000   0.0000
     0.0000   0.0000   0.0000   0.0000   0.0000   0.0000   0.0000   0.0000

     highest occupied, lowest unoccupied level (ev):     4.0682    4.2320

!    total energy              =   -2095.54169965 Ry
     estimated scf accuracy    <       0.00000090 Ry

     The total energy is the sum of the following terms:
     one-electron contribution =   -1767.74708692 Ry
     hartree contribution      =     940.57672663 Ry
     xc contribution           =    -248.55859699 Ry
     ewald contribution        =   -1019.81274237 Ry

     convergence has been achieved in  19 iterations

     Writing all to output data dir bands_nm/myprefix.save/

     General routines

     Parallel routines

   This run was terminated on:  18: 0:52  15Jul2023

   JOB DONE.