     Program PWSCF v.7.1 starts on 16Jul2023 at 13:45:17

     Reading input from espresso_1942.pwi
Warning: card &CELL ignored
Warning: card / ignored

     Current dimensions of program PWSCF are:
     Max number of different atomic species (ntypx) = 10
     Max number of k-points (npk) =  40000
     Max angular momentum in pseudopotentials (lmaxx) =  4
     file K.pbe-spn-kjpaw_psl.1.0.0.UPF: wavefunction(s)  3S renormalized
     file In.pbe-dn-rrkjus_psl.0.2.2.UPF: wavefunction(s)  5S renormalized
     Message from routine setup:
     using ibrav=0 with symmetry is DISCOURAGED, use correct ibrav instead

     K-points division:     npool     =       2
     R & G space division:  proc/nbgrp/npool/nimage =       4
     Subspace diagonalization in iterative solution of the eigenvalue problem:
     a serial algorithm will be used

     Using Slab Decomposition

     bravais-lattice index     =            0
     lattice parameter (alat)  =      14.8766  a.u.
     unit-cell volume          =    2328.0833 (a.u.)^3
     number of atoms/cell      =           10
     number of atomic types    =            4
     number of electrons       =        86.00
     number of Kohn-Sham states=           64
     kinetic-energy cutoff     =      30.0000  Ry
     charge density cutoff     =     240.0000  Ry
     scf convergence threshold =      1.0E-06
     mixing beta               =       0.7000
     number of iterations used =            8  plain     mixing
     Exchange-correlation=  SLA  PW   PBX  PBC
                           (   1   4   3   4   0   0   0)

     celldm(1)=  14.876628  celldm(2)=   0.000000  celldm(3)=   0.000000
     celldm(4)=   0.000000  celldm(5)=   0.000000  celldm(6)=   0.000000

     crystal axes: (cart. coord. in units of alat)
               a(1) = (   1.000000   0.000000   0.000000 )
               a(2) = (   0.500000   0.866025   0.000000 )
               a(3) = (   0.500000   0.288675   0.816497 )

     reciprocal axes: (cart. coord. in units 2 pi/alat)
               b(1) = (  1.000000 -0.577350 -0.408248 )
               b(2) = (  0.000000  1.154701 -0.408248 )
               b(3) = (  0.000000  0.000000  1.224745 )

     PseudoPot. # 1 for K  read from file:
     /lustre07/scratch/pragov/crystal_structure_design/utils/SSSP/K.pbe-spn-kjpaw_psl.1.0.0.UPF
     MD5 check sum: 7d58810084cac21f60fbe77ea2b688fd
     Pseudo is Projector augmented-wave + core cor, Zval =  9.0
     Generated using "atomic" code by A. Dal Corso  v.5.1
     Shape of augmentation charge: PSQ
     Using radial grid of 1165 points,  6 beta functions with:
                l(1) =   0
                l(2) =   0
                l(3) =   1
                l(4) =   1
                l(5) =   2
                l(6) =   2
     Q(r) pseudized with 0 coefficients

     PseudoPot. # 2 for Tl read from file:
     /lustre07/scratch/pragov/crystal_structure_design/utils/SSSP/Tl_pbe_v1.2.uspp.F.UPF
     MD5 check sum: b76cf1f7e72655a2b2c53cf6385d7059
     Pseudo is Ultrasoft + core correction, Zval = 13.0
     Generated by new atomic code, or converted to UPF format
     Using radial grid of  899 points,  6 beta functions with:
                l(1) =   0
                l(2) =   0
                l(3) =   1
                l(4) =   1
                l(5) =   2
                l(6) =   2
     Q(r) pseudized with  6 coefficients,  rinner =    1.100   1.100   1.100
                                                       1.100   1.100

     PseudoPot. # 3 for In read from file:
     /lustre07/scratch/pragov/crystal_structure_design/utils/SSSP/In.pbe-dn-rrkjus_psl.0.2.2.UPF
     MD5 check sum: 25e7c42c3b55b68f4bf926be2e7201a4
     Pseudo is Ultrasoft + core correction, Zval = 13.0
     Generated using "atomic" code by A. Dal Corso  v.5.0.99 svn rev. 10869
     Using radial grid of 1241 points,  6 beta functions with:
                l(1) =   0
                l(2) =   0
                l(3) =   1
                l(4) =   1
                l(5) =   2
                l(6) =   2
     Q(r) pseudized with 0 coefficients

     PseudoPot. # 4 for Cl read from file:
     /lustre07/scratch/pragov/crystal_structure_design/utils/SSSP/cl_pbe_v1.4.uspp.F.UPF
     MD5 check sum: fc6f6913ecf08c9257cb748ef0700058
     Pseudo is Ultrasoft + core correction, Zval =  7.0
     Generated by new atomic code, or converted to UPF format
     Using radial grid of  909 points,  6 beta functions with:
                l(1) =   0
                l(2) =   0
                l(3) =   1
                l(4) =   1
                l(5) =   2
                l(6) =   2
     Q(r) pseudized with  8 coefficients,  rinner =    1.300   1.300   1.300
                                                       1.300   1.300

     atomic species   valence    mass     pseudopotential
        K              9.00    39.09830     K ( 1.00)
        Tl            13.00   204.38000     Tl( 1.00)
        In            13.00   114.81800     In( 1.00)
        Cl             7.00    35.45000     Cl( 1.00)

     12 Sym. Ops., with inversion, found

                                    s                        frac. trans.

      isym =  1     identity

 cryst.   s( 1) = (     1          0          0      )
                  (     0          1          0      )
                  (     0          0          1      )

 cart.    s( 1) = (  1.0000000  0.0000000 -0.0000000 )
                  (  0.0000000  1.0000000  0.0000000 )
                  (  0.0000000  0.0000000  1.0000000 )

      isym =  2     180 deg rotation - cart. axis [1,0,0]

[...]

      isym =  3     120 deg rotation - cryst. axis [0,0,1]

[...]

      isym =  6     180 deg rotation - cryst. axis [1,1,0]

[...]

      isym =  7     inversion

[...]

      isym =  8     inv. 180 deg rotation - cart. axis [1,0,0]

[...]

      isym =  9     inv. 120 deg rotation - cryst. axis [0,0,1]

 cryst.   s( 9) = (     1         -1          0      )
                  (     1          0          0      )
                  (     1          0         -1      )

 cart.    s( 9) = (  0.5000000  0.8660254 -0.0000000 )
                  ( -0.8660254  0.5000000 -0.0000000 )
                  (  0.0000000  0.0000000 -1.0000000 )

[...]

 cryst.   s(10) = (     0          1          0      )
                  (    -1          1          0      )
                  (     0          1         -1      )

 cart.    s(10) = (  0.5000000 -0.8660254  0.0000000 )
                  (  0.8660254  0.5000000 -0.0000000 )
                  (  0.0000000  0.0000000 -1.0000000 )

[...]

      isym = 12     inv. 180 deg rotation - cryst. axis [1,1,0]

 cryst.   s(12) = (     1         -1          0      )
                  (     0         -1          0      )
                  (     0         -1          1      )

 cart.    s(12) = (  0.5000000 -0.8660254  0.0000000 )
                  ( -0.8660254 -0.5000000  0.0000000 )
                  (  0.0000000  0.0000000  1.0000000 )

   Cartesian axes

     site n.     atom                  positions (alat units)
         1           K   tau(   1) = (   1.5000000   0.8660254   0.6123724  )
         2           K   tau(   2) = (   0.5000000   0.2886751   0.2041241  )
         3           Tl  tau(   3) = (   1.0000000   0.5773503   0.4082483  )
         4           In  tau(   4) = (   0.0000000   0.0000000   0.0000000  )
         5           Cl  tau(   5) = (   1.0000000   0.2639045   0.1866087  )
         6           Cl  tau(   6) = (   0.7285480   0.4206274   0.6298879  )
         7           Cl  tau(   7) = (   1.0000000   0.8907960   0.6298879  )
         8           Cl  tau(   8) = (   0.7285480   0.7340732   0.1866087  )
         9           Cl  tau(   9) = (   1.2714520   0.4206274   0.6298879  )
        10           Cl  tau(  10) = (   1.2714520   0.7340732   0.1866087  )

   Crystallographic axes

     site n.     atom                  positions (cryst. coord.)
         1           K   tau(   1) = (  0.7500000  0.7500000  0.7500000  )
         2           K   tau(   2) = (  0.2500000  0.2500000  0.2500000  )
         3           Tl  tau(   3) = (  0.5000000  0.5000000  0.5000000  )
         4           In  tau(   4) = (  0.0000000  0.0000000  0.0000000  )
         5           Cl  tau(   5) = (  0.7714520  0.2285480  0.2285480  )
         6           Cl  tau(   6) = (  0.2285480  0.2285480  0.7714520  )
         7           Cl  tau(   7) = (  0.2285480  0.7714520  0.7714520  )
         8           Cl  tau(   8) = (  0.2285480  0.7714520  0.2285480  )
         9           Cl  tau(   9) = (  0.7714520  0.2285480  0.7714520  )
        10           Cl  tau(  10) = (  0.7714520  0.7714520  0.2285480  )

     number of k points=     6
                       cart. coord. in units 2pi/alat
        k(    1) = (   0.0000000   0.0000000   0.0000000), wk =   0.0740741
        k(    2) = (   0.0000000   0.0000000   0.4082483), wk =   0.1481481
        k(    3) = (   0.0000000   0.3849002  -0.1360828), wk =   0.4444444
        k(    4) = (   0.0000000   0.3849002   0.2721655), wk =   0.4444444
        k(    5) = (   0.0000000   0.3849002  -0.5443311), wk =   0.4444444
        k(    6) = (   0.3333333  -0.5773503   0.0000000), wk =   0.4444444

                       cryst. coord.
        k(    1) = (   0.0000000   0.0000000   0.0000000), wk =   0.0740741
        k(    2) = (   0.0000000   0.0000000   0.3333333), wk =   0.1481481
        k(    3) = (   0.0000000   0.3333333   0.0000000), wk =   0.4444444
        k(    4) = (   0.0000000   0.3333333   0.3333333), wk =   0.4444444
        k(    5) = (   0.0000000   0.3333333  -0.3333333), wk =   0.4444444
        k(    6) = (   0.3333333  -0.3333333  -0.0000000), wk =   0.4444444

     Check: negative core charge=   -0.000003

     Initial potential from superposition of free atoms

     starting charge      85.9537, renormalised to      86.0000

     negative rho (up, down):  1.432E-01 0.000E+00
     Starting wfcs are   58 randomized atomic wfcs +    6 random wfcs
     Checking if some PAW data can be deallocated...

     Self-consistent Calculation

     iteration #  1     ecut=    30.00 Ry     beta= 0.70
     Davidson diagonalization with overlap

     ethr =  1.00E-02,  avg # of iterations =  7.7

     Threshold (ethr) on eigenvalues was too large:
     Diagonalizing with lowered threshold

     Davidson diagonalization with overlap

[...]

     negative rho (up, down):  1.457E-01 0.000E+00

     total energy              =    -716.44081272 Ry
     estimated scf accuracy    <       0.39317177 Ry

[...]

     total energy              =    -716.57851275 Ry
     estimated scf accuracy    <       0.00000624 Ry

     iteration #  7     ecut=    30.00 Ry     beta= 0.70
     Davidson diagonalization with overlap

     ethr =  7.26E-09,  avg # of iterations =  2.0

     negative rho (up, down):  1.419E-01 0.000E+00

     End of self-consistent calculation

          k = 0.0000 0.0000 0.0000 (  6423 PWs)   bands (ev):

   -27.7120 -27.7117 -12.4967 -12.4967 -12.2523 -11.7909 -11.7909 -11.7909
   -11.5974 -11.5974 -11.5974 -11.1629 -11.1629 -11.1629 -11.1597 -11.1597
   -11.1597 -10.7990 -10.7990  -7.5606  -7.5605  -7.5605  -7.5538  -7.5538
    -4.1548  -1.5539  -1.5539  -1.5539  -0.7338  -0.4246  -0.4246  -0.4246
     0.4060   0.4060   0.4060   0.4629   0.4630   0.4630   0.4920   0.4920
     0.8986   0.8986   0.8986   5.7121   6.0081   6.1447   6.1447   6.1447
     7.1017   8.0133   8.0133   8.8228   8.8228   8.8228   9.3843   9.3843
     9.3846  10.0425  10.0425  10.0426  10.1805  10.8028  10.8032  10.8033

     occupation numbers
     1.0000   1.0000   1.0000   1.0000   1.0000   1.0000   1.0000   1.0000
     1.0000   1.0000   1.0000   1.0000   1.0000   1.0000   1.0000   1.0000
     1.0000   1.0000   1.0000   1.0000   1.0000   1.0000   1.0000   1.0000
     1.0000   1.0000   1.0000   1.0000   1.0000   1.0000   1.0000   1.0000
     1.0000   1.0000   1.0000   1.0000   1.0000   1.0000   1.0000   1.0000
     1.0000   1.0000   1.0000   0.0000   0.0000   0.0000   0.0000   0.0000
     0.0000   0.0000   0.0000   0.0000   0.0000   0.0000   0.0000   0.0000
     0.0000   0.0000   0.0000   0.0000   0.0000   0.0000   0.0000   0.0000

[...]

          k = 0.3333-0.5774 0.0000 (  6459 PWs)   bands (ev):

   -27.7118 -27.7118 -12.5117 -12.4980 -12.1968 -11.8387 -11.7991 -11.7980
   -11.5972 -11.5971 -11.5971 -11.1598 -11.1586 -11.1560 -11.1559 -11.1547
   -11.1518 -10.8187 -10.7921  -7.5832  -7.5694  -7.5606  -7.5604  -7.5604
    -3.3167  -2.8823  -1.3913  -1.1831  -0.7761  -0.3919  -0.3210  -0.1885
    -0.1090   0.1701   0.2096   0.2810   0.3099   0.4084   0.4908   0.6214
     0.6915   0.7911   1.6634   4.7021   6.7446   7.0347   7.2156   7.6176
     7.8674   8.2234   8.7279   8.8816   9.0258   9.1738   9.2743   9.2923
     9.4033   9.5327   9.5867   9.6180   9.7658   9.9001   9.9501  10.2277

     occupation numbers
     1.0000   1.0000   1.0000   1.0000   1.0000   1.0000   1.0000   1.0000
     1.0000   1.0000   1.0000   1.0000   1.0000   1.0000   1.0000   1.0000
     1.0000   1.0000   1.0000   1.0000   1.0000   1.0000   1.0000   1.0000
     1.0000   1.0000   1.0000   1.0000   1.0000   1.0000   1.0000   1.0000
     1.0000   1.0000   1.0000   1.0000   1.0000   1.0000   1.0000   1.0000
     1.0000   1.0000   1.0000   0.0000   0.0000   0.0000   0.0000   0.0000
     0.0000   0.0000   0.0000   0.0000   0.0000   0.0000   0.0000   0.0000
     0.0000   0.0000   0.0000   0.0000   0.0000   0.0000   0.0000   0.0000

     highest occupied, lowest unoccupied level (ev):     1.6634    4.5302

!    total energy              =    -716.57851448 Ry
     estimated scf accuracy    <       0.00000015 Ry

     The total energy is the sum of the following terms:
     one-electron contribution =    -252.95288513 Ry
     hartree contribution      =     164.84361172 Ry
     xc contribution           =    -189.02291501 Ry
     ewald contribution        =    -328.61476177 Ry
     one-center paw contrib.   =    -110.83156429 Ry
      -> PAW hartree energy AE =      74.94736255 Ry
      -> PAW hartree energy PS =     -74.52811575 Ry
      -> PAW xc energy AE      =    -132.37657371 Ry
      -> PAW xc energy PS      =      21.12576262 Ry
      -> total E_H with PAW    =     165.26285852 Ry
      -> total E_XC with PAW   =    -300.27372610 Ry

     convergence has been achieved in   7 iterations

     Writing all to output data dir bands_nm/myprefix.save/

     General routines

     Parallel routines

     PAW routines

   This run was terminated on:  13:45:26  16Jul2023

   JOB DONE.