     Program PWSCF v.7.1 starts on 14Jul2023 at  2:41: 1

     Reading input from espresso_17450.pwi
Warning: card &CELL ignored
Warning: card / ignored

     Current dimensions of program PWSCF are:
     Max number of different atomic species (ntypx) = 10
     Max number of k-points (npk) =  40000
     Max angular momentum in pseudopotentials (lmaxx) =  4
     file O.pbe-n-kjpaw_psl.0.1.UPF: wavefunction(s)  2P renormalized
     Message from routine setup:
     using ibrav=0 with symmetry is DISCOURAGED, use correct ibrav instead

     K-points division:     npool     =       2
     R & G space division:  proc/nbgrp/npool/nimage =       4
     Subspace diagonalization in iterative solution of the eigenvalue problem:
     a serial algorithm will be used

     Using Slab Decomposition

     bravais-lattice index     =            0
     lattice parameter (alat)  =      10.1016  a.u.
     unit-cell volume          =    1505.6418 (a.u.)^3
     number of atoms/cell      =           16
     number of atomic types    =            2
     number of electrons       =       128.00
     number of Kohn-Sham states=           64
     kinetic-energy cutoff     =      30.0000  Ry
     charge density cutoff     =     240.0000  Ry
     scf convergence threshold =      1.0E-06
     mixing beta               =       0.7000
     number of iterations used =            8  plain     mixing
     Exchange-correlation= SLA  PW   PBX  PBC
                           (   1   4   3   4   0   0   0)

     celldm(1)=  10.101571  celldm(2)=   0.000000  celldm(3)=   0.000000
     celldm(4)=   0.000000  celldm(5)=   0.000000  celldm(6)=   0.000000

     crystal axes: (cart. coord. in units of alat)
               a(1) = (   1.000000   0.000000   0.000000 )
               a(2) = (   0.000000   1.012325   0.000000 )
               a(3) = (   0.000000   0.000000   1.442895 )

     reciprocal axes: (cart. coord. in units 2 pi/alat)
               b(1) = (  1.000000  0.000000  0.000000 )
               b(2) = (  0.000000  0.987825  0.000000 )
               b(3) = (  0.000000  0.000000  0.693051 )

     PseudoPot. # 1 for W  read from file:
     /lustre07/scratch/pragov/crystal_structure_design/utils/SSSP/W_pbe_v1.2.uspp.F.UPF
     MD5 check sum: 9c083fa34c2a2ea0f02f1f893e16e1c8
     Pseudo is Ultrasoft + core correction, Zval = 14.0
     Generated by new atomic code, or converted to UPF format
     Using radial grid of  923 points,  8 beta functions with:
                l(1) =   0
                l(2) =   0
                l(3) =   0
                l(4) =   1
                l(5) =   1
                l(6) =   2
                l(7) =   2
                l(8) =   3
     Q(r) pseudized with  6 coefficients,  rinner =    1.350   1.350   1.350
                                                       1.350   1.350   1.350
                                                       1.350

     PseudoPot. # 2 for O  read from file:
     /lustre07/scratch/pragov/crystal_structure_design/utils/SSSP/O.pbe-n-kjpaw_psl.0.1.UPF
     MD5 check sum: 0234752ac141de4415c5fc33072bef88
     Pseudo is Projector augmented-wave + core cor, Zval =  6.0
     Generated using "atomic" code by A. Dal Corso  v.5.0.99 svn rev. 10869
     Shape of augmentation charge: BESSEL
     Using radial grid of 1095 points,  4 beta functions with:
                l(1) =   0
                l(2) =   0
                l(3) =   1
                l(4) =   1
     Q(r) pseudized with 0 coefficients

     atomic species   valence    mass     pseudopotential
        W             14.00   183.84000     W ( 1.00)
        O              6.00    15.99900     O ( 1.00)

      4 Sym. Ops. (no inversion) found ( 3 have fractional translation)

                                    s                        frac. trans.

      isym =  1     identity

 cryst.   s( 1) = (     1          0          0      )
                  (     0          1          0      )
                  (     0          0          1      )

 cart.    s( 1) = (  1.0000000  0.0000000  0.0000000 )
                  (  0.0000000  1.0000000  0.0000000 )
                  (  0.0000000  0.0000000  1.0000000 )

      isym =  2     180 deg rotation - cart. axis [0,0,1]

 cryst.   s( 2) = (    -1          0          0      )    f =(  0.5000000 )
                  (     0         -1          0      )       (  0.0000000 )
                  (     0          0          1      )       (  0.5000000 )

 cart.    s( 2) = ( -1.0000000  0.0000000  0.0000000 )    f =(  0.5000000 )
                  (  0.0000000 -1.0000000  0.0000000 )       (  0.0000000 )
                  (  0.0000000  0.0000000  1.0000000 )       (  0.7214477 )

[...]

      isym =  4     180 deg rotation - cart. axis [1,0,0]

 cryst.   s( 4) = (     1          0          0      )    f =( -0.5000000 )
                  (     0         -1          0      )       ( -0.5000000 )
                  (     0          0         -1      )       (  0.0000000 )

 cart.    s( 4) = (  1.0000000  0.0000000  0.0000000 )    f =( -0.5000000 )
                  (  0.0000000 -1.0000000  0.0000000 )       ( -0.5061626 )
                  (  0.0000000  0.0000000 -1.0000000 )       (  0.0000000 )

   Cartesian axes

     site n.     atom                  positions (alat units)
         1           W   tau(   1) = (   0.2511860   1.0121967   1.4147792  )
         2           W   tau(   2) = (   0.7511860   0.5062912   0.0281163  )
         3           W   tau(   3) = (   0.7488140   0.5060341   0.7495640  )
         4           W   tau(   4) = (   0.2488140   0.0001286   0.6933315  )
         5           O   tau(   5) = (   0.6918980   0.5092897   1.0885838  )
         6           O   tau(   6) = (   0.1918980   1.0091982   0.3543116  )
         7           O   tau(   7) = (   0.3081020   0.0031271   1.0757594  )
         8           O   tau(   8) = (   0.8081020   0.5030356   0.3671361  )
         9           O   tau(   9) = (   0.4688940   0.2794170   0.6783254  )
        10           O   tau(  10) = (   0.9688940   0.2267457   0.7645701  )
        11           O   tau(  11) = (   0.5311060   0.7855796   0.0431224  )
        12           O   tau(  12) = (   0.0311060   0.7329083   1.3997731  )
        13           O   tau(  13) = (   0.4741430   0.2765592   0.0416391  )
        14           O   tau(  14) = (   0.9741430   0.2296035   1.4012564  )
        15           O   tau(  15) = (   0.0258570   0.7357661   0.7630868  )
        16           O   tau(  16) = (   0.5258570   0.7827218   0.6798087  )

   Crystallographic axes

     site n.     atom                  positions (cryst. coord.)
         1           W   tau(   1) = (  0.2511860  0.9998730  0.9805140  )
         2           W   tau(   2) = (  0.7511860  0.5001270  0.0194860  )
         3           W   tau(   3) = (  0.7488140  0.4998730  0.5194860  )
         4           W   tau(   4) = (  0.2488140  0.0001270  0.4805140  )
         5           O   tau(   5) = (  0.6918980  0.5030890  0.7544440  )
         6           O   tau(   6) = (  0.1918980  0.9969110  0.2455560  )
         7           O   tau(   7) = (  0.3081020  0.0030890  0.7455560  )
         8           O   tau(   8) = (  0.8081020  0.4969110  0.2544440  )
         9           O   tau(   9) = (  0.4688940  0.2760150  0.4701140  )
        10           O   tau(  10) = (  0.9688940  0.2239850  0.5298860  )
        11           O   tau(  11) = (  0.5311060  0.7760150  0.0298860  )
        12           O   tau(  12) = (  0.0311060  0.7239850  0.9701140  )
        13           O   tau(  13) = (  0.4741430  0.2731920  0.0288580  )
        14           O   tau(  14) = (  0.9741430  0.2268080  0.9711420  )
        15           O   tau(  15) = (  0.0258570  0.7268080  0.5288580  )
        16           O   tau(  16) = (  0.5258570  0.7731920  0.4711420  )

     number of k points=     8
                       cart. coord. in units 2pi/alat
        k(    1) = (   0.0000000   0.0000000   0.0000000), wk =   0.0740741
        k(    2) = (   0.0000000   0.0000000   0.2310170), wk =   0.1481481
        k(    3) = (   0.0000000   0.3292749   0.0000000), wk =   0.1481481
        k(    4) = (   0.0000000   0.3292749   0.2310170), wk =   0.2962963
        k(    5) = (   0.3333333   0.0000000   0.0000000), wk =   0.1481481
        k(    6) = (   0.3333333   0.0000000   0.2310170), wk =   0.2962963
        k(    7) = (   0.3333333   0.3292749   0.0000000), wk =   0.2962963
        k(    8) = (   0.3333333   0.3292749   0.2310170), wk =   0.5925926

                       cryst. coord.
        k(    1) = (   0.0000000   0.0000000   0.0000000), wk =   0.0740741
        k(    2) = (   0.0000000   0.0000000   0.3333333), wk =   0.1481481
        k(    3) = (   0.0000000   0.3333333   0.0000000), wk =   0.1481481
        k(    4) = (   0.0000000   0.3333333   0.3333333), wk =   0.2962963
        k(    5) = (   0.3333333   0.0000000   0.0000000), wk =   0.1481481
        k(    6) = (   0.3333333   0.0000000   0.3333333), wk =   0.2962963
        k(    7) = (   0.3333333   0.3333333   0.0000000), wk =   0.2962963
        k(    8) = (   0.3333333   0.3333333   0.3333333), wk =   0.5925926

     Check: negative core charge=   -0.000010

     Initial potential from superposition of free atoms

     starting charge     127.5986, renormalised to     128.0000

     negative rho (up, down):  2.458E-01 0.000E+00
     Starting wfcs are  100 randomized atomic wfcs
     Checking if some PAW data can be deallocated...

     Self-consistent Calculation

     iteration #  1     ecut=    30.00 Ry     beta= 0.70
     Davidson diagonalization with overlap

     ethr =  1.00E-02,  avg # of iterations =  2.0

     negative rho (up, down):  2.306E-01 0.000E+00

     total energy              =   -1132.71626442 Ry
     estimated scf accuracy    <       6.87822933 Ry

[...]

     c_bands:  1 eigenvalues not converged
     ethr =  9.56E-05,  avg # of iterations =  7.9

[...]

     total energy              =   -1136.52909588 Ry
     estimated scf accuracy    <       0.00000227 Ry

     iteration # 22     ecut=    30.00 Ry     beta= 0.70
     Davidson diagonalization with overlap

     ethr =  1.77E-09,  avg # of iterations =  5.1

     negative rho (up, down):  2.343E-01 0.000E+00

     End of self-consistent calculation

          k = 0.0000 0.0000 0.0000 (  4177 PWs)   bands (ev):

   -68.9463 -68.9458 -68.9451 -68.9448 -33.1890 -33.1835 -33.1676 -33.1662
   -33.1659 -33.1641 -33.1277 -33.1232 -33.1007 -33.0979 -33.0977 -33.0952
   -12.4390 -12.1476 -11.8171 -11.6532 -11.6305 -11.6207 -10.7022 -10.6021
   -10.5659 -10.5641 -10.5224 -10.5207  -0.8469  -0.8074  -0.7442  -0.6146
    -0.5828  -0.3059   0.6986   0.8008   0.8152   0.8320   2.4860   2.4938
     2.6246   2.6928   2.9260   3.0817   3.0882   3.3265   3.3334   3.6215
     3.6252   3.8340   3.9481   4.4983   4.7117   4.7961   4.8482   4.8816
     4.9135   4.9369   4.9554   4.9740   5.5229   5.7214   5.7414   5.7931

     occupation numbers
     1.0000   1.0000   1.0000   1.0000   1.0000   1.0000   1.0000   1.0000
     1.0000   1.0000   1.0000   1.0000   1.0000   1.0000   1.0000   1.0000
     1.0000   1.0000   1.0000   1.0000   1.0000   1.0000   1.0000   1.0000
     1.0000   1.0000   1.0000   1.0000   1.0000   1.0000   1.0000   1.0000
     1.0000   1.0000   1.0000   1.0000   1.0000   1.0000   1.0000   1.0000
     1.0000   1.0000   1.0000   1.0000   1.0000   1.0000   1.0000   1.0000
     1.0000   1.0000   1.0000   1.0000   1.0000   1.0000   1.0000   1.0000
     1.0000   1.0000   1.0000   1.0000   1.0000   1.0000   1.0000   1.0000

[...]

          k = 0.3333 0.3293 0.2310 (  4182 PWs)   bands (ev):

   -68.9458 -68.9455 -68.9455 -68.9452 -33.1734 -33.1713 -33.1682 -33.1671
   -33.1535 -33.1516 -33.1412 -33.1392 -33.1127 -33.1113 -33.0966 -33.0954
   -12.0482 -11.9160 -11.7912 -11.5996 -11.4694 -11.3779 -11.0155 -10.9565
   -10.9383 -10.8916 -10.5907 -10.5676  -0.7421  -0.7301   0.0506   0.1368
     0.3050   0.3711   1.0079   1.2864   1.7248   1.7459   1.9104   1.9970
     2.1011   2.1769   2.2536   2.4380   2.5053   2.8011   2.8722   3.0513
     3.2341   3.4003   3.8070   4.0069   4.1155   4.2458   4.2696   4.5681
     4.6829   4.8434   4.8955   4.9545   5.0135   5.0888   5.4340   5.5302

     occupation numbers
     1.0000   1.0000   1.0000   1.0000   1.0000   1.0000   1.0000   1.0000
     1.0000   1.0000   1.0000   1.0000   1.0000   1.0000   1.0000   1.0000
     1.0000   1.0000   1.0000   1.0000   1.0000   1.0000   1.0000   1.0000
     1.0000   1.0000   1.0000   1.0000   1.0000   1.0000   1.0000   1.0000
     1.0000   1.0000   1.0000   1.0000   1.0000   1.0000   1.0000   1.0000
     1.0000   1.0000   1.0000   1.0000   1.0000   1.0000   1.0000   1.0000
     1.0000   1.0000   1.0000   1.0000   1.0000   1.0000   1.0000   1.0000
     1.0000   1.0000   1.0000   1.0000   1.0000   1.0000   1.0000   1.0000

     highest occupied level (ev):     5.8083

!    total energy              =   -1136.52909646 Ry
     estimated scf accuracy    <       0.00000036 Ry

     The total energy is the sum of the following terms:
     one-electron contribution =    -465.73382566 Ry
     hartree contribution      =     282.53459781 Ry
     xc contribution           =    -252.93056725 Ry
     ewald contribution        =    -586.12634501 Ry
     one-center paw contrib.   =    -114.27295634 Ry
      -> PAW hartree energy AE =       0.00000000 Ry
      -> PAW hartree energy PS =       0.00000000 Ry
      -> PAW xc energy AE      =       0.00000000 Ry
      -> PAW xc energy PS      =       0.00000000 Ry
      -> total E_H with PAW    =     282.53459781 Ry
      -> total E_XC with PAW   =    -252.93056725 Ry

     convergence has been achieved in  22 iterations

     Writing all to output data dir bands_nm/myprefix.save/

     General routines

     Parallel routines

     PAW routines

   This run was terminated on:   2:41:16  14Jul2023

   JOB DONE.