     Program PWSCF v.7.0 starts on  4Jun2023 at 21:33:47

     K-points division:     npool     =       2
     R & G space division:  proc/nbgrp/npool/nimage =       4

     Reading input from espresso_10148.pwi
Warning: card &CELL ignored
Warning: card / ignored

     Current dimensions of program PWSCF are:
     Max number of different atomic species (ntypx) = 10
     Max number of k-points (npk) =  40000
     Max angular momentum in pseudopotentials (lmaxx) =  4

     Using Slab Decomposition

     bravais-lattice index     =            0
     lattice parameter (alat)  =      13.8564  a.u.
     unit-cell volume          =    1752.8376 (a.u.)^3
     number of atoms/cell      =           10
     number of atomic types    =            3
     number of electrons       =        76.00
     number of Kohn-Sham states=           64
     kinetic-energy cutoff     =      30.0000  Ry
     charge density cutoff     =     240.0000  Ry
     scf convergence threshold =      1.0E-06
     mixing beta               =       0.7000
     number of iterations used =            8  plain     mixing
     Exchange-correlation=  SLA  PW   PBX  PBC
                           (   1   4   3   4   0   0   0)

     celldm(1)=  13.856365  celldm(2)=   0.000000  celldm(3)=   0.000000
     celldm(4)=   0.000000  celldm(5)=   0.000000  celldm(6)=   0.000000

     crystal axes: (cart. coord. in units of alat)
               a(1) = (   1.000000   0.000000   0.000000 )
               a(2) = (   0.544049   0.839054   0.000000 )
               a(3) = (   0.544049   0.295642   0.785243 )

     reciprocal axes: (cart. coord. in units 2 pi/alat)
               b(1) = (  1.000000 -0.648408 -0.448717 )
               b(2) = (  0.000000  1.191819 -0.448717 )
               b(3) = (  0.000000  0.000000  1.273491 )

     PseudoPot. # 1 for Li read from file:
     /home/pragov/projects/rrg-bengioy-ad/pragov/crystal_structure_design/SSSP/li_pbe_v1.4.uspp.F.UPF
     MD5 check sum: e912e257baa3777c20ea3d68f190483c
     Pseudo is Ultrasoft, Zval =  3.0
     Generated by new atomic code, or converted to UPF format
     Using radial grid of  751 points,  5 beta functions with:
                l(1) =   0
                l(2) =   0
                l(3) =   0
                l(4) =   1
                l(5) =   1
     Q(r) pseudized with 10 coefficients,  rinner =    1.150   1.150   1.150

     PseudoPot. # 2 for Sn read from file:
     /home/pragov/projects/rrg-bengioy-ad/pragov/crystal_structure_design/SSSP/Sn_pbe_v1.uspp.F.UPF
     MD5 check sum: 4cf58ce39ec5d5d420df3dd08604eb00
     Pseudo is Ultrasoft + core correction, Zval = 14.0
     Generated by new atomic code, or converted to UPF format
     Using radial grid of  891 points,  6 beta functions with:
                l(1) =   0
                l(2) =   0
                l(3) =   1
                l(4) =   1
                l(5) =   2
                l(6) =   2
     Q(r) pseudized with  6 coefficients,  rinner =    1.200   1.200   1.200
                                                       1.200   1.200

     PseudoPot. # 3 for Cl read from file:
     /home/pragov/projects/rrg-bengioy-ad/pragov/crystal_structure_design/SSSP/cl_pbe_v1.4.uspp.F.UPF
     MD5 check sum: fc6f6913ecf08c9257cb748ef0700058
     Pseudo is Ultrasoft + core correction, Zval =  7.0
     Generated by new atomic code, or converted to UPF format
     Using radial grid of  909 points,  6 beta functions with:
                l(1) =   0
                l(2) =   0
                l(3) =   1
                l(4) =   1
                l(5) =   2
                l(6) =   2
     Q(r) pseudized with  8 coefficients,  rinner =    1.300   1.300   1.300
                                                       1.300   1.300

     atomic species   valence    mass     pseudopotential
        Li             3.00     6.94000     Li( 1.00)
        Sn            14.00   118.71000     Sn( 1.00)
        Cl             7.00    35.45000     Cl( 1.00)

     No symmetry found

                                    s                        frac. trans.

      isym =  1     identity

 cryst.   s( 1) = (     1          0          0      )
                  (     0          1          0      )
                  (     0          0          1      )

 cart.    s( 1) = (  1.0000000 -0.0000000  0.0000000 )
                  (  0.0000000  1.0000000 -0.0000000 )
                  (  0.0000000  0.0000000  1.0000000 )

   Cartesian axes

     site n.     atom                  positions (alat units)
         1           Li  tau(   1) = (   1.4491356   0.7874766   0.5449571  )
         2           Li  tau(   2) = (   0.4050868   0.2201287   0.1523356  )
         3           Sn  tau(   3) = (   2.0845061   1.1327441   0.7838924  )
         4           Sn  tau(   4) = (   1.0404573   0.5653962   0.3912709  )
         5           Cl  tau(   5) = (   0.7086753   0.5941894   0.6585645  )
         6           Cl  tau(   6) = (   0.8841107   0.7119392   0.0218996  )
         7           Cl  tau(   7) = (   1.0783545   0.1453992   0.3240360  )
         8           Cl  tau(   8) = (   1.2086753   0.5539873   0.7166576  )
         9           Cl  tau(   9) = (   1.3841107   0.5430541   0.2659430  )
        10           Cl  tau(  10) = (   1.1224034   0.9218344   0.4145212  )

   Crystallographic axes

     site n.     atom                  positions (cryst. coord.)
         1           Li  tau(   1) = (  0.6939980  0.6939980  0.6939980  )
         2           Li  tau(   2) = (  0.1939980  0.1939980  0.1939980  )
         3           Sn  tau(   3) = (  0.9982800  0.9982800  0.9982800  )
         4           Sn  tau(   4) = (  0.4982800  0.4982800  0.4982800  )
         5           Cl  tau(   5) = (  0.0278890  0.4126570  0.8386760  )
         6           Cl  tau(   6) = (  0.4126570  0.8386760  0.0278890  )
         7           Cl  tau(   7) = (  0.8386760  0.0278890  0.4126570  )
         8           Cl  tau(   8) = (  0.5278890  0.3386760  0.9126570  )
         9           Cl  tau(   9) = (  0.9126570  0.5278890  0.3386760  )
        10           Cl  tau(  10) = (  0.3386760  0.9126570  0.5278890  )

     number of k points=    14
                       cart. coord. in units 2pi/alat
        k(    1) = (   0.0000000   0.0000000   0.0000000), wk =   0.0740741
        k(    2) = (   0.0000000   0.0000000   0.4244970), wk =   0.1481481
        k(    3) = (   0.0000000   0.3972730  -0.1495724), wk =   0.1481481
        k(    4) = (   0.0000000   0.3972730   0.2749246), wk =   0.1481481
        k(    5) = (   0.0000000   0.3972730  -0.5740694), wk =   0.1481481
        k(    6) = (   0.3333333  -0.2161359  -0.1495724), wk =   0.1481481
        k(    7) = (   0.3333333  -0.2161359   0.2749246), wk =   0.1481481
        k(    8) = (   0.3333333  -0.2161359  -0.5740694), wk =   0.1481481
        k(    9) = (   0.3333333   0.1811371  -0.2991448), wk =   0.1481481
        k(   10) = (   0.3333333   0.1811371   0.1253522), wk =   0.1481481
        k(   11) = (   0.3333333   0.1811371  -0.7236418), wk =   0.1481481
        k(   12) = (   0.3333333  -0.6134089  -0.0000000), wk =   0.1481481
        k(   13) = (   0.3333333  -0.6134089   0.4244970), wk =   0.1481481
        k(   14) = (   0.3333333  -0.6134089  -0.4244970), wk =   0.1481481

                       cryst. coord.
        k(    1) = (   0.0000000   0.0000000   0.0000000), wk =   0.0740741
        k(    2) = (   0.0000000   0.0000000   0.3333333), wk =   0.1481481
        k(    3) = (   0.0000000   0.3333333  -0.0000000), wk =   0.1481481
        k(    4) = (   0.0000000   0.3333333   0.3333333), wk =   0.1481481
        k(    5) = (   0.0000000   0.3333333  -0.3333333), wk =   0.1481481
        k(    6) = (   0.3333333  -0.0000000  -0.0000000), wk =   0.1481481
        k(    7) = (   0.3333333  -0.0000000   0.3333333), wk =   0.1481481
        k(    8) = (   0.3333333  -0.0000000  -0.3333333), wk =   0.1481481
        k(    9) = (   0.3333333   0.3333333  -0.0000000), wk =   0.1481481
        k(   10) = (   0.3333333   0.3333333   0.3333333), wk =   0.1481481
        k(   11) = (   0.3333333   0.3333333  -0.3333333), wk =   0.1481481
        k(   12) = (   0.3333333  -0.3333333   0.0000000), wk =   0.1481481
        k(   13) = (   0.3333333  -0.3333333   0.3333333), wk =   0.1481481
        k(   14) = (   0.3333333  -0.3333333  -0.3333333), wk =   0.1481481

     Initial potential from superposition of free atoms

     starting charge      73.0984, renormalised to      76.0000

     negative rho (up, down):  9.441E-02 0.000E+00
     Starting wfcs are   52 randomized atomic wfcs +   12 random wfcs

     Self-consistent Calculation

     iteration #  1     ecut=    30.00 Ry     beta= 0.70
     Davidson diagonalization with overlap

     ethr =  1.00E-02,  avg # of iterations =  8.3

     negative rho (up, down):  9.141E-02 0.000E+00

     total energy              =    -555.79739631 Ry
     estimated scf accuracy    <       0.87012297 Ry

[...]

     total energy              =    -556.14537034 Ry
     estimated scf accuracy    <       0.00000225 Ry

     iteration #  7     ecut=    30.00 Ry     beta= 0.70
     Davidson diagonalization with overlap

     ethr =  2.96E-09,  avg # of iterations =  3.9

     negative rho (up, down):  8.920E-02 0.000E+00

     End of self-consistent calculation

          k = 0.0000 0.0000 0.0000 (  4881 PWs)   bands (ev):

   -41.9932 -41.9929 -17.8261 -17.8261 -17.8198 -17.8198 -17.7998 -17.7998
   -17.7953 -17.7953 -17.7807 -17.7792 -11.7026 -11.2476 -11.1078 -11.1077
   -10.9752 -10.9751  -3.7732  -2.7068  -1.0072  -1.0072  -0.9157  -0.2112
    -0.2112  -0.1842   0.4107   0.5825   0.5825   1.0559   1.0658   1.0658
     1.2375   1.2375   1.4275   1.4275   1.9683   2.5611   6.1995   6.1995
     6.7616   7.4845   7.8708   7.8708   8.7758   9.8795   9.8795  10.5130
    10.5671  11.0981  11.0981  11.4874  12.0787  12.0787  12.0914  12.5500
    12.5500  12.6652  13.2467  13.4277  13.4277  14.3209  14.3210  14.3472

     occupation numbers
     1.0000   1.0000   1.0000   1.0000   1.0000   1.0000   1.0000   1.0000
     1.0000   1.0000   1.0000   1.0000   1.0000   1.0000   1.0000   1.0000
     1.0000   1.0000   1.0000   1.0000   1.0000   1.0000   1.0000   1.0000
     1.0000   1.0000   1.0000   1.0000   1.0000   1.0000   1.0000   1.0000
     1.0000   1.0000   1.0000   1.0000   1.0000   1.0000   0.0000   0.0000
     0.0000   0.0000   0.0000   0.0000   0.0000   0.0000   0.0000   0.0000
     0.0000   0.0000   0.0000   0.0000   0.0000   0.0000   0.0000   0.0000
     0.0000   0.0000   0.0000   0.0000   0.0000   0.0000   0.0000   0.0000

[...]

          k = 0.3333-0.6134-0.4245 (  4870 PWs)   bands (ev):

   -41.9930 -41.9929 -17.8244 -17.8240 -17.8215 -17.8211 -17.7991 -17.7988
   -17.7967 -17.7963 -17.7800 -17.7798 -11.4452 -11.4264 -11.1683 -11.1150
   -11.0186 -10.9854  -3.3221  -3.2896  -0.6604  -0.6265  -0.4582  -0.1657
    -0.0111   0.0985   0.2011   0.3710   0.5255   0.6731   0.7472   0.8776
     1.0196   1.1580   1.1838   1.2887   2.3101   2.3308   6.3261   6.4822
     6.7346   7.1490   7.2044   7.5805   9.9478  10.0312  10.6049  10.6905
    10.8470  10.9310  11.1033  11.3131  11.4733  11.6954  12.0199  12.2186
    12.4119  12.4923  13.0983  13.4565  13.5896  13.7326  14.5003  14.6401

     occupation numbers
     1.0000   1.0000   1.0000   1.0000   1.0000   1.0000   1.0000   1.0000
     1.0000   1.0000   1.0000   1.0000   1.0000   1.0000   1.0000   1.0000
     1.0000   1.0000   1.0000   1.0000   1.0000   1.0000   1.0000   1.0000
     1.0000   1.0000   1.0000   1.0000   1.0000   1.0000   1.0000   1.0000
     1.0000   1.0000   1.0000   1.0000   1.0000   1.0000   0.0000   0.0000
     0.0000   0.0000   0.0000   0.0000   0.0000   0.0000   0.0000   0.0000
     0.0000   0.0000   0.0000   0.0000   0.0000   0.0000   0.0000   0.0000
     0.0000   0.0000   0.0000   0.0000   0.0000   0.0000   0.0000   0.0000

     highest occupied, lowest unoccupied level (ev):     2.5611    6.0235

!    total energy              =    -556.14537134 Ry
     estimated scf accuracy    <       0.00000021 Ry

     The total energy is the sum of the following terms:
     one-electron contribution =    -230.55581811 Ry
     hartree contribution      =     146.02608050 Ry
     xc contribution           =    -158.57849905 Ry
     ewald contribution        =    -313.03713468 Ry

     convergence has been achieved in   7 iterations

     Writing all to output data dir calculations_bands/myprefix.save/

     General routines

     Parallel routines

   This run was terminated on:  21:35:19   4Jun2023

   JOB DONE.