     Program PWSCF v.7.1 starts on 14Jul2023 at  1:12:11

     Reading input from espresso_3925.pwi
Warning: card &CELL ignored
Warning: card / ignored

     Current dimensions of program PWSCF are:
     Max number of different atomic species (ntypx) = 10
     Max number of k-points (npk) =  40000
     Max angular momentum in pseudopotentials (lmaxx) =  4

     K-points division:     npool     =       2
     R & G space division:  proc/nbgrp/npool/nimage =       4
     Subspace diagonalization in iterative solution of the eigenvalue problem:
     a serial algorithm will be used

     Using Slab Decomposition

     bravais-lattice index     =            0
     lattice parameter (alat)  =      10.1641  a.u.
     unit-cell volume          =    1327.8361 (a.u.)^3
     number of atoms/cell      =           12
     number of atomic types    =            2
     number of electrons       =        96.00
     number of Kohn-Sham states=           64
     kinetic-energy cutoff     =      30.0000  Ry
     charge density cutoff     =     240.0000  Ry
     scf convergence threshold =      1.0E-06
     mixing beta               =       0.7000
     number of iterations used =            8  plain     mixing
     Exchange-correlation=  SLA  PW   PBX  PBC
                           (   1   4   3   4   0   0   0)

     celldm(1)=  10.164132  celldm(2)=   0.000000  celldm(3)=   0.000000
     celldm(4)=   0.000000  celldm(5)=   0.000000  celldm(6)=   0.000000

     crystal axes: (cart. coord. in units of alat)
               a(1) = (   1.000000   0.000000   0.000000 )
               a(2) = (   0.330256   0.943891   0.000000 )
               a(3) = (   0.622661   0.441813   1.339713 )

     reciprocal axes: (cart. coord. in units 2 pi/alat)
               b(1) = (  1.000000 -0.349888 -0.349385 )
               b(2) = (  0.000000  1.059444 -0.349385 )
               b(3) = (  0.000000  0.000000  0.746429 )

     PseudoPot. # 1 for V  read from file:
     /lustre07/scratch/pragov/crystal_structure_design/utils/SSSP/v_pbe_v1.4.uspp.F.UPF
     MD5 check sum: 22b79981416ebb76fdaf5b1b8640f6fb
     Pseudo is Ultrasoft + core correction, Zval = 13.0
     Generated by new atomic code, or converted to UPF format
     Using radial grid of  853 points,  6 beta functions with:
                l(1) =   0
                l(2) =   0
                l(3) =   1
                l(4) =   1
                l(5) =   2
                l(6) =   2
     Q(r) pseudized with  8 coefficients,  rinner =    1.100   1.100   1.100
                                                       1.100   1.100

     PseudoPot. # 2 for F  read from file:
     /lustre07/scratch/pragov/crystal_structure_design/utils/SSSP/f_pbe_v1.4.uspp.F.UPF
     MD5 check sum: 4c38b6a325caf53ec0e86aed9459de46
     Pseudo is Ultrasoft, Zval =  7.0
     Generated by new atomic code, or converted to UPF format
     Using radial grid of  799 points,  4 beta functions with:
                l(1) =   0
                l(2) =   0
                l(3) =   1
                l(4) =   1
     Q(r) pseudized with  8 coefficients,  rinner =    0.950   0.950   0.950

     atomic species   valence    mass     pseudopotential
        V             13.00    50.94150     V ( 1.00)
        F              7.00    18.99840     F ( 1.00)

     No symmetry found

                                    s                        frac. trans.

      isym =  1     identity

 cryst.   s( 1) = (     1          0          0      )
                  (     0          1          0      )
                  (     0          0          1      )

 cart.    s( 1) = (  1.0000000  0.0000000 -0.0000000 )
                  (  0.0000000  1.0000000 -0.0000000 )
                  (  0.0000000  0.0000000  1.0000000 )

   Cartesian axes

     site n.     atom                  positions (alat units)
         1           V   tau(   1) = (   0.3592229   0.9456259   0.0490482  )
         2           V   tau(   2) = (   1.3225342   0.2476749   0.7189045  )
         3           F   tau(   3) = (   1.0664012   1.0931443   1.2705888  )
         4           F   tau(   4) = (   0.8558950   0.5755557   1.1673384  )
         5           F   tau(   5) = (   1.4280385   0.9767361   0.8234208  )
         6           F   tau(   6) = (   1.4012623   0.4081965   0.9928328  )
         7           F   tau(   7) = (   1.0726645   0.4246427   0.6007325  )
         8           F   tau(   8) = (   0.8672047   0.9428777   0.7127606  )
         9           F   tau(   9) = (   0.5367382   0.9669235   0.3229766  )
        10           F   tau(  10) = (   0.5145962   0.3968846   0.4974822  )
        11           F   tau(  11) = (   1.0822208   0.8044335   0.1535646  )
        12           F   tau(  12) = (   0.8650433   0.2862493   0.0429043  )

   Crystallographic axes

     site n.     atom                  positions (cryst. coord.)
         1           V   tau(   1) = (  0.0112230  0.9847010  0.0366110  )
         2           V   tau(   2) = (  0.9847010  0.0112230  0.5366110  )
         3           F   tau(   3) = (  0.2399980  0.7142000  0.9484040  )
         4           F   tau(   4) = (  0.2466640  0.2019180  0.8713350  )
         5           F   tau(   5) = (  0.7985990  0.7471060  0.6146250  )
         6           F   tau(   6) = (  0.9115580  0.0855800  0.7410790  )
         7           F   tau(   7) = (  0.7142000  0.2399980  0.4484040  )
         8           F   tau(   8) = (  0.2882750  0.7498980  0.5320250  )
         9           F   tau(   9) = (  0.0855800  0.9115580  0.2410790  )
        10           F   tau(  10) = (  0.2019180  0.2466640  0.3713350  )
        11           F   tau(  11) = (  0.7471060  0.7985990  0.1146250  )
        12           F   tau(  12) = (  0.7498980  0.2882750  0.0320250  )

     number of k points=    14
                       cart. coord. in units 2pi/alat
        k(    1) = (   0.0000000   0.0000000   0.0000000), wk =   0.0740741
        k(    2) = (   0.0000000   0.0000000   0.2488096), wk =   0.1481481
        k(    3) = (   0.0000000   0.3531480  -0.1164618), wk =   0.1481481
        k(    4) = (   0.0000000   0.3531480   0.1323478), wk =   0.1481481
        k(    5) = (   0.0000000   0.3531480  -0.3652714), wk =   0.1481481
        k(    6) = (   0.3333333  -0.1166293  -0.1164618), wk =   0.1481481
        k(    7) = (   0.3333333  -0.1166293   0.1323478), wk =   0.1481481
        k(    8) = (   0.3333333  -0.1166293  -0.3652714), wk =   0.1481481
        k(    9) = (   0.3333333   0.2365187  -0.2329236), wk =   0.1481481
        k(   10) = (   0.3333333   0.2365187   0.0158860), wk =   0.1481481
        k(   11) = (   0.3333333   0.2365187  -0.4817332), wk =   0.1481481
        k(   12) = (   0.3333333  -0.4697773   0.0000000), wk =   0.1481481
        k(   13) = (   0.3333333  -0.4697773   0.2488096), wk =   0.1481481
        k(   14) = (   0.3333333  -0.4697773  -0.2488096), wk =   0.1481481

                       cryst. coord.
        k(    1) = (   0.0000000   0.0000000   0.0000000), wk =   0.0740741
        k(    2) = (   0.0000000   0.0000000   0.3333333), wk =   0.1481481
        k(    3) = (   0.0000000   0.3333333  -0.0000000), wk =   0.1481481
        k(    4) = (   0.0000000   0.3333333   0.3333333), wk =   0.1481481
        k(    5) = (   0.0000000   0.3333333  -0.3333333), wk =   0.1481481
        k(    6) = (   0.3333333  -0.0000000  -0.0000000), wk =   0.1481481
        k(    7) = (   0.3333333  -0.0000000   0.3333333), wk =   0.1481481
        k(    8) = (   0.3333333  -0.0000000  -0.3333333), wk =   0.1481481
        k(    9) = (   0.3333333   0.3333333  -0.0000000), wk =   0.1481481
        k(   10) = (   0.3333333   0.3333333   0.3333333), wk =   0.1481481
        k(   11) = (   0.3333333   0.3333333  -0.3333333), wk =   0.1481481
        k(   12) = (   0.3333333  -0.3333333  -0.0000000), wk =   0.1481481
        k(   13) = (   0.3333333  -0.3333333   0.3333333), wk =   0.1481481
        k(   14) = (   0.3333333  -0.3333333  -0.3333333), wk =   0.1481481

     Check: negative core charge=   -0.000003

     Initial potential from superposition of free atoms

     starting charge      95.9975, renormalised to      96.0000

     negative rho (up, down):  1.514E-03 0.000E+00
     Starting wfcs are   60 randomized atomic wfcs +    4 random wfcs

     Self-consistent Calculation

     iteration #  1     ecut=    30.00 Ry     beta= 0.70
     Davidson diagonalization with overlap

     ethr =  1.00E-02,  avg # of iterations =  6.9

     negative rho (up, down):  5.918E-03 0.000E+00

     total energy              =    -774.17759293 Ry
     estimated scf accuracy    <       4.35692931 Ry

[...]

     total energy              =    -776.92120888 Ry
     estimated scf accuracy    <       0.00000370 Ry

     iteration # 12     ecut=    30.00 Ry     beta= 0.70
     Davidson diagonalization with overlap

     ethr =  3.85E-09,  avg # of iterations =  1.0

     negative rho (up, down):  4.032E-03 0.000E+00

     End of self-consistent calculation

          k = 0.0000 0.0000 0.0000 (  3663 PWs)   bands (ev):

   -66.4485 -66.4483 -40.3377 -40.3270 -40.2805 -40.2803 -40.2749 -40.2746
   -23.3143 -23.1495 -22.5471 -22.5454 -22.1876 -22.1641 -21.9077 -21.8879
   -21.8705 -21.8608  -6.4636  -5.6497  -5.5134  -5.4297  -5.3623  -5.3543
    -5.2163  -4.9751  -4.9467  -4.9311  -4.6863  -4.6845  -4.2659  -4.2198
    -3.9040  -3.8249  -3.5803  -3.4675  -3.2895  -3.2055  -2.9326  -2.8786
    -2.7835  -2.7688  -2.7303  -2.6977  -2.5450  -2.5441  -2.0121  -1.9184
     1.1623   1.2071   1.2390   1.2412   1.2844   1.2887   1.9621   2.9737
     4.1801   4.2624   6.6479   9.8228  10.1743  12.0198  12.4159  12.6302

     occupation numbers
     1.0000   1.0000   1.0000   1.0000   1.0000   1.0000   1.0000   1.0000
     1.0000   1.0000   1.0000   1.0000   1.0000   1.0000   1.0000   1.0000
     1.0000   1.0000   1.0000   1.0000   1.0000   1.0000   1.0000   1.0000
     1.0000   1.0000   1.0000   1.0000   1.0000   1.0000   1.0000   1.0000
     1.0000   1.0000   1.0000   1.0000   1.0000   1.0000   1.0000   1.0000
     1.0000   1.0000   1.0000   1.0000   1.0000   1.0000   1.0000   1.0000
     0.0000   0.0000   0.0000   0.0000   0.0000   0.0000   0.0000   0.0000
     0.0000   0.0000   0.0000   0.0000   0.0000   0.0000   0.0000   0.0000

[...]

          k = 0.3333-0.4698-0.2488 (  3682 PWs)   bands (ev):

   -66.4485 -66.4483 -40.3357 -40.3299 -40.2809 -40.2806 -40.2753 -40.2746
   -23.2646 -23.1900 -22.5224 -22.4936 -22.1971 -22.1807 -21.9235 -21.9167
   -21.8825 -21.8767  -6.2722  -5.8477  -5.5422  -5.5040  -5.2676  -5.2306
    -5.0625  -5.0079  -4.9806  -4.8630  -4.8099  -4.7665  -4.0801  -3.9997
    -3.9256  -3.8470  -3.5196  -3.5076  -3.1605  -3.1082  -3.0463  -2.9683
    -2.8780  -2.8396  -2.8120  -2.7361  -2.6923  -2.6525  -2.0737  -2.0420
     1.2020   1.2071   1.2403   1.2430   1.2764   1.2831   2.1971   2.7253
     4.1466   4.2028   9.0595   9.5060   9.5827  10.0879  11.1776  11.5073

     occupation numbers
     1.0000   1.0000   1.0000   1.0000   1.0000   1.0000   1.0000   1.0000
     1.0000   1.0000   1.0000   1.0000   1.0000   1.0000   1.0000   1.0000
     1.0000   1.0000   1.0000   1.0000   1.0000   1.0000   1.0000   1.0000
     1.0000   1.0000   1.0000   1.0000   1.0000   1.0000   1.0000   1.0000
     1.0000   1.0000   1.0000   1.0000   1.0000   1.0000   1.0000   1.0000
     1.0000   1.0000   1.0000   1.0000   1.0000   1.0000   1.0000   1.0000
     0.0000   0.0000   0.0000   0.0000   0.0000   0.0000   0.0000   0.0000
     0.0000   0.0000   0.0000   0.0000   0.0000   0.0000   0.0000   0.0000

     highest occupied, lowest unoccupied level (ev):    -1.9184    1.1623

!    total energy              =    -776.92120891 Ry
     estimated scf accuracy    <       0.00000049 Ry

     The total energy is the sum of the following terms:
     one-electron contribution =    -628.39182459 Ry
     hartree contribution      =     344.30750102 Ry
     xc contribution           =    -131.49640753 Ry
     ewald contribution        =    -361.34047780 Ry

     convergence has been achieved in  12 iterations

     Writing all to output data dir bands_nm/myprefix.save/

     General routines

     Parallel routines

   This run was terminated on:   1:12:27  14Jul2023

   JOB DONE.