     Program PWSCF v.7.1 starts on 15Jul2023 at 14:15:58

     Reading input from espresso_8983.pwi
Warning: card &CELL ignored
Warning: card / ignored

     Current dimensions of program PWSCF are:
     Max number of different atomic species (ntypx) = 10
     Max number of k-points (npk) =  40000
     Max angular momentum in pseudopotentials (lmaxx) =  4
     file Fe.pbe-spn-kjpaw_psl.0.2.1.UPF: wavefunction(s)  3D renormalized
     file O.pbe-n-kjpaw_psl.0.1.UPF: wavefunction(s)  2P renormalized
     Message from routine setup:
     the system is metallic, specify occupations
     Message from routine setup:
     using ibrav=0 with symmetry is DISCOURAGED, use correct ibrav instead

     K-points division:     npool     =       2
     R & G space division:  proc/nbgrp/npool/nimage =       4
     Subspace diagonalization in iterative solution of the eigenvalue problem:
     a serial algorithm will be used

     Using Slab Decomposition

     bravais-lattice index     =            0
     lattice parameter (alat)  =       9.9540  a.u.
     unit-cell volume          =    1387.1634 (a.u.)^3
     number of atoms/cell      =           12
     number of atomic types    =            4
     number of electrons       =       105.00 (up:  55.00, down:  50.00)
     number of Kohn-Sham states=           64
     kinetic-energy cutoff     =      30.0000  Ry
     charge density cutoff     =     240.0000  Ry
     scf convergence threshold =      1.0E-06
     mixing beta               =       0.7000
     number of iterations used =            8  plain     mixing
     Exchange-correlation= SLA  PW   PBX  PBC
                           (   1   4   3   4   0   0   0)

     celldm(1)=   9.954000  celldm(2)=   0.000000  celldm(3)=   0.000000
     celldm(4)=   0.000000  celldm(5)=   0.000000  celldm(6)=   0.000000

     crystal axes: (cart. coord. in units of alat)
               a(1) = (   1.000000   0.000000   0.000000 )
               a(2) = (   0.442665   0.896687   0.000000 )
               a(3) = (   0.104526   0.064968   1.568533 )

     reciprocal axes: (cart. coord. in units 2 pi/alat)
               b(1) = (  1.000000 -0.493667 -0.046192 )
               b(2) = (  0.000000  1.115216 -0.046192 )
               b(3) = (  0.000000  0.000000  0.637538 )

     PseudoPot. # 1 for Tl read from file:
     /lustre07/scratch/pragov/crystal_structure_design/utils/SSSP/Tl_pbe_v1.2.uspp.F.UPF
     MD5 check sum: b76cf1f7e72655a2b2c53cf6385d7059
     Pseudo is Ultrasoft + core correction, Zval = 13.0
     Generated by new atomic code, or converted to UPF format
     Using radial grid of  899 points,  6 beta functions with:
                l(1) =   0
                l(2) =   0
                l(3) =   1
                l(4) =   1
                l(5) =   2
                l(6) =   2
     Q(r) pseudized with  6 coefficients,  rinner =    1.100   1.100   1.100
                                                       1.100   1.100

     PseudoPot. # 2 for Cr read from file:
     /lustre07/scratch/pragov/crystal_structure_design/utils/SSSP/cr_pbe_v1.5.uspp.F.UPF
     MD5 check sum: 0d52af634a40206e4dee301ad30da4bf
     Pseudo is Ultrasoft + core correction, Zval = 14.0
     Generated by new atomic code, or converted to UPF format
     Using radial grid of  857 points,  6 beta functions with:
                l(1) =   0
                l(2) =   0
                l(3) =   1
                l(4) =   1
                l(5) =   2
                l(6) =   2
     Q(r) pseudized with  8 coefficients,  rinner =    0.950   0.950   0.950
                                                       0.950   0.950

     PseudoPot. # 3 for Fe read from file:
     /lustre07/scratch/pragov/crystal_structure_design/utils/SSSP/Fe.pbe-spn-kjpaw_psl.0.2.1.UPF
     MD5 check sum: e86618425769142926afa95317d90200
     Pseudo is Projector augmented-wave + core cor, Zval = 16.0
     Generated using "atomic" code by A. Dal Corso  v.5.0.99 svn rev. 10869
     Shape of augmentation charge: PSQ
     Using radial grid of 1191 points,  6 beta functions with:
                l(1) =   0
                l(2) =   0
                l(3) =   1
                l(4) =   1
                l(5) =   2
                l(6) =   2
     Q(r) pseudized with 0 coefficients

     PseudoPot. # 4 for O  read from file:
     /lustre07/scratch/pragov/crystal_structure_design/utils/SSSP/O.pbe-n-kjpaw_psl.0.1.UPF
     MD5 check sum: 0234752ac141de4415c5fc33072bef88
     Pseudo is Projector augmented-wave + core cor, Zval =  6.0
     Generated using "atomic" code by A. Dal Corso  v.5.0.99 svn rev. 10869
     Shape of augmentation charge: BESSEL
     Using radial grid of 1095 points,  4 beta functions with:
                l(1) =   0
                l(2) =   0
                l(3) =   1
                l(4) =   1
     Q(r) pseudized with 0 coefficients

     atomic species   valence    mass     pseudopotential
        Tl            13.00   204.38000     Tl( 1.00)
        Cr            14.00    51.99610     Cr( 1.00)
        Fe            16.00    55.84500     Fe( 1.00)
        O              6.00    15.99900     O ( 1.00)

     Starting magnetic structure
     atomic species   magnetization
        Tl           0.000
        Cr           0.000
        Fe           0.000
        O            0.000

      2 Sym. Ops., with inversion, found

                                    s                        frac. trans.

      isym =  1     identity

 cryst.   s( 1) = (     1          0          0      )
                  (     0          1          0      )
                  (     0          0          1      )

 cart.    s( 1) = (  1.0000000  0.0000000  0.0000000 )
                  (  0.0000000  1.0000000  0.0000000 )
                  (  0.0000000  0.0000000  1.0000000 )

      isym =  2     inversion

 cryst.   s( 2) = (    -1          0          0      )
                  (     0         -1          0      )
                  (     0          0         -1      )

 cart.    s( 2) = ( -1.0000000  0.0000000  0.0000000 )
                  (  0.0000000 -1.0000000 -0.0000000 )
                  (  0.0000000  0.0000000 -1.0000000 )

   Cartesian axes

     site n.     atom                  positions (alat units)
         1           Tl  tau(   1) = (   0.0522629   0.0324840   0.7842665  )
         2           Cr  tau(   2) = (   0.6164794   0.3831724   1.2640133  )
         3           Cr  tau(   3) = (   0.9307110   0.5784828   0.3045197  )
         4           Fe  tau(   4) = (   0.0000000   0.0000000   0.0000000  )
         5           O   tau(   5) = (   0.5195149   0.3229042   0.9764494  )
         6           O   tau(   6) = (   1.0276755   0.6387510   0.5920836  )
         7           O   tau(   7) = (   0.9086510   0.2549403   1.3004801  )
         8           O   tau(   8) = (   0.6385394   0.7067150   0.2680529  )
         9           O   tau(   9) = (   0.9163611   0.2597325   0.2680529  )
        10           O   tau(  10) = (   0.6308293   0.7019227   1.3004801  )
        11           O   tau(  11) = (   0.4191863   0.2605450   1.4770154  )
        12           O   tau(  12) = (   1.1280041   0.7011102   0.0915176  )

   Crystallographic axes

     site n.     atom                  positions (cryst. coord.)
         1           Tl  tau(   1) = ( -0.0000000  0.0000000  0.5000000  )
         2           Cr  tau(   2) = (  0.3689330  0.3689330  0.8058570  )
         3           Cr  tau(   3) = (  0.6310670  0.6310670  0.1941430  )
         4           Fe  tau(   4) = (  0.0000000  0.0000000  0.0000000  )
         5           O   tau(   5) = (  0.3150040  0.3150040  0.6225240  )
         6           O   tau(   6) = (  0.6849960  0.6849960  0.3774760  )
         7           O   tau(   7) = (  0.7227240  0.2242420  0.8291060  )
         8           O   tau(   8) = (  0.2772760  0.7757580  0.1708940  )
         9           O   tau(   9) = (  0.7757580  0.2772760  0.1708940  )
        10           O   tau(  10) = (  0.2242420  0.7227240  0.8291060  )
        11           O   tau(  11) = (  0.2223380  0.2223380  0.9416540  )
        12           O   tau(  12) = (  0.7776620  0.7776620  0.0583460  )

     number of k points=    14
                       cart. coord. in units 2pi/alat
        k(    1) = (   0.0000000   0.0000000   0.0000000), wk =   0.0370370
        k(    2) = (   0.0000000   0.0000000   0.2125128), wk =   0.0740741
        k(    3) = (   0.0000000   0.3717387  -0.0153973), wk =   0.0740741
        k(    4) = (   0.0000000   0.3717387   0.1971155), wk =   0.0740741
        k(    5) = (   0.0000000   0.3717387  -0.2279101), wk =   0.0740741
        k(    6) = (   0.3333333  -0.1645555  -0.0153973), wk =   0.0740741
        k(    7) = (   0.3333333  -0.1645555   0.1971155), wk =   0.0740741
        k(    8) = (   0.3333333  -0.1645555  -0.2279101), wk =   0.0740741
        k(    9) = (   0.3333333   0.2071831  -0.0307945), wk =   0.0740741
        k(   10) = (   0.3333333   0.2071831   0.1817183), wk =   0.0740741
        k(   11) = (   0.3333333   0.2071831  -0.2433073), wk =   0.0740741
        k(   12) = (   0.3333333  -0.5362942   0.0000000), wk =   0.0740741
        k(   13) = (   0.3333333  -0.5362942   0.2125128), wk =   0.0740741
        k(   14) = (   0.3333333  -0.5362942  -0.2125128), wk =   0.0740741

                       cryst. coord.
        k(    1) = (   0.0000000   0.0000000   0.0000000), wk =   0.0370370
        k(    2) = (   0.0000000   0.0000000   0.3333333), wk =   0.0740741
        k(    3) = (   0.0000000   0.3333333   0.0000000), wk =   0.0740741
        k(    4) = (   0.0000000   0.3333333   0.3333333), wk =   0.0740741
        k(    5) = (   0.0000000   0.3333333  -0.3333333), wk =   0.0740741
        k(    6) = (   0.3333333   0.0000000  -0.0000000), wk =   0.0740741
        k(    7) = (   0.3333333   0.0000000   0.3333333), wk =   0.0740741
        k(    8) = (   0.3333333   0.0000000  -0.3333333), wk =   0.0740741
        k(    9) = (   0.3333333   0.3333333  -0.0000000), wk =   0.0740741
        k(   10) = (   0.3333333   0.3333333   0.3333333), wk =   0.0740741
        k(   11) = (   0.3333333   0.3333333  -0.3333333), wk =   0.0740741
        k(   12) = (   0.3333333  -0.3333333  -0.0000000), wk =   0.0740741
        k(   13) = (   0.3333333  -0.3333333   0.3333333), wk =   0.0740741
        k(   14) = (   0.3333333  -0.3333333  -0.3333333), wk =   0.0740741

     Check: negative core charge=   -0.000048
     Generating pointlists ...
     new r_m :   0.2393 (alat units)  2.3822 (a.u.) for type    1
     new r_m :   0.1276 (alat units)  1.2704 (a.u.) for type    2
     new r_m :   0.1574 (alat units)  1.5670 (a.u.) for type    3
     new r_m :   0.1276 (alat units)  1.2704 (a.u.) for type    4

     Initial potential from superposition of free atoms

     starting charge     102.9947, renormalised to     105.0000

     negative rho (up, down):  2.574E-02 2.574E-02
     Starting wfcs are   74 randomized atomic wfcs
     Checking if some PAW data can be deallocated...

     Self-consistent Calculation

     iteration #  1     ecut=    30.00 Ry     beta= 0.70
     Davidson diagonalization with overlap

     ethr =  1.00E-02,  avg # of iterations =  2.0

     negative rho (up, down):  2.579E-02 2.776E-02

     total energy              =   -1138.48232193 Ry
     estimated scf accuracy    <      24.70254224 Ry

     total magnetization       =     5.00 Bohr mag/cell
     absolute magnetization    =     5.00 Bohr mag/cell

[...]

     total energy              =   -1157.92942568 Ry
     estimated scf accuracy    <       0.00000867 Ry

[...]

     iteration # 21     ecut=    30.00 Ry     beta= 0.70
     Davidson diagonalization with overlap

     ethr =  8.26E-09,  avg # of iterations =  2.4

     negative rho (up, down):  2.499E-02 2.605E-02

     Magnetic moment per site  (integrated on atomic sphere of radius R)
     atom   1 (R=0.239)  charge= 11.0101  magn=  0.0030
     atom   2 (R=0.128)  charge=  9.6275  magn=  0.0592
     atom   3 (R=0.128)  charge=  9.6275  magn=  0.0592
     atom   4 (R=0.157)  charge= 13.1264  magn=  3.6357
     atom   5 (R=0.128)  charge=  4.4388  magn=  0.0445
     atom   6 (R=0.128)  charge=  4.4388  magn=  0.0445
     atom   7 (R=0.128)  charge=  4.4734  magn=  0.1023
     atom   8 (R=0.128)  charge=  4.4734  magn=  0.1023
     atom   9 (R=0.128)  charge=  4.4735  magn=  0.1022
     atom  10 (R=0.128)  charge=  4.4735  magn=  0.1022
     atom  11 (R=0.128)  charge=  4.4773  magn=  0.1199
     atom  12 (R=0.128)  charge=  4.4773  magn=  0.1199

     End of self-consistent calculation

 ------ SPIN UP ------------

          k = 0.0000 0.0000 0.0000 (  3881 PWs)   bands (ev):

   -87.5528 -69.4071 -69.4070 -53.0910 -53.0352 -52.9841 -40.8487 -40.8476
   -40.7723 -40.7720 -40.7601 -40.7596 -14.7399 -14.2099 -13.9045 -13.8323
   -13.7966 -13.7821 -13.6037 -13.5181  -6.1358  -6.1312  -6.0901  -6.0899
    -6.0772  -2.5438  -2.3884  -2.1032  -1.7398  -1.6083  -1.5421  -1.2679
    -0.8727  -0.7564  -0.6141  -0.5540  -0.5074  -0.3052  -0.1419   0.0102
     0.2826   0.4944   0.5278   0.7184   0.9650   1.0734   1.2923   1.4945
     1.8098   1.8974   2.2056   2.3171   2.5221   2.5783   2.8370   5.2423
     5.3864   5.5165   5.6185   6.8969   7.0158   7.0622   7.2370   7.2514

     occupation numbers
     1.0000   1.0000   1.0000   1.0000   1.0000   1.0000   1.0000   1.0000
     1.0000   1.0000   1.0000   1.0000   1.0000   1.0000   1.0000   1.0000
     1.0000   1.0000   1.0000   1.0000   1.0000   1.0000   1.0000   1.0000
     1.0000   1.0000   1.0000   1.0000   1.0000   1.0000   1.0000   1.0000
     1.0000   1.0000   1.0000   1.0000   1.0000   1.0000   1.0000   1.0000
     1.0000   1.0000   1.0000   1.0000   1.0000   1.0000   1.0000   1.0000
     1.0000   1.0000   1.0000   1.0000   1.0000   1.0000   1.0000   0.0000
     0.0000   0.0000   0.0000   0.0000   0.0000   0.0000   0.0000   0.0000

[...]

 ------ SPIN DOWN ----------

[...]

          k = 0.3333-0.5363-0.2125 (  3850 PWs)   bands (ev):

   -82.9320 -69.3155 -69.3154 -48.5933 -48.5815 -48.5551 -40.7449 -40.7434
   -40.6928 -40.6921 -40.6693 -40.6683 -14.0843 -14.0469 -14.0128 -13.6762
   -13.6102 -13.5770 -13.4430 -13.4402  -6.1236  -6.1201  -6.0884  -6.0805
    -6.0717  -2.0628  -1.5363  -1.4202  -1.3572  -1.1927  -1.1169  -1.0118
    -0.6344  -0.3918  -0.2290  -0.0371   0.0389   0.1911   0.4365   0.4926
     0.9384   1.1864   1.4938   1.5507   1.6053   1.8454   1.9897   2.2519
     2.2813   2.4558   4.0488   4.1185   4.3320   4.7701   5.0351   5.4213
     5.6083   5.7555   5.8949   6.7741   6.9213   7.0678   7.0910   7.5691

     occupation numbers
     1.0000   1.0000   1.0000   1.0000   1.0000   1.0000   1.0000   1.0000
     1.0000   1.0000   1.0000   1.0000   1.0000   1.0000   1.0000   1.0000
     1.0000   1.0000   1.0000   1.0000   1.0000   1.0000   1.0000   1.0000
     1.0000   1.0000   1.0000   1.0000   1.0000   1.0000   1.0000   1.0000
     1.0000   1.0000   1.0000   1.0000   1.0000   1.0000   1.0000   1.0000
     1.0000   1.0000   1.0000   1.0000   1.0000   1.0000   1.0000   1.0000
     1.0000   1.0000   0.0000   0.0000   0.0000   0.0000   0.0000   0.0000
     0.0000   0.0000   0.0000   0.0000   0.0000   0.0000   0.0000   0.0000

     highest occupied, lowest unoccupied level (ev):     2.9483    3.6206

!    total energy              =   -1157.92942771 Ry
     estimated scf accuracy    <       0.00000096 Ry

     The total energy is the sum of the following terms:
     one-electron contribution =    -822.78511495 Ry
     hartree contribution      =     448.73472661 Ry
     xc contribution           =    -199.90931611 Ry
     ewald contribution        =    -431.62061718 Ry
     one-center paw contrib.   =    -152.34910607 Ry
      -> PAW hartree energy AE =       0.00000000 Ry
      -> PAW hartree energy PS =       0.00000000 Ry
      -> PAW xc energy AE      =       0.00000000 Ry
      -> PAW xc energy PS      =       0.00000000 Ry
      -> total E_H with PAW    =     448.73472661 Ry
      -> total E_XC with PAW   =    -199.90931611 Ry

     total magnetization       =     5.00 Bohr mag/cell
     absolute magnetization    =     5.04 Bohr mag/cell

     convergence has been achieved in  21 iterations

     Writing all to output data dir bands_nm/myprefix.save/

     General routines

     Parallel routines

     PAW routines

   This run was terminated on:  14:17:32  15Jul2023

   JOB DONE.