     Program PWSCF v.7.0 starts on  5Jun2023 at 18:30:21

     K-points division:     npool     =       2
     R & G space division:  proc/nbgrp/npool/nimage =       4

     Reading input from espresso_11059.pwi
Warning: card &CELL ignored
Warning: card / ignored

     Current dimensions of program PWSCF are:
     Max number of different atomic species (ntypx) = 10
     Max number of k-points (npk) =  40000
     Max angular momentum in pseudopotentials (lmaxx) =  4
     Message from routine setup:
     using ibrav=0 with symmetry is DISCOURAGED, use correct ibrav instead

     Using Slab Decomposition

     bravais-lattice index     =            0
     lattice parameter (alat)  =      10.5009  a.u.
     unit-cell volume          =    1530.6885 (a.u.)^3
     number of atoms/cell      =           18
     number of atomic types    =            3
     number of electrons       =       122.00
     number of Kohn-Sham states=           64
     kinetic-energy cutoff     =      30.0000  Ry
     charge density cutoff     =     240.0000  Ry
     scf convergence threshold =      1.0E-06
     mixing beta               =       0.7000
     number of iterations used =            8  plain     mixing
     Exchange-correlation=  SLA  PW   PBX  PBC
                           (   1   4   3   4   0   0   0)

     celldm(1)=  10.500879  celldm(2)=   0.000000  celldm(3)=   0.000000
     celldm(4)=   0.000000  celldm(5)=   0.000000  celldm(6)=   0.000000

     crystal axes: (cart. coord. in units of alat)
               a(1) = (   1.000000   0.000000   0.000000 )
               a(2) = (  -0.522485   0.852648   0.000000 )
               a(3) = (   0.000000   0.000000   1.550386 )

     reciprocal axes: (cart. coord. in units 2 pi/alat)
               b(1) = (  1.000000  0.612779  0.000000 )
               b(2) = (  0.000000  1.172816  0.000000 )
               b(3) = (  0.000000  0.000000  0.645000 )

     PseudoPot. # 1 for Li read from file:
     /home/pragov/projects/rrg-bengioy-ad/pragov/crystal_structure_design/SSSP/li_pbe_v1.4.uspp.F.UPF
     MD5 check sum: e912e257baa3777c20ea3d68f190483c
     Pseudo is Ultrasoft, Zval =  3.0
     Generated by new atomic code, or converted to UPF format
     Using radial grid of  751 points,  5 beta functions with:
                l(1) =   0
                l(2) =   0
                l(3) =   0
                l(4) =   1
                l(5) =   1
     Q(r) pseudized with 10 coefficients,  rinner =    1.150   1.150   1.150

     PseudoPot. # 2 for V  read from file:
     /home/pragov/projects/rrg-bengioy-ad/pragov/crystal_structure_design/SSSP/v_pbe_v1.4.uspp.F.UPF
     MD5 check sum: 22b79981416ebb76fdaf5b1b8640f6fb
     Pseudo is Ultrasoft + core correction, Zval = 13.0
     Generated by new atomic code, or converted to UPF format
     Using radial grid of  853 points,  6 beta functions with:
                l(1) =   0
                l(2) =   0
                l(3) =   1
                l(4) =   1
                l(5) =   2
                l(6) =   2
     Q(r) pseudized with  8 coefficients,  rinner =    1.100   1.100   1.100
                                                       1.100   1.100

     PseudoPot. # 3 for F  read from file:
     /home/pragov/projects/rrg-bengioy-ad/pragov/crystal_structure_design/SSSP/f_pbe_v1.4.uspp.F.UPF
     MD5 check sum: 4c38b6a325caf53ec0e86aed9459de46
     Pseudo is Ultrasoft, Zval =  7.0
     Generated by new atomic code, or converted to UPF format
     Using radial grid of  799 points,  4 beta functions with:
                l(1) =   0
                l(2) =   0
                l(3) =   1
                l(4) =   1
     Q(r) pseudized with  8 coefficients,  rinner =    0.950   0.950   0.950

     atomic species   valence    mass     pseudopotential
        Li             3.00     6.94000     Li( 1.00)
        V             13.00    50.94150     V ( 1.00)
        F              7.00    18.99840     F ( 1.00)

      2 Sym. Ops. (no inversion) found ( 1 have fractional translation)

                                    s                        frac. trans.

      isym =  1     identity

 cryst.   s( 1) = (     1          0          0      )
                  (     0          1          0      )
                  (     0          0          1      )

 cart.    s( 1) = (  1.0000000  0.0000000  0.0000000 )
                  (  0.0000000  1.0000000  0.0000000 )
                  (  0.0000000  0.0000000  1.0000000 )

      isym =  2     180 deg rotation - cart. axis [0,0,1]

 cryst.   s( 2) = (    -1          0          0      )    f =(  0.0000000 )
                  (     0         -1          0      )       (  0.0000000 )
                  (     0          0          1      )       (  0.5000000 )

 cart.    s( 2) = ( -1.0000000 -0.0000000  0.0000000 )    f =( -0.0000000 )
                  (  0.0000000 -1.0000000  0.0000000 )       (  0.0000000 )
                  (  0.0000000  0.0000000  1.0000000 )       (  0.7751932 )

   Cartesian axes

     site n.     atom                  positions (alat units)
         1           Li  tau(   1) = (   0.3421768   0.3684055   0.0350961  )
         2           Li  tau(   2) = (   0.5894603   0.2299175   0.8228784  )
         3           Li  tau(   3) = (  -0.1119456   0.6227309   0.0476852  )
         4           Li  tau(   4) = (   0.1353380   0.4842429   0.8102893  )
         5           V   tau(   5) = (   0.8236795   0.0987461   0.3726168  )
         6           V   tau(   6) = (  -0.3461647   0.7539023   1.1478100  )
         7           F   tau(   7) = (   0.5371340   0.2592221   0.3009579  )
         8           F   tau(   8) = (   0.1275190   0.7859746   0.6217236  )
         9           F   tau(   9) = (   0.2134385   0.7118608   0.1391239  )
        10           F   tau(  10) = (  -0.1260184   0.3332593   0.6217236  )
        11           F   tau(  11) = (   0.4954484   0.5539247   0.9143171  )
        12           F   tau(  12) = (  -0.4246732   0.7978699   0.4318074  )
        13           F   tau(  13) = (   0.9021879   0.0547784   1.2070006  )
        14           F   tau(  14) = (  -0.0179337   0.2987236   0.1391239  )
        15           F   tau(  15) = (   0.6035332   0.5193890   1.3969168  )
        16           F   tau(  16) = (   0.2640763   0.1407876   0.9143171  )
        17           F   tau(  17) = (   0.3499957   0.0666737   1.3969168  )
        18           F   tau(  18) = (  -0.0596193   0.5934262   1.0761511  )

   Crystallographic axes

     site n.     atom                  positions (cryst. coord.)
         1           Li  tau(   1) = (  0.5679280  0.4320720  0.0226370  )
         2           Li  tau(   2) = (  0.7303490  0.2696510  0.5307570  )
         3           Li  tau(   3) = (  0.2696510  0.7303490  0.0307570  )
         4           Li  tau(   4) = (  0.4320720  0.5679280  0.5226370  )
         5           V   tau(   5) = (  0.8841890  0.1158110  0.2403380  )
         6           V   tau(   6) = (  0.1158110  0.8841890  0.7403380  )
         7           F   tau(   7) = (  0.6959800  0.3040200  0.1941180  )
         8           F   tau(   8) = (  0.6091480  0.9218040  0.4010120  )
         9           F   tau(   9) = (  0.6496520  0.8348820  0.0897350  )
        10           F   tau(  10) = (  0.0781960  0.3908520  0.4010120  )
        11           F   tau(  11) = (  0.8348820  0.6496520  0.5897350  )
        12           F   tau(  12) = (  0.0642450  0.9357550  0.2785160  )
        13           F   tau(  13) = (  0.9357550  0.0642450  0.7785160  )
        14           F   tau(  14) = (  0.1651180  0.3503480  0.0897350  )
        15           F   tau(  15) = (  0.9218040  0.6091480  0.9010120  )
        16           F   tau(  16) = (  0.3503480  0.1651180  0.5897350  )
        17           F   tau(  17) = (  0.3908520  0.0781960  0.9010120  )
        18           F   tau(  18) = (  0.3040200  0.6959800  0.6941180  )

     number of k points=    10
                       cart. coord. in units 2pi/alat
        k(    1) = (   0.0000000   0.0000000   0.0000000), wk =   0.0740741
        k(    2) = (   0.0000000   0.0000000   0.2150002), wk =   0.1481481
        k(    3) = (   0.0000000   0.3909388   0.0000000), wk =   0.1481481
        k(    4) = (   0.0000000   0.3909388   0.2150002), wk =   0.2962963
        k(    5) = (   0.3333333   0.2042598   0.0000000), wk =   0.1481481
        k(    6) = (   0.3333333   0.2042598   0.2150002), wk =   0.2962963
        k(    7) = (   0.3333333   0.5951986   0.0000000), wk =   0.1481481
        k(    8) = (   0.3333333   0.5951986   0.2150002), wk =   0.2962963
        k(    9) = (   0.3333333  -0.1866791   0.0000000), wk =   0.1481481
        k(   10) = (   0.3333333  -0.1866791   0.2150002), wk =   0.2962963

                       cryst. coord.
        k(    1) = (   0.0000000   0.0000000   0.0000000), wk =   0.0740741
        k(    2) = (   0.0000000   0.0000000   0.3333333), wk =   0.1481481
        k(    3) = (   0.0000000   0.3333333   0.0000000), wk =   0.1481481
        k(    4) = (   0.0000000   0.3333333   0.3333333), wk =   0.2962963
        k(    5) = (   0.3333333   0.0000000   0.0000000), wk =   0.1481481
        k(    6) = (   0.3333333   0.0000000   0.3333333), wk =   0.2962963
        k(    7) = (   0.3333333   0.3333333   0.0000000), wk =   0.1481481
        k(    8) = (   0.3333333   0.3333333   0.3333333), wk =   0.2962963
        k(    9) = (   0.3333333  -0.3333333   0.0000000), wk =   0.1481481
        k(   10) = (   0.3333333  -0.3333333   0.3333333), wk =   0.2962963

     Check: negative core charge=   -0.000003

     Initial potential from superposition of free atoms

     starting charge     120.1946, renormalised to     122.0000

     negative rho (up, down):  4.295E-04 0.000E+00
     Starting wfcs are   88 randomized atomic wfcs

     Self-consistent Calculation

     iteration #  1     ecut=    30.00 Ry     beta= 0.70
     Davidson diagonalization with overlap

     ethr =  1.00E-02,  avg # of iterations =  2.0

     negative rho (up, down):  4.244E-03 0.000E+00

     total energy              =    -930.81587703 Ry
     estimated scf accuracy    <       3.80205511 Ry

[...]

     c_bands:  1 eigenvalues not converged
     c_bands:  1 eigenvalues not converged
     ethr =  1.47E-09,  avg # of iterations = 12.7

[...]

     total energy              =    -933.09411989 Ry
     estimated scf accuracy    <       0.00000160 Ry

     iteration # 19     ecut=    30.00 Ry     beta= 0.70
     Davidson diagonalization with overlap

     ethr =  1.31E-09,  avg # of iterations =  1.5

     negative rho (up, down):  1.402E-03 0.000E+00

     End of self-consistent calculation

          k = 0.0000 0.0000 0.0000 (  4231 PWs)   bands (ev):

   -63.3611 -63.3611 -41.8628 -41.8626 -41.4913 -41.4910 -37.4674 -37.4667
   -37.0457 -37.0455 -37.0386 -37.0385 -20.8322 -20.7073 -20.4114 -20.3900
   -20.3214 -20.2328 -20.2321 -20.2114 -20.1041 -20.1040 -20.0941 -20.0913
    -3.6084  -3.5923  -3.4682  -3.4460  -3.2316  -3.0909  -3.0861  -3.0410
    -3.0125  -2.9420  -2.8653  -2.8637  -2.6137  -2.4743  -2.4247  -2.2438
    -2.1007  -2.1002  -1.7988  -1.6795  -1.4189  -1.3849  -1.2366  -1.2098
    -1.0738  -0.9896  -0.9412  -0.9284  -0.9255  -0.8274  -0.7831  -0.7671
    -0.7005  -0.6527  -0.5230  -0.4201   3.2820   3.2910   3.3315   3.3639

     occupation numbers
     1.0000   1.0000   1.0000   1.0000   1.0000   1.0000   1.0000   1.0000
     1.0000   1.0000   1.0000   1.0000   1.0000   1.0000   1.0000   1.0000
     1.0000   1.0000   1.0000   1.0000   1.0000   1.0000   1.0000   1.0000
     1.0000   1.0000   1.0000   1.0000   1.0000   1.0000   1.0000   1.0000
     1.0000   1.0000   1.0000   1.0000   1.0000   1.0000   1.0000   1.0000
     1.0000   1.0000   1.0000   1.0000   1.0000   1.0000   1.0000   1.0000
     1.0000   1.0000   1.0000   1.0000   1.0000   1.0000   1.0000   1.0000
     1.0000   1.0000   1.0000   1.0000   1.0000   0.0000   0.0000   0.0000

[...]

          k = 0.3333-0.1867 0.2150 (  4237 PWs)   bands (ev):

   -63.3612 -63.3611 -41.8630 -41.8626 -41.4915 -41.4912 -37.4680 -37.4675
   -37.0463 -37.0450 -37.0385 -37.0381 -20.7420 -20.7047 -20.4083 -20.3994
   -20.2788 -20.2780 -20.2539 -20.2324 -20.1475 -20.1356 -20.1050 -20.0575
    -3.6692  -3.6455  -3.4511  -3.4118  -3.1529  -3.1252  -3.0623  -3.0582
    -2.9171  -2.8403  -2.7992  -2.6162  -2.5856  -2.4227  -2.2733  -2.2148
    -2.1908  -2.0558  -1.7519  -1.6294  -1.6118  -1.4056  -1.4048  -1.2957
    -1.2839  -1.1610  -1.0962  -1.0557  -0.8448  -0.8379  -0.7843  -0.7839
    -0.7035  -0.6039  -0.5154  -0.4782   3.2759   3.2855   3.3876   3.4015

     occupation numbers
     1.0000   1.0000   1.0000   1.0000   1.0000   1.0000   1.0000   1.0000
     1.0000   1.0000   1.0000   1.0000   1.0000   1.0000   1.0000   1.0000
     1.0000   1.0000   1.0000   1.0000   1.0000   1.0000   1.0000   1.0000
     1.0000   1.0000   1.0000   1.0000   1.0000   1.0000   1.0000   1.0000
     1.0000   1.0000   1.0000   1.0000   1.0000   1.0000   1.0000   1.0000
     1.0000   1.0000   1.0000   1.0000   1.0000   1.0000   1.0000   1.0000
     1.0000   1.0000   1.0000   1.0000   1.0000   1.0000   1.0000   1.0000
     1.0000   1.0000   1.0000   1.0000   1.0000   0.0000   0.0000   0.0000

     highest occupied, lowest unoccupied level (ev):     3.3571    3.2855

!    total energy              =    -933.09411942 Ry
     estimated scf accuracy    <       0.00000079 Ry

     The total energy is the sum of the following terms:
     one-electron contribution =    -631.18498344 Ry
     hartree contribution      =     359.17874674 Ry
     xc contribution           =    -164.91268176 Ry
     ewald contribution        =    -496.17520095 Ry

     convergence has been achieved in  19 iterations

     Writing all to output data dir calculations_bands/myprefix.save/

     General routines

     Parallel routines

   This run was terminated on:  18:30:39   5Jun2023

   JOB DONE.