     Program PWSCF v.7.0 starts on 23Jun2023 at  5:14: 3

     K-points division:     npool     =       2
     R & G space division:  proc/nbgrp/npool/nimage =       4

     Reading input from espresso_9012.pwi
Warning: card &CELL ignored
Warning: card / ignored

     Current dimensions of program PWSCF are:
     Max number of different atomic species (ntypx) = 10
     Max number of k-points (npk) =  40000
     Max angular momentum in pseudopotentials (lmaxx) =  4
     Message from routine setup:
     using ibrav=0 with symmetry is DISCOURAGED, use correct ibrav instead

     Using Slab Decomposition

     bravais-lattice index     =            0
     lattice parameter (alat)  =      12.0108  a.u.
     unit-cell volume          =    2278.9408 (a.u.)^3
     number of atoms/cell      =           18
     number of atomic types    =            3
     number of electrons       =       144.00
     number of Kohn-Sham states=           90
     kinetic-energy cutoff     =      30.0000  Ry
     charge density cutoff     =     240.0000  Ry
     scf convergence threshold =      1.0E-06
     mixing beta               =       0.7000
     number of iterations used =            8  plain     mixing
     Exchange-correlation= PBE
                           (   1   4   3   4   0   0   0)

     celldm(1)=  12.010831  celldm(2)=   0.000000  celldm(3)=   0.000000
     celldm(4)=   0.000000  celldm(5)=   0.000000  celldm(6)=   0.000000

     crystal axes: (cart. coord. in units of alat)
               a(1) = (   1.000000   0.000000   0.000000 )
               a(2) = (   0.385142   0.940041   0.000000 )
               a(3) = (   0.253573   0.380838   1.399159 )

     reciprocal axes: (cart. coord. in units 2 pi/alat)
               b(1) = (  1.000000 -0.409707 -0.069714 )
               b(2) = (  0.000000  1.063783 -0.289552 )
               b(3) = (  0.000000  0.000000  0.714715 )

     PseudoPot. # 1 for Sr read from file:
     /home/pragov/projects/rrg-bengioy-ad/pragov/crystal_structure_design/SSSP/Sr_pbe_v1.uspp.F.UPF
     MD5 check sum: 6b418c05fbe9db5448babca5e47b7a5b
     Pseudo is Ultrasoft + core correction, Zval = 10.0
     Generated by new atomic code, or converted to UPF format
     Using radial grid of  883 points,  6 beta functions with:
                l(1) =   0
                l(2) =   0
                l(3) =   1
                l(4) =   1
                l(5) =   2
                l(6) =   2
     Q(r) pseudized with  6 coefficients,  rinner =    1.400   1.400   1.400
                                                       1.400   1.400

     PseudoPot. # 2 for Ti read from file:
     /home/pragov/projects/rrg-bengioy-ad/pragov/crystal_structure_design/SSSP/ti_pbe_v1.4.uspp.F.UPF
     MD5 check sum: 88a00a6731bd790ddea75d31a80cb452
     Pseudo is Ultrasoft + core correction, Zval = 12.0
     Generated by new atomic code, or converted to UPF format
     Using radial grid of  851 points,  6 beta functions with:
                l(1) =   0
                l(2) =   0
                l(3) =   1
                l(4) =   1
                l(5) =   2
                l(6) =   2
     Q(r) pseudized with  6 coefficients,  rinner =    1.000   1.000   1.000
                                                       1.000   1.000

     PseudoPot. # 3 for N  read from file:
     /home/pragov/projects/rrg-bengioy-ad/pragov/crystal_structure_design/SSSP/N.pbe-n-radius_5.UPF
     MD5 check sum: 16739722b17309cd8fe442a2ace49922
     Pseudo is Ultrasoft + core correction, Zval =  5.0
     Generated using "atomic" code by A. Dal Corso  v.5.1
     Using radial grid of 1085 points,  4 beta functions with:
                l(1) =   0
                l(2) =   0
                l(3) =   1
                l(4) =   1
     Q(r) pseudized with 0 coefficients

     atomic species   valence    mass     pseudopotential
        Sr            10.00    87.62000     Sr( 1.00)
        Ti            12.00    47.86700     Ti( 1.00)
        N              5.00    14.00700     N ( 1.00)

      2 Sym. Ops., with inversion, found

                                    s                        frac. trans.

      isym =  1     identity

 cryst.   s( 1) = (     1          0          0      )
                  (     0          1          0      )
                  (     0          0          1      )

 cart.    s( 1) = (  1.0000000  0.0000000 -0.0000000 )
                  (  0.0000000  1.0000000 -0.0000000 )
                  (  0.0000000  0.0000000  1.0000000 )

      isym =  2     inversion

 cryst.   s( 2) = (    -1          0          0      )
                  (     0         -1          0      )
                  (     0          0         -1      )

 cart.    s( 2) = ( -1.0000000 -0.0000000  0.0000000 )
                  (  0.0000000 -1.0000000  0.0000000 )
                  (  0.0000000  0.0000000 -1.0000000 )

   Cartesian axes

     site n.     atom                  positions (alat units)
         1           Sr  tau(   1) = (   1.0430274   0.5968118   0.2290829  )
         2           Sr  tau(   2) = (   0.5956873   0.7240672   1.1700760  )
         3           Sr  tau(   3) = (   1.0644424   0.5787172   1.3611717  )
         4           Sr  tau(   4) = (   0.5742723   0.7421618   0.0379872  )
         5           Sr  tau(   5) = (   1.0581174   0.6755991   0.7968350  )
         6           Sr  tau(   6) = (   0.5805973   0.6452799   0.6023239  )
         7           Sr  tau(   7) = (   0.7536972   1.1366363   0.8605736  )
         8           Sr  tau(   8) = (   0.8850175   0.1842427   0.5385852  )
         9           Ti  tau(   9) = (   1.2412507   1.0828462   1.0564111  )
        10           Ti  tau(  10) = (   0.3974641   0.2380327   0.3427477  )
        11           N   tau(  11) = (   1.3905443   0.8997426   0.8577501  )
        12           N   tau(  12) = (   0.2481704   0.4211364   0.5414087  )
        13           N   tau(  13) = (   1.4508823   1.1220159   1.2825851  )
        14           N   tau(  14) = (   0.1878324   0.1988630   0.1165737  )
        15           N   tau(  15) = (   0.9891012   0.9180617   1.1302839  )
        16           N   tau(  16) = (   0.6496135   0.4028172   0.2688750  )
        17           N   tau(  17) = (   0.8815512   0.9214927   0.4949357  )
        18           N   tau(  18) = (   0.7571635   0.3993862   0.9042232  )

   Crystallographic axes

     site n.     atom                  positions (cryst. coord.)
         1           Sr  tau(   1) = (  0.7825390  0.5685470  0.1637290  )
         2           Sr  tau(   2) = (  0.2174610  0.4314530  0.8362710  )
         3           Sr  tau(   3) = (  0.7324450  0.2215000  0.9728500  )
         4           Sr  tau(   4) = (  0.2675550  0.7785000  0.0271500  )
         5           Sr  tau(   5) = (  0.7257690  0.4879660  0.5695100  )
         6           Sr  tau(   6) = (  0.2742310  0.5120340  0.4304900  )
         7           Sr  tau(   7) = (  0.2280150  0.9599540  0.6150650  )
         8           Sr  tau(   8) = (  0.7719850  0.0400460  0.3849350  )
         9           Ti  tau(   9) = (  0.7239540  0.8460280  0.7550330  )
        10           Ti  tau(  10) = (  0.2760460  0.1539720  0.2449670  )
        11           N   tau(  11) = (  0.9621160  0.7087680  0.6130470  )
        12           N   tau(  12) = (  0.0378840  0.2912320  0.3869530  )
        13           N   tau(  13) = (  0.9017700  0.8222070  0.9166830  )
        14           N   tau(  14) = (  0.0982300  0.1777930  0.0833170  )
        15           N   tau(  15) = (  0.5341680  0.6493430  0.8078310  )
        16           N   tau(  16) = (  0.4658320  0.3506570  0.1921690  )
        17           N   tau(  17) = (  0.4695050  0.8369590  0.3537380  )
        18           N   tau(  18) = (  0.5304950  0.1630410  0.6462620  )

     number of k points=    14
                       cart. coord. in units 2pi/alat
        k(    1) = (   0.0000000   0.0000000   0.0000000), wk =   0.0740741
        k(    2) = (   0.0000000   0.0000000   0.2382384), wk =   0.1481481
        k(    3) = (   0.0000000   0.3545944  -0.0965172), wk =   0.1481481
        k(    4) = (   0.0000000   0.3545944   0.1417211), wk =   0.1481481
        k(    5) = (   0.0000000   0.3545944  -0.3347556), wk =   0.1481481
        k(    6) = (   0.3333333  -0.1365691  -0.0232380), wk =   0.1481481
        k(    7) = (   0.3333333  -0.1365691   0.2150004), wk =   0.1481481
        k(    8) = (   0.3333333  -0.1365691  -0.2614764), wk =   0.1481481
        k(    9) = (   0.3333333   0.2180253  -0.1197552), wk =   0.1481481
        k(   10) = (   0.3333333   0.2180253   0.1184831), wk =   0.1481481
        k(   11) = (   0.3333333   0.2180253  -0.3579936), wk =   0.1481481
        k(   12) = (   0.3333333  -0.4911635   0.0732792), wk =   0.1481481
        k(   13) = (   0.3333333  -0.4911635   0.3115176), wk =   0.1481481
        k(   14) = (   0.3333333  -0.4911635  -0.1649591), wk =   0.1481481

                       cryst. coord.
        k(    1) = (   0.0000000   0.0000000   0.0000000), wk =   0.0740741
        k(    2) = (   0.0000000   0.0000000   0.3333333), wk =   0.1481481
        k(    3) = (   0.0000000   0.3333333   0.0000000), wk =   0.1481481
        k(    4) = (   0.0000000   0.3333333   0.3333333), wk =   0.1481481
        k(    5) = (   0.0000000   0.3333333  -0.3333333), wk =   0.1481481
        k(    6) = (   0.3333333   0.0000000  -0.0000000), wk =   0.1481481
        k(    7) = (   0.3333333   0.0000000   0.3333333), wk =   0.1481481
        k(    8) = (   0.3333333   0.0000000  -0.3333333), wk =   0.1481481
        k(    9) = (   0.3333333   0.3333333   0.0000000), wk =   0.1481481
        k(   10) = (   0.3333333   0.3333333   0.3333333), wk =   0.1481481
        k(   11) = (   0.3333333   0.3333333  -0.3333333), wk =   0.1481481
        k(   12) = (   0.3333333  -0.3333333  -0.0000000), wk =   0.1481481
        k(   13) = (   0.3333333  -0.3333333   0.3333333), wk =   0.1481481
        k(   14) = (   0.3333333  -0.3333333  -0.3333333), wk =   0.1481481

     Check: negative core charge=   -0.000005

     Initial potential from superposition of free atoms

     starting charge     141.7306, renormalised to     144.0000

     negative rho (up, down):  5.166E-01 0.000E+00
     Starting wfcs are  156 randomized atomic wfcs

     Self-consistent Calculation

     iteration #  1     ecut=    30.00 Ry     beta= 0.70
     Davidson diagonalization with overlap

     ethr =  1.00E-02,  avg # of iterations =  2.0

     negative rho (up, down):  5.124E-01 0.000E+00

     total energy              =    -958.06919420 Ry
     estimated scf accuracy    <       8.48000029 Ry

[...]

     total energy              =    -962.34326102 Ry
     estimated scf accuracy    <       0.00000363 Ry

     iteration # 14     ecut=    30.00 Ry     beta= 0.70
     Davidson diagonalization with overlap

     ethr =  7.95E-10,  avg # of iterations =  3.0

     negative rho (up, down):  5.337E-01 0.000E+00

     End of self-consistent calculation

          k = 0.0000 0.0000 0.0000 (  6337 PWs)   bands (ev):

   -46.6912 -46.6912 -25.3319 -25.2977 -25.1595 -25.1454 -25.1321 -25.1154
   -24.9328 -24.8532 -23.0451 -23.0447 -23.0012 -23.0011 -22.9840 -22.9832
    -8.0277  -7.9648  -7.8277  -7.7685  -7.7223  -7.6552  -7.5855  -7.5093
    -7.4375  -7.4071  -7.3730  -7.3375  -7.2495  -7.2060  -7.1902  -7.1427
    -7.0683  -7.0580  -6.9809  -6.9327  -6.9083  -6.8710  -6.8511  -6.7193
    -3.2427  -2.6603  -2.5803  -2.4370  -2.4234  -2.3319  -2.1854  -2.1393
     6.1803   6.2941   6.5950   6.6506   6.9291   7.0188   7.1082   7.2282
     7.3262   7.3502   7.4447   7.4962   7.5667   7.5945   7.7196   7.7339
     7.7692   7.8859   8.0390   8.0896   8.1694   8.2844   8.6342   8.6509
     9.8410  10.4172  11.4106  11.5775  11.7433  12.0329  12.0931  12.2894
    12.5364  12.5692  12.6804  12.7799  13.0598  13.0639  13.2871  13.3033
    13.3456  13.5003

     occupation numbers
     1.0000   1.0000   1.0000   1.0000   1.0000   1.0000   1.0000   1.0000
     1.0000   1.0000   1.0000   1.0000   1.0000   1.0000   1.0000   1.0000
     1.0000   1.0000   1.0000   1.0000   1.0000   1.0000   1.0000   1.0000
     1.0000   1.0000   1.0000   1.0000   1.0000   1.0000   1.0000   1.0000
     1.0000   1.0000   1.0000   1.0000   1.0000   1.0000   1.0000   1.0000
     1.0000   1.0000   1.0000   1.0000   1.0000   1.0000   1.0000   1.0000
     1.0000   1.0000   1.0000   1.0000   1.0000   1.0000   1.0000   1.0000
     1.0000   1.0000   1.0000   1.0000   1.0000   1.0000   1.0000   1.0000
     1.0000   1.0000   1.0000   1.0000   1.0000   1.0000   1.0000   1.0000
     0.0000   0.0000   0.0000   0.0000   0.0000   0.0000   0.0000   0.0000
     0.0000   0.0000   0.0000   0.0000   0.0000   0.0000   0.0000   0.0000
     0.0000   0.0000

[...]

          k = 0.3333-0.4912-0.1650 (  6328 PWs)   bands (ev):

   -46.6912 -46.6911 -25.3139 -25.3026 -25.1602 -25.1464 -25.1301 -25.1236
   -24.9245 -24.8693 -23.0451 -23.0445 -23.0007 -23.0006 -22.9835 -22.9829
    -7.9150  -7.8549  -7.8080  -7.7902  -7.6734  -7.6445  -7.5662  -7.4813
    -7.4440  -7.4173  -7.4015  -7.3339  -7.2786  -7.2257  -7.1493  -7.1341
    -7.1212  -7.0530  -7.0506  -7.0227  -6.9739  -6.9222  -6.8682  -6.7910
    -2.7299  -2.6698  -2.5688  -2.5127  -2.4509  -2.4031  -2.2798  -2.2385
     6.3396   6.4569   6.5634   6.5867   6.8723   6.9529   7.0969   7.1878
     7.2679   7.3154   7.3531   7.4621   7.4762   7.5137   7.5823   7.6339
     7.6926   7.7852   8.1080   8.2109   8.3210   8.4014   8.5368   8.6780
    10.5483  10.8068  11.2146  11.3475  11.3813  11.6923  11.8119  12.0864
    12.1828  12.4248  12.5158  12.8040  12.8748  13.3067  13.3138  13.3800
    13.5524  13.6076

     occupation numbers
     1.0000   1.0000   1.0000   1.0000   1.0000   1.0000   1.0000   1.0000
     1.0000   1.0000   1.0000   1.0000   1.0000   1.0000   1.0000   1.0000
     1.0000   1.0000   1.0000   1.0000   1.0000   1.0000   1.0000   1.0000
     1.0000   1.0000   1.0000   1.0000   1.0000   1.0000   1.0000   1.0000
     1.0000   1.0000   1.0000   1.0000   1.0000   1.0000   1.0000   1.0000
     1.0000   1.0000   1.0000   1.0000   1.0000   1.0000   1.0000   1.0000
     1.0000   1.0000   1.0000   1.0000   1.0000   1.0000   1.0000   1.0000
     1.0000   1.0000   1.0000   1.0000   1.0000   1.0000   1.0000   1.0000
     1.0000   1.0000   1.0000   1.0000   1.0000   1.0000   1.0000   1.0000
     0.0000   0.0000   0.0000   0.0000   0.0000   0.0000   0.0000   0.0000
     0.0000   0.0000   0.0000   0.0000   0.0000   0.0000   0.0000   0.0000
     0.0000   0.0000

     highest occupied, lowest unoccupied level (ev):     8.7853    9.8410

!    total energy              =    -962.34326108 Ry
     estimated scf accuracy    <       0.00000040 Ry

     The total energy is the sum of the following terms:
     one-electron contribution =    -265.37673837 Ry
     hartree contribution      =     194.89528093 Ry
     xc contribution           =    -226.17259211 Ry
     ewald contribution        =    -665.68921153 Ry

     convergence has been achieved in  14 iterations

     Writing all to output data dir calculations_bands/myprefix.save/

     General routines

     Parallel routines

   This run was terminated on:   5:14:38  23Jun2023

   JOB DONE.