     Program PWSCF v.7.1 starts on 14Jul2023 at  2:10: 2

     Reading input from espresso_6849.pwi
Warning: card &CELL ignored
Warning: card / ignored

     Current dimensions of program PWSCF are:
     Max number of different atomic species (ntypx) = 10
     Max number of k-points (npk) =  40000
     Max angular momentum in pseudopotentials (lmaxx) =  4
     file O.pbe-n-kjpaw_psl.0.1.UPF: wavefunction(s)  2P renormalized

     K-points division:     npool     =       2
     R & G space division:  proc/nbgrp/npool/nimage =       4
     Subspace diagonalization in iterative solution of the eigenvalue problem:
     a serial algorithm will be used

     Using Slab Decomposition

     bravais-lattice index     =            0
     lattice parameter (alat)  =       9.9263  a.u.
     unit-cell volume          =    1434.3465 (a.u.)^3
     number of atoms/cell      =           16
     number of atomic types    =            3
     number of electrons       =       120.00
     number of Kohn-Sham states=           64
     kinetic-energy cutoff     =      30.0000  Ry
     charge density cutoff     =     240.0000  Ry
     scf convergence threshold =      1.0E-06
     mixing beta               =       0.7000
     number of iterations used =            8  plain     mixing
     Exchange-correlation= SLA  PW   PBX  PBC
                           (   1   4   3   4   0   0   0)

     celldm(1)=   9.926295  celldm(2)=   0.000000  celldm(3)=   0.000000
     celldm(4)=   0.000000  celldm(5)=   0.000000  celldm(6)=   0.000000

     crystal axes: (cart. coord. in units of alat)
               a(1) = (   1.000000   0.000000   0.000000 )
               a(2) = (   0.000300   1.024991   0.000000 )
               a(3) = (   0.000178   0.047034   1.430779 )

     reciprocal axes: (cart. coord. in units 2 pi/alat)
               b(1) = (  1.000000 -0.000293 -0.000115 )
               b(2) = (  0.000000  0.975618 -0.032071 )
               b(3) = (  0.000000  0.000000  0.698920 )

     PseudoPot. # 1 for Te read from file:
     /lustre07/scratch/pragov/crystal_structure_design/utils/SSSP/Te_pbe_v1.uspp.F.UPF
     MD5 check sum: c319670d6894cc26e93307826a071b75
     Pseudo is Ultrasoft + core correction, Zval =  6.0
     Generated by new atomic code, or converted to UPF format
     Using radial grid of  891 points,  5 beta functions with:
                l(1) =   0
                l(2) =   0
                l(3) =   1
                l(4) =   1
                l(5) =   2
     Q(r) pseudized with  6 coefficients,  rinner =    1.800   1.800   1.800
                                                       1.800   1.800

     PseudoPot. # 2 for W  read from file:
     /lustre07/scratch/pragov/crystal_structure_design/utils/SSSP/W_pbe_v1.2.uspp.F.UPF
     MD5 check sum: 9c083fa34c2a2ea0f02f1f893e16e1c8
     Pseudo is Ultrasoft + core correction, Zval = 14.0
     Generated by new atomic code, or converted to UPF format
     Using radial grid of  923 points,  8 beta functions with:
                l(1) =   0
                l(2) =   0
                l(3) =   0
                l(4) =   1
                l(5) =   1
                l(6) =   2
                l(7) =   2
                l(8) =   3
     Q(r) pseudized with  6 coefficients,  rinner =    1.350   1.350   1.350
                                                       1.350   1.350   1.350
                                                       1.350

     PseudoPot. # 3 for O  read from file:
     /lustre07/scratch/pragov/crystal_structure_design/utils/SSSP/O.pbe-n-kjpaw_psl.0.1.UPF
     MD5 check sum: 0234752ac141de4415c5fc33072bef88
     Pseudo is Projector augmented-wave + core cor, Zval =  6.0
     Generated using "atomic" code by A. Dal Corso  v.5.0.99 svn rev. 10869
     Shape of augmentation charge: BESSEL
     Using radial grid of 1095 points,  4 beta functions with:
                l(1) =   0
                l(2) =   0
                l(3) =   1
                l(4) =   1
     Q(r) pseudized with 0 coefficients

     atomic species   valence    mass     pseudopotential
        Te             6.00   127.60000     Te( 1.00)
        W             14.00   183.84000     W ( 1.00)
        O              6.00    15.99900     O ( 1.00)

     No symmetry found

                                    s                        frac. trans.

      isym =  1     identity

 cryst.   s( 1) = (     1          0          0      )
                  (     0          1          0      )
                  (     0          0          1      )

 cart.    s( 1) = (  1.0000000  0.0000000  0.0000000 )
                  (  0.0000000  1.0000000  0.0000000 )
                  (  0.0000000  0.0000000  1.0000000 )

   Cartesian axes

     site n.     atom                  positions (alat units)
         1           Te  tau(   1) = (   0.4998731   0.5385920   0.7160363  )
         2           W   tau(   2) = (   0.0022269   0.0263584   0.7316418  )
         3           W   tau(   3) = (   0.4983323   0.5333052   0.0004507  )
         4           W   tau(   4) = (   0.0000812   0.0214278   0.0165069  )
         5           O   tau(   5) = (   0.7073045   0.2430503   0.7851658  )
         6           O   tau(   6) = (   0.9180144   0.0187099   0.3645854  )
         7           O   tau(   7) = (   0.7097617   0.8650797   1.3759516  )
         8           O   tau(   8) = (   0.7914251   0.7539962   0.7848009  )
         9           O   tau(   9) = (   0.2076536   0.7359519   0.0614977  )
        10           O   tau(  10) = (   0.5917576   0.5296347   0.3602416  )
        11           O   tau(  11) = (   0.4093613   0.5520704   1.0741073  )
        12           O   tau(  12) = (   0.7911506   0.3525979   1.3764610  )
        13           O   tau(  13) = (   0.2082888   0.3234989   0.6519660  )
        14           O   tau(  14) = (   0.2921488   0.2242607   0.0619527  )
        15           O   tau(  15) = (   0.0825406   0.0390833   1.0795400  )
        16           O   tau(  16) = (   0.2931731   0.8364830   0.6529575  )

   Crystallographic axes

     site n.     atom                  positions (cryst. coord.)
         1           Te  tau(   1) = (  0.4996330  0.5024960  0.5004520  )
         2           W   tau(   2) = (  0.0021350  0.0022510  0.5113590  )
         3           W   tau(   3) = (  0.4981760  0.5202880  0.0003150  )
         4           W   tau(   4) = (  0.0000730  0.0203760  0.0115370  )
         5           O   tau(   5) = (  0.7071430  0.2119430  0.5487680  )
         6           O   tau(   6) = (  0.9179670  0.0065610  0.2548160  )
         7           O   tau(   7) = (  0.7093500  0.7998590  0.9616800  )
         8           O   tau(   8) = (  0.7911140  0.7104430  0.5485130  )
         9           O   tau(   9) = (  0.2074310  0.7160360  0.0429820  )
        10           O   tau(  10) = (  0.5915610  0.5051680  0.2517800  )
        11           O   tau(  11) = (  0.4090760  0.5041620  0.7507150  )
        12           O   tau(  12) = (  0.7908890  0.2998560  0.9620360  )
        13           O   tau(  13) = (  0.2081190  0.2947020  0.4556720  )
        14           O   tau(  14) = (  0.2920760  0.2168060  0.0433000  )
        15           O   tau(  15) = (  0.0824050  0.0035080  0.7545120  )
        16           O   tau(  16) = (  0.2928530  0.7951470  0.4563650  )

     number of k points=    14
                       cart. coord. in units 2pi/alat
        k(    1) = (   0.0000000   0.0000000   0.0000000), wk =   0.0740741
        k(    2) = (   0.0000000   0.0000000   0.2329733), wk =   0.1481481
        k(    3) = (   0.0000000   0.3252062  -0.0106905), wk =   0.1481481
        k(    4) = (   0.0000000   0.3252062   0.2222828), wk =   0.1481481
        k(    5) = (   0.0000000   0.3252062  -0.2436638), wk =   0.1481481
        k(    6) = (   0.3333333  -0.0000976  -0.0000383), wk =   0.1481481
        k(    7) = (   0.3333333  -0.0000976   0.2329350), wk =   0.1481481
        k(    8) = (   0.3333333  -0.0000976  -0.2330117), wk =   0.1481481
        k(    9) = (   0.3333333   0.3251085  -0.0107288), wk =   0.1481481
        k(   10) = (   0.3333333   0.3251085   0.2222445), wk =   0.1481481
        k(   11) = (   0.3333333   0.3251085  -0.2437021), wk =   0.1481481
        k(   12) = (   0.3333333  -0.3253038   0.0106521), wk =   0.1481481
        k(   13) = (   0.3333333  -0.3253038   0.2436254), wk =   0.1481481
        k(   14) = (   0.3333333  -0.3253038  -0.2223212), wk =   0.1481481

                       cryst. coord.
        k(    1) = (   0.0000000   0.0000000   0.0000000), wk =   0.0740741
        k(    2) = (   0.0000000   0.0000000   0.3333333), wk =   0.1481481
        k(    3) = (   0.0000000   0.3333333   0.0000000), wk =   0.1481481
        k(    4) = (   0.0000000   0.3333333   0.3333333), wk =   0.1481481
        k(    5) = (   0.0000000   0.3333333  -0.3333333), wk =   0.1481481
        k(    6) = (   0.3333333  -0.0000000  -0.0000000), wk =   0.1481481
        k(    7) = (   0.3333333  -0.0000000   0.3333333), wk =   0.1481481
        k(    8) = (   0.3333333  -0.0000000  -0.3333333), wk =   0.1481481
        k(    9) = (   0.3333333   0.3333333   0.0000000), wk =   0.1481481
        k(   10) = (   0.3333333   0.3333333   0.3333333), wk =   0.1481481
        k(   11) = (   0.3333333   0.3333333  -0.3333333), wk =   0.1481481
        k(   12) = (   0.3333333  -0.3333333  -0.0000000), wk =   0.1481481
        k(   13) = (   0.3333333  -0.3333333   0.3333333), wk =   0.1481481
        k(   14) = (   0.3333333  -0.3333333  -0.3333333), wk =   0.1481481

     Check: negative core charge=   -0.000009

     Initial potential from superposition of free atoms

     starting charge     119.6987, renormalised to     120.0000

     negative rho (up, down):  1.935E-01 0.000E+00
     Starting wfcs are   91 randomized atomic wfcs
     Checking if some PAW data can be deallocated...

     Self-consistent Calculation

     iteration #  1     ecut=    30.00 Ry     beta= 0.70
     Davidson diagonalization with overlap

     ethr =  1.00E-02,  avg # of iterations =  2.0

     negative rho (up, down):  1.826E-01 0.000E+00

     total energy              =   -1000.06608880 Ry
     estimated scf accuracy    <       6.22817434 Ry

[...]

     total energy              =   -1003.38733208 Ry
     estimated scf accuracy    <       0.00000321 Ry

     iteration # 13     ecut=    30.00 Ry     beta= 0.70
     Davidson diagonalization with overlap

     ethr =  2.67E-09,  avg # of iterations =  4.5

     negative rho (up, down):  1.859E-01 0.000E+00

     End of self-consistent calculation

          k = 0.0000 0.0000 0.0000 (  3979 PWs)   bands (ev):

   -68.8754 -68.7921 -68.6669 -33.0750 -33.0397 -33.0210 -33.0067 -32.9763
   -32.9591 -32.8673 -32.8623 -32.8447 -13.7653 -12.0960 -11.6703 -11.4754
   -11.3458 -11.3012 -11.2902 -11.2352 -11.1288 -10.3825 -10.3256 -10.3187
    -4.8047  -0.5715  -0.5341  -0.1935   0.4725   0.5615   0.6453   0.8693
     0.9088   1.0834   1.2422   1.2446   1.6253   2.8347   2.9218   3.3190
     3.3875   3.5575   3.7032   3.7988   3.9354   4.1919   4.3875   4.7283
     4.7523   5.0042   5.0979   5.1205   5.1759   5.1986   5.2304   5.2683
     5.2957   5.7629   5.8415   5.8654   7.2546   7.7249   8.0043   8.2657

     occupation numbers
     1.0000   1.0000   1.0000   1.0000   1.0000   1.0000   1.0000   1.0000
     1.0000   1.0000   1.0000   1.0000   1.0000   1.0000   1.0000   1.0000
     1.0000   1.0000   1.0000   1.0000   1.0000   1.0000   1.0000   1.0000
     1.0000   1.0000   1.0000   1.0000   1.0000   1.0000   1.0000   1.0000
     1.0000   1.0000   1.0000   1.0000   1.0000   1.0000   1.0000   1.0000
     1.0000   1.0000   1.0000   1.0000   1.0000   1.0000   1.0000   1.0000
     1.0000   1.0000   1.0000   1.0000   1.0000   1.0000   1.0000   1.0000
     1.0000   1.0000   1.0000   1.0000   0.0000   0.0000   0.0000   0.0000

[...]

          k = 0.3333-0.3253-0.2223 (  3974 PWs)   bands (ev):

   -68.8753 -68.7921 -68.6669 -33.0724 -33.0393 -33.0180 -33.0043 -32.9768
   -32.9549 -32.8708 -32.8681 -32.8493 -13.5113 -11.9099 -11.8740 -11.6699
   -11.4425 -11.3502 -11.3003 -11.0353 -10.7884 -10.7295 -10.6615 -10.3739
    -4.2232  -0.7207  -0.6443  -0.4556   0.3265   0.5014   0.6394   1.3969
     1.5790   1.6692   1.9509   2.2476   2.3549   2.5449   2.5619   2.6341
     2.8246   2.9226   3.1928   3.5825   3.8991   4.0095   4.2400   4.3408
     4.4290   4.4572   4.7187   4.8042   4.9663   5.0213   5.2099   5.2783
     5.3116   5.3834   5.5359   5.6739   8.1533   8.4888   8.8010   9.2848

     occupation numbers
     1.0000   1.0000   1.0000   1.0000   1.0000   1.0000   1.0000   1.0000
     1.0000   1.0000   1.0000   1.0000   1.0000   1.0000   1.0000   1.0000
     1.0000   1.0000   1.0000   1.0000   1.0000   1.0000   1.0000   1.0000
     1.0000   1.0000   1.0000   1.0000   1.0000   1.0000   1.0000   1.0000
     1.0000   1.0000   1.0000   1.0000   1.0000   1.0000   1.0000   1.0000
     1.0000   1.0000   1.0000   1.0000   1.0000   1.0000   1.0000   1.0000
     1.0000   1.0000   1.0000   1.0000   1.0000   1.0000   1.0000   1.0000
     1.0000   1.0000   1.0000   1.0000   0.0000   0.0000   0.0000   0.0000

     highest occupied, lowest unoccupied level (ev):     5.8654    7.2546

!    total energy              =   -1003.38733312 Ry
     estimated scf accuracy    <       0.00000069 Ry

     The total energy is the sum of the following terms:
     one-electron contribution =    -375.90502040 Ry
     hartree contribution      =     241.77675444 Ry
     xc contribution           =    -226.58637595 Ry
     ewald contribution        =    -528.39330389 Ry
     one-center paw contrib.   =    -114.27938733 Ry
      -> PAW hartree energy AE =       0.00000000 Ry
      -> PAW hartree energy PS =       0.00000000 Ry
      -> PAW xc energy AE      =       0.00000000 Ry
      -> PAW xc energy PS      =       0.00000000 Ry
      -> total E_H with PAW    =     241.77675444 Ry
      -> total E_XC with PAW   =    -226.58637595 Ry

     convergence has been achieved in  13 iterations

     Writing all to output data dir bands_nm/myprefix.save/

     General routines

     Parallel routines

     PAW routines

   This run was terminated on:   2:10:26  14Jul2023

   JOB DONE.