     Program PWSCF v.7.1 starts on 14Jul2023 at  2:42:23

     Reading input from espresso_17505.pwi
Warning: card &CELL ignored
Warning: card / ignored

     Current dimensions of program PWSCF are:
     Max number of different atomic species (ntypx) = 10
     Max number of k-points (npk) =  40000
     Max angular momentum in pseudopotentials (lmaxx) =  4
     file Mg.pbe-n-kjpaw_psl.0.3.0.UPF: wavefunction(s)  3S renormalized
     file O.pbe-n-kjpaw_psl.0.1.UPF: wavefunction(s)  2P renormalized
     Message from routine setup:
     using ibrav=0 with symmetry is DISCOURAGED, use correct ibrav instead

     K-points division:     npool     =       2
     R & G space division:  proc/nbgrp/npool/nimage =       4
     Subspace diagonalization in iterative solution of the eigenvalue problem:
     a serial algorithm will be used

     Using Slab Decomposition

     bravais-lattice index     =            0
     lattice parameter (alat)  =       9.9198  a.u.
     unit-cell volume          =     267.7970 (a.u.)^3
     number of atoms/cell      =            4
     number of atomic types    =            3
     number of electrons       =        34.00
     number of Kohn-Sham states=           64
     kinetic-energy cutoff     =      30.0000  Ry
     charge density cutoff     =     240.0000  Ry
     scf convergence threshold =      1.0E-06
     mixing beta               =       0.7000
     number of iterations used =            8  plain     mixing
     Exchange-correlation= SLA  PW   PBX  PBC
                           (   1   4   3   4   0   0   0)

     celldm(1)=   9.919795  celldm(2)=   0.000000  celldm(3)=   0.000000
     celldm(4)=   0.000000  celldm(5)=   0.000000  celldm(6)=   0.000000

     crystal axes: (cart. coord. in units of alat)
               a(1) = (   1.000000   0.000000   0.000000 )
               a(2) = (   0.831909   0.554913   0.000000 )
               a(3) = (   0.831908   0.251998   0.494394 )

     reciprocal axes: (cart. coord. in units 2 pi/alat)
               b(1) = (  1.000000 -1.499170 -0.918541 )
               b(2) = (  0.000000  1.802085 -0.918541 )
               b(3) = (  0.000000  0.000000  2.022679 )

     PseudoPot. # 1 for Mg read from file:
     /lustre07/scratch/pragov/crystal_structure_design/utils/SSSP/Mg.pbe-n-kjpaw_psl.0.3.0.UPF
     MD5 check sum: 24ecedc7f3e3cbe212e682f4413594e4
     Pseudo is Projector augmented-wave + core cor, Zval =  2.0
     Generated using "atomic" code by A. Dal Corso  v.5.0.99 svn rev. 10869
     Shape of augmentation charge: PSQ
     Using radial grid of 1129 points,  4 beta functions with:
                l(1) =   0
                l(2) =   0
                l(3) =   1
                l(4) =   1
     Q(r) pseudized with 0 coefficients

     PseudoPot. # 2 for Zn read from file:
     /lustre07/scratch/pragov/crystal_structure_design/utils/SSSP/Zn_pbe_v1.uspp.F.UPF
     MD5 check sum: df62231357ef9e81f77b2b3087fa5675
     Pseudo is Ultrasoft, Zval = 20.0
     Generated by new atomic code, or converted to UPF format
     Using radial grid of  943 points,  6 beta functions with:
                l(1) =   0
                l(2) =   0
                l(3) =   1
                l(4) =   1
                l(5) =   2
                l(6) =   2
     Q(r) pseudized with  8 coefficients,  rinner =    1.100   1.100   1.100
                                                       1.100   1.100

     PseudoPot. # 3 for O  read from file:
     /lustre07/scratch/pragov/crystal_structure_design/utils/SSSP/O.pbe-n-kjpaw_psl.0.1.UPF
     MD5 check sum: 0234752ac141de4415c5fc33072bef88
     Pseudo is Projector augmented-wave + core cor, Zval =  6.0
     Generated using "atomic" code by A. Dal Corso  v.5.0.99 svn rev. 10869
     Shape of augmentation charge: BESSEL
     Using radial grid of 1095 points,  4 beta functions with:
                l(1) =   0
                l(2) =   0
                l(3) =   1
                l(4) =   1
     Q(r) pseudized with 0 coefficients

     atomic species   valence    mass     pseudopotential
        Mg             2.00    24.30500     Mg( 1.00)
        Zn            20.00    65.38000     Zn( 1.00)
        O              6.00    15.99900     O ( 1.00)

      2 Sym. Ops., with inversion, found

                                    s                        frac. trans.

      isym =  1     identity

 cryst.   s( 1) = (     1          0          0      )
                  (     0          1          0      )
                  (     0          0          1      )

 cart.    s( 1) = (  1.0000000 -0.0000000  0.0000000 )
                  (  0.0000000  1.0000000  0.0000000 )
                  (  0.0000000  0.0000000  1.0000000 )

      isym =  2     inversion

 cryst.   s( 2) = (    -1          0          0      )
                  (     0         -1          0      )
                  (     0          0         -1      )

 cart.    s( 2) = ( -1.0000000  0.0000000  0.0000000 )
                  (  0.0000000 -1.0000000  0.0000000 )
                  (  0.0000000  0.0000000 -1.0000000 )

   Cartesian axes

     site n.     atom                  positions (alat units)
         1           Mg  tau(   1) = (   0.0000000   0.0000000   0.0000000  )
         2           Zn  tau(   2) = (   1.3319085   0.4034551   0.2471969  )
         3           O   tau(   3) = (   0.6737140   0.2040781   0.1250386  )
         4           O   tau(   4) = (   1.9901031   0.6028322   0.3693552  )

   Crystallographic axes

     site n.     atom                  positions (cryst. coord.)
         1           Mg  tau(   1) = (  0.0000000  0.0000000  0.0000000  )
         2           Zn  tau(   2) = (  0.5000000  0.5000000  0.5000000  )
         3           O   tau(   3) = (  0.2529130  0.2529130  0.2529130  )
         4           O   tau(   4) = (  0.7470870  0.7470870  0.7470870  )

     number of k points=    14
                       cart. coord. in units 2pi/alat
        k(    1) = (   0.0000000   0.0000000   0.0000000), wk =   0.0740741
        k(    2) = (   0.0000000   0.0000000   0.6742263), wk =   0.1481481
        k(    3) = (   0.0000000   0.6006951  -0.3061805), wk =   0.1481481
        k(    4) = (   0.0000000   0.6006951   0.3680459), wk =   0.1481481
        k(    5) = (   0.0000000   0.6006951  -0.9804068), wk =   0.1481481
        k(    6) = (   0.3333333  -0.4997234  -0.3061805), wk =   0.1481481
        k(    7) = (   0.3333333  -0.4997234   0.3680459), wk =   0.1481481
        k(    8) = (   0.3333333  -0.4997234  -0.9804068), wk =   0.1481481
        k(    9) = (   0.3333333   0.1009717  -0.6123609), wk =   0.1481481
        k(   10) = (   0.3333333   0.1009717   0.0618654), wk =   0.1481481
        k(   11) = (   0.3333333   0.1009717  -1.2865872), wk =   0.1481481
        k(   12) = (   0.3333333  -1.1004185  -0.0000000), wk =   0.1481481
        k(   13) = (   0.3333333  -1.1004185   0.6742263), wk =   0.1481481
        k(   14) = (   0.3333333  -1.1004185  -0.6742263), wk =   0.1481481

                       cryst. coord.
        k(    1) = (   0.0000000   0.0000000   0.0000000), wk =   0.0740741
        k(    2) = (   0.0000000   0.0000000   0.3333333), wk =   0.1481481
        k(    3) = (   0.0000000   0.3333333   0.0000000), wk =   0.1481481
        k(    4) = (   0.0000000   0.3333333   0.3333333), wk =   0.1481481
        k(    5) = (   0.0000000   0.3333333  -0.3333333), wk =   0.1481481
        k(    6) = (   0.3333333   0.0000000  -0.0000000), wk =   0.1481481
        k(    7) = (   0.3333333   0.0000000   0.3333333), wk =   0.1481481
        k(    8) = (   0.3333333   0.0000000  -0.3333333), wk =   0.1481481
        k(    9) = (   0.3333333   0.3333333  -0.0000000), wk =   0.1481481
        k(   10) = (   0.3333333   0.3333333   0.3333333), wk =   0.1481481
        k(   11) = (   0.3333333   0.3333333  -0.3333333), wk =   0.1481481
        k(   12) = (   0.3333333  -0.3333333  -0.0000000), wk =   0.1481481
        k(   13) = (   0.3333333  -0.3333333   0.3333333), wk =   0.1481481
        k(   14) = (   0.3333333  -0.3333333  -0.3333333), wk =   0.1481481

     Check: negative core charge=   -0.000008

     Initial potential from superposition of free atoms

     starting charge      33.9989, renormalised to      34.0000
     Starting wfcs are   25 randomized atomic wfcs +   39 random wfcs
     Checking if some PAW data can be deallocated...

     Self-consistent Calculation

     iteration #  1     ecut=    30.00 Ry     beta= 0.70
     Davidson diagonalization with overlap

     ethr =  1.00E-02,  avg # of iterations =  6.3

     total energy              =    -578.25071233 Ry
     estimated scf accuracy    <       0.75366115 Ry

[...]

     total energy              =    -578.60672867 Ry
     estimated scf accuracy    <       0.00000189 Ry

     iteration #  7     ecut=    30.00 Ry     beta= 0.70
     Davidson diagonalization with overlap

     ethr =  5.55E-09,  avg # of iterations =  1.8

     End of self-consistent calculation

          k = 0.0000 0.0000 0.0000 (   707 PWs)   bands (ev):

  -115.0313 -69.1685 -69.1459 -69.1459  -9.3993  -8.1607   2.3139   3.5016
     3.5016   4.0387   4.0387   4.6497   7.8528   7.8731   7.8731   8.1000
     8.1000  10.7141  14.8315  19.3804  22.4044  22.4044  24.7167  24.7208
    24.7208  27.0871  28.1437  29.5083  29.6629  29.6629  30.5271  30.5271
    32.0917  32.0917  35.0303  37.3480  37.3480  42.4480  43.0662  43.0662
    44.6213  44.6213  44.7169  49.5797  50.6746  52.4446  52.4446  55.9517
    57.4895  57.4895  57.9223  58.8015  58.8015  61.4552  61.8465  61.8465
    62.3689  63.0381  63.0381  64.3216  64.5206  66.2159  66.2160  66.5982

     occupation numbers
     1.0000   1.0000   1.0000   1.0000   1.0000   1.0000   1.0000   1.0000
     1.0000   1.0000   1.0000   1.0000   1.0000   1.0000   1.0000   1.0000
     1.0000   0.0000   0.0000   0.0000   0.0000   0.0000   0.0000   0.0000
     0.0000   0.0000   0.0000   0.0000   0.0000   0.0000   0.0000   0.0000
     0.0000   0.0000   0.0000   0.0000   0.0000   0.0000   0.0000   0.0000
     0.0000   0.0000   0.0000   0.0000   0.0000   0.0000   0.0000   0.0000
     0.0000   0.0000   0.0000   0.0000   0.0000   0.0000   0.0000   0.0000
     0.0000   0.0000   0.0000   0.0000   0.0000   0.0000   0.0000   0.0000

[...]

          k = 0.3333-1.1004-0.6742 (   741 PWs)   bands (ev):

  -115.0358 -69.1808 -69.1691 -69.1661  -8.3526  -8.2263   2.8273   3.1946
     3.5926   3.8026   4.1067   4.4836   5.3660   6.8384   6.8437   7.1476
     8.0793  14.3570  16.3150  18.7459  19.2440  20.6317  21.0749  22.7099
    24.9094  25.3592  29.1355  29.9200  30.8611  33.6013  34.6246  37.1493
    37.6578  37.6746  38.0253  38.4524  39.9290  41.2719  41.6329  41.8519
    42.4917  44.7790  45.8173  46.5761  47.5905  51.7030  51.8243  51.9397
    54.2466  55.9279  56.6029  56.7600  58.5607  58.7123  58.8285  59.7703
    60.1824  61.3231  61.7155  62.6617  62.7342  65.2080  65.9768  67.0643

     occupation numbers
     1.0000   1.0000   1.0000   1.0000   1.0000   1.0000   1.0000   1.0000
     1.0000   1.0000   1.0000   1.0000   1.0000   1.0000   1.0000   1.0000
     1.0000   0.0000   0.0000   0.0000   0.0000   0.0000   0.0000   0.0000
     0.0000   0.0000   0.0000   0.0000   0.0000   0.0000   0.0000   0.0000
     0.0000   0.0000   0.0000   0.0000   0.0000   0.0000   0.0000   0.0000
     0.0000   0.0000   0.0000   0.0000   0.0000   0.0000   0.0000   0.0000
     0.0000   0.0000   0.0000   0.0000   0.0000   0.0000   0.0000   0.0000
     0.0000   0.0000   0.0000   0.0000   0.0000   0.0000   0.0000   0.0000

     highest occupied, lowest unoccupied level (ev):     8.3629   10.7141

!    total energy              =    -578.60672906 Ry
     estimated scf accuracy    <       0.00000041 Ry

     The total energy is the sum of the following terms:
     one-electron contribution =    -471.35786949 Ry
     hartree contribution      =     252.78034050 Ry
     xc contribution           =     -59.03322487 Ry
     ewald contribution        =    -250.67159375 Ry
     one-center paw contrib.   =     -50.32438145 Ry
      -> PAW hartree energy AE =       0.93118764 Ry
      -> PAW hartree energy PS =      -0.92981011 Ry
      -> PAW xc energy AE      =     -32.66897091 Ry
      -> PAW xc energy PS      =       1.38097859 Ry
      -> total E_H with PAW    =     252.78171804 Ry
      -> total E_XC with PAW   =     -90.32121719 Ry

     convergence has been achieved in   7 iterations

     Writing all to output data dir bands_nm/myprefix.save/

     General routines

     Parallel routines

     PAW routines

   This run was terminated on:   2:42:30  14Jul2023

   JOB DONE.