     Program PWSCF v.7.1 starts on 14Jul2023 at 13:12:11

     Reading input from espresso_18351.pwi
Warning: card &CELL ignored
Warning: card / ignored

     Current dimensions of program PWSCF are:
     Max number of different atomic species (ntypx) = 10
     Max number of k-points (npk) =  40000
     Max angular momentum in pseudopotentials (lmaxx) =  4
     file Nb.pbe-spn-kjpaw_psl.0.3.0.UPF: wavefunction(s)  4S 4P renormalized
     file O.pbe-n-kjpaw_psl.0.1.UPF: wavefunction(s)  2P renormalized
     Message from routine setup:
     using ibrav=0 with symmetry is DISCOURAGED, use correct ibrav instead

     K-points division:     npool     =       2
     R & G space division:  proc/nbgrp/npool/nimage =       4
     Subspace diagonalization in iterative solution of the eigenvalue problem:
     a serial algorithm will be used

     Using Slab Decomposition

     bravais-lattice index     =            0
     lattice parameter (alat)  =      24.4746  a.u.
     unit-cell volume          =    1276.9939 (a.u.)^3
     number of atoms/cell      =           14
     number of atomic types    =            4
     number of electrons       =       124.00
     number of Kohn-Sham states=           64
     kinetic-energy cutoff     =      30.0000  Ry
     charge density cutoff     =     240.0000  Ry
     scf convergence threshold =      1.0E-06
     mixing beta               =       0.7000
     number of iterations used =            8  plain     mixing
     Exchange-correlation= SLA  PW   PBX  PBC
                           (   1   4   3   4   0   0   0)

     celldm(1)=  24.474614  celldm(2)=   0.000000  celldm(3)=   0.000000
     celldm(4)=   0.000000  celldm(5)=   0.000000  celldm(6)=   0.000000

     crystal axes: (cart. coord. in units of alat)
               a(1) = (   1.000000   0.000000   0.000000 )
               a(2) = (   0.910887   0.412655   0.000000 )
               a(3) = (  -0.955444  -0.206327   0.211084 )

     reciprocal axes: (cart. coord. in units 2 pi/alat)
               b(1) = (  1.000000 -2.207384  2.368730 )
               b(2) = (  0.000000  2.423333  2.368730 )
               b(3) = (  0.000000  0.000000  4.737461 )

     PseudoPot. # 1 for Ti read from file:
     /lustre07/scratch/pragov/crystal_structure_design/utils/SSSP/ti_pbe_v1.4.uspp.F.UPF
     MD5 check sum: 88a00a6731bd790ddea75d31a80cb452
     Pseudo is Ultrasoft + core correction, Zval = 12.0
     Generated by new atomic code, or converted to UPF format
     Using radial grid of  851 points,  6 beta functions with:
                l(1) =   0
                l(2) =   0
                l(3) =   1
                l(4) =   1
                l(5) =   2
                l(6) =   2
     Q(r) pseudized with  6 coefficients,  rinner =    1.000   1.000   1.000
                                                       1.000   1.000

     PseudoPot. # 2 for Nb read from file:
     /lustre07/scratch/pragov/crystal_structure_design/utils/SSSP/Nb.pbe-spn-kjpaw_psl.0.3.0.UPF
     MD5 check sum: 411d72ad547312f8017e2943ceca08cc
     Pseudo is Projector augmented-wave + core cor, Zval = 13.0
     Generated using "atomic" code by A. Dal Corso  v.5.0.99 svn rev. 10869
     Shape of augmentation charge: PSQ
     Using radial grid of 1227 points,  6 beta functions with:
                l(1) =   0
                l(2) =   0
                l(3) =   1
                l(4) =   1
                l(5) =   2
                l(6) =   2
     Q(r) pseudized with 0 coefficients

     PseudoPot. # 3 for Bi read from file:
     /lustre07/scratch/pragov/crystal_structure_design/utils/SSSP/Bi_pbe_v1.uspp.F.UPF
     MD5 check sum: cceb9f28ec65b6d7ff33140f5b0b1758
     Pseudo is Ultrasoft + core correction, Zval = 15.0
     Generated by new atomic code, or converted to UPF format
     Using radial grid of  899 points,  6 beta functions with:
                l(1) =   0
                l(2) =   0
                l(3) =   1
                l(4) =   1
                l(5) =   2
                l(6) =   2
     Q(r) pseudized with  6 coefficients,  rinner =    1.000   1.000   1.000
                                                       1.000   1.000

     PseudoPot. # 4 for O  read from file:
     /lustre07/scratch/pragov/crystal_structure_design/utils/SSSP/O.pbe-n-kjpaw_psl.0.1.UPF
     MD5 check sum: 0234752ac141de4415c5fc33072bef88
     Pseudo is Projector augmented-wave + core cor, Zval =  6.0
     Generated using "atomic" code by A. Dal Corso  v.5.0.99 svn rev. 10869
     Shape of augmentation charge: BESSEL
     Using radial grid of 1095 points,  4 beta functions with:
                l(1) =   0
                l(2) =   0
                l(3) =   1
                l(4) =   1
     Q(r) pseudized with 0 coefficients

     atomic species   valence    mass     pseudopotential
        Ti            12.00    47.86700     Ti( 1.00)
        Nb            13.00    92.90637     Nb( 1.00)
        Bi            15.00   208.98040     Bi( 1.00)
        O              6.00    15.99900     O ( 1.00)

      2 Sym. Ops. (no inversion) found

                                    s                        frac. trans.

      isym =  1     identity

 cryst.   s( 1) = (     1          0          0      )
                  (     0          1          0      )
                  (     0          0          1      )

 cart.    s( 1) = (  1.0000000  0.0000000  0.0000000 )
                  (  0.0000000  1.0000000 -0.0000000 )
                  (  0.0000000  0.0000000  1.0000000 )

      isym =  2     inv. 180 deg rotation - cart. axis [0,0,1]

 cryst.   s( 2) = (     1          0          0      )
                  (     0          1          0      )
                  (    -1         -1         -1      )

 cart.    s( 2) = (  1.0000000  0.0000000  0.0000000 )
                  (  0.0000000  1.0000000  0.0000000 )
                  (  0.0000000  0.0000000 -1.0000000 )

   Cartesian axes

     site n.     atom                  positions (alat units)
         1           Ti  tau(   1) = (   0.7823689   0.1689520   0.0000000  )
         2           Nb  tau(   2) = (   1.1256656   0.2430867   0.0000000  )
         3           Bi  tau(   3) = (   0.3835992   0.0828380   0.0000000  )
         4           Bi  tau(   4) = (   1.5296062   0.3303174   0.0000000  )
         5           Bi  tau(   5) = (   1.8856370   0.4072020   0.0000000  )
         6           O   tau(   6) = (   0.6477488   0.1398809   0.0000000  )
         7           O   tau(   7) = (   1.2705395   0.2743721   0.0000000  )
         8           O   tau(   8) = (   0.1287183   0.1357713   0.1055418  )
         9           O   tau(   9) = (   0.7889337   0.2783443   0.1055418  )
        10           O   tau(  10) = (   0.8334900   0.0720169   0.1055418  )
        11           O   tau(  11) = (   0.1732745  -0.0705561   0.1055418  )
        12           O   tau(  12) = (   0.9557113   0.2063852   0.0000000  )
        13           O   tau(  13) = (   0.4577464   0.2068247   0.1055418  )
        14           O   tau(  14) = (   0.5023026   0.0004972   0.1055418  )

   Crystallographic axes

     site n.     atom                  positions (cryst. coord.)
         1           Ti  tau(   1) = (  0.4094270  0.4094270  0.0000000  )
         2           Nb  tau(   2) = (  0.5890800  0.5890800  0.0000000  )
         3           Bi  tau(   3) = (  0.2007440  0.2007440  0.0000000  )
         4           Bi  tau(   4) = (  0.8004690  0.8004690  0.0000000  )
         5           Bi  tau(   5) = (  0.9867860  0.9867860  0.0000000  )
         6           O   tau(   6) = (  0.3389780  0.3389780  0.0000000  )
         7           O   tau(   7) = (  0.6648950  0.6648950  0.0000000  )
         8           O   tau(   8) = (  0.0790190  0.5790190  0.5000000  )
         9           O   tau(   9) = (  0.4245210  0.9245210  0.5000000  )
        10           O   tau(  10) = (  0.9245210  0.4245210  0.5000000  )
        11           O   tau(  11) = (  0.5790190  0.0790190  0.5000000  )
        12           O   tau(  12) = (  0.5001400  0.5001400  0.0000000  )
        13           O   tau(  13) = (  0.2512050  0.7512050  0.5000000  )
        14           O   tau(  14) = (  0.7512050  0.2512050  0.5000000  )

     number of k points=    10
                       cart. coord. in units 2pi/alat
        k(    1) = (   0.0000000   0.0000000   0.0000000), wk =   0.0740741
        k(    2) = (   0.0000000   0.0000000   1.5791536), wk =   0.1481481
        k(    3) = (   0.0000000   0.8077776   0.7895768), wk =   0.2962963
        k(    4) = (   0.0000000   0.8077776   2.3687304), wk =   0.1481481
        k(    5) = (   0.3333333  -0.7357945   0.7895768), wk =   0.2962963
        k(    6) = (   0.3333333  -0.7357945   2.3687304), wk =   0.1481481
        k(    7) = (   0.3333333   0.0719831   1.5791536), wk =   0.2962963
        k(    8) = (   0.3333333   0.0719831   0.0000000), wk =   0.1481481
        k(    9) = (   0.3333333  -1.5435722   0.0000000), wk =   0.1481481
        k(   10) = (   0.3333333  -1.5435722   1.5791536), wk =   0.2962963

                       cryst. coord.
        k(    1) = (   0.0000000   0.0000000   0.0000000), wk =   0.0740741
        k(    2) = (   0.0000000   0.0000000   0.3333333), wk =   0.1481481
        k(    3) = (   0.0000000   0.3333333   0.0000000), wk =   0.2962963
        k(    4) = (   0.0000000   0.3333333   0.3333333), wk =   0.1481481
        k(    5) = (   0.3333333   0.0000000   0.0000000), wk =   0.2962963
        k(    6) = (   0.3333333   0.0000000   0.3333333), wk =   0.1481481
        k(    7) = (   0.3333333   0.3333333   0.0000000), wk =   0.2962963
        k(    8) = (   0.3333333   0.3333333  -0.3333333), wk =   0.1481481
        k(    9) = (   0.3333333  -0.3333333   0.0000000), wk =   0.1481481
        k(   10) = (   0.3333333  -0.3333333   0.3333333), wk =   0.2962963

     Check: negative core charge=   -0.000014

     Initial potential from superposition of free atoms

     starting charge     119.9977, renormalised to     124.0000

     negative rho (up, down):  1.310E-01 0.000E+00
     Starting wfcs are   83 randomized atomic wfcs
     Checking if some PAW data can be deallocated...

     Self-consistent Calculation

     iteration #  1     ecut=    30.00 Ry     beta= 0.70
     Davidson diagonalization with overlap

     ethr =  1.00E-02,  avg # of iterations =  2.1

     negative rho (up, down):  1.211E-01 0.000E+00

     total energy              =   -1191.68201653 Ry
     estimated scf accuracy    <     222.60965638 Ry

[...]

     c_bands:  1 eigenvalues not converged
     ethr =  9.20E-06,  avg # of iterations = 14.4

[...]

     c_bands:  1 eigenvalues not converged
     ethr =  9.20E-06,  avg # of iterations = 11.3

[...]

     total energy              =   -1384.47317795 Ry
     estimated scf accuracy    <       0.00000272 Ry

     iteration # 28     ecut=    30.00 Ry     beta= 0.70
     Davidson diagonalization with overlap

     ethr =  2.19E-09,  avg # of iterations =  5.0

     negative rho (up, down):  1.224E-01 0.000E+00

     End of self-consistent calculation

          k = 0.0000 0.0000 0.0000 (  3541 PWs)   bands (ev):

   -46.4341 -44.7171 -22.7314 -22.7314 -22.7124 -20.8808 -20.8808 -20.8182
   -12.5682 -12.4674 -12.4500 -12.4273 -12.4273 -12.3680 -12.3680 -12.3627
   -12.3547 -12.3473 -12.3261 -12.2947 -12.2947 -12.2865 -12.2561  -9.1729
    -8.2003  -7.5783  -7.1945  -6.9236  -6.5555  -6.3264  -6.2089  -5.6843
     0.0039   1.0223   2.4330   5.0165   5.0165   5.8743   5.8743   5.9471
     7.2399   7.2399   7.3289   7.7688   7.7688   7.8103   7.8181   7.9542
     8.1143   8.1447   8.1447   8.1935   8.1935   8.3442   8.6681   8.6681
     9.0367   9.0448   9.0448   9.2151   9.2151   9.5045  11.8874  12.2270

     occupation numbers
     1.0000   1.0000   1.0000   1.0000   1.0000   1.0000   1.0000   1.0000
     1.0000   1.0000   1.0000   1.0000   1.0000   1.0000   1.0000   1.0000
     1.0000   1.0000   1.0000   1.0000   1.0000   1.0000   1.0000   1.0000
     1.0000   1.0000   1.0000   1.0000   1.0000   1.0000   1.0000   1.0000
     1.0000   1.0000   1.0000   1.0000   1.0000   1.0000   1.0000   1.0000
     1.0000   1.0000   1.0000   1.0000   1.0000   1.0000   1.0000   1.0000
     1.0000   1.0000   1.0000   1.0000   1.0000   1.0000   1.0000   1.0000
     1.0000   1.0000   1.0000   1.0000   1.0000   1.0000   0.0000   0.0000

[...]

          k = 0.3333-1.5436 1.5792 (  3538 PWs)   bands (ev):

   -46.4329 -44.7140 -22.7886 -22.7293 -22.7089 -21.0333 -20.8759 -20.8111
   -12.5426 -12.4722 -12.4550 -12.4296 -12.4264 -12.4049 -12.3617 -12.3606
   -12.3576 -12.3412 -12.3290 -12.3171 -12.2980 -12.2751 -12.2650  -8.4468
    -7.6884  -7.3554  -7.0914  -6.9373  -6.4368  -6.2455  -6.1363  -5.6215
    -0.0237   0.4707   1.2559   5.1890   5.3549   5.6436   5.7101   6.1795
     6.2594   6.2951   6.5470   7.1338   7.1382   7.1394   7.2627   7.4369
     7.4946   7.6829   7.8840   8.0922   8.1555   8.2800   8.4108   8.5053
     8.6860   9.2312   9.3289   9.4368   9.4918   9.8317  13.0437  13.4682

     occupation numbers
     1.0000   1.0000   1.0000   1.0000   1.0000   1.0000   1.0000   1.0000
     1.0000   1.0000   1.0000   1.0000   1.0000   1.0000   1.0000   1.0000
     1.0000   1.0000   1.0000   1.0000   1.0000   1.0000   1.0000   1.0000
     1.0000   1.0000   1.0000   1.0000   1.0000   1.0000   1.0000   1.0000
     1.0000   1.0000   1.0000   1.0000   1.0000   1.0000   1.0000   1.0000
     1.0000   1.0000   1.0000   1.0000   1.0000   1.0000   1.0000   1.0000
     1.0000   1.0000   1.0000   1.0000   1.0000   1.0000   1.0000   1.0000
     1.0000   1.0000   1.0000   1.0000   1.0000   1.0000   0.0000   0.0000

     highest occupied, lowest unoccupied level (ev):     9.8317   11.8869

!    total energy              =   -1384.47317798 Ry
     estimated scf accuracy    <       0.00000059 Ry

     The total energy is the sum of the following terms:
     one-electron contribution =    -268.84356517 Ry
     hartree contribution      =     216.92333314 Ry
     xc contribution           =    -307.65531301 Ry
     ewald contribution        =    -730.65989353 Ry
     one-center paw contrib.   =    -294.23773940 Ry
      -> PAW hartree energy AE =      65.44277990 Ry
      -> PAW hartree energy PS =     -65.07599041 Ry
      -> PAW xc energy AE      =    -235.55481876 Ry
      -> PAW xc energy PS      =      26.69566048 Ry
      -> total E_H with PAW    =     217.29012262 Ry
      -> total E_XC with PAW   =    -516.51447130 Ry

     convergence has been achieved in  28 iterations

     Writing all to output data dir bands_nm/myprefix.save/

     General routines

     Parallel routines

     PAW routines

   This run was terminated on:  13:14: 1  14Jul2023

   JOB DONE.