     Program PWSCF v.7.1 starts on 16Jul2023 at 14: 3:51

     Reading input from espresso_23884.pwi
Warning: card &CELL ignored
Warning: card / ignored

     Current dimensions of program PWSCF are:
     Max number of different atomic species (ntypx) = 10
     Max number of k-points (npk) =  40000
     Max angular momentum in pseudopotentials (lmaxx) =  4
     Message from routine setup:
     using ibrav=0 with symmetry is DISCOURAGED, use correct ibrav instead

     K-points division:     npool     =       2
     R & G space division:  proc/nbgrp/npool/nimage =       4
     Subspace diagonalization in iterative solution of the eigenvalue problem:
     a serial algorithm will be used

     Using Slab Decomposition

     bravais-lattice index     =            0
     lattice parameter (alat)  =      22.5324  a.u.
     unit-cell volume          =    2669.2501 (a.u.)^3
     number of atoms/cell      =           12
     number of atomic types    =            3
     number of electrons       =        84.00
     number of Kohn-Sham states=           64
     kinetic-energy cutoff     =      30.0000  Ry
     charge density cutoff     =     240.0000  Ry
     scf convergence threshold =      1.0E-06
     mixing beta               =       0.7000
     number of iterations used =            8  plain     mixing
     Exchange-correlation=  SLA  PW   PBX  PBC
                           (   1   4   3   4   0   0   0)

     celldm(1)=  22.532387  celldm(2)=   0.000000  celldm(3)=   0.000000
     celldm(4)=   0.000000  celldm(5)=   0.000000  celldm(6)=   0.000000

     crystal axes: (cart. coord. in units of alat)
               a(1) = (   1.000000   0.000000   0.000000 )
               a(2) = (  -0.935763   0.352629   0.000000 )
               a(3) = (   0.000000   0.000000   0.661683 )

     reciprocal axes: (cart. coord. in units 2 pi/alat)
               b(1) = (  1.000000  2.653676  0.000000 )
               b(2) = (  0.000000  2.835842  0.000000 )
               b(3) = (  0.000000  0.000000  1.511299 )

     PseudoPot. # 1 for Cs read from file:
     /lustre07/scratch/pragov/crystal_structure_design/utils/SSSP/Cs_pbe_v1.uspp.F.UPF
     MD5 check sum: 3476d69cb178dfad3ffaa59df4e07ca4
     Pseudo is Ultrasoft + core correction, Zval =  9.0
     Generated by new atomic code, or converted to UPF format
     Using radial grid of  905 points,  6 beta functions with:
                l(1) =   0
                l(2) =   0
                l(3) =   1
                l(4) =   1
                l(5) =   2
                l(6) =   2
     Q(r) pseudized with  6 coefficients,  rinner =    1.500   1.500   1.500
                                                       1.500   1.500

     PseudoPot. # 2 for Li read from file:
     /lustre07/scratch/pragov/crystal_structure_design/utils/SSSP/li_pbe_v1.4.uspp.F.UPF
     MD5 check sum: e912e257baa3777c20ea3d68f190483c
     Pseudo is Ultrasoft, Zval =  3.0
     Generated by new atomic code, or converted to UPF format
     Using radial grid of  751 points,  5 beta functions with:
                l(1) =   0
                l(2) =   0
                l(3) =   0
                l(4) =   1
                l(5) =   1
     Q(r) pseudized with 10 coefficients,  rinner =    1.150   1.150   1.150

     PseudoPot. # 3 for Cl read from file:
     /lustre07/scratch/pragov/crystal_structure_design/utils/SSSP/cl_pbe_v1.4.uspp.F.UPF
     MD5 check sum: fc6f6913ecf08c9257cb748ef0700058
     Pseudo is Ultrasoft + core correction, Zval =  7.0
     Generated by new atomic code, or converted to UPF format
     Using radial grid of  909 points,  6 beta functions with:
                l(1) =   0
                l(2) =   0
                l(3) =   1
                l(4) =   1
                l(5) =   2
                l(6) =   2
     Q(r) pseudized with  8 coefficients,  rinner =    1.300   1.300   1.300
                                                       1.300   1.300

     atomic species   valence    mass     pseudopotential
        Cs             9.00   132.90545     Cs( 1.00)
        Li             3.00     6.94000     Li( 1.00)
        Cl             7.00    35.45000     Cl( 1.00)

      4 Sym. Ops., with inversion, found ( 2 have fractional translation)

                                    s                        frac. trans.

      isym =  1     identity

 cryst.   s( 1) = (     1          0          0      )
                  (     0          1          0      )
                  (     0          0          1      )

 cart.    s( 1) = (  1.0000000  0.0000000  0.0000000 )
                  (  0.0000000  1.0000000  0.0000000 )
                  (  0.0000000  0.0000000  1.0000000 )

      isym =  2     180 deg rotation - cart. axis [0,0,1]

 cryst.   s( 2) = (    -1          0          0      )    f =(  0.0000000 )
                  (     0         -1          0      )       (  0.0000000 )
                  (     0          0          1      )       (  0.5000000 )

 cart.    s( 2) = ( -1.0000000  0.0000000  0.0000000 )    f =(  0.0000000 )
                  (  0.0000000 -1.0000000  0.0000000 )       (  0.0000000 )
                  (  0.0000000  0.0000000  1.0000000 )       (  0.3308413 )

      isym =  3     inversion

 cryst.   s( 3) = (    -1          0          0      )
                  (     0         -1          0      )
                  (     0          0         -1      )

 cart.    s( 3) = ( -1.0000000  0.0000000  0.0000000 )
                  (  0.0000000 -1.0000000  0.0000000 )
                  (  0.0000000  0.0000000 -1.0000000 )

      isym =  4     inv. 180 deg rotation - cart. axis [0,0,1]

 cryst.   s( 4) = (     1          0          0      )    f =(  0.0000000 )
                  (     0          1          0      )       (  0.0000000 )
                  (     0          0         -1      )       (  0.5000000 )

 cart.    s( 4) = (  1.0000000  0.0000000  0.0000000 )    f =(  0.0000000 )
                  (  0.0000000  1.0000000  0.0000000 )       (  0.0000000 )
                  (  0.0000000  0.0000000 -1.0000000 )       (  0.3308413 )

   Cartesian axes

     site n.     atom                  positions (alat units)
         1           Cs  tau(   1) = (   0.9942663   0.0010445   0.1654206  )
         2           Cs  tau(   2) = (   0.6550547   0.0628371   0.4962619  )
         3           Cs  tau(   3) = (  -0.5908180   0.2897919   0.1654206  )
         4           Cs  tau(   4) = (  -0.9300295   0.3515845   0.4962619  )
         5           Li  tau(   5) = (  -0.2540339   0.2284415   0.1654206  )
         6           Li  tau(   6) = (   0.3182707   0.1241875   0.4962619  )
         7           Cl  tau(   7) = (  -0.5448513   0.2814184   0.4962619  )
         8           Cl  tau(   8) = (   0.6090881   0.0712106   0.1654206  )
         9           Cl  tau(   9) = (  -0.1392044   0.2075236   0.0014464  )
        10           Cl  tau(  10) = (   0.2034412   0.1451054   0.6602361  )
        11           Cl  tau(  11) = (  -0.1392044   0.2075236   0.3293948  )
        12           Cl  tau(  12) = (   0.2034412   0.1451054   0.3322877  )

   Crystallographic axes

     site n.     atom                  positions (cryst. coord.)
         1           Cs  tau(   1) = (  0.9970380  0.0029620  0.2500000  )
         2           Cs  tau(   2) = (  0.8218040  0.1781960  0.7500000  )
         3           Cs  tau(   3) = (  0.1781960  0.8218040  0.2500000  )
         4           Cs  tau(   4) = (  0.0029620  0.9970380  0.7500000  )
         5           Li  tau(   5) = (  0.3521760  0.6478240  0.2500000  )
         6           Li  tau(   6) = (  0.6478240  0.3521760  0.7500000  )
         7           Cl  tau(   7) = (  0.2019420  0.7980580  0.7500000  )
         8           Cl  tau(   8) = (  0.7980580  0.2019420  0.2500000  )
         9           Cl  tau(   9) = (  0.4114960  0.5885040  0.0021860  )
        10           Cl  tau(  10) = (  0.5885040  0.4114960  0.9978140  )
        11           Cl  tau(  11) = (  0.4114960  0.5885040  0.4978140  )
        12           Cl  tau(  12) = (  0.5885040  0.4114960  0.5021860  )

     number of k points=    10
                       cart. coord. in units 2pi/alat
        k(    1) = (   0.0000000   0.0000000   0.0000000), wk =   0.0740741
        k(    2) = (   0.0000000   0.0000000   0.5037662), wk =   0.1481481
        k(    3) = (   0.0000000   0.9452806   0.0000000), wk =   0.1481481
        k(    4) = (   0.0000000   0.9452806   0.5037662), wk =   0.2962963
        k(    5) = (   0.3333333   0.8845588   0.0000000), wk =   0.1481481
        k(    6) = (   0.3333333   0.8845588   0.5037662), wk =   0.2962963
        k(    7) = (   0.3333333   1.8298394   0.0000000), wk =   0.1481481
        k(    8) = (   0.3333333   1.8298394   0.5037662), wk =   0.2962963
        k(    9) = (   0.3333333  -0.0607218   0.0000000), wk =   0.1481481
        k(   10) = (   0.3333333  -0.0607218   0.5037662), wk =   0.2962963

                       cryst. coord.
        k(    1) = (   0.0000000   0.0000000   0.0000000), wk =   0.0740741
        k(    2) = (   0.0000000   0.0000000   0.3333333), wk =   0.1481481
        k(    3) = (   0.0000000   0.3333333   0.0000000), wk =   0.1481481
        k(    4) = (   0.0000000   0.3333333   0.3333333), wk =   0.2962963
        k(    5) = (   0.3333333   0.0000000   0.0000000), wk =   0.1481481
        k(    6) = (   0.3333333   0.0000000   0.3333333), wk =   0.2962963
        k(    7) = (   0.3333333   0.3333333   0.0000000), wk =   0.1481481
        k(    8) = (   0.3333333   0.3333333   0.3333333), wk =   0.2962963
        k(    9) = (   0.3333333  -0.3333333   0.0000000), wk =   0.1481481
        k(   10) = (   0.3333333  -0.3333333   0.3333333), wk =   0.2962963

     Initial potential from superposition of free atoms

     starting charge      82.9409, renormalised to      84.0000

     negative rho (up, down):  9.094E-02 0.000E+00
     Starting wfcs are   86 randomized atomic wfcs

     Self-consistent Calculation

     iteration #  1     ecut=    30.00 Ry     beta= 0.70
     Davidson diagonalization with overlap

     ethr =  1.00E-02,  avg # of iterations =  5.5

     Threshold (ethr) on eigenvalues was too large:
     Diagonalizing with lowered threshold

     Davidson diagonalization with overlap

[...]

     negative rho (up, down):  9.203E-02 0.000E+00

     total energy              =    -482.45261973 Ry
     estimated scf accuracy    <       0.50325969 Ry

[...]

     c_bands:  1 eigenvalues not converged
     c_bands:  2 eigenvalues not converged
     ethr =  5.90E-06,  avg # of iterations = 16.3

[...]

     c_bands:  1 eigenvalues not converged
     ethr =  1.38E-06,  avg # of iterations =  7.9

[...]

     total energy              =    -482.63966142 Ry
     estimated scf accuracy    <       0.00000314 Ry

     iteration #  7     ecut=    30.00 Ry     beta= 0.70
     Davidson diagonalization with overlap

     ethr =  3.74E-09,  avg # of iterations =  5.3

     negative rho (up, down):  8.866E-02 0.000E+00

     End of self-consistent calculation

          k = 0.0000 0.0000 0.0000 (  7357 PWs)   bands (ev):

   -41.6064 -41.6063 -17.7055 -17.6127 -17.6089 -17.5809 -10.7506 -10.7203
   -10.6334 -10.6111 -10.5892 -10.5734  -5.0606  -4.6478  -4.5416  -4.4538
    -4.3928  -4.3549  -4.2857  -4.2781  -4.1914  -4.1655  -4.0967  -4.0227
     0.2292   0.3515   0.6831   0.7207   0.7962   0.8217   0.8970   0.9060
     1.2358   1.2903   1.3498   1.3684   1.4579   1.4611   1.4700   1.4860
     1.5314   1.5376   6.6781   7.3533   7.4882   7.7273   7.9685   8.1492
     8.1934   8.4249   8.5310   8.7043   9.0790   9.6620   9.6721   9.6970
     9.7810  10.2096  10.2955  10.3954  10.6341  10.8259  11.0600  11.1750

     occupation numbers
     1.0000   1.0000   1.0000   1.0000   1.0000   1.0000   1.0000   1.0000
     1.0000   1.0000   1.0000   1.0000   1.0000   1.0000   1.0000   1.0000
     1.0000   1.0000   1.0000   1.0000   1.0000   1.0000   1.0000   1.0000
     1.0000   1.0000   1.0000   1.0000   1.0000   1.0000   1.0000   1.0000
     1.0000   1.0000   1.0000   1.0000   1.0000   1.0000   1.0000   1.0000
     1.0000   1.0000   0.0000   0.0000   0.0000   0.0000   0.0000   0.0000
     0.0000   0.0000   0.0000   0.0000   0.0000   0.0000   0.0000   0.0000
     0.0000   0.0000   0.0000   0.0000   0.0000   0.0000   0.0000   0.0000

[...]

          k = 0.3333-0.0607 0.5038 (  7385 PWs)   bands (ev):

   -41.6066 -41.6065 -17.6775 -17.6261 -17.6058 -17.5998 -10.7302 -10.7218
   -10.6485 -10.6201 -10.5880 -10.5721  -4.8351  -4.6261  -4.5758  -4.4278
    -4.3969  -4.3434  -4.3220  -4.2565  -4.2413  -4.1894  -4.1691  -4.1342
     0.3515   0.4303   0.5963   0.6401   0.8818   0.8848   0.9023   0.9819
     1.1487   1.1990   1.3216   1.3886   1.3966   1.4067   1.4216   1.4427
     1.4627   1.4845   7.3690   7.4576   7.8462   7.9628   7.9796   8.1084
     8.1744   8.3665   8.6269   8.9072   9.1784   9.3762   9.5270   9.8986
    10.0907  10.0956  10.4668  10.4932  10.6275  10.6520  10.7753  10.8667

     occupation numbers
     1.0000   1.0000   1.0000   1.0000   1.0000   1.0000   1.0000   1.0000
     1.0000   1.0000   1.0000   1.0000   1.0000   1.0000   1.0000   1.0000
     1.0000   1.0000   1.0000   1.0000   1.0000   1.0000   1.0000   1.0000
     1.0000   1.0000   1.0000   1.0000   1.0000   1.0000   1.0000   1.0000
     1.0000   1.0000   1.0000   1.0000   1.0000   1.0000   1.0000   1.0000
     1.0000   1.0000   0.0000   0.0000   0.0000   0.0000   0.0000   0.0000
     0.0000   0.0000   0.0000   0.0000   0.0000   0.0000   0.0000   0.0000
     0.0000   0.0000   0.0000   0.0000   0.0000   0.0000   0.0000   0.0000

     highest occupied, lowest unoccupied level (ev):     1.5376    6.6781

!    total energy              =    -482.63966472 Ry
     estimated scf accuracy    <       0.00000047 Ry

     The total energy is the sum of the following terms:
     one-electron contribution =     -81.43057465 Ry
     hartree contribution      =      69.31152091 Ry
     xc contribution           =    -184.94706663 Ry
     ewald contribution        =    -285.57354435 Ry

     convergence has been achieved in   7 iterations

     Writing all to output data dir bands_nm/myprefix.save/

     General routines

     Parallel routines

   This run was terminated on:  14: 4: 9  16Jul2023

   JOB DONE.