     Program PWSCF v.7.1 starts on 13Jul2023 at  4: 6:53

     Reading input from espresso_2705.pwi
Warning: card &CELL ignored
Warning: card / ignored

     Current dimensions of program PWSCF are:
     Max number of different atomic species (ntypx) = 10
     Max number of k-points (npk) =  40000
     Max angular momentum in pseudopotentials (lmaxx) =  4
     file Ba.pbe-spn-kjpaw_psl.1.0.0.UPF: wavefunction(s)  5S 6S renormalized
     file O.pbe-n-kjpaw_psl.0.1.UPF: wavefunction(s)  2P renormalized
     Message from routine setup:
     using ibrav=0 with symmetry is DISCOURAGED, use correct ibrav instead

     K-points division:     npool     =       2
     R & G space division:  proc/nbgrp/npool/nimage =       8
     Subspace diagonalization in iterative solution of the eigenvalue problem:
     a serial algorithm will be used

     Using Slab Decomposition

     bravais-lattice index     =            0
     lattice parameter (alat)  =      11.8518  a.u.
     unit-cell volume          =    1191.9781 (a.u.)^3
     number of atoms/cell      =           10
     number of atomic types    =            4
     number of electrons       =        82.00
     number of Kohn-Sham states=           64
     kinetic-energy cutoff     =      30.0000  Ry
     charge density cutoff     =     240.0000  Ry
     scf convergence threshold =      1.0E-06
     mixing beta               =       0.7000
     number of iterations used =            8  plain     mixing
     Exchange-correlation= SLA  PW   PBX  PBC
                           (   1   4   3   4   0   0   0)

     celldm(1)=  11.851786  celldm(2)=   0.000000  celldm(3)=   0.000000
     celldm(4)=   0.000000  celldm(5)=   0.000000  celldm(6)=   0.000000

     crystal axes: (cart. coord. in units of alat)
               a(1) = (   1.000000   0.000000   0.000000 )
               a(2) = (   0.497175   0.867650   0.000000 )
               a(3) = (   0.500980   0.290330   0.825225 )

     reciprocal axes: (cart. coord. in units 2 pi/alat)
               b(1) = (  1.000000 -0.573013 -0.405486 )
               b(2) = (  0.000000  1.152538 -0.405486 )
               b(3) = (  0.000000  0.000000  1.211791 )

     PseudoPot. # 1 for Ba read from file:
     /lustre07/scratch/pragov/crystal_structure_design/utils/SSSP/Ba.pbe-spn-kjpaw_psl.1.0.0.UPF
     MD5 check sum: c432291d3e53af55f19d5e8866385beb
     Pseudo is Projector augmented-wave + core cor, Zval = 10.0
     Generated using "atomic" code by A. Dal Corso  v.5.1
     Shape of augmentation charge: PSQ
     Using radial grid of 1251 points,  7 beta functions with:
                l(1) =   0
                l(2) =   0
                l(3) =   0
                l(4) =   1
                l(5) =   1
                l(6) =   2
                l(7) =   2
     Q(r) pseudized with 0 coefficients

     PseudoPot. # 2 for La read from file:
     /lustre07/scratch/pragov/crystal_structure_design/utils/SSSP/La.GGA-PBE-paw-v1.0.UPF
     MD5 check sum: 436541e95c1ad8901025bd0b0ed42ae2
     Pseudo is Projector augmented-wave + core cor, Zval = 11.0
     Generated using ATOMPAW code
     Shape of augmentation charge: BESSEL
     Using radial grid of 1101 points,  8 beta functions with:
                l(1) =   0
                l(2) =   0
                l(3) =   1
                l(4) =   1
                l(5) =   2
                l(6) =   2
                l(7) =   3
                l(8) =   3
     Q(r) pseudized with 0 coefficients

     PseudoPot. # 3 for Bi read from file:
     /lustre07/scratch/pragov/crystal_structure_design/utils/SSSP/Bi_pbe_v1.uspp.F.UPF
     MD5 check sum: cceb9f28ec65b6d7ff33140f5b0b1758
     Pseudo is Ultrasoft + core correction, Zval = 15.0
     Generated by new atomic code, or converted to UPF format
     Using radial grid of  899 points,  6 beta functions with:
                l(1) =   0
                l(2) =   0
                l(3) =   1
                l(4) =   1
                l(5) =   2
                l(6) =   2
     Q(r) pseudized with  6 coefficients,  rinner =    1.000   1.000   1.000
                                                       1.000   1.000

     PseudoPot. # 4 for O  read from file:
     /lustre07/scratch/pragov/crystal_structure_design/utils/SSSP/O.pbe-n-kjpaw_psl.0.1.UPF
     MD5 check sum: 0234752ac141de4415c5fc33072bef88
     Pseudo is Projector augmented-wave + core cor, Zval =  6.0
     Generated using "atomic" code by A. Dal Corso  v.5.0.99 svn rev. 10869
     Shape of augmentation charge: BESSEL
     Using radial grid of 1095 points,  4 beta functions with:
                l(1) =   0
                l(2) =   0
                l(3) =   1
                l(4) =   1
     Q(r) pseudized with 0 coefficients

     atomic species   valence    mass     pseudopotential
        Ba            10.00   137.32700     Ba( 1.00)
        La            11.00   138.90547     La( 1.00)
        Bi            15.00   208.98040     Bi( 1.00)
        O              6.00    15.99900     O ( 1.00)

      2 Sym. Ops., with inversion, found

                                    s                        frac. trans.

      isym =  1     identity

 cryst.   s( 1) = (     1          0          0      )
                  (     0          1          0      )
                  (     0          0          1      )

 cart.    s( 1) = (  1.0000000 -0.0000000 -0.0000000 )
                  (  0.0000000  1.0000000  0.0000000 )
                  (  0.0000000  0.0000000  1.0000000 )

      isym =  2     inversion

 cryst.   s( 2) = (    -1          0          0      )
                  (     0         -1          0      )
                  (     0          0         -1      )

 cart.    s( 2) = ( -1.0000000  0.0000000  0.0000000 )
                  (  0.0000000 -1.0000000  0.0000000 )
                  (  0.0000000  0.0000000 -1.0000000 )

   Cartesian axes

     site n.     atom                  positions (alat units)
         1           Ba  tau(   1) = (   1.2456504   0.7218856   0.1988519  )
         2           Ba  tau(   2) = (   0.7525043   0.4360951   0.6263727  )
         3           La  tau(   3) = (   0.2504899   0.1451652   0.4126123  )
         4           Bi  tau(   4) = (   0.7485875   0.4338252   0.0000000  )
         5           O   tau(   5) = (   1.2113955   0.4250297   0.6626570  )
         6           O   tau(   6) = (   1.0271021   0.3182271   0.1625676  )
         7           O   tau(   7) = (   0.7867593   0.7329509   0.1625676  )
         8           O   tau(   8) = (   0.9710527   0.8397536   0.6626570  )
         9           O   tau(   9) = (   0.5487826   0.3180332   0.2544564  )
        10           O   tau(  10) = (   1.4493722   0.8399474   0.5707682  )

   Crystallographic axes

     site n.     atom                  positions (cryst. coord.)
         1           Ba  tau(   1) = (  0.7513690  0.7513690  0.2409670  )
         2           Ba  tau(   2) = (  0.2486310  0.2486310  0.7590330  )
         3           La  tau(   3) = (  0.0000000  0.0000000  0.5000000  )
         4           Bi  tau(   4) = (  0.5000000  0.5000000  0.0000000  )
         5           O   tau(   5) = (  0.6991500  0.2211650  0.8030020  )
         6           O   tau(   6) = (  0.7788350  0.3008500  0.1969980  )
         7           O   tau(   7) = (  0.3008500  0.7788350  0.1969980  )
         8           O   tau(   8) = (  0.2211650  0.6991500  0.8030020  )
         9           O   tau(   9) = (  0.2633670  0.2633670  0.3083480  )
        10           O   tau(  10) = (  0.7366330  0.7366330  0.6916520  )

     number of k points=    14
                       cart. coord. in units 2pi/alat
        k(    1) = (   0.0000000   0.0000000   0.0000000), wk =   0.0740741
        k(    2) = (   0.0000000   0.0000000   0.4039304), wk =   0.1481481
        k(    3) = (   0.0000000   0.3841793  -0.1351619), wk =   0.1481481
        k(    4) = (   0.0000000   0.3841793   0.2687685), wk =   0.1481481
        k(    5) = (   0.0000000   0.3841793  -0.5390923), wk =   0.1481481
        k(    6) = (   0.3333333  -0.1910043  -0.1351619), wk =   0.1481481
        k(    7) = (   0.3333333  -0.1910043   0.2687685), wk =   0.1481481
        k(    8) = (   0.3333333  -0.1910043  -0.5390923), wk =   0.1481481
        k(    9) = (   0.3333333   0.1931750  -0.2703238), wk =   0.1481481
        k(   10) = (   0.3333333   0.1931750   0.1336066), wk =   0.1481481
        k(   11) = (   0.3333333   0.1931750  -0.6742542), wk =   0.1481481
        k(   12) = (   0.3333333  -0.5751837   0.0000000), wk =   0.1481481
        k(   13) = (   0.3333333  -0.5751837   0.4039304), wk =   0.1481481
        k(   14) = (   0.3333333  -0.5751837  -0.4039304), wk =   0.1481481

                       cryst. coord.
        k(    1) = (   0.0000000   0.0000000   0.0000000), wk =   0.0740741
        k(    2) = (   0.0000000   0.0000000   0.3333333), wk =   0.1481481
        k(    3) = (   0.0000000   0.3333333  -0.0000000), wk =   0.1481481
        k(    4) = (   0.0000000   0.3333333   0.3333333), wk =   0.1481481
        k(    5) = (   0.0000000   0.3333333  -0.3333333), wk =   0.1481481
        k(    6) = (   0.3333333  -0.0000000  -0.0000000), wk =   0.1481481
        k(    7) = (   0.3333333  -0.0000000   0.3333333), wk =   0.1481481
        k(    8) = (   0.3333333  -0.0000000  -0.3333333), wk =   0.1481481
        k(    9) = (   0.3333333   0.3333333   0.0000000), wk =   0.1481481
        k(   10) = (   0.3333333   0.3333333   0.3333333), wk =   0.1481481
        k(   11) = (   0.3333333   0.3333333  -0.3333333), wk =   0.1481481
        k(   12) = (   0.3333333  -0.3333333   0.0000000), wk =   0.1481481
        k(   13) = (   0.3333333  -0.3333333   0.3333333), wk =   0.1481481
        k(   14) = (   0.3333333  -0.3333333  -0.3333333), wk =   0.1481481

     Check: negative core charge=   -0.000009

     Initial potential from superposition of free atoms

     starting charge      80.9574, renormalised to      82.0000

     negative rho (up, down):  3.989E-02 0.000E+00
     Starting wfcs are   75 randomized atomic wfcs
     Checking if some PAW data can be deallocated...

     Self-consistent Calculation

     iteration #  1     ecut=    30.00 Ry     beta= 0.70
     Davidson diagonalization with overlap

     ethr =  1.00E-02,  avg # of iterations =  6.4

     negative rho (up, down):  5.448E-02 0.000E+00

     total energy              =   -1765.31252994 Ry
     estimated scf accuracy    <       2.10465358 Ry

[...]

     total energy              =   -1766.35187554 Ry
     estimated scf accuracy    <       0.00000434 Ry

     iteration # 13     ecut=    30.00 Ry     beta= 0.70
     Davidson diagonalization with overlap

     ethr =  5.29E-09,  avg # of iterations =  1.2

     negative rho (up, down):  4.119E-02 0.000E+00

     End of self-consistent calculation

          k = 0.0000 0.0000 0.0000 (  3311 PWs)   bands (ev):

   -21.0370 -17.1609 -17.1035 -13.3687 -13.3511 -13.0141 -13.0133 -12.9995
    -8.6232  -8.3649  -8.2784  -8.2097  -7.0872  -7.0722  -4.3707  -4.3638
    -4.3330  -2.5944  -2.4649  -2.3819  -2.2359  -2.1980  -2.1913   0.0944
     5.6926   5.7210   5.7676   6.5181   6.5792   6.6706   6.7537   6.8146
     7.4604   7.5666   7.6474   7.7503   7.7974   7.8030   8.0202   8.0444
     8.1076  10.4424  13.0212  13.5625  13.6139  13.6227  13.6437  13.6933
    13.8888  13.9354  14.1327  14.1425  14.1441  14.1522  14.3363  14.5755
    14.6738  14.6848  16.6417  16.6883  16.9071  17.0577  17.2320  17.9712

     occupation numbers
     1.0000   1.0000   1.0000   1.0000   1.0000   1.0000   1.0000   1.0000
     1.0000   1.0000   1.0000   1.0000   1.0000   1.0000   1.0000   1.0000
     1.0000   1.0000   1.0000   1.0000   1.0000   1.0000   1.0000   1.0000
     1.0000   1.0000   1.0000   1.0000   1.0000   1.0000   1.0000   1.0000
     1.0000   1.0000   1.0000   1.0000   1.0000   1.0000   1.0000   1.0000
     1.0000   0.0000   0.0000   0.0000   0.0000   0.0000   0.0000   0.0000
     0.0000   0.0000   0.0000   0.0000   0.0000   0.0000   0.0000   0.0000
     0.0000   0.0000   0.0000   0.0000   0.0000   0.0000   0.0000   0.0000

[...]

          k = 0.3333-0.5752-0.4039 (  3295 PWs)   bands (ev):

   -21.0349 -17.1337 -17.1310 -13.3681 -13.3517 -13.0134 -13.0126 -12.9989
    -8.9659  -8.3550  -8.0873  -7.8893  -7.3991  -7.1722  -4.4705  -4.3019
    -4.0648  -2.3671  -2.3136  -2.2647  -2.2382  -2.2224  -2.1789   0.3230
     4.8517   4.9603   5.4224   6.2700   6.6309   6.8305   6.9518   7.0845
     7.1932   7.2851   7.3410   7.4872   7.5465   7.7861   7.8916   7.9449
     8.1845  10.6692  13.7840  13.9670  14.0597  14.0940  14.1117  14.1403
    14.1933  14.3288  14.3654  14.4416  14.5596  14.9745  15.0199  15.1691
    15.2501  15.6672  15.9163  16.1480  16.3069  16.5621  16.8609  17.1148

     occupation numbers
     1.0000   1.0000   1.0000   1.0000   1.0000   1.0000   1.0000   1.0000
     1.0000   1.0000   1.0000   1.0000   1.0000   1.0000   1.0000   1.0000
     1.0000   1.0000   1.0000   1.0000   1.0000   1.0000   1.0000   1.0000
     1.0000   1.0000   1.0000   1.0000   1.0000   1.0000   1.0000   1.0000
     1.0000   1.0000   1.0000   1.0000   1.0000   1.0000   1.0000   1.0000
     1.0000   0.0000   0.0000   0.0000   0.0000   0.0000   0.0000   0.0000
     0.0000   0.0000   0.0000   0.0000   0.0000   0.0000   0.0000   0.0000
     0.0000   0.0000   0.0000   0.0000   0.0000   0.0000   0.0000   0.0000

     highest occupied, lowest unoccupied level (ev):     8.2193   10.4108

!    total energy              =   -1766.35187563 Ry
     estimated scf accuracy    <       0.00000003 Ry

     The total energy is the sum of the following terms:
     one-electron contribution =    -127.49516324 Ry
     hartree contribution      =     119.52030004 Ry
     xc contribution           =    -158.92033180 Ry
     ewald contribution        =    -394.24845155 Ry
     one-center paw contrib.   =   -1205.20822909 Ry
      -> PAW hartree energy AE =      28.60626655 Ry
      -> PAW hartree energy PS =     -28.49442810 Ry
      -> PAW xc energy AE      =    -394.21067194 Ry
      -> PAW xc energy PS      =      19.14503940 Ry
      -> total E_H with PAW    =     119.63213850 Ry
      -> total E_XC with PAW   =    -533.98596434 Ry

     convergence has been achieved in  13 iterations

     Writing all to output data dir bands_nm/myprefix.save/

     General routines

     Parallel routines

     PAW routines

   This run was terminated on:   4: 7:19  13Jul2023

   JOB DONE.