     Program PWSCF v.7.1 starts on 15Jul2023 at 14:10:42

     Reading input from espresso_8737.pwi
Warning: card &CELL ignored
Warning: card / ignored

     Current dimensions of program PWSCF are:
     Max number of different atomic species (ntypx) = 10
     Max number of k-points (npk) =  40000
     Max angular momentum in pseudopotentials (lmaxx) =  4
     Message from routine setup:
     the system is metallic, specify occupations
     Message from routine setup:
     using ibrav=0 with symmetry is DISCOURAGED, use correct ibrav instead

     K-points division:     npool     =       2
     R & G space division:  proc/nbgrp/npool/nimage =       4
     Subspace diagonalization in iterative solution of the eigenvalue problem:
     a serial algorithm will be used

     Using Slab Decomposition

     bravais-lattice index     =            0
     lattice parameter (alat)  =      12.0763  a.u.
     unit-cell volume          =    1245.3473 (a.u.)^3
     number of atoms/cell      =           10
     number of atomic types    =            4
     number of electrons       =        95.00 (up:  50.00, down:  45.00)
     number of Kohn-Sham states=           64
     kinetic-energy cutoff     =      30.0000  Ry
     charge density cutoff     =     240.0000  Ry
     scf convergence threshold =      1.0E-06
     mixing beta               =       0.7000
     number of iterations used =            8  plain     mixing
     Exchange-correlation=  SLA  PW   PBX  PBC
                           (   1   4   3   4   0   0   0)

     celldm(1)=  12.076334  celldm(2)=   0.000000  celldm(3)=   0.000000
     celldm(4)=   0.000000  celldm(5)=   0.000000  celldm(6)=   0.000000

     crystal axes: (cart. coord. in units of alat)
               a(1) = (   1.000000   0.000000   0.000000 )
               a(2) = (   0.500000   0.866025   0.000000 )
               a(3) = (   0.500000   0.288675   0.816497 )

     reciprocal axes: (cart. coord. in units 2 pi/alat)
               b(1) = (  1.000000 -0.577350 -0.408248 )
               b(2) = (  0.000000  1.154700 -0.408248 )
               b(3) = (  0.000000  0.000000  1.224745 )

     PseudoPot. # 1 for Cs read from file:
     /lustre07/scratch/pragov/crystal_structure_design/utils/SSSP/Cs_pbe_v1.uspp.F.UPF
     MD5 check sum: 3476d69cb178dfad3ffaa59df4e07ca4
     Pseudo is Ultrasoft + core correction, Zval =  9.0
     Generated by new atomic code, or converted to UPF format
     Using radial grid of  905 points,  6 beta functions with:
                l(1) =   0
                l(2) =   0
                l(3) =   1
                l(4) =   1
                l(5) =   2
                l(6) =   2
     Q(r) pseudized with  6 coefficients,  rinner =    1.500   1.500   1.500
                                                       1.500   1.500

     PseudoPot. # 2 for Mn read from file:
     /lustre07/scratch/pragov/crystal_structure_design/utils/SSSP/mn_pbe_v1.5.uspp.F.UPF
     MD5 check sum: 82ef2b46521d7a7d9e736dc3972e4928
     Pseudo is Ultrasoft + core correction, Zval = 15.0
     Generated by new atomic code, or converted to UPF format
     Using radial grid of  859 points,  6 beta functions with:
                l(1) =   0
                l(2) =   0
                l(3) =   1
                l(4) =   1
                l(5) =   2
                l(6) =   2
     Q(r) pseudized with  8 coefficients,  rinner =    0.950   0.950   0.950
                                                       0.950   0.950

     PseudoPot. # 3 for Hg read from file:
     /lustre07/scratch/pragov/crystal_structure_design/utils/SSSP/Hg_ONCV_PBE-1.0.oncvpsp.upf
     MD5 check sum: dd5a8773074bfcf4280086d4d95875c4
     Pseudo is Norm-conserving, Zval = 20.0
     Generated using ONCVPSP code by D. R. Hamann
     Using radial grid of 1262 points,  8 beta functions with:
                l(1) =   0
                l(2) =   0
                l(3) =   1
                l(4) =   1
                l(5) =   2
                l(6) =   2
                l(7) =   3
                l(8) =   3

     PseudoPot. # 4 for F  read from file:
     /lustre07/scratch/pragov/crystal_structure_design/utils/SSSP/f_pbe_v1.4.uspp.F.UPF
     MD5 check sum: 4c38b6a325caf53ec0e86aed9459de46
     Pseudo is Ultrasoft, Zval =  7.0
     Generated by new atomic code, or converted to UPF format
     Using radial grid of  799 points,  4 beta functions with:
                l(1) =   0
                l(2) =   0
                l(3) =   1
                l(4) =   1
     Q(r) pseudized with  8 coefficients,  rinner =    0.950   0.950   0.950

     atomic species   valence    mass     pseudopotential
        Cs             9.00   132.90545     Cs( 1.00)
        Mn            15.00    54.93804     Mn( 1.00)
        Hg            20.00   200.59200     Hg( 1.00)
        F              7.00    18.99840     F ( 1.00)

     Starting magnetic structure
     atomic species   magnetization
        Cs           0.000
        Mn           0.000
        Hg           0.000
        F            0.000

     12 Sym. Ops., with inversion, found

                                    s                        frac. trans.

      isym =  1     identity

 cryst.   s( 1) = (     1          0          0      )
                  (     0          1          0      )
                  (     0          0          1      )

 cart.    s( 1) = (  1.0000000  0.0000000 -0.0000000 )
                  (  0.0000000  1.0000000 -0.0000000 )
                  (  0.0000000  0.0000000  1.0000000 )

      isym =  2     180 deg rotation - cart. axis [1,0,0]

[...]

      isym =  3     120 deg rotation - cryst. axis [0,0,1]

[...]

      isym =  6     180 deg rotation - cryst. axis [1,1,0]

[...]

      isym =  7     inversion

[...]

      isym =  8     inv. 180 deg rotation - cart. axis [1,0,0]

[...]

      isym =  9     inv. 120 deg rotation - cryst. axis [0,0,1]

 cryst.   s( 9) = (     1         -1          0      )
                  (     1          0          0      )
                  (     1          0         -1      )

 cart.    s( 9) = (  0.4999999  0.8660253 -0.0000002 )
                  ( -0.8660255  0.5000001 -0.0000000 )
                  (  0.0000000  0.0000000 -1.0000000 )

[...]

 cryst.   s(10) = (     0          1          0      )
                  (    -1          1          0      )
                  (     0          1         -1      )

 cart.    s(10) = (  0.5000001 -0.8660253 -0.0000000 )
                  (  0.8660255  0.4999999 -0.0000002 )
                  (  0.0000000  0.0000000 -1.0000000 )

[...]

      isym = 12     inv. 180 deg rotation - cryst. axis [1,1,0]

 cryst.   s(12) = (     1         -1          0      )
                  (     0         -1          0      )
                  (     0         -1          1      )

 cart.    s(12) = (  0.4999999 -0.8660254  0.0000001 )
                  ( -0.8660255 -0.4999999  0.0000002 )
                  (  0.0000000  0.0000000  1.0000000 )

   Cartesian axes

     site n.     atom                  positions (alat units)
         1           Cs  tau(   1) = (   0.5000000   0.2886752   0.2041242  )
         2           Cs  tau(   2) = (   1.5000001   0.8660255   0.6123725  )
         3           Mn  tau(   3) = (   0.0000000   0.0000000   0.0000000  )
         4           Hg  tau(   4) = (   1.0000001   0.5773503   0.4082483  )
         5           F   tau(   5) = (   0.7321191   0.7320115   0.1895244  )
         6           F   tau(   6) = (   1.2678811   0.7320115   0.1895244  )
         7           F   tau(   7) = (   1.2678811   0.4226892   0.6269723  )
         8           F   tau(   8) = (   1.0000000   0.2680280   0.1895244  )
         9           F   tau(   9) = (   1.0000001   0.8866727   0.6269723  )
        10           F   tau(  10) = (   0.7321191   0.4226892   0.6269723  )

   Crystallographic axes

     site n.     atom                  positions (cryst. coord.)
         1           Cs  tau(   1) = (  0.2500000  0.2500000  0.2500000  )
         2           Cs  tau(   2) = (  0.7500000  0.7500000  0.7500000  )
         3           Mn  tau(   3) = (  0.0000000  0.0000000  0.0000000  )
         4           Hg  tau(   4) = (  0.5000000  0.5000000  0.5000000  )
         5           F   tau(   5) = (  0.2321190  0.7678810  0.2321190  )
         6           F   tau(   6) = (  0.7678810  0.7678810  0.2321190  )
         7           F   tau(   7) = (  0.7678810  0.2321190  0.7678810  )
         8           F   tau(   8) = (  0.7678810  0.2321190  0.2321190  )
         9           F   tau(   9) = (  0.2321190  0.7678810  0.7678810  )
        10           F   tau(  10) = (  0.2321190  0.2321190  0.7678810  )

     number of k points=     6
                       cart. coord. in units 2pi/alat
        k(    1) = (   0.0000000   0.0000000   0.0000000), wk =   0.0370370
        k(    2) = (   0.0000000   0.0000000   0.4082483), wk =   0.0740741
        k(    3) = (   0.0000000   0.3849001  -0.1360828), wk =   0.2222222
        k(    4) = (   0.0000000   0.3849001   0.2721655), wk =   0.2222222
        k(    5) = (   0.0000000   0.3849001  -0.5443310), wk =   0.2222222
        k(    6) = (   0.3333333  -0.5773503   0.0000000), wk =   0.2222222

                       cryst. coord.
        k(    1) = (   0.0000000   0.0000000   0.0000000), wk =   0.0370370
        k(    2) = (   0.0000000   0.0000000   0.3333333), wk =   0.0740741
        k(    3) = (   0.0000000   0.3333333   0.0000000), wk =   0.2222222
        k(    4) = (   0.0000000   0.3333333   0.3333333), wk =   0.2222222
        k(    5) = (   0.0000000   0.3333333  -0.3333333), wk =   0.2222222
        k(    6) = (   0.3333333  -0.3333333  -0.0000000), wk =   0.2222222

     Check: negative core charge=   -0.000007
     Generating pointlists ...
     new r_m :   0.2065 (alat units)  2.4939 (a.u.) for type    1
     new r_m :   0.1354 (alat units)  1.6353 (a.u.) for type    2
     new r_m :   0.1563 (alat units)  1.8872 (a.u.) for type    3
     new r_m :   0.1354 (alat units)  1.6353 (a.u.) for type    4

     Initial potential from superposition of free atoms

     starting charge      94.4211, renormalised to      95.0000
     Starting wfcs are   73 randomized atomic wfcs

     Self-consistent Calculation

     iteration #  1     ecut=    30.00 Ry     beta= 0.70
     Davidson diagonalization with overlap

     ethr =  1.00E-02,  avg # of iterations =  4.2

     total energy              =    -938.87378489 Ry
     estimated scf accuracy    <       1.78199132 Ry

     total magnetization       =     5.00 Bohr mag/cell
     absolute magnetization    =     5.00 Bohr mag/cell

[...]

     negative rho (up, down):  0.000E+00 2.268E-06

[...]

     total energy              =    -939.57928843 Ry
     estimated scf accuracy    <       0.00000538 Ry

[...]

     iteration #  8     ecut=    30.00 Ry     beta= 0.70
     Davidson diagonalization with overlap

     ethr =  5.66E-09,  avg # of iterations =  7.8

     negative rho (up, down):  0.000E+00 7.164E-04

     Magnetic moment per site  (integrated on atomic sphere of radius R)
     atom   1 (R=0.207)  charge=  6.9032  magn=  0.0027
     atom   2 (R=0.207)  charge=  6.9032  magn=  0.0027
     atom   3 (R=0.135)  charge= 12.2904  magn=  4.0056
     atom   4 (R=0.156)  charge= 16.7535  magn=  0.0736
     atom   5 (R=0.135)  charge=  6.6351  magn=  0.0408
     atom   6 (R=0.135)  charge=  6.6351  magn=  0.0408
     atom   7 (R=0.135)  charge=  6.6351  magn=  0.0408
     atom   8 (R=0.135)  charge=  6.6351  magn=  0.0408
     atom   9 (R=0.135)  charge=  6.6351  magn=  0.0408
     atom  10 (R=0.135)  charge=  6.6351  magn=  0.0408

     End of self-consistent calculation

 ------ SPIN UP ------------

          k = 0.0000 0.0000 0.0000 (  3479 PWs)   bands (ev):

  -108.8189 -74.4851 -56.6731 -56.6731 -56.6731 -43.1917 -43.1917 -43.1916
   -16.3321 -16.0088 -16.0088 -16.0088 -15.9776 -15.9776 -13.7330 -13.7225
    -1.3065  -1.3065  -1.3065  -0.7808  -0.7808  -0.7808  -0.3529  -0.3529
    -0.3084   0.5564   0.5564   0.5564   1.6383   1.6383   1.6383   2.5302
     2.5302   2.5717   2.5717   2.5717   2.8177   2.8177   2.8177   3.1175
     3.1175   3.1175   3.2205   3.2205   3.2205   5.2327   5.2327   5.2327
     6.2284   6.7575   6.7575  11.3960  11.3960  11.3960  11.9306  11.9306
    12.3043  14.6928  14.6928  14.6928  15.5500  16.2883  16.2884  16.2885

     occupation numbers
     1.0000   1.0000   1.0000   1.0000   1.0000   1.0000   1.0000   1.0000
     1.0000   1.0000   1.0000   1.0000   1.0000   1.0000   1.0000   1.0000
     1.0000   1.0000   1.0000   1.0000   1.0000   1.0000   1.0000   1.0000
     1.0000   1.0000   1.0000   1.0000   1.0000   1.0000   1.0000   1.0000
     1.0000   1.0000   1.0000   1.0000   1.0000   1.0000   1.0000   1.0000
     1.0000   1.0000   1.0000   1.0000   1.0000   1.0000   1.0000   1.0000
     1.0000   1.0000   0.0000   0.0000   0.0000   0.0000   0.0000   0.0000
     0.0000   0.0000   0.0000   0.0000   0.0000   0.0000   0.0000   0.0000

[...]

 ------ SPIN DOWN ----------

[...]

          k = 0.3333-0.5774 0.0000 (  3468 PWs)   bands (ev):

  -108.7716 -69.4206 -56.6533 -56.6505 -56.6497 -38.2466 -38.2450 -38.2446
   -16.1305 -15.9941 -15.9439 -15.9272 -15.9109 -15.8982 -13.7541 -13.7533
    -0.9376  -0.9070  -0.8211  -0.8183  -0.5994  -0.5317  -0.3183  -0.1572
     0.4176   0.4437   0.5432   0.5621   1.2698   1.6545   1.7565   2.2661
     2.2839   2.4808   2.7147   2.7447   2.8965   2.9301   2.9589   2.9848
     3.1350   3.2081   3.2290   3.2635   3.4853   7.1642   9.3512   9.3689
     9.3726  10.2328  10.5233  12.1870  12.3047  12.9297  12.9799  13.2222
    13.5266  14.1357  14.3154  14.7538  14.7818  14.7910  15.5477  15.8993

     occupation numbers
     1.0000   1.0000   1.0000   1.0000   1.0000   1.0000   1.0000   1.0000
     1.0000   1.0000   1.0000   1.0000   1.0000   1.0000   1.0000   1.0000
     1.0000   1.0000   1.0000   1.0000   1.0000   1.0000   1.0000   1.0000
     1.0000   1.0000   1.0000   1.0000   1.0000   1.0000   1.0000   1.0000
     1.0000   1.0000   1.0000   1.0000   1.0000   1.0000   1.0000   1.0000
     1.0000   1.0000   1.0000   1.0000   1.0000   0.0000   0.0000   0.0000
     0.0000   0.0000   0.0000   0.0000   0.0000   0.0000   0.0000   0.0000
     0.0000   0.0000   0.0000   0.0000   0.0000   0.0000   0.0000   0.0000

     highest occupied, lowest unoccupied level (ev):     6.7645    6.5482

!    total energy              =    -939.57929462 Ry
     estimated scf accuracy    <       0.00000043 Ry

     The total energy is the sum of the following terms:
     one-electron contribution =    -567.22932165 Ry
     hartree contribution      =     323.33518495 Ry
     xc contribution           =    -171.00994212 Ry
     ewald contribution        =    -524.67521579 Ry

     total magnetization       =     5.00 Bohr mag/cell
     absolute magnetization    =     5.03 Bohr mag/cell

     convergence has been achieved in   8 iterations

     Writing all to output data dir bands_nm/myprefix.save/

     General routines

     Parallel routines

   This run was terminated on:  14:10:50  15Jul2023

   JOB DONE.