     Program PWSCF v.7.0 starts on  6Jun2023 at 13:29:57

     K-points division:     npool     =       2
     R & G space division:  proc/nbgrp/npool/nimage =       4

     Reading input from espresso_16801.pwi
Warning: card &CELL ignored
Warning: card / ignored

     Current dimensions of program PWSCF are:
     Max number of different atomic species (ntypx) = 10
     Max number of k-points (npk) =  40000
     Max angular momentum in pseudopotentials (lmaxx) =  4
     file O.pbe-n-kjpaw_psl.0.1.UPF: wavefunction(s)  2P renormalized
     Message from routine setup:
     using ibrav=0 with symmetry is DISCOURAGED, use correct ibrav instead

     Using Slab Decomposition

     bravais-lattice index     =            0
     lattice parameter (alat)  =      12.6961  a.u.
     unit-cell volume          =     583.5721 (a.u.)^3
     number of atoms/cell      =            8
     number of atomic types    =            3
     number of electrons       =        48.00
     number of Kohn-Sham states=           64
     kinetic-energy cutoff     =      30.0000  Ry
     charge density cutoff     =     240.0000  Ry
     scf convergence threshold =      1.0E-06
     mixing beta               =       0.7000
     number of iterations used =            8  plain     mixing
     Exchange-correlation= SLA  PW   PBX  PBC
                           (   1   4   3   4   0   0   0)

     celldm(1)=  12.696068  celldm(2)=   0.000000  celldm(3)=   0.000000
     celldm(4)=   0.000000  celldm(5)=   0.000000  celldm(6)=   0.000000

     crystal axes: (cart. coord. in units of alat)
               a(1) = (   1.000000   0.000000   0.000000 )
               a(2) = (  -0.881069   0.472989   0.000000 )
               a(3) = (   0.000000   0.000000   0.602887 )

     reciprocal axes: (cart. coord. in units 2 pi/alat)
               b(1) = (  1.000000  1.862769  0.000000 )
               b(2) = (  0.000000  2.114216  0.000000 )
               b(3) = (  0.000000  0.000000  1.658685 )

     PseudoPot. # 1 for Sc read from file:
     /home/pragov/projects/rrg-bengioy-ad/pragov/crystal_structure_design/SSSP/Sc_ONCV_PBE-1.0.oncvpsp.upf
     MD5 check sum: e21af8023abb52e52cb7cd3133e4a229
     Pseudo is Norm-conserving, Zval = 11.0
     Generated using ONCVPSP code by D. R. Hamann
     Using radial grid of 1662 points,  6 beta functions with:
                l(1) =   0
                l(2) =   0
                l(3) =   1
                l(4) =   1
                l(5) =   2
                l(6) =   2

     PseudoPot. # 2 for H  read from file:
     /home/pragov/projects/rrg-bengioy-ad/pragov/crystal_structure_design/SSSP/H.pbe-rrkjus_psl.1.0.0.UPF
     MD5 check sum: f52b6d4d1c606e5624b1dc7b2218f220
     Pseudo is Ultrasoft, Zval =  1.0
     Generated using "atomic" code by A. Dal Corso  v.5.1
     Using radial grid of  929 points,  2 beta functions with:
                l(1) =   0
                l(2) =   0
     Q(r) pseudized with 0 coefficients

     PseudoPot. # 3 for O  read from file:
     /home/pragov/projects/rrg-bengioy-ad/pragov/crystal_structure_design/SSSP/O.pbe-n-kjpaw_psl.0.1.UPF
     MD5 check sum: 0234752ac141de4415c5fc33072bef88
     Pseudo is Projector augmented-wave + core cor, Zval =  6.0
     Generated using "atomic" code by A. Dal Corso  v.5.0.99 svn rev. 10869
     Shape of augmentation charge: BESSEL
     Using radial grid of 1095 points,  4 beta functions with:
                l(1) =   0
                l(2) =   0
                l(3) =   1
                l(4) =   1
     Q(r) pseudized with 0 coefficients

     atomic species   valence    mass     pseudopotential
        Sc            11.00    44.95591     Sc( 1.00)
        H              1.00     1.00800     H ( 1.00)
        O              6.00    15.99900     O ( 1.00)

      2 Sym. Ops. (no inversion) found ( 1 have fractional translation)

                                    s                        frac. trans.

      isym =  1     identity

 cryst.   s( 1) = (     1          0          0      )
                  (     0          1          0      )
                  (     0          0          1      )

 cart.    s( 1) = (  1.0000000  0.0000000  0.0000000 )
                  (  0.0000000  1.0000000  0.0000000 )
                  (  0.0000000  0.0000000  1.0000000 )

      isym =  2     180 deg rotation - cart. axis [0,0,1]

 cryst.   s( 2) = (    -1          0          0      )    f =( -0.0000000 )
                  (     0         -1          0      )       ( -0.0000000 )
                  (     0          0          1      )       (  0.5000000 )

 cart.    s( 2) = ( -1.0000000 -0.0000000  0.0000000 )    f =( -0.0000000 )
                  (  0.0000000 -1.0000000  0.0000000 )       ( -0.0000000 )
                  (  0.0000000  0.0000000  1.0000000 )       (  0.3014436 )

   Cartesian axes

     site n.     atom                  positions (alat units)
         1           Sc  tau(   1) = (  -0.2707822   0.3195341   0.4527014  )
         2           Sc  tau(   2) = (   0.3897137   0.1534545   0.1512578  )
         3           H   tau(   3) = (   0.9702453   0.0074817   0.3406609  )
         4           H   tau(   4) = (  -0.8513138   0.4655069   0.0392172  )
         5           O   tau(   5) = (   0.4650034   0.1345232   0.4524434  )
         6           O   tau(   6) = (  -0.3460719   0.3384655   0.1509998  )
         7           O   tau(   7) = (   0.8699956   0.0326892   0.4486693  )
         8           O   tau(   8) = (  -0.7510641   0.4402994   0.1472257  )

   Crystallographic axes

     site n.     atom                  positions (cryst. coord.)
         1           Sc  tau(   1) = (  0.3244360  0.6755640  0.7508890  )
         2           Sc  tau(   2) = (  0.6755640  0.3244360  0.2508890  )
         3           H   tau(   3) = (  0.9841820  0.0158180  0.5650490  )
         4           H   tau(   4) = (  0.0158180  0.9841820  0.0650490  )
         5           O   tau(   5) = (  0.7155890  0.2844110  0.7504610  )
         6           O   tau(   6) = (  0.2844110  0.7155890  0.2504610  )
         7           O   tau(   7) = (  0.9308880  0.0691120  0.7442010  )
         8           O   tau(   8) = (  0.0691120  0.9308880  0.2442010  )

     number of k points=    10
                       cart. coord. in units 2pi/alat
        k(    1) = (   0.0000000   0.0000000   0.0000000), wk =   0.0740741
        k(    2) = (   0.0000000   0.0000000   0.5528949), wk =   0.1481481
        k(    3) = (   0.0000000   0.7047386   0.0000000), wk =   0.1481481
        k(    4) = (   0.0000000   0.7047386   0.5528949), wk =   0.2962963
        k(    5) = (   0.3333333   0.6209230   0.0000000), wk =   0.1481481
        k(    6) = (   0.3333333   0.6209230   0.5528949), wk =   0.2962963
        k(    7) = (   0.3333333   1.3256615   0.0000000), wk =   0.1481481
        k(    8) = (   0.3333333   1.3256615   0.5528949), wk =   0.2962963
        k(    9) = (   0.3333333  -0.0838156   0.0000000), wk =   0.1481481
        k(   10) = (   0.3333333  -0.0838156   0.5528949), wk =   0.2962963

                       cryst. coord.
        k(    1) = (   0.0000000   0.0000000   0.0000000), wk =   0.0740741
        k(    2) = (   0.0000000   0.0000000   0.3333333), wk =   0.1481481
        k(    3) = (   0.0000000   0.3333333   0.0000000), wk =   0.1481481
        k(    4) = (   0.0000000   0.3333333   0.3333333), wk =   0.2962963
        k(    5) = (   0.3333333   0.0000000   0.0000000), wk =   0.1481481
        k(    6) = (   0.3333333   0.0000000   0.3333333), wk =   0.2962963
        k(    7) = (   0.3333333   0.3333333   0.0000000), wk =   0.1481481
        k(    8) = (   0.3333333   0.3333333   0.3333333), wk =   0.2962963
        k(    9) = (   0.3333333  -0.3333333   0.0000000), wk =   0.1481481
        k(   10) = (   0.3333333  -0.3333333   0.3333333), wk =   0.2962963

     Check: negative core charge=   -0.000014

     Initial potential from superposition of free atoms

     starting charge      47.9947, renormalised to      48.0000
     Starting wfcs are   38 randomized atomic wfcs +   26 random wfcs
     Checking if some PAW data can be deallocated...

     Self-consistent Calculation

     iteration #  1     ecut=    30.00 Ry     beta= 0.70
     Davidson diagonalization with overlap

     ethr =  1.00E-02,  avg # of iterations =  6.3

     total energy              =    -352.57346148 Ry
     estimated scf accuracy    <       1.81040085 Ry

[...]

     total energy              =    -353.42958089 Ry
     estimated scf accuracy    <       0.00001208 Ry

     iteration #  8     ecut=    30.00 Ry     beta= 0.70
     Davidson diagonalization with overlap

     ethr =  2.52E-08,  avg # of iterations =  1.0

     End of self-consistent calculation

          k = 0.0000 0.0000 0.0000 (  1629 PWs)   bands (ev):

   -41.9905 -41.9361 -20.8128 -20.6760 -20.5776 -20.5121 -20.4957 -20.4149
   -12.7346 -11.5771 -10.9664 -10.4900  -0.1499   0.4389   2.4904   2.5084
     3.0705   3.4053   3.5776   4.3304   4.4650   4.7229   5.1528   5.2551
     9.9664  10.1492  10.2915  10.7466  11.2583  11.4712  11.5506  12.1726
    12.9738  13.1606  13.2389  14.8373  15.6052  17.8431  19.1551  19.2274
    20.2238  20.2669  20.9513  22.7926  23.4540  24.1386  25.1045  25.8453
    26.0378  26.0379  26.2604  26.4700  27.6139  28.0644  29.5740  29.6865
    30.1131  30.1373  30.4064  32.1221  33.9882  34.3638  34.9871  35.1101

     occupation numbers
     1.0000   1.0000   1.0000   1.0000   1.0000   1.0000   1.0000   1.0000
     1.0000   1.0000   1.0000   1.0000   1.0000   1.0000   1.0000   1.0000
     1.0000   1.0000   1.0000   1.0000   1.0000   1.0000   1.0000   1.0000
     0.0000   0.0000   0.0000   0.0000   0.0000   0.0000   0.0000   0.0000
     0.0000   0.0000   0.0000   0.0000   0.0000   0.0000   0.0000   0.0000
     0.0000   0.0000   0.0000   0.0000   0.0000   0.0000   0.0000   0.0000
     0.0000   0.0000   0.0000   0.0000   0.0000   0.0000   0.0000   0.0000
     0.0000   0.0000   0.0000   0.0000   0.0000   0.0000   0.0000   0.0000

[...]

          k = 0.3333-0.0838 0.5529 (  1621 PWs)   bands (ev):

   -41.9750 -41.9478 -20.8622 -20.8287 -20.5289 -20.5194 -20.4854 -20.4367
   -12.4151 -11.8975 -10.5335 -10.2892  -0.1361   0.1871   2.1294   2.9888
     3.1123   3.2595   3.4709   3.5957   4.3119   4.5616   4.7279   4.8949
     9.8746  10.2097  10.9759  11.0332  11.1946  11.4327  12.5670  12.7519
    13.2624  13.3280  13.4477  14.6266  15.9044  16.9545  18.1542  19.3366
    19.7643  20.7855  22.1736  22.9476  23.0135  23.3471  23.9804  25.6026
    25.7821  25.8134  26.2820  28.2206  28.4286  29.7297  29.9317  29.9387
    30.7119  31.3687  31.8666  32.6413  33.1724  33.5325  34.2501  34.6929

     occupation numbers
     1.0000   1.0000   1.0000   1.0000   1.0000   1.0000   1.0000   1.0000
     1.0000   1.0000   1.0000   1.0000   1.0000   1.0000   1.0000   1.0000
     1.0000   1.0000   1.0000   1.0000   1.0000   1.0000   1.0000   1.0000
     0.0000   0.0000   0.0000   0.0000   0.0000   0.0000   0.0000   0.0000
     0.0000   0.0000   0.0000   0.0000   0.0000   0.0000   0.0000   0.0000
     0.0000   0.0000   0.0000   0.0000   0.0000   0.0000   0.0000   0.0000
     0.0000   0.0000   0.0000   0.0000   0.0000   0.0000   0.0000   0.0000
     0.0000   0.0000   0.0000   0.0000   0.0000   0.0000   0.0000   0.0000

     highest occupied, lowest unoccupied level (ev):     5.2551    9.8445

!    total energy              =    -353.42958317 Ry
     estimated scf accuracy    <       0.00000022 Ry

     The total energy is the sum of the following terms:
     one-electron contribution =    -159.82494213 Ry
     hartree contribution      =      99.46129576 Ry
     xc contribution           =     -55.26558881 Ry
     ewald contribution        =    -199.73714971 Ry
     one-center paw contrib.   =     -38.06319828 Ry
      -> PAW hartree energy AE =       0.00000000 Ry
      -> PAW hartree energy PS =       0.00000000 Ry
      -> PAW xc energy AE      =       0.00000000 Ry
      -> PAW xc energy PS      =       0.00000000 Ry
      -> total E_H with PAW    =      99.46129576 Ry
      -> total E_XC with PAW   =     -55.26558881 Ry

     convergence has been achieved in   8 iterations

     Writing all to output data dir calculations_bands/myprefix.save/

     General routines

     Parallel routines

     PAW routines

   This run was terminated on:  13:30: 4   6Jun2023

   JOB DONE.