     Program PWSCF v.7.1 starts on 16Jul2023 at 13:10:23

     Reading input from espresso_17172.pwi
Warning: card &CELL ignored
Warning: card / ignored

     Current dimensions of program PWSCF are:
     Max number of different atomic species (ntypx) = 10
     Max number of k-points (npk) =  40000
     Max angular momentum in pseudopotentials (lmaxx) =  4
     file Ba.pbe-spn-kjpaw_psl.1.0.0.UPF: wavefunction(s)  5S 6S renormalized
     file Pr.paw.z_13.atompaw.wentzcovitch.v1.2.upf: wavefunction(s)  6S 0P 5D 0D 4F 0F renormalized
     Message from routine setup:
     using ibrav=0 with symmetry is DISCOURAGED, use correct ibrav instead

     K-points division:     npool     =       2
     R & G space division:  proc/nbgrp/npool/nimage =       4
     Subspace diagonalization in iterative solution of the eigenvalue problem:
     a serial algorithm will be used

     Using Slab Decomposition

     bravais-lattice index     =            0
     lattice parameter (alat)  =      15.1574  a.u.
     unit-cell volume          =    2680.7213 (a.u.)^3
     number of atoms/cell      =           14
     number of atomic types    =            3
     number of electrons       =       120.00
     number of Kohn-Sham states=           64
     kinetic-energy cutoff     =      30.0000  Ry
     charge density cutoff     =     240.0000  Ry
     scf convergence threshold =      1.0E-06
     mixing beta               =       0.7000
     number of iterations used =            8  plain     mixing
     Exchange-correlation= SLA  PW   PBE  PBE
                           (   1   4   3   4   0   0   0)

     celldm(1)=  15.157418  celldm(2)=   0.000000  celldm(3)=   0.000000
     celldm(4)=   0.000000  celldm(5)=   0.000000  celldm(6)=   0.000000

     crystal axes: (cart. coord. in units of alat)
               a(1) = (   1.000000   0.000000   0.000000 )
               a(2) = (  -0.335719   0.941962   0.000000 )
               a(3) = (  -0.332141  -0.470981   0.817227 )

     reciprocal axes: (cart. coord. in units 2 pi/alat)
               b(1) = (  1.000000  0.356404  0.611825 )
               b(2) = (  0.000000  1.061614  0.611825 )
               b(3) = (  0.000000  0.000000  1.223651 )

     PseudoPot. # 1 for Ba read from file:
     /lustre07/scratch/pragov/crystal_structure_design/utils/SSSP/Ba.pbe-spn-kjpaw_psl.1.0.0.UPF
     MD5 check sum: c432291d3e53af55f19d5e8866385beb
     Pseudo is Projector augmented-wave + core cor, Zval = 10.0
     Generated using "atomic" code by A. Dal Corso  v.5.1
     Shape of augmentation charge: PSQ
     Using radial grid of 1251 points,  7 beta functions with:
                l(1) =   0
                l(2) =   0
                l(3) =   0
                l(4) =   1
                l(5) =   1
                l(6) =   2
                l(7) =   2
     Q(r) pseudized with 0 coefficients

     PseudoPot. # 2 for Pr read from file:
     /lustre07/scratch/pragov/crystal_structure_design/utils/SSSP/Pr.paw.z_13.atompaw.wentzcovitch.v1.2.upf
     MD5 check sum: e0f8e046fa815e336ba020f7e7bc75cb
     Pseudo is Projector augmented-wave + core cor, Zval = 13.0
     Generated using ATOMPAW code
     Shape of augmentation charge: BESSEL
     Using radial grid of 1103 points,  8 beta functions with:
                l(1) =   0
                l(2) =   0
                l(3) =   1
                l(4) =   1
                l(5) =   2
                l(6) =   2
                l(7) =   3
                l(8) =   3
     Q(r) pseudized with 0 coefficients

     PseudoPot. # 3 for Se read from file:
     /lustre07/scratch/pragov/crystal_structure_design/utils/SSSP/Se_pbe_v1.uspp.F.UPF
     MD5 check sum: 1b3568f3a8ae88f9a2a0ad0698632c85
     Pseudo is Ultrasoft + core correction, Zval =  6.0
     Generated by new atomic code, or converted to UPF format
     Using radial grid of  877 points,  6 beta functions with:
                l(1) =   0
                l(2) =   0
                l(3) =   1
                l(4) =   1
                l(5) =   2
                l(6) =   2
     Q(r) pseudized with  8 coefficients,  rinner =    1.300   1.300   1.300
                                                       1.300   1.300

     atomic species   valence    mass     pseudopotential
        Ba            10.00   137.32700     Ba( 1.00)
        Pr            13.00   140.90766     Pr( 1.00)
        Se             6.00    78.97100     Se( 1.00)

      2 Sym. Ops. (no inversion) found ( 1 have fractional translation)

                                    s                        frac. trans.

      isym =  1     identity

 cryst.   s( 1) = (     1          0          0      )
                  (     0          1          0      )
                  (     0          0          1      )

 cart.    s( 1) = (  1.0000000  0.0000000  0.0000000 )
                  (  0.0000000  1.0000000  0.0000000 )
                  (  0.0000000  0.0000000  1.0000000 )

      isym =  2     inv. 180 deg rotation - cart. axis [0,0,1]

 cryst.   s( 2) = (     1          0          0      )    f =( -0.2500000 )
                  (     0          1          0      )       (  0.2500000 )
                  (    -1         -1         -1      )       (  0.5000000 )

 cart.    s( 2) = (  1.0000000  0.0000000 -0.0000000 )    f =( -0.5000000 )
                  (  0.0000000  1.0000000 -0.0000000 )       (  0.0000000 )
                  (  0.0000000  0.0000000 -1.0000000 )       (  0.4086133 )

   Cartesian axes

     site n.     atom                  positions (alat units)
         1           Ba  tau(   1) = (  -0.1678594   0.4709811   0.4086133  )
         2           Ba  tau(   2) = (   0.0000000   0.0000000   0.0000000  )
         3           Pr  tau(   3) = (   0.3330263  -0.0585510   0.7145151  )
         4           Pr  tau(   4) = (   0.3330440   0.2940415   0.3059018  )
         5           Pr  tau(   5) = (   0.1651847   0.7650227   0.1027115  )
         6           Pr  tau(   6) = (  -0.1669737  -0.0585510   0.5113248  )
         7           Se  tau(   7) = (   0.0400559  -0.2921769   0.7435389  )
         8           Se  tau(   8) = (   0.2043372   0.6497854   0.4823010  )
         9           Se  tau(   9) = (   0.0640861   0.2187349   0.6161055  )
        10           Se  tau(  10) = (   0.0434735   0.4106230   0.0736877  )
        11           Se  tau(  11) = (   0.2113328  -0.0603581   0.3349256  )
        12           Se  tau(  12) = (   0.6845252   0.1338001   0.2074922  )
        13           Se  tau(  13) = (  -0.4359139   0.2187349   0.6097344  )
        14           Se  tau(  14) = (   0.5166658   0.6047812   0.2011211  )

   Crystallographic axes

     site n.     atom                  positions (cryst. coord.)
         1           Ba  tau(   1) = (  0.2500000  0.7500000  0.5000000  )
         2           Ba  tau(   2) = (  0.0000000  0.0000000  0.0000000  )
         3           Pr  tau(   3) = (  0.7493170  0.3750000  0.8743170  )
         4           Pr  tau(   4) = (  0.6250000  0.4993170  0.3743170  )
         5           Pr  tau(   5) = (  0.5006830  0.8750000  0.1256830  )
         6           Pr  tau(   6) = (  0.1250000  0.2506830  0.6256830  )
         7           Se  tau(   7) = (  0.3908390  0.1447370  0.9098320  )
         8           Se  tau(   8) = (  0.7310070  0.9849050  0.5901680  )
         9           Se  tau(   9) = (  0.5189930  0.6091610  0.7538980  )
        10           Se  tau(  10) = (  0.2349050  0.4810070  0.0901680  )
        11           Se  tau(  11) = (  0.3947370  0.1408390  0.4098320  )
        12           Se  tau(  12) = (  0.8591610  0.2689930  0.2538980  )
        13           Se  tau(  13) = (  0.0150950  0.6052630  0.7461020  )
        14           Se  tau(  14) = (  0.8552630  0.7650950  0.2461020  )

     number of k points=    10
                       cart. coord. in units 2pi/alat
        k(    1) = (   0.0000000   0.0000000   0.0000000), wk =   0.0740741
        k(    2) = (   0.0000000   0.0000000   0.4078836), wk =   0.1481481
        k(    3) = (   0.0000000   0.3538712   0.2039418), wk =   0.2962963
        k(    4) = (   0.0000000   0.3538712   0.6118254), wk =   0.1481481
        k(    5) = (   0.3333333   0.1188012   0.2039418), wk =   0.2962963
        k(    6) = (   0.3333333   0.1188012   0.6118254), wk =   0.1481481
        k(    7) = (   0.3333333   0.4726724   0.4078836), wk =   0.2962963
        k(    8) = (   0.3333333   0.4726724  -0.0000000), wk =   0.1481481
        k(    9) = (   0.3333333  -0.2350700   0.0000000), wk =   0.1481481
        k(   10) = (   0.3333333  -0.2350700   0.4078836), wk =   0.2962963

                       cryst. coord.
        k(    1) = (   0.0000000   0.0000000   0.0000000), wk =   0.0740741
        k(    2) = (   0.0000000   0.0000000   0.3333333), wk =   0.1481481
        k(    3) = (   0.0000000   0.3333333   0.0000000), wk =   0.2962963
        k(    4) = (   0.0000000   0.3333333   0.3333333), wk =   0.1481481
        k(    5) = (   0.3333333   0.0000000   0.0000000), wk =   0.2962963
        k(    6) = (   0.3333333   0.0000000   0.3333333), wk =   0.1481481
        k(    7) = (   0.3333333   0.3333333   0.0000000), wk =   0.2962963
        k(    8) = (   0.3333333   0.3333333  -0.3333333), wk =   0.1481481
        k(    9) = (   0.3333333  -0.3333333  -0.0000000), wk =   0.1481481
        k(   10) = (   0.3333333  -0.3333333   0.3333333), wk =   0.2962963

     Initial potential from superposition of free atoms

     starting charge     119.9358, renormalised to     120.0000
     Starting wfcs are  170 randomized atomic wfcs
     Checking if some PAW data can be deallocated...

     Self-consistent Calculation

     iteration #  1     ecut=    30.00 Ry     beta= 0.70
     Davidson diagonalization with overlap

     ethr =  1.00E-02,  avg # of iterations =  1.7

     negative rho (up, down):  1.003E-02 0.000E+00

     total energy              =   -3245.72554718 Ry
     estimated scf accuracy    <      10.38722790 Ry

[...]

     c_bands:  2 eigenvalues not converged
     c_bands:  5 eigenvalues not converged
     c_bands:  4 eigenvalues not converged
     c_bands:  1 eigenvalues not converged
     ethr =  2.67E-04,  avg # of iterations = 20.6

[...]

     negative rho (up, down):  1.381E-03 0.000E+00

[...]

     c_bands:  1 eigenvalues not converged
     c_bands:  1 eigenvalues not converged
     ethr =  3.54E-09,  avg # of iterations = 19.1

[...]

     total energy              =   -3256.23104125 Ry
     estimated scf accuracy    <       0.00000353 Ry

     iteration #284     ecut=    30.00 Ry     beta= 0.70
     Davidson diagonalization with overlap

     ethr =  1.20E-09,  avg # of iterations =  1.3

     End of self-consistent calculation

          k = 0.0000 0.0000 0.0000 (  7419 PWs)   bands (ev):

   -26.9832 -26.9741 -26.9740 -26.9681 -18.2936 -18.2863  -9.1851  -9.1821
    -9.1810  -9.1338  -9.1016  -9.0556  -9.0553  -9.0302  -9.0011  -8.9605
    -8.9599  -8.9391  -4.1852  -4.1851  -4.0305  -3.9704  -3.9644  -3.7917
    -3.7915  -3.2292  -3.0048  -2.8574  -2.8573  -2.5381  -2.3594  -2.3593
     4.8393   4.8397   4.9313   5.0744   5.2056   5.2406   5.6066   5.8821
     6.2691   6.2693   6.3700   6.4437   6.6999   7.0871   7.0873   7.3466
     7.3469   7.4436   7.6651   7.6654   7.6737   7.8009   8.1349   8.1349
     9.2051   9.2139   9.2682   9.2774   9.2826   9.2871   9.3340   9.3363

     occupation numbers
     1.0000   1.0000   1.0000   1.0000   1.0000   1.0000   1.0000   1.0000
     1.0000   1.0000   1.0000   1.0000   1.0000   1.0000   1.0000   1.0000
     1.0000   1.0000   1.0000   1.0000   1.0000   1.0000   1.0000   1.0000
     1.0000   1.0000   1.0000   1.0000   1.0000   1.0000   1.0000   1.0000
     1.0000   1.0000   1.0000   1.0000   1.0000   1.0000   1.0000   1.0000
     1.0000   1.0000   1.0000   1.0000   1.0000   1.0000   1.0000   1.0000
     1.0000   1.0000   1.0000   1.0000   1.0000   1.0000   1.0000   1.0000
     1.0000   1.0000   1.0000   1.0000   0.0000   0.0000   0.0000   0.0000

[...]

          k = 0.3333-0.2351 0.4079 (  7433 PWs)   bands (ev):

   -26.9788 -26.9747 -26.9746 -26.9712 -18.2910 -18.2891  -9.2001  -9.1640
    -9.1232  -9.1059  -9.0833  -9.0724  -9.0505  -9.0340  -9.0230  -8.9918
    -8.9775  -8.9640  -4.3568  -4.2785  -4.1142  -3.9250  -3.8316  -3.7681
    -3.3535  -3.0531  -2.9693  -2.9471  -2.7764  -2.6998  -2.5762  -2.5674
     4.8480   5.1505   5.3796   5.3808   5.4671   5.7128   5.7448   5.7783
     5.9326   6.0147   6.0688   6.2808   6.7447   6.7885   6.9952   7.0168
     7.1451   7.1722   7.2536   7.2606   7.6290   7.7606   7.9643   8.0787
     9.2466   9.2488   9.2667   9.2759   9.2819   9.3040   9.3060   9.3135

     occupation numbers
     1.0000   1.0000   1.0000   1.0000   1.0000   1.0000   1.0000   1.0000
     1.0000   1.0000   1.0000   1.0000   1.0000   1.0000   1.0000   1.0000
     1.0000   1.0000   1.0000   1.0000   1.0000   1.0000   1.0000   1.0000
     1.0000   1.0000   1.0000   1.0000   1.0000   1.0000   1.0000   1.0000
     1.0000   1.0000   1.0000   1.0000   1.0000   1.0000   1.0000   1.0000
     1.0000   1.0000   1.0000   1.0000   1.0000   1.0000   1.0000   1.0000
     1.0000   1.0000   1.0000   1.0000   1.0000   1.0000   1.0000   1.0000
     1.0000   1.0000   1.0000   1.0000   0.0000   0.0000   0.0000   0.0000

     highest occupied, lowest unoccupied level (ev):     9.2853    9.2708

!    total energy              =   -3256.23104039 Ry
     estimated scf accuracy    <       0.00000099 Ry

     The total energy is the sum of the following terms:
     one-electron contribution =     -59.23955552 Ry
     hartree contribution      =     102.44585912 Ry
     xc contribution           =    -326.48232604 Ry
     ewald contribution        =    -544.64094933 Ry
     one-center paw contrib.   =   -2428.31406862 Ry
      -> PAW hartree energy AE =      57.73633101 Ry
      -> PAW hartree energy PS =     -57.51647940 Ry
      -> PAW xc energy AE      =    -788.50262587 Ry
      -> PAW xc energy PS      =      38.36847203 Ry
      -> total E_H with PAW    =     102.66571073 Ry
      -> total E_XC with PAW   =   -1076.61647987 Ry

     convergence has been achieved in 284 iterations

     Writing all to output data dir bands_nm/myprefix.save/

     General routines

     Parallel routines

     PAW routines

   This run was terminated on:  13:21:42  16Jul2023

   JOB DONE.