     Program PWSCF v.7.1 starts on 17Jul2023 at  0:34:33

     Reading input from espresso_26753.pwi
Warning: card &CELL ignored
Warning: card / ignored

     Current dimensions of program PWSCF are:
     Max number of different atomic species (ntypx) = 10
     Max number of k-points (npk) =  40000
     Max angular momentum in pseudopotentials (lmaxx) =  4
     file Al.pbe-n-kjpaw_psl.1.0.0.UPF: wavefunction(s)  3S 3P renormalized
     Message from routine setup:
     using ibrav=0 with symmetry is DISCOURAGED, use correct ibrav instead

     K-points division:     npool     =       2
     R & G space division:  proc/nbgrp/npool/nimage =       4
     Subspace diagonalization in iterative solution of the eigenvalue problem:
     one sub-group per band group will be used

     Using Slab Decomposition

     bravais-lattice index     =            0
     lattice parameter (alat)  =      11.7108  a.u.
     unit-cell volume          =    2595.7480 (a.u.)^3
     number of atoms/cell      =           18
     number of atomic types    =            3
     number of electrons       =       152.00
     number of Kohn-Sham states=          256
     kinetic-energy cutoff     =      30.0000  Ry
     charge density cutoff     =     240.0000  Ry
     scf convergence threshold =      1.0E-06
     mixing beta               =       0.7000
     number of iterations used =            8  plain     mixing
     Exchange-correlation=  SLA  PW   PBX  PBC
                           (   1   4   3   4   0   0   0)

     celldm(1)=  11.710835  celldm(2)=   0.000000  celldm(3)=   0.000000
     celldm(4)=   0.000000  celldm(5)=   0.000000  celldm(6)=   0.000000

     crystal axes: (cart. coord. in units of alat)
               a(1) = (   1.000000   0.000000   0.000000 )
               a(2) = (   0.000000   1.061200   0.000000 )
               a(3) = (   0.000000   0.529888   1.523006 )

     reciprocal axes: (cart. coord. in units 2 pi/alat)
               b(1) = (  1.000000  0.000000  0.000000 )
               b(2) = (  0.000000  0.942329 -0.327857 )
               b(3) = (  0.000000  0.000000  0.656596 )

     PseudoPot. # 1 for Al read from file:
     /lustre07/scratch/pragov/crystal_structure_design/utils/SSSP/Al.pbe-n-kjpaw_psl.1.0.0.UPF
     MD5 check sum: cfc449ca30b5f3223ec38ddd88ac046d
     Pseudo is Projector augmented-wave + core cor, Zval =  3.0
     Generated using "atomic" code by A. Dal Corso  v.5.1
     Shape of augmentation charge: PSQ
     Using radial grid of 1135 points,  6 beta functions with:
                l(1) =   0
                l(2) =   0
                l(3) =   1
                l(4) =   1
                l(5) =   2
                l(6) =   2
     Q(r) pseudized with 0 coefficients

     PseudoPot. # 2 for Zn read from file:
     /lustre07/scratch/pragov/crystal_structure_design/utils/SSSP/Zn_pbe_v1.uspp.F.UPF
     MD5 check sum: df62231357ef9e81f77b2b3087fa5675
     Pseudo is Ultrasoft, Zval = 20.0
     Generated by new atomic code, or converted to UPF format
     Using radial grid of  943 points,  6 beta functions with:
                l(1) =   0
                l(2) =   0
                l(3) =   1
                l(4) =   1
                l(5) =   2
                l(6) =   2
     Q(r) pseudized with  8 coefficients,  rinner =    1.100   1.100   1.100
                                                       1.100   1.100

     PseudoPot. # 3 for S  read from file:
     /lustre07/scratch/pragov/crystal_structure_design/utils/SSSP/s_pbe_v1.4.uspp.F.UPF
     MD5 check sum: 88d86576ff6df21479756cfb9bdac1df
     Pseudo is Ultrasoft + core correction, Zval =  6.0
     Generated by new atomic code, or converted to UPF format
     Using radial grid of  907 points,  6 beta functions with:
                l(1) =   0
                l(2) =   0
                l(3) =   1
                l(4) =   1
                l(5) =   2
                l(6) =   2
     Q(r) pseudized with  8 coefficients,  rinner =    1.300   1.300   1.300
                                                       1.300   1.300

     atomic species   valence    mass     pseudopotential
        Al             3.00    26.98154     Al( 1.00)
        Zn            20.00    65.38000     Zn( 1.00)
        S              6.00    32.06000     S ( 1.00)

      2 Sym. Ops. (no inversion) found ( 1 have fractional translation)

                                    s                        frac. trans.

      isym =  1     identity

 cryst.   s( 1) = (     1          0          0      )
                  (     0          1          0      )
                  (     0          0          1      )

 cart.    s( 1) = (  1.0000000  0.0000000  0.0000000 )
                  (  0.0000000  1.0000000  0.0000000 )
                  (  0.0000000  0.0000000  1.0000000 )

      isym =  2     180 deg rotation - cart. axis [1,0,0]

 cryst.   s( 2) = (     1          0          0      )    f =(  0.5000000 )
                  (     0         -1          0      )       ( -0.0000000 )
                  (     0          0         -1      )       ( -0.0000000 )

 cart.    s( 2) = (  1.0000000  0.0000000  0.0000000 )    f =(  0.5000000 )
                  (  0.0000000 -1.0000000  0.0000000 )       ( -0.0000000 )
                  (  0.0000000  0.0000000 -1.0000000 )       ( -0.0000000 )

   Cartesian axes

     site n.     atom                  positions (alat units)
         1           Al  tau(   1) = (   0.8779720   0.4345122   0.7618428  )
         2           Al  tau(   2) = (   0.8743100   0.4492316   0.1572062  )
         3           Al  tau(   3) = (   0.3743100   1.1418559   1.3658001  )
         4           Al  tau(   4) = (   0.3779720   1.1565753   0.7611635  )
         5           Zn  tau(   5) = (   0.8805210   1.4984363   1.3562965  )
         6           Zn  tau(   6) = (   0.8662830   0.9717327   0.4666430  )
         7           Zn  tau(   7) = (   0.3805210   0.0926513   0.1667098  )
         8           Zn  tau(   8) = (   0.3662830   0.6193549   1.0563633  )
         9           S   tau(   9) = (   0.4949560   1.4930133   1.3727237  )
        10           S   tau(  10) = (   0.4986340   0.9783875   1.0631467  )
        11           S   tau(  11) = (   0.5093210   0.4364835   0.7571534  )
        12           S   tau(  12) = (   0.4913750   0.9705529   0.4706577  )
        13           S   tau(  13) = (   0.5066280   0.4507149   0.1431991  )
        14           S   tau(  14) = (   0.9949560   0.0980743   0.1502826  )
        15           S   tau(  15) = (   0.0066280   1.1403727   1.3798072  )
        16           S   tau(  16) = (   0.9913750   0.6205347   1.0523486  )
        17           S   tau(  17) = (   0.0093210   1.1546041   0.7658529  )
        18           S   tau(  18) = (   0.9986340   0.6127001   0.4598596  )

   Crystallographic axes

     site n.     atom                  positions (cryst. coord.)
         1           Al  tau(   1) = (  0.8779720  0.1596780  0.5002230  )
         2           Al  tau(   2) = (  0.8743100  0.3717830  0.1032210  )
         3           Al  tau(   3) = (  0.3743100  0.6282170  0.8967790  )
         4           Al  tau(   4) = (  0.3779720  0.8403220  0.4997770  )
         5           Zn  tau(   5) = (  0.8805210  0.9673490  0.8905390  )
         6           Zn  tau(   6) = (  0.8662830  0.7627000  0.3063960  )
         7           Zn  tau(   7) = (  0.3805210  0.0326510  0.1094610  )
         8           Zn  tau(   8) = (  0.3662830  0.2373000  0.6936040  )
         9           S   tau(   9) = (  0.4949560  0.9568530  0.9013250  )
        10           S   tau(  10) = (  0.4986340  0.5734030  0.6980580  )
        11           S   tau(  11) = (  0.5093210  0.1630730  0.4971440  )
        12           S   tau(  12) = (  0.4913750  0.7602720  0.3090320  )
        13           S   tau(  13) = (  0.5066280  0.3777730  0.0940240  )
        14           S   tau(  14) = (  0.9949560  0.0431470  0.0986750  )
        15           S   tau(  15) = (  0.0066280  0.6222270  0.9059760  )
        16           S   tau(  16) = (  0.9913750  0.2397280  0.6909680  )
        17           S   tau(  17) = (  0.0093210  0.8369270  0.5028560  )
        18           S   tau(  18) = (  0.9986340  0.4265970  0.3019420  )

     number of k points=    10
                       cart. coord. in units 2pi/alat
        k(    1) = (   0.0000000   0.0000000   0.0000000), wk =   0.0740741
        k(    2) = (   0.0000000   0.0000000   0.2188654), wk =   0.1481481
        k(    3) = (   0.0000000   0.3141098  -0.1092857), wk =   0.1481481
        k(    4) = (   0.0000000   0.3141098   0.1095796), wk =   0.1481481
        k(    5) = (   0.0000000   0.3141098  -0.3281511), wk =   0.1481481
        k(    6) = (   0.3333333   0.0000000   0.0000000), wk =   0.1481481
        k(    7) = (   0.3333333   0.0000000   0.2188654), wk =   0.2962963
        k(    8) = (   0.3333333   0.3141098  -0.1092857), wk =   0.2962963
        k(    9) = (   0.3333333   0.3141098   0.1095796), wk =   0.2962963
        k(   10) = (   0.3333333   0.3141098  -0.3281511), wk =   0.2962963

                       cryst. coord.
        k(    1) = (   0.0000000   0.0000000   0.0000000), wk =   0.0740741
        k(    2) = (   0.0000000   0.0000000   0.3333333), wk =   0.1481481
        k(    3) = (   0.0000000   0.3333333  -0.0000000), wk =   0.1481481
        k(    4) = (   0.0000000   0.3333333   0.3333333), wk =   0.1481481
        k(    5) = (   0.0000000   0.3333333  -0.3333333), wk =   0.1481481
        k(    6) = (   0.3333333   0.0000000   0.0000000), wk =   0.1481481
        k(    7) = (   0.3333333   0.0000000   0.3333333), wk =   0.2962963
        k(    8) = (   0.3333333   0.3333333  -0.0000000), wk =   0.2962963
        k(    9) = (   0.3333333   0.3333333   0.3333333), wk =   0.2962963
        k(   10) = (   0.3333333   0.3333333  -0.3333333), wk =   0.2962963

     Initial potential from superposition of free atoms

     starting charge     151.9899, renormalised to     152.0000
     Starting wfcs are  108 randomized atomic wfcs +  148 random wfcs
     Checking if some PAW data can be deallocated...

     Self-consistent Calculation

     iteration #  1     ecut=    30.00 Ry     beta= 0.70
     Davidson diagonalization with overlap

     ethr =  1.00E-02,  avg # of iterations =  7.2

     Threshold (ethr) on eigenvalues was too large:
     Diagonalizing with lowered threshold

     Davidson diagonalization with overlap

[...]

     total energy              =   -2245.81716026 Ry
     estimated scf accuracy    <       1.11087268 Ry

[...]

     total energy              =   -2246.25444441 Ry
     estimated scf accuracy    <       0.00000183 Ry

     iteration #  9     ecut=    30.00 Ry     beta= 0.70
     Davidson diagonalization with overlap

     ethr =  1.20E-09,  avg # of iterations =  2.0

     End of self-consistent calculation

          k = 0.0000 0.0000 0.0000 (  7201 PWs)   bands (ev):

  -120.3126-120.3124-120.1894-120.1892 -74.4300 -74.4296 -74.4210 -74.4204
   -74.4071 -74.4059 -74.3129 -74.3117 -74.2917 -74.2900 -74.2834 -74.2817
    -8.3338  -7.6878  -7.5710  -7.2801  -7.1269  -7.0677  -6.8976  -6.7993
    -6.7934  -6.6605  -1.4785  -1.4605  -1.4452  -1.3816  -1.3591  -1.3384
    -1.2683  -1.2631  -1.2277  -1.2246  -1.2045  -1.1934  -1.1610  -1.1560
    -1.1280  -1.1010  -1.0910  -1.0685  -1.0330  -1.0153  -0.6465  -0.4619
    -0.0540   0.0116   0.1606   0.9144   0.9613   1.0748   1.1203   1.3730
     1.5522   1.6574   1.8380   2.0142   2.1930   2.7682   2.7752   2.8387
     3.0075   3.0224   3.2303   3.2482   3.4173   3.4739   4.0060   4.1230
     4.1828   4.4415   4.4584   4.5523   7.5413   8.1455   8.9791   8.9792
     9.3994   9.4258   9.8422   9.8476   9.9574  10.0399  10.2318  10.3115
    10.5979  10.6121  10.8670  11.1188  11.1194  11.3199  11.5679  11.5722
    11.8650  12.0016  12.1004  12.1257  12.7641  12.7757  12.8169  13.0298
    13.0406  13.1560  13.2019  13.2595  13.4330  13.5810  13.7015  13.8729
    14.1142  14.5361  14.5398  14.8052  14.8261  15.1587  15.3604  15.5113
    15.8976  15.9368  16.0438  16.3318  16.5908  16.7387  16.7619  16.8221
    17.0802  17.0847  17.2486  17.4561  17.6866  17.8593  17.9248  18.0850
    18.0995  18.4718  18.5987  18.7303  18.7732  18.9019  19.0741  19.3481
    19.4936  19.5996  19.7272  20.2705  20.4079  20.4458  20.6888  20.7034
    21.0186  21.1404  21.1848  21.4262  21.4874  21.6141  21.7117  21.8001
    22.1353  22.3024  22.3320  22.6321  22.6531  22.8276  22.9801  23.0888
    23.1099  23.3657  23.5856  23.5911  23.6471  23.8304  24.2870  24.3712
    24.4320  24.4355  24.5398  24.8287  24.8623  25.0622  25.1181  25.1887
    25.3399  25.4034  25.5179  25.8139  25.9104  26.2232  26.4251  26.4348
    26.6440  26.7112  26.7703  26.9001  27.0589  27.1346  27.2543  27.2833
    27.3613  27.6864  27.8740  27.9434  27.9489  28.2023  28.3203  28.5934
    28.7475  28.8102  28.8487  29.0217  29.0810  29.1250  29.3757  29.4902
    29.5277  29.6587  29.8045  29.9525  30.1277  30.2299  30.3190  30.3819
    30.4506  30.7022  30.7285  30.8257  31.2162  31.2386  31.3081  31.4868
    31.5851  31.8978  31.9657  32.1015  32.1700  32.2699  32.4728  32.5214
    32.5822  32.6260  32.6507  32.9080  33.1412  33.2590  33.4184  33.5909
    33.6457  33.8004  33.9503  34.1498  34.3128  34.4461  34.4513  34.6046

     occupation numbers
     1.0000   1.0000   1.0000   1.0000   1.0000   1.0000   1.0000   1.0000
     1.0000   1.0000   1.0000   1.0000   1.0000   1.0000   1.0000   1.0000
     1.0000   1.0000   1.0000   1.0000   1.0000   1.0000   1.0000   1.0000
     1.0000   1.0000   1.0000   1.0000   1.0000   1.0000   1.0000   1.0000
     1.0000   1.0000   1.0000   1.0000   1.0000   1.0000   1.0000   1.0000
     1.0000   1.0000   1.0000   1.0000   1.0000   1.0000   1.0000   1.0000
     1.0000   1.0000   1.0000   1.0000   1.0000   1.0000   1.0000   1.0000
     1.0000   1.0000   1.0000   1.0000   1.0000   1.0000   1.0000   1.0000
     1.0000   1.0000   1.0000   1.0000   1.0000   1.0000   1.0000   1.0000
     1.0000   1.0000   1.0000   1.0000   0.0000   0.0000   0.0000   0.0000
     0.0000   0.0000   0.0000   0.0000   0.0000   0.0000   0.0000   0.0000
     0.0000   0.0000   0.0000   0.0000   0.0000   0.0000   0.0000   0.0000
     0.0000   0.0000   0.0000   0.0000   0.0000   0.0000   0.0000   0.0000
     0.0000   0.0000   0.0000   0.0000   0.0000   0.0000   0.0000   0.0000
     0.0000   0.0000   0.0000   0.0000   0.0000   0.0000   0.0000   0.0000
     0.0000   0.0000   0.0000   0.0000   0.0000   0.0000   0.0000   0.0000
     0.0000   0.0000   0.0000   0.0000   0.0000   0.0000   0.0000   0.0000
     0.0000   0.0000   0.0000   0.0000   0.0000   0.0000   0.0000   0.0000
     0.0000   0.0000   0.0000   0.0000   0.0000   0.0000   0.0000   0.0000
     0.0000   0.0000   0.0000   0.0000   0.0000   0.0000   0.0000   0.0000
     0.0000   0.0000   0.0000   0.0000   0.0000   0.0000   0.0000   0.0000
     0.0000   0.0000   0.0000   0.0000   0.0000   0.0000   0.0000   0.0000
     0.0000   0.0000   0.0000   0.0000   0.0000   0.0000   0.0000   0.0000
     0.0000   0.0000   0.0000   0.0000   0.0000   0.0000   0.0000   0.0000
     0.0000   0.0000   0.0000   0.0000   0.0000   0.0000   0.0000   0.0000
     0.0000   0.0000   0.0000   0.0000   0.0000   0.0000   0.0000   0.0000
     0.0000   0.0000   0.0000   0.0000   0.0000   0.0000   0.0000   0.0000
     0.0000   0.0000   0.0000   0.0000   0.0000   0.0000   0.0000   0.0000
     0.0000   0.0000   0.0000   0.0000   0.0000   0.0000   0.0000   0.0000
     0.0000   0.0000   0.0000   0.0000   0.0000   0.0000   0.0000   0.0000
     0.0000   0.0000   0.0000   0.0000   0.0000   0.0000   0.0000   0.0000
     0.0000   0.0000   0.0000   0.0000   0.0000   0.0000   0.0000   0.0000

[...]

          k = 0.3333 0.3141-0.3282 (  7198 PWs)   bands (ev):

  -120.3125-120.3124-120.1896-120.1889 -74.4300 -74.4289 -74.4214 -74.4204
   -74.4064 -74.4055 -74.3144 -74.3105 -74.2919 -74.2907 -74.2829 -74.2810
    -7.8962  -7.7310  -7.4837  -7.4036  -7.2371  -7.1657  -7.0208  -6.9147
    -6.7893  -6.7592  -1.5329  -1.5077  -1.4641  -1.4424  -1.4188  -1.3934
    -1.3674  -1.3254  -1.2999  -1.2629  -1.2424  -1.2179  -1.1905  -1.1826
    -1.1408  -1.1191  -1.1026  -1.0803  -1.0655  -1.0499  -0.5575  -0.2340
    -0.0642   0.1578   0.3310   0.4503   0.9753   1.1236   1.7317   1.8694
     1.9315   2.0266   2.2524   2.2886   2.4549   2.6472   2.7058   2.8805
     3.0235   3.1245   3.1811   3.3008   3.4322   3.5641   3.8103   3.9334
     4.0320   4.0924   4.2100   4.3176   8.2264   8.4373   8.6249   8.7892
     8.9543   9.0405   9.2279   9.4022   9.6470   9.8682   9.9076  10.0442
    10.2331  10.5153  10.5561  10.7759  10.9070  11.0213  11.2345  11.4986
    11.7458  11.8509  12.0379  12.2420  12.4330  12.5206  12.7182  12.8812
    13.0798  13.2655  13.3899  13.5198  13.7806  13.9257  14.1195  14.2854
    14.4531  14.5472  14.7841  14.8500  15.0564  15.2230  15.4051  15.5405
    15.7198  15.8330  16.2243  16.4609  16.6074  16.8155  17.0883  17.2032
    17.2904  17.3935  17.5350  17.6416  17.7747  17.9788  18.1256  18.3057
    18.3608  18.6230  18.8994  19.1123  19.2511  19.5079  19.6622  19.7429
    19.8214  19.9240  19.9979  20.3270  20.3545  20.5871  20.7979  20.9263
    21.0431  21.2319  21.2915  21.5867  21.6226  21.7900  21.8893  22.0822
    22.2280  22.3290  22.4046  22.5871  22.7047  22.8215  22.8590  23.1120
    23.2198  23.2935  23.4021  23.4787  23.6456  23.7667  23.8521  23.9500
    24.0719  24.2435  24.2749  24.3884  24.4832  24.7545  24.8652  25.0738
    25.1016  25.3514  25.5033  25.5849  25.6680  25.7723  26.0261  26.0794
    26.2589  26.4108  26.5400  26.6625  26.8335  26.8878  27.0040  27.2785
    27.3462  27.5682  27.6581  27.8226  28.0349  28.2584  28.3622  28.4033
    28.5211  28.5498  28.7142  28.8829  28.9484  29.0361  29.1310  29.2742
    29.3731  29.5243  29.6084  29.8272  29.9615  30.0819  30.2024  30.4021
    30.4468  30.5890  30.7205  30.8471  31.0306  31.1018  31.2855  31.3392
    31.5457  31.6551  31.7836  31.9290  32.0331  32.0732  32.3309  32.4042
    32.4695  32.6267  32.9132  33.0233  33.1497  33.2624  33.4717  33.5788
    33.6589  33.8395  33.8760  34.0200  34.0745  34.3040  34.3392  34.4880

     occupation numbers
     1.0000   1.0000   1.0000   1.0000   1.0000   1.0000   1.0000   1.0000
     1.0000   1.0000   1.0000   1.0000   1.0000   1.0000   1.0000   1.0000
     1.0000   1.0000   1.0000   1.0000   1.0000   1.0000   1.0000   1.0000
     1.0000   1.0000   1.0000   1.0000   1.0000   1.0000   1.0000   1.0000
     1.0000   1.0000   1.0000   1.0000   1.0000   1.0000   1.0000   1.0000
     1.0000   1.0000   1.0000   1.0000   1.0000   1.0000   1.0000   1.0000
     1.0000   1.0000   1.0000   1.0000   1.0000   1.0000   1.0000   1.0000
     1.0000   1.0000   1.0000   1.0000   1.0000   1.0000   1.0000   1.0000
     1.0000   1.0000   1.0000   1.0000   1.0000   1.0000   1.0000   1.0000
     1.0000   1.0000   1.0000   1.0000   0.0000   0.0000   0.0000   0.0000
     0.0000   0.0000   0.0000   0.0000   0.0000   0.0000   0.0000   0.0000
     0.0000   0.0000   0.0000   0.0000   0.0000   0.0000   0.0000   0.0000
     0.0000   0.0000   0.0000   0.0000   0.0000   0.0000   0.0000   0.0000
     0.0000   0.0000   0.0000   0.0000   0.0000   0.0000   0.0000   0.0000
     0.0000   0.0000   0.0000   0.0000   0.0000   0.0000   0.0000   0.0000
     0.0000   0.0000   0.0000   0.0000   0.0000   0.0000   0.0000   0.0000
     0.0000   0.0000   0.0000   0.0000   0.0000   0.0000   0.0000   0.0000
     0.0000   0.0000   0.0000   0.0000   0.0000   0.0000   0.0000   0.0000
     0.0000   0.0000   0.0000   0.0000   0.0000   0.0000   0.0000   0.0000
     0.0000   0.0000   0.0000   0.0000   0.0000   0.0000   0.0000   0.0000
     0.0000   0.0000   0.0000   0.0000   0.0000   0.0000   0.0000   0.0000
     0.0000   0.0000   0.0000   0.0000   0.0000   0.0000   0.0000   0.0000
     0.0000   0.0000   0.0000   0.0000   0.0000   0.0000   0.0000   0.0000
     0.0000   0.0000   0.0000   0.0000   0.0000   0.0000   0.0000   0.0000
     0.0000   0.0000   0.0000   0.0000   0.0000   0.0000   0.0000   0.0000
     0.0000   0.0000   0.0000   0.0000   0.0000   0.0000   0.0000   0.0000
     0.0000   0.0000   0.0000   0.0000   0.0000   0.0000   0.0000   0.0000
     0.0000   0.0000   0.0000   0.0000   0.0000   0.0000   0.0000   0.0000
     0.0000   0.0000   0.0000   0.0000   0.0000   0.0000   0.0000   0.0000
     0.0000   0.0000   0.0000   0.0000   0.0000   0.0000   0.0000   0.0000
     0.0000   0.0000   0.0000   0.0000   0.0000   0.0000   0.0000   0.0000
     0.0000   0.0000   0.0000   0.0000   0.0000   0.0000   0.0000   0.0000

     highest occupied, lowest unoccupied level (ev):     4.5523    7.5413

!    total energy              =   -2246.25444481 Ry
     estimated scf accuracy    <       0.00000017 Ry

     The total energy is the sum of the following terms:
     one-electron contribution =   -2188.95337327 Ry
     hartree contribution      =    1137.44542686 Ry
     xc contribution           =    -263.82932241 Ry
     ewald contribution        =    -792.23967839 Ry
     one-center paw contrib.   =    -138.67749760 Ry
      -> PAW hartree energy AE =       4.54217481 Ry
      -> PAW hartree energy PS =      -4.52968662 Ry
      -> PAW xc energy AE      =    -109.90758024 Ry
      -> PAW xc energy PS      =       5.88750122 Ry
      -> total E_H with PAW    =    1137.45791505 Ry
      -> total E_XC with PAW   =    -367.84940143 Ry

     convergence has been achieved in   9 iterations

     Writing all to output data dir bands_nm/myprefix.save/

     General routines

     Parallel routines

     PAW routines

   This run was terminated on:   0:35:55  17Jul2023

   JOB DONE.