     Program PWSCF v.7.1 starts on 16Jul2023 at 13: 2:47

     Reading input from espresso_24270.pwi
Warning: card &CELL ignored
Warning: card / ignored

     Current dimensions of program PWSCF are:
     Max number of different atomic species (ntypx) = 10
     Max number of k-points (npk) =  40000
     Max angular momentum in pseudopotentials (lmaxx) =  4
     file Pr.paw.z_13.atompaw.wentzcovitch.v1.2.upf: wavefunction(s)  6S 0P 5D 0D 4F 0F renormalized
     file O.pbe-n-kjpaw_psl.0.1.UPF: wavefunction(s)  2P renormalized
     Message from routine setup:
     using ibrav=0 with symmetry is DISCOURAGED, use correct ibrav instead

     K-points division:     npool     =       2
     R & G space division:  proc/nbgrp/npool/nimage =       4
     Subspace diagonalization in iterative solution of the eigenvalue problem:
     a serial algorithm will be used

     Using Slab Decomposition

     bravais-lattice index     =            0
     lattice parameter (alat)  =      13.0193  a.u.
     unit-cell volume          =    1545.1896 (a.u.)^3
     number of atoms/cell      =           11
     number of atomic types    =            3
     number of electrons       =        94.00
     number of Kohn-Sham states=           64
     kinetic-energy cutoff     =      30.0000  Ry
     charge density cutoff     =     240.0000  Ry
     scf convergence threshold =      1.0E-06
     mixing beta               =       0.7000
     number of iterations used =            8  plain     mixing
     Exchange-correlation= SLA  PW   PBX  PBC
                           (   1   4   3   4   0   0   0)

     celldm(1)=  13.019257  celldm(2)=   0.000000  celldm(3)=   0.000000
     celldm(4)=   0.000000  celldm(5)=   0.000000  celldm(6)=   0.000000

     crystal axes: (cart. coord. in units of alat)
               a(1) = (   1.000000   0.000000   0.000000 )
               a(2) = (  -0.825282   0.564721   0.000000 )
               a(3) = (   0.000000   0.000000   1.239908 )

     reciprocal axes: (cart. coord. in units 2 pi/alat)
               b(1) = (  1.000000  1.461399  0.000000 )
               b(2) = (  0.000000  1.770787  0.000000 )
               b(3) = (  0.000000  0.000000  0.806511 )

     PseudoPot. # 1 for Pr read from file:
     /lustre07/scratch/pragov/crystal_structure_design/utils/SSSP/Pr.paw.z_13.atompaw.wentzcovitch.v1.2.upf
     MD5 check sum: e0f8e046fa815e336ba020f7e7bc75cb
     Pseudo is Projector augmented-wave + core cor, Zval = 13.0
     Generated using ATOMPAW code
     Shape of augmentation charge: BESSEL
     Using radial grid of 1103 points,  8 beta functions with:
                l(1) =   0
                l(2) =   0
                l(3) =   1
                l(4) =   1
                l(5) =   2
                l(6) =   2
                l(7) =   3
                l(8) =   3
     Q(r) pseudized with 0 coefficients

     PseudoPot. # 2 for Se read from file:
     /lustre07/scratch/pragov/crystal_structure_design/utils/SSSP/Se_pbe_v1.uspp.F.UPF
     MD5 check sum: 1b3568f3a8ae88f9a2a0ad0698632c85
     Pseudo is Ultrasoft + core correction, Zval =  6.0
     Generated by new atomic code, or converted to UPF format
     Using radial grid of  877 points,  6 beta functions with:
                l(1) =   0
                l(2) =   0
                l(3) =   1
                l(4) =   1
                l(5) =   2
                l(6) =   2
     Q(r) pseudized with  8 coefficients,  rinner =    1.300   1.300   1.300
                                                       1.300   1.300

     PseudoPot. # 3 for O  read from file:
     /lustre07/scratch/pragov/crystal_structure_design/utils/SSSP/O.pbe-n-kjpaw_psl.0.1.UPF
     MD5 check sum: 0234752ac141de4415c5fc33072bef88
     Pseudo is Projector augmented-wave + core cor, Zval =  6.0
     Generated using "atomic" code by A. Dal Corso  v.5.0.99 svn rev. 10869
     Shape of augmentation charge: BESSEL
     Using radial grid of 1095 points,  4 beta functions with:
                l(1) =   0
                l(2) =   0
                l(3) =   1
                l(4) =   1
     Q(r) pseudized with 0 coefficients

     atomic species   valence    mass     pseudopotential
        Pr            13.00   140.90766     Pr( 1.00)
        Se             6.00    78.97100     Se( 1.00)
        O              6.00    15.99900     O ( 1.00)

      2 Sym. Ops. (no inversion) found

                                    s                        frac. trans.

      isym =  1     identity

 cryst.   s( 1) = (     1          0          0      )
                  (     0          1          0      )
                  (     0          0          1      )

 cart.    s( 1) = (  1.0000000  0.0000000  0.0000000 )
                  (  0.0000000  1.0000000  0.0000000 )
                  (  0.0000000  0.0000000  1.0000000 )

      isym =  2     inv. 180 deg rotation - cart. axis [0,0,1]

 cryst.   s( 2) = (     1          0          0      )
                  (     0          1          0      )
                  (     0          0         -1      )

 cart.    s( 2) = (  1.0000000  0.0000000  0.0000000 )
                  (  0.0000000  1.0000000  0.0000000 )
                  (  0.0000000  0.0000000 -1.0000000 )

   Cartesian axes

     site n.     atom                  positions (alat units)
         1           Pr  tau(   1) = (  -0.2484693   0.3862615   0.9447952  )
         2           Pr  tau(   2) = (  -0.2484693   0.3862615   0.2951130  )
         3           Pr  tau(   3) = (   0.9700873   0.0092546   0.6199541  )
         4           Pr  tau(   4) = (   0.9964444   0.0011001   0.0000000  )
         5           Se  tau(   5) = (   0.3502105   0.2010371   0.4354012  )
         6           Se  tau(   6) = (   0.4251328   0.1778570   0.0000000  )
         7           Se  tau(   7) = (   0.3502105   0.2010371   0.8045070  )
         8           O   tau(   8) = (   0.8378693   0.0501613   0.9369751  )
         9           O   tau(   9) = (  -0.0758615   0.3328587   0.0000000  )
        10           O   tau(  10) = (   0.8378693   0.0501613   0.3029332  )
        11           O   tau(  11) = (  -0.1213822   0.3469423   0.6199541  )

   Crystallographic axes

     site n.     atom                  positions (cryst. coord.)
         1           Pr  tau(   1) = (  0.3160130  0.6839870  0.7619880  )
         2           Pr  tau(   2) = (  0.3160130  0.6839870  0.2380120  )
         3           Pr  tau(   3) = (  0.9836120  0.0163880  0.5000000  )
         4           Pr  tau(   4) = (  0.9980520  0.0019480  0.0000000  )
         5           Se  tau(   5) = (  0.6440060  0.3559940  0.3511560  )
         6           Se  tau(   6) = (  0.6850530  0.3149470  0.0000000  )
         7           Se  tau(   7) = (  0.6440060  0.3559940  0.6488440  )
         8           O   tau(   8) = (  0.9111750  0.0888250  0.7556810  )
         9           O   tau(   9) = (  0.4105780  0.5894220  0.0000000  )
        10           O   tau(  10) = (  0.9111750  0.0888250  0.2443190  )
        11           O   tau(  11) = (  0.3856390  0.6143610  0.5000000  )

     number of k points=    10
                       cart. coord. in units 2pi/alat
        k(    1) = (   0.0000000   0.0000000   0.0000000), wk =   0.0740741
        k(    2) = (   0.0000000   0.0000000   0.2688371), wk =   0.1481481
        k(    3) = (   0.0000000   0.5902625   0.0000000), wk =   0.1481481
        k(    4) = (   0.0000000   0.5902625   0.2688371), wk =   0.2962963
        k(    5) = (   0.3333333   0.4871331   0.0000000), wk =   0.1481481
        k(    6) = (   0.3333333   0.4871331   0.2688371), wk =   0.2962963
        k(    7) = (   0.3333333   1.0773956   0.0000000), wk =   0.1481481
        k(    8) = (   0.3333333   1.0773956   0.2688371), wk =   0.2962963
        k(    9) = (   0.3333333  -0.1031294   0.0000000), wk =   0.1481481
        k(   10) = (   0.3333333  -0.1031294   0.2688371), wk =   0.2962963

                       cryst. coord.
        k(    1) = (   0.0000000   0.0000000   0.0000000), wk =   0.0740741
        k(    2) = (   0.0000000   0.0000000   0.3333333), wk =   0.1481481
        k(    3) = (   0.0000000   0.3333333   0.0000000), wk =   0.1481481
        k(    4) = (   0.0000000   0.3333333   0.3333333), wk =   0.2962963
        k(    5) = (   0.3333333   0.0000000   0.0000000), wk =   0.1481481
        k(    6) = (   0.3333333   0.0000000   0.3333333), wk =   0.2962963
        k(    7) = (   0.3333333   0.3333333   0.0000000), wk =   0.1481481
        k(    8) = (   0.3333333   0.3333333   0.3333333), wk =   0.2962963
        k(    9) = (   0.3333333  -0.3333333   0.0000000), wk =   0.1481481
        k(   10) = (   0.3333333  -0.3333333   0.3333333), wk =   0.2962963

     Check: negative core charge=   -0.000005

     Initial potential from superposition of free atoms

     starting charge      93.9701, renormalised to      94.0000
     Starting wfcs are  156 randomized atomic wfcs
     Checking if some PAW data can be deallocated...

     Self-consistent Calculation

     iteration #  1     ecut=    30.00 Ry     beta= 0.70
     Davidson diagonalization with overlap

     ethr =  1.00E-02,  avg # of iterations =  1.1

     total energy              =   -2327.45636263 Ry
     estimated scf accuracy    <       5.43630969 Ry

[...]

     total energy              =   -2331.97069360 Ry
     estimated scf accuracy    <       0.00001037 Ry

     iteration #132     ecut=    30.00 Ry     beta= 0.70
     Davidson diagonalization with overlap

     ethr =  1.45E-09,  avg # of iterations =  1.2

     End of self-consistent calculation

          k = 0.0000 0.0000 0.0000 (  4299 PWs)   bands (ev):

   -25.7218 -25.6419 -25.6353 -25.5888 -10.0526  -9.9965  -9.7751  -8.3508
    -7.9233  -7.8309  -7.6476  -7.6422  -7.6338  -7.6245  -7.5187  -7.5086
    -7.4815  -6.3067  -6.0365  -5.9676  -3.7949  -2.3273  -1.9746   4.6298
     5.4165   5.4262   5.4690   5.5935   5.7368   5.7673   5.7755   5.7798
     5.9774   6.1168   6.3170   6.7583   6.9964   7.2711   7.5891   7.9731
     8.2775   8.4926   8.7691  10.3500  10.3622  10.3826  10.4120  10.4489
    10.5047  10.5146  10.5301  10.5401  10.5418  10.5564  10.5809  10.6008
    10.6143  10.6148  10.6366  10.6536  10.6664  10.6918  10.7201  10.7327

     occupation numbers
     1.0000   1.0000   1.0000   1.0000   1.0000   1.0000   1.0000   1.0000
     1.0000   1.0000   1.0000   1.0000   1.0000   1.0000   1.0000   1.0000
     1.0000   1.0000   1.0000   1.0000   1.0000   1.0000   1.0000   1.0000
     1.0000   1.0000   1.0000   1.0000   1.0000   1.0000   1.0000   1.0000
     1.0000   1.0000   1.0000   1.0000   1.0000   1.0000   1.0000   1.0000
     1.0000   1.0000   1.0000   1.0000   1.0000   1.0000   1.0000   0.0000
     0.0000   0.0000   0.0000   0.0000   0.0000   0.0000   0.0000   0.0000
     0.0000   0.0000   0.0000   0.0000   0.0000   0.0000   0.0000   0.0000

[...]

          k = 0.3333-0.1031 0.2688 (  4291 PWs)   bands (ev):

   -25.7104 -25.6698 -25.6160 -25.5916 -10.1075  -9.8820  -9.6221  -9.0087
    -7.8147  -7.7197  -7.6436  -7.6311  -7.5757  -7.5553  -7.5516  -7.4889
    -7.2082  -6.4927  -6.0540  -5.8981  -3.7892  -2.6542  -1.6020   4.6974
     5.0954   5.4291   5.4592   5.5032   5.5844   5.6326   5.7753   5.8374
     6.0817   6.3298   6.3800   6.5319   7.0416   7.4738   7.5590   7.9430
     8.1150   8.7037   8.9022  10.3146  10.3873  10.3955  10.4375  10.4474
    10.4647  10.4893  10.5345  10.5388  10.5585  10.5737  10.5835  10.5918
    10.6169  10.6225  10.6352  10.6439  10.6681  10.6863  10.7048  10.7153

     occupation numbers
     1.0000   1.0000   1.0000   1.0000   1.0000   1.0000   1.0000   1.0000
     1.0000   1.0000   1.0000   1.0000   1.0000   1.0000   1.0000   1.0000
     1.0000   1.0000   1.0000   1.0000   1.0000   1.0000   1.0000   1.0000
     1.0000   1.0000   1.0000   1.0000   1.0000   1.0000   1.0000   1.0000
     1.0000   1.0000   1.0000   1.0000   1.0000   1.0000   1.0000   1.0000
     1.0000   1.0000   1.0000   1.0000   1.0000   1.0000   1.0000   0.0000
     0.0000   0.0000   0.0000   0.0000   0.0000   0.0000   0.0000   0.0000
     0.0000   0.0000   0.0000   0.0000   0.0000   0.0000   0.0000   0.0000

     highest occupied, lowest unoccupied level (ev):    10.4623   10.4444

!    total energy              =   -2331.97069379 Ry
     estimated scf accuracy    <       0.00000044 Ry

     The total energy is the sum of the following terms:
     one-electron contribution =    -163.39341353 Ry
     hartree contribution      =     148.40198534 Ry
     xc contribution           =    -166.88597992 Ry
     ewald contribution        =    -433.63170538 Ry
     one-center paw contrib.   =   -1716.46158030 Ry
      -> PAW hartree energy AE =     125.15503819 Ry
      -> PAW hartree energy PS =    -125.32575536 Ry
      -> PAW xc energy AE      =    -860.18164665 Ry
      -> PAW xc energy PS      =      21.17319875 Ry
      -> total E_H with PAW    =     148.23126818 Ry
      -> total E_XC with PAW   =   -1005.89442782 Ry

     convergence has been achieved in 132 iterations

     Writing all to output data dir bands_nm/myprefix.save/

     General routines

     Parallel routines

     PAW routines

   This run was terminated on:  13: 5:27  16Jul2023

   JOB DONE.