     Program PWSCF v.7.1 starts on 16Jul2023 at 17:31:46

     Reading input from espresso_27057.pwi
Warning: card &CELL ignored
Warning: card / ignored

     Current dimensions of program PWSCF are:
     Max number of different atomic species (ntypx) = 10
     Max number of k-points (npk) =  40000
     Max angular momentum in pseudopotentials (lmaxx) =  4
     file Dy.paw.z_20.atompaw.wentzcovitch.v1.2.upf: wavefunction(s)  6S 0P 5D 0D 4F 0F renormalized
     Message from routine setup:
     using ibrav=0 with symmetry is DISCOURAGED, use correct ibrav instead

     K-points division:     npool     =       2
     R & G space division:  proc/nbgrp/npool/nimage =       4
     Subspace diagonalization in iterative solution of the eigenvalue problem:
     one sub-group per band group will be used

     Using Slab Decomposition

     bravais-lattice index     =            0
     lattice parameter (alat)  =      12.0281  a.u.
     unit-cell volume          =    2875.0849 (a.u.)^3
     number of atoms/cell      =           20
     number of atomic types    =            3
     number of electrons       =       196.00
     number of Kohn-Sham states=          256
     kinetic-energy cutoff     =      30.0000  Ry
     charge density cutoff     =     240.0000  Ry
     scf convergence threshold =      1.0E-06
     mixing beta               =       0.7000
     number of iterations used =            8  plain     mixing
     Exchange-correlation=  SLA  PW   PBX  PBC
                           (   1   4   3   4   0   0   0)

     celldm(1)=  12.028111  celldm(2)=   0.000000  celldm(3)=   0.000000
     celldm(4)=   0.000000  celldm(5)=   0.000000  celldm(6)=   0.000000

     crystal axes: (cart. coord. in units of alat)
               a(1) = (   1.000000   0.000000   0.000000 )
               a(2) = (   0.000000   1.100090   0.000000 )
               a(3) = (   0.000000   0.000000   1.501862 )

     reciprocal axes: (cart. coord. in units 2 pi/alat)
               b(1) = (  1.000000  0.000000  0.000000 )
               b(2) = (  0.000000  0.909016  0.000000 )
               b(3) = (  0.000000  0.000000  0.665840 )

     PseudoPot. # 1 for Dy read from file:
     /lustre07/scratch/pragov/crystal_structure_design/utils/SSSP/Dy.paw.z_20.atompaw.wentzcovitch.v1.2.upf
     MD5 check sum: fad4f994dc38884d1fc17fd7bf5e13bf
     Pseudo is Projector augmented-wave + core cor, Zval = 20.0
     Generated using ATOMPAW code
     Shape of augmentation charge: BESSEL
     Using radial grid of 1112 points,  8 beta functions with:
                l(1) =   0
                l(2) =   0
                l(3) =   1
                l(4) =   1
                l(5) =   2
                l(6) =   2
                l(7) =   3
                l(8) =   3
     Q(r) pseudized with 0 coefficients

     PseudoPot. # 2 for Sc read from file:
     /lustre07/scratch/pragov/crystal_structure_design/utils/SSSP/Sc_ONCV_PBE-1.0.oncvpsp.upf
     MD5 check sum: e21af8023abb52e52cb7cd3133e4a229
     Pseudo is Norm-conserving, Zval = 11.0
     Generated using ONCVPSP code by D. R. Hamann
     Using radial grid of 1662 points,  6 beta functions with:
                l(1) =   0
                l(2) =   0
                l(3) =   1
                l(4) =   1
                l(5) =   2
                l(6) =   2

     PseudoPot. # 3 for S  read from file:
     /lustre07/scratch/pragov/crystal_structure_design/utils/SSSP/s_pbe_v1.4.uspp.F.UPF
     MD5 check sum: 88d86576ff6df21479756cfb9bdac1df
     Pseudo is Ultrasoft + core correction, Zval =  6.0
     Generated by new atomic code, or converted to UPF format
     Using radial grid of  907 points,  6 beta functions with:
                l(1) =   0
                l(2) =   0
                l(3) =   1
                l(4) =   1
                l(5) =   2
                l(6) =   2
     Q(r) pseudized with  8 coefficients,  rinner =    1.300   1.300   1.300
                                                       1.300   1.300

     atomic species   valence    mass     pseudopotential
        Dy            20.00   162.50000     Dy( 1.00)
        Sc            11.00    44.95591     Sc( 1.00)
        S              6.00    32.06000     S ( 1.00)

      8 Sym. Ops., with inversion, found ( 6 have fractional translation)

                                    s                        frac. trans.

      isym =  1     identity

 cryst.   s( 1) = (     1          0          0      )
                  (     0          1          0      )
                  (     0          0          1      )

 cart.    s( 1) = (  1.0000000  0.0000000  0.0000000 )
                  (  0.0000000  1.0000000  0.0000000 )
                  (  0.0000000  0.0000000  1.0000000 )

      isym =  2     180 deg rotation - cart. axis [0,0,1]

 cryst.   s( 2) = (    -1          0          0      )    f =( -0.0000000 )
                  (     0         -1          0      )       (  0.0000000 )
                  (     0          0          1      )       (  0.5000000 )

 cart.    s( 2) = ( -1.0000000  0.0000000  0.0000000 )    f =( -0.0000000 )
                  (  0.0000000 -1.0000000  0.0000000 )       (  0.0000000 )
                  (  0.0000000  0.0000000  1.0000000 )       (  0.7509310 )

[...]

      isym =  4     180 deg rotation - cart. axis [1,0,0]

[...]

      isym =  5     inversion

 cryst.   s( 5) = (    -1          0          0      )
                  (     0         -1          0      )
                  (     0          0         -1      )

 cart.    s( 5) = ( -1.0000000  0.0000000  0.0000000 )
                  (  0.0000000 -1.0000000  0.0000000 )
                  (  0.0000000  0.0000000 -1.0000000 )

      isym =  6     inv. 180 deg rotation - cart. axis [0,0,1]

[...]

      isym =  8     inv. 180 deg rotation - cart. axis [1,0,0]

 cryst.   s( 8) = (    -1          0          0      )    f =(  0.5000000 )
                  (     0          1          0      )       (  0.5000000 )
                  (     0          0          1      )       (  0.0000000 )

 cart.    s( 8) = ( -1.0000000  0.0000000  0.0000000 )    f =(  0.5000000 )
                  (  0.0000000  1.0000000  0.0000000 )       (  0.5500452 )
                  (  0.0000000  0.0000000  1.0000000 )       (  0.0000000 )

   Cartesian axes

     site n.     atom                  positions (alat units)
         1           Dy  tau(   1) = (   0.0419440   0.6646428   0.3754655  )
         2           Dy  tau(   2) = (   0.4580560   0.1145975   0.3754655  )
         3           Dy  tau(   3) = (   0.9580560   0.4354477   1.1263965  )
         4           Dy  tau(   4) = (   0.5419440   0.9854929   1.1263965  )
         5           Sc  tau(   5) = (   0.5000000   0.5500452   0.7509310  )
         6           Sc  tau(   6) = (   0.5000000   0.5500452   0.0000000  )
         7           Sc  tau(   7) = (   0.0000000   0.0000000   0.7509310  )
         8           Sc  tau(   8) = (   0.0000000   0.0000000   0.0000000  )
         9           S   tau(   9) = (   0.1734450   0.3491456   0.1063529  )
        10           S   tau(  10) = (   0.3265550   0.8991908   0.1063529  )
        11           S   tau(  11) = (   0.6734450   0.2008996   0.8572839  )
        12           S   tau(  12) = (   0.8265550   0.7509449   1.3955092  )
        13           S   tau(  13) = (   0.6446280   0.4988822   0.3754655  )
        14           S   tau(  14) = (   0.3553720   0.6012082   1.1263965  )
        15           S   tau(  15) = (   0.8265550   0.7509449   0.8572839  )
        16           S   tau(  16) = (   0.1734450   0.3491456   0.6445782  )
        17           S   tau(  17) = (   0.3265550   0.8991908   0.6445782  )
        18           S   tau(  18) = (   0.6734450   0.2008996   1.3955092  )
        19           S   tau(  19) = (   0.1446280   0.0511630   1.1263965  )
        20           S   tau(  20) = (   0.8553720   1.0489275   0.3754655  )

   Crystallographic axes

     site n.     atom                  positions (cryst. coord.)
         1           Dy  tau(   1) = (  0.0419440  0.6041710  0.2500000  )
         2           Dy  tau(   2) = (  0.4580560  0.1041710  0.2500000  )
         3           Dy  tau(   3) = (  0.9580560  0.3958290  0.7500000  )
         4           Dy  tau(   4) = (  0.5419440  0.8958290  0.7500000  )
         5           Sc  tau(   5) = (  0.5000000  0.5000000  0.5000000  )
         6           Sc  tau(   6) = (  0.5000000  0.5000000  0.0000000  )
         7           Sc  tau(   7) = (  0.0000000  0.0000000  0.5000000  )
         8           Sc  tau(   8) = (  0.0000000  0.0000000  0.0000000  )
         9           S   tau(   9) = (  0.1734450  0.3173790  0.0708140  )
        10           S   tau(  10) = (  0.3265550  0.8173790  0.0708140  )
        11           S   tau(  11) = (  0.6734450  0.1826210  0.5708140  )
        12           S   tau(  12) = (  0.8265550  0.6826210  0.9291860  )
        13           S   tau(  13) = (  0.6446280  0.4534920  0.2500000  )
        14           S   tau(  14) = (  0.3553720  0.5465080  0.7500000  )
        15           S   tau(  15) = (  0.8265550  0.6826210  0.5708140  )
        16           S   tau(  16) = (  0.1734450  0.3173790  0.4291860  )
        17           S   tau(  17) = (  0.3265550  0.8173790  0.4291860  )
        18           S   tau(  18) = (  0.6734450  0.1826210  0.9291860  )
        19           S   tau(  19) = (  0.1446280  0.0465080  0.7500000  )
        20           S   tau(  20) = (  0.8553720  0.9534920  0.2500000  )

     number of k points=     8
                       cart. coord. in units 2pi/alat
        k(    1) = (   0.0000000   0.0000000   0.0000000), wk =   0.0740741
        k(    2) = (   0.0000000   0.0000000   0.2219467), wk =   0.1481481
        k(    3) = (   0.0000000   0.3030054   0.0000000), wk =   0.1481481
        k(    4) = (   0.0000000   0.3030054   0.2219467), wk =   0.2962963
        k(    5) = (   0.3333333   0.0000000   0.0000000), wk =   0.1481481
        k(    6) = (   0.3333333   0.0000000   0.2219467), wk =   0.2962963
        k(    7) = (   0.3333333   0.3030054   0.0000000), wk =   0.2962963
        k(    8) = (   0.3333333   0.3030054   0.2219467), wk =   0.5925926

                       cryst. coord.
        k(    1) = (   0.0000000   0.0000000   0.0000000), wk =   0.0740741
        k(    2) = (   0.0000000   0.0000000   0.3333333), wk =   0.1481481
        k(    3) = (   0.0000000   0.3333333   0.0000000), wk =   0.1481481
        k(    4) = (   0.0000000   0.3333333   0.3333333), wk =   0.2962963
        k(    5) = (   0.3333333   0.0000000   0.0000000), wk =   0.1481481
        k(    6) = (   0.3333333   0.0000000   0.3333333), wk =   0.2962963
        k(    7) = (   0.3333333   0.3333333   0.0000000), wk =   0.2962963
        k(    8) = (   0.3333333   0.3333333   0.3333333), wk =   0.5925926

     Initial potential from superposition of free atoms

     starting charge     195.9737, renormalised to     196.0000
     Starting wfcs are  216 randomized atomic wfcs +   40 random wfcs
     Checking if some PAW data can be deallocated...

     Self-consistent Calculation

     iteration #  1     ecut=    30.00 Ry     beta= 0.70
     Davidson diagonalization with overlap

     ethr =  1.00E-02,  avg # of iterations =  7.5

     total energy              =   -3736.89830749 Ry
     estimated scf accuracy    <      25.23959650 Ry

[...]

     total energy              =   -3767.26603065 Ry
     estimated scf accuracy    <       0.00004440 Ry

     iteration #120     ecut=    30.00 Ry     beta= 0.70
     Davidson diagonalization with overlap

     ethr =  6.16E-10,  avg # of iterations =  1.0

     End of self-consistent calculation

          k = 0.0000 0.0000 0.0000 (  7981 PWs)   bands (ev):

   -40.6035 -40.6034 -40.6031 -40.6030 -36.1294 -36.1292 -36.1279 -36.1277
   -19.2352 -19.2344 -19.2291 -19.2286 -19.2064 -19.2051 -19.1967 -19.1956
   -19.1873 -19.1867 -19.1797 -19.1793 -12.3403 -12.3401 -12.3274 -12.3233
   -12.2894 -12.2616 -12.2598 -12.2586 -12.2580 -12.2466 -12.2453 -12.2431
    -4.0056  -3.2423  -3.0950  -2.9175  -2.8121  -2.7755  -2.6946  -2.6918
    -2.6358  -2.6313  -2.6095  -2.5653   4.3593   4.4751   4.5193   4.9811
     5.0848   5.1992   5.3910   5.4037   5.5604   5.7189   5.7881   5.8366
     5.9591   5.9994   6.1050   6.1116   6.1944   6.5409   6.5762   6.6454
     6.7060   6.7557   6.8192   6.8372   6.8589   6.9411   7.0841   7.1565
     7.2827   7.4810   7.5012   7.6003   7.9568   8.1645   8.2081   8.5409
     8.5609   8.5650   8.5680   8.5851   8.5881   8.5926   8.5931   8.6169
     8.6258   8.6291   8.6391   8.6597   8.6915   8.7074   8.7078   8.7195
     8.7497   8.7510   8.7585   8.7620   8.7720   8.7751   8.7863   8.8151
     8.8328   8.9261   8.9575   8.9681  10.6881  10.7103  10.7292  10.9006
    11.0108  11.1883  11.3639  11.3799  11.5962  11.8336  11.9921  12.0007
    12.2567  12.7688  12.7861  12.7906  12.9423  12.9643  13.0156  13.2590
    13.3132  13.3435  13.4404  13.4992  13.5037  13.5343  13.5389  14.0663
    14.1920  14.2306  14.2971  14.3396  14.6673  14.6957  14.7113  15.0363
    15.0921  15.2078  15.2317  15.3320  15.4716  15.5006  15.6905  16.1476
    16.4133  16.4309  16.7424  16.7792  16.8068  16.8462  17.0340  17.0838
    17.5569  17.6690  17.7873  17.8038  17.8670  17.9850  18.0116  18.0919
    18.1781  18.7933  18.9225  19.2215  19.3143  19.3233  19.4954  19.5834
    19.7931  19.9462  20.0570  20.0886  20.1730  20.3176  20.4772  20.5928
    20.6692  20.7021  20.8290  20.9838  21.0001  21.0289  21.1685  21.2298
    21.3734  21.4161  21.5087  21.5273  21.6315  21.7659  21.7796  22.1045
    22.2212  22.7022  23.3037  23.3147  23.3756  23.5171  23.6356  23.6787
    24.1051  24.1474  24.2045  24.3357  24.5299  24.5523  24.8063  24.8557
    24.8918  24.9798  25.2278  25.6593  25.6947  25.7922  25.9301  26.1892
    26.2864  26.5461  26.7595  26.8366  26.8634  26.8877  27.0368  27.0702
    27.1518  27.4212  27.5295  27.5643  27.9855  28.0871  28.1545  28.1840
    28.2255  28.2509  28.3605  28.7067  28.7666  28.8636  28.8823  28.9604
    29.1067  29.1157  29.4968  29.5038  29.5494  29.6006  29.7694  29.7971

     occupation numbers
     1.0000   1.0000   1.0000   1.0000   1.0000   1.0000   1.0000   1.0000
     1.0000   1.0000   1.0000   1.0000   1.0000   1.0000   1.0000   1.0000
     1.0000   1.0000   1.0000   1.0000   1.0000   1.0000   1.0000   1.0000
     1.0000   1.0000   1.0000   1.0000   1.0000   1.0000   1.0000   1.0000
     1.0000   1.0000   1.0000   1.0000   1.0000   1.0000   1.0000   1.0000
     1.0000   1.0000   1.0000   1.0000   1.0000   1.0000   1.0000   1.0000
     1.0000   1.0000   1.0000   1.0000   1.0000   1.0000   1.0000   1.0000
     1.0000   1.0000   1.0000   1.0000   1.0000   1.0000   1.0000   1.0000
     1.0000   1.0000   1.0000   1.0000   1.0000   1.0000   1.0000   1.0000
     1.0000   1.0000   1.0000   1.0000   1.0000   1.0000   1.0000   1.0000
     1.0000   1.0000   1.0000   1.0000   1.0000   1.0000   1.0000   1.0000
     1.0000   1.0000   1.0000   1.0000   1.0000   1.0000   1.0000   1.0000
     1.0000   1.0000   0.0000   0.0000   0.0000   0.0000   0.0000   0.0000
     0.0000   0.0000   0.0000   0.0000   0.0000   0.0000   0.0000   0.0000
     0.0000   0.0000   0.0000   0.0000   0.0000   0.0000   0.0000   0.0000
     0.0000   0.0000   0.0000   0.0000   0.0000   0.0000   0.0000   0.0000
     0.0000   0.0000   0.0000   0.0000   0.0000   0.0000   0.0000   0.0000
     0.0000   0.0000   0.0000   0.0000   0.0000   0.0000   0.0000   0.0000
     0.0000   0.0000   0.0000   0.0000   0.0000   0.0000   0.0000   0.0000
     0.0000   0.0000   0.0000   0.0000   0.0000   0.0000   0.0000   0.0000
     0.0000   0.0000   0.0000   0.0000   0.0000   0.0000   0.0000   0.0000
     0.0000   0.0000   0.0000   0.0000   0.0000   0.0000   0.0000   0.0000
     0.0000   0.0000   0.0000   0.0000   0.0000   0.0000   0.0000   0.0000
     0.0000   0.0000   0.0000   0.0000   0.0000   0.0000   0.0000   0.0000
     0.0000   0.0000   0.0000   0.0000   0.0000   0.0000   0.0000   0.0000
     0.0000   0.0000   0.0000   0.0000   0.0000   0.0000   0.0000   0.0000
     0.0000   0.0000   0.0000   0.0000   0.0000   0.0000   0.0000   0.0000
     0.0000   0.0000   0.0000   0.0000   0.0000   0.0000   0.0000   0.0000
     0.0000   0.0000   0.0000   0.0000   0.0000   0.0000   0.0000   0.0000
     0.0000   0.0000   0.0000   0.0000   0.0000   0.0000   0.0000   0.0000
     0.0000   0.0000   0.0000   0.0000   0.0000   0.0000   0.0000   0.0000
     0.0000   0.0000   0.0000   0.0000   0.0000   0.0000   0.0000   0.0000

[...]

          k = 0.3333 0.3030 0.2219 (  7968 PWs)   bands (ev):

   -40.6033 -40.6032 -40.6032 -40.6031 -36.1289 -36.1288 -36.1283 -36.1282
   -19.2329 -19.2325 -19.2312 -19.2310 -19.2036 -19.2033 -19.1986 -19.1985
   -19.1842 -19.1840 -19.1823 -19.1821 -12.3401 -12.3377 -12.3254 -12.3231
   -12.2727 -12.2680 -12.2620 -12.2609 -12.2575 -12.2537 -12.2497 -12.2495
    -3.4646  -3.2467  -3.0745  -2.9947  -2.9368  -2.8752  -2.8035  -2.7780
    -2.6878  -2.6578  -2.6427  -2.6331   4.6502   4.7195   4.7848   4.8345
     5.0492   5.1745   5.3627   5.4710   5.4856   5.6159   5.7745   5.8956
     5.9420   6.1330   6.2194   6.2613   6.3022   6.3156   6.4302   6.6123
     6.6799   6.7480   6.7738   6.8260   6.9769   7.1734   7.2228   7.2977
     7.3294   7.3690   7.5057   7.6566   7.6920   7.7378   7.7746   7.8811
     8.5689   8.5718   8.5744   8.5850   8.5880   8.5928   8.5988   8.6039
     8.6295   8.6373   8.6597   8.6693   8.6861   8.6914   8.7061   8.7139
     8.7226   8.7263   8.7473   8.7519   8.7746   8.7942   8.8005   8.8100
     8.8397   8.8432   8.8677   8.8790  10.8022  10.8794  10.9238  11.0021
    11.2700  11.3537  11.3763  11.4915  11.6104  11.6212  11.7816  11.8508
    12.4975  12.6314  12.7001  12.7819  12.8630  12.9070  13.1076  13.1843
    13.2104  13.3227  13.3671  13.4731  13.5272  13.6893  13.7932  13.8598
    13.8840  14.0993  14.1540  14.3072  14.6609  14.8000  14.9177  15.0577
    15.0822  15.2111  15.3760  15.5914  15.7645  15.9042  16.1356  16.2254
    16.3701  16.4438  16.6671  16.8282  17.0186  17.1472  17.2848  17.4734
    17.6105  17.8011  17.8599  18.0655  18.1833  18.2179  18.4738  18.4862
    18.5567  18.7657  18.7922  18.8724  18.9035  19.0895  19.2399  19.2650
    19.4255  19.5711  19.5998  19.7503  19.9874  20.0787  20.1591  20.2118
    20.3705  20.5445  20.6392  20.8393  20.9088  21.0227  21.1580  21.2380
    21.3777  21.5270  21.8536  21.9452  22.0200  22.1762  22.3937  22.4679
    22.6357  22.7865  22.8759  23.0459  23.1981  23.3282  23.4296  23.7191
    23.7964  23.8949  24.0164  24.1370  24.2321  24.4618  24.4918  24.6030
    24.7742  25.0358  25.3440  25.5366  25.8100  25.8445  26.0576  26.2452
    26.3983  26.4660  26.5344  26.5719  26.8233  26.8865  26.9852  27.0699
    27.2837  27.5073  27.5620  27.8050  27.8529  27.8679  28.1174  28.2422
    28.3011  28.3347  28.4233  28.5759  28.7075  28.8153  28.9693  29.1231
    29.1352  29.1828  29.2684  29.4638  29.5333  29.6405  29.8311  29.9076

     occupation numbers
     1.0000   1.0000   1.0000   1.0000   1.0000   1.0000   1.0000   1.0000
     1.0000   1.0000   1.0000   1.0000   1.0000   1.0000   1.0000   1.0000
     1.0000   1.0000   1.0000   1.0000   1.0000   1.0000   1.0000   1.0000
     1.0000   1.0000   1.0000   1.0000   1.0000   1.0000   1.0000   1.0000
     1.0000   1.0000   1.0000   1.0000   1.0000   1.0000   1.0000   1.0000
     1.0000   1.0000   1.0000   1.0000   1.0000   1.0000   1.0000   1.0000
     1.0000   1.0000   1.0000   1.0000   1.0000   1.0000   1.0000   1.0000
     1.0000   1.0000   1.0000   1.0000   1.0000   1.0000   1.0000   1.0000
     1.0000   1.0000   1.0000   1.0000   1.0000   1.0000   1.0000   1.0000
     1.0000   1.0000   1.0000   1.0000   1.0000   1.0000   1.0000   1.0000
     1.0000   1.0000   1.0000   1.0000   1.0000   1.0000   1.0000   1.0000
     1.0000   1.0000   1.0000   1.0000   1.0000   1.0000   1.0000   1.0000
     1.0000   1.0000   0.0000   0.0000   0.0000   0.0000   0.0000   0.0000
     0.0000   0.0000   0.0000   0.0000   0.0000   0.0000   0.0000   0.0000
     0.0000   0.0000   0.0000   0.0000   0.0000   0.0000   0.0000   0.0000
     0.0000   0.0000   0.0000   0.0000   0.0000   0.0000   0.0000   0.0000
     0.0000   0.0000   0.0000   0.0000   0.0000   0.0000   0.0000   0.0000
     0.0000   0.0000   0.0000   0.0000   0.0000   0.0000   0.0000   0.0000
     0.0000   0.0000   0.0000   0.0000   0.0000   0.0000   0.0000   0.0000
     0.0000   0.0000   0.0000   0.0000   0.0000   0.0000   0.0000   0.0000
     0.0000   0.0000   0.0000   0.0000   0.0000   0.0000   0.0000   0.0000
     0.0000   0.0000   0.0000   0.0000   0.0000   0.0000   0.0000   0.0000
     0.0000   0.0000   0.0000   0.0000   0.0000   0.0000   0.0000   0.0000
     0.0000   0.0000   0.0000   0.0000   0.0000   0.0000   0.0000   0.0000
     0.0000   0.0000   0.0000   0.0000   0.0000   0.0000   0.0000   0.0000
     0.0000   0.0000   0.0000   0.0000   0.0000   0.0000   0.0000   0.0000
     0.0000   0.0000   0.0000   0.0000   0.0000   0.0000   0.0000   0.0000
     0.0000   0.0000   0.0000   0.0000   0.0000   0.0000   0.0000   0.0000
     0.0000   0.0000   0.0000   0.0000   0.0000   0.0000   0.0000   0.0000
     0.0000   0.0000   0.0000   0.0000   0.0000   0.0000   0.0000   0.0000
     0.0000   0.0000   0.0000   0.0000   0.0000   0.0000   0.0000   0.0000
     0.0000   0.0000   0.0000   0.0000   0.0000   0.0000   0.0000   0.0000

     highest occupied, lowest unoccupied level (ev):     8.7510    8.7398

!    total energy              =   -3767.26602769 Ry
     estimated scf accuracy    <       0.00000082 Ry

     The total energy is the sum of the following terms:
     one-electron contribution =    -936.02494719 Ry
     hartree contribution      =     543.95273453 Ry
     xc contribution           =    -260.23738099 Ry
     ewald contribution        =   -1196.12427982 Ry
     one-center paw contrib.   =   -1918.83215422 Ry
      -> PAW hartree energy AE =     763.92484331 Ry
      -> PAW hartree energy PS =    -707.54253728 Ry
      -> PAW xc energy AE      =   -1574.91271409 Ry
      -> PAW xc energy PS      =      79.40629240 Ry
      -> total E_H with PAW    =     600.33504056 Ry
      -> total E_XC with PAW   =   -1755.74380269 Ry

     convergence has been achieved in 120 iterations

     Writing all to output data dir bands_nm/myprefix.save/

     General routines

     Parallel routines

     PAW routines

   This run was terminated on:  17:41:47  16Jul2023

   JOB DONE.