     Program PWSCF v.7.1 starts on 13Jul2023 at  8:36:38

     Reading input from espresso_25596.pwi
Warning: card &CELL ignored
Warning: card / ignored

     Current dimensions of program PWSCF are:
     Max number of different atomic species (ntypx) = 10
     Max number of k-points (npk) =  40000
     Max angular momentum in pseudopotentials (lmaxx) =  4
     file Ba.pbe-spn-kjpaw_psl.1.0.0.UPF: wavefunction(s)  5S 6S renormalized
     Message from routine setup:
     using ibrav=0 with symmetry is DISCOURAGED, use correct ibrav instead

     K-points division:     npool     =       2
     R & G space division:  proc/nbgrp/npool/nimage =       8
     Subspace diagonalization in iterative solution of the eigenvalue problem:
     a serial algorithm will be used

     Using Slab Decomposition

     bravais-lattice index     =            0
     lattice parameter (alat)  =      14.5248  a.u.
     unit-cell volume          =    3664.6462 (a.u.)^3
     number of atoms/cell      =           14
     number of atomic types    =            3
     number of electrons       =        96.00
     number of Kohn-Sham states=           64
     kinetic-energy cutoff     =      30.0000  Ry
     charge density cutoff     =     240.0000  Ry
     scf convergence threshold =      1.0E-06
     mixing beta               =       0.7000
     number of iterations used =            8  plain     mixing
     Exchange-correlation= SLA  PW   PBE  PBE
                           (   1   4   3   4   0   0   0)

     celldm(1)=  14.524832  celldm(2)=   0.000000  celldm(3)=   0.000000
     celldm(4)=   0.000000  celldm(5)=   0.000000  celldm(6)=   0.000000

     crystal axes: (cart. coord. in units of alat)
               a(1) = (   1.000000   0.000000   0.000000 )
               a(2) = (   0.000000   0.995667   0.000000 )
               a(3) = (   0.000000   0.402760   1.201115 )

     reciprocal axes: (cart. coord. in units 2 pi/alat)
               b(1) = (  1.000000  0.000000  0.000000 )
               b(2) = (  0.000000  1.004352 -0.336781 )
               b(3) = (  0.000000  0.000000  0.832560 )

     PseudoPot. # 1 for Ba read from file:
     /lustre07/scratch/pragov/crystal_structure_design/utils/SSSP/Ba.pbe-spn-kjpaw_psl.1.0.0.UPF
     MD5 check sum: c432291d3e53af55f19d5e8866385beb
     Pseudo is Projector augmented-wave + core cor, Zval = 10.0
     Generated using "atomic" code by A. Dal Corso  v.5.1
     Shape of augmentation charge: PSQ
     Using radial grid of 1251 points,  7 beta functions with:
                l(1) =   0
                l(2) =   0
                l(3) =   0
                l(4) =   1
                l(5) =   1
                l(6) =   2
                l(7) =   2
     Q(r) pseudized with 0 coefficients

     PseudoPot. # 2 for Si read from file:
     /lustre07/scratch/pragov/crystal_structure_design/utils/SSSP/Si.pbe-n-rrkjus_psl.1.0.0.UPF
     MD5 check sum: 0b0bb1205258b0d07b9f9672cf965d36
     Pseudo is Ultrasoft + core correction, Zval =  4.0
     Generated using "atomic" code by A. Dal Corso  v.5.1
     Using radial grid of 1141 points,  6 beta functions with:
                l(1) =   0
                l(2) =   0
                l(3) =   1
                l(4) =   1
                l(5) =   2
                l(6) =   2
     Q(r) pseudized with 0 coefficients

     PseudoPot. # 3 for Te read from file:
     /lustre07/scratch/pragov/crystal_structure_design/utils/SSSP/Te_pbe_v1.uspp.F.UPF
     MD5 check sum: c319670d6894cc26e93307826a071b75
     Pseudo is Ultrasoft + core correction, Zval =  6.0
     Generated by new atomic code, or converted to UPF format
     Using radial grid of  891 points,  5 beta functions with:
                l(1) =   0
                l(2) =   0
                l(3) =   1
                l(4) =   1
                l(5) =   2
     Q(r) pseudized with  6 coefficients,  rinner =    1.800   1.800   1.800
                                                       1.800   1.800

     atomic species   valence    mass     pseudopotential
        Ba            10.00   137.32700     Ba( 1.00)
        Si             4.00    28.08500     Si( 1.00)
        Te             6.00   127.60000     Te( 1.00)

      4 Sym. Ops., with inversion, found ( 2 have fractional translation)

                                    s                        frac. trans.

      isym =  1     identity

 cryst.   s( 1) = (     1          0          0      )
                  (     0          1          0      )
                  (     0          0          1      )

 cart.    s( 1) = (  1.0000000  0.0000000  0.0000000 )
                  (  0.0000000  1.0000000  0.0000000 )
                  (  0.0000000  0.0000000  1.0000000 )

      isym =  2     180 deg rotation - cart. axis [1,0,0]

 cryst.   s( 2) = (     1          0          0      )    f =(  0.5000000 )
                  (     0         -1          0      )       ( -0.0000000 )
                  (     0          0         -1      )       (  0.0000000 )

 cart.    s( 2) = (  1.0000000  0.0000000  0.0000000 )    f =(  0.5000000 )
                  (  0.0000000 -1.0000000  0.0000000 )       ( -0.0000000 )
                  (  0.0000000  0.0000000 -1.0000000 )       (  0.0000000 )

      isym =  3     inversion

 cryst.   s( 3) = (    -1          0          0      )
                  (     0         -1          0      )
                  (     0          0         -1      )

 cart.    s( 3) = ( -1.0000000  0.0000000  0.0000000 )
                  (  0.0000000 -1.0000000  0.0000000 )
                  (  0.0000000  0.0000000 -1.0000000 )

      isym =  4     inv. 180 deg rotation - cart. axis [1,0,0]

 cryst.   s( 4) = (    -1          0          0      )    f =(  0.5000000 )
                  (     0          1          0      )       (  0.0000000 )
                  (     0          0          1      )       (  0.0000000 )

 cart.    s( 4) = ( -1.0000000  0.0000000  0.0000000 )    f =(  0.5000000 )
                  (  0.0000000  1.0000000  0.0000000 )       (  0.0000000 )
                  (  0.0000000  0.0000000  1.0000000 )       (  0.0000000 )

   Cartesian axes

     site n.     atom                  positions (alat units)
         1           Ba  tau(   1) = (   0.7500000   0.7547959   0.0854461  )
         2           Ba  tau(   2) = (   0.2500000   0.6436309   1.1156689  )
         3           Ba  tau(   3) = (   0.7500000   0.9951910   0.6627452  )
         4           Ba  tau(   4) = (   0.2500000   0.4032358   0.5383698  )
         5           Si  tau(   5) = (   0.7500000   0.4941960   0.8474611  )
         6           Si  tau(   6) = (   0.2500000   0.9042308   0.3536539  )
         7           Te  tau(   7) = (   0.0066200   1.2990444   0.9210786  )
         8           Te  tau(   8) = (   0.5066200   0.0993824   0.2800364  )
         9           Te  tau(   9) = (   0.2500000   0.8491839   0.6782672  )
        10           Te  tau(  10) = (   0.7500000   0.5492429   0.5228478  )
        11           Te  tau(  11) = (   0.2500000   0.6432211   0.1510546  )
        12           Te  tau(  12) = (   0.7500000   0.7552057   1.0500604  )
        13           Te  tau(  13) = (   0.4933800   1.2990444   0.9210786  )
        14           Te  tau(  14) = (   0.9933800   0.0993824   0.2800364  )

   Crystallographic axes

     site n.     atom                  positions (cryst. coord.)
         1           Ba  tau(   1) = (  0.7500000  0.7293040  0.0711390  )
         2           Ba  tau(   2) = (  0.2500000  0.2706960  0.9288610  )
         3           Ba  tau(   3) = (  0.7500000  0.7763220  0.5517750  )
         4           Ba  tau(   4) = (  0.2500000  0.2236780  0.4482250  )
         5           Si  tau(   5) = (  0.7500000  0.2109380  0.7055620  )
         6           Si  tau(   6) = (  0.2500000  0.7890620  0.2944380  )
         7           Te  tau(   7) = (  0.0066200  0.9944960  0.7668530  )
         8           Te  tau(   8) = (  0.5066200  0.0055040  0.2331470  )
         9           Te  tau(   9) = (  0.2500000  0.6244520  0.5646980  )
        10           Te  tau(  10) = (  0.7500000  0.3755480  0.4353020  )
        11           Te  tau(  11) = (  0.2500000  0.5951480  0.1257620  )
        12           Te  tau(  12) = (  0.7500000  0.4048520  0.8742380  )
        13           Te  tau(  13) = (  0.4933800  0.9944960  0.7668530  )
        14           Te  tau(  14) = (  0.9933800  0.0055040  0.2331470  )

     number of k points=    10
                       cart. coord. in units 2pi/alat
        k(    1) = (   0.0000000   0.0000000   0.0000000), wk =   0.0740741
        k(    2) = (   0.0000000   0.0000000   0.2775199), wk =   0.1481481
        k(    3) = (   0.0000000   0.3347839  -0.1122603), wk =   0.1481481
        k(    4) = (   0.0000000   0.3347839   0.1652596), wk =   0.1481481
        k(    5) = (   0.0000000   0.3347839  -0.3897802), wk =   0.1481481
        k(    6) = (   0.3333333   0.0000000   0.0000000), wk =   0.1481481
        k(    7) = (   0.3333333   0.0000000   0.2775199), wk =   0.2962963
        k(    8) = (   0.3333333   0.3347839  -0.1122603), wk =   0.2962963
        k(    9) = (   0.3333333   0.3347839   0.1652596), wk =   0.2962963
        k(   10) = (   0.3333333   0.3347839  -0.3897802), wk =   0.2962963

                       cryst. coord.
        k(    1) = (   0.0000000   0.0000000   0.0000000), wk =   0.0740741
        k(    2) = (   0.0000000   0.0000000   0.3333333), wk =   0.1481481
        k(    3) = (   0.0000000   0.3333333   0.0000000), wk =   0.1481481
        k(    4) = (   0.0000000   0.3333333   0.3333333), wk =   0.1481481
        k(    5) = (   0.0000000   0.3333333  -0.3333333), wk =   0.1481481
        k(    6) = (   0.3333333   0.0000000   0.0000000), wk =   0.1481481
        k(    7) = (   0.3333333   0.0000000   0.3333333), wk =   0.2962963
        k(    8) = (   0.3333333   0.3333333   0.0000000), wk =   0.2962963
        k(    9) = (   0.3333333   0.3333333   0.3333333), wk =   0.2962963
        k(   10) = (   0.3333333   0.3333333  -0.3333333), wk =   0.2962963

     Initial potential from superposition of free atoms

     starting charge      95.9291, renormalised to      96.0000
     Starting wfcs are   60 randomized atomic wfcs +    4 random wfcs
     Checking if some PAW data can be deallocated...

     Self-consistent Calculation

     iteration #  1     ecut=    30.00 Ry     beta= 0.70
     Davidson diagonalization with overlap

     ethr =  1.00E-02,  avg # of iterations =  6.1

     Threshold (ethr) on eigenvalues was too large:
     Diagonalizing with lowered threshold

     Davidson diagonalization with overlap

[...]

     negative rho (up, down):  1.787E-02 0.000E+00

     total energy              =   -1980.59345016 Ry
     estimated scf accuracy    <       0.33628903 Ry

[...]

     c_bands:  1 eigenvalues not converged
     ethr =  4.51E-05,  avg # of iterations = 13.7

[...]

     negative rho (up, down):  4.448E-04 0.000E+00

[...]

     c_bands:  1 eigenvalues not converged
     ethr =  3.35E-07,  avg # of iterations =  6.5

[...]

     total energy              =   -1980.64671717 Ry
     estimated scf accuracy    <       0.00000922 Ry

     iteration # 12     ecut=    30.00 Ry     beta= 0.70
     Davidson diagonalization with overlap

     ethr =  5.70E-09,  avg # of iterations =  2.0

     End of self-consistent calculation

          k = 0.0000 0.0000 0.0000 ( 10153 PWs)   bands (ev):

   -22.6526 -22.6509 -22.2487 -22.2452  -7.9692  -7.9502  -7.8723  -7.8687
    -7.8450  -7.7768  -7.5392  -7.5132  -7.4982  -7.4721  -7.4518  -7.4098
    -6.3159  -5.9651  -4.9245  -4.8079  -4.7255  -4.7191  -4.6628  -4.6531
    -1.4319  -1.0727   1.4506   1.8556   1.9320   2.0132   2.3478   2.4352
     2.7329   3.1576   3.3686   3.5822   3.6361   3.8040   3.9679   3.9892
     4.3668   4.3804   4.7046   4.7583   4.9181   4.9510   5.0512   5.3087
     6.4199   6.7604   7.6137   7.6685   7.8869   8.0254   8.0454   8.2957
     8.3252   8.4389   8.6034   8.7394   8.8663   9.0058   9.1917   9.2665

     occupation numbers
     1.0000   1.0000   1.0000   1.0000   1.0000   1.0000   1.0000   1.0000
     1.0000   1.0000   1.0000   1.0000   1.0000   1.0000   1.0000   1.0000
     1.0000   1.0000   1.0000   1.0000   1.0000   1.0000   1.0000   1.0000
     1.0000   1.0000   1.0000   1.0000   1.0000   1.0000   1.0000   1.0000
     1.0000   1.0000   1.0000   1.0000   1.0000   1.0000   1.0000   1.0000
     1.0000   1.0000   1.0000   1.0000   1.0000   1.0000   1.0000   1.0000
     0.0000   0.0000   0.0000   0.0000   0.0000   0.0000   0.0000   0.0000
     0.0000   0.0000   0.0000   0.0000   0.0000   0.0000   0.0000   0.0000

[...]

          k = 0.3333 0.3348-0.3898 ( 10164 PWs)   bands (ev):

   -22.6520 -22.6515 -22.2477 -22.2462  -7.9493  -7.9235  -7.9136  -7.8771
    -7.8162  -7.7989  -7.5770  -7.5609  -7.5213  -7.4830  -7.4493  -7.4219
    -5.9819  -5.9605  -4.9147  -4.8849  -4.8010  -4.7639  -4.7559  -4.7121
    -1.0477  -0.9459   1.7215   1.7832   1.8338   2.0249   2.2096   2.4193
     2.9790   3.1997   3.3133   3.4693   3.5034   3.7386   3.9691   3.9756
     4.1400   4.2928   4.3887   4.3908   4.5166   4.5735   4.6972   4.7790
     6.9405   7.0784   7.5841   7.7977   7.8848   8.1933   8.4370   8.5575
     8.6300   8.7275   8.8772   8.9832   9.0486   9.1236   9.2560   9.3399

     occupation numbers
     1.0000   1.0000   1.0000   1.0000   1.0000   1.0000   1.0000   1.0000
     1.0000   1.0000   1.0000   1.0000   1.0000   1.0000   1.0000   1.0000
     1.0000   1.0000   1.0000   1.0000   1.0000   1.0000   1.0000   1.0000
     1.0000   1.0000   1.0000   1.0000   1.0000   1.0000   1.0000   1.0000
     1.0000   1.0000   1.0000   1.0000   1.0000   1.0000   1.0000   1.0000
     1.0000   1.0000   1.0000   1.0000   1.0000   1.0000   1.0000   1.0000
     0.0000   0.0000   0.0000   0.0000   0.0000   0.0000   0.0000   0.0000
     0.0000   0.0000   0.0000   0.0000   0.0000   0.0000   0.0000   0.0000

     highest occupied, lowest unoccupied level (ev):     5.3087    6.4199

!    total energy              =   -1980.64671827 Ry
     estimated scf accuracy    <       0.00000021 Ry

     The total energy is the sum of the following terms:
     one-electron contribution =     -17.86313404 Ry
     hartree contribution      =      47.68351389 Ry
     xc contribution           =    -208.96960626 Ry
     ewald contribution        =    -301.69368169 Ry
     one-center paw contrib.   =   -1499.80381017 Ry
      -> PAW hartree energy AE =      28.48876567 Ry
      -> PAW hartree energy PS =     -28.37887980 Ry
      -> PAW xc energy AE      =    -394.18700486 Ry
      -> PAW xc energy PS      =      19.12688625 Ry
      -> total E_H with PAW    =      47.79339976 Ry
      -> total E_XC with PAW   =    -584.02972487 Ry

     convergence has been achieved in  12 iterations

     Writing all to output data dir bands_nm/myprefix.save/

     General routines

     Parallel routines

     PAW routines

   This run was terminated on:   8:37:28  13Jul2023

   JOB DONE.