     Program PWSCF v.7.1 starts on 15Jul2023 at 14:22:43

     Reading input from espresso_21773.pwi
Warning: card &CELL ignored
Warning: card / ignored

     Current dimensions of program PWSCF are:
     Max number of different atomic species (ntypx) = 10
     Max number of k-points (npk) =  40000
     Max angular momentum in pseudopotentials (lmaxx) =  4
     file K.pbe-spn-kjpaw_psl.1.0.0.UPF: wavefunction(s)  3S renormalized
     file Mg.pbe-n-kjpaw_psl.0.3.0.UPF: wavefunction(s)  3S renormalized
     file O.pbe-n-kjpaw_psl.0.1.UPF: wavefunction(s)  2P renormalized
     Message from routine setup:
     the system is metallic, specify occupations
     Message from routine setup:
     using ibrav=0 with symmetry is DISCOURAGED, use correct ibrav instead

     K-points division:     npool     =       2
     R & G space division:  proc/nbgrp/npool/nimage =       4
     Subspace diagonalization in iterative solution of the eigenvalue problem:
     a serial algorithm will be used

     Using Slab Decomposition

     bravais-lattice index     =            0
     lattice parameter (alat)  =      10.0521  a.u.
     unit-cell volume          =    1681.4396 (a.u.)^3
     number of atoms/cell      =           20
     number of atomic types    =            4
     number of electrons       =       103.00 (up:  52.00, down:  51.00)
     number of Kohn-Sham states=           64
     kinetic-energy cutoff     =      30.0000  Ry
     charge density cutoff     =     240.0000  Ry
     scf convergence threshold =      1.0E-06
     mixing beta               =       0.7000
     number of iterations used =            8  plain     mixing
     Exchange-correlation= SLA  PW   PBX  PBC
                           (   1   4   3   4   0   0   0)

     celldm(1)=  10.052082  celldm(2)=   0.000000  celldm(3)=   0.000000
     celldm(4)=   0.000000  celldm(5)=   0.000000  celldm(6)=   0.000000

     crystal axes: (cart. coord. in units of alat)
               a(1) = (   1.000000   0.000000   0.000000 )
               a(2) = (  -0.512383   0.858757   0.000000 )
               a(3) = (   0.144991   0.255349   1.927716 )

     reciprocal axes: (cart. coord. in units 2 pi/alat)
               b(1) = (  1.000000  0.596657 -0.154248 )
               b(2) = (  0.000000  1.164474 -0.154248 )
               b(3) = (  0.000000  0.000000  0.518749 )

     PseudoPot. # 1 for K  read from file:
     /lustre07/scratch/pragov/crystal_structure_design/utils/SSSP/K.pbe-spn-kjpaw_psl.1.0.0.UPF
     MD5 check sum: 7d58810084cac21f60fbe77ea2b688fd
     Pseudo is Projector augmented-wave + core cor, Zval =  9.0
     Generated using "atomic" code by A. Dal Corso  v.5.1
     Shape of augmentation charge: PSQ
     Using radial grid of 1165 points,  6 beta functions with:
                l(1) =   0
                l(2) =   0
                l(3) =   1
                l(4) =   1
                l(5) =   2
                l(6) =   2
     Q(r) pseudized with 0 coefficients

     PseudoPot. # 2 for Mg read from file:
     /lustre07/scratch/pragov/crystal_structure_design/utils/SSSP/Mg.pbe-n-kjpaw_psl.0.3.0.UPF
     MD5 check sum: 24ecedc7f3e3cbe212e682f4413594e4
     Pseudo is Projector augmented-wave + core cor, Zval =  2.0
     Generated using "atomic" code by A. Dal Corso  v.5.0.99 svn rev. 10869
     Shape of augmentation charge: PSQ
     Using radial grid of 1129 points,  4 beta functions with:
                l(1) =   0
                l(2) =   0
                l(3) =   1
                l(4) =   1
     Q(r) pseudized with 0 coefficients

     PseudoPot. # 3 for Si read from file:
     /lustre07/scratch/pragov/crystal_structure_design/utils/SSSP/Si.pbe-n-rrkjus_psl.1.0.0.UPF
     MD5 check sum: 0b0bb1205258b0d07b9f9672cf965d36
     Pseudo is Ultrasoft + core correction, Zval =  4.0
     Generated using "atomic" code by A. Dal Corso  v.5.1
     Using radial grid of 1141 points,  6 beta functions with:
                l(1) =   0
                l(2) =   0
                l(3) =   1
                l(4) =   1
                l(5) =   2
                l(6) =   2
     Q(r) pseudized with 0 coefficients

     PseudoPot. # 4 for O  read from file:
     /lustre07/scratch/pragov/crystal_structure_design/utils/SSSP/O.pbe-n-kjpaw_psl.0.1.UPF
     MD5 check sum: 0234752ac141de4415c5fc33072bef88
     Pseudo is Projector augmented-wave + core cor, Zval =  6.0
     Generated using "atomic" code by A. Dal Corso  v.5.0.99 svn rev. 10869
     Shape of augmentation charge: BESSEL
     Using radial grid of 1095 points,  4 beta functions with:
                l(1) =   0
                l(2) =   0
                l(3) =   1
                l(4) =   1
     Q(r) pseudized with 0 coefficients

     atomic species   valence    mass     pseudopotential
        K              9.00    39.09830     K ( 1.00)
        Mg             2.00    24.30500     Mg( 1.00)
        Si             4.00    28.08500     Si( 1.00)
        O              6.00    15.99900     O ( 1.00)

     Starting magnetic structure
     atomic species   magnetization
        K            0.000
        Mg           0.000
        Si           0.000
        O            0.000

      2 Sym. Ops., with inversion, found

                                    s                        frac. trans.

      isym =  1     identity

 cryst.   s( 1) = (     1          0          0      )
                  (     0          1          0      )
                  (     0          0          1      )

 cart.    s( 1) = (  1.0000000  0.0000000  0.0000000 )
                  (  0.0000000  1.0000000 -0.0000000 )
                  (  0.0000000  0.0000000  1.0000000 )

      isym =  2     inversion

 cryst.   s( 2) = (    -1          0          0      )
                  (     0         -1          0      )
                  (     0          0         -1      )

 cart.    s( 2) = ( -1.0000000  0.0000000 -0.0000000 )
                  (  0.0000000 -1.0000000  0.0000000 )
                  (  0.0000000  0.0000000 -1.0000000 )

   Cartesian axes

     site n.     atom                  positions (alat units)
         1           K   tau(   1) = (   0.0000000   0.0000000   0.0000000  )
         2           Mg  tau(   2) = (   0.8219951   0.2699129   0.9638578  )
         3           Mg  tau(   3) = (  -0.1893868   0.8441929   0.9638578  )
         4           Mg  tau(   4) = (   0.3163042   0.5570529   0.9638578  )
         5           Si  tau(   5) = (   0.4932299   0.2802925   0.4426710  )
         6           Si  tau(   6) = (   0.1393784   0.8338132   1.4850446  )
         7           Si  tau(   7) = (   0.6446278   0.5469240   1.4850446  )
         8           Si  tau(   8) = (  -0.0120195   0.5671817   0.4426710  )
         9           O   tau(   9) = (   0.2534110   0.4462897   0.3278331  )
        10           O   tau(  10) = (   0.3791973   0.6678160   1.5998824  )
        11           O   tau(  11) = (   0.4841557   0.8526613   0.7860877  )
        12           O   tau(  12) = (   0.1484526   0.2614444   1.1416278  )
        13           O   tau(  13) = (  -0.0415134   0.8530415   0.3185415  )
        14           O   tau(  14) = (   0.6741217   0.2610642   1.6091740  )
        15           O   tau(  15) = (  -0.1212179   0.7126716   1.6091740  )
        16           O   tau(  16) = (   0.7538262   0.4014341   0.3185415  )
        17           O   tau(  17) = (   0.4997323   0.2807670   0.7439035  )
        18           O   tau(  18) = (   0.1328760   0.8333387   1.1838120  )
        19           O   tau(  19) = (   0.6475520   0.5410968   1.1838120  )
        20           O   tau(  20) = (  -0.0149437   0.5730089   0.7439035  )

   Crystallographic axes

     site n.     atom                  positions (cryst. coord.)
         1           K   tau(   1) = (  0.0000000  0.0000000  0.0000000  )
         2           Mg  tau(   2) = (  0.8343670  0.1656330  0.5000000  )
         3           Mg  tau(   3) = (  0.1656330  0.8343670  0.5000000  )
         4           Mg  tau(   4) = (  0.5000000  0.5000000  0.5000000  )
         5           Si  tau(   5) = (  0.5921870  0.2581120  0.2296350  )
         6           Si  tau(   6) = (  0.4078130  0.7418880  0.7703650  )
         7           Si  tau(   7) = (  0.7418880  0.4078130  0.7703650  )
         8           Si  tau(   8) = (  0.2581120  0.5921870  0.2296350  )
         9           O   tau(   9) = (  0.4691250  0.4691250  0.1700630  )
        10           O   tau(  10) = (  0.5308750  0.5308750  0.8299370  )
        11           O   tau(  11) = (  0.8716490  0.8716490  0.4077820  )
        12           O   tau(  12) = (  0.1283510  0.1283510  0.5922180  )
        13           O   tau(  13) = (  0.4183250  0.9442100  0.1652430  )
        14           O   tau(  14) = (  0.5816750  0.0557900  0.8347570  )
        15           O   tau(  15) = (  0.0557900  0.5816750  0.8347570  )
        16           O   tau(  16) = (  0.9442100  0.4183250  0.1652430  )
        17           O   tau(  17) = (  0.5525080  0.2122000  0.3858990  )
        18           O   tau(  18) = (  0.4474920  0.7878000  0.6141010  )
        19           O   tau(  19) = (  0.7878000  0.4474920  0.6141010  )
        20           O   tau(  20) = (  0.2122000  0.5525080  0.3858990  )

     number of k points=    14
                       cart. coord. in units 2pi/alat
        k(    1) = (   0.0000000   0.0000000   0.0000000), wk =   0.0370370
        k(    2) = (   0.0000000   0.0000000   0.1729162), wk =   0.0740741
        k(    3) = (   0.0000000   0.3881579  -0.0514161), wk =   0.0740741
        k(    4) = (   0.0000000   0.3881579   0.1215001), wk =   0.0740741
        k(    5) = (   0.0000000   0.3881579  -0.2243324), wk =   0.0740741
        k(    6) = (   0.3333333   0.1988855  -0.0514161), wk =   0.0740741
        k(    7) = (   0.3333333   0.1988855   0.1215001), wk =   0.0740741
        k(    8) = (   0.3333333   0.1988855  -0.2243324), wk =   0.0740741
        k(    9) = (   0.3333333   0.5870435  -0.1028322), wk =   0.0740741
        k(   10) = (   0.3333333   0.5870435   0.0700840), wk =   0.0740741
        k(   11) = (   0.3333333   0.5870435  -0.2757485), wk =   0.0740741
        k(   12) = (   0.3333333  -0.1892724   0.0000000), wk =   0.0740741
        k(   13) = (   0.3333333  -0.1892724   0.1729162), wk =   0.0740741
        k(   14) = (   0.3333333  -0.1892724  -0.1729162), wk =   0.0740741

                       cryst. coord.
        k(    1) = (   0.0000000   0.0000000   0.0000000), wk =   0.0370370
        k(    2) = (   0.0000000   0.0000000   0.3333333), wk =   0.0740741
        k(    3) = (   0.0000000   0.3333333  -0.0000000), wk =   0.0740741
        k(    4) = (   0.0000000   0.3333333   0.3333333), wk =   0.0740741
        k(    5) = (   0.0000000   0.3333333  -0.3333333), wk =   0.0740741
        k(    6) = (   0.3333333   0.0000000   0.0000000), wk =   0.0740741
        k(    7) = (   0.3333333   0.0000000   0.3333333), wk =   0.0740741
        k(    8) = (   0.3333333   0.0000000  -0.3333333), wk =   0.0740741
        k(    9) = (   0.3333333   0.3333333   0.0000000), wk =   0.0740741
        k(   10) = (   0.3333333   0.3333333   0.3333333), wk =   0.0740741
        k(   11) = (   0.3333333   0.3333333  -0.3333333), wk =   0.0740741
        k(   12) = (   0.3333333  -0.3333333   0.0000000), wk =   0.0740741
        k(   13) = (   0.3333333  -0.3333333   0.3333333), wk =   0.0740741
        k(   14) = (   0.3333333  -0.3333333  -0.3333333), wk =   0.0740741

     Check: negative core charge=   -0.000008
     Generating pointlists ...
     new r_m :   0.2345 (alat units)  2.3574 (a.u.) for type    1
     new r_m :   0.1534 (alat units)  1.5417 (a.u.) for type    2
     new r_m :   0.1243 (alat units)  1.2493 (a.u.) for type    3
     new r_m :   0.1243 (alat units)  1.2493 (a.u.) for type    4

     Initial potential from superposition of free atoms

     starting charge     102.9761, renormalised to     103.0000
     Starting wfcs are   84 randomized atomic wfcs
     Checking if some PAW data can be deallocated...

     Self-consistent Calculation

     iteration #  1     ecut=    30.00 Ry     beta= 0.70
     Davidson diagonalization with overlap

     ethr =  1.00E-02,  avg # of iterations =  4.4

     total energy              =    -759.31760314 Ry
     estimated scf accuracy    <       3.82013477 Ry

     total magnetization       =     1.00 Bohr mag/cell
     absolute magnetization    =     1.00 Bohr mag/cell

[...]

     total energy              =    -760.90978712 Ry
     estimated scf accuracy    <       0.00000547 Ry

[...]

     iteration #  9     ecut=    30.00 Ry     beta= 0.70
     Davidson diagonalization with overlap

     ethr =  5.31E-09,  avg # of iterations =  2.3

     Magnetic moment per site  (integrated on atomic sphere of radius R)
     atom   1 (R=0.235)  charge=  7.7386  magn=  0.0001
     atom   2 (R=0.153)  charge=  0.2067  magn= -0.0001
     atom   3 (R=0.153)  charge=  0.2067  magn= -0.0001
     atom   4 (R=0.153)  charge=  0.1970  magn= -0.0007
     atom   5 (R=0.124)  charge=  0.5169  magn= -0.0000
     atom   6 (R=0.124)  charge=  0.5169  magn= -0.0000
     atom   7 (R=0.124)  charge=  0.5169  magn= -0.0000
     atom   8 (R=0.124)  charge=  0.5169  magn= -0.0000
     atom   9 (R=0.124)  charge=  4.5326  magn=  0.0012
     atom  10 (R=0.124)  charge=  4.5326  magn=  0.0012
     atom  11 (R=0.124)  charge=  4.3677  magn=  0.3555
     atom  12 (R=0.124)  charge=  4.3677  magn=  0.3555
     atom  13 (R=0.124)  charge=  4.5360  magn=  0.0004
     atom  14 (R=0.124)  charge=  4.5360  magn=  0.0004
     atom  15 (R=0.124)  charge=  4.5360  magn=  0.0004
     atom  16 (R=0.124)  charge=  4.5360  magn=  0.0004
     atom  17 (R=0.124)  charge=  4.5209  magn=  0.0035
     atom  18 (R=0.124)  charge=  4.5209  magn=  0.0035
     atom  19 (R=0.124)  charge=  4.5209  magn=  0.0035
     atom  20 (R=0.124)  charge=  4.5209  magn=  0.0035

     End of self-consistent calculation

 ------ SPIN UP ------------

          k = 0.0000 0.0000 0.0000 (  4667 PWs)   bands (ev):

   -24.4176 -16.2217 -16.1844 -14.5964 -14.5765 -14.5547 -14.5330 -13.9118
   -13.5539 -13.5407 -13.5161 -11.4072 -10.8294  -7.9117  -7.8999  -7.8995
    -5.7572  -5.6980  -2.2358  -2.1096  -2.0981  -1.9707  -1.9591  -1.1961
    -0.4604  -0.3259  -0.0894   0.1808   0.2058   0.2211   0.4075   0.9957
     1.0155   1.0332   1.1146   1.4065   1.5976   1.7376   1.8593   1.9682
     2.0693   2.1834   2.2938   2.5131   2.7158   2.7255   2.9426   4.0046
     4.0332   4.0477   4.2207   4.2917   8.3040   9.8237  10.9812  11.7344
    11.7511  11.8168  11.9821  12.0887  12.3764  12.7413  12.8329  12.9829

     occupation numbers
     1.0000   1.0000   1.0000   1.0000   1.0000   1.0000   1.0000   1.0000
     1.0000   1.0000   1.0000   1.0000   1.0000   1.0000   1.0000   1.0000
     1.0000   1.0000   1.0000   1.0000   1.0000   1.0000   1.0000   1.0000
     1.0000   1.0000   1.0000   1.0000   1.0000   1.0000   1.0000   1.0000
     1.0000   1.0000   1.0000   1.0000   1.0000   1.0000   1.0000   1.0000
     1.0000   1.0000   1.0000   1.0000   1.0000   1.0000   1.0000   1.0000
     1.0000   1.0000   1.0000   1.0000   0.0000   0.0000   0.0000   0.0000
     0.0000   0.0000   0.0000   0.0000   0.0000   0.0000   0.0000   0.0000

[...]

 ------ SPIN DOWN ----------

[...]

          k = 0.3333-0.1893-0.1729 (  4681 PWs)   bands (ev):

   -24.4167 -15.9520 -15.9291 -15.0424 -15.0238 -14.5633 -14.5391 -13.8019
   -13.5318 -13.5000 -13.4634 -10.7194 -10.0621  -7.9141  -7.9045  -7.8896
    -4.9704  -4.9329  -2.8638  -2.7565  -1.7592  -1.6380  -1.6247  -1.1708
    -0.8233  -0.7347  -0.1731  -0.0396   0.1314   0.2701   0.4937   0.6339
     0.7655   1.0204   1.0334   1.3327   1.7918   1.9151   2.0840   2.1262
     2.1861   2.2376   2.2530   2.2957   2.4502   2.6804   3.7089   3.8202
     4.1353   4.3600   4.4591   5.7905   9.8238  10.5386  11.3258  11.7205
    12.1268  12.3231  12.4520  12.5052  12.6476  12.8496  13.0848  13.1838

     occupation numbers
     1.0000   1.0000   1.0000   1.0000   1.0000   1.0000   1.0000   1.0000
     1.0000   1.0000   1.0000   1.0000   1.0000   1.0000   1.0000   1.0000
     1.0000   1.0000   1.0000   1.0000   1.0000   1.0000   1.0000   1.0000
     1.0000   1.0000   1.0000   1.0000   1.0000   1.0000   1.0000   1.0000
     1.0000   1.0000   1.0000   1.0000   1.0000   1.0000   1.0000   1.0000
     1.0000   1.0000   1.0000   1.0000   1.0000   1.0000   1.0000   1.0000
     1.0000   1.0000   1.0000   0.0000   0.0000   0.0000   0.0000   0.0000
     0.0000   0.0000   0.0000   0.0000   0.0000   0.0000   0.0000   0.0000

     highest occupied, lowest unoccupied level (ev):     4.5318    5.6905

!    total energy              =    -760.90978793 Ry
     estimated scf accuracy    <       0.00000036 Ry

     The total energy is the sum of the following terms:
     one-electron contribution =    -194.08668341 Ry
     hartree contribution      =     156.04374655 Ry
     xc contribution           =    -132.09015534 Ry
     ewald contribution        =    -327.33365028 Ry
     one-center paw contrib.   =    -263.44304545 Ry
      -> PAW hartree energy AE =      39.82108628 Ry
      -> PAW hartree energy PS =     -39.60796161 Ry
      -> PAW xc energy AE      =    -131.72293146 Ry
      -> PAW xc energy PS      =      13.50283721 Ry
      -> total E_H with PAW    =     156.25687122 Ry
      -> total E_XC with PAW   =    -250.31024959 Ry

     total magnetization       =     1.00 Bohr mag/cell
     absolute magnetization    =     1.08 Bohr mag/cell

     convergence has been achieved in   9 iterations

     Writing all to output data dir bands_nm/myprefix.save/

     General routines

     Parallel routines

     PAW routines

   This run was terminated on:  14:23:24  15Jul2023

   JOB DONE.