     Program PWSCF v.7.1 starts on  9Jul2023 at 19:31:35

     Reading input from espresso_20302.pwi
Warning: card &CELL ignored
Warning: card / ignored

     Current dimensions of program PWSCF are:
     Max number of different atomic species (ntypx) = 10
     Max number of k-points (npk) =  40000
     Max angular momentum in pseudopotentials (lmaxx) =  4
     file O.pbe-n-kjpaw_psl.0.1.UPF: wavefunction(s)  2P renormalized
     Message from routine setup:
     using ibrav=0 with symmetry is DISCOURAGED, use correct ibrav instead

     K-points division:     npool     =       2
     R & G space division:  proc/nbgrp/npool/nimage =       4
     Subspace diagonalization in iterative solution of the eigenvalue problem:
     a serial algorithm will be used

     Using Slab Decomposition

     bravais-lattice index     =            0
     lattice parameter (alat)  =      10.9354  a.u.
     unit-cell volume          =     788.8962 (a.u.)^3
     number of atoms/cell      =           10
     number of atomic types    =            3
     number of electrons       =        96.00
     number of Kohn-Sham states=           64
     kinetic-energy cutoff     =      30.0000  Ry
     charge density cutoff     =     240.0000  Ry
     scf convergence threshold =      1.0E-06
     mixing beta               =       0.7000
     number of iterations used =            8  plain     mixing
     Exchange-correlation= SLA  PW   PBX  PBC
                           (   1   4   3   4   0   0   0)

     celldm(1)=  10.935370  celldm(2)=   0.000000  celldm(3)=   0.000000
     celldm(4)=   0.000000  celldm(5)=   0.000000  celldm(6)=   0.000000

     crystal axes: (cart. coord. in units of alat)
               a(1) = (   1.000000   0.000000   0.000000 )
               a(2) = (   0.591731   0.806136   0.000000 )
               a(3) = (   0.591731   0.299683   0.748361 )

     reciprocal axes: (cart. coord. in units 2 pi/alat)
               b(1) = (  1.000000 -0.734034 -0.496756 )
               b(2) = (  0.000000  1.240486 -0.496756 )
               b(3) = (  0.000000  0.000000  1.336253 )

     PseudoPot. # 1 for Tl read from file:
     /home/pragov/projects/rrg-bengioy-ad/pragov/crystal_structure_design/SSSP/Tl_pbe_v1.2.uspp.F.UPF
     MD5 check sum: b76cf1f7e72655a2b2c53cf6385d7059
     Pseudo is Ultrasoft + core correction, Zval = 13.0
     Generated by new atomic code, or converted to UPF format
     Using radial grid of  899 points,  6 beta functions with:
                l(1) =   0
                l(2) =   0
                l(3) =   1
                l(4) =   1
                l(5) =   2
                l(6) =   2
     Q(r) pseudized with  6 coefficients,  rinner =    1.100   1.100   1.100
                                                       1.100   1.100

     PseudoPot. # 2 for Co read from file:
     /home/pragov/projects/rrg-bengioy-ad/pragov/crystal_structure_design/SSSP/Co_pbe_v1.2.uspp.F.UPF
     MD5 check sum: 5f91765df6ddd3222702df6e7b74a16d
     Pseudo is Ultrasoft + core correction, Zval = 17.0
     Generated by new atomic code, or converted to UPF format
     Using radial grid of  863 points,  6 beta functions with:
                l(1) =   0
                l(2) =   0
                l(3) =   1
                l(4) =   1
                l(5) =   2
                l(6) =   2
     Q(r) pseudized with  8 coefficients,  rinner =    1.200   1.200   1.200
                                                       1.200   1.200

     PseudoPot. # 3 for O  read from file:
     /home/pragov/projects/rrg-bengioy-ad/pragov/crystal_structure_design/SSSP/O.pbe-n-kjpaw_psl.0.1.UPF
     MD5 check sum: 0234752ac141de4415c5fc33072bef88
     Pseudo is Projector augmented-wave + core cor, Zval =  6.0
     Generated using "atomic" code by A. Dal Corso  v.5.0.99 svn rev. 10869
     Shape of augmentation charge: BESSEL
     Using radial grid of 1095 points,  4 beta functions with:
                l(1) =   0
                l(2) =   0
                l(3) =   1
                l(4) =   1
     Q(r) pseudized with 0 coefficients

     atomic species   valence    mass     pseudopotential
        Tl            13.00   204.38000     Tl( 1.00)
        Co            17.00    58.93319     Co( 1.00)
        O              6.00    15.99900     O ( 1.00)

      2 Sym. Ops., with inversion, found

                                    s                        frac. trans.

      isym =  1     identity

 cryst.   s( 1) = (     1          0          0      )
                  (     0          1          0      )
                  (     0          0          1      )

 cart.    s( 1) = (  1.0000000  0.0000000  0.0000000 )
                  (  0.0000000  1.0000000  0.0000000 )
                  (  0.0000000  0.0000000  1.0000000 )

      isym =  2     inversion

 cryst.   s( 2) = (    -1          0          0      )
                  (     0         -1          0      )
                  (     0          0         -1      )

 cart.    s( 2) = ( -1.0000000  0.0000000 -0.0000000 )
                  (  0.0000000 -1.0000000  0.0000000 )
                  (  0.0000000  0.0000000 -1.0000000 )

   Cartesian axes

     site n.     atom                  positions (alat units)
         1           Tl  tau(   1) = (   1.9069260   0.9657671   0.6535812  )
         2           Tl  tau(   2) = (   0.2765354   0.1400520   0.0947799  )
         3           Co  tau(   3) = (   1.4428335   0.7307263   0.4945178  )
         4           Co  tau(   4) = (   0.7406279   0.3750927   0.2538434  )
         5           O   tau(   5) = (   1.1820251   0.7100026   0.7066692  )
         6           O   tau(   6) = (   1.4410605   0.4084986   0.3964114  )
         7           O   tau(   7) = (   1.2717991   0.8540721   0.2318550  )
         8           O   tau(   8) = (   0.9116624   0.2517470   0.5165062  )
         9           O   tau(   9) = (   0.7424009   0.6973204   0.3519498  )
        10           O   tau(  10) = (   1.0014363   0.3958164   0.0416919  )

   Crystallographic axes

     site n.     atom                  positions (cryst. coord.)
         1           Tl  tau(   1) = (  0.8733500  0.8733500  0.8733500  )
         2           Tl  tau(   2) = (  0.1266500  0.1266500  0.1266500  )
         3           Co  tau(   3) = (  0.6608010  0.6608010  0.6608010  )
         4           Co  tau(   4) = (  0.3391990  0.3391990  0.3391990  )
         5           O   tau(   5) = (  0.3098170  0.5297060  0.9442890  )
         6           O   tau(   6) = (  0.9442890  0.3098170  0.5297060  )
         7           O   tau(   7) = (  0.5297060  0.9442890  0.3098170  )
         8           O   tau(   8) = (  0.4702940  0.0557110  0.6901830  )
         9           O   tau(   9) = (  0.0557110  0.6901830  0.4702940  )
        10           O   tau(  10) = (  0.6901830  0.4702940  0.0557110  )

     number of k points=    14
                       cart. coord. in units 2pi/alat
        k(    1) = (   0.0000000   0.0000000   0.0000000), wk =   0.0740741
        k(    2) = (   0.0000000   0.0000000   0.4454177), wk =   0.1481481
        k(    3) = (   0.0000000   0.4134953  -0.1655854), wk =   0.1481481
        k(    4) = (   0.0000000   0.4134953   0.2798324), wk =   0.1481481
        k(    5) = (   0.0000000   0.4134953  -0.6110031), wk =   0.1481481
        k(    6) = (   0.3333333  -0.2446779  -0.1655854), wk =   0.1481481
        k(    7) = (   0.3333333  -0.2446779   0.2798324), wk =   0.1481481
        k(    8) = (   0.3333333  -0.2446779  -0.6110031), wk =   0.1481481
        k(    9) = (   0.3333333   0.1688174  -0.3311708), wk =   0.1481481
        k(   10) = (   0.3333333   0.1688174   0.1142470), wk =   0.1481481
        k(   11) = (   0.3333333   0.1688174  -0.7765885), wk =   0.1481481
        k(   12) = (   0.3333333  -0.6581732  -0.0000000), wk =   0.1481481
        k(   13) = (   0.3333333  -0.6581732   0.4454177), wk =   0.1481481
        k(   14) = (   0.3333333  -0.6581732  -0.4454177), wk =   0.1481481

                       cryst. coord.
        k(    1) = (   0.0000000   0.0000000   0.0000000), wk =   0.0740741
        k(    2) = (   0.0000000   0.0000000   0.3333333), wk =   0.1481481
        k(    3) = (   0.0000000   0.3333333   0.0000000), wk =   0.1481481
        k(    4) = (   0.0000000   0.3333333   0.3333333), wk =   0.1481481
        k(    5) = (   0.0000000   0.3333333  -0.3333333), wk =   0.1481481
        k(    6) = (   0.3333333   0.0000000  -0.0000000), wk =   0.1481481
        k(    7) = (   0.3333333   0.0000000   0.3333333), wk =   0.1481481
        k(    8) = (   0.3333333   0.0000000  -0.3333333), wk =   0.1481481
        k(    9) = (   0.3333333   0.3333333  -0.0000000), wk =   0.1481481
        k(   10) = (   0.3333333   0.3333333   0.3333333), wk =   0.1481481
        k(   11) = (   0.3333333   0.3333333  -0.3333333), wk =   0.1481481
        k(   12) = (   0.3333333  -0.3333333   0.0000000), wk =   0.1481481
        k(   13) = (   0.3333333  -0.3333333   0.3333333), wk =   0.1481481
        k(   14) = (   0.3333333  -0.3333333  -0.3333333), wk =   0.1481481

     Check: negative core charge=   -0.000018

     Initial potential from superposition of free atoms

     starting charge      93.9902, renormalised to      96.0000

     negative rho (up, down):  1.014E-01 0.000E+00
     Starting wfcs are   68 randomized atomic wfcs
     Checking if some PAW data can be deallocated...

     Self-consistent Calculation

     iteration #  1     ecut=    30.00 Ry     beta= 0.70
     Davidson diagonalization with overlap

     ethr =  1.00E-02,  avg # of iterations =  3.3

     negative rho (up, down):  1.028E-01 0.000E+00

     total energy              =   -1129.66448326 Ry
     estimated scf accuracy    <       9.19040534 Ry

[...]

     total energy              =   -1136.15772061 Ry
     estimated scf accuracy    <       0.00002837 Ry

     iteration # 12     ecut=    30.00 Ry     beta= 0.70
     Davidson diagonalization with overlap

     ethr =  2.95E-08,  avg # of iterations =  1.0

     negative rho (up, down):  1.135E-01 0.000E+00

     End of self-consistent calculation

          k = 0.0000 0.0000 0.0000 (  2213 PWs)   bands (ev):

   -84.5414 -84.5400 -47.7808 -47.7808 -47.7742 -47.7668 -47.7568 -47.7568
    -8.8223  -7.4711  -7.4709  -7.4314  -7.2363  -7.2362  -0.1315  -0.1314
    -0.0622   0.0260   0.0260   0.2120   0.2120   0.2485   0.3840   0.3840
     3.0229   4.3579   5.0715   5.0715   5.8707   5.8707   5.9668   6.3317
     6.3317   6.4217   6.5805   7.3412   7.3413   8.6855   8.6856   8.7630
     8.7630   8.9814   9.8340   9.9116  10.2614  10.2615  10.5070  10.5071
    10.7513  12.1753  12.1753  12.4828  12.8710  12.8711  17.2717  18.0336
    18.0336  18.3506  19.8644  20.0182  20.0183  23.1675  23.2028  23.9074

     occupation numbers
     1.0000   1.0000   1.0000   1.0000   1.0000   1.0000   1.0000   1.0000
     1.0000   1.0000   1.0000   1.0000   1.0000   1.0000   1.0000   1.0000
     1.0000   1.0000   1.0000   1.0000   1.0000   1.0000   1.0000   1.0000
     1.0000   1.0000   1.0000   1.0000   1.0000   1.0000   1.0000   1.0000
     1.0000   1.0000   1.0000   1.0000   1.0000   1.0000   1.0000   1.0000
     1.0000   1.0000   1.0000   1.0000   1.0000   1.0000   1.0000   1.0000
     0.0000   0.0000   0.0000   0.0000   0.0000   0.0000   0.0000   0.0000
     0.0000   0.0000   0.0000   0.0000   0.0000   0.0000   0.0000   0.0000

[...]

          k = 0.3333-0.6582-0.4454 (  2194 PWs)   bands (ev):

   -84.5407 -84.5398 -47.7771 -47.7713 -47.7694 -47.7676 -47.7593 -47.7559
    -8.3391  -7.8684  -7.5754  -7.5072  -7.2556  -7.1776  -0.2841  -0.1730
    -0.0401   0.0029   0.0307   0.0941   0.1825   0.2312   0.3042   0.3693
     3.7984   3.9741   5.0608   5.4482   5.7145   5.8391   6.0964   6.3093
     6.4199   7.1659   7.1947   7.3686   7.5669   7.7698   8.0933   8.2509
     8.3396   8.7171   9.9010  10.0261  10.1431  10.2155  10.5627  10.7951
    11.5666  11.8420  12.2035  12.7033  13.2812  13.3813  15.9047  17.4402
    18.0319  19.6068  19.9651  20.7213  21.4949  21.7105  22.9078  23.1856

     occupation numbers
     1.0000   1.0000   1.0000   1.0000   1.0000   1.0000   1.0000   1.0000
     1.0000   1.0000   1.0000   1.0000   1.0000   1.0000   1.0000   1.0000
     1.0000   1.0000   1.0000   1.0000   1.0000   1.0000   1.0000   1.0000
     1.0000   1.0000   1.0000   1.0000   1.0000   1.0000   1.0000   1.0000
     1.0000   1.0000   1.0000   1.0000   1.0000   1.0000   1.0000   1.0000
     1.0000   1.0000   1.0000   1.0000   1.0000   1.0000   1.0000   1.0000
     0.0000   0.0000   0.0000   0.0000   0.0000   0.0000   0.0000   0.0000
     0.0000   0.0000   0.0000   0.0000   0.0000   0.0000   0.0000   0.0000

     highest occupied, lowest unoccupied level (ev):    10.8405   10.7513

!    total energy              =   -1136.15772324 Ry
     estimated scf accuracy    <       0.00000010 Ry

     The total energy is the sum of the following terms:
     one-electron contribution =    -548.60113493 Ry
     hartree contribution      =     340.68921227 Ry
     xc contribution           =    -233.72662151 Ry
     ewald contribution        =    -637.31834128 Ry
     one-center paw contrib.   =     -57.20083780 Ry
      -> PAW hartree energy AE =       0.00000000 Ry
      -> PAW hartree energy PS =       0.00000000 Ry
      -> PAW xc energy AE      =       0.00000000 Ry
      -> PAW xc energy PS      =       0.00000000 Ry
      -> total E_H with PAW    =     340.68921227 Ry
      -> total E_XC with PAW   =    -233.72662151 Ry

     convergence has been achieved in  12 iterations

     Writing all to output data dir bands_nm/myprefix.save/

     General routines

     Parallel routines

     PAW routines

   This run was terminated on:  19:31:45   9Jul2023

   JOB DONE.