     Program PWSCF v.7.1 starts on 12Jul2023 at 17:37:14

     Reading input from espresso_23073.pwi
Warning: card &CELL ignored
Warning: card / ignored

     Current dimensions of program PWSCF are:
     Max number of different atomic species (ntypx) = 10
     Max number of k-points (npk) =  40000
     Max angular momentum in pseudopotentials (lmaxx) =  4
     file K.pbe-spn-kjpaw_psl.1.0.0.UPF: wavefunction(s)  3S renormalized
     Message from routine setup:
     using ibrav=0 with symmetry is DISCOURAGED, use correct ibrav instead

     K-points division:     npool     =       2
     R & G space division:  proc/nbgrp/npool/nimage =       8
     Subspace diagonalization in iterative solution of the eigenvalue problem:
     a serial algorithm will be used

     Using Slab Decomposition

     bravais-lattice index     =            0
     lattice parameter (alat)  =      13.9662  a.u.
     unit-cell volume          =    1758.2498 (a.u.)^3
     number of atoms/cell      =           12
     number of atomic types    =            4
     number of electrons       =       116.00
     number of Kohn-Sham states=           64
     kinetic-energy cutoff     =      30.0000  Ry
     charge density cutoff     =     240.0000  Ry
     scf convergence threshold =      1.0E-06
     mixing beta               =       0.7000
     number of iterations used =            8  plain     mixing
     Exchange-correlation=  SLA  PW   PBX  PBC
                           (   1   4   3   4   0   0   0)

     celldm(1)=  13.966160  celldm(2)=   0.000000  celldm(3)=   0.000000
     celldm(4)=   0.000000  celldm(5)=   0.000000  celldm(6)=   0.000000

     crystal axes: (cart. coord. in units of alat)
               a(1) = (   1.000000   0.000000   0.000000 )
               a(2) = (  -0.872486   0.488639   0.000000 )
               a(3) = (   0.000000   0.000000   1.320873 )

     reciprocal axes: (cart. coord. in units 2 pi/alat)
               b(1) = (  1.000000  1.785541  0.000000 )
               b(2) = (  0.000000  2.046499  0.000000 )
               b(3) = (  0.000000  0.000000  0.757075 )

     PseudoPot. # 1 for K  read from file:
     /lustre07/scratch/pragov/crystal_structure_design/utils/SSSP/K.pbe-spn-kjpaw_psl.1.0.0.UPF
     MD5 check sum: 7d58810084cac21f60fbe77ea2b688fd
     Pseudo is Projector augmented-wave + core cor, Zval =  9.0
     Generated using "atomic" code by A. Dal Corso  v.5.1
     Shape of augmentation charge: PSQ
     Using radial grid of 1165 points,  6 beta functions with:
                l(1) =   0
                l(2) =   0
                l(3) =   1
                l(4) =   1
                l(5) =   2
                l(6) =   2
     Q(r) pseudized with 0 coefficients

     PseudoPot. # 2 for Hf read from file:
     /lustre07/scratch/pragov/crystal_structure_design/utils/SSSP/Hf-sp.oncvpsp.upf
     MD5 check sum: 417ed15784afe83d2e06dacf143de3f8
     Pseudo is Norm-conserving + core correction, Zval = 12.0
     Generated using ONCVPSP code by D. R. Hamann
     Using radial grid of 1656 points,  8 beta functions with:
                l(1) =   0
                l(2) =   0
                l(3) =   1
                l(4) =   1
                l(5) =   2
                l(6) =   2
                l(7) =   3
                l(8) =   3

     PseudoPot. # 3 for Cu read from file:
     /lustre07/scratch/pragov/crystal_structure_design/utils/SSSP/Cu_pbe_v1.2.uspp.F.UPF
     MD5 check sum: 6e991ff952a84172a2a52a1c1e996048
     Pseudo is Ultrasoft + core correction, Zval = 19.0
     Generated by new atomic code, or converted to UPF format
     Using radial grid of  867 points,  6 beta functions with:
                l(1) =   0
                l(2) =   0
                l(3) =   1
                l(4) =   1
                l(5) =   2
                l(6) =   2
     Q(r) pseudized with  8 coefficients,  rinner =    1.150   1.150   1.150
                                                       1.150   1.150

     PseudoPot. # 4 for S  read from file:
     /lustre07/scratch/pragov/crystal_structure_design/utils/SSSP/s_pbe_v1.4.uspp.F.UPF
     MD5 check sum: 88d86576ff6df21479756cfb9bdac1df
     Pseudo is Ultrasoft + core correction, Zval =  6.0
     Generated by new atomic code, or converted to UPF format
     Using radial grid of  907 points,  6 beta functions with:
                l(1) =   0
                l(2) =   0
                l(3) =   1
                l(4) =   1
                l(5) =   2
                l(6) =   2
     Q(r) pseudized with  8 coefficients,  rinner =    1.300   1.300   1.300
                                                       1.300   1.300

     atomic species   valence    mass     pseudopotential
        K              9.00    39.09830     K ( 1.00)
        Hf            12.00   178.49000     Hf( 1.00)
        Cu            19.00    63.54600     Cu( 1.00)
        S              6.00    32.06000     S ( 1.00)

      4 Sym. Ops., with inversion, found ( 2 have fractional translation)

                                    s                        frac. trans.

      isym =  1     identity

 cryst.   s( 1) = (     1          0          0      )
                  (     0          1          0      )
                  (     0          0          1      )

 cart.    s( 1) = (  1.0000000  0.0000000  0.0000000 )
                  (  0.0000000  1.0000000  0.0000000 )
                  (  0.0000000  0.0000000  1.0000000 )

      isym =  2     180 deg rotation - cart. axis [0,0,1]

 cryst.   s( 2) = (    -1          0          0      )    f =(  0.0000000 )
                  (     0         -1          0      )       ( -0.0000000 )
                  (     0          0          1      )       ( -0.5000000 )

 cart.    s( 2) = ( -1.0000000  0.0000000  0.0000000 )    f =(  0.0000000 )
                  (  0.0000000 -1.0000000  0.0000000 )       ( -0.0000000 )
                  (  0.0000000  0.0000000  1.0000000 )       ( -0.6604365 )

      isym =  3     inversion

 cryst.   s( 3) = (    -1          0          0      )
                  (     0         -1          0      )
                  (     0          0         -1      )

 cart.    s( 3) = ( -1.0000000  0.0000000  0.0000000 )
                  (  0.0000000 -1.0000000  0.0000000 )
                  (  0.0000000  0.0000000 -1.0000000 )

      isym =  4     inv. 180 deg rotation - cart. axis [0,0,1]

 cryst.   s( 4) = (     1          0          0      )    f =(  0.0000000 )
                  (     0          1          0      )       (  0.0000000 )
                  (     0          0         -1      )       (  0.5000000 )

 cart.    s( 4) = (  1.0000000  0.0000000  0.0000000 )    f =(  0.0000000 )
                  (  0.0000000  1.0000000  0.0000000 )       (  0.0000000 )
                  (  0.0000000  0.0000000 -1.0000000 )       (  0.6604365 )

   Cartesian axes

     site n.     atom                  positions (alat units)
         1           K   tau(   1) = (   0.5231116   0.1244477   0.3302182  )
         2           K   tau(   2) = (  -0.3955974   0.3641917   0.9906547  )
         3           Hf  tau(   3) = (   0.0000000   0.0000000   0.0000000  )
         4           Hf  tau(   4) = (   0.0000000   0.0000000   0.6604365  )
         5           Cu  tau(   5) = (  -0.0009411   0.2612032   0.3302182  )
         6           Cu  tau(   6) = (   0.1284552   0.2274362   0.9906547  )
         7           S   tau(   7) = (   0.2872869   0.1859879   0.7280467  )
         8           S   tau(   8) = (  -0.1597728   0.3026515   0.5928263  )
         9           S   tau(   9) = (  -0.1597728   0.3026515   0.0676102  )
        10           S   tau(  10) = (   0.8818312   0.0308371   0.9906547  )
        11           S   tau(  11) = (  -0.7543170   0.4578023   0.3302182  )
        12           S   tau(  12) = (   0.2872869   0.1859879   1.2532628  )

   Crystallographic axes

     site n.     atom                  positions (cryst. coord.)
         1           K   tau(   1) = (  0.7453180  0.2546820  0.2500000  )
         2           K   tau(   2) = (  0.2546820  0.7453180  0.7500000  )
         3           Hf  tau(   3) = (  0.0000000  0.0000000  0.0000000  )
         4           Hf  tau(   4) = (  0.0000000  0.0000000  0.5000000  )
         5           Cu  tau(   5) = (  0.4654480  0.5345520  0.2500000  )
         6           Cu  tau(   6) = (  0.5345520  0.4654480  0.7500000  )
         7           S   tau(   7) = (  0.6193760  0.3806240  0.5511860  )
         8           S   tau(   8) = (  0.3806240  0.6193760  0.4488140  )
         9           S   tau(   9) = (  0.3806240  0.6193760  0.0511860  )
        10           S   tau(  10) = (  0.9368920  0.0631080  0.7500000  )
        11           S   tau(  11) = (  0.0631080  0.9368920  0.2500000  )
        12           S   tau(  12) = (  0.6193760  0.3806240  0.9488140  )

     number of k points=    10
                       cart. coord. in units 2pi/alat
        k(    1) = (   0.0000000   0.0000000   0.0000000), wk =   0.0740741
        k(    2) = (   0.0000000   0.0000000   0.2523584), wk =   0.1481481
        k(    3) = (   0.0000000   0.6821663   0.0000000), wk =   0.1481481
        k(    4) = (   0.0000000   0.6821663   0.2523584), wk =   0.2962963
        k(    5) = (   0.3333333   0.5951804   0.0000000), wk =   0.1481481
        k(    6) = (   0.3333333   0.5951804   0.2523584), wk =   0.2962963
        k(    7) = (   0.3333333   1.2773468   0.0000000), wk =   0.1481481
        k(    8) = (   0.3333333   1.2773468   0.2523584), wk =   0.2962963
        k(    9) = (   0.3333333  -0.0869859   0.0000000), wk =   0.1481481
        k(   10) = (   0.3333333  -0.0869859   0.2523584), wk =   0.2962963

                       cryst. coord.
        k(    1) = (   0.0000000   0.0000000   0.0000000), wk =   0.0740741
        k(    2) = (   0.0000000   0.0000000   0.3333333), wk =   0.1481481
        k(    3) = (   0.0000000   0.3333333   0.0000000), wk =   0.1481481
        k(    4) = (   0.0000000   0.3333333   0.3333333), wk =   0.2962963
        k(    5) = (   0.3333333   0.0000000   0.0000000), wk =   0.1481481
        k(    6) = (   0.3333333   0.0000000   0.3333333), wk =   0.2962963
        k(    7) = (   0.3333333   0.3333333   0.0000000), wk =   0.1481481
        k(    8) = (   0.3333333   0.3333333   0.3333333), wk =   0.2962963
        k(    9) = (   0.3333333  -0.3333333   0.0000000), wk =   0.1481481
        k(   10) = (   0.3333333  -0.3333333   0.3333333), wk =   0.2962963

     Check: negative core charge=   -0.000002

     Initial potential from superposition of free atoms

     starting charge     113.9584, renormalised to     116.0000
     Starting wfcs are   86 randomized atomic wfcs
     Checking if some PAW data can be deallocated...

     Self-consistent Calculation

     iteration #  1     ecut=    30.00 Ry     beta= 0.70
     Davidson diagonalization with overlap

     ethr =  1.00E-02,  avg # of iterations =  2.1

     total energy              =   -1403.23914023 Ry
     estimated scf accuracy    <       2.59643916 Ry

[...]

     total energy              =   -1404.65282187 Ry
     estimated scf accuracy    <       0.00000297 Ry

     iteration # 16     ecut=    30.00 Ry     beta= 0.70
     Davidson diagonalization with overlap

     ethr =  2.56E-09,  avg # of iterations =  3.3

     End of self-consistent calculation

          k = 0.0000 0.0000 0.0000 (  4861 PWs)   bands (ev):

  -104.4017-104.4004 -61.8524 -61.8502 -61.7503 -61.7480 -61.7456 -61.7430
   -54.9400 -54.9334 -23.6829 -23.6733 -23.6085 -23.5999 -23.5504 -23.5479
   -22.2974 -22.2966  -5.9685  -5.9672  -5.9568  -5.8160  -5.7926  -5.7030
    -5.7010  -5.0005  -4.9504  -4.6250  -4.3815  -4.3382   2.3403   2.3828
     3.0386   3.5283   3.5883   3.6908   3.8287   3.9647   4.1777   4.1824
     4.4008   4.4785   4.5115   4.7562   4.8965   5.0055   5.7205   5.7394
     5.8276   6.1490   6.2619   6.4545   6.8217   6.8798   6.9848   7.2424
     7.5386   7.8834   8.6336   8.7699   9.7479  10.0931  10.3006  10.8079

     occupation numbers
     1.0000   1.0000   1.0000   1.0000   1.0000   1.0000   1.0000   1.0000
     1.0000   1.0000   1.0000   1.0000   1.0000   1.0000   1.0000   1.0000
     1.0000   1.0000   1.0000   1.0000   1.0000   1.0000   1.0000   1.0000
     1.0000   1.0000   1.0000   1.0000   1.0000   1.0000   1.0000   1.0000
     1.0000   1.0000   1.0000   1.0000   1.0000   1.0000   1.0000   1.0000
     1.0000   1.0000   1.0000   1.0000   1.0000   1.0000   1.0000   1.0000
     1.0000   1.0000   1.0000   1.0000   1.0000   1.0000   1.0000   1.0000
     1.0000   1.0000   0.0000   0.0000   0.0000   0.0000   0.0000   0.0000

[...]

          k = 0.3333-0.0870 0.2524 (  4881 PWs)   bands (ev):

  -104.4017-104.4014 -61.8528 -61.8523 -61.7491 -61.7483 -61.7464 -61.7459
   -54.9417 -54.9407 -23.6819 -23.6778 -23.6086 -23.6042 -23.5489 -23.5478
   -22.2972 -22.2968  -6.1502  -6.0145  -5.8856  -5.8287  -5.7025  -5.7012
    -5.4164  -5.2413  -4.7787  -4.6937  -4.4665  -4.3491   2.5297   2.6620
     2.9153   3.1035   3.4917   3.6368   4.0010   4.1068   4.1315   4.2657
     4.4140   4.4679   4.6268   4.7700   4.9844   5.1647   5.3846   5.4553
     6.1077   6.1192   6.2500   6.4766   6.5560   6.8566   6.9882   7.1608
     7.3000   7.6726   8.7081   8.7586  10.0057  10.2971  10.3516  10.5212

     occupation numbers
     1.0000   1.0000   1.0000   1.0000   1.0000   1.0000   1.0000   1.0000
     1.0000   1.0000   1.0000   1.0000   1.0000   1.0000   1.0000   1.0000
     1.0000   1.0000   1.0000   1.0000   1.0000   1.0000   1.0000   1.0000
     1.0000   1.0000   1.0000   1.0000   1.0000   1.0000   1.0000   1.0000
     1.0000   1.0000   1.0000   1.0000   1.0000   1.0000   1.0000   1.0000
     1.0000   1.0000   1.0000   1.0000   1.0000   1.0000   1.0000   1.0000
     1.0000   1.0000   1.0000   1.0000   1.0000   1.0000   1.0000   1.0000
     1.0000   1.0000   0.0000   0.0000   0.0000   0.0000   0.0000   0.0000

     highest occupied, lowest unoccupied level (ev):     7.8834    8.6336

!    total energy              =   -1404.65282137 Ry
     estimated scf accuracy    <       0.00000082 Ry

     The total energy is the sum of the following terms:
     one-electron contribution =   -1120.25440356 Ry
     hartree contribution      =     601.33085892 Ry
     xc contribution           =    -208.21213800 Ry
     ewald contribution        =    -566.68331045 Ry
     one-center paw contrib.   =    -110.83382828 Ry
      -> PAW hartree energy AE =      37.72592139 Ry
      -> PAW hartree energy PS =     -37.51577169 Ry
      -> PAW xc energy AE      =     -66.22057734 Ry
      -> PAW xc energy PS      =      10.59351350 Ry
      -> total E_H with PAW    =     601.54100862 Ry
      -> total E_XC with PAW   =    -263.83920183 Ry

     convergence has been achieved in  16 iterations

     Writing all to output data dir bands_nm/myprefix.save/

     General routines

     Parallel routines

     PAW routines

   This run was terminated on:  17:38: 6  12Jul2023

   JOB DONE.