     Program PWSCF v.7.1 starts on 15Jul2023 at 20:23:39

     Reading input from espresso_21223.pwi
Warning: card &CELL ignored
Warning: card / ignored

     Current dimensions of program PWSCF are:
     Max number of different atomic species (ntypx) = 10
     Max number of k-points (npk) =  40000
     Max angular momentum in pseudopotentials (lmaxx) =  4
     file Gd.paw.z_18.atompaw.wentzcovitch.v1.2.upf: wavefunction(s)  6S 0P 5D 0D 4F 0F renormalized
     file Nb.pbe-spn-kjpaw_psl.0.3.0.UPF: wavefunction(s)  4S 4P renormalized
     file O.pbe-n-kjpaw_psl.0.1.UPF: wavefunction(s)  2P renormalized
     Message from routine setup:
     using ibrav=0 with symmetry is DISCOURAGED, use correct ibrav instead

     K-points division:     npool     =       2
     R & G space division:  proc/nbgrp/npool/nimage =       4
     Subspace diagonalization in iterative solution of the eigenvalue problem:
     one sub-group per band group will be used

     Using Slab Decomposition

     bravais-lattice index     =            0
     lattice parameter (alat)  =      11.0012  a.u.
     unit-cell volume          =    1951.1951 (a.u.)^3
     number of atoms/cell      =           20
     number of atomic types    =            5
     number of electrons       =       174.00
     number of Kohn-Sham states=          256
     kinetic-energy cutoff     =      30.0000  Ry
     charge density cutoff     =     240.0000  Ry
     scf convergence threshold =      1.0E-06
     mixing beta               =       0.7000
     number of iterations used =            8  plain     mixing
     Exchange-correlation= SLA  PW   PBX  PBC
                           (   1   4   3   4   0   0   0)

     celldm(1)=  11.001235  celldm(2)=   0.000000  celldm(3)=   0.000000
     celldm(4)=   0.000000  celldm(5)=   0.000000  celldm(6)=   0.000000

     crystal axes: (cart. coord. in units of alat)
               a(1) = (   1.000000   0.000000   0.000000 )
               a(2) = (   0.000000   1.000000   0.000000 )
               a(3) = (   0.000000   0.000000   1.465468 )

     reciprocal axes: (cart. coord. in units 2 pi/alat)
               b(1) = (  1.000000  0.000000  0.000000 )
               b(2) = (  0.000000  1.000000  0.000000 )
               b(3) = (  0.000000  0.000000  0.682376 )

     PseudoPot. # 1 for Sr read from file:
     /lustre07/scratch/pragov/crystal_structure_design/utils/SSSP/Sr_pbe_v1.uspp.F.UPF
     MD5 check sum: 6b418c05fbe9db5448babca5e47b7a5b
     Pseudo is Ultrasoft + core correction, Zval = 10.0
     Generated by new atomic code, or converted to UPF format
     Using radial grid of  883 points,  6 beta functions with:
                l(1) =   0
                l(2) =   0
                l(3) =   1
                l(4) =   1
                l(5) =   2
                l(6) =   2
     Q(r) pseudized with  6 coefficients,  rinner =    1.400   1.400   1.400
                                                       1.400   1.400

     PseudoPot. # 2 for Ca read from file:
     /lustre07/scratch/pragov/crystal_structure_design/utils/SSSP/Ca_pbe_v1.uspp.F.UPF
     MD5 check sum: 403a4c14b9e4d4dfdc3024c9a3812218
     Pseudo is Ultrasoft + core correction, Zval = 10.0
     Generated by new atomic code, or converted to UPF format
     Using radial grid of  845 points,  6 beta functions with:
                l(1) =   0
                l(2) =   0
                l(3) =   1
                l(4) =   1
                l(5) =   2
                l(6) =   2
     Q(r) pseudized with  8 coefficients,  rinner =    1.500   1.500   1.500
                                                       1.500   1.500

     PseudoPot. # 3 for Gd read from file:
     /lustre07/scratch/pragov/crystal_structure_design/utils/SSSP/Gd.paw.z_18.atompaw.wentzcovitch.v1.2.upf
     MD5 check sum: a44f32af2ba180e1a67c5cef9ff7f39b
     Pseudo is Projector augmented-wave + core cor, Zval = 18.0
     Generated using ATOMPAW code
     Shape of augmentation charge: BESSEL
     Using radial grid of 1110 points,  8 beta functions with:
                l(1) =   0
                l(2) =   0
                l(3) =   1
                l(4) =   1
                l(5) =   2
                l(6) =   2
                l(7) =   3
                l(8) =   3
     Q(r) pseudized with 0 coefficients

     PseudoPot. # 4 for Nb read from file:
     /lustre07/scratch/pragov/crystal_structure_design/utils/SSSP/Nb.pbe-spn-kjpaw_psl.0.3.0.UPF
     MD5 check sum: 411d72ad547312f8017e2943ceca08cc
     Pseudo is Projector augmented-wave + core cor, Zval = 13.0
     Generated using "atomic" code by A. Dal Corso  v.5.0.99 svn rev. 10869
     Shape of augmentation charge: PSQ
     Using radial grid of 1227 points,  6 beta functions with:
                l(1) =   0
                l(2) =   0
                l(3) =   1
                l(4) =   1
                l(5) =   2
                l(6) =   2
     Q(r) pseudized with 0 coefficients

     PseudoPot. # 5 for O  read from file:
     /lustre07/scratch/pragov/crystal_structure_design/utils/SSSP/O.pbe-n-kjpaw_psl.0.1.UPF
     MD5 check sum: 0234752ac141de4415c5fc33072bef88
     Pseudo is Projector augmented-wave + core cor, Zval =  6.0
     Generated using "atomic" code by A. Dal Corso  v.5.0.99 svn rev. 10869
     Shape of augmentation charge: BESSEL
     Using radial grid of 1095 points,  4 beta functions with:
                l(1) =   0
                l(2) =   0
                l(3) =   1
                l(4) =   1
     Q(r) pseudized with 0 coefficients

     atomic species   valence    mass     pseudopotential
        Sr            10.00    87.62000     Sr( 1.00)
        Ca            10.00    40.07800     Ca( 1.00)
        Gd            18.00   157.25000     Gd( 1.00)
        Nb            13.00    92.90637     Nb( 1.00)
        O              6.00    15.99900     O ( 1.00)

      8 Sym. Ops. (no inversion) found ( 4 have fractional translation)

                                    s                        frac. trans.

      isym =  1     identity

 cryst.   s( 1) = (     1          0          0      )
                  (     0          1          0      )
                  (     0          0          1      )

 cart.    s( 1) = (  1.0000000  0.0000000  0.0000000 )
                  (  0.0000000  1.0000000  0.0000000 )
                  (  0.0000000  0.0000000  1.0000000 )

      isym =  2     180 deg rotation - cart. axis [0,0,1]

[...]

 cryst.   s( 3) = (     0          1          0      )    f =(  0.5000000 )
                  (     1          0          0      )       ( -0.5000000 )
                  (     0          0         -1      )       (  0.5000000 )

 cart.    s( 3) = (  0.0000000  1.0000000  0.0000000 )    f =(  0.5000000 )
                  (  1.0000000  0.0000000  0.0000000 )       ( -0.5000000 )
                  (  0.0000000  0.0000000 -1.0000000 )       (  0.7327341 )

      isym =  4     180 deg rotation - cart. axis [1,-1,0]

[...]

      isym =  5     inv. 180 deg rotation - cart. axis [0,1,0]

[...]

 cryst.   s( 6) = (    -1          0          0      )    f =(  0.5000000 )
                  (     0          1          0      )       ( -0.5000000 )
                  (     0          0          1      )       (  0.5000000 )

 cart.    s( 6) = ( -1.0000000  0.0000000  0.0000000 )    f =(  0.5000000 )
                  (  0.0000000  1.0000000  0.0000000 )       ( -0.5000000 )
                  (  0.0000000  0.0000000  1.0000000 )       (  0.7327341 )

[...]

      isym =  8     inv.  90 deg rotation - cart. axis [0,0,1]

 cryst.   s( 8) = (     0         -1          0      )
                  (     1          0          0      )
                  (     0          0         -1      )

 cart.    s( 8) = (  0.0000000  1.0000000  0.0000000 )
                  ( -1.0000000  0.0000000  0.0000000 )
                  (  0.0000000  0.0000000 -1.0000000 )

   Cartesian axes

     site n.     atom                  positions (alat units)
         1           Sr  tau(   1) = (   0.5000000   0.0000000   0.3663671  )
         2           Sr  tau(   2) = (   0.0000000   0.5000000   1.0991012  )
         3           Ca  tau(   3) = (   0.0000000   0.5000000   0.3663671  )
         4           Ca  tau(   4) = (   0.5000000   0.0000000   1.0991012  )
         5           Gd  tau(   5) = (   0.0000000   0.0000000   0.0000000  )
         6           Gd  tau(   6) = (   0.5000000   0.5000000   0.7327341  )
         7           Nb  tau(   7) = (   0.0000000   0.0000000   0.7327341  )
         8           Nb  tau(   8) = (   0.5000000   0.5000000   0.0000000  )
         9           O   tau(   9) = (   0.0000000   0.0000000   0.3855117  )
        10           O   tau(  10) = (   0.5000000   0.5000000   0.3472224  )
        11           O   tau(  11) = (   0.0000000   0.0000000   1.0799565  )
        12           O   tau(  12) = (   0.5000000   0.5000000   1.1182459  )
        13           O   tau(  13) = (   0.3403699   0.1925256   1.4439863  )
        14           O   tau(  14) = (   0.6596301   0.8074744   1.4439863  )
        15           O   tau(  15) = (   0.8074744   0.3403699   0.0214820  )
        16           O   tau(  16) = (   0.1925256   0.6596301   0.0214820  )
        17           O   tau(  17) = (   0.8403699   0.3074744   0.7112522  )
        18           O   tau(  18) = (   0.1596301   0.6925256   0.7112522  )
        19           O   tau(  19) = (   0.3074744   0.1596301   0.7542161  )
        20           O   tau(  20) = (   0.6925256   0.8403699   0.7542161  )

   Crystallographic axes

     site n.     atom                  positions (cryst. coord.)
         1           Sr  tau(   1) = (  0.5000000  0.0000000  0.2500000  )
         2           Sr  tau(   2) = (  0.0000000  0.5000000  0.7500000  )
         3           Ca  tau(   3) = (  0.0000000  0.5000000  0.2500000  )
         4           Ca  tau(   4) = (  0.5000000  0.0000000  0.7500000  )
         5           Gd  tau(   5) = (  0.0000000  0.0000000  0.0000000  )
         6           Gd  tau(   6) = (  0.5000000  0.5000000  0.5000000  )
         7           Nb  tau(   7) = (  0.0000000  0.0000000  0.5000000  )
         8           Nb  tau(   8) = (  0.5000000  0.5000000  0.0000000  )
         9           O   tau(   9) = (  0.0000000  0.0000000  0.2630639  )
        10           O   tau(  10) = (  0.5000000  0.5000000  0.2369361  )
        11           O   tau(  11) = (  0.0000000  0.0000000  0.7369361  )
        12           O   tau(  12) = (  0.5000000  0.5000000  0.7630639  )
        13           O   tau(  13) = (  0.3403699  0.1925256  0.9853412  )
        14           O   tau(  14) = (  0.6596301  0.8074744  0.9853412  )
        15           O   tau(  15) = (  0.8074744  0.3403699  0.0146588  )
        16           O   tau(  16) = (  0.1925256  0.6596301  0.0146588  )
        17           O   tau(  17) = (  0.8403699  0.3074744  0.4853412  )
        18           O   tau(  18) = (  0.1596301  0.6925256  0.4853412  )
        19           O   tau(  19) = (  0.3074744  0.1596301  0.5146588  )
        20           O   tau(  20) = (  0.6925256  0.8403699  0.5146588  )

     number of k points=     6
                       cart. coord. in units 2pi/alat
        k(    1) = (   0.0000000   0.0000000   0.0000000), wk =   0.0740741
        k(    2) = (   0.0000000   0.0000000   0.2274586), wk =   0.1481481
        k(    3) = (   0.0000000   0.3333333   0.0000000), wk =   0.2962963
        k(    4) = (   0.0000000   0.3333333   0.2274586), wk =   0.5925926
        k(    5) = (   0.3333333   0.3333333   0.0000000), wk =   0.2962963
        k(    6) = (   0.3333333   0.3333333   0.2274586), wk =   0.5925926

                       cryst. coord.
        k(    1) = (   0.0000000   0.0000000   0.0000000), wk =   0.0740741
        k(    2) = (   0.0000000   0.0000000   0.3333333), wk =   0.1481481
        k(    3) = (   0.0000000   0.3333333   0.0000000), wk =   0.2962963
        k(    4) = (   0.0000000   0.3333333   0.3333333), wk =   0.5925926
        k(    5) = (   0.3333333   0.3333333   0.0000000), wk =   0.2962963
        k(    6) = (   0.3333333   0.3333333   0.3333333), wk =   0.5925926

     Check: negative core charge=   -0.000015

     Initial potential from superposition of free atoms

     starting charge     173.9072, renormalised to     174.0000

     negative rho (up, down):  1.248E-01 0.000E+00
     Starting wfcs are  178 randomized atomic wfcs +   78 random wfcs
     Checking if some PAW data can be deallocated...

     Self-consistent Calculation

     iteration #  1     ecut=    30.00 Ry     beta= 0.70
     Davidson diagonalization with overlap

     ethr =  1.00E-02,  avg # of iterations =  6.0

     negative rho (up, down):  1.272E-01 0.000E+00

     total energy              =   -2823.49749313 Ry
     estimated scf accuracy    <       7.33610787 Ry

[...]

     total energy              =   -2827.40132732 Ry
     estimated scf accuracy    <       0.00000123 Ry

     iteration # 23     ecut=    30.00 Ry     beta= 0.70
     Davidson diagonalization with overlap

     ethr =  7.05E-10,  avg # of iterations =  2.0

     negative rho (up, down):  1.320E-01 0.000E+00

     End of self-consistent calculation

          k = 0.0000 0.0000 0.0000 (  5441 PWs)   bands (ev):

   -45.7058 -45.7057 -31.0595 -31.0589 -30.1958 -30.1953 -24.3134 -24.3127
   -21.8638 -21.8630 -21.8170 -21.8170 -21.8168 -21.8168 -11.3284 -11.3284
   -11.2222 -11.2222 -11.1892 -11.1718  -9.8673  -9.8492  -9.6640  -9.6640
    -9.6428  -9.6428  -7.8719  -7.8683  -7.6120  -7.5427  -7.5032  -7.4492
    -6.5524  -6.5524  -6.4456  -6.4456  -6.2022  -6.1356  -6.0274  -6.0274
    -5.9431  -5.8770  -5.7755  -5.7755   4.8591   4.9629   5.0234   5.1384
     5.2485   5.4078   5.4430   5.4430   5.7061   5.7233   5.9288   5.9288
     6.6259   6.9796   6.9796   7.1489   7.1617   7.1617   7.2005   7.3321
     7.3321   7.6929   7.6929   7.8827   7.9288   8.0066   8.0355   8.0355
     8.2060   8.2651   8.3621   8.3621   8.5004   8.5004   8.7851   8.7851
    10.6003  10.6003  10.6154  10.6237  10.6243  10.6243  10.9175  10.9175
    10.9218  10.9386  10.9431  10.9643  10.9643  11.0006  11.9971  11.9971
    12.3090  12.3565  12.9464  13.0296  13.0296  13.4889  14.1655  14.4362
    14.6083  14.7230  14.7230  14.8139  15.1452  15.1583  15.3543  15.4363
    15.4363  15.7224  16.0458  16.0458  16.3471  16.3878  16.3878  16.3997
    16.4300  16.4361  16.5289  16.8005  17.3141  17.6263  17.6883  17.6883
    17.7880  17.9385  18.0563  18.0563  18.4273  18.4273  18.7093  18.7325
    19.6596  20.6670  20.6670  21.0597  21.0657  21.1682  21.5519  21.6519
    22.1217  22.2944  22.2944  23.3939  23.5443  23.5443  23.6401  23.8556
    24.1023  24.1669  24.4398  24.4770  24.4770  24.5916  25.1518  25.1518
    25.4339  25.5153  25.5733  25.5733  26.3393  26.8328  26.8651  26.8651
    27.2505  27.8456  28.4839  28.7653  28.7887  28.7887  28.9246  29.0673
    29.5001  29.5001  29.7300  29.7764  29.7830  29.7830  29.8991  30.2738
    30.3740  30.3740  31.0126  31.2578  31.2578  31.6657  31.6657  31.8476
    31.9668  32.2741  32.4554  32.4554  32.6899  33.0123  33.0123  33.3901
    33.7387  34.0527  34.0527  34.1515  34.3564  34.3801  34.5080  34.8791
    35.1383  35.1383  35.4210  35.4210  35.7820  35.8157  35.8157  35.8255
    36.3755  36.4804  36.5690  36.5690  36.9522  36.9522  37.4197  37.8036
    38.0153  38.1044  38.1714  38.1714  38.5108  38.5824  39.0062  39.0062
    39.2755  39.2856  39.3118  39.4966  39.4966  39.6176  39.7622  39.7809
    39.7809  40.0038  40.0038  40.2017  40.4814  40.4814  41.0101  41.0453
    41.2268  41.3570  41.4247  41.4247  41.4944  41.8917  41.8917  41.8975

     occupation numbers
     1.0000   1.0000   1.0000   1.0000   1.0000   1.0000   1.0000   1.0000
     1.0000   1.0000   1.0000   1.0000   1.0000   1.0000   1.0000   1.0000
     1.0000   1.0000   1.0000   1.0000   1.0000   1.0000   1.0000   1.0000
     1.0000   1.0000   1.0000   1.0000   1.0000   1.0000   1.0000   1.0000
     1.0000   1.0000   1.0000   1.0000   1.0000   1.0000   1.0000   1.0000
     1.0000   1.0000   1.0000   1.0000   1.0000   1.0000   1.0000   1.0000
     1.0000   1.0000   1.0000   1.0000   1.0000   1.0000   1.0000   1.0000
     1.0000   1.0000   1.0000   1.0000   1.0000   1.0000   1.0000   1.0000
     1.0000   1.0000   1.0000   1.0000   1.0000   1.0000   1.0000   1.0000
     1.0000   1.0000   1.0000   1.0000   1.0000   1.0000   1.0000   1.0000
     1.0000   1.0000   1.0000   1.0000   1.0000   1.0000   1.0000   0.0000
     0.0000   0.0000   0.0000   0.0000   0.0000   0.0000   0.0000   0.0000
     0.0000   0.0000   0.0000   0.0000   0.0000   0.0000   0.0000   0.0000
     0.0000   0.0000   0.0000   0.0000   0.0000   0.0000   0.0000   0.0000
     0.0000   0.0000   0.0000   0.0000   0.0000   0.0000   0.0000   0.0000
     0.0000   0.0000   0.0000   0.0000   0.0000   0.0000   0.0000   0.0000
     0.0000   0.0000   0.0000   0.0000   0.0000   0.0000   0.0000   0.0000
     0.0000   0.0000   0.0000   0.0000   0.0000   0.0000   0.0000   0.0000
     0.0000   0.0000   0.0000   0.0000   0.0000   0.0000   0.0000   0.0000
     0.0000   0.0000   0.0000   0.0000   0.0000   0.0000   0.0000   0.0000
     0.0000   0.0000   0.0000   0.0000   0.0000   0.0000   0.0000   0.0000
     0.0000   0.0000   0.0000   0.0000   0.0000   0.0000   0.0000   0.0000
     0.0000   0.0000   0.0000   0.0000   0.0000   0.0000   0.0000   0.0000
     0.0000   0.0000   0.0000   0.0000   0.0000   0.0000   0.0000   0.0000
     0.0000   0.0000   0.0000   0.0000   0.0000   0.0000   0.0000   0.0000
     0.0000   0.0000   0.0000   0.0000   0.0000   0.0000   0.0000   0.0000
     0.0000   0.0000   0.0000   0.0000   0.0000   0.0000   0.0000   0.0000
     0.0000   0.0000   0.0000   0.0000   0.0000   0.0000   0.0000   0.0000
     0.0000   0.0000   0.0000   0.0000   0.0000   0.0000   0.0000   0.0000
     0.0000   0.0000   0.0000   0.0000   0.0000   0.0000   0.0000   0.0000
     0.0000   0.0000   0.0000   0.0000   0.0000   0.0000   0.0000   0.0000
     0.0000   0.0000   0.0000   0.0000   0.0000   0.0000   0.0000   0.0000

[...]

          k = 0.3333 0.3333 0.2275 (  5412 PWs)   bands (ev):

   -45.7057 -45.7056 -31.0590 -31.0590 -30.1958 -30.1957 -24.3132 -24.3131
   -21.8638 -21.8638 -21.8171 -21.8171 -21.8164 -21.8163 -11.3469 -11.3331
   -11.2436 -11.2232 -11.1915 -11.1890  -9.9156  -9.9110  -9.7699  -9.7119
    -9.6719  -9.6429  -7.6449  -7.5522  -7.4801  -7.3260  -7.2200  -7.0503
    -6.8436  -6.6847  -6.5849  -6.5440  -6.3915  -6.2398  -6.1674  -6.1464
    -6.0178  -5.9130  -5.7514  -5.6569   5.1567   5.1814   5.2050   5.2745
     5.4972   5.5119   5.6405   5.6927   5.8421   5.9018   5.9358   6.0177
     6.4651   6.5763   6.6739   6.8523   6.8874   6.9343   7.2180   7.2701
     7.3719   7.4484   7.4909   7.5491   7.5807   7.6497   7.8058   7.8964
     7.9230   8.0412   8.1167   8.2800   8.3320   8.4441   8.4641   8.5187
    10.5555  10.5703  10.5759  10.5863  10.6217  10.6250  10.8558  10.8648
    10.8823  10.8906  10.9000  10.9326  10.9358  10.9658  12.4402  12.5923
    12.8308  12.9233  13.0483  13.0712  14.3733  14.4007  14.4700  14.7131
    14.8741  15.1022  15.1552  15.2673  15.3477  15.4647  15.5371  15.5781
    15.6524  15.9324  16.0355  16.0738  16.2590  16.3107  16.5422  16.6182
    16.7300  16.9087  16.9374  17.0733  17.1812  17.3385  17.3809  17.5382
    17.6304  17.7141  17.7816  17.8957  18.1042  18.3768  18.8379  18.9847
    19.4245  19.9472  20.4120  20.6186  20.8067  20.9438  21.0651  21.4135
    21.8794  22.3058  22.5889  22.6968  23.1723  23.2310  23.3096  23.3958
    23.6489  23.9970  24.2638  24.3812  24.4030  24.8312  24.9344  25.2811
    25.3719  25.4774  25.8425  26.0987  26.3425  26.7730  26.9730  27.3652
    27.5138  27.5828  27.7224  28.1073  28.4366  28.6136  28.8386  29.0485
    29.1074  29.1372  29.2755  29.4618  29.6191  29.8489  29.9608  30.0865
    30.2561  30.4650  30.7877  31.2784  31.4043  31.5250  31.6236  31.7735
    31.9520  32.1342  32.3024  32.6985  32.7440  33.0020  33.1247  33.3016
    33.5351  33.6023  33.7302  33.9542  34.1157  34.4548  34.7080  34.9819
    35.4600  35.5261  35.7301  35.8959  35.9436  36.0863  36.2371  36.5028
    36.6857  36.9343  37.0284  37.1018  37.4695  37.5510  37.6668  37.7464
    37.8534  38.0601  38.2698  38.5028  38.6405  38.8028  38.8948  39.0376
    39.2171  39.3241  39.4767  39.6181  39.8858  39.9321  40.1646  40.1882
    40.3470  40.5204  40.5930  40.7619  40.8629  41.0115  41.1476  41.3325
    41.3757  41.5648  41.6054  41.7721  41.8654  42.0557  42.1161  42.3450

     occupation numbers
     1.0000   1.0000   1.0000   1.0000   1.0000   1.0000   1.0000   1.0000
     1.0000   1.0000   1.0000   1.0000   1.0000   1.0000   1.0000   1.0000
     1.0000   1.0000   1.0000   1.0000   1.0000   1.0000   1.0000   1.0000
     1.0000   1.0000   1.0000   1.0000   1.0000   1.0000   1.0000   1.0000
     1.0000   1.0000   1.0000   1.0000   1.0000   1.0000   1.0000   1.0000
     1.0000   1.0000   1.0000   1.0000   1.0000   1.0000   1.0000   1.0000
     1.0000   1.0000   1.0000   1.0000   1.0000   1.0000   1.0000   1.0000
     1.0000   1.0000   1.0000   1.0000   1.0000   1.0000   1.0000   1.0000
     1.0000   1.0000   1.0000   1.0000   1.0000   1.0000   1.0000   1.0000
     1.0000   1.0000   1.0000   1.0000   1.0000   1.0000   1.0000   1.0000
     1.0000   1.0000   1.0000   1.0000   1.0000   1.0000   1.0000   0.0000
     0.0000   0.0000   0.0000   0.0000   0.0000   0.0000   0.0000   0.0000
     0.0000   0.0000   0.0000   0.0000   0.0000   0.0000   0.0000   0.0000
     0.0000   0.0000   0.0000   0.0000   0.0000   0.0000   0.0000   0.0000
     0.0000   0.0000   0.0000   0.0000   0.0000   0.0000   0.0000   0.0000
     0.0000   0.0000   0.0000   0.0000   0.0000   0.0000   0.0000   0.0000
     0.0000   0.0000   0.0000   0.0000   0.0000   0.0000   0.0000   0.0000
     0.0000   0.0000   0.0000   0.0000   0.0000   0.0000   0.0000   0.0000
     0.0000   0.0000   0.0000   0.0000   0.0000   0.0000   0.0000   0.0000
     0.0000   0.0000   0.0000   0.0000   0.0000   0.0000   0.0000   0.0000
     0.0000   0.0000   0.0000   0.0000   0.0000   0.0000   0.0000   0.0000
     0.0000   0.0000   0.0000   0.0000   0.0000   0.0000   0.0000   0.0000
     0.0000   0.0000   0.0000   0.0000   0.0000   0.0000   0.0000   0.0000
     0.0000   0.0000   0.0000   0.0000   0.0000   0.0000   0.0000   0.0000
     0.0000   0.0000   0.0000   0.0000   0.0000   0.0000   0.0000   0.0000
     0.0000   0.0000   0.0000   0.0000   0.0000   0.0000   0.0000   0.0000
     0.0000   0.0000   0.0000   0.0000   0.0000   0.0000   0.0000   0.0000
     0.0000   0.0000   0.0000   0.0000   0.0000   0.0000   0.0000   0.0000
     0.0000   0.0000   0.0000   0.0000   0.0000   0.0000   0.0000   0.0000
     0.0000   0.0000   0.0000   0.0000   0.0000   0.0000   0.0000   0.0000
     0.0000   0.0000   0.0000   0.0000   0.0000   0.0000   0.0000   0.0000
     0.0000   0.0000   0.0000   0.0000   0.0000   0.0000   0.0000   0.0000

     highest occupied, lowest unoccupied level (ev):    10.9175   10.8097

!    total energy              =   -2827.40132897 Ry
     estimated scf accuracy    <       0.00000022 Ry

     The total energy is the sum of the following terms:
     one-electron contribution =    -450.50043628 Ry
     hartree contribution      =     331.52413041 Ry
     xc contribution           =    -252.99115352 Ry
     ewald contribution        =    -991.52138185 Ry
     one-center paw contrib.   =   -1463.91248773 Ry
      -> PAW hartree energy AE =       0.00000000 Ry
      -> PAW hartree energy PS =       0.00000000 Ry
      -> PAW xc energy AE      =       0.00000000 Ry
      -> PAW xc energy PS      =       0.00000000 Ry
      -> total E_H with PAW    =     331.52413041 Ry
      -> total E_XC with PAW   =    -252.99115352 Ry

     convergence has been achieved in  23 iterations

     Writing all to output data dir bands_nm/myprefix.save/

     General routines

     Parallel routines

     PAW routines

   This run was terminated on:  20:24:49  15Jul2023

   JOB DONE.