     Program PWSCF v.7.0 starts on  7Jun2023 at  8:45:28

     K-points division:     npool     =       2
     R & G space division:  proc/nbgrp/npool/nimage =       4

     Reading input from espresso_8168.pwi
Warning: card &CELL ignored
Warning: card / ignored

     Current dimensions of program PWSCF are:
     Max number of different atomic species (ntypx) = 10
     Max number of k-points (npk) =  40000
     Max angular momentum in pseudopotentials (lmaxx) =  4
     file O.pbe-n-kjpaw_psl.0.1.UPF: wavefunction(s)  2P renormalized

     Using Slab Decomposition

     bravais-lattice index     =            0
     lattice parameter (alat)  =      16.9520  a.u.
     unit-cell volume          =    1659.2523 (a.u.)^3
     number of atoms/cell      =           18
     number of atomic types    =            3
     number of electrons       =        80.00
     number of Kohn-Sham states=           64
     kinetic-energy cutoff     =      30.0000  Ry
     charge density cutoff     =     240.0000  Ry
     scf convergence threshold =      1.0E-06
     mixing beta               =       0.7000
     number of iterations used =            8  plain     mixing
     Exchange-correlation= SLA  PW   PBX  PBC
                           (   1   4   3   4   0   0   0)

     celldm(1)=  16.952048  celldm(2)=   0.000000  celldm(3)=   0.000000
     celldm(4)=   0.000000  celldm(5)=   0.000000  celldm(6)=   0.000000

     crystal axes: (cart. coord. in units of alat)
               a(1) = (   1.000000   0.000000   0.000000 )
               a(2) = (   0.796482   0.604662   0.000000 )
               a(3) = (   0.139277   0.046878   0.563292 )

     reciprocal axes: (cart. coord. in units 2 pi/alat)
               b(1) = (  1.000000 -1.317236 -0.137634 )
               b(2) = (  0.000000  1.653817 -0.137634 )
               b(3) = (  0.000000  0.000000  1.775279 )

     PseudoPot. # 1 for Si read from file:
     /home/pragov/projects/rrg-bengioy-ad/pragov/crystal_structure_design/SSSP/Si.pbe-n-rrkjus_psl.1.0.0.UPF
     MD5 check sum: 0b0bb1205258b0d07b9f9672cf965d36
     Pseudo is Ultrasoft + core correction, Zval =  4.0
     Generated using "atomic" code by A. Dal Corso  v.5.1
     Using radial grid of 1141 points,  6 beta functions with:
                l(1) =   0
                l(2) =   0
                l(3) =   1
                l(4) =   1
                l(5) =   2
                l(6) =   2
     Q(r) pseudized with 0 coefficients

     PseudoPot. # 2 for H  read from file:
     /home/pragov/projects/rrg-bengioy-ad/pragov/crystal_structure_design/SSSP/H.pbe-rrkjus_psl.1.0.0.UPF
     MD5 check sum: f52b6d4d1c606e5624b1dc7b2218f220
     Pseudo is Ultrasoft, Zval =  1.0
     Generated using "atomic" code by A. Dal Corso  v.5.1
     Using radial grid of  929 points,  2 beta functions with:
                l(1) =   0
                l(2) =   0
     Q(r) pseudized with 0 coefficients

     PseudoPot. # 3 for O  read from file:
     /home/pragov/projects/rrg-bengioy-ad/pragov/crystal_structure_design/SSSP/O.pbe-n-kjpaw_psl.0.1.UPF
     MD5 check sum: 0234752ac141de4415c5fc33072bef88
     Pseudo is Projector augmented-wave + core cor, Zval =  6.0
     Generated using "atomic" code by A. Dal Corso  v.5.0.99 svn rev. 10869
     Shape of augmentation charge: BESSEL
     Using radial grid of 1095 points,  4 beta functions with:
                l(1) =   0
                l(2) =   0
                l(3) =   1
                l(4) =   1
     Q(r) pseudized with 0 coefficients

     atomic species   valence    mass     pseudopotential
        Si             4.00    28.08500     Si( 1.00)
        H              1.00     1.00800     H ( 1.00)
        O              6.00    15.99900     O ( 1.00)

     No symmetry found

                                    s                        frac. trans.

      isym =  1     identity

 cryst.   s( 1) = (     1          0          0      )
                  (     0          1          0      )
                  (     0          0          1      )

 cart.    s( 1) = (  1.0000000 -0.0000000  0.0000000 )
                  (  0.0000000  1.0000000  0.0000000 )
                  (  0.0000000  0.0000000  1.0000000 )

   Cartesian axes

     site n.     atom                  positions (alat units)
         1           Si  tau(   1) = (   1.2225206   0.5195547   0.2960937  )
         2           Si  tau(   2) = (   0.6996795   0.1323664   0.2097580  )
         3           Si  tau(   3) = (   0.7069580   0.3410811   0.4914039  )
         4           Si  tau(   4) = (   1.2182323   0.3019563   0.0144479  )
         5           H   tau(   5) = (   0.2627234   0.0689249   0.4099733  )
         6           H   tau(   6) = (   1.6716157   0.6014055   0.0993483  )
         7           H   tau(   7) = (   1.7646980   0.5551924   0.3809942  )
         8           H   tau(   8) = (   0.1812921   0.0805223   0.1283274  )
         9           O   tau(   9) = (   0.5579669   0.0348344   0.2661542  )
        10           O   tau(  10) = (   0.5351126   0.3330754   0.5478001  )
        11           O   tau(  11) = (   1.1918650   0.4137311   0.1536581  )
        12           O   tau(  12) = (   0.6691111   0.2027335   0.0460874  )
        13           O   tau(  13) = (   0.7251591   0.2665513   0.3277333  )
        14           O   tau(  14) = (   1.2691055   0.4145848   0.4353040  )
        15           O   tau(  15) = (   1.0646481   0.6088374   0.3215393  )
        16           O   tau(  16) = (   0.8514286   0.0310478   0.2008620  )
        17           O   tau(  17) = (   0.7665600   0.5135364   0.4825078  )
        18           O   tau(  18) = (   1.1464754   0.1353848   0.0398934  )

   Crystallographic axes

     site n.     atom                  positions (cryst. coord.)
         1           Si  tau(   1) = (  0.4973920  0.8184960  0.5256490  )
         2           Si  tau(   2) = (  0.4964520  0.1900400  0.3723790  )
         3           Si  tau(   3) = (  0.1900400  0.4964520  0.8723790  )
         4           Si  tau(   4) = (  0.8184960  0.4973920  0.0256490  )
         5           H   tau(   5) = (  0.1155070  0.0575630  0.7278170  )
         6           H   tau(   6) = (  0.8657490  0.9809410  0.1763710  )
         7           H   tau(   7) = (  0.9809410  0.8657490  0.6763710  )
         8           H   tau(   8) = (  0.0575630  0.1155070  0.2278170  )
         9           O   tau(   9) = (  0.4754500  0.0209780  0.4724980  )
        10           O   tau(  10) = (  0.0209780  0.4754500  0.9724980  )
        11           O   tau(  11) = (  0.6257350  0.6630870  0.2727860  )
        12           O   tau(  12) = (  0.3957200  0.3289410  0.0818180  )
        13           O   tau(  13) = (  0.3289410  0.3957200  0.5818180  )
        14           O   tau(  14) = (  0.6630870  0.6257350  0.7727860  )
        15           O   tau(  15) = (  0.2184110  0.9626510  0.5708220  )
        16           O   tau(  16) = (  0.7828860  0.0237020  0.3565860  )
        17           O   tau(  17) = (  0.0237020  0.7828860  0.8565860  )
        18           O   tau(  18) = (  0.9626510  0.2184110  0.0708220  )

     number of k points=    14
                       cart. coord. in units 2pi/alat
        k(    1) = (   0.0000000   0.0000000   0.0000000), wk =   0.0740741
        k(    2) = (   0.0000000   0.0000000   0.5917597), wk =   0.1481481
        k(    3) = (   0.0000000   0.5512723  -0.0458779), wk =   0.1481481
        k(    4) = (   0.0000000   0.5512723   0.5458818), wk =   0.1481481
        k(    5) = (   0.0000000   0.5512723  -0.6376375), wk =   0.1481481
        k(    6) = (   0.3333333  -0.4390787  -0.0458779), wk =   0.1481481
        k(    7) = (   0.3333333  -0.4390787   0.5458818), wk =   0.1481481
        k(    8) = (   0.3333333  -0.4390787  -0.6376375), wk =   0.1481481
        k(    9) = (   0.3333333   0.1121937  -0.0917557), wk =   0.1481481
        k(   10) = (   0.3333333   0.1121937   0.5000039), wk =   0.1481481
        k(   11) = (   0.3333333   0.1121937  -0.6835154), wk =   0.1481481
        k(   12) = (   0.3333333  -0.9903510  -0.0000000), wk =   0.1481481
        k(   13) = (   0.3333333  -0.9903510   0.5917597), wk =   0.1481481
        k(   14) = (   0.3333333  -0.9903510  -0.5917597), wk =   0.1481481

                       cryst. coord.
        k(    1) = (   0.0000000   0.0000000   0.0000000), wk =   0.0740741
        k(    2) = (   0.0000000   0.0000000   0.3333333), wk =   0.1481481
        k(    3) = (   0.0000000   0.3333333  -0.0000000), wk =   0.1481481
        k(    4) = (   0.0000000   0.3333333   0.3333333), wk =   0.1481481
        k(    5) = (   0.0000000   0.3333333  -0.3333333), wk =   0.1481481
        k(    6) = (   0.3333333   0.0000000   0.0000000), wk =   0.1481481
        k(    7) = (   0.3333333   0.0000000   0.3333333), wk =   0.1481481
        k(    8) = (   0.3333333   0.0000000  -0.3333333), wk =   0.1481481
        k(    9) = (   0.3333333   0.3333333   0.0000000), wk =   0.1481481
        k(   10) = (   0.3333333   0.3333333   0.3333333), wk =   0.1481481
        k(   11) = (   0.3333333   0.3333333  -0.3333333), wk =   0.1481481
        k(   12) = (   0.3333333  -0.3333333   0.0000000), wk =   0.1481481
        k(   13) = (   0.3333333  -0.3333333   0.3333333), wk =   0.1481481
        k(   14) = (   0.3333333  -0.3333333  -0.3333333), wk =   0.1481481

     Check: negative core charge=   -0.000011

     Initial potential from superposition of free atoms

     starting charge      79.9977, renormalised to      80.0000
     Starting wfcs are   60 randomized atomic wfcs +    4 random wfcs
     Checking if some PAW data can be deallocated...

     Self-consistent Calculation

     iteration #  1     ecut=    30.00 Ry     beta= 0.70
     Davidson diagonalization with overlap

     ethr =  1.00E-02,  avg # of iterations =  7.1

     total energy              =    -466.45610749 Ry
     estimated scf accuracy    <       3.29004127 Ry

[...]

     total energy              =    -467.78682724 Ry
     estimated scf accuracy    <       0.00000168 Ry

     iteration #  9     ecut=    30.00 Ry     beta= 0.70
     Davidson diagonalization with overlap

     ethr =  2.10E-09,  avg # of iterations =  2.0

     End of self-consistent calculation

          k = 0.0000 0.0000 0.0000 (  4613 PWs)   bands (ev):

   -19.4481 -19.0424 -18.4573 -18.1197 -18.0825 -17.9150 -17.6931 -17.6331
   -17.5889 -17.5215  -9.2784  -8.2278  -7.1891  -6.2018  -5.9590  -5.8824
    -5.8424  -5.6132  -5.2809  -5.1809  -3.3356  -3.1895  -2.9163  -2.8812
    -2.7995  -2.3321  -1.9590  -1.9198  -1.8802  -1.6971  -1.6370  -1.4209
    -1.4026  -1.2185  -0.8622  -0.6000  -0.5317  -0.4513  -0.3387  -0.0888
     5.1405   7.4631   8.1455   8.6006   8.7391   8.7539   9.2272   9.4361
     9.5589   9.9841   9.9946  10.8158  10.9048  11.0308  11.5257  11.5338
    11.7756  11.9302  12.2419  12.6518  12.7036  12.9683  13.0937  13.1638

     occupation numbers
     1.0000   1.0000   1.0000   1.0000   1.0000   1.0000   1.0000   1.0000
     1.0000   1.0000   1.0000   1.0000   1.0000   1.0000   1.0000   1.0000
     1.0000   1.0000   1.0000   1.0000   1.0000   1.0000   1.0000   1.0000
     1.0000   1.0000   1.0000   1.0000   1.0000   1.0000   1.0000   1.0000
     1.0000   1.0000   1.0000   1.0000   1.0000   1.0000   1.0000   1.0000
     0.0000   0.0000   0.0000   0.0000   0.0000   0.0000   0.0000   0.0000
     0.0000   0.0000   0.0000   0.0000   0.0000   0.0000   0.0000   0.0000
     0.0000   0.0000   0.0000   0.0000   0.0000   0.0000   0.0000   0.0000

[...]

          k = 0.3333-0.9904-0.5918 (  4601 PWs)   bands (ev):

   -19.1456 -18.9576 -18.6515 -18.4194 -17.9504 -17.8647 -17.8025 -17.7094
   -17.5848 -17.5561  -8.5841  -8.1896  -7.1662  -6.7935  -5.9662  -5.7871
    -5.5638  -5.5525  -5.3249  -5.2528  -3.2957  -3.2229  -2.8399  -2.6431
    -2.5319  -2.4026  -2.1887  -1.9956  -1.9637  -1.8545  -1.6895  -1.5371
    -1.3256  -1.2697  -1.0818  -0.9023  -0.7826  -0.7266  -0.2536  -0.1585
     7.0627   7.7307   8.1423   8.6987   8.7948   8.9652   9.2970   9.4448
     9.6249   9.7473  10.1186  10.2796  10.4980  10.6553  10.9577  11.4698
    11.7264  11.7975  12.0880  12.1846  12.5719  12.7858  13.0180  13.2785

     occupation numbers
     1.0000   1.0000   1.0000   1.0000   1.0000   1.0000   1.0000   1.0000
     1.0000   1.0000   1.0000   1.0000   1.0000   1.0000   1.0000   1.0000
     1.0000   1.0000   1.0000   1.0000   1.0000   1.0000   1.0000   1.0000
     1.0000   1.0000   1.0000   1.0000   1.0000   1.0000   1.0000   1.0000
     1.0000   1.0000   1.0000   1.0000   1.0000   1.0000   1.0000   1.0000
     0.0000   0.0000   0.0000   0.0000   0.0000   0.0000   0.0000   0.0000
     0.0000   0.0000   0.0000   0.0000   0.0000   0.0000   0.0000   0.0000
     0.0000   0.0000   0.0000   0.0000   0.0000   0.0000   0.0000   0.0000

     highest occupied, lowest unoccupied level (ev):    -0.0888    5.1405

!    total energy              =    -467.78682761 Ry
     estimated scf accuracy    <       0.00000003 Ry

     The total energy is the sum of the following terms:
     one-electron contribution =    -261.07512568 Ry
     hartree contribution      =     166.39359398 Ry
     xc contribution           =    -103.32068189 Ry
     ewald contribution        =    -174.72882706 Ry
     one-center paw contrib.   =     -95.05578696 Ry
      -> PAW hartree energy AE =       0.00000000 Ry
      -> PAW hartree energy PS =       0.00000000 Ry
      -> PAW xc energy AE      =       0.00000000 Ry
      -> PAW xc energy PS      =       0.00000000 Ry
      -> total E_H with PAW    =     166.39359398 Ry
      -> total E_XC with PAW   =    -103.32068189 Ry

     convergence has been achieved in   9 iterations

     Writing all to output data dir calculations_bands/myprefix.save/

     General routines

     Parallel routines

     PAW routines

   This run was terminated on:   8:45:48   7Jun2023

   JOB DONE.