     Program PWSCF v.7.0 starts on  2Jun2023 at 19:35: 1

     Reading input from espresso_57.pwi
Warning: card &CELL ignored
Warning: card / ignored

     Current dimensions of program PWSCF are:
     Max number of different atomic species (ntypx) = 10
     Max number of k-points (npk) =  40000
     Max angular momentum in pseudopotentials (lmaxx) =  4
     file O.pbe-n-kjpaw_psl.0.1.UPF: wavefunction(s)  2P renormalized
     Message from routine setup:
     using ibrav=0 with symmetry is DISCOURAGED, use correct ibrav instead

     Subspace diagonalization in iterative solution of the eigenvalue problem:
     a serial algorithm will be used

     Using Slab Decomposition

     bravais-lattice index     =            0
     lattice parameter (alat)  =      22.7258  a.u.
     unit-cell volume          =    1194.8150 (a.u.)^3
     number of atoms/cell      =           11
     number of atomic types    =            4
     number of electrons       =        92.00
     number of Kohn-Sham states=           64
     kinetic-energy cutoff     =      30.0000  Ry
     charge density cutoff     =     240.0000  Ry
     scf convergence threshold =      1.0E-06
     mixing beta               =       0.7000
     number of iterations used =            8  plain     mixing
     Exchange-correlation= SLA  PW   PBX  PBC
                           (   1   4   3   4   0   0   0)

     celldm(1)=  22.725809  celldm(2)=   0.000000  celldm(3)=   0.000000
     celldm(4)=   0.000000  celldm(5)=   0.000000  celldm(6)=   0.000000

     crystal axes: (cart. coord. in units of alat)
               a(1) = (   1.000000   0.000000   0.000000 )
               a(2) = (   0.895431   0.445201   0.000000 )
               a(3) = (  -0.947715  -0.222600   0.228658 )

     reciprocal axes: (cart. coord. in units 2 pi/alat)
               b(1) = (  1.000000 -2.011297  2.186670 )
               b(2) = (  0.000000  2.246178  2.186670 )
               b(3) = (  0.000000  0.000000  4.373339 )

     PseudoPot. # 1 for Pr read from file:
     /home/pragov/projects/rrg-bengioy-ad/pragov/crystal_structure_design/SSSP/Pr.GGA-PBE-paw-v1.0.UPF
     MD5 check sum: b5e1e58e76df433569641143f671cc27
     Pseudo is Projector augmented-wave + core cor, Zval = 13.0
     Generated using ATOMPAW code
     Shape of augmentation charge: BESSEL
     Using radial grid of 1103 points,  8 beta functions with:
                l(1) =   0
                l(2) =   0
                l(3) =   1
                l(4) =   1
                l(5) =   2
                l(6) =   2
                l(7) =   3
                l(8) =   3
     Q(r) pseudized with 0 coefficients

     PseudoPot. # 2 for Ti read from file:
     /home/pragov/projects/rrg-bengioy-ad/pragov/crystal_structure_design/SSSP/ti_pbe_v1.4.uspp.F.UPF
     MD5 check sum: 88a00a6731bd790ddea75d31a80cb452
     Pseudo is Ultrasoft + core correction, Zval = 12.0
     Generated by new atomic code, or converted to UPF format
     Using radial grid of  851 points,  6 beta functions with:
                l(1) =   0
                l(2) =   0
                l(3) =   1
                l(4) =   1
                l(5) =   2
                l(6) =   2
     Q(r) pseudized with  6 coefficients,  rinner =    1.000   1.000   1.000
                                                       1.000   1.000

     PseudoPot. # 3 for S  read from file:
     /home/pragov/projects/rrg-bengioy-ad/pragov/crystal_structure_design/SSSP/s_pbe_v1.4.uspp.F.UPF
     MD5 check sum: 88d86576ff6df21479756cfb9bdac1df
     Pseudo is Ultrasoft + core correction, Zval =  6.0
     Generated by new atomic code, or converted to UPF format
     Using radial grid of  907 points,  6 beta functions with:
                l(1) =   0
                l(2) =   0
                l(3) =   1
                l(4) =   1
                l(5) =   2
                l(6) =   2
     Q(r) pseudized with  8 coefficients,  rinner =    1.300   1.300   1.300
                                                       1.300   1.300

     PseudoPot. # 4 for O  read from file:
     /home/pragov/projects/rrg-bengioy-ad/pragov/crystal_structure_design/SSSP/O.pbe-n-kjpaw_psl.0.1.UPF
     MD5 check sum: 0234752ac141de4415c5fc33072bef88
     Pseudo is Projector augmented-wave + core cor, Zval =  6.0
     Generated using "atomic" code by A. Dal Corso  v.5.0.99 svn rev. 10869
     Shape of augmentation charge: BESSEL
     Using radial grid of 1095 points,  4 beta functions with:
                l(1) =   0
                l(2) =   0
                l(3) =   1
                l(4) =   1
     Q(r) pseudized with 0 coefficients

     atomic species   valence    mass     pseudopotential
        Pr            13.00   140.90766     Pr( 1.00)
        Ti            12.00    47.86700     Ti( 1.00)
        S              6.00    32.06000     S ( 1.00)
        O              6.00    15.99900     O ( 1.00)

      4 Sym. Ops., with inversion, found

                                    s                        frac. trans.

      isym =  1     identity

 cryst.   s( 1) = (     1          0          0      )
                  (     0          1          0      )
                  (     0          0          1      )

 cart.    s( 1) = (  1.0000000  0.0000000  0.0000000 )
                  (  0.0000000  1.0000000  0.0000000 )
                  (  0.0000000  0.0000000  1.0000000 )

      isym =  2     180 deg rotation - cart. axis [0,0,1]

[...]

      isym =  3     inversion

[...]

      isym =  4     inv. 180 deg rotation - cart. axis [0,0,1]

 cryst.   s( 4) = (     1          0          0      )
                  (     0          1          0      )
                  (    -1         -1         -1      )

 cart.    s( 4) = (  1.0000000  0.0000000 -0.0000000 )
                  (  0.0000000  1.0000000 -0.0000000 )
                  (  0.0000000  0.0000000 -1.0000000 )

   Cartesian axes

     site n.     atom                  positions (alat units)
         1           Pr  tau(   1) = (   1.2617959   0.2963719   0.0000000  )
         2           Pr  tau(   2) = (   0.6336349   0.1488288   0.0000000  )
         3           Ti  tau(   3) = (   0.1466381   0.0344425   0.0000000  )
         4           Ti  tau(   4) = (   1.7487927   0.4107582   0.0000000  )
         5           S   tau(   5) = (   1.5100973   0.3546931   0.0000000  )
         6           S   tau(   6) = (   0.3853335   0.0905075   0.0000000  )
         7           O   tau(   7) = (   0.1558987   0.1540581   0.1143291  )
         8           O   tau(   8) = (   0.7918167   0.0685422   0.1143291  )
         9           O   tau(   9) = (   0.0000000   0.0000000   0.0000000  )
        10           O   tau(  10) = (   0.7395322   0.2911425   0.1143291  )
        11           O   tau(  11) = (   0.2081833  -0.0685422   0.1143291  )

   Crystallographic axes

     site n.     atom                  positions (cryst. coord.)
         1           Pr  tau(   1) = (  0.6657040  0.6657040  0.0000000  )
         2           Pr  tau(   2) = (  0.3342960  0.3342960  0.0000000  )
         3           Ti  tau(   3) = (  0.0773640  0.0773640  0.0000000  )
         4           Ti  tau(   4) = (  0.9226360  0.9226360  0.0000000  )
         5           S   tau(   5) = (  0.7967040  0.7967040  0.0000000  )
         6           S   tau(   6) = (  0.2032960  0.2032960  0.0000000  )
         7           O   tau(   7) = (  0.0960420  0.5960420  0.5000000  )
         8           O   tau(   8) = (  0.9039580  0.4039580  0.5000000  )
         9           O   tau(   9) = (  0.0000000  0.0000000  0.0000000  )
        10           O   tau(  10) = (  0.4039580  0.9039580  0.5000000  )
        11           O   tau(  11) = (  0.5960420  0.0960420  0.5000000  )

     number of k points=    10
                       cart. coord. in units 2pi/alat
        k(    1) = (   0.0000000   0.0000000   0.0000000), wk =   0.0740741
        k(    2) = (   0.0000000   0.0000000   1.4577798), wk =   0.1481481
        k(    3) = (   0.0000000   0.7487261   0.7288899), wk =   0.2962963
        k(    4) = (   0.0000000   0.7487261   2.1866696), wk =   0.1481481
        k(    5) = (   0.3333333  -0.6704324   0.7288899), wk =   0.2962963
        k(    6) = (   0.3333333  -0.6704324   2.1866696), wk =   0.1481481
        k(    7) = (   0.3333333   0.0782937   1.4577798), wk =   0.2962963
        k(    8) = (   0.3333333   0.0782937  -0.0000000), wk =   0.1481481
        k(    9) = (   0.3333333  -1.4191585  -0.0000000), wk =   0.1481481
        k(   10) = (   0.3333333  -1.4191585   1.4577798), wk =   0.2962963

                       cryst. coord.
        k(    1) = (   0.0000000   0.0000000   0.0000000), wk =   0.0740741
        k(    2) = (   0.0000000   0.0000000   0.3333333), wk =   0.1481481
        k(    3) = (   0.0000000   0.3333333   0.0000000), wk =   0.2962963
        k(    4) = (   0.0000000   0.3333333   0.3333333), wk =   0.1481481
        k(    5) = (   0.3333333   0.0000000   0.0000000), wk =   0.2962963
        k(    6) = (   0.3333333   0.0000000   0.3333333), wk =   0.1481481
        k(    7) = (   0.3333333   0.3333333   0.0000000), wk =   0.2962963
        k(    8) = (   0.3333333   0.3333333  -0.3333333), wk =   0.1481481
        k(    9) = (   0.3333333  -0.3333333  -0.0000000), wk =   0.1481481
        k(   10) = (   0.3333333  -0.3333333   0.3333333), wk =   0.2962963

     Check: negative core charge=   -0.000010

     Initial potential from superposition of free atoms

     starting charge      89.9850, renormalised to      92.0000

     negative rho (up, down):  2.617E-03 0.000E+00
     Starting wfcs are  112 randomized atomic wfcs
     Checking if some PAW data can be deallocated...

     Self-consistent Calculation

     iteration #  1     ecut=    30.00 Ry     beta= 0.70
     Davidson diagonalization with overlap

     ethr =  1.00E-02,  avg # of iterations =  5.5

     total energy              =   -1397.15438661 Ry
     estimated scf accuracy    <     134.88813789 Ry

[...]

     negative rho (up, down):  1.078E-05 0.000E+00

[...]

     total energy              =   -1512.88554536 Ry
     estimated scf accuracy    <       0.00000178 Ry

     iteration # 34     ecut=    30.00 Ry     beta= 0.70
     Davidson diagonalization with overlap

     ethr =  1.94E-09,  avg # of iterations =  1.0

     negative rho (up, down):  2.213E-03 0.000E+00

     End of self-consistent calculation

          k = 0.0000 0.0000 0.0000 (  3315 PWs)   bands (ev):

   -48.5366 -48.5344 -25.8637 -25.8589 -24.9904 -24.9056 -24.7206 -24.7204
   -24.7172 -24.7170  -9.9563  -9.9070  -8.7267  -8.6504  -8.6483  -7.7686
    -7.7670  -7.7526  -7.7510  -7.2908  -7.1002  -2.8152  -2.3862   4.0606
     4.5303   4.6546   4.6546   4.6867   4.6867   5.0814   5.6267   5.6706
     5.8154   5.8154   6.5293   6.5297   6.5875   6.8048   6.8051   7.6543
     7.6548   8.4095   8.4236   8.4249   9.8947   9.9120   9.9254  10.1522
    10.1811  10.1847  10.2848  10.2862  10.3068  10.3209  10.3587  10.3926
    10.4836  10.4903  10.6415  10.6499  11.0584  11.0584  11.6599  11.9061

     occupation numbers
     1.0000   1.0000   1.0000   1.0000   1.0000   1.0000   1.0000   1.0000
     1.0000   1.0000   1.0000   1.0000   1.0000   1.0000   1.0000   1.0000
     1.0000   1.0000   1.0000   1.0000   1.0000   1.0000   1.0000   1.0000
     1.0000   1.0000   1.0000   1.0000   1.0000   1.0000   1.0000   1.0000
     1.0000   1.0000   1.0000   1.0000   1.0000   1.0000   1.0000   1.0000
     1.0000   1.0000   1.0000   1.0000   1.0000   1.0000   0.0000   0.0000
     0.0000   0.0000   0.0000   0.0000   0.0000   0.0000   0.0000   0.0000
     0.0000   0.0000   0.0000   0.0000   0.0000   0.0000   0.0000   0.0000

[...]

          k = 0.3333-1.4192 1.4578 (  3320 PWs)   bands (ev):

   -48.5355 -48.5334 -25.8364 -25.8343 -24.9911 -24.9063 -24.7650 -24.7615
   -24.7187 -24.7154  -9.7532  -9.7127  -9.0694  -9.0322  -8.7108  -7.7105
    -7.7026  -7.7011  -7.6312  -7.1481  -7.1428  -2.2667  -1.9762   3.9653
     4.0047   4.1235   4.4654   4.8299   4.8797   5.0347   5.3834   5.5640
     5.7451   5.7471   5.9874   6.0923   6.1572   6.2144   6.6012   7.1443
     7.1569   7.4361   7.5457   7.9274  10.1006  10.1236  10.1982  10.2287
    10.2406  10.2636  10.2887  10.2890  10.3412  10.3581  10.3636  10.3832
    10.4671  10.6082  10.8382  11.0983  11.1566  11.2175  11.7264  12.2698

     occupation numbers
     1.0000   1.0000   1.0000   1.0000   1.0000   1.0000   1.0000   1.0000
     1.0000   1.0000   1.0000   1.0000   1.0000   1.0000   1.0000   1.0000
     1.0000   1.0000   1.0000   1.0000   1.0000   1.0000   1.0000   1.0000
     1.0000   1.0000   1.0000   1.0000   1.0000   1.0000   1.0000   1.0000
     1.0000   1.0000   1.0000   1.0000   1.0000   1.0000   1.0000   1.0000
     1.0000   1.0000   1.0000   1.0000   1.0000   1.0000   0.0000   0.0000
     0.0000   0.0000   0.0000   0.0000   0.0000   0.0000   0.0000   0.0000
     0.0000   0.0000   0.0000   0.0000   0.0000   0.0000   0.0000   0.0000

     highest occupied, lowest unoccupied level (ev):    10.1236    9.9244

!    total energy              =   -1512.88554574 Ry
     estimated scf accuracy    <       0.00000045 Ry

     The total energy is the sum of the following terms:
     one-electron contribution =    -268.76627441 Ry
     hartree contribution      =     186.71196242 Ry
     xc contribution           =    -114.09256815 Ry
     ewald contribution        =    -430.05221358 Ry
     one-center paw contrib.   =    -886.68645201 Ry
      -> PAW hartree energy AE =     272.31113165 Ry
      -> PAW hartree energy PS =    -271.88919125 Ry
      -> PAW xc energy AE      =    -945.84943967 Ry
      -> PAW xc energy PS      =      58.74104726 Ry
      -> total E_H with PAW    =     187.13390281 Ry
      -> total E_XC with PAW   =   -1001.20096056 Ry

     convergence has been achieved in  34 iterations

     Writing all to output data dir calculations_bands/myprefix.save/

     General routines

     Parallel routines

     PAW routines

   This run was terminated on:  19:55:56   2Jun2023

   JOB DONE.