     Program PWSCF v.7.1 starts on 16Jul2023 at 14:15:57

     Reading input from espresso_27073.pwi
Warning: card &CELL ignored
Warning: card / ignored

     Current dimensions of program PWSCF are:
     Max number of different atomic species (ntypx) = 10
     Max number of k-points (npk) =  40000
     Max angular momentum in pseudopotentials (lmaxx) =  4
     file Cu.paw.z_11.ld1.psl.v1.0.0-low.upf: wavefunction(s)  4S 3D renormalized
     file O.pbe-n-kjpaw_psl.0.1.UPF: wavefunction(s)  2P renormalized

     K-points division:     npool     =       2
     R & G space division:  proc/nbgrp/npool/nimage =       4
     Subspace diagonalization in iterative solution of the eigenvalue problem:
     a serial algorithm will be used

     Using Slab Decomposition

     bravais-lattice index     =            0
     lattice parameter (alat)  =      14.5373  a.u.
     unit-cell volume          =     705.9632 (a.u.)^3
     number of atoms/cell      =           10
     number of atomic types    =            2
     number of electrons       =        80.00
     number of Kohn-Sham states=           64
     kinetic-energy cutoff     =      30.0000  Ry
     charge density cutoff     =     240.0000  Ry
     scf convergence threshold =      1.0E-06
     mixing beta               =       0.7000
     number of iterations used =            8  plain     mixing
     Exchange-correlation= SLA  PW   PBX  PBC
                           (   1   4   3   4   0   0   0)

     celldm(1)=  14.537336  celldm(2)=   0.000000  celldm(3)=   0.000000
     celldm(4)=   0.000000  celldm(5)=   0.000000  celldm(6)=   0.000000

     crystal axes: (cart. coord. in units of alat)
               a(1) = (   1.000000   0.000000   0.000000 )
               a(2) = (   0.600244   0.543107   0.000000 )
               a(3) = (   0.399756  -0.340517   0.423099 )

     reciprocal axes: (cart. coord. in units 2 pi/alat)
               b(1) = (  1.000000 -1.105205 -1.834313 )
               b(2) = (  0.000000  1.841259  1.481874 )
               b(3) = (  0.000000  0.000000  2.363511 )

     PseudoPot. # 1 for Cu read from file:
     /lustre07/scratch/pragov/crystal_structure_design/utils/SSSP/Cu.paw.z_11.ld1.psl.v1.0.0-low.upf
     MD5 check sum: 619f40885d92a09a85a8b37550532d0c
     Pseudo is Projector augmented-wave + core cor, Zval = 11.0
     Generated using &quot;atomic&quot; code by A. Dal Corso  v.6.3MaX
     Shape of augmentation charge: PSQ
     Using radial grid of 1199 points,  6 beta functions with:
                l(1) =   0
                l(2) =   0
                l(3) =   1
                l(4) =   1
                l(5) =   2
                l(6) =   2
     Q(r) pseudized with 0 coefficients

     PseudoPot. # 2 for O  read from file:
     /lustre07/scratch/pragov/crystal_structure_design/utils/SSSP/O.pbe-n-kjpaw_psl.0.1.UPF
     MD5 check sum: 0234752ac141de4415c5fc33072bef88
     Pseudo is Projector augmented-wave + core cor, Zval =  6.0
     Generated using "atomic" code by A. Dal Corso  v.5.0.99 svn rev. 10869
     Shape of augmentation charge: BESSEL
     Using radial grid of 1095 points,  4 beta functions with:
                l(1) =   0
                l(2) =   0
                l(3) =   1
                l(4) =   1
     Q(r) pseudized with 0 coefficients

     atomic species   valence    mass     pseudopotential
        Cu            11.00    63.54600     Cu( 1.00)
        O              6.00    15.99900     O ( 1.00)

     No symmetry found

                                    s                        frac. trans.

      isym =  1     identity

 cryst.   s( 1) = (     1          0          0      )
                  (     0          1          0      )
                  (     0          0          1      )

 cart.    s( 1) = (  1.0000000  0.0000000  0.0000000 )
                  (  0.0000000  1.0000000  0.0000000 )
                  (  0.0000000  0.0000000  1.0000000 )

   Cartesian axes

     site n.     atom                  positions (alat units)
         1           Cu  tau(   1) = (   0.8484499  -0.1808095   0.3438990  )
         2           Cu  tau(   2) = (   0.8356555   0.2284466   0.2779640  )
         3           Cu  tau(   3) = (   1.1643455   0.0733123   0.3522459  )
         4           Cu  tau(   4) = (   1.1515491   0.3812734   0.0747608  )
         5           O   tau(   5) = (   1.5000000   0.1372349   0.2866088  )
         6           O   tau(   6) = (   1.3849665   0.3822896   0.0101379  )
         7           O   tau(   7) = (   1.0893076  -0.1527104   0.3963341  )
         8           O   tau(   8) = (   1.0000000   0.0865874   0.1808339  )
         9           O   tau(   9) = (   0.9106924   0.4045046   0.1295268  )
        10           O   tau(  10) = (   0.6150335  -0.2317901   0.3041733  )

   Crystallographic axes

     site n.     atom                  positions (cryst. coord.)
         1           Cu  tau(   1) = (  0.4174630  0.1766980  0.8128090  )
         2           Cu  tau(   2) = (  0.0733020  0.8325370  0.6569710  )
         3           Cu  tau(   3) = (  0.4371910  0.6569710  0.8325370  )
         4           Cu  tau(   4) = (  0.5930290  0.8128090  0.1766980  )
         5           O   tau(   5) = (  0.8225970  0.6774030  0.6774030  )
         6           O   tau(   6) = (  0.9438620  0.7189170  0.0239610  )
         7           O   tau(   7) = (  0.5310830  0.3061380  0.9367400  )
         8           O   tau(   8) = (  0.5725970  0.4274030  0.4274030  )
         9           O   tau(   9) = (  0.2260390  0.9367400  0.3061380  )
        10           O   tau(  10) = (  0.3132600  0.0239610  0.7189170  )

     number of k points=    14
                       cart. coord. in units 2pi/alat
        k(    1) = (   0.0000000   0.0000000   0.0000000), wk =   0.0740741
        k(    2) = (   0.0000000   0.0000000   0.7878370), wk =   0.1481481
        k(    3) = (   0.0000000   0.6137529   0.4939581), wk =   0.1481481
        k(    4) = (   0.0000000   0.6137529   1.2817951), wk =   0.1481481
        k(    5) = (   0.0000000   0.6137529  -0.2938789), wk =   0.1481481
        k(    6) = (   0.3333333  -0.3684018  -0.6114378), wk =   0.1481481
        k(    7) = (   0.3333333  -0.3684018   0.1763992), wk =   0.1481481
        k(    8) = (   0.3333333  -0.3684018  -1.3992748), wk =   0.1481481
        k(    9) = (   0.3333333   0.2453511  -0.1174797), wk =   0.1481481
        k(   10) = (   0.3333333   0.2453511   0.6703573), wk =   0.1481481
        k(   11) = (   0.3333333   0.2453511  -0.9053167), wk =   0.1481481
        k(   12) = (   0.3333333  -0.9821546  -1.1053959), wk =   0.1481481
        k(   13) = (   0.3333333  -0.9821546  -0.3175589), wk =   0.1481481
        k(   14) = (   0.3333333  -0.9821546  -1.8932329), wk =   0.1481481

                       cryst. coord.
        k(    1) = (   0.0000000   0.0000000   0.0000000), wk =   0.0740741
        k(    2) = (   0.0000000   0.0000000   0.3333333), wk =   0.1481481
        k(    3) = (   0.0000000   0.3333333   0.0000000), wk =   0.1481481
        k(    4) = (   0.0000000   0.3333333   0.3333333), wk =   0.1481481
        k(    5) = (   0.0000000   0.3333333  -0.3333333), wk =   0.1481481
        k(    6) = (   0.3333333   0.0000000   0.0000000), wk =   0.1481481
        k(    7) = (   0.3333333   0.0000000   0.3333333), wk =   0.1481481
        k(    8) = (   0.3333333   0.0000000  -0.3333333), wk =   0.1481481
        k(    9) = (   0.3333333   0.3333333   0.0000000), wk =   0.1481481
        k(   10) = (   0.3333333   0.3333333   0.3333333), wk =   0.1481481
        k(   11) = (   0.3333333   0.3333333  -0.3333333), wk =   0.1481481
        k(   12) = (   0.3333333  -0.3333333  -0.0000000), wk =   0.1481481
        k(   13) = (   0.3333333  -0.3333333   0.3333333), wk =   0.1481481
        k(   14) = (   0.3333333  -0.3333333  -0.3333333), wk =   0.1481481

     Check: negative core charge=   -0.000009

     Initial potential from superposition of free atoms

     starting charge      79.9991, renormalised to      80.0000
     Starting wfcs are   60 randomized atomic wfcs +    4 random wfcs
     Checking if some PAW data can be deallocated...

     Self-consistent Calculation

     iteration #  1     ecut=    30.00 Ry     beta= 0.70
     Davidson diagonalization with overlap

     ethr =  1.00E-02,  avg # of iterations =  6.1

     total energy              =   -1097.60015084 Ry
     estimated scf accuracy    <       5.52902863 Ry

[...]

     total energy              =   -1101.34875089 Ry
     estimated scf accuracy    <       0.00000260 Ry

     iteration # 14     ecut=    30.00 Ry     beta= 0.70
     Davidson diagonalization with overlap

     ethr =  3.25E-09,  avg # of iterations =  1.1

     End of self-consistent calculation

          k = 0.0000 0.0000 0.0000 (  1927 PWs)   bands (ev):

   -12.1240 -10.9461 -10.7560 -10.5216 -10.3556  -9.8684   0.3002   0.8180
     1.2419   1.8781   1.9215   2.0684   2.0977   2.1309   2.2923   3.0203
     3.0499   3.2028   3.6370   3.8941   3.9180   3.9712   4.3128   4.4423
     4.4487   4.6277   4.6663   4.9265   4.9454   5.1120   5.2611   5.4928
     5.4993   5.5652   5.9040   5.9997   6.1450   6.5133   6.7607   6.9261
     7.6926   8.2603   8.3074   8.5505  11.6291  15.0819  15.2933  16.0341
    16.1455  17.4657  18.0571  18.0967  18.4857  20.9198  22.1365  23.0901
    23.7871  23.8083  24.4136  25.0877  25.2687  25.2930  25.7331  26.0870

     occupation numbers
     1.0000   1.0000   1.0000   1.0000   1.0000   1.0000   1.0000   1.0000
     1.0000   1.0000   1.0000   1.0000   1.0000   1.0000   1.0000   1.0000
     1.0000   1.0000   1.0000   1.0000   1.0000   1.0000   1.0000   1.0000
     1.0000   1.0000   1.0000   1.0000   1.0000   1.0000   1.0000   1.0000
     1.0000   1.0000   1.0000   1.0000   1.0000   1.0000   1.0000   1.0000
     0.0000   0.0000   0.0000   0.0000   0.0000   0.0000   0.0000   0.0000
     0.0000   0.0000   0.0000   0.0000   0.0000   0.0000   0.0000   0.0000
     0.0000   0.0000   0.0000   0.0000   0.0000   0.0000   0.0000   0.0000

[...]

          k = 0.3333-0.9822-1.8932 (  1947 PWs)   bands (ev):

   -11.6621 -11.2751 -10.9193 -10.7216 -10.1070 -10.0096   1.0217   1.2008
     1.2523   1.4679   1.5532   1.9600   2.1787   2.2474   2.5745   2.7960
     3.2115   3.3296   3.5085   3.5440   3.7149   3.8715   4.2261   4.3994
     4.5567   4.5621   4.7947   5.0239   5.0907   5.1685   5.2420   5.3014
     5.4339   5.6313   5.7795   6.0634   6.3068   6.4311   6.7946   6.8932
     7.5890   7.7370   8.2292   8.3444  13.5829  14.5420  14.7526  15.1581
    15.7251  16.3856  18.8680  19.3387  20.7042  21.6762  21.9136  22.5920
    22.9317  23.1734  24.4038  24.5365  24.6234  24.8284  25.3835  25.6083

     occupation numbers
     1.0000   1.0000   1.0000   1.0000   1.0000   1.0000   1.0000   1.0000
     1.0000   1.0000   1.0000   1.0000   1.0000   1.0000   1.0000   1.0000
     1.0000   1.0000   1.0000   1.0000   1.0000   1.0000   1.0000   1.0000
     1.0000   1.0000   1.0000   1.0000   1.0000   1.0000   1.0000   1.0000
     1.0000   1.0000   1.0000   1.0000   1.0000   1.0000   1.0000   1.0000
     0.0000   0.0000   0.0000   0.0000   0.0000   0.0000   0.0000   0.0000
     0.0000   0.0000   0.0000   0.0000   0.0000   0.0000   0.0000   0.0000
     0.0000   0.0000   0.0000   0.0000   0.0000   0.0000   0.0000   0.0000

     highest occupied, lowest unoccupied level (ev):     6.9671    7.2489

!    total energy              =   -1101.34875114 Ry
     total all-electron energy =    -14141.949170 Ry
     estimated scf accuracy    <       0.00000036 Ry

     The total energy is the sum of the following terms:
     one-electron contribution =    -220.25268613 Ry
     hartree contribution      =     193.83695298 Ry
     xc contribution           =    -221.85071368 Ry
     ewald contribution        =    -436.40978327 Ry
     one-center paw contrib.   =    -416.67252105 Ry
      -> PAW hartree energy AE =     194.54052427 Ry
      -> PAW hartree energy PS =    -193.17196616 Ry
      -> PAW xc energy AE      =    -269.59643139 Ry
      -> PAW xc energy PS      =      88.49803313 Ry
      -> total E_H with PAW    =     195.20551110 Ry
      -> total E_XC with PAW   =    -402.94911195 Ry

     convergence has been achieved in  14 iterations

     Writing all to output data dir bands_nm/myprefix.save/

     General routines

     Parallel routines

     PAW routines

   This run was terminated on:  14:16: 8  16Jul2023

   JOB DONE.