     Program PWSCF v.7.1 starts on 15Jul2023 at 21:58:33

     Reading input from espresso_18745.pwi
Warning: card &CELL ignored
Warning: card / ignored

     Current dimensions of program PWSCF are:
     Max number of different atomic species (ntypx) = 10
     Max number of k-points (npk) =  40000
     Max angular momentum in pseudopotentials (lmaxx) =  4
     Message from routine setup:
     using ibrav=0 with symmetry is DISCOURAGED, use correct ibrav instead

     K-points division:     npool     =       2
     R & G space division:  proc/nbgrp/npool/nimage =       4
     Subspace diagonalization in iterative solution of the eigenvalue problem:
     one sub-group per band group will be used

     Using Slab Decomposition

     bravais-lattice index     =            0
     lattice parameter (alat)  =      16.9371  a.u.
     unit-cell volume          =    1662.4311 (a.u.)^3
     number of atoms/cell      =           20
     number of atomic types    =            3
     number of electrons       =       164.00
     number of Kohn-Sham states=          256
     kinetic-energy cutoff     =      30.0000  Ry
     charge density cutoff     =     240.0000  Ry
     scf convergence threshold =      1.0E-06
     mixing beta               =       0.7000
     number of iterations used =            8  plain     mixing
     Exchange-correlation=  SLA  PW   PBX  PBC
                           (   1   4   3   4   0   0   0)

     celldm(1)=  16.937134  celldm(2)=   0.000000  celldm(3)=   0.000000
     celldm(4)=   0.000000  celldm(5)=   0.000000  celldm(6)=   0.000000

     crystal axes: (cart. coord. in units of alat)
               a(1) = (   1.000000   0.000000   0.000000 )
               a(2) = (   0.836762   0.547567   0.000000 )
               a(3) = (   0.013699   0.004084   0.624865 )

     reciprocal axes: (cart. coord. in units 2 pi/alat)
               b(1) = (  1.000000 -1.528144 -0.011936 )
               b(2) = (  0.000000  1.826260 -0.011936 )
               b(3) = (  0.000000  0.000000  1.600345 )

     PseudoPot. # 1 for Li read from file:
     /lustre07/scratch/pragov/crystal_structure_design/utils/SSSP/li_pbe_v1.4.uspp.F.UPF
     MD5 check sum: e912e257baa3777c20ea3d68f190483c
     Pseudo is Ultrasoft, Zval =  3.0
     Generated by new atomic code, or converted to UPF format
     Using radial grid of  751 points,  5 beta functions with:
                l(1) =   0
                l(2) =   0
                l(3) =   0
                l(4) =   1
                l(5) =   1
     Q(r) pseudized with 10 coefficients,  rinner =    1.150   1.150   1.150

     PseudoPot. # 2 for Mn read from file:
     /lustre07/scratch/pragov/crystal_structure_design/utils/SSSP/mn_pbe_v1.5.uspp.F.UPF
     MD5 check sum: 82ef2b46521d7a7d9e736dc3972e4928
     Pseudo is Ultrasoft + core correction, Zval = 15.0
     Generated by new atomic code, or converted to UPF format
     Using radial grid of  859 points,  6 beta functions with:
                l(1) =   0
                l(2) =   0
                l(3) =   1
                l(4) =   1
                l(5) =   2
                l(6) =   2
     Q(r) pseudized with  8 coefficients,  rinner =    0.950   0.950   0.950
                                                       0.950   0.950

     PseudoPot. # 3 for F  read from file:
     /lustre07/scratch/pragov/crystal_structure_design/utils/SSSP/f_pbe_v1.4.uspp.F.UPF
     MD5 check sum: 4c38b6a325caf53ec0e86aed9459de46
     Pseudo is Ultrasoft, Zval =  7.0
     Generated by new atomic code, or converted to UPF format
     Using radial grid of  799 points,  4 beta functions with:
                l(1) =   0
                l(2) =   0
                l(3) =   1
                l(4) =   1
     Q(r) pseudized with  8 coefficients,  rinner =    0.950   0.950   0.950

     atomic species   valence    mass     pseudopotential
        Li             3.00     6.94000     Li( 1.00)
        Mn            15.00    54.93804     Mn( 1.00)
        F              7.00    18.99840     F ( 1.00)

      2 Sym. Ops., with inversion, found

                                    s                        frac. trans.

      isym =  1     identity

 cryst.   s( 1) = (     1          0          0      )
                  (     0          1          0      )
                  (     0          0          1      )

 cart.    s( 1) = (  1.0000000  0.0000000 -0.0000000 )
                  (  0.0000000  1.0000000 -0.0000000 )
                  (  0.0000000  0.0000000  1.0000000 )

      isym =  2     inversion

 cryst.   s( 2) = (    -1          0          0      )
                  (     0         -1          0      )
                  (     0          0         -1      )

 cart.    s( 2) = ( -1.0000000  0.0000000  0.0000000 )
                  (  0.0000000 -1.0000000  0.0000000 )
                  (  0.0000000  0.0000000 -1.0000000 )

   Cartesian axes

     site n.     atom                  positions (alat units)
         1           Li  tau(   1) = (   0.5000000   0.0000000   0.0000000  )
         2           Li  tau(   2) = (   0.4252304   0.2758256   0.3124326  )
         3           Mn  tau(   3) = (   0.6949230   0.3529942   0.4907910  )
         4           Mn  tau(   4) = (   0.7679234   0.0831031   0.1783584  )
         5           Mn  tau(   5) = (   1.0825374   0.4685481   0.4465068  )
         6           Mn  tau(   6) = (   1.1555378   0.1986570   0.1340742  )
         7           F   tau(   7) = (   0.7667241   0.2693648   0.0372813  )
         8           F   tau(   8) = (   0.7959103   0.1964809   0.3497140  )
         9           F   tau(   9) = (   1.5704185   0.5121943   0.0039210  )
        10           F   tau(  10) = (   1.6013764   0.4333672   0.3163536  )
        11           F   tau(  11) = (   0.5601770   0.1022125   0.1900609  )
        12           F   tau(  12) = (   0.5315524   0.2232491   0.5024935  )
        13           F   tau(  13) = (   1.3189084   0.3284022   0.1223717  )
        14           F   tau(  14) = (   1.2902839   0.4494387   0.4348043  )
        15           F   tau(  15) = (   0.2490844   0.1182840   0.3085116  )
        16           F   tau(  16) = (   0.2800423   0.0394569   0.6209442  )
        17           F   tau(  17) = (   1.0545505   0.3551703   0.2751513  )
        18           F   tau(  18) = (   1.0837367   0.2822865   0.5875839  )
        19           F   tau(  19) = (   0.8665490   0.4851757   0.4686489  )
        20           F   tau(  20) = (   0.9839118   0.0664755   0.1562163  )

   Crystallographic axes

     site n.     atom                  positions (cryst. coord.)
         1           Li  tau(   1) = (  0.5000000  0.0000000  0.0000000  )
         2           Li  tau(   2) = ( -0.0000000  0.5000000  0.5000000  )
         3           Mn  tau(   3) = (  0.1496390  0.6388010  0.7854350  )
         4           Mn  tau(   4) = (  0.6388010  0.1496390  0.2854350  )
         5           Mn  tau(   5) = (  0.3611990  0.8503610  0.7145650  )
         6           Mn  tau(   6) = (  0.8503610  0.3611990  0.2145650  )
         7           F   tau(   7) = (  0.3546510  0.4914850  0.0596630  )
         8           F   tau(   8) = (  0.4914850  0.3546510  0.5596630  )
         9           F   tau(   9) = (  0.7876650  0.9353530  0.0062750  )
        10           F   tau(  10) = (  0.9353530  0.7876650  0.5062750  )
        11           F   tau(  11) = (  0.4017130  0.1843980  0.3041630  )
        12           F   tau(  12) = (  0.1843980  0.4017130  0.8041630  )
        13           F   tau(  13) = (  0.8156020  0.5982870  0.1958370  )
        14           F   tau(  14) = (  0.5982870  0.8156020  0.6958370  )
        15           F   tau(  15) = (  0.0646470  0.2123350  0.4937250  )
        16           F   tau(  16) = (  0.2123350  0.0646470  0.9937250  )
        17           F   tau(  17) = (  0.5085150  0.6453490  0.4403370  )
        18           F   tau(  18) = (  0.6453490  0.5085150  0.9403370  )
        19           F   tau(  19) = (  0.1195370  0.8804630  0.7500000  )
        20           F   tau(  20) = (  0.8804630  0.1195370  0.2500000  )

     number of k points=    14
                       cart. coord. in units 2pi/alat
        k(    1) = (   0.0000000   0.0000000   0.0000000), wk =   0.0740741
        k(    2) = (   0.0000000   0.0000000   0.5334484), wk =   0.1481481
        k(    3) = (   0.0000000   0.6087532  -0.0039786), wk =   0.1481481
        k(    4) = (   0.0000000   0.6087532   0.5294697), wk =   0.1481481
        k(    5) = (   0.0000000   0.6087532  -0.5374270), wk =   0.1481481
        k(    6) = (   0.3333333  -0.5093813  -0.0039786), wk =   0.1481481
        k(    7) = (   0.3333333  -0.5093813   0.5294697), wk =   0.1481481
        k(    8) = (   0.3333333  -0.5093813  -0.5374270), wk =   0.1481481
        k(    9) = (   0.3333333   0.0993719  -0.0079573), wk =   0.1481481
        k(   10) = (   0.3333333   0.0993719   0.5254911), wk =   0.1481481
        k(   11) = (   0.3333333   0.0993719  -0.5414056), wk =   0.1481481
        k(   12) = (   0.3333333  -1.1181345   0.0000000), wk =   0.1481481
        k(   13) = (   0.3333333  -1.1181345   0.5334484), wk =   0.1481481
        k(   14) = (   0.3333333  -1.1181345  -0.5334484), wk =   0.1481481

                       cryst. coord.
        k(    1) = (   0.0000000   0.0000000   0.0000000), wk =   0.0740741
        k(    2) = (   0.0000000   0.0000000   0.3333333), wk =   0.1481481
        k(    3) = (   0.0000000   0.3333333   0.0000000), wk =   0.1481481
        k(    4) = (   0.0000000   0.3333333   0.3333333), wk =   0.1481481
        k(    5) = (   0.0000000   0.3333333  -0.3333333), wk =   0.1481481
        k(    6) = (   0.3333333   0.0000000   0.0000000), wk =   0.1481481
        k(    7) = (   0.3333333   0.0000000   0.3333333), wk =   0.1481481
        k(    8) = (   0.3333333   0.0000000  -0.3333333), wk =   0.1481481
        k(    9) = (   0.3333333   0.3333333   0.0000000), wk =   0.1481481
        k(   10) = (   0.3333333   0.3333333   0.3333333), wk =   0.1481481
        k(   11) = (   0.3333333   0.3333333  -0.3333333), wk =   0.1481481
        k(   12) = (   0.3333333  -0.3333333   0.0000000), wk =   0.1481481
        k(   13) = (   0.3333333  -0.3333333   0.3333333), wk =   0.1481481
        k(   14) = (   0.3333333  -0.3333333  -0.3333333), wk =   0.1481481

     Check: negative core charge=   -0.000017

     Initial potential from superposition of free atoms

     starting charge     161.0982, renormalised to     164.0000
     Starting wfcs are  118 randomized atomic wfcs +  138 random wfcs

     Self-consistent Calculation

     iteration #  1     ecut=    30.00 Ry     beta= 0.70
     Davidson diagonalization with overlap

     ethr =  1.00E-02,  avg # of iterations =  6.0

     total energy              =   -1552.14460807 Ry
     estimated scf accuracy    <       4.87536726 Ry

[...]

     total energy              =   -1554.98443626 Ry
     estimated scf accuracy    <       0.00001287 Ry

     iteration # 25     ecut=    30.00 Ry     beta= 0.70
     Davidson diagonalization with overlap

     ethr =  2.08E-09,  avg # of iterations =  1.2

     End of self-consistent calculation

          k = 0.0000 0.0000 0.0000 (  4623 PWs)   bands (ev):

   -75.9055 -75.9053 -75.9051 -75.9049 -44.7344 -44.7322 -44.7293 -44.7288
   -44.6399 -44.6366 -44.6343 -44.6334 -44.4799 -44.4793 -44.4768 -44.4767
   -40.0265 -40.0246 -19.7650 -19.5811 -19.3268 -19.2719 -19.2354 -19.2313
   -19.2287 -19.1700 -19.1498 -19.1236 -18.5819 -18.4829 -18.4770 -18.4357
    -3.0272  -3.0179  -2.5493  -2.4600  -2.4336  -2.2851  -1.9104  -1.8489
    -1.8074  -1.7520  -1.7342  -1.6681  -1.5917  -1.5815  -1.5582  -1.0697
    -1.0643  -0.9701  -0.9017  -0.7237  -0.6650  -0.6017  -0.4494  -0.3599
    -0.2476  -0.2334  -0.1574  -0.0062   0.0010   0.0534   0.1236   0.2630
     0.2650   0.2791   0.4140   0.4578   0.4646   0.5145   0.6503   0.7391
     0.8884   0.9043   3.4371   3.4673   3.6645   3.6760   3.7414   3.8979
     3.9204   3.9603   4.0790   4.1007   4.1888   4.2079   4.5592   4.6006
     5.0625   5.1947   5.7133   6.2419   6.3560   6.3844   8.9821  11.3277
    11.9775  13.3972  14.1025  14.1795  14.2583  14.6744  14.7712  15.3773
    15.4105  15.4726  16.0246  16.3560  16.7254  16.8080  16.8401  16.8948
    17.2633  17.6944  17.7711  17.7983  18.1131  18.1890  18.3952  18.5735
    19.0686  19.2161  19.2548  19.2711  19.3216  19.4439  20.5886  20.6280
    20.9477  21.1296  21.5425  21.6336  22.3826  22.7819  23.1778  23.4174
    23.6390  23.9788  24.1010  24.9544  24.9840  25.0128  25.2759  26.0478
    26.1824  26.6346  27.1078  27.1617  27.2311  27.3856  27.4630  27.5177
    27.7737  28.2561  28.2594  28.2788  29.0051  29.1715  29.3155  29.4263
    29.5297  29.5908  29.7534  29.8340  30.1638  30.3158  30.7343  30.8881
    31.0372  31.0563  31.3220  31.5969  31.7599  31.7827  31.8847  32.0435
    32.3974  32.7287  32.8439  32.9604  33.7223  34.0146  34.2782  34.4163
    34.8668  35.0385  35.2410  35.4105  35.4642  36.1561  36.1708  36.3556
    36.4244  36.4711  36.5913  36.8945  36.9798  37.0131  37.0700  37.1856
    37.5796  37.7625  37.8034  37.8908  38.0140  38.3327  38.6520  38.6922
    38.8202  39.0588  39.1828  39.2922  39.3648  39.6350  39.8198  39.9158
    39.9298  40.1208  40.5704  40.7830  40.8333  40.9759  41.3894  41.5559
    41.6321  41.6836  41.7429  41.7826  42.2107  42.2909  42.6932  42.8651
    42.8711  42.9044  43.5616  43.6118  43.6629  43.8396  44.1737  44.2107
    44.6505  44.7154  44.9804  45.0017  45.2489  45.3205  45.7028  46.0593
    46.2957  46.3346  46.6489  46.8396  46.9147  46.9425  47.0166  47.2946

     occupation numbers
     1.0000   1.0000   1.0000   1.0000   1.0000   1.0000   1.0000   1.0000
     1.0000   1.0000   1.0000   1.0000   1.0000   1.0000   1.0000   1.0000
     1.0000   1.0000   1.0000   1.0000   1.0000   1.0000   1.0000   1.0000
     1.0000   1.0000   1.0000   1.0000   1.0000   1.0000   1.0000   1.0000
     1.0000   1.0000   1.0000   1.0000   1.0000   1.0000   1.0000   1.0000
     1.0000   1.0000   1.0000   1.0000   1.0000   1.0000   1.0000   1.0000
     1.0000   1.0000   1.0000   1.0000   1.0000   1.0000   1.0000   1.0000
     1.0000   1.0000   1.0000   1.0000   1.0000   1.0000   1.0000   1.0000
     1.0000   1.0000   1.0000   1.0000   1.0000   1.0000   1.0000   1.0000
     1.0000   1.0000   1.0000   1.0000   1.0000   1.0000   1.0000   1.0000
     1.0000   1.0000   0.0000   0.0000   0.0000   0.0000   0.0000   0.0000
     0.0000   0.0000   0.0000   0.0000   0.0000   0.0000   0.0000   0.0000
     0.0000   0.0000   0.0000   0.0000   0.0000   0.0000   0.0000   0.0000
     0.0000   0.0000   0.0000   0.0000   0.0000   0.0000   0.0000   0.0000
     0.0000   0.0000   0.0000   0.0000   0.0000   0.0000   0.0000   0.0000
     0.0000   0.0000   0.0000   0.0000   0.0000   0.0000   0.0000   0.0000
     0.0000   0.0000   0.0000   0.0000   0.0000   0.0000   0.0000   0.0000
     0.0000   0.0000   0.0000   0.0000   0.0000   0.0000   0.0000   0.0000
     0.0000   0.0000   0.0000   0.0000   0.0000   0.0000   0.0000   0.0000
     0.0000   0.0000   0.0000   0.0000   0.0000   0.0000   0.0000   0.0000
     0.0000   0.0000   0.0000   0.0000   0.0000   0.0000   0.0000   0.0000
     0.0000   0.0000   0.0000   0.0000   0.0000   0.0000   0.0000   0.0000
     0.0000   0.0000   0.0000   0.0000   0.0000   0.0000   0.0000   0.0000
     0.0000   0.0000   0.0000   0.0000   0.0000   0.0000   0.0000   0.0000
     0.0000   0.0000   0.0000   0.0000   0.0000   0.0000   0.0000   0.0000
     0.0000   0.0000   0.0000   0.0000   0.0000   0.0000   0.0000   0.0000
     0.0000   0.0000   0.0000   0.0000   0.0000   0.0000   0.0000   0.0000
     0.0000   0.0000   0.0000   0.0000   0.0000   0.0000   0.0000   0.0000
     0.0000   0.0000   0.0000   0.0000   0.0000   0.0000   0.0000   0.0000
     0.0000   0.0000   0.0000   0.0000   0.0000   0.0000   0.0000   0.0000
     0.0000   0.0000   0.0000   0.0000   0.0000   0.0000   0.0000   0.0000
     0.0000   0.0000   0.0000   0.0000   0.0000   0.0000   0.0000   0.0000

[...]

          k = 0.3333-1.1181-0.5334 (  4610 PWs)   bands (ev):

   -75.9053 -75.9052 -75.9051 -75.9051 -44.7340 -44.7325 -44.7310 -44.7308
   -44.6393 -44.6386 -44.6329 -44.6321 -44.4788 -44.4777 -44.4765 -44.4751
   -40.0257 -40.0253 -19.5913 -19.4847 -19.4474 -19.3449 -19.2523 -19.2340
   -19.2285 -19.2059 -19.1614 -19.1525 -18.5513 -18.5205 -18.4648 -18.4394
    -2.8241  -2.7968  -2.6980  -2.6034  -2.3880  -2.3355  -1.9071  -1.8813
    -1.8319  -1.7692  -1.7084  -1.5149  -1.4230  -1.2888  -1.2407  -1.1490
    -1.0773  -1.0029  -0.8542  -0.7991  -0.7478  -0.5448  -0.4906  -0.3809
    -0.3177  -0.2955  -0.2123  -0.1320  -0.0745  -0.0216   0.0255   0.1395
     0.1713   0.1853   0.3394   0.3923   0.4419   0.5042   0.6076   0.6268
     0.7742   0.8610   3.6611   3.6991   3.7534   3.7916   3.8497   3.9258
     3.9520   3.9642   4.0676   4.0931   4.1118   4.1557   4.7390   4.7488
     4.9768   4.9910   5.7673   5.8500   6.2290   6.3358  11.0726  11.2945
    12.4526  12.6737  12.8218  13.8397  13.9965  14.1613  14.4489  14.7741
    15.3417  15.4765  15.6006  15.8618  16.9679  17.0218  17.2076  17.2957
    17.5527  17.7122  17.9676  18.1687  18.2510  18.5515  18.8030  18.9940
    19.2067  19.2550  19.4562  19.6881  19.7737  20.1332  20.5753  20.7636
    21.0243  21.3762  21.9125  22.2474  22.3476  22.7016  22.8032  23.1348
    23.2887  23.3421  23.4965  24.3849  24.4275  24.5918  24.8041  24.8569
    25.2181  25.4504  25.6525  25.7568  26.0271  26.2722  26.7203  27.7488
    27.9797  28.1451  28.5835  28.6199  29.1010  29.3832  29.5273  29.5564
    29.7842  29.9263  30.2273  30.5914  30.8063  30.9101  31.3105  31.5070
    31.5469  31.9643  32.1279  32.2811  32.4210  32.7243  32.9335  33.0378
    33.1173  33.3038  33.4616  33.5873  34.0031  34.0966  34.6295  34.6670
    35.1078  35.2369  35.2766  35.3354  35.5436  35.7464  35.8499  36.0620
    36.1924  36.4258  36.5103  36.9120  37.1281  37.1413  37.1990  37.4026
    37.5314  37.6651  38.0221  38.1054  38.1912  38.5751  38.7684  38.8560
    39.1963  39.2047  39.4783  39.5161  39.6304  39.8027  40.1223  40.1756
    40.3504  40.4973  40.6732  40.8427  40.9430  41.1638  41.2638  41.6410
    41.6591  41.7627  42.0574  42.2627  42.4194  42.4853  42.7455  42.7886
    42.9141  43.2437  43.2732  43.4329  43.5334  43.6181  43.6902  43.9110
    44.0561  44.2284  44.3459  44.4424  44.8487  44.9517  45.0996  45.3652
    45.5335  45.6326  45.7022  45.8549  46.0833  46.1167  46.2472  46.3931

     occupation numbers
     1.0000   1.0000   1.0000   1.0000   1.0000   1.0000   1.0000   1.0000
     1.0000   1.0000   1.0000   1.0000   1.0000   1.0000   1.0000   1.0000
     1.0000   1.0000   1.0000   1.0000   1.0000   1.0000   1.0000   1.0000
     1.0000   1.0000   1.0000   1.0000   1.0000   1.0000   1.0000   1.0000
     1.0000   1.0000   1.0000   1.0000   1.0000   1.0000   1.0000   1.0000
     1.0000   1.0000   1.0000   1.0000   1.0000   1.0000   1.0000   1.0000
     1.0000   1.0000   1.0000   1.0000   1.0000   1.0000   1.0000   1.0000
     1.0000   1.0000   1.0000   1.0000   1.0000   1.0000   1.0000   1.0000
     1.0000   1.0000   1.0000   1.0000   1.0000   1.0000   1.0000   1.0000
     1.0000   1.0000   1.0000   1.0000   1.0000   1.0000   1.0000   1.0000
     1.0000   1.0000   0.0000   0.0000   0.0000   0.0000   0.0000   0.0000
     0.0000   0.0000   0.0000   0.0000   0.0000   0.0000   0.0000   0.0000
     0.0000   0.0000   0.0000   0.0000   0.0000   0.0000   0.0000   0.0000
     0.0000   0.0000   0.0000   0.0000   0.0000   0.0000   0.0000   0.0000
     0.0000   0.0000   0.0000   0.0000   0.0000   0.0000   0.0000   0.0000
     0.0000   0.0000   0.0000   0.0000   0.0000   0.0000   0.0000   0.0000
     0.0000   0.0000   0.0000   0.0000   0.0000   0.0000   0.0000   0.0000
     0.0000   0.0000   0.0000   0.0000   0.0000   0.0000   0.0000   0.0000
     0.0000   0.0000   0.0000   0.0000   0.0000   0.0000   0.0000   0.0000
     0.0000   0.0000   0.0000   0.0000   0.0000   0.0000   0.0000   0.0000
     0.0000   0.0000   0.0000   0.0000   0.0000   0.0000   0.0000   0.0000
     0.0000   0.0000   0.0000   0.0000   0.0000   0.0000   0.0000   0.0000
     0.0000   0.0000   0.0000   0.0000   0.0000   0.0000   0.0000   0.0000
     0.0000   0.0000   0.0000   0.0000   0.0000   0.0000   0.0000   0.0000
     0.0000   0.0000   0.0000   0.0000   0.0000   0.0000   0.0000   0.0000
     0.0000   0.0000   0.0000   0.0000   0.0000   0.0000   0.0000   0.0000
     0.0000   0.0000   0.0000   0.0000   0.0000   0.0000   0.0000   0.0000
     0.0000   0.0000   0.0000   0.0000   0.0000   0.0000   0.0000   0.0000
     0.0000   0.0000   0.0000   0.0000   0.0000   0.0000   0.0000   0.0000
     0.0000   0.0000   0.0000   0.0000   0.0000   0.0000   0.0000   0.0000
     0.0000   0.0000   0.0000   0.0000   0.0000   0.0000   0.0000   0.0000
     0.0000   0.0000   0.0000   0.0000   0.0000   0.0000   0.0000   0.0000

     highest occupied, lowest unoccupied level (ev):     4.0740    4.0550

!    total energy              =   -1554.98443590 Ry
     estimated scf accuracy    <       0.00000083 Ry

     The total energy is the sum of the following terms:
     one-electron contribution =   -1050.49480071 Ry
     hartree contribution      =     588.14344144 Ry
     xc contribution           =    -242.60478324 Ry
     ewald contribution        =    -850.02829339 Ry

     convergence has been achieved in  25 iterations

     Writing all to output data dir bands_nm/myprefix.save/

     General routines

     Parallel routines

   This run was terminated on:  22: 1:58  15Jul2023

   JOB DONE.