     Program PWSCF v.7.1 starts on 16Jul2023 at 13:27:36

     Reading input from espresso_23556.pwi
Warning: card &CELL ignored
Warning: card / ignored

     Current dimensions of program PWSCF are:
     Max number of different atomic species (ntypx) = 10
     Max number of k-points (npk) =  40000
     Max angular momentum in pseudopotentials (lmaxx) =  4
     file K.pbe-spn-kjpaw_psl.1.0.0.UPF: wavefunction(s)  3S renormalized
     file Lu.paw.z_25.atompaw.wentzcovitch.v1.2.upf: wavefunction(s)  6S 0P 5D 0D 0F renormalized
     file O.pbe-n-kjpaw_psl.0.1.UPF: wavefunction(s)  2P renormalized
     Message from routine setup:
     using ibrav=0 with symmetry is DISCOURAGED, use correct ibrav instead

     K-points division:     npool     =       2
     R & G space division:  proc/nbgrp/npool/nimage =       4
     Subspace diagonalization in iterative solution of the eigenvalue problem:
     a serial algorithm will be used

     Using Slab Decomposition

     bravais-lattice index     =            0
     lattice parameter (alat)  =      12.3386  a.u.
     unit-cell volume          =     419.3918 (a.u.)^3
     number of atoms/cell      =            4
     number of atomic types    =            3
     number of electrons       =        46.00
     number of Kohn-Sham states=           64
     kinetic-energy cutoff     =      30.0000  Ry
     charge density cutoff     =     240.0000  Ry
     scf convergence threshold =      1.0E-06
     mixing beta               =       0.7000
     number of iterations used =            8  plain     mixing
     Exchange-correlation= SLA  PW   PBX  PBC
                           (   1   4   3   4   0   0   0)

     celldm(1)=  12.338604  celldm(2)=   0.000000  celldm(3)=   0.000000
     celldm(4)=   0.000000  celldm(5)=   0.000000  celldm(6)=   0.000000

     crystal axes: (cart. coord. in units of alat)
               a(1) = (   1.000000   0.000000   0.000000 )
               a(2) = (   0.864867   0.502001   0.000000 )
               a(3) = (   0.864867   0.232812   0.444751 )

     reciprocal axes: (cart. coord. in units 2 pi/alat)
               b(1) = (  1.000000 -1.722838 -1.042760 )
               b(2) = (  0.000000  1.992027 -1.042760 )
               b(3) = (  0.000000  0.000000  2.248449 )

     PseudoPot. # 1 for K  read from file:
     /lustre07/scratch/pragov/crystal_structure_design/utils/SSSP/K.pbe-spn-kjpaw_psl.1.0.0.UPF
     MD5 check sum: 7d58810084cac21f60fbe77ea2b688fd
     Pseudo is Projector augmented-wave + core cor, Zval =  9.0
     Generated using "atomic" code by A. Dal Corso  v.5.1
     Shape of augmentation charge: PSQ
     Using radial grid of 1165 points,  6 beta functions with:
                l(1) =   0
                l(2) =   0
                l(3) =   1
                l(4) =   1
                l(5) =   2
                l(6) =   2
     Q(r) pseudized with 0 coefficients

     PseudoPot. # 2 for Lu read from file:
     /lustre07/scratch/pragov/crystal_structure_design/utils/SSSP/Lu.paw.z_25.atompaw.wentzcovitch.v1.2.upf
     MD5 check sum: a517b3205eadf2aa79773283867f4cbe
     Pseudo is Projector augmented-wave + core cor, Zval = 25.0
     Generated using ATOMPAW code
     Shape of augmentation charge: BESSEL
     Using radial grid of 1118 points,  8 beta functions with:
                l(1) =   0
                l(2) =   0
                l(3) =   1
                l(4) =   1
                l(5) =   2
                l(6) =   2
                l(7) =   3
                l(8) =   3
     Q(r) pseudized with 0 coefficients

     PseudoPot. # 3 for O  read from file:
     /lustre07/scratch/pragov/crystal_structure_design/utils/SSSP/O.pbe-n-kjpaw_psl.0.1.UPF
     MD5 check sum: 0234752ac141de4415c5fc33072bef88
     Pseudo is Projector augmented-wave + core cor, Zval =  6.0
     Generated using "atomic" code by A. Dal Corso  v.5.0.99 svn rev. 10869
     Shape of augmentation charge: BESSEL
     Using radial grid of 1095 points,  4 beta functions with:
                l(1) =   0
                l(2) =   0
                l(3) =   1
                l(4) =   1
     Q(r) pseudized with 0 coefficients

     atomic species   valence    mass     pseudopotential
        K              9.00    39.09830     K ( 1.00)
        Lu            25.00   174.96680     Lu( 1.00)
        O              6.00    15.99900     O ( 1.00)

      2 Sym. Ops., with inversion, found

                                    s                        frac. trans.

      isym =  1     identity

 cryst.   s( 1) = (     1          0          0      )
                  (     0          1          0      )
                  (     0          0          1      )

 cart.    s( 1) = (  1.0000000 -0.0000000  0.0000000 )
                  (  0.0000000  1.0000000  0.0000000 )
                  (  0.0000000  0.0000000  1.0000000 )

      isym =  2     inversion

 cryst.   s( 2) = (    -1          0          0      )
                  (     0         -1          0      )
                  (     0          0         -1      )

 cart.    s( 2) = ( -1.0000000  0.0000000 -0.0000000 )
                  (  0.0000000 -1.0000000  0.0000000 )
                  (  0.0000000  0.0000000 -1.0000000 )

   Cartesian axes

     site n.     atom                  positions (alat units)
         1           K   tau(   1) = (   0.0000000   0.0000000   0.0000000  )
         2           Lu  tau(   2) = (   1.3648669   0.3674069   0.2223756  )
         3           O   tau(   3) = (   0.6194749   0.1667557   0.1009300  )
         4           O   tau(   4) = (   2.1102589   0.5680580   0.3438211  )

   Crystallographic axes

     site n.     atom                  positions (cryst. coord.)
         1           K   tau(   1) = (  0.0000000  0.0000000  0.0000000  )
         2           Lu  tau(   2) = (  0.5000000  0.5000000  0.5000000  )
         3           O   tau(   3) = (  0.2269360  0.2269360  0.2269360  )
         4           O   tau(   4) = (  0.7730640  0.7730640  0.7730640  )

     number of k points=    14
                       cart. coord. in units 2pi/alat
        k(    1) = (   0.0000000   0.0000000   0.0000000), wk =   0.0740741
        k(    2) = (   0.0000000   0.0000000   0.7494828), wk =   0.1481481
        k(    3) = (   0.0000000   0.6640090  -0.3475867), wk =   0.1481481
        k(    4) = (   0.0000000   0.6640090   0.4018961), wk =   0.1481481
        k(    5) = (   0.0000000   0.6640090  -1.0970695), wk =   0.1481481
        k(    6) = (   0.3333333  -0.5742794  -0.3475867), wk =   0.1481481
        k(    7) = (   0.3333333  -0.5742794   0.4018961), wk =   0.1481481
        k(    8) = (   0.3333333  -0.5742794  -1.0970695), wk =   0.1481481
        k(    9) = (   0.3333333   0.0897296  -0.6951734), wk =   0.1481481
        k(   10) = (   0.3333333   0.0897296   0.0543095), wk =   0.1481481
        k(   11) = (   0.3333333   0.0897296  -1.4446562), wk =   0.1481481
        k(   12) = (   0.3333333  -1.2382884   0.0000000), wk =   0.1481481
        k(   13) = (   0.3333333  -1.2382884   0.7494828), wk =   0.1481481
        k(   14) = (   0.3333333  -1.2382884  -0.7494828), wk =   0.1481481

                       cryst. coord.
        k(    1) = (   0.0000000   0.0000000   0.0000000), wk =   0.0740741
        k(    2) = (   0.0000000   0.0000000   0.3333333), wk =   0.1481481
        k(    3) = (   0.0000000   0.3333333   0.0000000), wk =   0.1481481
        k(    4) = (   0.0000000   0.3333333   0.3333333), wk =   0.1481481
        k(    5) = (   0.0000000   0.3333333  -0.3333333), wk =   0.1481481
        k(    6) = (   0.3333333   0.0000000   0.0000000), wk =   0.1481481
        k(    7) = (   0.3333333   0.0000000   0.3333333), wk =   0.1481481
        k(    8) = (   0.3333333   0.0000000  -0.3333333), wk =   0.1481481
        k(    9) = (   0.3333333   0.3333333   0.0000000), wk =   0.1481481
        k(   10) = (   0.3333333   0.3333333   0.3333333), wk =   0.1481481
        k(   11) = (   0.3333333   0.3333333  -0.3333333), wk =   0.1481481
        k(   12) = (   0.3333333  -0.3333333  -0.0000000), wk =   0.1481481
        k(   13) = (   0.3333333  -0.3333333   0.3333333), wk =   0.1481481
        k(   14) = (   0.3333333  -0.3333333  -0.3333333), wk =   0.1481481

     Check: negative core charge=   -0.000011

     Initial potential from superposition of free atoms

     starting charge      45.9774, renormalised to      46.0000
     Starting wfcs are   48 randomized atomic wfcs +   16 random wfcs
     Checking if some PAW data can be deallocated...

     Self-consistent Calculation

     iteration #  1     ecut=    30.00 Ry     beta= 0.70
     Davidson diagonalization with overlap

     ethr =  1.00E-02,  avg # of iterations =  7.0

     total energy              =   -1276.34222830 Ry
     estimated scf accuracy    <       1.06622025 Ry

[...]

     total energy              =   -1276.88244576 Ry
     estimated scf accuracy    <       0.00000644 Ry

     iteration #  7     ecut=    30.00 Ry     beta= 0.70
     Davidson diagonalization with overlap

     ethr =  1.40E-08,  avg # of iterations =  2.0

     End of self-consistent calculation

          k = 0.0000 0.0000 0.0000 (  1197 PWs)   bands (ev):

   -43.5929 -19.3100 -14.6504 -14.0774 -14.0774  -6.7305  -5.8245  -2.4930
    -2.4031  -2.4031   6.5394   7.4525   7.4525   7.5932   7.5932   7.6086
     7.9154   7.9767   7.9768   8.0782   9.5678   9.7343   9.7344  13.2243
    15.4513  16.0349  16.0349  17.2740  17.9796  18.3623  18.3623  19.4904
    19.4904  21.5914  21.5914  22.9574  22.9952  26.5371  26.5371  26.9839
    32.1140  32.1140  32.8393  33.6581  33.9614  33.9614  34.0320  34.9380
    36.5680  36.5680  36.9274  36.9275  40.3760  40.4152  40.4152  40.4987
    40.4987  42.3439  42.4001  43.2176  43.2176  43.8533  43.8533  46.4133

     occupation numbers
     1.0000   1.0000   1.0000   1.0000   1.0000   1.0000   1.0000   1.0000
     1.0000   1.0000   1.0000   1.0000   1.0000   1.0000   1.0000   1.0000
     1.0000   1.0000   1.0000   1.0000   1.0000   1.0000   1.0000   0.0000
     0.0000   0.0000   0.0000   0.0000   0.0000   0.0000   0.0000   0.0000
     0.0000   0.0000   0.0000   0.0000   0.0000   0.0000   0.0000   0.0000
     0.0000   0.0000   0.0000   0.0000   0.0000   0.0000   0.0000   0.0000
     0.0000   0.0000   0.0000   0.0000   0.0000   0.0000   0.0000   0.0000
     0.0000   0.0000   0.0000   0.0000   0.0000   0.0000   0.0000   0.0000

[...]

          k = 0.3333-1.2383-0.7495 (  1163 PWs)   bands (ev):

   -43.5707 -19.2001 -14.6723 -14.4739 -14.1773  -6.2601  -5.8589  -3.0434
    -2.5605  -2.5329   6.5969   7.4358   7.6313   7.6442   7.6942   7.8038
     7.9652   7.9757   8.1136   8.1830   8.4842   9.2702   9.5005  13.9979
    15.8743  16.2667  17.4750  17.7976  18.1129  19.0382  19.7439  20.3824
    20.6621  21.3047  21.3060  23.7206  24.8314  26.0477  27.2000  27.8299
    28.8331  29.2493  30.3797  31.9313  32.3722  33.4309  34.7196  35.1433
    35.3221  36.2069  37.1719  38.8355  39.2650  40.0631  40.6245  41.1747
    42.2140  42.5612  42.8187  43.6539  44.9428  45.6105  46.6447  47.8135

     occupation numbers
     1.0000   1.0000   1.0000   1.0000   1.0000   1.0000   1.0000   1.0000
     1.0000   1.0000   1.0000   1.0000   1.0000   1.0000   1.0000   1.0000
     1.0000   1.0000   1.0000   1.0000   1.0000   1.0000   1.0000   0.0000
     0.0000   0.0000   0.0000   0.0000   0.0000   0.0000   0.0000   0.0000
     0.0000   0.0000   0.0000   0.0000   0.0000   0.0000   0.0000   0.0000
     0.0000   0.0000   0.0000   0.0000   0.0000   0.0000   0.0000   0.0000
     0.0000   0.0000   0.0000   0.0000   0.0000   0.0000   0.0000   0.0000
     0.0000   0.0000   0.0000   0.0000   0.0000   0.0000   0.0000   0.0000

     highest occupied, lowest unoccupied level (ev):     9.7344   13.2243

!    total energy              =   -1276.88244713 Ry
     total all-electron energy =     -2585.814944 Ry
     estimated scf accuracy    <       0.00000034 Ry

     The total energy is the sum of the following terms:
     one-electron contribution =    -557.63606279 Ry
     hartree contribution      =     268.08600961 Ry
     xc contribution           =     -67.98007401 Ry
     ewald contribution        =    -352.73426731 Ry
     one-center paw contrib.   =    -566.61805263 Ry
      -> PAW hartree energy AE =      37.99618521 Ry
      -> PAW hartree energy PS =     -37.78532613 Ry
      -> PAW xc energy AE      =     -66.25670956 Ry
      -> PAW xc energy PS      =      10.62733648 Ry
      -> total E_H with PAW    =     268.29686868 Ry
      -> total E_XC with PAW   =    -123.60944709 Ry

     convergence has been achieved in   7 iterations

     Writing all to output data dir bands_nm/myprefix.save/

     General routines

     Parallel routines

     PAW routines

   This run was terminated on:  13:27:42  16Jul2023

   JOB DONE.