     Program PWSCF v.7.1 starts on 15Jul2023 at 18:51:21

     Reading input from espresso_25627.pwi
Warning: card &CELL ignored
Warning: card / ignored

     Current dimensions of program PWSCF are:
     Max number of different atomic species (ntypx) = 10
     Max number of k-points (npk) =  40000
     Max angular momentum in pseudopotentials (lmaxx) =  4
     file Fe.pbe-spn-kjpaw_psl.0.2.1.UPF: wavefunction(s)  3D renormalized
     file O.pbe-n-kjpaw_psl.0.1.UPF: wavefunction(s)  2P renormalized
     Message from routine setup:
     using ibrav=0 with symmetry is DISCOURAGED, use correct ibrav instead

     K-points division:     npool     =       2
     R & G space division:  proc/nbgrp/npool/nimage =       4
     Subspace diagonalization in iterative solution of the eigenvalue problem:
     one sub-group per band group will be used

     Using Slab Decomposition

     bravais-lattice index     =            0
     lattice parameter (alat)  =      13.8250  a.u.
     unit-cell volume          =    1499.0935 (a.u.)^3
     number of atoms/cell      =           18
     number of atomic types    =            3
     number of electrons       =       178.00
     number of Kohn-Sham states=          256
     kinetic-energy cutoff     =      30.0000  Ry
     charge density cutoff     =     240.0000  Ry
     scf convergence threshold =      1.0E-06
     mixing beta               =       0.7000
     number of iterations used =            8  plain     mixing
     Exchange-correlation=  SLA  PW   PBX  PBC
                           (   1   4   3   4   0   0   0)

     celldm(1)=  13.824951  celldm(2)=   0.000000  celldm(3)=   0.000000
     celldm(4)=   0.000000  celldm(5)=   0.000000  celldm(6)=   0.000000

     crystal axes: (cart. coord. in units of alat)
               a(1) = (   1.000000   0.000000   0.000000 )
               a(2) = (   0.216347   0.762148   0.000000 )
               a(3) = (   0.216347   0.163578   0.744387 )

     reciprocal axes: (cart. coord. in units 2 pi/alat)
               b(1) = (  1.000000 -0.283865 -0.228259 )
               b(2) = (  0.000000  1.312081 -0.288328 )
               b(3) = (  0.000000  0.000000  1.343388 )

     PseudoPot. # 1 for Fe read from file:
     /lustre07/scratch/pragov/crystal_structure_design/utils/SSSP/Fe.pbe-spn-kjpaw_psl.0.2.1.UPF
     MD5 check sum: e86618425769142926afa95317d90200
     Pseudo is Projector augmented-wave + core cor, Zval = 16.0
     Generated using "atomic" code by A. Dal Corso  v.5.0.99 svn rev. 10869
     Shape of augmentation charge: PSQ
     Using radial grid of 1191 points,  6 beta functions with:
                l(1) =   0
                l(2) =   0
                l(3) =   1
                l(4) =   1
                l(5) =   2
                l(6) =   2
     Q(r) pseudized with 0 coefficients

     PseudoPot. # 2 for O  read from file:
     /lustre07/scratch/pragov/crystal_structure_design/utils/SSSP/O.pbe-n-kjpaw_psl.0.1.UPF
     MD5 check sum: 0234752ac141de4415c5fc33072bef88
     Pseudo is Projector augmented-wave + core cor, Zval =  6.0
     Generated using "atomic" code by A. Dal Corso  v.5.0.99 svn rev. 10869
     Shape of augmentation charge: BESSEL
     Using radial grid of 1095 points,  4 beta functions with:
                l(1) =   0
                l(2) =   0
                l(3) =   1
                l(4) =   1
     Q(r) pseudized with 0 coefficients

     PseudoPot. # 3 for F  read from file:
     /lustre07/scratch/pragov/crystal_structure_design/utils/SSSP/f_pbe_v1.4.uspp.F.UPF
     MD5 check sum: 4c38b6a325caf53ec0e86aed9459de46
     Pseudo is Ultrasoft, Zval =  7.0
     Generated by new atomic code, or converted to UPF format
     Using radial grid of  799 points,  4 beta functions with:
                l(1) =   0
                l(2) =   0
                l(3) =   1
                l(4) =   1
     Q(r) pseudized with  8 coefficients,  rinner =    0.950   0.950   0.950

     atomic species   valence    mass     pseudopotential
        Fe            16.00    55.84500     Fe( 1.00)
        O              6.00    15.99900     O ( 1.00)
        F              7.00    18.99840     F ( 1.00)

      2 Sym. Ops., with inversion, found ( 1 have fractional translation)

                                    s                        frac. trans.

      isym =  1     identity

 cryst.   s( 1) = (     1          0          0      )
                  (     0          1          0      )
                  (     0          0          1      )

 cart.    s( 1) = (  1.0000000  0.0000000  0.0000000 )
                  (  0.0000000  1.0000000  0.0000000 )
                  (  0.0000000  0.0000000  1.0000000 )

      isym =  2     inversion

 cryst.   s( 2) = (    -1          0          0      )    f =( -0.3333340 )
                  (     0         -1          0      )       (  0.3333340 )
                  (     0          0         -1      )       (  0.3333340 )

 cart.    s( 2) = ( -1.0000000  0.0000000  0.0000000 )    f =( -0.1891024 )
                  (  0.0000000 -1.0000000 -0.0000000 )       (  0.3085759 )
                  (  0.0000000  0.0000000 -1.0000000 )       (  0.2481294 )

   Cartesian axes

     site n.     atom                  positions (alat units)
         1           Fe  tau(   1) = (   1.1267274   0.6209731   0.4993317  )
         2           Fe  tau(   2) = (   0.8108982   0.3085749   0.2481287  )
         3           Fe  tau(   3) = (   0.6002749   0.5977143   0.4806290  )
         4           Fe  tau(   4) = (   0.3108982   0.3085749   0.2481287  )
         5           Fe  tau(   5) = (   0.9277629   0.9219025   0.7413125  )
         6           Fe  tau(   6) = (   0.0215218   0.0194365   0.0156291  )
         7           O   tau(   7) = (   1.0591722   0.2328858   0.1872661  )
         8           O   tau(   8) = (   0.5626235   0.3842651   0.3089920  )
         9           F   tau(   9) = (   0.8108984   0.1304946   0.4695919  )
        10           F   tau(  10) = (   0.6064622   0.4324719   0.7288068  )
        11           F   tau(  11) = (   0.6899920   0.8152191   0.6555271  )
        12           F   tau(  12) = (   0.8835451   0.5182213   0.4167077  )
        13           F   tau(  13) = (   0.3644977   0.7276575   0.5851178  )
        14           F   tau(  14) = (   0.7382503   0.0989286   0.0795496  )
        15           F   tau(  15) = (   0.6064622   0.8046430   0.2659716  )
        16           F   tau(  16) = (   0.8108984   0.4866563   0.0266662  )
        17           F   tau(  17) = (   0.2316813   0.3482566   0.5118374  )
        18           F   tau(  18) = (   0.2316813   0.5746549   0.2302865  )

   Crystallographic axes

     site n.     atom                  positions (cryst. coord.)
         1           Fe  tau(   1) = (  0.8364780  0.6707960  0.6707960  )
         2           Fe  tau(   2) = (  0.6666670  0.3333330  0.3333330  )
         3           Fe  tau(   3) = (  0.3208970  0.6456710  0.6456710  )
         4           Fe  tau(   4) = (  0.1666670  0.3333330  0.3333330  )
         5           Fe  tau(   5) = (  0.4968560  0.9958700  0.9958700  )
         6           Fe  tau(   6) = (  0.0124370  0.0209960  0.0209960  )
         7           O   tau(   7) = (  0.9503190  0.2515710  0.2515710  )
         8           O   tau(   8) = (  0.3830140  0.4150960  0.4150960  )
         9           F   tau(   9) = (  0.6666670  0.0358230  0.6308440  )
        10           F   tau(  10) = (  0.3173420  0.3573030  0.9790700  )
        11           F   tau(  11) = (  0.3089500  0.8806270  0.8806270  )
        12           F   tau(  12) = (  0.6413230  0.5598000  0.5598000  )
        13           F   tau(  13) = (  0.0243830  0.7860400  0.7860400  )
        14           F   tau(  14) = (  0.6920100  0.1068660  0.1068660  )
        15           F   tau(  15) = (  0.3173420  0.9790700  0.3573030  )
        16           F   tau(  16) = (  0.6666670  0.6308440  0.0358230  )
        17           F   tau(  17) = (  0.0159920  0.3093640  0.6875960  )
        18           F   tau(  18) = (  0.0159920  0.6875960  0.3093640  )

     number of k points=    14
                       cart. coord. in units 2pi/alat
        k(    1) = (   0.0000000   0.0000000   0.0000000), wk =   0.0740741
        k(    2) = (   0.0000000   0.0000000   0.4477959), wk =   0.1481481
        k(    3) = (   0.0000000   0.4373604  -0.0961093), wk =   0.1481481
        k(    4) = (   0.0000000   0.4373604   0.3516866), wk =   0.1481481
        k(    5) = (   0.0000000   0.4373604  -0.5439052), wk =   0.1481481
        k(    6) = (   0.3333333  -0.0946216  -0.0760863), wk =   0.1481481
        k(    7) = (   0.3333333  -0.0946216   0.3717096), wk =   0.1481481
        k(    8) = (   0.3333333  -0.0946216  -0.5238822), wk =   0.1481481
        k(    9) = (   0.3333333   0.3427388  -0.1721956), wk =   0.1481481
        k(   10) = (   0.3333333   0.3427388   0.2756003), wk =   0.1481481
        k(   11) = (   0.3333333   0.3427388  -0.6199915), wk =   0.1481481
        k(   12) = (   0.3333333  -0.5319820   0.0200230), wk =   0.1481481
        k(   13) = (   0.3333333  -0.5319820   0.4678189), wk =   0.1481481
        k(   14) = (   0.3333333  -0.5319820  -0.4277729), wk =   0.1481481

                       cryst. coord.
        k(    1) = (   0.0000000   0.0000000   0.0000000), wk =   0.0740741
        k(    2) = (   0.0000000   0.0000000   0.3333333), wk =   0.1481481
        k(    3) = (   0.0000000   0.3333333   0.0000000), wk =   0.1481481
        k(    4) = (   0.0000000   0.3333333   0.3333333), wk =   0.1481481
        k(    5) = (   0.0000000   0.3333333  -0.3333333), wk =   0.1481481
        k(    6) = (   0.3333333   0.0000000  -0.0000000), wk =   0.1481481
        k(    7) = (   0.3333333   0.0000000   0.3333333), wk =   0.1481481
        k(    8) = (   0.3333333   0.0000000  -0.3333333), wk =   0.1481481
        k(    9) = (   0.3333333   0.3333333  -0.0000000), wk =   0.1481481
        k(   10) = (   0.3333333   0.3333333   0.3333333), wk =   0.1481481
        k(   11) = (   0.3333333   0.3333333  -0.3333333), wk =   0.1481481
        k(   12) = (   0.3333333  -0.3333333  -0.0000000), wk =   0.1481481
        k(   13) = (   0.3333333  -0.3333333   0.3333333), wk =   0.1481481
        k(   14) = (   0.3333333  -0.3333333  -0.3333333), wk =   0.1481481

     Check: negative core charge=   -0.000160

     Initial potential from superposition of free atoms

     starting charge     177.9974, renormalised to     178.0000
     Starting wfcs are  126 randomized atomic wfcs +  130 random wfcs
     Checking if some PAW data can be deallocated...

     Self-consistent Calculation

     iteration #  1     ecut=    30.00 Ry     beta= 0.70
     Davidson diagonalization with overlap

     ethr =  1.00E-02,  avg # of iterations =  6.0

     total energy              =   -2542.17228724 Ry
     estimated scf accuracy    <       2.41308651 Ry

[...]

     negative rho (up, down):  8.936E-04 0.000E+00

[...]

     total energy              =   -2543.22318701 Ry
     estimated scf accuracy    <       0.00000556 Ry

     iteration # 25     ecut=    30.00 Ry     beta= 0.70
     Davidson diagonalization with overlap

     ethr =  3.12E-09,  avg # of iterations =  1.0

     negative rho (up, down):  7.031E-05 0.000E+00

     End of self-consistent calculation

          k = 0.0000 0.0000 0.0000 (  4161 PWs)   bands (ev):

   -81.0283 -80.9712 -80.5934 -80.5904 -80.4032 -80.4013 -46.6849 -46.6685
   -46.5845 -46.5412 -46.5178 -46.3256 -46.2873 -46.2872 -46.2539 -46.2446
   -46.1279 -46.1075 -46.0154 -46.0025 -45.9543 -45.9541 -45.9509 -45.9378
   -17.3683 -17.0510 -17.0103 -16.9685 -16.9415 -16.8511 -16.8469 -16.8250
   -16.8231 -16.7952 -11.4093 -11.1036  -0.7444  -0.1328  -0.0552   0.1064
     0.1829   0.3722   0.5270   0.5565   0.5815   0.6847   0.7480   0.9294
     1.0293   1.1289   1.1561   1.2397   1.2424   1.3745   1.4980   1.5490
     1.6097   1.8373   1.9537   2.0081   2.0234   2.1838   2.4132   2.4794
     2.5334   2.6043   2.6369   2.9330   3.3631   3.7111   3.7824   4.1994
     5.4220   5.4559   5.5720   5.5798   5.6037   5.6919   5.6951   5.7555
     5.8268   5.9268   5.9304   5.9325   5.9717   6.0432   6.0608   6.2139
     6.3024   6.6376   6.8358   7.0050   7.1899   7.1955   7.2046   7.2997
     7.3355   7.6105   7.9843   8.0457   8.2333   8.6852   9.7550  13.7027
    13.9017  14.9777  15.1368  15.4727  15.7260  16.0626  16.2370  16.5330
    17.2967  17.3725  17.6300  17.9434  17.9727  18.4300  18.9282  18.9813
    19.4672  19.5009  19.9442  20.6705  20.7120  21.2524  21.5138  21.5746
    21.8351  21.9916  22.9180  23.1952  23.2391  24.1179  24.2445  24.4502
    24.7525  24.7702  25.2934  25.3688  27.2043  27.4819  27.5987  27.8190
    27.8231  27.9094  28.1000  28.1892  28.6706  28.8992  29.1401  29.3009
    29.4702  29.7380  29.8245  29.8426  30.2004  30.3190  30.4701  30.5660
    30.8504  31.0341  31.1323  31.6003  31.7016  31.9679  32.1161  32.3450
    32.6178  32.7857  33.2499  33.6714  33.7961  33.8448  34.1169  34.7675
    34.8921  35.1404  35.2940  36.0534  36.1390  36.3419  36.7988  36.9792
    37.3042  37.3814  37.4789  37.7668  37.9707  38.1431  38.3878  38.5642
    38.6650  38.7062  38.8987  38.9123  39.0881  39.3764  39.4194  39.8184
    39.9389  40.5345  40.8243  41.0326  41.0556  41.1311  41.2879  41.6822
    41.8427  41.8792  42.0388  42.0927  42.1383  42.3571  42.4503  42.8484
    42.8953  42.8984  42.9134  43.2126  43.2204  43.2281  43.4463  43.4741
    44.0185  44.2897  44.2989  44.9041  44.9169  44.9307  45.6663  45.8912
    46.1424  46.3673  46.4276  47.4382  47.4559  47.5111  47.7950  47.9118
    47.9375  48.2583  48.3609  48.6230  48.6310  49.0240  49.0455  49.5108
    49.5337  49.6066  49.6184  49.6409  49.9580  49.9708  50.1422  50.2177

     occupation numbers
     1.0000   1.0000   1.0000   1.0000   1.0000   1.0000   1.0000   1.0000
     1.0000   1.0000   1.0000   1.0000   1.0000   1.0000   1.0000   1.0000
     1.0000   1.0000   1.0000   1.0000   1.0000   1.0000   1.0000   1.0000
     1.0000   1.0000   1.0000   1.0000   1.0000   1.0000   1.0000   1.0000
     1.0000   1.0000   1.0000   1.0000   1.0000   1.0000   1.0000   1.0000
     1.0000   1.0000   1.0000   1.0000   1.0000   1.0000   1.0000   1.0000
     1.0000   1.0000   1.0000   1.0000   1.0000   1.0000   1.0000   1.0000
     1.0000   1.0000   1.0000   1.0000   1.0000   1.0000   1.0000   1.0000
     1.0000   1.0000   1.0000   1.0000   1.0000   1.0000   1.0000   1.0000
     1.0000   1.0000   1.0000   1.0000   1.0000   1.0000   1.0000   1.0000
     1.0000   1.0000   1.0000   1.0000   1.0000   1.0000   1.0000   1.0000
     1.0000   0.0000   0.0000   0.0000   0.0000   0.0000   0.0000   0.0000
     0.0000   0.0000   0.0000   0.0000   0.0000   0.0000   0.0000   0.0000
     0.0000   0.0000   0.0000   0.0000   0.0000   0.0000   0.0000   0.0000
     0.0000   0.0000   0.0000   0.0000   0.0000   0.0000   0.0000   0.0000
     0.0000   0.0000   0.0000   0.0000   0.0000   0.0000   0.0000   0.0000
     0.0000   0.0000   0.0000   0.0000   0.0000   0.0000   0.0000   0.0000
     0.0000   0.0000   0.0000   0.0000   0.0000   0.0000   0.0000   0.0000
     0.0000   0.0000   0.0000   0.0000   0.0000   0.0000   0.0000   0.0000
     0.0000   0.0000   0.0000   0.0000   0.0000   0.0000   0.0000   0.0000
     0.0000   0.0000   0.0000   0.0000   0.0000   0.0000   0.0000   0.0000
     0.0000   0.0000   0.0000   0.0000   0.0000   0.0000   0.0000   0.0000
     0.0000   0.0000   0.0000   0.0000   0.0000   0.0000   0.0000   0.0000
     0.0000   0.0000   0.0000   0.0000   0.0000   0.0000   0.0000   0.0000
     0.0000   0.0000   0.0000   0.0000   0.0000   0.0000   0.0000   0.0000
     0.0000   0.0000   0.0000   0.0000   0.0000   0.0000   0.0000   0.0000
     0.0000   0.0000   0.0000   0.0000   0.0000   0.0000   0.0000   0.0000
     0.0000   0.0000   0.0000   0.0000   0.0000   0.0000   0.0000   0.0000
     0.0000   0.0000   0.0000   0.0000   0.0000   0.0000   0.0000   0.0000
     0.0000   0.0000   0.0000   0.0000   0.0000   0.0000   0.0000   0.0000
     0.0000   0.0000   0.0000   0.0000   0.0000   0.0000   0.0000   0.0000
     0.0000   0.0000   0.0000   0.0000   0.0000   0.0000   0.0000   0.0000

[...]

          k = 0.3333-0.5320-0.4278 (  4173 PWs)   bands (ev):

   -81.0292 -80.9723 -80.5937 -80.5920 -80.4040 -80.4025 -46.6923 -46.6777
   -46.5881 -46.5511 -46.5138 -46.3178 -46.2956 -46.2886 -46.2578 -46.2541
   -46.1269 -46.1118 -46.0094 -46.0083 -45.9709 -45.9531 -45.9480 -45.9413
   -17.1859 -17.1502 -17.0628 -16.9841 -16.9460 -16.8920 -16.8406 -16.8239
   -16.8039 -16.8012 -11.3454 -11.1840  -0.2913  -0.1950  -0.0538  -0.0039
     0.1414   0.4492   0.5454   0.6431   0.6931   0.8440   0.9585   1.0213
     1.0650   1.0964   1.1167   1.2183   1.3939   1.4685   1.5267   1.6328
     1.7231   1.8040   1.8469   1.9295   2.0718   2.0838   2.1558   2.2368
     2.3446   2.4494   2.5428   2.6380   3.0865   3.4110   3.6576   3.8991
     5.4173   5.5317   5.5909   5.6618   5.6844   5.7308   5.7581   5.8417
     5.8656   5.8988   5.9415   5.9580   6.0359   6.1527   6.1586   6.2139
     6.3098   6.6235   6.9632   7.0255   7.1579   7.1946   7.2772   7.3337
     7.4051   7.6094   7.7384   7.9278   8.0018   8.4504  12.1715  12.2509
    13.4891  14.2282  14.5288  15.3466  15.5712  16.0204  16.8561  17.1449
    17.4809  17.4859  17.9372  18.2602  18.4851  18.5261  19.4965  19.7060
    19.9066  19.9898  20.2841  20.4887  20.7130  21.0046  21.4846  21.5163
    21.8573  22.1702  22.9220  23.1461  23.8274  24.1350  24.6051  24.6252
    24.6826  24.8613  24.9627  25.1382  25.1701  25.6721  25.7000  25.8391
    26.3223  26.9424  27.5540  27.7234  27.8749  28.1793  28.3787  28.4162
    29.0921  29.6317  29.9594  30.2489  30.3027  30.7556  31.0843  31.4437
    31.5474  31.6986  32.1045  32.2945  32.4643  32.8641  33.1036  33.4874
    33.9372  34.2036  34.3116  34.4704  34.5751  34.7067  35.0058  35.1258
    35.4383  35.5613  35.6371  35.7995  36.1850  36.4044  36.8289  36.8328
    36.9693  37.1259  37.6712  37.7247  38.0923  38.1175  38.4867  38.6217
    38.6409  38.7084  39.0313  39.3058  39.3762  39.3794  39.6994  39.8757
    39.9523  40.1167  40.4168  40.5661  40.6113  40.7549  40.9701  41.3521
    41.5281  41.6093  41.7154  41.9322  41.9782  42.1094  42.1095  42.3401
    42.6689  42.8139  42.8723  42.9652  43.1699  43.2949  43.4054  43.4072
    43.4581  44.0558  44.0783  44.3842  44.4596  44.8106  44.8689  45.2833
    45.3727  45.5815  45.6885  45.8332  46.5011  46.8068  46.8652  47.2215
    47.4399  47.8408  47.9000  47.9074  48.1980  48.8147  48.8690  49.1581
    49.2277  49.3670  49.7358  49.8318  50.0210  50.1671  50.1703  50.2569

     occupation numbers
     1.0000   1.0000   1.0000   1.0000   1.0000   1.0000   1.0000   1.0000
     1.0000   1.0000   1.0000   1.0000   1.0000   1.0000   1.0000   1.0000
     1.0000   1.0000   1.0000   1.0000   1.0000   1.0000   1.0000   1.0000
     1.0000   1.0000   1.0000   1.0000   1.0000   1.0000   1.0000   1.0000
     1.0000   1.0000   1.0000   1.0000   1.0000   1.0000   1.0000   1.0000
     1.0000   1.0000   1.0000   1.0000   1.0000   1.0000   1.0000   1.0000
     1.0000   1.0000   1.0000   1.0000   1.0000   1.0000   1.0000   1.0000
     1.0000   1.0000   1.0000   1.0000   1.0000   1.0000   1.0000   1.0000
     1.0000   1.0000   1.0000   1.0000   1.0000   1.0000   1.0000   1.0000
     1.0000   1.0000   1.0000   1.0000   1.0000   1.0000   1.0000   1.0000
     1.0000   1.0000   1.0000   1.0000   1.0000   1.0000   1.0000   1.0000
     1.0000   0.0000   0.0000   0.0000   0.0000   0.0000   0.0000   0.0000
     0.0000   0.0000   0.0000   0.0000   0.0000   0.0000   0.0000   0.0000
     0.0000   0.0000   0.0000   0.0000   0.0000   0.0000   0.0000   0.0000
     0.0000   0.0000   0.0000   0.0000   0.0000   0.0000   0.0000   0.0000
     0.0000   0.0000   0.0000   0.0000   0.0000   0.0000   0.0000   0.0000
     0.0000   0.0000   0.0000   0.0000   0.0000   0.0000   0.0000   0.0000
     0.0000   0.0000   0.0000   0.0000   0.0000   0.0000   0.0000   0.0000
     0.0000   0.0000   0.0000   0.0000   0.0000   0.0000   0.0000   0.0000
     0.0000   0.0000   0.0000   0.0000   0.0000   0.0000   0.0000   0.0000
     0.0000   0.0000   0.0000   0.0000   0.0000   0.0000   0.0000   0.0000
     0.0000   0.0000   0.0000   0.0000   0.0000   0.0000   0.0000   0.0000
     0.0000   0.0000   0.0000   0.0000   0.0000   0.0000   0.0000   0.0000
     0.0000   0.0000   0.0000   0.0000   0.0000   0.0000   0.0000   0.0000
     0.0000   0.0000   0.0000   0.0000   0.0000   0.0000   0.0000   0.0000
     0.0000   0.0000   0.0000   0.0000   0.0000   0.0000   0.0000   0.0000
     0.0000   0.0000   0.0000   0.0000   0.0000   0.0000   0.0000   0.0000
     0.0000   0.0000   0.0000   0.0000   0.0000   0.0000   0.0000   0.0000
     0.0000   0.0000   0.0000   0.0000   0.0000   0.0000   0.0000   0.0000
     0.0000   0.0000   0.0000   0.0000   0.0000   0.0000   0.0000   0.0000
     0.0000   0.0000   0.0000   0.0000   0.0000   0.0000   0.0000   0.0000
     0.0000   0.0000   0.0000   0.0000   0.0000   0.0000   0.0000   0.0000

     highest occupied, lowest unoccupied level (ev):     6.3321    6.6161

!    total energy              =   -2543.22318725 Ry
     estimated scf accuracy    <       0.00000011 Ry

     The total energy is the sum of the following terms:
     one-electron contribution =   -1289.05486376 Ry
     hartree contribution      =     725.13066740 Ry
     xc contribution           =    -315.71558017 Ry
     ewald contribution        =   -1188.10853020 Ry
     one-center paw contrib.   =    -475.47488051 Ry
      -> PAW hartree energy AE =     619.17381348 Ry
      -> PAW hartree energy PS =    -616.81618066 Ry
      -> PAW xc energy AE      =    -333.04591071 Ry
      -> PAW xc energy PS      =     102.48242269 Ry
      -> total E_H with PAW    =     727.48830022 Ry
      -> total E_XC with PAW   =    -546.27906819 Ry

     convergence has been achieved in  25 iterations

     Writing all to output data dir bands_nm/myprefix.save/

     General routines

     Parallel routines

     PAW routines

   This run was terminated on:  18:53:32  15Jul2023

   JOB DONE.