     Program PWSCF v.7.1 starts on 17Jul2023 at  1:41: 7

     Reading input from espresso_24108.pwi
Warning: card &CELL ignored
Warning: card / ignored

     Current dimensions of program PWSCF are:
     Max number of different atomic species (ntypx) = 10
     Max number of k-points (npk) =  40000
     Max angular momentum in pseudopotentials (lmaxx) =  4
     file Lu.paw.z_25.atompaw.wentzcovitch.v1.2.upf: wavefunction(s)  6S 0P 5D 0D 0F renormalized
     file Cu.paw.z_11.ld1.psl.v1.0.0-low.upf: wavefunction(s)  4S 3D renormalized
     file Pb.pbe-dn-kjpaw_psl.0.2.2.UPF: wavefunction(s)  6S renormalized
     Message from routine setup:
     using ibrav=0 with symmetry is DISCOURAGED, use correct ibrav instead

     K-points division:     npool     =       2
     R & G space division:  proc/nbgrp/npool/nimage =       4
     Subspace diagonalization in iterative solution of the eigenvalue problem:
     one sub-group per band group will be used

     Using Slab Decomposition

     bravais-lattice index     =            0
     lattice parameter (alat)  =      13.4012  a.u.
     unit-cell volume          =    1935.1976 (a.u.)^3
     number of atoms/cell      =           12
     number of atomic types    =            4
     number of electrons       =       136.00
     number of Kohn-Sham states=          256
     kinetic-energy cutoff     =      30.0000  Ry
     charge density cutoff     =     240.0000  Ry
     scf convergence threshold =      1.0E-06
     mixing beta               =       0.7000
     number of iterations used =            8  plain     mixing
     Exchange-correlation= SLA  PW   PBE  PBE
                           (   1   4   3   4   0   0   0)

     celldm(1)=  13.401156  celldm(2)=   0.000000  celldm(3)=   0.000000
     celldm(4)=   0.000000  celldm(5)=   0.000000  celldm(6)=   0.000000

     crystal axes: (cart. coord. in units of alat)
               a(1) = (   1.000000   0.000000   0.000000 )
               a(2) = (  -0.837956   0.545738   0.000000 )
               a(3) = (   0.000000   0.000000   1.473380 )

     reciprocal axes: (cart. coord. in units 2 pi/alat)
               b(1) = (  1.000000  1.535456  0.000000 )
               b(2) = (  0.000000  1.832383  0.000000 )
               b(3) = (  0.000000  0.000000  0.678712 )

     PseudoPot. # 1 for Lu read from file:
     /lustre07/scratch/pragov/crystal_structure_design/utils/SSSP/Lu.paw.z_25.atompaw.wentzcovitch.v1.2.upf
     MD5 check sum: a517b3205eadf2aa79773283867f4cbe
     Pseudo is Projector augmented-wave + core cor, Zval = 25.0
     Generated using ATOMPAW code
     Shape of augmentation charge: BESSEL
     Using radial grid of 1118 points,  8 beta functions with:
                l(1) =   0
                l(2) =   0
                l(3) =   1
                l(4) =   1
                l(5) =   2
                l(6) =   2
                l(7) =   3
                l(8) =   3
     Q(r) pseudized with 0 coefficients

     PseudoPot. # 2 for Cu read from file:
     /lustre07/scratch/pragov/crystal_structure_design/utils/SSSP/Cu.paw.z_11.ld1.psl.v1.0.0-low.upf
     MD5 check sum: 619f40885d92a09a85a8b37550532d0c
     Pseudo is Projector augmented-wave + core cor, Zval = 11.0
     Generated using &quot;atomic&quot; code by A. Dal Corso  v.6.3MaX
     Shape of augmentation charge: PSQ
     Using radial grid of 1199 points,  6 beta functions with:
                l(1) =   0
                l(2) =   0
                l(3) =   1
                l(4) =   1
                l(5) =   2
                l(6) =   2
     Q(r) pseudized with 0 coefficients

     PseudoPot. # 3 for Pb read from file:
     /lustre07/scratch/pragov/crystal_structure_design/utils/SSSP/Pb.pbe-dn-kjpaw_psl.0.2.2.UPF
     MD5 check sum: 9d431e6316058b74ade52399a6cf67da
     Pseudo is Projector augmented-wave + core cor, Zval = 14.0
     Generated using "atomic" code by A. Dal Corso  v.5.0.99 svn rev. 10869
     Shape of augmentation charge: PSQ
     Using radial grid of 1281 points,  6 beta functions with:
                l(1) =   0
                l(2) =   0
                l(3) =   1
                l(4) =   1
                l(5) =   2
                l(6) =   2
     Q(r) pseudized with 0 coefficients

     PseudoPot. # 4 for Se read from file:
     /lustre07/scratch/pragov/crystal_structure_design/utils/SSSP/Se_pbe_v1.uspp.F.UPF
     MD5 check sum: 1b3568f3a8ae88f9a2a0ad0698632c85
     Pseudo is Ultrasoft + core correction, Zval =  6.0
     Generated by new atomic code, or converted to UPF format
     Using radial grid of  877 points,  6 beta functions with:
                l(1) =   0
                l(2) =   0
                l(3) =   1
                l(4) =   1
                l(5) =   2
                l(6) =   2
     Q(r) pseudized with  8 coefficients,  rinner =    1.300   1.300   1.300
                                                       1.300   1.300

     atomic species   valence    mass     pseudopotential
        Lu            25.00   174.96680     Lu( 1.00)
        Cu            11.00    63.54600     Cu( 1.00)
        Pb            14.00   207.20000     Pb( 1.00)
        Se             6.00    78.97100     Se( 1.00)

      2 Sym. Ops. (no inversion) found ( 1 have fractional translation)

                                    s                        frac. trans.

      isym =  1     identity

 cryst.   s( 1) = (     1          0          0      )
                  (     0          1          0      )
                  (     0          0          1      )

 cart.    s( 1) = (  1.0000000  0.0000000  0.0000000 )
                  (  0.0000000  1.0000000  0.0000000 )
                  (  0.0000000  0.0000000  1.0000000 )

      isym =  2     180 deg rotation - cart. axis [0,0,1]

 cryst.   s( 2) = (    -1          0          0      )    f =( -0.0000000 )
                  (     0         -1          0      )       (  0.0000000 )
                  (     0          0          1      )       ( -0.5000000 )

 cart.    s( 2) = ( -1.0000000  0.0000000  0.0000000 )    f =( -0.0000000 )
                  (  0.0000000 -1.0000000  0.0000000 )       (  0.0000000 )
                  (  0.0000000  0.0000000  1.0000000 )       ( -0.7366898 )

   Cartesian axes

     site n.     atom                  positions (alat units)
         1           Lu  tau(   1) = (   0.0785039   0.2736164   0.7285302  )
         2           Lu  tau(   2) = (   0.0835399   0.2721211   1.4652200  )
         3           Cu  tau(   3) = (   0.9382300   0.0183411   0.3609220  )
         4           Cu  tau(   4) = (  -0.7761861   0.5273964   1.0976118  )
         5           Pb  tau(   5) = (  -0.3703967   0.4069068   0.3482451  )
         6           Pb  tau(   6) = (   0.5324405   0.1388307   1.0849349  )
         7           Se  tau(   7) = (  -0.5829361   0.4700154   0.8162818  )
         8           Se  tau(   8) = (  -0.5817726   0.4696699   1.3771723  )
         9           Se  tau(   9) = (  -0.0608756   0.3150019   1.1003965  )
        10           Se  tau(  10) = (   0.2229195   0.2307357   0.3637067  )
        11           Se  tau(  11) = (   0.7438165   0.0760676   0.6404825  )
        12           Se  tau(  12) = (   0.7449799   0.0757222   0.0795920  )

   Crystallographic axes

     site n.     atom                  positions (cryst. coord.)
         1           Lu  tau(   1) = (  0.4986300  0.5013700  0.4944620  )
         2           Lu  tau(   2) = (  0.5013700  0.4986300  0.9944620  )
         3           Cu  tau(   3) = (  0.9663920  0.0336080  0.2449620  )
         4           Cu  tau(   4) = (  0.0336080  0.9663920  0.7449620  )
         5           Pb  tau(   5) = (  0.2543910  0.7456090  0.2363580  )
         6           Pb  tau(   6) = (  0.7456090  0.2543910  0.7363580  )
         7           Se  tau(   7) = (  0.1387520  0.8612480  0.5540200  )
         8           Se  tau(   8) = (  0.1393850  0.8606150  0.9347030  )
         9           Se  tau(   9) = (  0.4227960  0.5772040  0.7468520  )
        10           Se  tau(  10) = (  0.5772040  0.4227960  0.2468520  )
        11           Se  tau(  11) = (  0.8606150  0.1393850  0.4347030  )
        12           Se  tau(  12) = (  0.8612480  0.1387520  0.0540200  )

     number of k points=    10
                       cart. coord. in units 2pi/alat
        k(    1) = (   0.0000000   0.0000000   0.0000000), wk =   0.0740741
        k(    2) = (   0.0000000   0.0000000   0.2262372), wk =   0.1481481
        k(    3) = (   0.0000000   0.6107942   0.0000000), wk =   0.1481481
        k(    4) = (   0.0000000   0.6107942   0.2262372), wk =   0.2962963
        k(    5) = (   0.3333333   0.5118188   0.0000000), wk =   0.1481481
        k(    6) = (   0.3333333   0.5118188   0.2262372), wk =   0.2962963
        k(    7) = (   0.3333333   1.1226130   0.0000000), wk =   0.1481481
        k(    8) = (   0.3333333   1.1226130   0.2262372), wk =   0.2962963
        k(    9) = (   0.3333333  -0.0989754   0.0000000), wk =   0.1481481
        k(   10) = (   0.3333333  -0.0989754   0.2262372), wk =   0.2962963

                       cryst. coord.
        k(    1) = (   0.0000000   0.0000000   0.0000000), wk =   0.0740741
        k(    2) = (   0.0000000   0.0000000   0.3333333), wk =   0.1481481
        k(    3) = (   0.0000000   0.3333333   0.0000000), wk =   0.1481481
        k(    4) = (   0.0000000   0.3333333   0.3333333), wk =   0.2962963
        k(    5) = (   0.3333333   0.0000000   0.0000000), wk =   0.1481481
        k(    6) = (   0.3333333   0.0000000   0.3333333), wk =   0.2962963
        k(    7) = (   0.3333333   0.3333333   0.0000000), wk =   0.1481481
        k(    8) = (   0.3333333   0.3333333   0.3333333), wk =   0.2962963
        k(    9) = (   0.3333333  -0.3333333   0.0000000), wk =   0.1481481
        k(   10) = (   0.3333333  -0.3333333   0.3333333), wk =   0.2962963

     Initial potential from superposition of free atoms

     starting charge     135.9869, renormalised to     136.0000
     Starting wfcs are  124 randomized atomic wfcs +  132 random wfcs
     Checking if some PAW data can be deallocated...

     Self-consistent Calculation

     iteration #  1     ecut=    30.00 Ry     beta= 0.70
     Davidson diagonalization with overlap

     c_bands:  3 eigenvalues not converged
     ethr =  1.00E-02,  avg # of iterations = 16.9

     Threshold (ethr) on eigenvalues was too large:
     Diagonalizing with lowered threshold

     Davidson diagonalization with overlap

     ethr =  3.89E-04,  avg # of iterations =  5.9

     total energy              =   -4589.81078211 Ry
     estimated scf accuracy    <       0.52838344 Ry

[...]

     total energy              =   -4590.01958998 Ry
     estimated scf accuracy    <       0.00000274 Ry

     iteration #  9     ecut=    30.00 Ry     beta= 0.70
     Davidson diagonalization with overlap

     ethr =  2.02E-09,  avg # of iterations =  2.4

     End of self-consistent calculation

          k = 0.0000 0.0000 0.0000 (  5355 PWs)   bands (ev):

   -47.0533 -47.0532 -17.7554 -17.7518 -17.7142 -17.7077 -17.6708 -17.6706
    -7.9939  -7.9936  -7.9787  -7.9784  -7.9749  -7.9741  -7.9529  -7.9526
    -7.9467  -7.9454  -4.3375  -3.6943  -3.5786  -3.3175  -3.2229  -2.9327
     0.7972   0.9285   4.1747   4.3615   4.3770   4.3824   4.3847   4.3859
     4.3883   4.4099   4.4103   4.4114   4.4126   4.4154   4.4182   4.4275
     4.4355   4.6180   5.0846   5.1934   5.4689   5.5056   5.8701   6.0786
     6.2661   6.4575   6.4615   6.6281   6.6372   6.7127   6.8639   6.9473
     7.4602   7.5013   7.5104   7.6213   8.2297   8.4592   8.4666   8.5173
     8.5365   8.9474   8.9970   9.0537  10.7781  10.9203  11.2119  11.3386
    11.7294  11.8413  11.8658  12.3692  12.4441  12.5562  12.7341  13.2552
    13.3870  13.7712  13.9556  14.1038  14.2668  14.5465  14.8418  15.1239
    15.3654  16.0719  16.2937  16.4425  16.4841  16.7288  16.7818  17.3028
    17.5625  17.9943  18.0763  18.2322  18.8307  19.0902  19.2920  19.5193
    19.7260  19.8313  19.9076  20.0911  20.1647  20.3508  20.4248  21.0769
    21.7965  21.9296  21.9643  21.9677  22.2247  22.2485  22.5881  22.9065
    23.1671  23.6567  23.7328  23.7347  24.1141  24.4648  24.5220  24.5493
    24.6656  25.0307  25.3937  25.9158  26.0488  26.1169  26.4396  26.6739
    26.7685  26.8380  27.1021  27.5931  27.8272  28.1243  28.1550  28.6097
    28.7714  29.1304  29.3207  29.3955  29.5597  29.8560  30.0913  30.1332
    30.4134  30.5165  30.6625  30.7898  30.8339  30.8474  31.1762  31.5786
    31.6245  31.8342  32.0776  32.2595  32.3010  32.4305  32.5262  32.5998
    32.8936  33.0198  33.3382  34.0385  34.2934  34.3850  34.5758  34.6100
    34.6765  34.7858  34.7889  34.8215  35.2171  35.2747  35.6038  35.7867
    35.8846  36.1153  36.2472  36.2520  36.4187  36.7004  36.8151  37.0651
    37.2579  37.6087  37.6091  37.6339  37.7562  37.8367  37.9280  38.1409
    38.2227  38.3993  38.4297  38.6035  38.7151  38.8990  38.9487  39.0620
    39.5861  39.5998  39.6360  39.7818  40.0628  40.1455  40.3011  40.5383
    40.6236  40.6332  40.6554  40.6768  41.0414  41.0516  41.0725  41.1309
    41.2631  41.4038  41.4131  41.4946  41.6811  41.6985  41.7359  41.7952
    41.8001  41.8010  41.8321  41.8421  41.8920  42.0579  42.0738  42.1209
    42.1979  42.2100  42.2342  42.2891  42.3017  42.3648  42.4840  42.5016
    42.5181  42.5477  42.5491  42.6120  42.7045  42.7519  42.7781  42.8300

     occupation numbers
     1.0000   1.0000   1.0000   1.0000   1.0000   1.0000   1.0000   1.0000
     1.0000   1.0000   1.0000   1.0000   1.0000   1.0000   1.0000   1.0000
     1.0000   1.0000   1.0000   1.0000   1.0000   1.0000   1.0000   1.0000
     1.0000   1.0000   1.0000   1.0000   1.0000   1.0000   1.0000   1.0000
     1.0000   1.0000   1.0000   1.0000   1.0000   1.0000   1.0000   1.0000
     1.0000   1.0000   1.0000   1.0000   1.0000   1.0000   1.0000   1.0000
     1.0000   1.0000   1.0000   1.0000   1.0000   1.0000   1.0000   1.0000
     1.0000   1.0000   1.0000   1.0000   1.0000   1.0000   1.0000   1.0000
     1.0000   1.0000   1.0000   1.0000   0.0000   0.0000   0.0000   0.0000
     0.0000   0.0000   0.0000   0.0000   0.0000   0.0000   0.0000   0.0000
     0.0000   0.0000   0.0000   0.0000   0.0000   0.0000   0.0000   0.0000
     0.0000   0.0000   0.0000   0.0000   0.0000   0.0000   0.0000   0.0000
     0.0000   0.0000   0.0000   0.0000   0.0000   0.0000   0.0000   0.0000
     0.0000   0.0000   0.0000   0.0000   0.0000   0.0000   0.0000   0.0000
     0.0000   0.0000   0.0000   0.0000   0.0000   0.0000   0.0000   0.0000
     0.0000   0.0000   0.0000   0.0000   0.0000   0.0000   0.0000   0.0000
     0.0000   0.0000   0.0000   0.0000   0.0000   0.0000   0.0000   0.0000
     0.0000   0.0000   0.0000   0.0000   0.0000   0.0000   0.0000   0.0000
     0.0000   0.0000   0.0000   0.0000   0.0000   0.0000   0.0000   0.0000
     0.0000   0.0000   0.0000   0.0000   0.0000   0.0000   0.0000   0.0000
     0.0000   0.0000   0.0000   0.0000   0.0000   0.0000   0.0000   0.0000
     0.0000   0.0000   0.0000   0.0000   0.0000   0.0000   0.0000   0.0000
     0.0000   0.0000   0.0000   0.0000   0.0000   0.0000   0.0000   0.0000
     0.0000   0.0000   0.0000   0.0000   0.0000   0.0000   0.0000   0.0000
     0.0000   0.0000   0.0000   0.0000   0.0000   0.0000   0.0000   0.0000
     0.0000   0.0000   0.0000   0.0000   0.0000   0.0000   0.0000   0.0000
     0.0000   0.0000   0.0000   0.0000   0.0000   0.0000   0.0000   0.0000
     0.0000   0.0000   0.0000   0.0000   0.0000   0.0000   0.0000   0.0000
     0.0000   0.0000   0.0000   0.0000   0.0000   0.0000   0.0000   0.0000
     0.0000   0.0000   0.0000   0.0000   0.0000   0.0000   0.0000   0.0000
     0.0000   0.0000   0.0000   0.0000   0.0000   0.0000   0.0000   0.0000
     0.0000   0.0000   0.0000   0.0000   0.0000   0.0000   0.0000   0.0000

[...]

          k = 0.3333-0.0990 0.2262 (  5384 PWs)   bands (ev):

   -47.0533 -47.0533 -17.7545 -17.7527 -17.7127 -17.7094 -17.6708 -17.6707
    -7.9940  -7.9938  -7.9780  -7.9767  -7.9756  -7.9747  -7.9528  -7.9527
    -7.9464  -7.9457  -4.0509  -3.8234  -3.5417  -3.4442  -3.2279  -3.1177
     0.7571   0.9701   4.3454   4.3627   4.3751   4.3778   4.3820   4.3837
     4.3864   4.4024   4.4103   4.4109   4.4126   4.4146   4.4285   4.4327
     4.4729   4.7756   5.0949   5.4320   5.6607   5.9948   6.0480   6.0657
     6.1647   6.3666   6.5541   6.6513   6.6915   6.7135   6.9455   6.9706
     7.0339   7.0785   7.7100   7.8206   7.9153   8.0660   8.0908   8.3749
     8.5326   8.6817   8.7473   9.0215  10.6607  10.9424  11.0273  11.1577
    11.4760  11.9267  12.0107  12.2745  12.6794  12.6839  12.9410  13.1865
    13.7527  13.8179  14.2697  14.6907  14.7076  14.8427  15.0053  15.0362
    15.1365  15.5378  15.7685  16.0994  16.2071  16.6619  16.7487  17.2899
    17.5288  18.1791  18.3697  18.5169  18.8807  19.2192  19.2567  19.3651
    19.4854  19.7596  19.9900  20.2058  20.7035  20.7967  21.0930  21.2098
    21.4392  21.4934  21.7349  22.2790  22.4103  22.6525  22.7820  23.0295
    23.2847  23.6070  23.9398  24.1258  24.2648  24.2851  24.3968  24.7080
    25.0495  25.2982  25.7323  25.7475  25.8681  26.0690  26.3297  26.4467
    26.7759  26.9337  27.2189  27.2402  27.4580  27.8620  27.8691  28.1184
    28.1837  28.3241  28.3519  28.4947  28.8271  29.1490  29.1769  29.4576
    29.7942  29.9647  30.0471  30.1548  30.2297  30.5730  30.6922  31.2842
    31.5780  31.7750  31.9932  32.3997  32.4888  32.7446  32.9118  33.0848
    33.5301  33.8944  34.0367  34.1438  34.4503  34.4789  34.7653  34.9204
    35.1126  35.2800  35.4139  35.5445  35.6352  35.8122  35.9765  36.1475
    36.2013  36.5359  36.8564  36.9998  37.0436  37.1206  37.1945  37.2085
    37.4341  37.5290  37.6492  37.8322  37.8942  38.0259  38.1060  38.2878
    38.5396  38.7712  38.9974  39.0629  39.2481  39.3578  39.6118  39.6623
    39.7237  39.9040  39.9061  40.1211  40.3942  40.5647  40.6251  40.8023
    40.8180  40.8863  41.0298  41.0341  41.0796  41.0972  41.2116  41.2173
    41.2232  41.2946  41.3459  41.3845  41.4446  41.4812  41.4825  41.5746
    41.5820  41.6240  41.6516  41.6720  41.7118  41.7314  41.9074  41.9386
    41.9743  41.9923  42.0103  42.0659  42.0916  42.1102  42.1826  42.2499
    42.2800  42.3419  42.3546  42.4679  42.5142  42.5832  42.6440  42.6532

     occupation numbers
     1.0000   1.0000   1.0000   1.0000   1.0000   1.0000   1.0000   1.0000
     1.0000   1.0000   1.0000   1.0000   1.0000   1.0000   1.0000   1.0000
     1.0000   1.0000   1.0000   1.0000   1.0000   1.0000   1.0000   1.0000
     1.0000   1.0000   1.0000   1.0000   1.0000   1.0000   1.0000   1.0000
     1.0000   1.0000   1.0000   1.0000   1.0000   1.0000   1.0000   1.0000
     1.0000   1.0000   1.0000   1.0000   1.0000   1.0000   1.0000   1.0000
     1.0000   1.0000   1.0000   1.0000   1.0000   1.0000   1.0000   1.0000
     1.0000   1.0000   1.0000   1.0000   1.0000   1.0000   1.0000   1.0000
     1.0000   1.0000   1.0000   1.0000   0.0000   0.0000   0.0000   0.0000
     0.0000   0.0000   0.0000   0.0000   0.0000   0.0000   0.0000   0.0000
     0.0000   0.0000   0.0000   0.0000   0.0000   0.0000   0.0000   0.0000
     0.0000   0.0000   0.0000   0.0000   0.0000   0.0000   0.0000   0.0000
     0.0000   0.0000   0.0000   0.0000   0.0000   0.0000   0.0000   0.0000
     0.0000   0.0000   0.0000   0.0000   0.0000   0.0000   0.0000   0.0000
     0.0000   0.0000   0.0000   0.0000   0.0000   0.0000   0.0000   0.0000
     0.0000   0.0000   0.0000   0.0000   0.0000   0.0000   0.0000   0.0000
     0.0000   0.0000   0.0000   0.0000   0.0000   0.0000   0.0000   0.0000
     0.0000   0.0000   0.0000   0.0000   0.0000   0.0000   0.0000   0.0000
     0.0000   0.0000   0.0000   0.0000   0.0000   0.0000   0.0000   0.0000
     0.0000   0.0000   0.0000   0.0000   0.0000   0.0000   0.0000   0.0000
     0.0000   0.0000   0.0000   0.0000   0.0000   0.0000   0.0000   0.0000
     0.0000   0.0000   0.0000   0.0000   0.0000   0.0000   0.0000   0.0000
     0.0000   0.0000   0.0000   0.0000   0.0000   0.0000   0.0000   0.0000
     0.0000   0.0000   0.0000   0.0000   0.0000   0.0000   0.0000   0.0000
     0.0000   0.0000   0.0000   0.0000   0.0000   0.0000   0.0000   0.0000
     0.0000   0.0000   0.0000   0.0000   0.0000   0.0000   0.0000   0.0000
     0.0000   0.0000   0.0000   0.0000   0.0000   0.0000   0.0000   0.0000
     0.0000   0.0000   0.0000   0.0000   0.0000   0.0000   0.0000   0.0000
     0.0000   0.0000   0.0000   0.0000   0.0000   0.0000   0.0000   0.0000
     0.0000   0.0000   0.0000   0.0000   0.0000   0.0000   0.0000   0.0000
     0.0000   0.0000   0.0000   0.0000   0.0000   0.0000   0.0000   0.0000
     0.0000   0.0000   0.0000   0.0000   0.0000   0.0000   0.0000   0.0000

     highest occupied, lowest unoccupied level (ev):     9.1299   10.2462

!    total energy              =   -4590.01959039 Ry
     estimated scf accuracy    <       0.00000065 Ry

     The total energy is the sum of the following terms:
     one-electron contribution =   -1274.94058288 Ry
     hartree contribution      =     654.98969524 Ry
     xc contribution           =    -439.57177459 Ry
     ewald contribution        =    -909.65315049 Ry
     one-center paw contrib.   =   -2620.84377767 Ry
      -> PAW hartree energy AE =     980.29476591 Ry
      -> PAW hartree energy PS =    -846.12559580 Ry
      -> PAW xc energy AE      =   -1198.62106489 Ry
      -> PAW xc energy PS      =      80.19714068 Ry
      -> total E_H with PAW    =     789.15886535 Ry
      -> total E_XC with PAW   =   -1557.99569881 Ry

     convergence has been achieved in   9 iterations

     Writing all to output data dir bands_nm/myprefix.save/

     General routines

     Parallel routines

     PAW routines

   This run was terminated on:   1:42:24  17Jul2023

   JOB DONE.