     Program PWSCF v.7.1 starts on 14Jul2023 at  2:36:42

     Reading input from espresso_10440.pwi
Warning: card &CELL ignored
Warning: card / ignored

     Current dimensions of program PWSCF are:
     Max number of different atomic species (ntypx) = 10
     Max number of k-points (npk) =  40000
     Max angular momentum in pseudopotentials (lmaxx) =  4
     file Cu.paw.z_11.ld1.psl.v1.0.0-low.upf: wavefunction(s)  4S 3D renormalized
     Message from routine setup:
     using ibrav=0 with symmetry is DISCOURAGED, use correct ibrav instead

     K-points division:     npool     =       2
     R & G space division:  proc/nbgrp/npool/nimage =       4
     Subspace diagonalization in iterative solution of the eigenvalue problem:
     a serial algorithm will be used

     Using Slab Decomposition

     bravais-lattice index     =            0
     lattice parameter (alat)  =      14.3261  a.u.
     unit-cell volume          =    2080.9837 (a.u.)^3
     number of atoms/cell      =           14
     number of atomic types    =            4
     number of electrons       =       122.00
     number of Kohn-Sham states=           64
     kinetic-energy cutoff     =      30.0000  Ry
     charge density cutoff     =     240.0000  Ry
     scf convergence threshold =      1.0E-06
     mixing beta               =       0.7000
     number of iterations used =            8  plain     mixing
     Exchange-correlation= SLA  PW   PBE  PBE
                           (   1   4   3   4   0   0   0)

     celldm(1)=  14.326131  celldm(2)=   0.000000  celldm(3)=   0.000000
     celldm(4)=   0.000000  celldm(5)=   0.000000  celldm(6)=   0.000000

     crystal axes: (cart. coord. in units of alat)
               a(1) = (   1.000000   0.000000   0.000000 )
               a(2) = (  -0.002075   0.999998   0.000000 )
               a(3) = (  -0.491195  -0.507751   0.707755 )

     reciprocal axes: (cart. coord. in units 2 pi/alat)
               b(1) = (  1.000000  0.002075  0.695507 )
               b(2) = (  0.000000  1.000002  0.717412 )
               b(3) = (  0.000000  0.000000  1.412919 )

     PseudoPot. # 1 for Hf read from file:
     /lustre07/scratch/pragov/crystal_structure_design/utils/SSSP/Hf-sp.oncvpsp.upf
     MD5 check sum: 417ed15784afe83d2e06dacf143de3f8
     Pseudo is Norm-conserving + core correction, Zval = 12.0
     Generated using ONCVPSP code by D. R. Hamann
     Using radial grid of 1656 points,  8 beta functions with:
                l(1) =   0
                l(2) =   0
                l(3) =   1
                l(4) =   1
                l(5) =   2
                l(6) =   2
                l(7) =   3
                l(8) =   3

     PseudoPot. # 2 for Cr read from file:
     /lustre07/scratch/pragov/crystal_structure_design/utils/SSSP/cr_pbe_v1.5.uspp.F.UPF
     MD5 check sum: 0d52af634a40206e4dee301ad30da4bf
     Pseudo is Ultrasoft + core correction, Zval = 14.0
     Generated by new atomic code, or converted to UPF format
     Using radial grid of  857 points,  6 beta functions with:
                l(1) =   0
                l(2) =   0
                l(3) =   1
                l(4) =   1
                l(5) =   2
                l(6) =   2
     Q(r) pseudized with  8 coefficients,  rinner =    0.950   0.950   0.950
                                                       0.950   0.950

     PseudoPot. # 3 for Cu read from file:
     /lustre07/scratch/pragov/crystal_structure_design/utils/SSSP/Cu.paw.z_11.ld1.psl.v1.0.0-low.upf
     MD5 check sum: 619f40885d92a09a85a8b37550532d0c
     Pseudo is Projector augmented-wave + core cor, Zval = 11.0
     Generated using &quot;atomic&quot; code by A. Dal Corso  v.6.3MaX
     Shape of augmentation charge: PSQ
     Using radial grid of 1199 points,  6 beta functions with:
                l(1) =   0
                l(2) =   0
                l(3) =   1
                l(4) =   1
                l(5) =   2
                l(6) =   2
     Q(r) pseudized with 0 coefficients

     PseudoPot. # 4 for Se read from file:
     /lustre07/scratch/pragov/crystal_structure_design/utils/SSSP/Se_pbe_v1.uspp.F.UPF
     MD5 check sum: 1b3568f3a8ae88f9a2a0ad0698632c85
     Pseudo is Ultrasoft + core correction, Zval =  6.0
     Generated by new atomic code, or converted to UPF format
     Using radial grid of  877 points,  6 beta functions with:
                l(1) =   0
                l(2) =   0
                l(3) =   1
                l(4) =   1
                l(5) =   2
                l(6) =   2
     Q(r) pseudized with  8 coefficients,  rinner =    1.300   1.300   1.300
                                                       1.300   1.300

     atomic species   valence    mass     pseudopotential
        Hf            12.00   178.49000     Hf( 1.00)
        Cr            14.00    51.99610     Cr( 1.00)
        Cu            11.00    63.54600     Cu( 1.00)
        Se             6.00    78.97100     Se( 1.00)

      2 Sym. Ops., with inversion, found

                                    s                        frac. trans.

      isym =  1     identity

 cryst.   s( 1) = (     1          0          0      )
                  (     0          1          0      )
                  (     0          0          1      )

 cart.    s( 1) = (  1.0000000  0.0000000 -0.0000000 )
                  (  0.0000000  1.0000000  0.0000000 )
                  (  0.0000000  0.0000000  1.0000000 )

      isym =  2     inversion

 cryst.   s( 2) = (    -1          0          0      )
                  (     0         -1          0      )
                  (     0          0         -1      )

 cart.    s( 2) = ( -1.0000000  0.0000000  0.0000000 )
                  (  0.0000000 -1.0000000  0.0000000 )
                  (  0.0000000  0.0000000 -1.0000000 )

   Cartesian axes

     site n.     atom                  positions (alat units)
         1           Hf  tau(   1) = (   0.9989627   0.4999989   0.0000000  )
         2           Hf  tau(   2) = (  -0.2455975  -0.2538753   0.3538774  )
         3           Cr  tau(   3) = (   0.4989627   0.4999989   0.0000000  )
         4           Cr  tau(   4) = (  -0.2466348   0.2461237   0.3538774  )
         5           Cu  tau(   5) = (   0.2568122   0.4962132   0.5308161  )
         6           Cu  tau(   6) = (   0.2499181  -0.0039659   0.1769387  )
         7           Se  tau(   7) = (  -0.0070760   0.4881522   0.3525058  )
         8           Se  tau(   8) = (   0.7404937   0.7400594   0.0013716  )
         9           Se  tau(   9) = (   0.5125197   0.4872773   0.3405780  )
        10           Se  tau(  10) = (   0.7406165   0.2596543   0.0132994  )
        11           Se  tau(  11) = (   0.5138063   0.0040952   0.3552490  )
        12           Se  tau(  12) = (  -0.2337633  -0.2478120   0.7063832  )
        13           Se  tau(  13) = (  -0.0057894   0.0049700   0.3671768  )
        14           Se  tau(  14) = (  -0.2338861   0.2325931   0.6944554  )

   Crystallographic axes

     site n.     atom                  positions (cryst. coord.)
         1           Hf  tau(   1) = (  1.0000000  0.5000000  0.0000000  )
         2           Hf  tau(   2) = ( -0.0000000 -0.0000000  0.5000000  )
         3           Cr  tau(   3) = (  0.5000000  0.5000000  0.0000000  )
         4           Cr  tau(   4) = ( -0.0000000  0.5000000  0.5000000  )
         5           Cu  tau(   5) = (  0.6270280  0.8770280  0.7500000  )
         6           Cu  tau(   6) = (  0.3729720  0.1229720  0.2500000  )
         7           Se  tau(   7) = (  0.2391070  0.7410450  0.4980620  )
         8           Se  tau(   8) = (  0.7429830  0.7410450  0.0019380  )
         9           Se  tau(   9) = (  0.7504050  0.7316130  0.4812090  )
        10           Se  tau(  10) = (  0.7504050  0.2691960  0.0187910  )
        11           Se  tau(  11) = (  0.7608930  0.2589550  0.5019380  )
        12           Se  tau(  12) = (  0.2570170  0.2589550  0.9980620  )
        13           Se  tau(  13) = (  0.2495950  0.2683870  0.5187910  )
        14           Se  tau(  14) = (  0.2495950  0.7308040  0.9812090  )

     number of k points=    14
                       cart. coord. in units 2pi/alat
        k(    1) = (   0.0000000   0.0000000   0.0000000), wk =   0.0740741
        k(    2) = (   0.0000000   0.0000000   0.4709729), wk =   0.1481481
        k(    3) = (   0.0000000   0.3333341   0.2391372), wk =   0.1481481
        k(    4) = (   0.0000000   0.3333341   0.7101101), wk =   0.1481481
        k(    5) = (   0.0000000   0.3333341  -0.2318357), wk =   0.1481481
        k(    6) = (   0.3333333   0.0006915   0.2318357), wk =   0.1481481
        k(    7) = (   0.3333333   0.0006915   0.7028085), wk =   0.1481481
        k(    8) = (   0.3333333   0.0006915  -0.2391372), wk =   0.1481481
        k(    9) = (   0.3333333   0.3340256   0.4709729), wk =   0.1481481
        k(   10) = (   0.3333333   0.3340256   0.9419458), wk =   0.1481481
        k(   11) = (   0.3333333   0.3340256   0.0000000), wk =   0.1481481
        k(   12) = (   0.3333333  -0.3326425  -0.0073016), wk =   0.1481481
        k(   13) = (   0.3333333  -0.3326425   0.4636713), wk =   0.1481481
        k(   14) = (   0.3333333  -0.3326425  -0.4782745), wk =   0.1481481

                       cryst. coord.
        k(    1) = (   0.0000000   0.0000000   0.0000000), wk =   0.0740741
        k(    2) = (   0.0000000   0.0000000   0.3333333), wk =   0.1481481
        k(    3) = (   0.0000000   0.3333333   0.0000000), wk =   0.1481481
        k(    4) = (   0.0000000   0.3333333   0.3333333), wk =   0.1481481
        k(    5) = (   0.0000000   0.3333333  -0.3333333), wk =   0.1481481
        k(    6) = (   0.3333333   0.0000000   0.0000000), wk =   0.1481481
        k(    7) = (   0.3333333   0.0000000   0.3333333), wk =   0.1481481
        k(    8) = (   0.3333333   0.0000000  -0.3333333), wk =   0.1481481
        k(    9) = (   0.3333333   0.3333333   0.0000000), wk =   0.1481481
        k(   10) = (   0.3333333   0.3333333   0.3333333), wk =   0.1481481
        k(   11) = (   0.3333333   0.3333333  -0.3333333), wk =   0.1481481
        k(   12) = (   0.3333333  -0.3333333  -0.0000000), wk =   0.1481481
        k(   13) = (   0.3333333  -0.3333333   0.3333333), wk =   0.1481481
        k(   14) = (   0.3333333  -0.3333333  -0.3333333), wk =   0.1481481

     Check: negative core charge=   -0.000002

     Initial potential from superposition of free atoms

     starting charge     119.9953, renormalised to     122.0000

     negative rho (up, down):  3.634E-03 0.000E+00
     Starting wfcs are   90 randomized atomic wfcs
     Checking if some PAW data can be deallocated...

     Self-consistent Calculation

     iteration #  1     ecut=    30.00 Ry     beta= 0.70
     Davidson diagonalization with overlap

     ethr =  1.00E-02,  avg # of iterations =  2.0

     total energy              =   -1253.65669446 Ry
     estimated scf accuracy    <     115.17457818 Ry

[...]

     negative rho (up, down):  1.248E-03 0.000E+00

[...]

     total energy              =   -1352.05318614 Ry
     estimated scf accuracy    <       0.00000643 Ry

     iteration # 46     ecut=    30.00 Ry     beta= 0.70
     Davidson diagonalization with overlap

     ethr =  5.27E-09,  avg # of iterations =  1.6

     negative rho (up, down):  3.428E-03 0.000E+00

     End of self-consistent calculation

          k = 0.0000 0.0000 0.0000 (  5817 PWs)   bands (ev):

   -63.6973 -63.6970 -54.7407 -54.7365 -35.0950 -35.0886 -35.0123 -35.0118
   -34.9739 -34.9729 -23.5374 -23.4769 -23.4180 -23.4036 -23.4035 -23.3684
    -5.9969  -4.8346  -4.8156  -4.7499  -4.7017  -4.6925  -4.5792  -4.5746
     1.7456   2.5274   2.5697   2.6348   2.6678   3.6002   3.6149   4.3717
     4.4759   4.6049   4.6913   4.7906   4.8194   4.8486   4.9357   5.3632
     5.3714   5.4067   5.8930   5.9098   5.9716   6.0462   6.0694   6.0933
     6.1582   6.1596   6.1645   6.2796   6.6035   6.6307   6.6507   7.3400
     7.5878   7.6368   7.9595   8.0062   8.0278   8.0823   8.1523   8.1533

     occupation numbers
     1.0000   1.0000   1.0000   1.0000   1.0000   1.0000   1.0000   1.0000
     1.0000   1.0000   1.0000   1.0000   1.0000   1.0000   1.0000   1.0000
     1.0000   1.0000   1.0000   1.0000   1.0000   1.0000   1.0000   1.0000
     1.0000   1.0000   1.0000   1.0000   1.0000   1.0000   1.0000   1.0000
     1.0000   1.0000   1.0000   1.0000   1.0000   1.0000   1.0000   1.0000
     1.0000   1.0000   1.0000   1.0000   1.0000   1.0000   1.0000   1.0000
     1.0000   1.0000   1.0000   1.0000   1.0000   1.0000   1.0000   1.0000
     1.0000   1.0000   1.0000   1.0000   1.0000   0.0000   0.0000   0.0000

[...]

          k = 0.3333-0.3326-0.4783 (  5778 PWs)   bands (ev):

   -63.6972 -63.6969 -54.7356 -54.7297 -35.0948 -35.0871 -35.0116 -35.0099
   -34.9733 -34.9725 -23.5193 -23.4866 -23.4130 -23.4057 -23.3967 -23.3774
    -5.4304  -5.2983  -4.9388  -4.8445  -4.8347  -4.7582  -4.5834  -4.4824
     2.8422   2.8855   3.2917   3.3198   3.4629   3.8862   3.9267   3.9947
     3.9992   4.0738   4.2319   4.4687   4.5325   4.6163   4.7185   5.1077
     5.1181   5.2046   5.3069   5.3317   5.5710   5.5743   5.8066   5.8468
     6.0830   6.1848   6.3354   6.3769   6.4539   6.5542   6.6393   6.6492
     6.8487   7.0252   7.8555   8.1325   8.1350   8.2552   8.4173   8.5841

     occupation numbers
     1.0000   1.0000   1.0000   1.0000   1.0000   1.0000   1.0000   1.0000
     1.0000   1.0000   1.0000   1.0000   1.0000   1.0000   1.0000   1.0000
     1.0000   1.0000   1.0000   1.0000   1.0000   1.0000   1.0000   1.0000
     1.0000   1.0000   1.0000   1.0000   1.0000   1.0000   1.0000   1.0000
     1.0000   1.0000   1.0000   1.0000   1.0000   1.0000   1.0000   1.0000
     1.0000   1.0000   1.0000   1.0000   1.0000   1.0000   1.0000   1.0000
     1.0000   1.0000   1.0000   1.0000   1.0000   1.0000   1.0000   1.0000
     1.0000   1.0000   1.0000   1.0000   1.0000   0.0000   0.0000   0.0000

     highest occupied, lowest unoccupied level (ev):     8.2023    8.0823

!    total energy              =   -1352.05318610 Ry
     estimated scf accuracy    <       0.00000041 Ry

     The total energy is the sum of the following terms:
     one-electron contribution =    -446.71174952 Ry
     hartree contribution      =     286.96202727 Ry
     xc contribution           =    -428.62295009 Ry
     ewald contribution        =    -584.04180606 Ry
     one-center paw contrib.   =    -179.63870770 Ry
      -> PAW hartree energy AE =       0.00000000 Ry
      -> PAW hartree energy PS =       0.00000000 Ry
      -> PAW xc energy AE      =       0.00000000 Ry
      -> PAW xc energy PS      =       0.00000000 Ry
      -> total E_H with PAW    =     286.96202727 Ry
      -> total E_XC with PAW   =    -428.62295009 Ry

     convergence has been achieved in  46 iterations

     Writing all to output data dir bands_nm/myprefix.save/

     General routines

     Parallel routines

     PAW routines

   This run was terminated on:   2:37:55  14Jul2023

   JOB DONE.