     Program PWSCF v.7.1 starts on 16Jul2023 at 15: 5:14

     Reading input from espresso_26915.pwi
Warning: card &CELL ignored
Warning: card / ignored

     Current dimensions of program PWSCF are:
     Max number of different atomic species (ntypx) = 10
     Max number of k-points (npk) =  40000
     Max angular momentum in pseudopotentials (lmaxx) =  4
     file Sm.paw.z_16.atompaw.wentzcovitch.v1.2.upf: wavefunction(s)  6S 0P 5D 0D 4F 0F renormalized
     file O.pbe-n-kjpaw_psl.0.1.UPF: wavefunction(s)  2P renormalized
     Message from routine setup:
     using ibrav=0 with symmetry is DISCOURAGED, use correct ibrav instead

     K-points division:     npool     =       2
     R & G space division:  proc/nbgrp/npool/nimage =       4
     Subspace diagonalization in iterative solution of the eigenvalue problem:
     a serial algorithm will be used

     Using Slab Decomposition

     bravais-lattice index     =            0
     lattice parameter (alat)  =      10.5959  a.u.
     unit-cell volume          =    1067.6591 (a.u.)^3
     number of atoms/cell      =           12
     number of atomic types    =            3
     number of electrons       =       106.00
     number of Kohn-Sham states=           64
     kinetic-energy cutoff     =      30.0000  Ry
     charge density cutoff     =     240.0000  Ry
     scf convergence threshold =      1.0E-06
     mixing beta               =       0.7000
     number of iterations used =            8  plain     mixing
     Exchange-correlation= SLA  PW   PBX  PBC
                           (   1   4   3   4   0   0   0)

     celldm(1)=  10.595927  celldm(2)=   0.000000  celldm(3)=   0.000000
     celldm(4)=   0.000000  celldm(5)=   0.000000  celldm(6)=   0.000000

     crystal axes: (cart. coord. in units of alat)
               a(1) = (   1.000000   0.000000   0.000000 )
               a(2) = (   0.000000   0.933663   0.000000 )
               a(3) = (   0.000000   0.114683   0.961226 )

     reciprocal axes: (cart. coord. in units 2 pi/alat)
               b(1) = (  1.000000  0.000000  0.000000 )
               b(2) = (  0.000000  1.071050 -0.127786 )
               b(3) = (  0.000000  0.000000  1.040338 )

     PseudoPot. # 1 for Sm read from file:
     /lustre07/scratch/pragov/crystal_structure_design/utils/SSSP/Sm.paw.z_16.atompaw.wentzcovitch.v1.2.upf
     MD5 check sum: d38221e44bcfc3c784cbdb498a69732f
     Pseudo is Projector augmented-wave + core cor, Zval = 16.0
     Generated using ATOMPAW code
     Shape of augmentation charge: BESSEL
     Using radial grid of 1107 points,  8 beta functions with:
                l(1) =   0
                l(2) =   0
                l(3) =   1
                l(4) =   1
                l(5) =   2
                l(6) =   2
                l(7) =   3
                l(8) =   3
     Q(r) pseudized with 0 coefficients

     PseudoPot. # 2 for Ta read from file:
     /lustre07/scratch/pragov/crystal_structure_design/utils/SSSP/Ta_pbe_v1.uspp.F.UPF
     MD5 check sum: f8bbe9446314a3b8ea5d9f3e3836c939
     Pseudo is Ultrasoft + core correction, Zval = 13.0
     Generated by new atomic code, or converted to UPF format
     Using radial grid of  921 points,  7 beta functions with:
                l(1) =   0
                l(2) =   0
                l(3) =   1
                l(4) =   1
                l(5) =   2
                l(6) =   2
                l(7) =   3
     Q(r) pseudized with  6 coefficients,  rinner =    1.300   1.300   1.300
                                                       1.300   1.300   1.300
                                                       1.300

     PseudoPot. # 3 for O  read from file:
     /lustre07/scratch/pragov/crystal_structure_design/utils/SSSP/O.pbe-n-kjpaw_psl.0.1.UPF
     MD5 check sum: 0234752ac141de4415c5fc33072bef88
     Pseudo is Projector augmented-wave + core cor, Zval =  6.0
     Generated using "atomic" code by A. Dal Corso  v.5.0.99 svn rev. 10869
     Shape of augmentation charge: BESSEL
     Using radial grid of 1095 points,  4 beta functions with:
                l(1) =   0
                l(2) =   0
                l(3) =   1
                l(4) =   1
     Q(r) pseudized with 0 coefficients

     atomic species   valence    mass     pseudopotential
        Sm            16.00   150.36000     Sm( 1.00)
        Ta            13.00   180.94788     Ta( 1.00)
        O              6.00    15.99900     O ( 1.00)

      4 Sym. Ops., with inversion, found ( 2 have fractional translation)

                                    s                        frac. trans.

      isym =  1     identity

 cryst.   s( 1) = (     1          0          0      )
                  (     0          1          0      )
                  (     0          0          1      )

 cart.    s( 1) = (  1.0000000  0.0000000  0.0000000 )
                  (  0.0000000  1.0000000  0.0000000 )
                  (  0.0000000  0.0000000  1.0000000 )

      isym =  2     180 deg rotation - cart. axis [1,0,0]

 cryst.   s( 2) = (     1          0          0      )    f =(  0.0000000 )
                  (     0         -1          0      )       (  0.0000000 )
                  (     0          0         -1      )       ( -0.5000000 )

 cart.    s( 2) = (  1.0000000  0.0000000  0.0000000 )    f =(  0.0000000 )
                  (  0.0000000 -1.0000000 -0.0000000 )       ( -0.0573414 )
                  (  0.0000000  0.0000000 -1.0000000 )       ( -0.4806131 )

      isym =  3     inversion

 cryst.   s( 3) = (    -1          0          0      )
                  (     0         -1          0      )
                  (     0          0         -1      )

 cart.    s( 3) = ( -1.0000000  0.0000000  0.0000000 )
                  (  0.0000000 -1.0000000 -0.0000000 )
                  (  0.0000000  0.0000000 -1.0000000 )

      isym =  4     inv. 180 deg rotation - cart. axis [1,0,0]

 cryst.   s( 4) = (    -1          0          0      )    f =(  0.0000000 )
                  (     0          1          0      )       (  0.0000000 )
                  (     0          0          1      )       (  0.5000000 )

 cart.    s( 4) = ( -1.0000000  0.0000000  0.0000000 )    f =(  0.0000000 )
                  (  0.0000000  1.0000000  0.0000000 )       (  0.0573414 )
                  (  0.0000000  0.0000000  1.0000000 )       (  0.4806131 )

   Cartesian axes

     site n.     atom                  positions (alat units)
         1           Sm  tau(   1) = (   0.7654840   1.0196751   0.7209197  )
         2           Sm  tau(   2) = (   0.2345160   0.0286707   0.2403066  )
         3           Ta  tau(   3) = (   0.6887140   0.4955022   0.2403066  )
         4           Ta  tau(   4) = (   0.3112860   0.5528436   0.7209197  )
         5           O   tau(   5) = (   0.5631950   0.2553867   0.0066123  )
         6           O   tau(   6) = (   0.5631950   0.7356177   0.4740009  )
         7           O   tau(   7) = (   0.4368050   0.7929592   0.9546140  )
         8           O   tau(   8) = (   0.4368050   0.3127281   0.4872254  )
         9           O   tau(   9) = (   0.0911140   0.7666371   0.5836633  )
        10           O   tau(  10) = (   0.0911140   0.3390502   0.8581761  )
        11           O   tau(  11) = (   0.9088860   0.2817087   0.3775630  )
        12           O   tau(  12) = (   0.9088860   0.7092957   0.1030502  )

   Crystallographic axes

     site n.     atom                  positions (cryst. coord.)
         1           Sm  tau(   1) = (  0.7654840  1.0000000  0.7500000  )
         2           Sm  tau(   2) = (  0.2345160 -0.0000000  0.2500000  )
         3           Ta  tau(   3) = (  0.6887140  0.5000000  0.2500000  )
         4           Ta  tau(   4) = (  0.3112860  0.5000000  0.7500000  )
         5           O   tau(   5) = (  0.5631950  0.2726870  0.0068790  )
         6           O   tau(   6) = (  0.5631950  0.7273130  0.4931210  )
         7           O   tau(   7) = (  0.4368050  0.7273130  0.9931210  )
         8           O   tau(   8) = (  0.4368050  0.2726870  0.5068790  )
         9           O   tau(   9) = (  0.0911140  0.7465230  0.6072070  )
        10           O   tau(  10) = (  0.0911140  0.2534770  0.8927930  )
        11           O   tau(  11) = (  0.9088860  0.2534770  0.3927930  )
        12           O   tau(  12) = (  0.9088860  0.7465230  0.1072070  )

     number of k points=    10
                       cart. coord. in units 2pi/alat
        k(    1) = (   0.0000000   0.0000000   0.0000000), wk =   0.0740741
        k(    2) = (   0.0000000   0.0000000   0.3467793), wk =   0.1481481
        k(    3) = (   0.0000000   0.3570168  -0.0425953), wk =   0.1481481
        k(    4) = (   0.0000000   0.3570168   0.3041840), wk =   0.1481481
        k(    5) = (   0.0000000   0.3570168  -0.3893745), wk =   0.1481481
        k(    6) = (   0.3333333   0.0000000   0.0000000), wk =   0.1481481
        k(    7) = (   0.3333333   0.0000000   0.3467793), wk =   0.2962963
        k(    8) = (   0.3333333   0.3570168  -0.0425953), wk =   0.2962963
        k(    9) = (   0.3333333   0.3570168   0.3041840), wk =   0.2962963
        k(   10) = (   0.3333333   0.3570168  -0.3893745), wk =   0.2962963

                       cryst. coord.
        k(    1) = (   0.0000000   0.0000000   0.0000000), wk =   0.0740741
        k(    2) = (   0.0000000   0.0000000   0.3333333), wk =   0.1481481
        k(    3) = (   0.0000000   0.3333333   0.0000000), wk =   0.1481481
        k(    4) = (   0.0000000   0.3333333   0.3333333), wk =   0.1481481
        k(    5) = (   0.0000000   0.3333333  -0.3333333), wk =   0.1481481
        k(    6) = (   0.3333333   0.0000000   0.0000000), wk =   0.1481481
        k(    7) = (   0.3333333   0.0000000   0.3333333), wk =   0.2962963
        k(    8) = (   0.3333333   0.3333333   0.0000000), wk =   0.2962963
        k(    9) = (   0.3333333   0.3333333   0.3333333), wk =   0.2962963
        k(   10) = (   0.3333333   0.3333333  -0.3333333), wk =   0.2962963

     Check: negative core charge=   -0.000009

     Initial potential from superposition of free atoms

     starting charge     105.9866, renormalised to     106.0000

     negative rho (up, down):  1.877E-01 0.000E+00
     Starting wfcs are  122 randomized atomic wfcs
     Checking if some PAW data can be deallocated...

     Self-consistent Calculation

     iteration #  1     ecut=    30.00 Ry     beta= 0.70
     Davidson diagonalization with overlap

     ethr =  1.00E-02,  avg # of iterations =  2.0

     negative rho (up, down):  1.881E-01 0.000E+00

     total energy              =   -1823.81510101 Ry
     estimated scf accuracy    <       4.00764730 Ry

[...]

     c_bands:  1 eigenvalues not converged
     ethr =  3.39E-06,  avg # of iterations =  3.5

[...]

     total energy              =   -1826.08663234 Ry
     estimated scf accuracy    <       0.00000256 Ry

     iteration # 35     ecut=    30.00 Ry     beta= 0.70
     Davidson diagonalization with overlap

     ethr =  2.41E-09,  avg # of iterations =  2.1

     negative rho (up, down):  1.899E-01 0.000E+00

     End of self-consistent calculation

          k = 0.0000 0.0000 0.0000 (  2957 PWs)   bands (ev):

   -57.4297 -57.4243 -27.4905 -27.4497 -24.0850 -24.0516 -24.0080 -23.9716
   -23.9483 -23.9292  -8.3880  -8.3706  -8.2536  -7.6577  -7.4727  -7.3130
    -7.1042  -6.7431  -6.5135  -6.1632  -6.1456  -5.2138  -4.9976  -4.8770
     5.0778   5.2712   5.4969   5.6291   5.7867   5.8738   7.0101   7.0524
     7.1021   7.3324   7.5808   7.7091   7.8497   7.9458   8.1229   8.1937
     8.4645   8.5960   8.8931   9.0442   9.3361   9.3413   9.4596   9.7320
    11.6599  11.7044  11.7505  11.7672  11.7744  11.7826  11.8128  11.9059
    12.0362  12.0401  12.0594  12.1010  12.1440  12.1893  14.2825  14.3040

     occupation numbers
     1.0000   1.0000   1.0000   1.0000   1.0000   1.0000   1.0000   1.0000
     1.0000   1.0000   1.0000   1.0000   1.0000   1.0000   1.0000   1.0000
     1.0000   1.0000   1.0000   1.0000   1.0000   1.0000   1.0000   1.0000
     1.0000   1.0000   1.0000   1.0000   1.0000   1.0000   1.0000   1.0000
     1.0000   1.0000   1.0000   1.0000   1.0000   1.0000   1.0000   1.0000
     1.0000   1.0000   1.0000   1.0000   1.0000   1.0000   1.0000   1.0000
     1.0000   1.0000   1.0000   1.0000   1.0000   0.0000   0.0000   0.0000
     0.0000   0.0000   0.0000   0.0000   0.0000   0.0000   0.0000   0.0000

[...]

          k = 0.3333 0.3570-0.3894 (  2959 PWs)   bands (ev):

   -57.4283 -57.4257 -27.4763 -27.4641 -24.0794 -24.0618 -23.9964 -23.9793
   -23.9442 -23.9324  -8.5450  -8.4260  -8.1022  -7.8511  -7.7023  -7.1460
    -6.8841  -6.7132  -6.4352  -6.0838  -5.7058  -5.4956  -5.1627  -5.0027
     5.5325   5.7373   5.9350   6.0870   6.2475   6.3687   6.4481   6.7146
     6.8941   7.0384   7.3428   7.5447   7.7849   7.9697   8.1299   8.2928
     8.3708   8.4954   8.5475   8.8729   8.9314   9.0270   9.1467   9.4254
    11.6804  11.6962  11.7371  11.7602  11.7763  11.8121  11.8386  11.8823
    12.0139  12.0412  12.0631  12.0976  12.1158  12.1339  13.9370  14.4448

     occupation numbers
     1.0000   1.0000   1.0000   1.0000   1.0000   1.0000   1.0000   1.0000
     1.0000   1.0000   1.0000   1.0000   1.0000   1.0000   1.0000   1.0000
     1.0000   1.0000   1.0000   1.0000   1.0000   1.0000   1.0000   1.0000
     1.0000   1.0000   1.0000   1.0000   1.0000   1.0000   1.0000   1.0000
     1.0000   1.0000   1.0000   1.0000   1.0000   1.0000   1.0000   1.0000
     1.0000   1.0000   1.0000   1.0000   1.0000   1.0000   1.0000   1.0000
     1.0000   1.0000   1.0000   1.0000   1.0000   0.0000   0.0000   0.0000
     0.0000   0.0000   0.0000   0.0000   0.0000   0.0000   0.0000   0.0000

     highest occupied, lowest unoccupied level (ev):    11.7931   11.7826

!    total energy              =   -1826.08663233 Ry
     estimated scf accuracy    <       0.00000043 Ry

     The total energy is the sum of the following terms:
     one-electron contribution =    -218.90741477 Ry
     hartree contribution      =     182.99251111 Ry
     xc contribution           =    -180.13384214 Ry
     ewald contribution        =    -634.87408477 Ry
     one-center paw contrib.   =    -975.16380176 Ry
      -> PAW hartree energy AE =     252.05217007 Ry
      -> PAW hartree energy PS =    -245.81703894 Ry
      -> PAW xc energy AE      =    -938.66391811 Ry
      -> PAW xc energy PS      =      33.44273865 Ry
      -> total E_H with PAW    =     189.22764224 Ry
      -> total E_XC with PAW   =   -1085.35502159 Ry

     convergence has been achieved in  35 iterations

     Writing all to output data dir bands_nm/myprefix.save/

     General routines

     Parallel routines

     PAW routines

   This run was terminated on:  15: 5:45  16Jul2023

   JOB DONE.