     Program PWSCF v.7.1 starts on 14Jul2023 at 18:19:12

     Reading input from espresso_18293.pwi
Warning: card &CELL ignored
Warning: card / ignored

     Current dimensions of program PWSCF are:
     Max number of different atomic species (ntypx) = 10
     Max number of k-points (npk) =  40000
     Max angular momentum in pseudopotentials (lmaxx) =  4
     file O.pbe-n-kjpaw_psl.0.1.UPF: wavefunction(s)  2P renormalized
     Message from routine setup:
     using ibrav=0 with symmetry is DISCOURAGED, use correct ibrav instead

     K-points division:     npool     =       2
     R & G space division:  proc/nbgrp/npool/nimage =       4
     Subspace diagonalization in iterative solution of the eigenvalue problem:
     a serial algorithm will be used

     Using Slab Decomposition

     bravais-lattice index     =            0
     lattice parameter (alat)  =       9.7557  a.u.
     unit-cell volume          =     368.9924 (a.u.)^3
     number of atoms/cell      =            5
     number of atomic types    =            3
     number of electrons       =        34.00
     number of Kohn-Sham states=           64
     kinetic-energy cutoff     =      30.0000  Ry
     charge density cutoff     =     240.0000  Ry
     scf convergence threshold =      1.0E-06
     mixing beta               =       0.7000
     number of iterations used =            8  plain     mixing
     Exchange-correlation= SLA  PW   PBX  PBC
                           (   1   4   3   4   0   0   0)

     celldm(1)=   9.755706  celldm(2)=   0.000000  celldm(3)=   0.000000
     celldm(4)=   0.000000  celldm(5)=   0.000000  celldm(6)=   0.000000

     crystal axes: (cart. coord. in units of alat)
               a(1) = (   1.000000   0.000000   0.000000 )
               a(2) = (   0.535708   0.844403   0.000000 )
               a(3) = (  -0.718151  -0.512595   0.470643 )

     reciprocal axes: (cart. coord. in units 2 pi/alat)
               b(1) = (  1.000000 -0.634422  0.834921 )
               b(2) = (  0.000000  1.184268  1.289833 )
               b(3) = (  0.000000  0.000000  2.124754 )

     PseudoPot. # 1 for Li read from file:
     /lustre07/scratch/pragov/crystal_structure_design/utils/SSSP/li_pbe_v1.4.uspp.F.UPF
     MD5 check sum: e912e257baa3777c20ea3d68f190483c
     Pseudo is Ultrasoft, Zval =  3.0
     Generated by new atomic code, or converted to UPF format
     Using radial grid of  751 points,  5 beta functions with:
                l(1) =   0
                l(2) =   0
                l(3) =   0
                l(4) =   1
                l(5) =   1
     Q(r) pseudized with 10 coefficients,  rinner =    1.150   1.150   1.150

     PseudoPot. # 2 for Pt read from file:
     /lustre07/scratch/pragov/crystal_structure_design/utils/SSSP/pt_pbe_v1.4.uspp.F.UPF
     MD5 check sum: f09d6de1a584b5a045c4fc126da2d0c4
     Pseudo is Ultrasoft + core correction, Zval = 16.0
     Generated by new atomic code, or converted to UPF format
     Using radial grid of  985 points,  6 beta functions with:
                l(1) =   0
                l(2) =   0
                l(3) =   1
                l(4) =   1
                l(5) =   2
                l(6) =   2
     Q(r) pseudized with  8 coefficients,  rinner =    1.300   1.300   1.300
                                                       1.300   1.300

     PseudoPot. # 3 for O  read from file:
     /lustre07/scratch/pragov/crystal_structure_design/utils/SSSP/O.pbe-n-kjpaw_psl.0.1.UPF
     MD5 check sum: 0234752ac141de4415c5fc33072bef88
     Pseudo is Projector augmented-wave + core cor, Zval =  6.0
     Generated using "atomic" code by A. Dal Corso  v.5.0.99 svn rev. 10869
     Shape of augmentation charge: BESSEL
     Using radial grid of 1095 points,  4 beta functions with:
                l(1) =   0
                l(2) =   0
                l(3) =   1
                l(4) =   1
     Q(r) pseudized with 0 coefficients

     atomic species   valence    mass     pseudopotential
        Li             3.00     6.94000     Li( 1.00)
        Pt            16.00   195.08400     Pt( 1.00)
        O              6.00    15.99900     O ( 1.00)

      2 Sym. Ops., with inversion, found

                                    s                        frac. trans.

      isym =  1     identity

 cryst.   s( 1) = (     1          0          0      )
                  (     0          1          0      )
                  (     0          0          1      )

 cart.    s( 1) = (  1.0000000 -0.0000000 -0.0000000 )
                  (  0.0000000  1.0000000 -0.0000000 )
                  (  0.0000000  0.0000000  1.0000000 )

      isym =  2     inversion

 cryst.   s( 2) = (    -1          0          0      )
                  (     0         -1          0      )
                  (     0          0         -1      )

 cart.    s( 2) = ( -1.0000000  0.0000000  0.0000000 )
                  (  0.0000000 -1.0000000  0.0000000 )
                  (  0.0000000  0.0000000 -1.0000000 )

   Cartesian axes

     site n.     atom                  positions (alat units)
         1           Li  tau(   1) = (   1.0585328   0.5820303   0.0000000  )
         2           Li  tau(   2) = (   0.4771752   0.2623730   0.0000000  )
         3           Pt  tau(   3) = (   0.0000000   0.0000000   0.0000000  )
         4           O   tau(   4) = (   0.6781043   0.0390686   0.2353214  )
         5           O   tau(   5) = (   0.1394524   0.2927392   0.2353214  )

   Crystallographic axes

     site n.     atom                  positions (cryst. coord.)
         1           Li  tau(   1) = (  0.6892800  0.6892800  0.0000000  )
         2           Li  tau(   2) = (  0.3107200  0.3107200  0.0000000  )
         3           Pt  tau(   3) = (  0.0000000  0.0000000  0.0000000  )
         4           O   tau(   4) = (  0.8497930  0.3497930  0.5000000  )
         5           O   tau(   5) = (  0.1502070  0.6502070  0.5000000  )

     number of k points=    14
                       cart. coord. in units 2pi/alat
        k(    1) = (   0.0000000   0.0000000   0.0000000), wk =   0.0740741
        k(    2) = (   0.0000000   0.0000000   0.7082513), wk =   0.1481481
        k(    3) = (   0.0000000   0.3947561   0.4299443), wk =   0.1481481
        k(    4) = (   0.0000000   0.3947561   1.1381956), wk =   0.1481481
        k(    5) = (   0.0000000   0.3947561  -0.2783070), wk =   0.1481481
        k(    6) = (   0.3333333  -0.2114740   0.2783070), wk =   0.1481481
        k(    7) = (   0.3333333  -0.2114740   0.9865583), wk =   0.1481481
        k(    8) = (   0.3333333  -0.2114740  -0.4299443), wk =   0.1481481
        k(    9) = (   0.3333333   0.1832821   0.7082513), wk =   0.1481481
        k(   10) = (   0.3333333   0.1832821   1.4165026), wk =   0.1481481
        k(   11) = (   0.3333333   0.1832821  -0.0000000), wk =   0.1481481
        k(   12) = (   0.3333333  -0.6062301  -0.1516374), wk =   0.1481481
        k(   13) = (   0.3333333  -0.6062301   0.5566139), wk =   0.1481481
        k(   14) = (   0.3333333  -0.6062301  -0.8598887), wk =   0.1481481

                       cryst. coord.
        k(    1) = (   0.0000000   0.0000000   0.0000000), wk =   0.0740741
        k(    2) = (   0.0000000   0.0000000   0.3333333), wk =   0.1481481
        k(    3) = (   0.0000000   0.3333333   0.0000000), wk =   0.1481481
        k(    4) = (   0.0000000   0.3333333   0.3333333), wk =   0.1481481
        k(    5) = (   0.0000000   0.3333333  -0.3333333), wk =   0.1481481
        k(    6) = (   0.3333333  -0.0000000   0.0000000), wk =   0.1481481
        k(    7) = (   0.3333333  -0.0000000   0.3333333), wk =   0.1481481
        k(    8) = (   0.3333333  -0.0000000  -0.3333333), wk =   0.1481481
        k(    9) = (   0.3333333   0.3333333   0.0000000), wk =   0.1481481
        k(   10) = (   0.3333333   0.3333333   0.3333333), wk =   0.1481481
        k(   11) = (   0.3333333   0.3333333  -0.3333333), wk =   0.1481481
        k(   12) = (   0.3333333  -0.3333333   0.0000000), wk =   0.1481481
        k(   13) = (   0.3333333  -0.3333333   0.3333333), wk =   0.1481481
        k(   14) = (   0.3333333  -0.3333333  -0.3333333), wk =   0.1481481

     Check: negative core charge=   -0.000010

     Initial potential from superposition of free atoms

     starting charge      32.5985, renormalised to      34.0000

     negative rho (up, down):  1.921E-01 0.000E+00
     Starting wfcs are   30 randomized atomic wfcs +   34 random wfcs
     Checking if some PAW data can be deallocated...

     Self-consistent Calculation

     iteration #  1     ecut=    30.00 Ry     beta= 0.70
     Davidson diagonalization with overlap

     ethr =  1.00E-02,  avg # of iterations =  8.3

     negative rho (up, down):  1.620E-01 0.000E+00

     total energy              =    -318.73742822 Ry
     estimated scf accuracy    <       6.77163853 Ry

[...]

     total energy              =    -323.05097514 Ry
     estimated scf accuracy    <       0.00000196 Ry

     iteration #  9     ecut=    30.00 Ry     beta= 0.70
     Davidson diagonalization with overlap

     ethr =  5.76E-09,  avg # of iterations =  1.0

     negative rho (up, down):  1.757E-01 0.000E+00

     End of self-consistent calculation

          k = 0.0000 0.0000 0.0000 (  1045 PWs)   bands (ev):

   -43.9605 -43.8882 -43.1374 -36.0404 -35.9855 -10.4754  -9.2942   1.6206
     2.1116   3.4916   5.3133   5.5799   5.6652   6.0640   7.1270   7.1791
     8.3338  11.1173  11.3636  14.2549  18.1839  18.2767  20.3300  21.0561
    21.3052  21.3604  22.0737  27.3000  27.3501  27.4957  28.6211  29.5919
    29.7533  30.4155  30.9514  31.8695  31.9368  32.6937  33.8889  34.5303
    35.2451  35.2968  37.6076  37.8978  39.0580  40.3321  40.4832  42.5028
    43.9490  44.7163  44.8646  46.3030  47.2250  47.5105  48.1145  48.4926
    50.2068  50.3160  50.6616  51.7278  51.9561  53.5539  54.3126  54.5510

     occupation numbers
     1.0000   1.0000   1.0000   1.0000   1.0000   1.0000   1.0000   1.0000
     1.0000   1.0000   1.0000   1.0000   1.0000   1.0000   1.0000   1.0000
     1.0000   0.0000   0.0000   0.0000   0.0000   0.0000   0.0000   0.0000
     0.0000   0.0000   0.0000   0.0000   0.0000   0.0000   0.0000   0.0000
     0.0000   0.0000   0.0000   0.0000   0.0000   0.0000   0.0000   0.0000
     0.0000   0.0000   0.0000   0.0000   0.0000   0.0000   0.0000   0.0000
     0.0000   0.0000   0.0000   0.0000   0.0000   0.0000   0.0000   0.0000
     0.0000   0.0000   0.0000   0.0000   0.0000   0.0000   0.0000   0.0000

[...]

          k = 0.3333-0.6062-0.8599 (  1033 PWs)   bands (ev):

   -44.0194 -43.8800 -43.1332 -36.0203 -35.9958  -9.8069  -9.6898   2.0103
     2.4516   3.6730   4.0021   5.2290   5.6296   6.0559   7.2233   7.8582
     7.8775  10.0849  13.6238  15.6300  15.9638  18.2897  18.6909  21.0719
    22.2150  22.5052  22.8175  23.2780  25.3107  26.3847  27.0063  27.8694
    27.9112  30.4127  33.0112  33.4420  33.8692  34.5389  37.5437  37.8049
    38.6257  39.1227  39.5711  39.8343  40.1629  40.4185  41.4303  41.5697
    43.3958  44.0790  44.3156  45.5600  46.0492  46.4092  47.8466  48.3996
    48.4880  49.7147  49.8792  49.9127  50.3999  51.0662  53.1903  53.3207

     occupation numbers
     1.0000   1.0000   1.0000   1.0000   1.0000   1.0000   1.0000   1.0000
     1.0000   1.0000   1.0000   1.0000   1.0000   1.0000   1.0000   1.0000
     1.0000   0.0000   0.0000   0.0000   0.0000   0.0000   0.0000   0.0000
     0.0000   0.0000   0.0000   0.0000   0.0000   0.0000   0.0000   0.0000
     0.0000   0.0000   0.0000   0.0000   0.0000   0.0000   0.0000   0.0000
     0.0000   0.0000   0.0000   0.0000   0.0000   0.0000   0.0000   0.0000
     0.0000   0.0000   0.0000   0.0000   0.0000   0.0000   0.0000   0.0000
     0.0000   0.0000   0.0000   0.0000   0.0000   0.0000   0.0000   0.0000

     highest occupied, lowest unoccupied level (ev):     8.5655   10.0849

!    total energy              =    -323.05097528 Ry
     estimated scf accuracy    <       0.00000010 Ry

     The total energy is the sum of the following terms:
     one-electron contribution =    -112.24947913 Ry
     hartree contribution      =      71.74321947 Ry
     xc contribution           =     -78.67005436 Ry
     ewald contribution        =    -184.83130427 Ry
     one-center paw contrib.   =     -19.04335698 Ry
      -> PAW hartree energy AE =       0.00000000 Ry
      -> PAW hartree energy PS =       0.00000000 Ry
      -> PAW xc energy AE      =       0.00000000 Ry
      -> PAW xc energy PS      =       0.00000000 Ry
      -> total E_H with PAW    =      71.74321947 Ry
      -> total E_XC with PAW   =     -78.67005436 Ry

     convergence has been achieved in   9 iterations

     Writing all to output data dir bands_nm/myprefix.save/

     General routines

     Parallel routines

     PAW routines

   This run was terminated on:  18:19:20  14Jul2023

   JOB DONE.