     Program PWSCF v.7.0 starts on  5Jun2023 at  5:41:48

     K-points division:     npool     =       2
     R & G space division:  proc/nbgrp/npool/nimage =       4

     Reading input from espresso_10436.pwi
Warning: card &CELL ignored
Warning: card / ignored

     Current dimensions of program PWSCF are:
     Max number of different atomic species (ntypx) = 10
     Max number of k-points (npk) =  40000
     Max angular momentum in pseudopotentials (lmaxx) =  4
     file O.pbe-n-kjpaw_psl.0.1.UPF: wavefunction(s)  2P renormalized
     Message from routine setup:
     using ibrav=0 with symmetry is DISCOURAGED, use correct ibrav instead

     Using Slab Decomposition

     bravais-lattice index     =            0
     lattice parameter (alat)  =      10.9799  a.u.
     unit-cell volume          =     939.4566 (a.u.)^3
     number of atoms/cell      =           10
     number of atomic types    =            3
     number of electrons       =        80.00
     number of Kohn-Sham states=           64
     kinetic-energy cutoff     =      30.0000  Ry
     charge density cutoff     =     240.0000  Ry
     scf convergence threshold =      1.0E-06
     mixing beta               =       0.7000
     number of iterations used =            8  plain     mixing
     Exchange-correlation= SLA  PW   PBX  PBC
                           (   1   4   3   4   0   0   0)

     celldm(1)=  10.979941  celldm(2)=   0.000000  celldm(3)=   0.000000
     celldm(4)=   0.000000  celldm(5)=   0.000000  celldm(6)=   0.000000

     crystal axes: (cart. coord. in units of alat)
               a(1) = (   1.000000   0.000000   0.000000 )
               a(2) = (  -0.007415   0.999973   0.000000 )
               a(3) = (  -0.495474  -0.500798   0.709723 )

     reciprocal axes: (cart. coord. in units 2 pi/alat)
               b(1) = (  1.000000  0.007415  0.703357 )
               b(2) = (  0.000000  1.000027  0.705645 )
               b(3) = (  0.000000  0.000000  1.409001 )

     PseudoPot. # 1 for Sr read from file:
     /home/pragov/projects/rrg-bengioy-ad/pragov/crystal_structure_design/SSSP/Sr_pbe_v1.uspp.F.UPF
     MD5 check sum: 6b418c05fbe9db5448babca5e47b7a5b
     Pseudo is Ultrasoft + core correction, Zval = 10.0
     Generated by new atomic code, or converted to UPF format
     Using radial grid of  883 points,  6 beta functions with:
                l(1) =   0
                l(2) =   0
                l(3) =   1
                l(4) =   1
                l(5) =   2
                l(6) =   2
     Q(r) pseudized with  6 coefficients,  rinner =    1.400   1.400   1.400
                                                       1.400   1.400

     PseudoPot. # 2 for Hf read from file:
     /home/pragov/projects/rrg-bengioy-ad/pragov/crystal_structure_design/SSSP/Hf-sp.oncvpsp.upf
     MD5 check sum: 417ed15784afe83d2e06dacf143de3f8
     Pseudo is Norm-conserving + core correction, Zval = 12.0
     Generated using ONCVPSP code by D. R. Hamann
     Using radial grid of 1656 points,  8 beta functions with:
                l(1) =   0
                l(2) =   0
                l(3) =   1
                l(4) =   1
                l(5) =   2
                l(6) =   2
                l(7) =   3
                l(8) =   3

     PseudoPot. # 3 for O  read from file:
     /home/pragov/projects/rrg-bengioy-ad/pragov/crystal_structure_design/SSSP/O.pbe-n-kjpaw_psl.0.1.UPF
     MD5 check sum: 0234752ac141de4415c5fc33072bef88
     Pseudo is Projector augmented-wave + core cor, Zval =  6.0
     Generated using "atomic" code by A. Dal Corso  v.5.0.99 svn rev. 10869
     Shape of augmentation charge: BESSEL
     Using radial grid of 1095 points,  4 beta functions with:
                l(1) =   0
                l(2) =   0
                l(3) =   1
                l(4) =   1
     Q(r) pseudized with 0 coefficients

     atomic species   valence    mass     pseudopotential
        Sr            10.00    87.62000     Sr( 1.00)
        Hf            12.00   178.49000     Hf( 1.00)
        O              6.00    15.99900     O ( 1.00)

      2 Sym. Ops., with inversion, found

                                    s                        frac. trans.

      isym =  1     identity

 cryst.   s( 1) = (     1          0          0      )
                  (     0          1          0      )
                  (     0          0          1      )

 cart.    s( 1) = (  1.0000000 -0.0000000  0.0000000 )
                  (  0.0000000  1.0000000 -0.0000000 )
                  (  0.0000000  0.0000000  1.0000000 )

      isym =  2     inversion

 cryst.   s( 2) = (    -1          0          0      )
                  (     0         -1          0      )
                  (     0          0         -1      )

 cart.    s( 2) = ( -1.0000000  0.0000000 -0.0000000 )
                  (  0.0000000 -1.0000000  0.0000000 )
                  (  0.0000000  0.0000000 -1.0000000 )

   Cartesian axes

     site n.     atom                  positions (alat units)
         1           Sr  tau(   1) = (   0.4959500   0.0040201   0.3485888  )
         2           Sr  tau(   2) = (   0.0011604   0.4951542   0.3611339  )
         3           Hf  tau(   3) = (   0.4962924   0.4999863   0.0000000  )
         4           Hf  tau(   4) = (   0.0000000   0.0000000   0.0000000  )
         5           O   tau(   5) = (   0.0406464   0.0401309   0.3548613  )
         6           O   tau(   6) = (   0.7079088   0.2094562   0.0000000  )
         7           O   tau(   7) = (   0.4564640   0.4590434   0.3548613  )
         8           O   tau(   8) = (   0.2846761   0.7905163   0.0000000  )
         9           O   tau(   9) = (  -0.2850930  -0.2133193   0.6565985  )
        10           O   tau(  10) = (   0.7822034   0.7124936   0.0531242  )

   Crystallographic axes

     site n.     atom                  positions (cryst. coord.)
         1           Sr  tau(   1) = (  0.7411620  0.2500000  0.4911620  )
         2           Sr  tau(   2) = (  0.2588380  0.7500000  0.5088380  )
         3           Hf  tau(   3) = (  0.5000000  0.5000000  0.0000000  )
         4           Hf  tau(   4) = (  0.0000000  0.0000000  0.0000000  )
         5           O   tau(   5) = (  0.2905380  0.2905380  0.5000000  )
         6           O   tau(   6) = (  0.7094620  0.2094620  0.0000000  )
         7           O   tau(   7) = (  0.7094620  0.7094620  0.5000000  )
         8           O   tau(   8) = (  0.2905380  0.7905380  0.0000000  )
         9           O   tau(   9) = (  0.1751480  0.2500000  0.9251480  )
        10           O   tau(  10) = (  0.8248520  0.7500000  0.0748520  )

     number of k points=    14
                       cart. coord. in units 2pi/alat
        k(    1) = (   0.0000000   0.0000000   0.0000000), wk =   0.0740741
        k(    2) = (   0.0000000   0.0000000   0.4696670), wk =   0.1481481
        k(    3) = (   0.0000000   0.3333425   0.2352149), wk =   0.1481481
        k(    4) = (   0.0000000   0.3333425   0.7048819), wk =   0.1481481
        k(    5) = (   0.0000000   0.3333425  -0.2344522), wk =   0.1481481
        k(    6) = (   0.3333333   0.0024718   0.2344522), wk =   0.1481481
        k(    7) = (   0.3333333   0.0024718   0.7041192), wk =   0.1481481
        k(    8) = (   0.3333333   0.0024718  -0.2352149), wk =   0.1481481
        k(    9) = (   0.3333333   0.3358143   0.4696670), wk =   0.1481481
        k(   10) = (   0.3333333   0.3358143   0.9393341), wk =   0.1481481
        k(   11) = (   0.3333333   0.3358143   0.0000000), wk =   0.1481481
        k(   12) = (   0.3333333  -0.3308707  -0.0007627), wk =   0.1481481
        k(   13) = (   0.3333333  -0.3308707   0.4689044), wk =   0.1481481
        k(   14) = (   0.3333333  -0.3308707  -0.4704297), wk =   0.1481481

                       cryst. coord.
        k(    1) = (   0.0000000   0.0000000   0.0000000), wk =   0.0740741
        k(    2) = (   0.0000000   0.0000000   0.3333333), wk =   0.1481481
        k(    3) = (   0.0000000   0.3333333  -0.0000000), wk =   0.1481481
        k(    4) = (   0.0000000   0.3333333   0.3333333), wk =   0.1481481
        k(    5) = (   0.0000000   0.3333333  -0.3333333), wk =   0.1481481
        k(    6) = (   0.3333333   0.0000000  -0.0000000), wk =   0.1481481
        k(    7) = (   0.3333333   0.0000000   0.3333333), wk =   0.1481481
        k(    8) = (   0.3333333   0.0000000  -0.3333333), wk =   0.1481481
        k(    9) = (   0.3333333   0.3333333  -0.0000000), wk =   0.1481481
        k(   10) = (   0.3333333   0.3333333   0.3333333), wk =   0.1481481
        k(   11) = (   0.3333333   0.3333333  -0.3333333), wk =   0.1481481
        k(   12) = (   0.3333333  -0.3333333   0.0000000), wk =   0.1481481
        k(   13) = (   0.3333333  -0.3333333   0.3333333), wk =   0.1481481
        k(   14) = (   0.3333333  -0.3333333  -0.3333333), wk =   0.1481481

     Check: negative core charge=   -0.000011

     Initial potential from superposition of free atoms

     starting charge      79.9290, renormalised to      80.0000

     negative rho (up, down):  1.265E-01 0.000E+00
     Starting wfcs are   70 randomized atomic wfcs
     Checking if some PAW data can be deallocated...

     Self-consistent Calculation

     iteration #  1     ecut=    30.00 Ry     beta= 0.70
     Davidson diagonalization with overlap

     ethr =  1.00E-02,  avg # of iterations =  3.7

     negative rho (up, down):  1.286E-01 0.000E+00

     total energy              =    -615.55603149 Ry
     estimated scf accuracy    <       2.92775063 Ry

[...]

     total energy              =    -617.01218534 Ry
     estimated scf accuracy    <       0.00001037 Ry

     iteration #  8     ecut=    30.00 Ry     beta= 0.70
     Davidson diagonalization with overlap

     ethr =  1.30E-08,  avg # of iterations =  2.0

     negative rho (up, down):  1.331E-01 0.000E+00

     End of self-consistent calculation

          k = 0.0000 0.0000 0.0000 (  2661 PWs)   bands (ev):

   -50.6911 -50.6804 -23.4854 -23.4529 -19.6462 -19.6381 -19.6240 -19.5239
   -19.5133 -19.4948  -7.7435  -7.3366  -7.2988  -6.6349  -6.4582  -6.3815
    -5.7074  -5.4895  -5.4826  -5.3103  -5.2954  -5.2623   4.9536   5.4550
     5.5034   5.9608   5.9943   5.9992   7.2561   7.3321   7.3673   8.0958
     8.3214   8.3826   8.7217   8.7714   8.8401   8.9088   8.9208   8.9546
    13.0700  13.2811  13.3742  14.0728  14.9386  15.5513  15.7152  15.9141
    15.9701  16.1960  16.5873  16.5900  18.1409  18.1452  18.2765  18.3612
    18.3778  18.4809  18.6571  18.8198  22.0744  22.3598  22.4161  22.8356

     occupation numbers
     1.0000   1.0000   1.0000   1.0000   1.0000   1.0000   1.0000   1.0000
     1.0000   1.0000   1.0000   1.0000   1.0000   1.0000   1.0000   1.0000
     1.0000   1.0000   1.0000   1.0000   1.0000   1.0000   1.0000   1.0000
     1.0000   1.0000   1.0000   1.0000   1.0000   1.0000   1.0000   1.0000
     1.0000   1.0000   1.0000   1.0000   1.0000   1.0000   1.0000   1.0000
     0.0000   0.0000   0.0000   0.0000   0.0000   0.0000   0.0000   0.0000
     0.0000   0.0000   0.0000   0.0000   0.0000   0.0000   0.0000   0.0000
     0.0000   0.0000   0.0000   0.0000   0.0000   0.0000   0.0000   0.0000

[...]

          k = 0.3333-0.3309-0.4704 (  2600 PWs)   bands (ev):

   -50.6660 -50.6604 -23.4701 -23.4690 -19.6231 -19.6134 -19.6077 -19.5451
   -19.5338 -19.4840  -7.6389  -7.4735  -7.0113  -6.9875  -6.9586  -6.5658
    -5.4459  -5.3351  -5.3188  -5.1869  -5.1456  -4.9991   5.2884   5.5686
     5.8352   5.9403   6.2867   6.6910   6.7947   6.9998   7.1964   7.2934
     7.6881   7.7640   8.0474   8.1363   8.2840   8.3188   8.5246   8.7987
    14.3777  14.8338  14.9147  15.0978  15.5575  15.8426  16.3424  16.8115
    16.8879  17.1086  17.1935  17.4057  17.4871  17.8223  17.9496  18.1998
    18.3194  18.9958  19.2000  19.4606  19.5077  20.9856  20.9903  22.1265

     occupation numbers
     1.0000   1.0000   1.0000   1.0000   1.0000   1.0000   1.0000   1.0000
     1.0000   1.0000   1.0000   1.0000   1.0000   1.0000   1.0000   1.0000
     1.0000   1.0000   1.0000   1.0000   1.0000   1.0000   1.0000   1.0000
     1.0000   1.0000   1.0000   1.0000   1.0000   1.0000   1.0000   1.0000
     1.0000   1.0000   1.0000   1.0000   1.0000   1.0000   1.0000   1.0000
     0.0000   0.0000   0.0000   0.0000   0.0000   0.0000   0.0000   0.0000
     0.0000   0.0000   0.0000   0.0000   0.0000   0.0000   0.0000   0.0000
     0.0000   0.0000   0.0000   0.0000   0.0000   0.0000   0.0000   0.0000

     highest occupied, lowest unoccupied level (ev):     9.0488   13.0700

!    total energy              =    -617.01218726 Ry
     estimated scf accuracy    <       0.00000008 Ry

     The total energy is the sum of the following terms:
     one-electron contribution =    -117.37414126 Ry
     hartree contribution      =     102.33111415 Ry
     xc contribution           =    -138.79442433 Ry
     ewald contribution        =    -406.06058752 Ry
     one-center paw contrib.   =     -57.11414830 Ry
      -> PAW hartree energy AE =       0.00000000 Ry
      -> PAW hartree energy PS =       0.00000000 Ry
      -> PAW xc energy AE      =       0.00000000 Ry
      -> PAW xc energy PS      =       0.00000000 Ry
      -> total E_H with PAW    =     102.33111415 Ry
      -> total E_XC with PAW   =    -138.79442433 Ry

     convergence has been achieved in   8 iterations

     Writing all to output data dir calculations_bands/myprefix.save/

     General routines

     Parallel routines

     PAW routines

   This run was terminated on:   5:42:58   5Jun2023

   JOB DONE.