     Program PWSCF v.7.1 starts on 15Jul2023 at 21:59: 3

     Reading input from espresso_6467.pwi
Warning: card &CELL ignored
Warning: card / ignored

     Current dimensions of program PWSCF are:
     Max number of different atomic species (ntypx) = 10
     Max number of k-points (npk) =  40000
     Max angular momentum in pseudopotentials (lmaxx) =  4
     file Sm.paw.z_16.atompaw.wentzcovitch.v1.2.upf: wavefunction(s)  6S 0P 5D 0D 4F 0F renormalized
     file O.pbe-n-kjpaw_psl.0.1.UPF: wavefunction(s)  2P renormalized
     Message from routine setup:
     using ibrav=0 with symmetry is DISCOURAGED, use correct ibrav instead

     K-points division:     npool     =       2
     R & G space division:  proc/nbgrp/npool/nimage =       4
     Subspace diagonalization in iterative solution of the eigenvalue problem:
     one sub-group per band group will be used

     Using Slab Decomposition

     bravais-lattice index     =            0
     lattice parameter (alat)  =      13.2309  a.u.
     unit-cell volume          =    1637.7535 (a.u.)^3
     number of atoms/cell      =           14
     number of atomic types    =            3
     number of electrons       =       132.00
     number of Kohn-Sham states=          256
     kinetic-energy cutoff     =      30.0000  Ry
     charge density cutoff     =     240.0000  Ry
     scf convergence threshold =      1.0E-06
     mixing beta               =       0.7000
     number of iterations used =            8  plain     mixing
     Exchange-correlation= SLA  PW   PBX  PBC
                           (   1   4   3   4   0   0   0)

     celldm(1)=  13.230853  celldm(2)=   0.000000  celldm(3)=   0.000000
     celldm(4)=   0.000000  celldm(5)=   0.000000  celldm(6)=   0.000000

     crystal axes: (cart. coord. in units of alat)
               a(1) = (   1.000000   0.000000   0.000000 )
               a(2) = (   0.500000   0.866025   0.000000 )
               a(3) = (   0.500000   0.288675   0.816497 )

     reciprocal axes: (cart. coord. in units 2 pi/alat)
               b(1) = (  1.000000 -0.577350 -0.408248 )
               b(2) = (  0.000000  1.154701 -0.408248 )
               b(3) = (  0.000000  0.000000  1.224745 )

     PseudoPot. # 1 for Ca read from file:
     /lustre07/scratch/pragov/crystal_structure_design/utils/SSSP/Ca_pbe_v1.uspp.F.UPF
     MD5 check sum: 403a4c14b9e4d4dfdc3024c9a3812218
     Pseudo is Ultrasoft + core correction, Zval = 10.0
     Generated by new atomic code, or converted to UPF format
     Using radial grid of  845 points,  6 beta functions with:
                l(1) =   0
                l(2) =   0
                l(3) =   1
                l(4) =   1
                l(5) =   2
                l(6) =   2
     Q(r) pseudized with  8 coefficients,  rinner =    1.500   1.500   1.500
                                                       1.500   1.500

     PseudoPot. # 2 for Sm read from file:
     /lustre07/scratch/pragov/crystal_structure_design/utils/SSSP/Sm.paw.z_16.atompaw.wentzcovitch.v1.2.upf
     MD5 check sum: d38221e44bcfc3c784cbdb498a69732f
     Pseudo is Projector augmented-wave + core cor, Zval = 16.0
     Generated using ATOMPAW code
     Shape of augmentation charge: BESSEL
     Using radial grid of 1107 points,  8 beta functions with:
                l(1) =   0
                l(2) =   0
                l(3) =   1
                l(4) =   1
                l(5) =   2
                l(6) =   2
                l(7) =   3
                l(8) =   3
     Q(r) pseudized with 0 coefficients

     PseudoPot. # 3 for O  read from file:
     /lustre07/scratch/pragov/crystal_structure_design/utils/SSSP/O.pbe-n-kjpaw_psl.0.1.UPF
     MD5 check sum: 0234752ac141de4415c5fc33072bef88
     Pseudo is Projector augmented-wave + core cor, Zval =  6.0
     Generated using "atomic" code by A. Dal Corso  v.5.0.99 svn rev. 10869
     Shape of augmentation charge: BESSEL
     Using radial grid of 1095 points,  4 beta functions with:
                l(1) =   0
                l(2) =   0
                l(3) =   1
                l(4) =   1
     Q(r) pseudized with 0 coefficients

     atomic species   valence    mass     pseudopotential
        Ca            10.00    40.07800     Ca( 1.00)
        Sm            16.00   150.36000     Sm( 1.00)
        O              6.00    15.99900     O ( 1.00)

     12 Sym. Ops., with inversion, found ( 6 have fractional translation)

                                    s                        frac. trans.

      isym =  1     identity

 cryst.   s( 1) = (     1          0          0      )
                  (     0          1          0      )
                  (     0          0          1      )

 cart.    s( 1) = (  1.0000000  0.0000000  0.0000000 )
                  (  0.0000000  1.0000000 -0.0000000 )
                  (  0.0000000  0.0000000  1.0000000 )

      isym =  2     180 deg rotation - cart. axis [1,0,0]

 cryst.   s( 2) = (     1          0          0      )    f =( -0.2500000 )
                  (     1         -1          0      )       ( -0.2500000 )
                  (     1          0         -1      )       ( -0.2500000 )

 cart.    s( 2) = (  1.0000000  0.0000000 -0.0000000 )    f =( -0.5000000 )
                  (  0.0000000 -1.0000000  0.0000000 )       ( -0.2886751 )
                  (  0.0000000  0.0000000 -1.0000000 )       ( -0.2041241 )

      isym =  3     120 deg rotation - cryst. axis [0,0,1]

[...]

      isym =  6     180 deg rotation - cryst. axis [1,1,0]

[...]

      isym =  7     inversion

[...]

      isym =  8     inv. 180 deg rotation - cart. axis [1,0,0]

 cryst.   s( 8) = (    -1          0          0      )
                  (    -1          1          0      )
                  (    -1          0          1      )

 cart.    s( 8) = ( -1.0000000  0.0000000  0.0000000 )
                  (  0.0000000  1.0000000 -0.0000000 )
                  (  0.0000000  0.0000000  1.0000000 )

      isym =  9     inv. 120 deg rotation - cryst. axis [0,0,1]

 cryst.   s( 9) = (     1         -1          0      )    f =( -0.2500000 )
                  (     1          0          0      )       ( -0.2500000 )
                  (     1          0         -1      )       ( -0.2500000 )

 cart.    s( 9) = (  0.5000000  0.8660254 -0.0000000 )    f =( -0.5000000 )
                  ( -0.8660254  0.5000000  0.0000000 )       ( -0.2886751 )
                  (  0.0000000  0.0000000 -1.0000000 )       ( -0.2041241 )

[...]

 cryst.   s(10) = (     0          1          0      )    f =( -0.2500000 )
                  (    -1          1          0      )       ( -0.2500000 )
                  (     0          1         -1      )       ( -0.2500000 )

 cart.    s(10) = (  0.5000000 -0.8660254 -0.0000000 )    f =( -0.5000000 )
                  (  0.8660254  0.5000000  0.0000000 )       ( -0.2886751 )
                  (  0.0000000  0.0000000 -1.0000000 )       ( -0.2041241 )

[...]

 cryst.   s(11) = (     0          1          0      )
                  (     1          0          0      )
                  (     0          0          1      )

 cart.    s(11) = (  0.5000000  0.8660254  0.0000000 )
                  (  0.8660254 -0.5000000 -0.0000000 )
                  (  0.0000000  0.0000000  1.0000000 )

      isym = 12     inv. 180 deg rotation - cryst. axis [1,1,0]

 cryst.   s(12) = (     1         -1          0      )
                  (     0         -1          0      )
                  (     0         -1          1      )

 cart.    s(12) = (  0.5000000 -0.8660254  0.0000000 )
                  ( -0.8660254 -0.5000000  0.0000000 )
                  (  0.0000000  0.0000000  1.0000000 )

   Cartesian axes

     site n.     atom                  positions (alat units)
         1           Ca  tau(   1) = (   1.0000000   0.5773503   0.4082483  )
         2           Ca  tau(   2) = (   1.5000000   0.8660254   0.6123724  )
         3           Sm  tau(   3) = (   0.2500000   0.1443376   0.1020621  )
         4           Sm  tau(   4) = (   0.7500000   0.1443376   0.1020621  )
         5           Sm  tau(   5) = (   0.5000000   0.5773503   0.1020621  )
         6           Sm  tau(   6) = (   0.5000000   0.2886751   0.5103104  )
         7           O   tau(   7) = (   0.9999995   0.5773500   0.7422550  )
         8           O   tau(   8) = (   1.2727150   0.4198976   0.2969124  )
         9           O   tau(   9) = (   0.9999995   0.8922547   0.2969124  )
        10           O   tau(  10) = (   1.7727160   1.0234781   0.7237083  )
        11           O   tau(  11) = (   0.7272840   0.4198976   0.2969124  )
        12           O   tau(  12) = (   1.5000005   0.5511210   0.7237083  )
        13           O   tau(  13) = (   1.2272850   1.0234781   0.7237083  )
        14           O   tau(  14) = (   1.5000005   0.8660257   0.2783657  )

   Crystallographic axes

     site n.     atom                  positions (cryst. coord.)
         1           Ca  tau(   1) = (  0.5000000  0.5000000  0.5000000  )
         2           Ca  tau(   2) = (  0.7500000  0.7500000  0.7500000  )
         3           Sm  tau(   3) = (  0.1250000  0.1250000  0.1250000  )
         4           Sm  tau(   4) = (  0.6250000  0.1250000  0.1250000  )
         5           Sm  tau(   5) = (  0.1250000  0.6250000  0.1250000  )
         6           Sm  tau(   6) = (  0.1250000  0.1250000  0.6250000  )
         7           O   tau(   7) = (  0.3636420  0.3636420  0.9090730  )
         8           O   tau(   8) = (  0.9090730  0.3636420  0.3636420  )
         9           O   tau(   9) = (  0.3636420  0.9090730  0.3636420  )
        10           O   tau(  10) = (  0.8863580  0.8863580  0.8863580  )
        11           O   tau(  11) = (  0.3636420  0.3636420  0.3636420  )
        12           O   tau(  12) = (  0.8863580  0.3409270  0.8863580  )
        13           O   tau(  13) = (  0.3409270  0.8863580  0.8863580  )
        14           O   tau(  14) = (  0.8863580  0.8863580  0.3409270  )

     number of k points=     6
                       cart. coord. in units 2pi/alat
        k(    1) = (   0.0000000   0.0000000   0.0000000), wk =   0.0740741
        k(    2) = (   0.0000000   0.0000000   0.4082483), wk =   0.1481481
        k(    3) = (   0.0000000   0.3849002  -0.1360828), wk =   0.4444444
        k(    4) = (   0.0000000   0.3849002   0.2721655), wk =   0.4444444
        k(    5) = (   0.0000000   0.3849002  -0.5443311), wk =   0.4444444
        k(    6) = (   0.3333333  -0.5773503   0.0000000), wk =   0.4444444

                       cryst. coord.
        k(    1) = (   0.0000000   0.0000000   0.0000000), wk =   0.0740741
        k(    2) = (   0.0000000   0.0000000   0.3333333), wk =   0.1481481
        k(    3) = (   0.0000000   0.3333333   0.0000000), wk =   0.4444444
        k(    4) = (   0.0000000   0.3333333   0.3333333), wk =   0.4444444
        k(    5) = (   0.0000000   0.3333333  -0.3333333), wk =   0.4444444
        k(    6) = (   0.3333333  -0.3333333   0.0000000), wk =   0.4444444

     Check: negative core charge=   -0.000010

     Initial potential from superposition of free atoms

     starting charge     131.9667, renormalised to     132.0000
     Starting wfcs are  180 randomized atomic wfcs +   76 random wfcs
     Checking if some PAW data can be deallocated...

     Self-consistent Calculation

     iteration #  1     ecut=    30.00 Ry     beta= 0.70
     Davidson diagonalization with overlap

     ethr =  1.00E-02,  avg # of iterations =  8.0

     total energy              =   -2862.71667664 Ry
     estimated scf accuracy    <      35.73691064 Ry

[...]

     total energy              =   -2900.58160275 Ry
     estimated scf accuracy    <       0.00000198 Ry

     iteration # 59     ecut=    30.00 Ry     beta= 0.70
     Davidson diagonalization with overlap

     ethr =  1.50E-09,  avg # of iterations =  1.0

     End of self-consistent calculation

          k = 0.0000 0.0000 0.0000 (  4573 PWs)   bands (ev):

   -30.7430 -30.7403 -29.5020 -29.3830 -29.3683 -29.3681 -11.9166 -11.9165
   -11.9157 -11.8807 -11.8806 -11.8801 -11.3154 -10.6000 -10.6000 -10.5961
    -9.3004  -9.3004  -8.8603  -8.8602  -8.8460  -8.7883  -8.7858  -8.7856
    -8.2791  -8.1236  -8.1236  -8.1192  -6.2130  -6.2018  -6.2017  -6.1965
     4.4498   5.1360   5.1391   5.1391   5.6925   5.6925   6.0592   6.0592
     6.0639   6.0828   6.0837   6.0837   6.5110   6.5111   6.5156   6.5202
     6.5557   6.5557   6.9265   6.9265   6.9322   7.0496   7.0617   7.0617
     9.6029   9.6746   9.6746   9.6986   9.7677   9.7677   9.8719   9.8721
     9.8933   9.9020   9.9608   9.9726   9.9726  10.0101  10.0101  10.0550
    10.0605  10.0606  10.0884  10.2087  10.2714  10.2714  10.2888  10.2889
    10.3463  10.4325  10.4452  10.4452  11.5059  11.7515  11.7515  12.8658
    13.5365  13.5396  13.5397  14.2707  14.2707  14.5526  14.5526  14.5546
    15.0872  15.0872  15.4716  15.4716  15.4720  15.7061  15.7061  15.7063
    16.3945  16.3945  16.3948  16.8653  16.8654  16.8700  16.9476  16.9476
    16.9484  17.5943  17.8865  17.8865  18.8537  18.9111  18.9112  18.9138
    19.5714  19.5714  19.5974  19.5974  19.5987  19.9395  22.1700  22.1701
    22.1764  22.1807  22.1807  22.1807  24.2356  25.3278  25.3287  25.3288
    25.4835  25.4896  25.4896  25.6619  25.6619  25.9366  25.9366  26.6393
    26.6394  26.6398  26.7408  26.7408  26.7419  29.0503  29.8236  29.8328
    29.8328  29.9069  29.9069  29.9073  30.9476  30.9476  30.9478  31.2343
    32.0058  32.0059  32.0069  32.1482  32.1505  32.1505  32.1679  32.1679
    32.4246  32.9067  32.9067  33.2947  33.2947  33.2947  33.3378  33.3379
    33.3526  33.5241  34.3576  34.3576  34.3589  34.5017  35.1702  35.1726
    35.1726  35.9527  35.9527  36.9022  36.9023  36.9043  37.0960  37.1019
    37.1020  37.7280  37.7280  38.0320  38.0320  38.0322  38.6436  38.6819
    38.6820  39.0860  39.0860  39.3415  39.3415  39.3566  40.0046  40.0046
    40.0067  40.7929  41.0277  41.0277  41.0467  41.0521  41.0521  41.7348
    41.7348  41.7397  42.0674  42.2012  42.2160  42.2160  42.9200  43.4142
    43.4163  43.4164  43.8791  43.8791  43.8798  44.7721  44.7722  44.7737
    44.9037  44.9037  44.9042  45.2499  45.7900  45.7900  45.7919  45.8193
    45.8193  46.4914  46.7648  46.7671  46.7671  46.8808  46.8808  48.2944
    48.2971  48.2971  48.4033  48.4033  48.7544  48.7544  48.7578  50.3308

     occupation numbers
     1.0000   1.0000   1.0000   1.0000   1.0000   1.0000   1.0000   1.0000
     1.0000   1.0000   1.0000   1.0000   1.0000   1.0000   1.0000   1.0000
     1.0000   1.0000   1.0000   1.0000   1.0000   1.0000   1.0000   1.0000
     1.0000   1.0000   1.0000   1.0000   1.0000   1.0000   1.0000   1.0000
     1.0000   1.0000   1.0000   1.0000   1.0000   1.0000   1.0000   1.0000
     1.0000   1.0000   1.0000   1.0000   1.0000   1.0000   1.0000   1.0000
     1.0000   1.0000   1.0000   1.0000   1.0000   1.0000   1.0000   1.0000
     1.0000   1.0000   1.0000   1.0000   1.0000   1.0000   1.0000   1.0000
     1.0000   1.0000   0.0000   0.0000   0.0000   0.0000   0.0000   0.0000
     0.0000   0.0000   0.0000   0.0000   0.0000   0.0000   0.0000   0.0000
     0.0000   0.0000   0.0000   0.0000   0.0000   0.0000   0.0000   0.0000
     0.0000   0.0000   0.0000   0.0000   0.0000   0.0000   0.0000   0.0000
     0.0000   0.0000   0.0000   0.0000   0.0000   0.0000   0.0000   0.0000
     0.0000   0.0000   0.0000   0.0000   0.0000   0.0000   0.0000   0.0000
     0.0000   0.0000   0.0000   0.0000   0.0000   0.0000   0.0000   0.0000
     0.0000   0.0000   0.0000   0.0000   0.0000   0.0000   0.0000   0.0000
     0.0000   0.0000   0.0000   0.0000   0.0000   0.0000   0.0000   0.0000
     0.0000   0.0000   0.0000   0.0000   0.0000   0.0000   0.0000   0.0000
     0.0000   0.0000   0.0000   0.0000   0.0000   0.0000   0.0000   0.0000
     0.0000   0.0000   0.0000   0.0000   0.0000   0.0000   0.0000   0.0000
     0.0000   0.0000   0.0000   0.0000   0.0000   0.0000   0.0000   0.0000
     0.0000   0.0000   0.0000   0.0000   0.0000   0.0000   0.0000   0.0000
     0.0000   0.0000   0.0000   0.0000   0.0000   0.0000   0.0000   0.0000
     0.0000   0.0000   0.0000   0.0000   0.0000   0.0000   0.0000   0.0000
     0.0000   0.0000   0.0000   0.0000   0.0000   0.0000   0.0000   0.0000
     0.0000   0.0000   0.0000   0.0000   0.0000   0.0000   0.0000   0.0000
     0.0000   0.0000   0.0000   0.0000   0.0000   0.0000   0.0000   0.0000
     0.0000   0.0000   0.0000   0.0000   0.0000   0.0000   0.0000   0.0000
     0.0000   0.0000   0.0000   0.0000   0.0000   0.0000   0.0000   0.0000
     0.0000   0.0000   0.0000   0.0000   0.0000   0.0000   0.0000   0.0000
     0.0000   0.0000   0.0000   0.0000   0.0000   0.0000   0.0000   0.0000
     0.0000   0.0000   0.0000   0.0000   0.0000   0.0000   0.0000   0.0000

[...]

          k = 0.3333-0.5774 0.0000 (  4528 PWs)   bands (ev):

   -30.7419 -30.7413 -29.4584 -29.4168 -29.3794 -29.3683 -11.9053 -11.9033
   -11.9020 -11.8904 -11.8888 -11.8804 -10.7742 -10.4584 -10.2997 -10.1720
   -10.1193  -9.9836  -9.6451  -9.5857  -9.0808  -8.9673  -8.9520  -8.8125
    -7.4625  -7.4309  -6.8974  -6.8971  -6.8740  -6.8586  -6.4882  -6.4179
     5.2977   5.4167   5.4874   5.5337   5.6432   5.7952   5.8083   5.8275
     5.8377   5.8810   5.9123   5.9931   6.3036   6.3074   6.4806   6.6588
     6.6689   6.7047   6.8113   6.8466   6.8508   6.8531   6.9347   7.0761
     9.6657   9.7276   9.7445   9.7587   9.7596   9.7834   9.8471   9.8814
     9.8950   9.9007   9.9144   9.9171   9.9463   9.9710   9.9757  10.0208
    10.0277  10.0695  10.1033  10.1371  10.1408  10.1451  10.2096  10.2459
    10.3196  10.3221  10.3434  10.3496  12.7571  12.9681  13.0772  13.1560
    13.2639  13.5470  13.6166  13.6947  13.8054  13.8781  14.0332  14.4048
    14.5092  14.6931  14.8719  14.9082  15.4896  15.4917  15.6250  15.6900
    15.8280  15.8399  15.8638  15.8950  15.9299  16.8383  17.1512  17.6379
    17.8924  18.2533  18.3735  18.4259  18.4818  18.7457  19.1343  19.5345
    19.8580  20.4119  20.4233  20.4771  20.4992  21.2422  21.6073  21.6941
    21.7226  22.1251  23.1129  23.2464  23.5500  23.7101  23.9808  24.1143
    24.8898  25.0597  25.2328  25.5408  25.6892  25.8153  25.9922  26.5121
    27.3920  27.8103  27.8150  28.1702  28.2101  28.6484  28.8166  29.2810
    29.3890  29.7385  29.7730  29.9140  30.3390  30.5644  30.5984  30.6465
    30.7237  31.0864  31.1461  31.4871  31.7124  31.7164  31.9204  32.3840
    32.5133  32.5388  33.0951  33.6621  33.6661  33.8716  34.0862  34.0900
    34.4196  34.4376  34.8343  35.0393  35.0983  35.2157  35.3626  35.5560
    35.6581  35.7784  35.9773  36.6403  36.6604  36.7768  37.1033  37.3436
    37.5891  37.6725  37.7625  37.8500  38.1909  38.2135  38.5351  38.6542
    38.9186  38.9256  38.9744  38.9756  39.5423  39.7703  40.1936  40.3115
    40.3850  40.4855  40.5465  40.5483  41.2203  41.2379  41.3591  41.4956
    41.5384  42.0119  42.1051  42.3810  42.7367  42.9485  42.9763  43.0059
    43.2857  43.2922  43.5393  43.9954  44.0121  44.0222  44.1271  44.4152
    44.7650  44.8117  45.1105  45.4707  45.5763  45.5816  45.7015  46.3254
    46.3944  46.4587  46.5679  46.9380  46.9898  47.2204  47.2836  47.3042
    47.5077  47.5144  47.6786  48.0008  48.0745  48.2398  48.4068  48.7031

     occupation numbers
     1.0000   1.0000   1.0000   1.0000   1.0000   1.0000   1.0000   1.0000
     1.0000   1.0000   1.0000   1.0000   1.0000   1.0000   1.0000   1.0000
     1.0000   1.0000   1.0000   1.0000   1.0000   1.0000   1.0000   1.0000
     1.0000   1.0000   1.0000   1.0000   1.0000   1.0000   1.0000   1.0000
     1.0000   1.0000   1.0000   1.0000   1.0000   1.0000   1.0000   1.0000
     1.0000   1.0000   1.0000   1.0000   1.0000   1.0000   1.0000   1.0000
     1.0000   1.0000   1.0000   1.0000   1.0000   1.0000   1.0000   1.0000
     1.0000   1.0000   1.0000   1.0000   1.0000   1.0000   1.0000   1.0000
     1.0000   1.0000   0.0000   0.0000   0.0000   0.0000   0.0000   0.0000
     0.0000   0.0000   0.0000   0.0000   0.0000   0.0000   0.0000   0.0000
     0.0000   0.0000   0.0000   0.0000   0.0000   0.0000   0.0000   0.0000
     0.0000   0.0000   0.0000   0.0000   0.0000   0.0000   0.0000   0.0000
     0.0000   0.0000   0.0000   0.0000   0.0000   0.0000   0.0000   0.0000
     0.0000   0.0000   0.0000   0.0000   0.0000   0.0000   0.0000   0.0000
     0.0000   0.0000   0.0000   0.0000   0.0000   0.0000   0.0000   0.0000
     0.0000   0.0000   0.0000   0.0000   0.0000   0.0000   0.0000   0.0000
     0.0000   0.0000   0.0000   0.0000   0.0000   0.0000   0.0000   0.0000
     0.0000   0.0000   0.0000   0.0000   0.0000   0.0000   0.0000   0.0000
     0.0000   0.0000   0.0000   0.0000   0.0000   0.0000   0.0000   0.0000
     0.0000   0.0000   0.0000   0.0000   0.0000   0.0000   0.0000   0.0000
     0.0000   0.0000   0.0000   0.0000   0.0000   0.0000   0.0000   0.0000
     0.0000   0.0000   0.0000   0.0000   0.0000   0.0000   0.0000   0.0000
     0.0000   0.0000   0.0000   0.0000   0.0000   0.0000   0.0000   0.0000
     0.0000   0.0000   0.0000   0.0000   0.0000   0.0000   0.0000   0.0000
     0.0000   0.0000   0.0000   0.0000   0.0000   0.0000   0.0000   0.0000
     0.0000   0.0000   0.0000   0.0000   0.0000   0.0000   0.0000   0.0000
     0.0000   0.0000   0.0000   0.0000   0.0000   0.0000   0.0000   0.0000
     0.0000   0.0000   0.0000   0.0000   0.0000   0.0000   0.0000   0.0000
     0.0000   0.0000   0.0000   0.0000   0.0000   0.0000   0.0000   0.0000
     0.0000   0.0000   0.0000   0.0000   0.0000   0.0000   0.0000   0.0000
     0.0000   0.0000   0.0000   0.0000   0.0000   0.0000   0.0000   0.0000
     0.0000   0.0000   0.0000   0.0000   0.0000   0.0000   0.0000   0.0000

     highest occupied, lowest unoccupied level (ev):     9.9064    9.9124

!    total energy              =   -2900.58160332 Ry
     estimated scf accuracy    <       0.00000089 Ry

     The total energy is the sum of the following terms:
     one-electron contribution =    -431.33261962 Ry
     hartree contribution      =     309.66195915 Ry
     xc contribution           =    -155.73813783 Ry
     ewald contribution        =    -748.85269211 Ry
     one-center paw contrib.   =   -1874.32011292 Ry
      -> PAW hartree energy AE =       0.00000000 Ry
      -> PAW hartree energy PS =       0.00000000 Ry
      -> PAW xc energy AE      =       0.00000000 Ry
      -> PAW xc energy PS      =       0.00000000 Ry
      -> total E_H with PAW    =     309.66195915 Ry
      -> total E_XC with PAW   =    -155.73813783 Ry

     convergence has been achieved in  59 iterations

     Writing all to output data dir bands_nm/myprefix.save/

     General routines

     Parallel routines

     PAW routines

   This run was terminated on:  22: 1:39  15Jul2023

   JOB DONE.