     Program PWSCF v.7.1 starts on 16Jul2023 at 14: 3:13

     Reading input from espresso_26160.pwi
Warning: card &CELL ignored
Warning: card / ignored

     Current dimensions of program PWSCF are:
     Max number of different atomic species (ntypx) = 10
     Max number of k-points (npk) =  40000
     Max angular momentum in pseudopotentials (lmaxx) =  4
     file In.pbe-dn-rrkjus_psl.0.2.2.UPF: wavefunction(s)  5S renormalized
     file O.pbe-n-kjpaw_psl.0.1.UPF: wavefunction(s)  2P renormalized
     Message from routine setup:
     using ibrav=0 with symmetry is DISCOURAGED, use correct ibrav instead

     K-points division:     npool     =       2
     R & G space division:  proc/nbgrp/npool/nimage =       4
     Subspace diagonalization in iterative solution of the eigenvalue problem:
     a serial algorithm will be used

     Using Slab Decomposition

     bravais-lattice index     =            0
     lattice parameter (alat)  =      10.8409  a.u.
     unit-cell volume          =    1489.7965 (a.u.)^3
     number of atoms/cell      =           18
     number of atomic types    =            5
     number of electrons       =       114.00
     number of Kohn-Sham states=           64
     kinetic-energy cutoff     =      30.0000  Ry
     charge density cutoff     =     240.0000  Ry
     scf convergence threshold =      1.0E-06
     mixing beta               =       0.7000
     number of iterations used =            8  plain     mixing
     Exchange-correlation= SLA  PW   PBX  PBC
                           (   1   4   3   4   0   0   0)

     celldm(1)=  10.840852  celldm(2)=   0.000000  celldm(3)=   0.000000
     celldm(4)=   0.000000  celldm(5)=   0.000000  celldm(6)=   0.000000

     crystal axes: (cart. coord. in units of alat)
               a(1) = (   1.000000   0.000000   0.000000 )
               a(2) = (  -0.500000   0.977971   0.000000 )
               a(3) = (   0.000000  -0.499741   1.195669 )

     reciprocal axes: (cart. coord. in units 2 pi/alat)
               b(1) = (  1.000000  0.511263  0.213687 )
               b(2) = (  0.000000  1.022526  0.427374 )
               b(3) = (  0.000000  0.000000  0.836352 )

     PseudoPot. # 1 for Na read from file:
     /lustre07/scratch/pragov/crystal_structure_design/utils/SSSP/na_pbe_v1.5.uspp.F.UPF
     MD5 check sum: 44600605ef58000f06b90626533354dc
     Pseudo is Ultrasoft, Zval =  9.0
     Generated by new atomic code, or converted to UPF format
     Using radial grid of  819 points,  5 beta functions with:
                l(1) =   0
                l(2) =   0
                l(3) =   1
                l(4) =   1
                l(5) =   2
     Q(r) pseudized with  8 coefficients,  rinner =    1.250   1.250   1.250
                                                       1.250   1.250

     PseudoPot. # 2 for Cr read from file:
     /lustre07/scratch/pragov/crystal_structure_design/utils/SSSP/cr_pbe_v1.5.uspp.F.UPF
     MD5 check sum: 0d52af634a40206e4dee301ad30da4bf
     Pseudo is Ultrasoft + core correction, Zval = 14.0
     Generated by new atomic code, or converted to UPF format
     Using radial grid of  857 points,  6 beta functions with:
                l(1) =   0
                l(2) =   0
                l(3) =   1
                l(4) =   1
                l(5) =   2
                l(6) =   2
     Q(r) pseudized with  8 coefficients,  rinner =    0.950   0.950   0.950
                                                       0.950   0.950

     PseudoPot. # 3 for In read from file:
     /lustre07/scratch/pragov/crystal_structure_design/utils/SSSP/In.pbe-dn-rrkjus_psl.0.2.2.UPF
     MD5 check sum: 25e7c42c3b55b68f4bf926be2e7201a4
     Pseudo is Ultrasoft + core correction, Zval = 13.0
     Generated using "atomic" code by A. Dal Corso  v.5.0.99 svn rev. 10869
     Using radial grid of 1241 points,  6 beta functions with:
                l(1) =   0
                l(2) =   0
                l(3) =   1
                l(4) =   1
                l(5) =   2
                l(6) =   2
     Q(r) pseudized with 0 coefficients

     PseudoPot. # 4 for H  read from file:
     /lustre07/scratch/pragov/crystal_structure_design/utils/SSSP/H.pbe-rrkjus_psl.1.0.0.UPF
     MD5 check sum: f52b6d4d1c606e5624b1dc7b2218f220
     Pseudo is Ultrasoft, Zval =  1.0
     Generated using "atomic" code by A. Dal Corso  v.5.1
     Using radial grid of  929 points,  2 beta functions with:
                l(1) =   0
                l(2) =   0
     Q(r) pseudized with 0 coefficients

     PseudoPot. # 5 for O  read from file:
     /lustre07/scratch/pragov/crystal_structure_design/utils/SSSP/O.pbe-n-kjpaw_psl.0.1.UPF
     MD5 check sum: 0234752ac141de4415c5fc33072bef88
     Pseudo is Projector augmented-wave + core cor, Zval =  6.0
     Generated using "atomic" code by A. Dal Corso  v.5.0.99 svn rev. 10869
     Shape of augmentation charge: BESSEL
     Using radial grid of 1095 points,  4 beta functions with:
                l(1) =   0
                l(2) =   0
                l(3) =   1
                l(4) =   1
     Q(r) pseudized with 0 coefficients

     atomic species   valence    mass     pseudopotential
        Na             9.00    22.98977     Na( 1.00)
        Cr            14.00    51.99610     Cr( 1.00)
        In            13.00   114.81800     In( 1.00)
        H              1.00     1.00800     H ( 1.00)
        O              6.00    15.99900     O ( 1.00)

      4 Sym. Ops., with inversion, found

                                    s                        frac. trans.

      isym =  1     identity

 cryst.   s( 1) = (     1          0          0      )
                  (     0          1          0      )
                  (     0          0          1      )

 cart.    s( 1) = (  1.0000000  0.0000000  0.0000000 )
                  (  0.0000000  1.0000000  0.0000000 )
                  (  0.0000000  0.0000000  1.0000000 )

      isym =  2     180 deg rotation - cart. axis [1,0,0]

[...]

      isym =  3     inversion

[...]

      isym =  4     inv. 180 deg rotation - cart. axis [1,0,0]

 cryst.   s( 4) = (    -1          0          0      )
                  (     1          1          0      )
                  (     0          0          1      )

 cart.    s( 4) = ( -1.0000000  0.0000000  0.0000000 )
                  (  0.0000000  1.0000000  0.0000000 )
                  (  0.0000000  0.0000000  1.0000000 )

   Cartesian axes

     site n.     atom                  positions (alat units)
         1           Na  tau(   1) = (   0.0000000  -0.2498704   0.5978343  )
         2           Cr  tau(   2) = (   0.4999995   0.0607290   0.3774260  )
         3           Cr  tau(   3) = (   0.0000005   0.4175009   0.8182427  )
         4           In  tau(   4) = (   0.0000000   0.0000000   0.0000000  )
         5           H   tau(   5) = (   0.0000005   0.4313385   0.2419436  )
         6           H   tau(   6) = (   0.4999995   0.0468915   0.9537251  )
         7           H   tau(   7) = (   0.0000005  -0.0068035   1.1536026  )
         8           H   tau(   8) = (   0.4999995   0.4850334   0.0420660  )
         9           O   tau(   9) = (   0.0000005   0.3703833   0.0794354  )
        10           O   tau(  10) = (   0.4999995   0.1078467   1.1162332  )
        11           O   tau(  11) = (   0.4999995   0.3403955   0.3196309  )
        12           O   tau(  12) = (   0.0000005   0.1378345   0.8760377  )
        13           O   tau(  13) = (   0.5000000   0.0201052   0.6587859  )
        14           O   tau(  14) = (   0.0000000   0.4581248   0.5368827  )
        15           O   tau(  15) = (   0.7447470  -0.0671110   0.2669342  )
        16           O   tau(  16) = (   0.2552530  -0.0671110   0.2669342  )
        17           O   tau(  17) = (  -0.2447470   0.5453410   0.9287344  )
        18           O   tau(  18) = (   0.2447470   0.5453410   0.9287344  )

   Crystallographic axes

     site n.     atom                  positions (cryst. coord.)
         1           Na  tau(   1) = ( -0.0000000 -0.0000000  0.5000000  )
         2           Cr  tau(   2) = (  0.6116990  0.2233990  0.3156610  )
         3           Cr  tau(   3) = (  0.3883010  0.7766010  0.6843390  )
         4           In  tau(   4) = (  0.0000000  0.0000000  0.0000000  )
         5           H   tau(   5) = (  0.2722280  0.5444550  0.2023500  )
         6           H   tau(   6) = (  0.7277720  0.4555450  0.7976500  )
         7           H   tau(   7) = (  0.2430320  0.4860630  0.9648180  )
         8           H   tau(   8) = (  0.7569680  0.5139370  0.0351820  )
         9           O   tau(   9) = (  0.2063380  0.4126750  0.0664360  )
        10           O   tau(  10) = (  0.7936620  0.5873250  0.9335640  )
        11           O   tau(  11) = (  0.7423320  0.4846650  0.2673240  )
        12           O   tau(  12) = (  0.2576680  0.5153350  0.7326760  )
        13           O   tau(  13) = (  0.6510530  0.3021060  0.5509770  )
        14           O   tau(  14) = (  0.3489470  0.6978940  0.4490230  )
        15           O   tau(  15) = (  0.7674760  0.0454580  0.2232510  )
        16           O   tau(  16) = (  0.2779820  0.0454580  0.2232510  )
        17           O   tau(  17) = (  0.2325240  0.9545420  0.7767490  )
        18           O   tau(  18) = (  0.7220180  0.9545420  0.7767490  )

     number of k points=    10
                       cart. coord. in units 2pi/alat
        k(    1) = (   0.0000000   0.0000000   0.0000000), wk =   0.0740741
        k(    2) = (   0.0000000   0.0000000   0.2787840), wk =   0.1481481
        k(    3) = (   0.0000000   0.3408418   0.1424580), wk =   0.1481481
        k(    4) = (   0.0000000   0.3408418   0.4212420), wk =   0.1481481
        k(    5) = (   0.0000000   0.3408418  -0.1363260), wk =   0.1481481
        k(    6) = (   0.3333333   0.1704209   0.0712290), wk =   0.2962963
        k(    7) = (   0.3333333   0.1704209   0.3500130), wk =   0.2962963
        k(    8) = (   0.3333333   0.1704209  -0.2075550), wk =   0.2962963
        k(    9) = (   0.3333333   0.5112628   0.2136870), wk =   0.1481481
        k(   10) = (   0.3333333   0.5112628   0.4924710), wk =   0.2962963

                       cryst. coord.
        k(    1) = (   0.0000000   0.0000000   0.0000000), wk =   0.0740741
        k(    2) = (   0.0000000   0.0000000   0.3333333), wk =   0.1481481
        k(    3) = (   0.0000000   0.3333333  -0.0000000), wk =   0.1481481
        k(    4) = (   0.0000000   0.3333333   0.3333333), wk =   0.1481481
        k(    5) = (   0.0000000   0.3333333  -0.3333333), wk =   0.1481481
        k(    6) = (   0.3333333  -0.0000000   0.0000000), wk =   0.2962963
        k(    7) = (   0.3333333  -0.0000000   0.3333333), wk =   0.2962963
        k(    8) = (   0.3333333  -0.0000000  -0.3333333), wk =   0.2962963
        k(    9) = (   0.3333333   0.3333333   0.0000000), wk =   0.1481481
        k(   10) = (   0.3333333   0.3333333   0.3333333), wk =   0.2962963

     Check: negative core charge=   -0.000015

     Initial potential from superposition of free atoms

     starting charge     111.9899, renormalised to     114.0000

     negative rho (up, down):  6.892E-04 0.000E+00
     Starting wfcs are   78 randomized atomic wfcs
     Checking if some PAW data can be deallocated...

     Self-consistent Calculation

     iteration #  1     ecut=    30.00 Ry     beta= 0.70
     Davidson diagonalization with overlap

     ethr =  1.00E-02,  avg # of iterations =  2.0

     negative rho (up, down):  7.332E-03 0.000E+00

     total energy              =   -1010.03939237 Ry
     estimated scf accuracy    <       4.11126220 Ry

[...]

     total energy              =   -1012.40320243 Ry
     estimated scf accuracy    <       0.00000784 Ry

     iteration # 11     ecut=    30.00 Ry     beta= 0.70
     Davidson diagonalization with overlap

     ethr =  6.88E-09,  avg # of iterations =  4.4

     negative rho (up, down):  3.425E-03 0.000E+00

     End of self-consistent calculation

          k = 0.0000 0.0000 0.0000 (  4155 PWs)   bands (ev):

   -69.6469 -69.6466 -46.9390 -41.0818 -41.0790 -41.0239 -41.0218 -40.9754
   -40.9734 -18.8447 -18.8432 -18.8317 -16.9754 -16.7529 -14.5913 -14.2782
   -14.1464 -13.9296 -13.9220 -13.8033 -13.7767 -13.7051  -9.9430  -9.9276
    -9.9012  -9.8920  -9.6521  -4.9876  -4.9244  -3.3786  -2.4735  -1.4729
    -1.3550  -1.0989  -0.8260  -0.8174  -0.7847  -0.7792  -0.6290  -0.6251
    -0.5928  -0.5438  -0.4381   0.1328   0.3685   0.6143   0.8259   0.8984
     0.9126   1.2399   1.3256   1.7305   1.9426   2.0098   2.1419   2.1718
     2.2868   4.9544   5.1011   5.2037   5.5152   6.3909   6.7350   6.7793

     occupation numbers
     1.0000   1.0000   1.0000   1.0000   1.0000   1.0000   1.0000   1.0000
     1.0000   1.0000   1.0000   1.0000   1.0000   1.0000   1.0000   1.0000
     1.0000   1.0000   1.0000   1.0000   1.0000   1.0000   1.0000   1.0000
     1.0000   1.0000   1.0000   1.0000   1.0000   1.0000   1.0000   1.0000
     1.0000   1.0000   1.0000   1.0000   1.0000   1.0000   1.0000   1.0000
     1.0000   1.0000   1.0000   1.0000   1.0000   1.0000   1.0000   1.0000
     1.0000   1.0000   1.0000   1.0000   1.0000   1.0000   1.0000   1.0000
     1.0000   0.0000   0.0000   0.0000   0.0000   0.0000   0.0000   0.0000

[...]

          k = 0.3333 0.5113 0.4925 (  4121 PWs)   bands (ev):

   -69.6466 -69.6466 -46.9388 -41.0804 -41.0791 -41.0233 -41.0220 -40.9729
   -40.9722 -18.8434 -18.8426 -18.8312 -16.8705 -16.8514 -14.4274 -14.4078
   -14.1471 -14.0250 -13.8916 -13.8436 -13.7529 -13.6737  -9.9393  -9.9229
    -9.8982  -9.8916  -9.6786  -4.9776  -4.9247  -3.4147  -2.3274  -1.6625
    -1.5292  -1.2375  -1.0839  -0.8842  -0.7929  -0.7687  -0.7122  -0.5923
    -0.4432  -0.2274   0.2016   0.4855   0.5990   0.7779   0.8598   0.9252
     0.9763   1.1410   1.3289   1.5339   1.8155   1.9596   1.9819   2.0310
     2.1563   5.0044   5.1333   5.2231   5.2693   6.0563   6.2711   6.7032

     occupation numbers
     1.0000   1.0000   1.0000   1.0000   1.0000   1.0000   1.0000   1.0000
     1.0000   1.0000   1.0000   1.0000   1.0000   1.0000   1.0000   1.0000
     1.0000   1.0000   1.0000   1.0000   1.0000   1.0000   1.0000   1.0000
     1.0000   1.0000   1.0000   1.0000   1.0000   1.0000   1.0000   1.0000
     1.0000   1.0000   1.0000   1.0000   1.0000   1.0000   1.0000   1.0000
     1.0000   1.0000   1.0000   1.0000   1.0000   1.0000   1.0000   1.0000
     1.0000   1.0000   1.0000   1.0000   1.0000   1.0000   1.0000   1.0000
     1.0000   0.0000   0.0000   0.0000   0.0000   0.0000   0.0000   0.0000

     highest occupied, lowest unoccupied level (ev):     2.3421    4.8931

!    total energy              =   -1012.40320395 Ry
     estimated scf accuracy    <       0.00000090 Ry

     The total energy is the sum of the following terms:
     one-electron contribution =    -606.74732461 Ry
     hartree contribution      =     349.70440742 Ry
     xc contribution           =    -183.21722584 Ry
     ewald contribution        =    -476.87784162 Ry
     one-center paw contrib.   =     -95.26521930 Ry
      -> PAW hartree energy AE =       0.00000000 Ry
      -> PAW hartree energy PS =       0.00000000 Ry
      -> PAW xc energy AE      =       0.00000000 Ry
      -> PAW xc energy PS      =       0.00000000 Ry
      -> total E_H with PAW    =     349.70440742 Ry
      -> total E_XC with PAW   =    -183.21722584 Ry

     convergence has been achieved in  11 iterations

     Writing all to output data dir bands_nm/myprefix.save/

     General routines

     Parallel routines

     PAW routines

   This run was terminated on:  14: 3:23  16Jul2023

   JOB DONE.