     Program PWSCF v.7.1 starts on  9Jul2023 at 19:26:50

     Reading input from espresso_20275.pwi
Warning: card &CELL ignored
Warning: card / ignored

     Current dimensions of program PWSCF are:
     Max number of different atomic species (ntypx) = 10
     Max number of k-points (npk) =  40000
     Max angular momentum in pseudopotentials (lmaxx) =  4
     file K.pbe-spn-kjpaw_psl.1.0.0.UPF: wavefunction(s)  3S renormalized
     file Al.pbe-n-kjpaw_psl.1.0.0.UPF: wavefunction(s)  3S 3P renormalized
     Message from routine setup:
     using ibrav=0 with symmetry is DISCOURAGED, use correct ibrav instead

     K-points division:     npool     =       2
     R & G space division:  proc/nbgrp/npool/nimage =       4
     Subspace diagonalization in iterative solution of the eigenvalue problem:
     a serial algorithm will be used

     Using Slab Decomposition

     bravais-lattice index     =            0
     lattice parameter (alat)  =      10.7022  a.u.
     unit-cell volume          =    1704.7767 (a.u.)^3
     number of atoms/cell      =           20
     number of atomic types    =            4
     number of electrons       =        72.00
     number of Kohn-Sham states=           64
     kinetic-energy cutoff     =      30.0000  Ry
     charge density cutoff     =     240.0000  Ry
     scf convergence threshold =      1.0E-06
     mixing beta               =       0.7000
     number of iterations used =            8  plain     mixing
     Exchange-correlation= PBE
                           (   1   4   3   4   0   0   0)

     celldm(1)=  10.702228  celldm(2)=   0.000000  celldm(3)=   0.000000
     celldm(4)=   0.000000  celldm(5)=   0.000000  celldm(6)=   0.000000

     crystal axes: (cart. coord. in units of alat)
               a(1) = (   1.000000   0.000000   0.000000 )
               a(2) = (   0.000000   0.986064   0.000000 )
               a(3) = (   0.000000   0.001504   1.410392 )

     reciprocal axes: (cart. coord. in units 2 pi/alat)
               b(1) = (  1.000000  0.000000  0.000000 )
               b(2) = (  0.000000  1.014133 -0.001081 )
               b(3) = (  0.000000  0.000000  0.709023 )

     PseudoPot. # 1 for K  read from file:
     /home/pragov/projects/rrg-bengioy-ad/pragov/crystal_structure_design/SSSP/K.pbe-spn-kjpaw_psl.1.0.0.UPF
     MD5 check sum: 7d58810084cac21f60fbe77ea2b688fd
     Pseudo is Projector augmented-wave + core cor, Zval =  9.0
     Generated using "atomic" code by A. Dal Corso  v.5.1
     Shape of augmentation charge: PSQ
     Using radial grid of 1165 points,  6 beta functions with:
                l(1) =   0
                l(2) =   0
                l(3) =   1
                l(4) =   1
                l(5) =   2
                l(6) =   2
     Q(r) pseudized with 0 coefficients

     PseudoPot. # 2 for Na read from file:
     /home/pragov/projects/rrg-bengioy-ad/pragov/crystal_structure_design/SSSP/na_pbe_v1.5.uspp.F.UPF
     MD5 check sum: 44600605ef58000f06b90626533354dc
     Pseudo is Ultrasoft, Zval =  9.0
     Generated by new atomic code, or converted to UPF format
     Using radial grid of  819 points,  5 beta functions with:
                l(1) =   0
                l(2) =   0
                l(3) =   1
                l(4) =   1
                l(5) =   2
     Q(r) pseudized with  8 coefficients,  rinner =    1.250   1.250   1.250
                                                       1.250   1.250

     PseudoPot. # 3 for Al read from file:
     /home/pragov/projects/rrg-bengioy-ad/pragov/crystal_structure_design/SSSP/Al.pbe-n-kjpaw_psl.1.0.0.UPF
     MD5 check sum: cfc449ca30b5f3223ec38ddd88ac046d
     Pseudo is Projector augmented-wave + core cor, Zval =  3.0
     Generated using "atomic" code by A. Dal Corso  v.5.1
     Shape of augmentation charge: PSQ
     Using radial grid of 1135 points,  6 beta functions with:
                l(1) =   0
                l(2) =   0
                l(3) =   1
                l(4) =   1
                l(5) =   2
                l(6) =   2
     Q(r) pseudized with 0 coefficients

     PseudoPot. # 4 for H  read from file:
     /home/pragov/projects/rrg-bengioy-ad/pragov/crystal_structure_design/SSSP/H.pbe-rrkjus_psl.1.0.0.UPF
     MD5 check sum: f52b6d4d1c606e5624b1dc7b2218f220
     Pseudo is Ultrasoft, Zval =  1.0
     Generated using "atomic" code by A. Dal Corso  v.5.1
     Using radial grid of  929 points,  2 beta functions with:
                l(1) =   0
                l(2) =   0
     Q(r) pseudized with 0 coefficients

     atomic species   valence    mass     pseudopotential
        K              9.00    39.09830     K ( 1.00)
        Na             9.00    22.98977     Na( 1.00)
        Al             3.00    26.98154     Al( 1.00)
        H              1.00     1.00800     H ( 1.00)

      2 Sym. Ops. (no inversion) found ( 1 have fractional translation)

                                    s                        frac. trans.

      isym =  1     identity

 cryst.   s( 1) = (     1          0          0      )
                  (     0          1          0      )
                  (     0          0          1      )

 cart.    s( 1) = (  1.0000000  0.0000000  0.0000000 )
                  (  0.0000000  1.0000000  0.0000000 )
                  (  0.0000000  0.0000000  1.0000000 )

      isym =  2     180 deg rotation - cart. axis [1,0,0]

 cryst.   s( 2) = (     1          0          0      )    f =(  0.5000000 )
                  (     0         -1          0      )       ( -0.0000000 )
                  (     0          0         -1      )       (  0.0000000 )

 cart.    s( 2) = (  1.0000000  0.0000000  0.0000000 )    f =(  0.5000000 )
                  (  0.0000000 -1.0000000  0.0000000 )       ( -0.0000000 )
                  (  0.0000000  0.0000000 -1.0000000 )       (  0.0000000 )

   Cartesian axes

     site n.     atom                  positions (alat units)
         1           K   tau(   1) = (   0.9810510   0.2384410   0.7045077  )
         2           K   tau(   2) = (   0.4810510   0.7491270   0.7058843  )
         3           Na  tau(   3) = (   0.0389530   0.2479094   1.4101706  )
         4           Na  tau(   4) = (   0.5389530   0.7396586   0.0002214  )
         5           Na  tau(   5) = (   0.5023150   0.2504886   1.0705426  )
         6           Na  tau(   6) = (   0.0023150   0.7370794   0.3398495  )
         7           Al  tau(   7) = (   0.4994710   0.2365546   0.3290459  )
         8           Al  tau(   8) = (   0.9994710   0.7510134   1.0813462  )
         9           H   tau(   9) = (   0.5097790   0.2866991   0.6445238  )
        10           H   tau(  10) = (   0.0097790   0.7008689   0.7658683  )
        11           H   tau(  11) = (   0.4713560   0.1679845   0.0301880  )
        12           H   tau(  12) = (   0.9713560   0.8195835   1.3802040  )
        13           H   tau(  13) = (   0.8183710   0.4965836   1.1260683  )
        14           H   tau(  14) = (   0.3183710   0.4909844   0.2843238  )
        15           H   tau(  15) = (   0.1871280   0.0102032   1.0434010  )
        16           H   tau(  16) = (   0.6871280   0.9773648   0.3669911  )
        17           H   tau(  17) = (   0.7526850   0.4163087   0.2814621  )
        18           H   tau(  18) = (   0.2526850   0.5712593   1.1289300  )
        19           H   tau(  19) = (   0.2488910   0.0590679   0.3797283  )
        20           H   tau(  20) = (   0.7488910   0.9285002   1.0306637  )

   Crystallographic axes

     site n.     atom                  positions (cryst. coord.)
         1           K   tau(   1) = (  0.9810510  0.2410490  0.4995120  )
         2           K   tau(   2) = (  0.4810510  0.7589510  0.5004880  )
         3           Na  tau(   3) = (  0.0389530  0.2498880  0.9998430  )
         4           Na  tau(   4) = (  0.5389530  0.7501120  0.0001570  )
         5           Na  tau(   5) = (  0.5023150  0.2528710  0.7590390  )
         6           Na  tau(   6) = (  0.0023150  0.7471290  0.2409610  )
         7           Al  tau(   7) = (  0.4994710  0.2395420  0.2333010  )
         8           Al  tau(   8) = (  0.9994710  0.7604580  0.7666990  )
         9           H   tau(   9) = (  0.5097790  0.2900540  0.4569820  )
        10           H   tau(  10) = (  0.0097790  0.7099460  0.5430180  )
        11           H   tau(  11) = (  0.4713560  0.1703260  0.0214040  )
        12           H   tau(  12) = (  0.9713560  0.8296740  0.9785960  )
        13           H   tau(  13) = (  0.8183710  0.5023840  0.7984080  )
        14           H   tau(  14) = (  0.3183710  0.4976160  0.2015920  )
        15           H   tau(  15) = (  0.1871280  0.0092190  0.7397950  )
        16           H   tau(  16) = (  0.6871280  0.9907810  0.2602050  )
        17           H   tau(  17) = (  0.7526850  0.4218880  0.1995630  )
        18           H   tau(  18) = (  0.2526850  0.5781120  0.8004370  )
        19           H   tau(  19) = (  0.2488910  0.0594920  0.2692360  )
        20           H   tau(  20) = (  0.7488910  0.9405080  0.7307640  )

     number of k points=    10
                       cart. coord. in units 2pi/alat
        k(    1) = (   0.0000000   0.0000000   0.0000000), wk =   0.0740741
        k(    2) = (   0.0000000   0.0000000   0.2363409), wk =   0.1481481
        k(    3) = (   0.0000000   0.3380443  -0.0003605), wk =   0.1481481
        k(    4) = (   0.0000000   0.3380443   0.2359804), wk =   0.1481481
        k(    5) = (   0.0000000   0.3380443  -0.2367014), wk =   0.1481481
        k(    6) = (   0.3333333   0.0000000   0.0000000), wk =   0.1481481
        k(    7) = (   0.3333333   0.0000000   0.2363409), wk =   0.2962963
        k(    8) = (   0.3333333   0.3380443  -0.0003605), wk =   0.2962963
        k(    9) = (   0.3333333   0.3380443   0.2359804), wk =   0.2962963
        k(   10) = (   0.3333333   0.3380443  -0.2367014), wk =   0.2962963

                       cryst. coord.
        k(    1) = (   0.0000000   0.0000000   0.0000000), wk =   0.0740741
        k(    2) = (   0.0000000   0.0000000   0.3333333), wk =   0.1481481
        k(    3) = (   0.0000000   0.3333333  -0.0000000), wk =   0.1481481
        k(    4) = (   0.0000000   0.3333333   0.3333333), wk =   0.1481481
        k(    5) = (   0.0000000   0.3333333  -0.3333333), wk =   0.1481481
        k(    6) = (   0.3333333   0.0000000   0.0000000), wk =   0.1481481
        k(    7) = (   0.3333333   0.0000000   0.3333333), wk =   0.2962963
        k(    8) = (   0.3333333   0.3333333  -0.0000000), wk =   0.2962963
        k(    9) = (   0.3333333   0.3333333   0.3333333), wk =   0.2962963
        k(   10) = (   0.3333333   0.3333333  -0.3333333), wk =   0.2962963

     Check: negative core charge=   -0.000002

     Initial potential from superposition of free atoms

     starting charge      71.9325, renormalised to      72.0000
     Starting wfcs are   56 randomized atomic wfcs +    8 random wfcs
     Checking if some PAW data can be deallocated...

     Self-consistent Calculation

     iteration #  1     ecut=    30.00 Ry     beta= 0.70
     Davidson diagonalization with overlap

     ethr =  1.00E-02,  avg # of iterations =  9.2

     total energy              =    -700.48481305 Ry
     estimated scf accuracy    <       1.02844736 Ry

[...]

     total energy              =    -700.63437841 Ry
     estimated scf accuracy    <       0.00000261 Ry

     iteration #  7     ecut=    30.00 Ry     beta= 0.70
     Davidson diagonalization with overlap

     ethr =  3.62E-09,  avg # of iterations =  2.2

     End of self-consistent calculation

          k = 0.0000 0.0000 0.0000 (  4755 PWs)   bands (ev):

   -49.1832 -49.1821 -48.8610 -48.8609 -27.1812 -27.1550 -21.0979 -21.0946
   -21.0929 -21.0912 -21.0771 -21.0751 -20.7836 -20.7829 -20.7782 -20.7782
   -20.7767 -20.7756 -10.8092 -10.8061 -10.7520 -10.6732 -10.6302 -10.6242
    -4.4783  -3.6545  -1.1369  -0.5311  -0.5018  -0.2942  -0.2878  -0.2433
     0.3742   1.5226   1.6591   2.0092   4.4580   5.5454   6.9155   7.1388
     7.2586   7.4499   7.8196   7.9003   8.1156   8.2219   8.3962   8.5117
     8.7065   9.3711   9.6063  10.3850  10.4819  10.7984  10.9214  11.1199
    11.2341  11.4940  11.6726  11.7527  12.2062  12.2560  12.4455  12.5199

     occupation numbers
     1.0000   1.0000   1.0000   1.0000   1.0000   1.0000   1.0000   1.0000
     1.0000   1.0000   1.0000   1.0000   1.0000   1.0000   1.0000   1.0000
     1.0000   1.0000   1.0000   1.0000   1.0000   1.0000   1.0000   1.0000
     1.0000   1.0000   1.0000   1.0000   1.0000   1.0000   1.0000   1.0000
     1.0000   1.0000   1.0000   1.0000   0.0000   0.0000   0.0000   0.0000
     0.0000   0.0000   0.0000   0.0000   0.0000   0.0000   0.0000   0.0000
     0.0000   0.0000   0.0000   0.0000   0.0000   0.0000   0.0000   0.0000
     0.0000   0.0000   0.0000   0.0000   0.0000   0.0000   0.0000   0.0000

[...]

          k = 0.3333 0.3380-0.2367 (  4722 PWs)   bands (ev):

   -49.1826 -49.1824 -48.8610 -48.8607 -27.1713 -27.1644 -21.0964 -21.0956
   -21.0916 -21.0912 -21.0762 -21.0747 -20.7822 -20.7818 -20.7791 -20.7782
   -20.7752 -20.7747 -10.8502 -10.8081 -10.7194 -10.6976 -10.6562 -10.6111
    -3.8525  -3.7084  -1.1455  -1.0653  -0.9269  -0.5559  -0.3713  -0.2729
     1.0093   1.1251   1.5897   1.6331   6.1797   6.2656   6.4690   6.9087
     7.1581   7.5192   7.5603   8.1690   8.3970   8.5335   8.7565   8.8788
     9.1783   9.5111   9.9543  10.2576  10.4159  10.5927  10.6725  10.9109
    11.1913  11.3853  11.5917  11.9573  12.0951  12.2709  12.5253  12.5998

     occupation numbers
     1.0000   1.0000   1.0000   1.0000   1.0000   1.0000   1.0000   1.0000
     1.0000   1.0000   1.0000   1.0000   1.0000   1.0000   1.0000   1.0000
     1.0000   1.0000   1.0000   1.0000   1.0000   1.0000   1.0000   1.0000
     1.0000   1.0000   1.0000   1.0000   1.0000   1.0000   1.0000   1.0000
     1.0000   1.0000   1.0000   1.0000   0.0000   0.0000   0.0000   0.0000
     0.0000   0.0000   0.0000   0.0000   0.0000   0.0000   0.0000   0.0000
     0.0000   0.0000   0.0000   0.0000   0.0000   0.0000   0.0000   0.0000
     0.0000   0.0000   0.0000   0.0000   0.0000   0.0000   0.0000   0.0000

     highest occupied, lowest unoccupied level (ev):     2.0092    4.4580

!    total energy              =    -700.63437901 Ry
     estimated scf accuracy    <       0.00000003 Ry

     The total energy is the sum of the following terms:
     one-electron contribution =    -371.11793785 Ry
     hartree contribution      =     201.68410016 Ry
     xc contribution           =     -93.86155311 Ry
     ewald contribution        =    -257.17368683 Ry
     one-center paw contrib.   =    -180.16530139 Ry
      -> PAW hartree energy AE =      75.67080340 Ry
      -> PAW hartree energy PS =     -75.25020458 Ry
      -> PAW xc energy AE      =    -132.46817194 Ry
      -> PAW xc energy PS      =      21.21335144 Ry
      -> total E_H with PAW    =     202.10469898 Ry
      -> total E_XC with PAW   =    -205.11637361 Ry

     convergence has been achieved in   7 iterations

     Writing all to output data dir bands_nm/myprefix.save/

     General routines

     Parallel routines

     PAW routines

   This run was terminated on:  19:27: 3   9Jul2023

   JOB DONE.