     Program PWSCF v.7.1 starts on 13Jul2023 at  6:19:42

     Reading input from espresso_25378.pwi
Warning: card &CELL ignored
Warning: card / ignored

     Current dimensions of program PWSCF are:
     Max number of different atomic species (ntypx) = 10
     Max number of k-points (npk) =  40000
     Max angular momentum in pseudopotentials (lmaxx) =  4
     file O.pbe-n-kjpaw_psl.0.1.UPF: wavefunction(s)  2P renormalized
     Message from routine setup:
     using ibrav=0 with symmetry is DISCOURAGED, use correct ibrav instead

     K-points division:     npool     =       2
     R & G space division:  proc/nbgrp/npool/nimage =       8
     Subspace diagonalization in iterative solution of the eigenvalue problem:
     a serial algorithm will be used

     Using Slab Decomposition

     bravais-lattice index     =            0
     lattice parameter (alat)  =      12.9013  a.u.
     unit-cell volume          =    1757.5915 (a.u.)^3
     number of atoms/cell      =           18
     number of atomic types    =            4
     number of electrons       =       128.00
     number of Kohn-Sham states=           64
     kinetic-energy cutoff     =      30.0000  Ry
     charge density cutoff     =     240.0000  Ry
     scf convergence threshold =      1.0E-06
     mixing beta               =       0.7000
     number of iterations used =            8  plain     mixing
     Exchange-correlation= SLA  PW   PBX  PBC
                           (   1   4   3   4   0   0   0)

     celldm(1)=  12.901344  celldm(2)=   0.000000  celldm(3)=   0.000000
     celldm(4)=   0.000000  celldm(5)=   0.000000  celldm(6)=   0.000000

     crystal axes: (cart. coord. in units of alat)
               a(1) = (   1.000000   0.000000   0.000000 )
               a(2) = (   0.017666   0.999844   0.000000 )
               a(3) = (   0.508833   0.499922   0.818617 )

     reciprocal axes: (cart. coord. in units 2 pi/alat)
               b(1) = (  1.000000 -0.017669 -0.610786 )
               b(2) = (  0.000000  1.000156 -0.610786 )
               b(3) = (  0.000000  0.000000  1.221572 )

     PseudoPot. # 1 for La read from file:
     /lustre07/scratch/pragov/crystal_structure_design/utils/SSSP/La.GGA-PBE-paw-v1.0.UPF
     MD5 check sum: 436541e95c1ad8901025bd0b0ed42ae2
     Pseudo is Projector augmented-wave + core cor, Zval = 11.0
     Generated using ATOMPAW code
     Shape of augmentation charge: BESSEL
     Using radial grid of 1101 points,  8 beta functions with:
                l(1) =   0
                l(2) =   0
                l(3) =   1
                l(4) =   1
                l(5) =   2
                l(6) =   2
                l(7) =   3
                l(8) =   3
     Q(r) pseudized with 0 coefficients

     PseudoPot. # 2 for Si read from file:
     /lustre07/scratch/pragov/crystal_structure_design/utils/SSSP/Si.pbe-n-rrkjus_psl.1.0.0.UPF
     MD5 check sum: 0b0bb1205258b0d07b9f9672cf965d36
     Pseudo is Ultrasoft + core correction, Zval =  4.0
     Generated using "atomic" code by A. Dal Corso  v.5.1
     Using radial grid of 1141 points,  6 beta functions with:
                l(1) =   0
                l(2) =   0
                l(3) =   1
                l(4) =   1
                l(5) =   2
                l(6) =   2
     Q(r) pseudized with 0 coefficients

     PseudoPot. # 3 for N  read from file:
     /lustre07/scratch/pragov/crystal_structure_design/utils/SSSP/N.pbe-n-radius_5.UPF
     MD5 check sum: 16739722b17309cd8fe442a2ace49922
     Pseudo is Ultrasoft + core correction, Zval =  5.0
     Generated using "atomic" code by A. Dal Corso  v.5.1
     Using radial grid of 1085 points,  4 beta functions with:
                l(1) =   0
                l(2) =   0
                l(3) =   1
                l(4) =   1
     Q(r) pseudized with 0 coefficients

     PseudoPot. # 4 for O  read from file:
     /lustre07/scratch/pragov/crystal_structure_design/utils/SSSP/O.pbe-n-kjpaw_psl.0.1.UPF
     MD5 check sum: 0234752ac141de4415c5fc33072bef88
     Pseudo is Projector augmented-wave + core cor, Zval =  6.0
     Generated using "atomic" code by A. Dal Corso  v.5.0.99 svn rev. 10869
     Shape of augmentation charge: BESSEL
     Using radial grid of 1095 points,  4 beta functions with:
                l(1) =   0
                l(2) =   0
                l(3) =   1
                l(4) =   1
     Q(r) pseudized with 0 coefficients

     atomic species   valence    mass     pseudopotential
        La            11.00   138.90547     La( 1.00)
        Si             4.00    28.08500     Si( 1.00)
        N              5.00    14.00700     N ( 1.00)
        O              6.00    15.99900     O ( 1.00)

      2 Sym. Ops. (no inversion) found

                                    s                        frac. trans.

      isym =  1     identity

 cryst.   s( 1) = (     1          0          0      )
                  (     0          1          0      )
                  (     0          0          1      )

 cart.    s( 1) = (  1.0000000  0.0000000 -0.0000000 )
                  (  0.0000000  1.0000000  0.0000000 )
                  (  0.0000000  0.0000000  1.0000000 )

      isym =  2     inv. 180 deg rotation - cart. axis [0,0,1]

 cryst.   s( 2) = (     1          0          0      )
                  (     0          1          0      )
                  (     1          1         -1      )

 cart.    s( 2) = (  1.0000000  0.0000000 -0.0000004 )
                  (  0.0000000  1.0000000 -0.0000004 )
                  (  0.0000000  0.0000000 -1.0000000 )

   Cartesian axes

     site n.     atom                  positions (alat units)
         1           La  tau(   1) = (   0.3258273   0.1772773   0.0000000  )
         2           La  tau(   2) = (   0.6836993   0.8308513   0.0000000  )
         3           La  tau(   3) = (   0.1931477   0.6776682   0.0000000  )
         4           La  tau(   4) = (   0.8278585   0.3187762   0.0000000  )
         5           La  tau(   5) = (   0.5027919   0.5060711   0.4093086  )
         6           La  tau(   6) = (   1.0116250   1.0059931   0.4093086  )
         7           Si  tau(   7) = (   1.0124290   0.4962621   0.4129293  )
         8           Si  tau(   8) = (   0.5212622   0.9961841   0.4056878  )
         9           N   tau(   9) = (   1.1476350   0.3586451   0.2469768  )
        10           N   tau(  10) = (   0.6612315   1.1403850   0.2478544  )
        11           N   tau(  11) = (   0.3746109   0.8587840   0.2478544  )
        12           N   tau(  12) = (   0.6564692   0.8585681   0.5716404  )
        13           N   tau(  13) = (   0.8657778   0.3588621   0.5707628  )
        14           N   tau(  14) = (   1.1523985   0.6404631   0.5707628  )
        15           O   tau(  15) = (   0.5174540   0.5074998   0.0000000  )
        16           O   tau(  16) = (   1.0099373   0.9913583   0.0000000  )
        17           O   tau(  17) = (   0.8739204   0.6372396   0.2507997  )
        18           O   tau(  18) = (   0.3827536   1.1371616   0.5678174  )

   Crystallographic axes

     site n.     atom                  positions (cryst. coord.)
         1           La  tau(   1) = (  0.3226950  0.1773050  0.0000000  )
         2           La  tau(   2) = (  0.6690190  0.8309810  0.0000000  )
         3           La  tau(   3) = (  0.1811740  0.6777740  0.0000000  )
         4           La  tau(   4) = (  0.8222260  0.3188260  0.0000000  )
         5           La  tau(   5) = (  0.2438500  0.2561500  0.5000000  )
         6           La  tau(   6) = (  0.7438500  0.7561500  0.5000000  )
         7           Si  tau(   7) = (  0.7514490  0.2441280  0.5044230  )
         8           Si  tau(   8) = (  0.2558720  0.7485510  0.4955770  )
         9           N   tau(   9) = (  0.9904480  0.2078510  0.3017000  )
        10           N   tau(  10) = (  0.4896960  0.9891770  0.3027720  )
        11           N   tau(  11) = (  0.2080510  0.7075320  0.3027720  )
        12           N   tau(  12) = (  0.2921490  0.5095520  0.6983000  )
        13           N   tau(  13) = (  0.5108230  0.0103040  0.6972280  )
        14           N   tau(  14) = (  0.7924680  0.2919490  0.6972280  )
        15           O   tau(  15) = (  0.5084870  0.5075790  0.0000000  )
        16           O   tau(  16) = (  0.9924210  0.9915130  0.0000000  )
        17           O   tau(  17) = (  0.7094760  0.4841540  0.3063700  )
        18           O   tau(  18) = (  0.0158460  0.7905240  0.6936300  )

     number of k points=    10
                       cart. coord. in units 2pi/alat
        k(    1) = (   0.0000000   0.0000000   0.0000000), wk =   0.0740741
        k(    2) = (   0.0000000   0.0000000   0.4071908), wk =   0.1481481
        k(    3) = (   0.0000000   0.3333854  -0.2035954), wk =   0.2962963
        k(    4) = (   0.0000000   0.3333854  -0.6107862), wk =   0.1481481
        k(    5) = (   0.3333333  -0.0058897  -0.2035954), wk =   0.2962963
        k(    6) = (   0.3333333  -0.0058897  -0.6107862), wk =   0.1481481
        k(    7) = (   0.3333333   0.3274957  -0.4071909), wk =   0.2962963
        k(    8) = (   0.3333333   0.3274957  -0.0000001), wk =   0.1481481
        k(    9) = (   0.3333333  -0.3392750   0.0000000), wk =   0.1481481
        k(   10) = (   0.3333333  -0.3392750   0.4071908), wk =   0.2962963

                       cryst. coord.
        k(    1) = (   0.0000000   0.0000000   0.0000000), wk =   0.0740741
        k(    2) = (   0.0000000   0.0000000   0.3333333), wk =   0.1481481
        k(    3) = (   0.0000000   0.3333333  -0.0000000), wk =   0.2962963
        k(    4) = (   0.0000000   0.3333333  -0.3333333), wk =   0.1481481
        k(    5) = (   0.3333333  -0.0000000  -0.0000000), wk =   0.2962963
        k(    6) = (   0.3333333  -0.0000000  -0.3333333), wk =   0.1481481
        k(    7) = (   0.3333333   0.3333333  -0.0000000), wk =   0.2962963
        k(    8) = (   0.3333333   0.3333333   0.3333333), wk =   0.1481481
        k(    9) = (   0.3333333  -0.3333333  -0.0000000), wk =   0.1481481
        k(   10) = (   0.3333333  -0.3333333   0.3333333), wk =   0.2962963

     Check: negative core charge=   -0.000005

     Initial potential from superposition of free atoms

     starting charge     127.9477, renormalised to     128.0000
     Starting wfcs are  240 randomized atomic wfcs
     Checking if some PAW data can be deallocated...

     Self-consistent Calculation

     iteration #  1     ecut=    30.00 Ry     beta= 0.70
     Davidson diagonalization with overlap

     ethr =  1.00E-02,  avg # of iterations =  2.0

     total energy              =   -3058.83295798 Ry
     estimated scf accuracy    <       5.46786699 Ry

[...]

     total energy              =   -3061.84945413 Ry
     estimated scf accuracy    <       0.00000272 Ry

     iteration # 20     ecut=    30.00 Ry     beta= 0.70
     Davidson diagonalization with overlap

     ethr =  2.12E-09,  avg # of iterations =  5.8

     End of self-consistent calculation

          k = 0.0000 0.0000 0.0000 (  4857 PWs)   bands (ev):

   -19.7269 -19.7013 -19.0904 -18.7942 -18.7317 -18.4924  -6.7997  -6.7937
    -6.5986  -5.3812  -4.2532  -4.2203  -4.0518  -3.9295  -3.8647  -3.6780
    -3.2239  -3.1089  -3.0769  -3.0548  -2.6833  -2.5466  -2.5175  -2.4007
    -2.1658  -2.0339  -1.9057  -1.4014  -1.3398  -1.2508   0.2386   0.3467
     0.4095   0.6676   6.0356   6.0961   7.1770   7.4127   7.5649   7.7912
     7.8878   8.1393   8.1442   8.5728   8.6477   8.7347   9.2064   9.5558
     9.5826   9.8453   9.8903   9.9493  10.4627  10.6580  10.6745  10.8630
    11.1318  11.1704  11.2863  11.4056  11.5176  11.5891  11.6835  11.9281

     occupation numbers
     1.0000   1.0000   1.0000   1.0000   1.0000   1.0000   1.0000   1.0000
     1.0000   1.0000   1.0000   1.0000   1.0000   1.0000   1.0000   1.0000
     1.0000   1.0000   1.0000   1.0000   1.0000   1.0000   1.0000   1.0000
     1.0000   1.0000   1.0000   1.0000   1.0000   1.0000   1.0000   1.0000
     1.0000   1.0000   1.0000   1.0000   1.0000   1.0000   1.0000   1.0000
     1.0000   1.0000   1.0000   1.0000   1.0000   1.0000   1.0000   1.0000
     1.0000   1.0000   1.0000   1.0000   1.0000   1.0000   1.0000   1.0000
     1.0000   1.0000   1.0000   1.0000   1.0000   1.0000   1.0000   1.0000

[...]

          k = 0.3333-0.3393 0.4072 (  4880 PWs)   bands (ev):

   -19.7094 -19.7093 -19.0629 -18.8159 -18.7368 -18.5113  -6.9058  -6.7734
    -6.1142  -5.9807  -4.3602  -4.0473  -3.7293  -3.6692  -3.6228  -3.4650
    -3.2647  -3.1884  -3.0617  -2.9709  -2.7374  -2.6989  -2.5812  -2.5657
    -2.3066  -2.2610  -1.9016  -1.8223  -1.0548  -0.6585  -0.1266  -0.0446
     0.2399   0.2914   6.1199   6.2784   7.7538   7.8888   7.9502   8.1472
     8.2178   8.3254   8.6467   8.8166   8.8637   8.9878   9.1841   9.3007
     9.5222   9.6300   9.6638   9.9923  10.2303  10.3559  10.5000  10.5216
    10.6708  10.7657  11.0154  11.0470  11.2260  11.3089  11.4948  12.2982

     occupation numbers
     1.0000   1.0000   1.0000   1.0000   1.0000   1.0000   1.0000   1.0000
     1.0000   1.0000   1.0000   1.0000   1.0000   1.0000   1.0000   1.0000
     1.0000   1.0000   1.0000   1.0000   1.0000   1.0000   1.0000   1.0000
     1.0000   1.0000   1.0000   1.0000   1.0000   1.0000   1.0000   1.0000
     1.0000   1.0000   1.0000   1.0000   1.0000   1.0000   1.0000   1.0000
     1.0000   1.0000   1.0000   1.0000   1.0000   1.0000   1.0000   1.0000
     1.0000   1.0000   1.0000   1.0000   1.0000   1.0000   1.0000   1.0000
     1.0000   1.0000   1.0000   1.0000   1.0000   1.0000   1.0000   1.0000

     highest occupied level (ev):    12.3073

!    total energy              =   -3061.84945501 Ry
     estimated scf accuracy    <       0.00000009 Ry

     The total energy is the sum of the following terms:
     one-electron contribution =      12.49328392 Ry
     hartree contribution      =      87.92508865 Ry
     xc contribution           =    -128.52106731 Ry
     ewald contribution        =    -607.00895457 Ry
     one-center paw contrib.   =   -2426.73780570 Ry
      -> PAW hartree energy AE =      71.27779811 Ry
      -> PAW hartree energy PS =     -71.37133058 Ry
      -> PAW xc energy AE      =    -810.92546652 Ry
      -> PAW xc energy PS      =      14.78488062 Ry
      -> total E_H with PAW    =      87.83155618 Ry
      -> total E_XC with PAW   =    -924.66165320 Ry

     convergence has been achieved in  20 iterations

     Writing all to output data dir bands_nm/myprefix.save/

     General routines

     Parallel routines

     PAW routines

   This run was terminated on:   6:20:45  13Jul2023

   JOB DONE.