     Program PWSCF v.7.1 starts on 16Jul2023 at 14: 0:15

     Reading input from espresso_26067.pwi
Warning: card &CELL ignored
Warning: card / ignored

     Current dimensions of program PWSCF are:
     Max number of different atomic species (ntypx) = 10
     Max number of k-points (npk) =  40000
     Max angular momentum in pseudopotentials (lmaxx) =  4
     file Mg.pbe-n-kjpaw_psl.0.3.0.UPF: wavefunction(s)  3S renormalized
     file O.pbe-n-kjpaw_psl.0.1.UPF: wavefunction(s)  2P renormalized
     Message from routine setup:
     using ibrav=0 with symmetry is DISCOURAGED, use correct ibrav instead

     K-points division:     npool     =       2
     R & G space division:  proc/nbgrp/npool/nimage =       4
     Subspace diagonalization in iterative solution of the eigenvalue problem:
     a serial algorithm will be used

     Using Slab Decomposition

     bravais-lattice index     =            0
     lattice parameter (alat)  =      10.3216  a.u.
     unit-cell volume          =     915.5482 (a.u.)^3
     number of atoms/cell      =           11
     number of atomic types    =            3
     number of electrons       =        56.00
     number of Kohn-Sham states=           64
     kinetic-energy cutoff     =      30.0000  Ry
     charge density cutoff     =     240.0000  Ry
     scf convergence threshold =      1.0E-06
     mixing beta               =       0.7000
     number of iterations used =            8  plain     mixing
     Exchange-correlation= SLA  PW   PBX  PBC
                           (   1   4   3   4   0   0   0)

     celldm(1)=  10.321645  celldm(2)=   0.000000  celldm(3)=   0.000000
     celldm(4)=   0.000000  celldm(5)=   0.000000  celldm(6)=   0.000000

     crystal axes: (cart. coord. in units of alat)
               a(1) = (   1.000000   0.000000   0.000000 )
               a(2) = (  -0.264903   0.964275   0.000000 )
               a(3) = (   0.123370   0.161832   0.863443 )

     reciprocal axes: (cart. coord. in units 2 pi/alat)
               b(1) = (  1.000000  0.274717 -0.194370 )
               b(2) = (  0.000000  1.037048 -0.194370 )
               b(3) = (  0.000000  0.000000  1.158154 )

     PseudoPot. # 1 for Mg read from file:
     /lustre07/scratch/pragov/crystal_structure_design/utils/SSSP/Mg.pbe-n-kjpaw_psl.0.3.0.UPF
     MD5 check sum: 24ecedc7f3e3cbe212e682f4413594e4
     Pseudo is Projector augmented-wave + core cor, Zval =  2.0
     Generated using "atomic" code by A. Dal Corso  v.5.0.99 svn rev. 10869
     Shape of augmentation charge: PSQ
     Using radial grid of 1129 points,  4 beta functions with:
                l(1) =   0
                l(2) =   0
                l(3) =   1
                l(4) =   1
     Q(r) pseudized with 0 coefficients

     PseudoPot. # 2 for As read from file:
     /lustre07/scratch/pragov/crystal_structure_design/utils/SSSP/As.pbe-n-rrkjus_psl.0.2.UPF
     MD5 check sum: 767315de957beeeb34f87d97bf945c8f
     Pseudo is Ultrasoft + core correction, Zval =  5.0
     Generated using "atomic" code by A. Dal Corso  v.5.0.99 svn rev. 10869
     Using radial grid of 1209 points,  4 beta functions with:
                l(1) =   0
                l(2) =   0
                l(3) =   1
                l(4) =   1
     Q(r) pseudized with 0 coefficients

     PseudoPot. # 3 for O  read from file:
     /lustre07/scratch/pragov/crystal_structure_design/utils/SSSP/O.pbe-n-kjpaw_psl.0.1.UPF
     MD5 check sum: 0234752ac141de4415c5fc33072bef88
     Pseudo is Projector augmented-wave + core cor, Zval =  6.0
     Generated using "atomic" code by A. Dal Corso  v.5.0.99 svn rev. 10869
     Shape of augmentation charge: BESSEL
     Using radial grid of 1095 points,  4 beta functions with:
                l(1) =   0
                l(2) =   0
                l(3) =   1
                l(4) =   1
     Q(r) pseudized with 0 coefficients

     atomic species   valence    mass     pseudopotential
        Mg             2.00    24.30500     Mg( 1.00)
        As             5.00    74.92159     As( 1.00)
        O              6.00    15.99900     O ( 1.00)

      2 Sym. Ops., with inversion, found

                                    s                        frac. trans.

      isym =  1     identity

 cryst.   s( 1) = (     1          0          0      )
                  (     0          1          0      )
                  (     0          0          1      )

 cart.    s( 1) = (  1.0000000 -0.0000000  0.0000000 )
                  (  0.0000000  1.0000000  0.0000000 )
                  (  0.0000000  0.0000000  1.0000000 )

      isym =  2     inversion

 cryst.   s( 2) = (    -1          0          0      )
                  (     0         -1          0      )
                  (     0          0         -1      )

 cart.    s( 2) = ( -1.0000000  0.0000000  0.0000000 )
                  (  0.0000000 -1.0000000  0.0000000 )
                  (  0.0000000  0.0000000 -1.0000000 )

   Cartesian axes

     site n.     atom                  positions (alat units)
         1           Mg  tau(   1) = (   0.6686466   0.3805414   0.4317213  )
         2           Mg  tau(   2) = (   0.1898202   0.7455658   0.4317213  )
         3           As  tau(   3) = (   0.1860024   0.2439915   0.0870298  )
         4           As  tau(   4) = (   0.6724645   0.8821156   0.7764128  )
         5           O   tau(   5) = (   0.4163323   0.1143785   0.2530483  )
         6           O   tau(   6) = (   0.8584621   0.6943490   0.6103944  )
         7           O   tau(   7) = (   0.4421345   1.0117286   0.6103944  )
         8           O   tau(   8) = (   0.0000048   0.4317581   0.2530483  )
         9           O   tau(   9) = (   0.0000000   0.0000000   0.0000000  )
        10           O   tau(  10) = (   0.3933983   0.5160462   0.6684402  )
        11           O   tau(  11) = (   0.4650686   0.6100609   0.1950025  )

   Crystallographic axes

     site n.     atom                  positions (cryst. coord.)
         1           Mg  tau(   1) = (  0.6892740  0.3107260  0.5000000  )
         2           Mg  tau(   2) = (  0.3107260  0.6892740  0.5000000  )
         3           As  tau(   3) = (  0.2361150  0.2361150  0.1007940  )
         4           As  tau(   4) = (  0.7638850  0.7638850  0.8992060  )
         5           O   tau(   5) = (  0.3985690  0.0694310  0.2930690  )
         6           O   tau(   6) = (  0.9305690  0.6014310  0.7069310  )
         7           O   tau(   7) = (  0.6014310  0.9305690  0.7069310  )
         8           O   tau(   8) = (  0.0694310  0.3985690  0.2930690  )
         9           O   tau(   9) = (  0.0000000  0.0000000  0.0000000  )
        10           O   tau(  10) = (  0.4052400  0.4052400  0.7741570  )
        11           O   tau(  11) = (  0.5947600  0.5947600  0.2258430  )

     number of k points=    14
                       cart. coord. in units 2pi/alat
        k(    1) = (   0.0000000   0.0000000   0.0000000), wk =   0.0740741
        k(    2) = (   0.0000000   0.0000000   0.3860515), wk =   0.1481481
        k(    3) = (   0.0000000   0.3456828  -0.0647901), wk =   0.1481481
        k(    4) = (   0.0000000   0.3456828   0.3212614), wk =   0.1481481
        k(    5) = (   0.0000000   0.3456828  -0.4508416), wk =   0.1481481
        k(    6) = (   0.3333333   0.0915723  -0.0647901), wk =   0.1481481
        k(    7) = (   0.3333333   0.0915723   0.3212614), wk =   0.1481481
        k(    8) = (   0.3333333   0.0915723  -0.4508416), wk =   0.1481481
        k(    9) = (   0.3333333   0.4372551  -0.1295802), wk =   0.1481481
        k(   10) = (   0.3333333   0.4372551   0.2564713), wk =   0.1481481
        k(   11) = (   0.3333333   0.4372551  -0.5156317), wk =   0.1481481
        k(   12) = (   0.3333333  -0.2541105  -0.0000000), wk =   0.1481481
        k(   13) = (   0.3333333  -0.2541105   0.3860515), wk =   0.1481481
        k(   14) = (   0.3333333  -0.2541105  -0.3860515), wk =   0.1481481

                       cryst. coord.
        k(    1) = (   0.0000000   0.0000000   0.0000000), wk =   0.0740741
        k(    2) = (   0.0000000   0.0000000   0.3333333), wk =   0.1481481
        k(    3) = (   0.0000000   0.3333333   0.0000000), wk =   0.1481481
        k(    4) = (   0.0000000   0.3333333   0.3333333), wk =   0.1481481
        k(    5) = (   0.0000000   0.3333333  -0.3333333), wk =   0.1481481
        k(    6) = (   0.3333333   0.0000000   0.0000000), wk =   0.1481481
        k(    7) = (   0.3333333   0.0000000   0.3333333), wk =   0.1481481
        k(    8) = (   0.3333333   0.0000000  -0.3333333), wk =   0.1481481
        k(    9) = (   0.3333333   0.3333333   0.0000000), wk =   0.1481481
        k(   10) = (   0.3333333   0.3333333   0.3333333), wk =   0.1481481
        k(   11) = (   0.3333333   0.3333333  -0.3333333), wk =   0.1481481
        k(   12) = (   0.3333333  -0.3333333  -0.0000000), wk =   0.1481481
        k(   13) = (   0.3333333  -0.3333333   0.3333333), wk =   0.1481481
        k(   14) = (   0.3333333  -0.3333333  -0.3333333), wk =   0.1481481

     Check: negative core charge=   -0.000005

     Initial potential from superposition of free atoms

     starting charge      55.9977, renormalised to      56.0000
     Starting wfcs are   44 randomized atomic wfcs +   20 random wfcs
     Checking if some PAW data can be deallocated...

     Self-consistent Calculation

     iteration #  1     ecut=    30.00 Ry     beta= 0.70
     Davidson diagonalization with overlap

     ethr =  1.00E-02,  avg # of iterations =  6.3

     total energy              =    -394.16679164 Ry
     estimated scf accuracy    <       2.43922120 Ry

[...]

     total energy              =    -395.25303764 Ry
     estimated scf accuracy    <       0.00001577 Ry

     iteration #  8     ecut=    30.00 Ry     beta= 0.70
     Davidson diagonalization with overlap

     ethr =  2.82E-08,  avg # of iterations =  4.5

     End of self-consistent calculation

          k = 0.0000 0.0000 0.0000 (  2497 PWs)   bands (ev):

   -16.3242 -14.7485 -14.1633 -13.5904 -13.5778 -13.5443 -13.2759  -6.0964
    -4.4777  -1.8386  -1.5434  -1.1092  -0.8314  -0.3394   0.1613   0.4208
     1.2040   1.2601   1.7955   2.2392   2.4359   2.4389   2.4593   2.7715
     2.8147   3.1776   3.2009   3.5853   6.6191   9.9980  10.8039  10.9588
    11.4887  12.3511  12.8504  13.2733  13.6485  14.1564  15.3669  15.6226
    16.0244  16.5142  16.6428  16.7088  16.8121  17.4223  18.0380  19.0571
    19.5377  20.0461  20.3652  20.7205  21.5136  21.6930  22.1704  22.2457
    22.4195  22.7806  23.8252  24.2970  24.6213  24.9044  25.4696  25.7775

     occupation numbers
     1.0000   1.0000   1.0000   1.0000   1.0000   1.0000   1.0000   1.0000
     1.0000   1.0000   1.0000   1.0000   1.0000   1.0000   1.0000   1.0000
     1.0000   1.0000   1.0000   1.0000   1.0000   1.0000   1.0000   1.0000
     1.0000   1.0000   1.0000   1.0000   0.0000   0.0000   0.0000   0.0000
     0.0000   0.0000   0.0000   0.0000   0.0000   0.0000   0.0000   0.0000
     0.0000   0.0000   0.0000   0.0000   0.0000   0.0000   0.0000   0.0000
     0.0000   0.0000   0.0000   0.0000   0.0000   0.0000   0.0000   0.0000
     0.0000   0.0000   0.0000   0.0000   0.0000   0.0000   0.0000   0.0000

[...]

          k = 0.3333-0.2541-0.3861 (  2552 PWs)   bands (ev):

   -16.1448 -14.8933 -14.0705 -13.8007 -13.5984 -13.4969 -13.3331  -6.2879
    -3.8229  -2.4025  -1.6329  -0.9837  -0.6815  -0.4451   0.0560   0.9847
     1.1830   1.3758   1.5076   2.0789   2.2026   2.4304   2.5611   2.6755
     2.9024   3.1163   3.2132   3.3846   7.9141   9.2699  11.1864  11.3868
    11.9461  12.2971  12.7960  13.2712  13.3978  13.6673  14.2744  14.7331
    15.0485  15.4288  16.5508  16.9684  17.6496  17.9296  18.5410  19.2487
    19.4603  19.6444  20.0941  20.3034  20.6252  21.2833  21.8136  22.3061
    23.3646  23.4872  23.8214  24.2194  24.3645  24.9872  25.6218  26.1169

     occupation numbers
     1.0000   1.0000   1.0000   1.0000   1.0000   1.0000   1.0000   1.0000
     1.0000   1.0000   1.0000   1.0000   1.0000   1.0000   1.0000   1.0000
     1.0000   1.0000   1.0000   1.0000   1.0000   1.0000   1.0000   1.0000
     1.0000   1.0000   1.0000   1.0000   0.0000   0.0000   0.0000   0.0000
     0.0000   0.0000   0.0000   0.0000   0.0000   0.0000   0.0000   0.0000
     0.0000   0.0000   0.0000   0.0000   0.0000   0.0000   0.0000   0.0000
     0.0000   0.0000   0.0000   0.0000   0.0000   0.0000   0.0000   0.0000
     0.0000   0.0000   0.0000   0.0000   0.0000   0.0000   0.0000   0.0000

     highest occupied, lowest unoccupied level (ev):     3.5853    6.6191

!    total energy              =    -395.25304381 Ry
     estimated scf accuracy    <       0.00000041 Ry

     The total energy is the sum of the following terms:
     one-electron contribution =     -98.44457721 Ry
     hartree contribution      =      82.15074791 Ry
     xc contribution           =     -74.20899292 Ry
     ewald contribution        =    -175.56699566 Ry
     one-center paw contrib.   =    -129.18322593 Ry
      -> PAW hartree energy AE =       1.30776221 Ry
      -> PAW hartree energy PS =      -1.30589290 Ry
      -> PAW xc energy AE      =     -65.01089684 Ry
      -> PAW xc energy PS      =       2.47658516 Ry
      -> total E_H with PAW    =      82.15261723 Ry
      -> total E_XC with PAW   =    -136.74330461 Ry

     convergence has been achieved in   8 iterations

     Writing all to output data dir bands_nm/myprefix.save/

     General routines

     Parallel routines

     PAW routines

   This run was terminated on:  14: 0:20  16Jul2023

   JOB DONE.