     Program PWSCF v.7.1 starts on 16Jul2023 at 20:13:40

     Reading input from espresso_26488.pwi
Warning: card &CELL ignored
Warning: card / ignored

     Current dimensions of program PWSCF are:
     Max number of different atomic species (ntypx) = 10
     Max number of k-points (npk) =  40000
     Max angular momentum in pseudopotentials (lmaxx) =  4
     file O.pbe-n-kjpaw_psl.0.1.UPF: wavefunction(s)  2P renormalized
     Message from routine setup:
     using ibrav=0 with symmetry is DISCOURAGED, use correct ibrav instead

     K-points division:     npool     =       2
     R & G space division:  proc/nbgrp/npool/nimage =       4
     Subspace diagonalization in iterative solution of the eigenvalue problem:
     one sub-group per band group will be used

     Using Slab Decomposition

     bravais-lattice index     =            0
     lattice parameter (alat)  =       5.8261  a.u.
     unit-cell volume          =    1380.8479 (a.u.)^3
     number of atoms/cell      =           18
     number of atomic types    =            3
     number of electrons       =       190.00
     number of Kohn-Sham states=          256
     kinetic-energy cutoff     =      30.0000  Ry
     charge density cutoff     =     240.0000  Ry
     scf convergence threshold =      1.0E-06
     mixing beta               =       0.7000
     number of iterations used =            8  plain     mixing
     Exchange-correlation=  SLA  PW   PBX  PBC
                           (   1   4   3   4   0   0   0)

     celldm(1)=   5.826054  celldm(2)=   0.000000  celldm(3)=   0.000000
     celldm(4)=   0.000000  celldm(5)=   0.000000  celldm(6)=   0.000000

     crystal axes: (cart. coord. in units of alat)
               a(1) = (   1.000000   0.000000   0.000000 )
               a(2) = (   0.000000   2.153148   0.000000 )
               a(3) = (   0.000000   1.071333   3.243010 )

     reciprocal axes: (cart. coord. in units 2 pi/alat)
               b(1) = (  1.000000  0.000000  0.000000 )
               b(2) = (  0.000000  0.464436 -0.153427 )
               b(3) = (  0.000000  0.000000  0.308355 )

     PseudoPot. # 1 for Ni read from file:
     /lustre07/scratch/pragov/crystal_structure_design/utils/SSSP/ni_pbe_v1.4.uspp.F.UPF
     MD5 check sum: 1ee80287db30b12d2bc1f57a5b5d6409
     Pseudo is Ultrasoft + core correction, Zval = 18.0
     Generated by new atomic code, or converted to UPF format
     Using radial grid of  865 points,  6 beta functions with:
                l(1) =   0
                l(2) =   0
                l(3) =   1
                l(4) =   1
                l(5) =   2
                l(6) =   2
     Q(r) pseudized with 10 coefficients,  rinner =    0.980   0.980   0.980
                                                       0.980   0.980

     PseudoPot. # 2 for O  read from file:
     /lustre07/scratch/pragov/crystal_structure_design/utils/SSSP/O.pbe-n-kjpaw_psl.0.1.UPF
     MD5 check sum: 0234752ac141de4415c5fc33072bef88
     Pseudo is Projector augmented-wave + core cor, Zval =  6.0
     Generated using "atomic" code by A. Dal Corso  v.5.0.99 svn rev. 10869
     Shape of augmentation charge: BESSEL
     Using radial grid of 1095 points,  4 beta functions with:
                l(1) =   0
                l(2) =   0
                l(3) =   1
                l(4) =   1
     Q(r) pseudized with 0 coefficients

     PseudoPot. # 3 for F  read from file:
     /lustre07/scratch/pragov/crystal_structure_design/utils/SSSP/f_pbe_v1.4.uspp.F.UPF
     MD5 check sum: 4c38b6a325caf53ec0e86aed9459de46
     Pseudo is Ultrasoft, Zval =  7.0
     Generated by new atomic code, or converted to UPF format
     Using radial grid of  799 points,  4 beta functions with:
                l(1) =   0
                l(2) =   0
                l(3) =   1
                l(4) =   1
     Q(r) pseudized with  8 coefficients,  rinner =    0.950   0.950   0.950

     atomic species   valence    mass     pseudopotential
        Ni            18.00    58.69340     Ni( 1.00)
        O              6.00    15.99900     O ( 1.00)
        F              7.00    18.99840     F ( 1.00)

      2 Sym. Ops. (no inversion) found

                                    s                        frac. trans.

      isym =  1     identity

 cryst.   s( 1) = (     1          0          0      )
                  (     0          1          0      )
                  (     0          0          1      )

 cart.    s( 1) = (  1.0000000  0.0000000  0.0000000 )
                  (  0.0000000  1.0000000  0.0000000 )
                  (  0.0000000  0.0000000  1.0000000 )

      isym =  2     inv. 180 deg rotation - cart. axis [1,0,0]

 cryst.   s( 2) = (    -1          0          0      )
                  (     0          1          0      )
                  (     0          0          1      )

 cart.    s( 2) = ( -1.0000000  0.0000000  0.0000000 )
                  (  0.0000000  1.0000000  0.0000000 )
                  (  0.0000000  0.0000000  1.0000000 )

   Cartesian axes

     site n.     atom                  positions (alat units)
         1           Ni  tau(   1) = (   0.0000000   1.0837774   3.2322080  )
         2           Ni  tau(   2) = (   0.5000000   1.0573310   0.0109873  )
         3           Ni  tau(   3) = (   0.5000000   2.1513788   1.0743153  )
         4           Ni  tau(   4) = (   0.0000000   2.1513164   2.1627994  )
         5           Ni  tau(   5) = (   0.0000000   1.0762726   1.1092620  )
         6           Ni  tau(   6) = (   0.5000000   1.0731741   2.1485172  )
         7           O   tau(   7) = (   0.0000000   0.6520841   0.0047348  )
         8           O   tau(   8) = (   0.5000000   1.0754567   1.5041991  )
         9           F   tau(   9) = (   0.5000000   2.1487017   0.4206541  )
        10           F   tau(  10) = (   0.0000000   1.5012422   2.1620762  )
        11           F   tau(  11) = (   0.0000000   1.5031663   0.0036419  )
        12           F   tau(  12) = (   0.0000000   0.4204380   1.0783140  )
        13           F   tau(  13) = (   0.5000000   1.0739867   0.6691271  )
        14           F   tau(  14) = (   0.5000000   2.1506197   1.7325784  )
        15           F   tau(  15) = (   0.5000000   2.1516239   2.5887331  )
        16           F   tau(  16) = (   0.0000000   2.8001095   2.1561771  )
        17           F   tau(  17) = (   0.0000000   1.7306710   1.0829190  )
        18           F   tau(  18) = (   0.5000000   1.0710788   2.8028464  )

   Crystallographic axes

     site n.     atom                  positions (cryst. coord.)
         1           Ni  tau(   1) = (  0.0000000  0.0074370  0.9966690  )
         2           Ni  tau(   2) = (  0.5000000  0.4893770  0.0033880  )
         3           Ni  tau(   3) = (  0.5000000  0.8343490  0.3312710  )
         4           Ni  tau(   4) = (  0.0000000  0.6673170  0.6669110  )
         5           Ni  tau(   5) = (  0.0000000  0.3296690  0.3420470  )
         6           Ni  tau(   6) = (  0.5000000  0.1687800  0.6625070  )
         7           O   tau(   7) = (  0.0000000  0.3021250  0.0014600  )
         8           O   tau(   8) = (  0.5000000  0.2686960  0.4638280  )
         9           F   tau(   9) = (  0.5000000  0.9333950  0.1297110  )
        10           F   tau(  10) = (  0.0000000  0.3655100  0.6666880  )
        11           F   tau(  11) = (  0.0000000  0.6975660  0.0011230  )
        12           F   tau(  12) = (  0.0000000  0.0298240  0.3325040  )
        13           F   tau(  13) = (  0.5000000  0.3961360  0.2063290  )
        14           F   tau(  14) = (  0.5000000  0.7330010  0.5342500  )
        15           F   tau(  15) = (  0.5000000  0.6021100  0.7982500  )
        16           F   tau(  16) = (  0.0000000  0.9696560  0.6648690  )
        17           F   tau(  17) = (  0.0000000  0.6376370  0.3339240  )
        18           F   tau(  18) = (  0.5000000  0.0674150  0.8642730  )

     number of k points=    10
                       cart. coord. in units 2pi/alat
        k(    1) = (   0.0000000   0.0000000   0.0000000), wk =   0.0740741
        k(    2) = (   0.0000000   0.0000000   0.1027852), wk =   0.1481481
        k(    3) = (   0.0000000   0.1548121  -0.0511424), wk =   0.1481481
        k(    4) = (   0.0000000   0.1548121   0.0516428), wk =   0.1481481
        k(    5) = (   0.0000000   0.1548121  -0.1539275), wk =   0.1481481
        k(    6) = (   0.3333333   0.0000000   0.0000000), wk =   0.1481481
        k(    7) = (   0.3333333   0.0000000   0.1027852), wk =   0.2962963
        k(    8) = (   0.3333333   0.1548121  -0.0511424), wk =   0.2962963
        k(    9) = (   0.3333333   0.1548121   0.0516428), wk =   0.2962963
        k(   10) = (   0.3333333   0.1548121  -0.1539275), wk =   0.2962963

                       cryst. coord.
        k(    1) = (   0.0000000   0.0000000   0.0000000), wk =   0.0740741
        k(    2) = (   0.0000000   0.0000000   0.3333333), wk =   0.1481481
        k(    3) = (   0.0000000   0.3333333  -0.0000000), wk =   0.1481481
        k(    4) = (   0.0000000   0.3333333   0.3333333), wk =   0.1481481
        k(    5) = (   0.0000000   0.3333333  -0.3333333), wk =   0.1481481
        k(    6) = (   0.3333333   0.0000000   0.0000000), wk =   0.1481481
        k(    7) = (   0.3333333   0.0000000   0.3333333), wk =   0.2962963
        k(    8) = (   0.3333333   0.3333333  -0.0000000), wk =   0.2962963
        k(    9) = (   0.3333333   0.3333333   0.3333333), wk =   0.2962963
        k(   10) = (   0.3333333   0.3333333  -0.3333333), wk =   0.2962963

     Check: negative core charge=   -0.000010

     Initial potential from superposition of free atoms

     starting charge     178.0000, renormalised to     190.0000
     Starting wfcs are  126 randomized atomic wfcs +  130 random wfcs
     Checking if some PAW data can be deallocated...

     Self-consistent Calculation

     iteration #  1     ecut=    30.00 Ry     beta= 0.70
     Davidson diagonalization with overlap

     ethr =  1.00E-02,  avg # of iterations =  6.0

     total energy              =   -2512.96411476 Ry
     estimated scf accuracy    <     159.87573444 Ry

[...]

     total energy              =   -2627.81594466 Ry
     estimated scf accuracy    <       0.00001045 Ry

     iteration # 73     ecut=    30.00 Ry     beta= 0.70
     Davidson diagonalization with overlap

     ethr =  1.39E-09,  avg # of iterations =  1.0

     End of self-consistent calculation

          k = 0.0000 0.0000 0.0000 (  3769 PWs)   bands (ev):

   -97.0621 -97.0176 -96.8339 -96.8270 -96.7301 -96.7137 -57.5222 -57.4678
   -57.3529 -57.3214 -57.2875 -57.2788 -57.2253 -57.1771 -57.1478 -57.1373
   -57.1198 -57.0644 -57.0511 -57.0330 -57.0278 -57.0164 -57.0134 -57.0116
   -17.2584 -17.1041 -16.8879 -16.7523 -16.7093 -16.6821 -16.6371 -16.5573
   -16.4899 -16.3238 -10.8804 -10.8245  -0.9425  -0.5687  -0.2643  -0.0583
     0.2187   0.5856   0.9825   1.0262   1.1153   1.1797   1.2256   1.2317
     1.2689   1.3494   1.3821   1.5491   1.5862   1.6460   1.7770   1.9884
     2.0028   2.0582   2.0589   2.3202   2.3299   2.3922   2.6499   2.7819
     2.8882   3.0554   3.3801   3.4012   3.6000   3.6501   4.5174   4.5762
     5.2202   5.2611   5.2895   5.3473   5.3745   5.3925   5.4008   5.4047
     5.4764   5.5069   5.5213   5.5214   5.5938   5.7964   5.9480   6.0044
     6.0795   6.4014   6.4316   6.5316   6.5503   6.8995   6.9611   7.0314
     7.0738   7.0804   7.1402   7.7428   7.7687   7.7893  10.1635  12.4430
    12.5180  14.2305  14.3597  15.1057  15.2823  15.7311  15.9219  16.3104
    16.5117  16.7607  18.9937  19.5407  19.6941  20.0533  20.6822  20.7280
    20.8831  21.0421  21.1067  21.1206  21.4302  21.5805  21.7654  22.4920
    23.3729  23.6116  23.8040  23.9543  24.0024  24.4254  24.8301  25.0114
    25.0468  26.2240  26.3701  26.4398  26.8591  26.9484  27.0726  27.1059
    27.4332  27.5899  27.9377  28.2014  29.0409  29.8898  29.9785  30.0259
    30.1627  30.2116  31.1694  31.2224  31.2428  31.4062  31.4204  31.5449
    31.9318  31.9557  32.1651  32.1763  32.1971  33.0191  33.1637  33.3884
    34.2641  34.3162  34.7061  34.8700  35.1646  35.3040  35.3735  35.7194
    35.9412  35.9580  35.9748  36.1539  36.2327  37.1585  37.1885  37.3189
    37.4093  37.6995  37.7245  37.7467  37.8308  39.0564  39.2731  39.5659
    39.5690  39.6564  39.8098  40.1647  40.7934  40.9803  41.0587  41.2941
    41.3070  41.7811  41.8262  41.8435  42.0354  42.2693  42.3775  42.9515
    43.1691  43.5166  43.5479  43.5955  43.7189  43.8761  43.8859  44.0629
    44.1288  44.1829  44.2484  44.5339  44.7004  44.7132  44.8386  44.9233
    45.0620  45.1497  45.2831  46.4539  46.6011  47.0256  47.1911  47.3519
    47.6060  47.6927  47.8076  48.2039  48.3603  48.9424  49.5810  49.6749
    49.9777  50.0556  50.0815  50.1239  50.3516  50.5531  50.6673  50.7327
    51.2233  51.3722  51.8894  52.1206  52.1419  52.3540  52.5313  52.7120

     occupation numbers
     1.0000   1.0000   1.0000   1.0000   1.0000   1.0000   1.0000   1.0000
     1.0000   1.0000   1.0000   1.0000   1.0000   1.0000   1.0000   1.0000
     1.0000   1.0000   1.0000   1.0000   1.0000   1.0000   1.0000   1.0000
     1.0000   1.0000   1.0000   1.0000   1.0000   1.0000   1.0000   1.0000
     1.0000   1.0000   1.0000   1.0000   1.0000   1.0000   1.0000   1.0000
     1.0000   1.0000   1.0000   1.0000   1.0000   1.0000   1.0000   1.0000
     1.0000   1.0000   1.0000   1.0000   1.0000   1.0000   1.0000   1.0000
     1.0000   1.0000   1.0000   1.0000   1.0000   1.0000   1.0000   1.0000
     1.0000   1.0000   1.0000   1.0000   1.0000   1.0000   1.0000   1.0000
     1.0000   1.0000   1.0000   1.0000   1.0000   1.0000   1.0000   1.0000
     1.0000   1.0000   1.0000   1.0000   1.0000   1.0000   1.0000   1.0000
     1.0000   1.0000   1.0000   1.0000   1.0000   1.0000   1.0000   0.0000
     0.0000   0.0000   0.0000   0.0000   0.0000   0.0000   0.0000   0.0000
     0.0000   0.0000   0.0000   0.0000   0.0000   0.0000   0.0000   0.0000
     0.0000   0.0000   0.0000   0.0000   0.0000   0.0000   0.0000   0.0000
     0.0000   0.0000   0.0000   0.0000   0.0000   0.0000   0.0000   0.0000
     0.0000   0.0000   0.0000   0.0000   0.0000   0.0000   0.0000   0.0000
     0.0000   0.0000   0.0000   0.0000   0.0000   0.0000   0.0000   0.0000
     0.0000   0.0000   0.0000   0.0000   0.0000   0.0000   0.0000   0.0000
     0.0000   0.0000   0.0000   0.0000   0.0000   0.0000   0.0000   0.0000
     0.0000   0.0000   0.0000   0.0000   0.0000   0.0000   0.0000   0.0000
     0.0000   0.0000   0.0000   0.0000   0.0000   0.0000   0.0000   0.0000
     0.0000   0.0000   0.0000   0.0000   0.0000   0.0000   0.0000   0.0000
     0.0000   0.0000   0.0000   0.0000   0.0000   0.0000   0.0000   0.0000
     0.0000   0.0000   0.0000   0.0000   0.0000   0.0000   0.0000   0.0000
     0.0000   0.0000   0.0000   0.0000   0.0000   0.0000   0.0000   0.0000
     0.0000   0.0000   0.0000   0.0000   0.0000   0.0000   0.0000   0.0000
     0.0000   0.0000   0.0000   0.0000   0.0000   0.0000   0.0000   0.0000
     0.0000   0.0000   0.0000   0.0000   0.0000   0.0000   0.0000   0.0000
     0.0000   0.0000   0.0000   0.0000   0.0000   0.0000   0.0000   0.0000
     0.0000   0.0000   0.0000   0.0000   0.0000   0.0000   0.0000   0.0000
     0.0000   0.0000   0.0000   0.0000   0.0000   0.0000   0.0000   0.0000

[...]

          k = 0.3333 0.1548-0.1539 (  3833 PWs)   bands (ev):

   -97.0645 -97.0200 -96.8361 -96.8298 -96.7324 -96.7162 -57.5456 -57.4916
   -57.3562 -57.3229 -57.2896 -57.2829 -57.2276 -57.1811 -57.1695 -57.1617
   -57.1442 -57.0887 -57.0511 -57.0372 -57.0313 -57.0210 -57.0158 -57.0132
   -16.9518 -16.9012 -16.7884 -16.7211 -16.7102 -16.6347 -16.5894 -16.5554
   -16.4206 -16.3165 -10.7114 -10.6669  -0.2414  -0.1061  -0.0116   0.1926
     0.3985   0.4672   0.4979   0.5223   0.6327   0.6941   0.7535   0.8171
     0.9206   1.0328   1.1670   1.2563   1.3522   1.3910   1.4994   1.5199
     1.7371   1.9422   2.1362   2.2453   2.3854   2.4644   2.6167   2.6859
     2.7393   2.8001   2.8640   2.9920   3.1972   3.3120   4.2510   4.4284
     5.3191   5.3560   5.3721   5.4228   5.4547   5.4794   5.5737   5.6082
     5.6166   5.6482   5.6650   5.6858   5.7309   5.8603   5.8951   5.9110
     6.1507   6.2250   6.2397   6.2846   6.3944   6.5281   6.5480   6.6965
     6.8342   7.0524   7.1638   7.3154   7.4645   7.6459  13.5301  13.6489
    14.3566  15.2979  15.6026  15.9175  16.8133  17.1873  17.3041  17.5052
    18.0324  18.2275  18.4224  18.7131  19.1021  19.1387  19.3879  19.5213
    19.7696  20.2041  20.3667  20.5605  20.6847  20.8748  21.0993  21.1931
    21.3653  21.4081  21.7194  22.1038  22.4452  22.6892  23.4539  23.5454
    23.7530  24.3666  24.7562  24.7960  24.8993  26.7728  26.9263  27.8972
    28.0109  28.1448  29.1078  29.1297  29.3364  29.4913  29.5872  30.5047
    30.7352  30.9289  31.3034  31.4239  31.8735  32.1664  32.2235  32.5407
    32.7394  32.8750  33.0591  33.1552  33.3390  33.4136  33.5358  33.7437
    35.4178  35.5181  35.6556  35.7101  35.8330  36.1151  36.6818  37.2802
    37.3241  37.3773  37.4039  37.6358  37.7359  37.8273  38.2994  38.4194
    38.8756  38.9437  39.0745  39.6294  39.7419  39.8858  40.1225  40.1638
    40.2405  40.3215  40.6852  40.7916  40.9245  41.6186  41.6782  41.7184
    41.8145  41.8493  42.1085  42.2376  42.5051  42.5938  42.6741  42.8432
    43.4769  43.9098  43.9871  44.1256  44.2500  44.5224  44.5736  44.7341
    44.7411  44.8855  44.9610  45.1083  45.2662  45.4084  45.7675  45.8643
    46.6175  46.7272  46.8607  46.8898  47.2646  47.6023  47.6487  47.7200
    48.3457  48.3548  48.8965  49.0904  49.3204  49.5537  49.6144  50.1025
    50.2178  50.3233  50.5433  50.7507  51.0483  51.1074  51.1715  51.2502
    51.4681  51.6142  51.6700  51.8679  52.0177  52.1881  52.4469  52.7127

     occupation numbers
     1.0000   1.0000   1.0000   1.0000   1.0000   1.0000   1.0000   1.0000
     1.0000   1.0000   1.0000   1.0000   1.0000   1.0000   1.0000   1.0000
     1.0000   1.0000   1.0000   1.0000   1.0000   1.0000   1.0000   1.0000
     1.0000   1.0000   1.0000   1.0000   1.0000   1.0000   1.0000   1.0000
     1.0000   1.0000   1.0000   1.0000   1.0000   1.0000   1.0000   1.0000
     1.0000   1.0000   1.0000   1.0000   1.0000   1.0000   1.0000   1.0000
     1.0000   1.0000   1.0000   1.0000   1.0000   1.0000   1.0000   1.0000
     1.0000   1.0000   1.0000   1.0000   1.0000   1.0000   1.0000   1.0000
     1.0000   1.0000   1.0000   1.0000   1.0000   1.0000   1.0000   1.0000
     1.0000   1.0000   1.0000   1.0000   1.0000   1.0000   1.0000   1.0000
     1.0000   1.0000   1.0000   1.0000   1.0000   1.0000   1.0000   1.0000
     1.0000   1.0000   1.0000   1.0000   1.0000   1.0000   1.0000   0.0000
     0.0000   0.0000   0.0000   0.0000   0.0000   0.0000   0.0000   0.0000
     0.0000   0.0000   0.0000   0.0000   0.0000   0.0000   0.0000   0.0000
     0.0000   0.0000   0.0000   0.0000   0.0000   0.0000   0.0000   0.0000
     0.0000   0.0000   0.0000   0.0000   0.0000   0.0000   0.0000   0.0000
     0.0000   0.0000   0.0000   0.0000   0.0000   0.0000   0.0000   0.0000
     0.0000   0.0000   0.0000   0.0000   0.0000   0.0000   0.0000   0.0000
     0.0000   0.0000   0.0000   0.0000   0.0000   0.0000   0.0000   0.0000
     0.0000   0.0000   0.0000   0.0000   0.0000   0.0000   0.0000   0.0000
     0.0000   0.0000   0.0000   0.0000   0.0000   0.0000   0.0000   0.0000
     0.0000   0.0000   0.0000   0.0000   0.0000   0.0000   0.0000   0.0000
     0.0000   0.0000   0.0000   0.0000   0.0000   0.0000   0.0000   0.0000
     0.0000   0.0000   0.0000   0.0000   0.0000   0.0000   0.0000   0.0000
     0.0000   0.0000   0.0000   0.0000   0.0000   0.0000   0.0000   0.0000
     0.0000   0.0000   0.0000   0.0000   0.0000   0.0000   0.0000   0.0000
     0.0000   0.0000   0.0000   0.0000   0.0000   0.0000   0.0000   0.0000
     0.0000   0.0000   0.0000   0.0000   0.0000   0.0000   0.0000   0.0000
     0.0000   0.0000   0.0000   0.0000   0.0000   0.0000   0.0000   0.0000
     0.0000   0.0000   0.0000   0.0000   0.0000   0.0000   0.0000   0.0000
     0.0000   0.0000   0.0000   0.0000   0.0000   0.0000   0.0000   0.0000
     0.0000   0.0000   0.0000   0.0000   0.0000   0.0000   0.0000   0.0000

     highest occupied, lowest unoccupied level (ev):     6.9611    6.5749

!    total energy              =   -2627.81594395 Ry
     estimated scf accuracy    <       0.00000090 Ry

     The total energy is the sum of the following terms:
     one-electron contribution =   -1883.67296097 Ry
     hartree contribution      =    1026.78508168 Ry
     xc contribution           =    -320.11924388 Ry
     ewald contribution        =   -1431.73617085 Ry
     one-center paw contrib.   =     -19.07264992 Ry
      -> PAW hartree energy AE =       0.00000000 Ry
      -> PAW hartree energy PS =       0.00000000 Ry
      -> PAW xc energy AE      =       0.00000000 Ry
      -> PAW xc energy PS      =       0.00000000 Ry
      -> total E_H with PAW    =    1026.78508168 Ry
      -> total E_XC with PAW   =    -320.11924388 Ry

     convergence has been achieved in  73 iterations

     Writing all to output data dir bands_nm/myprefix.save/

     General routines

     Parallel routines

     PAW routines

   This run was terminated on:  20:18:42  16Jul2023

   JOB DONE.