     Program PWSCF v.7.1 starts on 16Jul2023 at 13:51:21

     Reading input from espresso_26717.pwi
Warning: card &CELL ignored
Warning: card / ignored

     Current dimensions of program PWSCF are:
     Max number of different atomic species (ntypx) = 10
     Max number of k-points (npk) =  40000
     Max angular momentum in pseudopotentials (lmaxx) =  4
     Message from routine setup:
     using ibrav=0 with symmetry is DISCOURAGED, use correct ibrav instead

     K-points division:     npool     =       2
     R & G space division:  proc/nbgrp/npool/nimage =       4
     Subspace diagonalization in iterative solution of the eigenvalue problem:
     a serial algorithm will be used

     Using Slab Decomposition

     bravais-lattice index     =            0
     lattice parameter (alat)  =       5.7863  a.u.
     unit-cell volume          =     644.7609 (a.u.)^3
     number of atoms/cell      =            6
     number of atomic types    =            3
     number of electrons       =        48.00
     number of Kohn-Sham states=           64
     kinetic-energy cutoff     =      30.0000  Ry
     charge density cutoff     =     240.0000  Ry
     scf convergence threshold =      1.0E-06
     mixing beta               =       0.7000
     number of iterations used =            8  plain     mixing
     Exchange-correlation=  SLA  PW   PBX  PBC
                           (   1   4   3   4   0   0   0)

     celldm(1)=   5.786349  celldm(2)=   0.000000  celldm(3)=   0.000000
     celldm(4)=   0.000000  celldm(5)=   0.000000  celldm(6)=   0.000000

     crystal axes: (cart. coord. in units of alat)
               a(1) = (   1.000000   0.000000   0.000000 )
               a(2) = (   0.000000   1.294703   0.000000 )
               a(3) = (   0.000000   0.000000   2.570482 )

     reciprocal axes: (cart. coord. in units 2 pi/alat)
               b(1) = (  1.000000  0.000000  0.000000 )
               b(2) = (  0.000000  0.772378  0.000000 )
               b(3) = (  0.000000  0.000000  0.389032 )

     PseudoPot. # 1 for Ti read from file:
     /lustre07/scratch/pragov/crystal_structure_design/utils/SSSP/ti_pbe_v1.4.uspp.F.UPF
     MD5 check sum: 88a00a6731bd790ddea75d31a80cb452
     Pseudo is Ultrasoft + core correction, Zval = 12.0
     Generated by new atomic code, or converted to UPF format
     Using radial grid of  851 points,  6 beta functions with:
                l(1) =   0
                l(2) =   0
                l(3) =   1
                l(4) =   1
                l(5) =   2
                l(6) =   2
     Q(r) pseudized with  6 coefficients,  rinner =    1.000   1.000   1.000
                                                       1.000   1.000

     PseudoPot. # 2 for N  read from file:
     /lustre07/scratch/pragov/crystal_structure_design/utils/SSSP/N.pbe-n-radius_5.UPF
     MD5 check sum: 16739722b17309cd8fe442a2ace49922
     Pseudo is Ultrasoft + core correction, Zval =  5.0
     Generated using "atomic" code by A. Dal Corso  v.5.1
     Using radial grid of 1085 points,  4 beta functions with:
                l(1) =   0
                l(2) =   0
                l(3) =   1
                l(4) =   1
     Q(r) pseudized with 0 coefficients

     PseudoPot. # 3 for F  read from file:
     /lustre07/scratch/pragov/crystal_structure_design/utils/SSSP/f_pbe_v1.4.uspp.F.UPF
     MD5 check sum: 4c38b6a325caf53ec0e86aed9459de46
     Pseudo is Ultrasoft, Zval =  7.0
     Generated by new atomic code, or converted to UPF format
     Using radial grid of  799 points,  4 beta functions with:
                l(1) =   0
                l(2) =   0
                l(3) =   1
                l(4) =   1
     Q(r) pseudized with  8 coefficients,  rinner =    0.950   0.950   0.950

     atomic species   valence    mass     pseudopotential
        Ti            12.00    47.86700     Ti( 1.00)
        N              5.00    14.00700     N ( 1.00)
        F              7.00    18.99840     F ( 1.00)

      8 Sym. Ops., with inversion, found ( 4 have fractional translation)

                                    s                        frac. trans.

      isym =  1     identity

 cryst.   s( 1) = (     1          0          0      )
                  (     0          1          0      )
                  (     0          0          1      )

 cart.    s( 1) = (  1.0000000  0.0000000  0.0000000 )
                  (  0.0000000  1.0000000  0.0000000 )
                  (  0.0000000  0.0000000  1.0000000 )

      isym =  2     180 deg rotation - cart. axis [0,0,1]

[...]

 cryst.   s( 3) = (    -1          0          0      )    f =(  0.5000000 )
                  (     0          1          0      )       ( -0.5000000 )
                  (     0          0         -1      )       (  0.0000000 )

 cart.    s( 3) = ( -1.0000000  0.0000000  0.0000000 )    f =(  0.5000000 )
                  (  0.0000000  1.0000000  0.0000000 )       ( -0.6473517 )
                  (  0.0000000  0.0000000 -1.0000000 )       (  0.0000000 )

      isym =  4     180 deg rotation - cart. axis [1,0,0]

[...]

      isym =  5     inversion

[...]

      isym =  6     inv. 180 deg rotation - cart. axis [0,0,1]

 cryst.   s( 6) = (     1          0          0      )    f =(  0.5000000 )
                  (     0          1          0      )       ( -0.5000000 )
                  (     0          0         -1      )       (  0.0000000 )

 cart.    s( 6) = (  1.0000000  0.0000000  0.0000000 )    f =(  0.5000000 )
                  (  0.0000000  1.0000000  0.0000000 )       ( -0.6473517 )
                  (  0.0000000  0.0000000 -1.0000000 )       (  0.0000000 )

[...]

      isym =  8     inv. 180 deg rotation - cart. axis [1,0,0]

 cryst.   s( 8) = (    -1          0          0      )
                  (     0          1          0      )
                  (     0          0          1      )

 cart.    s( 8) = ( -1.0000000  0.0000000  0.0000000 )
                  (  0.0000000  1.0000000  0.0000000 )
                  (  0.0000000  0.0000000  1.0000000 )

   Cartesian axes

     site n.     atom                  positions (alat units)
         1           Ti  tau(   1) = (   0.5000000   0.0000000   2.3029308  )
         2           Ti  tau(   2) = (   0.0000000   0.6473517   0.2675512  )
         3           N   tau(   3) = (   0.5000000   0.6473517   2.4144948  )
         4           N   tau(   4) = (   0.0000000   0.0000000   0.1559871  )
         5           F   tau(   5) = (   0.0000000   0.0000000   1.8626329  )
         6           F   tau(   6) = (   0.5000000   0.6473517   0.7078490  )

   Crystallographic axes

     site n.     atom                  positions (cryst. coord.)
         1           Ti  tau(   1) = (  0.5000000  0.0000000  0.8959140  )
         2           Ti  tau(   2) = (  0.0000000  0.5000000  0.1040860  )
         3           N   tau(   3) = (  0.5000000  0.5000000  0.9393160  )
         4           N   tau(   4) = (  0.0000000  0.0000000  0.0606840  )
         5           F   tau(   5) = (  0.0000000  0.0000000  0.7246240  )
         6           F   tau(   6) = (  0.5000000  0.5000000  0.2753760  )

     number of k points=     8
                       cart. coord. in units 2pi/alat
        k(    1) = (   0.0000000   0.0000000   0.0000000), wk =   0.0740741
        k(    2) = (   0.0000000   0.0000000   0.1296774), wk =   0.1481481
        k(    3) = (   0.0000000   0.2574592   0.0000000), wk =   0.1481481
        k(    4) = (   0.0000000   0.2574592   0.1296774), wk =   0.2962963
        k(    5) = (   0.3333333   0.0000000   0.0000000), wk =   0.1481481
        k(    6) = (   0.3333333   0.0000000   0.1296774), wk =   0.2962963
        k(    7) = (   0.3333333   0.2574592   0.0000000), wk =   0.2962963
        k(    8) = (   0.3333333   0.2574592   0.1296774), wk =   0.5925926

                       cryst. coord.
        k(    1) = (   0.0000000   0.0000000   0.0000000), wk =   0.0740741
        k(    2) = (   0.0000000   0.0000000   0.3333333), wk =   0.1481481
        k(    3) = (   0.0000000   0.3333333   0.0000000), wk =   0.1481481
        k(    4) = (   0.0000000   0.3333333   0.3333333), wk =   0.2962963
        k(    5) = (   0.3333333   0.0000000   0.0000000), wk =   0.1481481
        k(    6) = (   0.3333333   0.0000000   0.3333333), wk =   0.2962963
        k(    7) = (   0.3333333   0.3333333   0.0000000), wk =   0.2962963
        k(    8) = (   0.3333333   0.3333333   0.3333333), wk =   0.5925926

     Check: negative core charge=   -0.000006

     Initial potential from superposition of free atoms

     starting charge      45.9999, renormalised to      48.0000

     negative rho (up, down):  3.141E-03 0.000E+00
     Starting wfcs are   36 randomized atomic wfcs +   28 random wfcs

     Self-consistent Calculation

     iteration #  1     ecut=    30.00 Ry     beta= 0.70
     Davidson diagonalization with overlap

     ethr =  1.00E-02,  avg # of iterations =  6.2

     negative rho (up, down):  3.707E-03 0.000E+00

     total energy              =    -375.26568029 Ry
     estimated scf accuracy    <       2.44023894 Ry

[...]

     total energy              =    -376.71935155 Ry
     estimated scf accuracy    <       0.00000108 Ry

     iteration #  9     ecut=    30.00 Ry     beta= 0.70
     Davidson diagonalization with overlap

     ethr =  2.24E-09,  avg # of iterations =  2.0

     negative rho (up, down):  2.773E-03 0.000E+00

     End of self-consistent calculation

          k = 0.0000 0.0000 0.0000 (  1759 PWs)   bands (ev):

   -53.1774 -53.1098 -29.5797 -29.4527 -29.4195 -29.3391 -29.2213 -29.2116
   -18.7670 -18.7389 -10.1676  -8.8392  -1.3279  -0.9241  -0.8521  -0.7668
    -0.1208   0.0546   0.1289   1.6281   1.8787   1.9279   3.2821   4.5389
     5.2207   5.9611   6.1575   6.4796   6.6130   7.2139   8.2196   8.7745
     9.3922   9.5778   9.9864  12.5223  14.0892  17.5847  17.7753  17.9520
    18.0461  18.7032  19.3818  19.8294  21.0899  22.0603  23.6565  23.8595
    23.9593  24.6424  24.8269  25.7029  26.3257  26.6611  27.2732  28.3436
    28.4398  28.8961  29.2962  29.3054  29.5823  30.1078  31.8113  31.9171

     occupation numbers
     1.0000   1.0000   1.0000   1.0000   1.0000   1.0000   1.0000   1.0000
     1.0000   1.0000   1.0000   1.0000   1.0000   1.0000   1.0000   1.0000
     1.0000   1.0000   1.0000   1.0000   1.0000   1.0000   1.0000   1.0000
     0.0000   0.0000   0.0000   0.0000   0.0000   0.0000   0.0000   0.0000
     0.0000   0.0000   0.0000   0.0000   0.0000   0.0000   0.0000   0.0000
     0.0000   0.0000   0.0000   0.0000   0.0000   0.0000   0.0000   0.0000
     0.0000   0.0000   0.0000   0.0000   0.0000   0.0000   0.0000   0.0000
     0.0000   0.0000   0.0000   0.0000   0.0000   0.0000   0.0000   0.0000

[...]

          k = 0.3333 0.2575 0.1297 (  1790 PWs)   bands (ev):

   -53.1317 -53.1148 -29.6012 -29.5912 -29.4593 -29.4423 -29.2684 -29.2481
   -18.6662 -18.6650  -9.0549  -8.6398  -1.1071  -0.9742  -0.8886  -0.7524
    -0.5113  -0.4236   0.0554   0.6917   0.9522   1.7309   2.2111   2.8831
     5.9814   6.1454   6.6617   6.7046   6.9988   7.0494   8.8808   9.2138
    10.3139  10.5292  12.6822  14.0887  15.5526  16.2430  16.7878  17.0141
    17.6860  18.5114  18.9304  19.3270  20.8065  20.8949  21.2966  22.4104
    23.3995  24.1444  24.4702  25.2020  25.8719  26.0257  27.9256  28.3135
    28.6792  29.0413  29.4936  29.7485  30.5656  30.9532  32.8836  33.1970

     occupation numbers
     1.0000   1.0000   1.0000   1.0000   1.0000   1.0000   1.0000   1.0000
     1.0000   1.0000   1.0000   1.0000   1.0000   1.0000   1.0000   1.0000
     1.0000   1.0000   1.0000   1.0000   1.0000   1.0000   1.0000   1.0000
     0.0000   0.0000   0.0000   0.0000   0.0000   0.0000   0.0000   0.0000
     0.0000   0.0000   0.0000   0.0000   0.0000   0.0000   0.0000   0.0000
     0.0000   0.0000   0.0000   0.0000   0.0000   0.0000   0.0000   0.0000
     0.0000   0.0000   0.0000   0.0000   0.0000   0.0000   0.0000   0.0000
     0.0000   0.0000   0.0000   0.0000   0.0000   0.0000   0.0000   0.0000

     highest occupied, lowest unoccupied level (ev):     4.5389    5.2201

!    total energy              =    -376.71935154 Ry
     estimated scf accuracy    <       0.00000024 Ry

     The total energy is the sum of the following terms:
     one-electron contribution =    -407.80895181 Ry
     hartree contribution      =     217.81859353 Ry
     xc contribution           =     -65.60015086 Ry
     ewald contribution        =    -121.12884240 Ry

     convergence has been achieved in   9 iterations

     Writing all to output data dir bands_nm/myprefix.save/

     General routines

     Parallel routines

   This run was terminated on:  13:51:24  16Jul2023

   JOB DONE.