     Program PWSCF v.7.1 starts on 17Jul2023 at  1:37: 4

     Reading input from espresso_4191.pwi
Warning: card &CELL ignored
Warning: card / ignored

     Current dimensions of program PWSCF are:
     Max number of different atomic species (ntypx) = 10
     Max number of k-points (npk) =  40000
     Max angular momentum in pseudopotentials (lmaxx) =  4
     file O.pbe-n-kjpaw_psl.0.1.UPF: wavefunction(s)  2P renormalized
     Message from routine setup:
     using ibrav=0 with symmetry is DISCOURAGED, use correct ibrav instead

     K-points division:     npool     =       2
     R & G space division:  proc/nbgrp/npool/nimage =       4
     Subspace diagonalization in iterative solution of the eigenvalue problem:
     one sub-group per band group will be used

     Using Slab Decomposition

     bravais-lattice index     =            0
     lattice parameter (alat)  =       9.8418  a.u.
     unit-cell volume          =    1743.3308 (a.u.)^3
     number of atoms/cell      =           20
     number of atomic types    =            3
     number of electrons       =       156.00
     number of Kohn-Sham states=          256
     kinetic-energy cutoff     =      30.0000  Ry
     charge density cutoff     =     240.0000  Ry
     scf convergence threshold =      1.0E-06
     mixing beta               =       0.7000
     number of iterations used =            8  plain     mixing
     Exchange-correlation= SLA  PW   PBX  PBC
                           (   1   4   3   4   0   0   0)

     celldm(1)=   9.841815  celldm(2)=   0.000000  celldm(3)=   0.000000
     celldm(4)=   0.000000  celldm(5)=   0.000000  celldm(6)=   0.000000

     crystal axes: (cart. coord. in units of alat)
               a(1) = (   1.000000   0.000000   0.000000 )
               a(2) = (   0.000000   1.188040   0.000000 )
               a(3) = (   0.000002   0.000000   1.539300 )

     reciprocal axes: (cart. coord. in units 2 pi/alat)
               b(1) = (  1.000000  0.000000 -0.000001 )
               b(2) = (  0.000000  0.841722  0.000000 )
               b(3) = (  0.000000  0.000000  0.649646 )

     PseudoPot. # 1 for Mn read from file:
     /lustre07/scratch/pragov/crystal_structure_design/utils/SSSP/mn_pbe_v1.5.uspp.F.UPF
     MD5 check sum: 82ef2b46521d7a7d9e736dc3972e4928
     Pseudo is Ultrasoft + core correction, Zval = 15.0
     Generated by new atomic code, or converted to UPF format
     Using radial grid of  859 points,  6 beta functions with:
                l(1) =   0
                l(2) =   0
                l(3) =   1
                l(4) =   1
                l(5) =   2
                l(6) =   2
     Q(r) pseudized with  8 coefficients,  rinner =    0.950   0.950   0.950
                                                       0.950   0.950

     PseudoPot. # 2 for Se read from file:
     /lustre07/scratch/pragov/crystal_structure_design/utils/SSSP/Se_pbe_v1.uspp.F.UPF
     MD5 check sum: 1b3568f3a8ae88f9a2a0ad0698632c85
     Pseudo is Ultrasoft + core correction, Zval =  6.0
     Generated by new atomic code, or converted to UPF format
     Using radial grid of  877 points,  6 beta functions with:
                l(1) =   0
                l(2) =   0
                l(3) =   1
                l(4) =   1
                l(5) =   2
                l(6) =   2
     Q(r) pseudized with  8 coefficients,  rinner =    1.300   1.300   1.300
                                                       1.300   1.300

     PseudoPot. # 3 for O  read from file:
     /lustre07/scratch/pragov/crystal_structure_design/utils/SSSP/O.pbe-n-kjpaw_psl.0.1.UPF
     MD5 check sum: 0234752ac141de4415c5fc33072bef88
     Pseudo is Projector augmented-wave + core cor, Zval =  6.0
     Generated using "atomic" code by A. Dal Corso  v.5.0.99 svn rev. 10869
     Shape of augmentation charge: BESSEL
     Using radial grid of 1095 points,  4 beta functions with:
                l(1) =   0
                l(2) =   0
                l(3) =   1
                l(4) =   1
     Q(r) pseudized with 0 coefficients

     atomic species   valence    mass     pseudopotential
        Mn            15.00    54.93804     Mn( 1.00)
        Se             6.00    78.97100     Se( 1.00)
        O              6.00    15.99900     O ( 1.00)

      4 Sym. Ops., with inversion, found ( 2 have fractional translation)

                                    s                        frac. trans.

      isym =  1     identity

 cryst.   s( 1) = (     1          0          0      )
                  (     0          1          0      )
                  (     0          0          1      )

 cart.    s( 1) = (  1.0000000  0.0000000  0.0000000 )
                  (  0.0000000  1.0000000  0.0000000 )
                  (  0.0000000  0.0000000  1.0000000 )

      isym =  2     180 deg rotation - cart. axis [0,1,0]

 cryst.   s( 2) = (    -1          0          0      )    f =( -0.5000000 )
                  (     0          1          0      )       ( -0.5000000 )
                  (     0          0         -1      )       (  0.5000000 )

 cart.    s( 2) = ( -1.0000000  0.0000000  0.0000000 )    f =( -0.4999992 )
                  (  0.0000000  1.0000000  0.0000000 )       ( -0.5940201 )
                  (  0.0000000  0.0000000 -1.0000000 )       (  0.7696498 )

      isym =  3     inversion

 cryst.   s( 3) = (    -1          0          0      )
                  (     0         -1          0      )
                  (     0          0         -1      )

 cart.    s( 3) = ( -1.0000000  0.0000000  0.0000000 )
                  (  0.0000000 -1.0000000  0.0000000 )
                  (  0.0000000  0.0000000 -1.0000000 )

      isym =  4     inv. 180 deg rotation - cart. axis [0,1,0]

 cryst.   s( 4) = (     1          0          0      )    f =(  0.5000000 )
                  (     0         -1          0      )       ( -0.5000000 )
                  (     0          0          1      )       ( -0.5000000 )

 cart.    s( 4) = (  1.0000000  0.0000000  0.0000000 )    f =(  0.4999992 )
                  (  0.0000000 -1.0000000  0.0000000 )       ( -0.5940201 )
                  (  0.0000000  0.0000000  1.0000000 )       ( -0.7696498 )

   Cartesian axes

     site n.     atom                  positions (alat units)
         1           Mn  tau(   1) = (   0.0000000   0.5940201   0.0000000  )
         2           Mn  tau(   2) = (   0.5000008   0.0000000   0.7696498  )
         3           Mn  tau(   3) = (   0.5000000   0.0000012   0.0000000  )
         4           Mn  tau(   4) = (   0.0000008   0.5940224   0.7696498  )
         5           Se  tau(   5) = (   0.9825004   0.0318347   0.3848249  )
         6           Se  tau(   6) = (   0.4825012   0.5621853   1.1544747  )
         7           Se  tau(   7) = (   0.5175004   0.6258548   0.3848249  )
         8           Se  tau(   8) = (   0.0175012   1.1562042   1.1544747  )
         9           O   tau(   9) = (   0.3117384   0.0926659   0.3848203  )
        10           O   tau(  10) = (   0.8117392   0.5013529   1.1544701  )
        11           O   tau(  11) = (   0.1882624   0.6866860   0.3848295  )
        12           O   tau(  12) = (   0.6882632   1.0953730   1.1544793  )
        13           O   tau(  13) = (   0.8652717   0.2153394   0.6418879  )
        14           O   tau(  14) = (   0.3652640   0.3786890   0.8974117  )
        15           O   tau(  15) = (   0.6347291   0.8093607   0.1277619  )
        16           O   tau(  16) = (   0.1347385   0.9727090   1.4115378  )
        17           O   tau(  17) = (   0.1347300   0.9726995   0.8974117  )
        18           O   tau(  18) = (   0.6347377   0.8093511   0.6418879  )
        19           O   tau(  19) = (   0.3652725   0.3786795   1.4115378  )
        20           O   tau(  20) = (   0.8652631   0.2153311   0.1277619  )

   Crystallographic axes

     site n.     atom                  positions (cryst. coord.)
         1           Mn  tau(   1) = (  0.0000000  0.5000000  0.0000000  )
         2           Mn  tau(   2) = (  0.5000000  0.0000000  0.5000000  )
         3           Mn  tau(   3) = (  0.5000000  0.0000010  0.0000000  )
         4           Mn  tau(   4) = ( -0.0000000  0.5000020  0.5000000  )
         5           Se  tau(   5) = (  0.9825000  0.0267960  0.2500000  )
         6           Se  tau(   6) = (  0.4825000  0.4732040  0.7500000  )
         7           Se  tau(   7) = (  0.5175000  0.5267960  0.2500000  )
         8           Se  tau(   8) = (  0.0175000  0.9732030  0.7500000  )
         9           O   tau(   9) = (  0.3117380  0.0779990  0.2499970  )
        10           O   tau(  10) = (  0.8117380  0.4220000  0.7499970  )
        11           O   tau(  11) = (  0.1882620  0.5779990  0.2500030  )
        12           O   tau(  12) = (  0.6882620  0.9220000  0.7500030  )
        13           O   tau(  13) = (  0.8652710  0.1812560  0.4170000  )
        14           O   tau(  14) = (  0.3652630  0.3187510  0.5830000  )
        15           O   tau(  15) = (  0.6347290  0.6812570  0.0830000  )
        16           O   tau(  16) = (  0.1347370  0.8187510  0.9170000  )
        17           O   tau(  17) = (  0.1347290  0.8187430  0.5830000  )
        18           O   tau(  18) = (  0.6347370  0.6812490  0.4170000  )
        19           O   tau(  19) = (  0.3652710  0.3187430  0.9170000  )
        20           O   tau(  20) = (  0.8652630  0.1812490  0.0830000  )

     number of k points=    10
                       cart. coord. in units 2pi/alat
        k(    1) = (   0.0000000   0.0000000   0.0000000), wk =   0.0740741
        k(    2) = (   0.0000000   0.0000000   0.2165487), wk =   0.1481481
        k(    3) = (   0.0000000   0.2805741   0.0000000), wk =   0.1481481
        k(    4) = (   0.0000000   0.2805741   0.2165487), wk =   0.2962963
        k(    5) = (   0.3333333   0.0000000  -0.0000004), wk =   0.1481481
        k(    6) = (   0.3333333   0.0000000   0.2165483), wk =   0.1481481
        k(    7) = (   0.3333333   0.0000000  -0.2165491), wk =   0.1481481
        k(    8) = (   0.3333333   0.2805741  -0.0000004), wk =   0.2962963
        k(    9) = (   0.3333333   0.2805741   0.2165483), wk =   0.2962963
        k(   10) = (   0.3333333   0.2805741  -0.2165491), wk =   0.2962963

                       cryst. coord.
        k(    1) = (   0.0000000   0.0000000   0.0000000), wk =   0.0740741
        k(    2) = (   0.0000000   0.0000000   0.3333333), wk =   0.1481481
        k(    3) = (   0.0000000   0.3333333   0.0000000), wk =   0.1481481
        k(    4) = (   0.0000000   0.3333333   0.3333333), wk =   0.2962963
        k(    5) = (   0.3333333   0.0000000   0.0000000), wk =   0.1481481
        k(    6) = (   0.3333333   0.0000000   0.3333333), wk =   0.1481481
        k(    7) = (   0.3333333   0.0000000  -0.3333333), wk =   0.1481481
        k(    8) = (   0.3333333   0.3333333   0.0000000), wk =   0.2962963
        k(    9) = (   0.3333333   0.3333333   0.3333333), wk =   0.2962963
        k(   10) = (   0.3333333   0.3333333  -0.3333333), wk =   0.2962963

     Check: negative core charge=   -0.000020

     Initial potential from superposition of free atoms

     starting charge     153.9994, renormalised to     156.0000
     Starting wfcs are  116 randomized atomic wfcs +  140 random wfcs
     Checking if some PAW data can be deallocated...

     Self-consistent Calculation

     iteration #  1     ecut=    30.00 Ry     beta= 0.70
     Davidson diagonalization with overlap

     ethr =  1.00E-02,  avg # of iterations =  6.0

     total energy              =   -1515.44711416 Ry
     estimated scf accuracy    <       3.92998398 Ry

[...]

     total energy              =   -1517.36904126 Ry
     estimated scf accuracy    <       0.00000264 Ry

     iteration # 21     ecut=    30.00 Ry     beta= 0.70
     Davidson diagonalization with overlap

     ethr =  1.69E-09,  avg # of iterations =  1.0

     End of self-consistent calculation

          k = 0.0000 0.0000 0.0000 (  4875 PWs)   bands (ev):

   -70.7149 -70.7147 -70.7145 -70.7140 -39.5519 -39.5507 -39.5505 -39.5488
   -39.4324 -39.4313 -39.4300 -39.4295 -39.3972 -39.3961 -39.3945 -39.3932
   -14.0191 -13.6738 -13.6098 -13.4991 -11.6726 -11.5259 -11.4714 -11.4049
   -11.3679 -11.3427 -11.2552 -11.1989  -4.7974  -4.3392  -4.0151  -3.9617
     0.2903   0.5137   0.5422   0.6353   0.6432   0.7136   0.8431   0.8478
     1.3257   1.7418   1.7764   2.3407   2.5874   3.0074   3.3715   3.4288
     3.5037   3.5602   3.7432   3.8512   4.0274   4.0434   4.1619   4.3206
     4.3653   4.3800   4.4801   4.7104   4.8784   4.9257   4.9259   5.5321
     5.5502   5.6572   5.7827   6.0239   8.0114   8.0337   8.0490   8.0559
     8.1722   8.1737   8.2045   8.2082   8.3208   8.3849   8.4231   8.4853
     8.8116   8.8352   8.9451   8.9678   9.1867   9.5309   9.6426   9.7228
    10.8117  11.3346  11.3747  11.4377  11.4442  11.8765  11.9883  12.1053
    12.3232  12.4533  12.5180  13.1390  13.9763  14.9434  15.0634  15.1980
    15.8331  16.3565  16.4452  17.0039  17.5509  17.9562  17.9939  18.3807
    18.5875  18.7958  18.8607  19.2410  19.3374  19.7182  19.7645  20.0990
    20.2543  20.2752  20.3313  20.4269  20.7335  20.7426  20.7609  21.1952
    21.5563  21.9511  22.2456  22.8874  23.2289  23.2685  23.5473  23.7896
    24.0138  24.1730  24.3114  24.5178  25.7795  25.9722  26.2402  26.2570
    26.4109  26.7453  26.8354  26.9620  27.0608  27.2184  27.3524  27.3582
    28.5129  28.5644  28.8733  28.8820  29.0235  29.9017  29.9112  29.9933
    29.9991  30.4003  30.4268  30.4955  30.5363  31.1835  31.2597  31.3692
    31.6922  31.7703  31.8958  32.2616  32.4935  32.6640  32.8880  33.0469
    33.3616  33.4021  33.7335  33.8515  33.9110  34.2652  34.3640  34.4717
    34.4886  34.5012  34.8604  34.8742  35.1424  35.2242  35.5832  35.5964
    35.7524  35.8614  35.9977  36.0438  36.2058  36.3742  36.4149  36.4492
    36.4745  36.5792  36.6350  36.6653  36.7041  36.7808  36.8206  36.8378
    36.8922  36.9245  36.9578  37.0096  37.0155  37.0391  37.1694  37.1931
    37.1965  37.1983  37.2262  37.2487  37.3532  37.8076  37.9223  37.9466
    37.9714  38.0963  38.4514  38.5219  38.5856  38.8523  38.8819  39.0442
    39.1248  39.2380  39.2955  39.6096  39.7653  40.0931  40.1672  40.2058
    40.2920  40.4515  40.6175  41.1481  41.1944  41.3063  41.4407  41.7077
    41.7376  41.7626  41.7984  41.8428  42.2551  42.4935  42.7946  43.0722

     occupation numbers
     1.0000   1.0000   1.0000   1.0000   1.0000   1.0000   1.0000   1.0000
     1.0000   1.0000   1.0000   1.0000   1.0000   1.0000   1.0000   1.0000
     1.0000   1.0000   1.0000   1.0000   1.0000   1.0000   1.0000   1.0000
     1.0000   1.0000   1.0000   1.0000   1.0000   1.0000   1.0000   1.0000
     1.0000   1.0000   1.0000   1.0000   1.0000   1.0000   1.0000   1.0000
     1.0000   1.0000   1.0000   1.0000   1.0000   1.0000   1.0000   1.0000
     1.0000   1.0000   1.0000   1.0000   1.0000   1.0000   1.0000   1.0000
     1.0000   1.0000   1.0000   1.0000   1.0000   1.0000   1.0000   1.0000
     1.0000   1.0000   1.0000   1.0000   1.0000   1.0000   1.0000   1.0000
     1.0000   1.0000   1.0000   1.0000   1.0000   1.0000   0.0000   0.0000
     0.0000   0.0000   0.0000   0.0000   0.0000   0.0000   0.0000   0.0000
     0.0000   0.0000   0.0000   0.0000   0.0000   0.0000   0.0000   0.0000
     0.0000   0.0000   0.0000   0.0000   0.0000   0.0000   0.0000   0.0000
     0.0000   0.0000   0.0000   0.0000   0.0000   0.0000   0.0000   0.0000
     0.0000   0.0000   0.0000   0.0000   0.0000   0.0000   0.0000   0.0000
     0.0000   0.0000   0.0000   0.0000   0.0000   0.0000   0.0000   0.0000
     0.0000   0.0000   0.0000   0.0000   0.0000   0.0000   0.0000   0.0000
     0.0000   0.0000   0.0000   0.0000   0.0000   0.0000   0.0000   0.0000
     0.0000   0.0000   0.0000   0.0000   0.0000   0.0000   0.0000   0.0000
     0.0000   0.0000   0.0000   0.0000   0.0000   0.0000   0.0000   0.0000
     0.0000   0.0000   0.0000   0.0000   0.0000   0.0000   0.0000   0.0000
     0.0000   0.0000   0.0000   0.0000   0.0000   0.0000   0.0000   0.0000
     0.0000   0.0000   0.0000   0.0000   0.0000   0.0000   0.0000   0.0000
     0.0000   0.0000   0.0000   0.0000   0.0000   0.0000   0.0000   0.0000
     0.0000   0.0000   0.0000   0.0000   0.0000   0.0000   0.0000   0.0000
     0.0000   0.0000   0.0000   0.0000   0.0000   0.0000   0.0000   0.0000
     0.0000   0.0000   0.0000   0.0000   0.0000   0.0000   0.0000   0.0000
     0.0000   0.0000   0.0000   0.0000   0.0000   0.0000   0.0000   0.0000
     0.0000   0.0000   0.0000   0.0000   0.0000   0.0000   0.0000   0.0000
     0.0000   0.0000   0.0000   0.0000   0.0000   0.0000   0.0000   0.0000
     0.0000   0.0000   0.0000   0.0000   0.0000   0.0000   0.0000   0.0000
     0.0000   0.0000   0.0000   0.0000   0.0000   0.0000   0.0000   0.0000

[...]

          k = 0.3333 0.2806-0.2165 (  4836 PWs)   bands (ev):

   -70.7144 -70.7143 -70.7143 -70.7141 -39.5501 -39.5486 -39.5482 -39.5476
   -39.4296 -39.4294 -39.4286 -39.4274 -39.3938 -39.3933 -39.3927 -39.3919
   -13.7659 -13.6708 -13.6477 -13.5858 -11.5693 -11.5377 -11.5172 -11.4942
   -11.4323 -11.3811 -11.3053 -11.2833  -4.4833  -4.3252  -4.2600  -4.1487
     0.5690   0.6189   0.7729   0.8151   0.9961   1.0602   1.1046   1.1916
     1.3019   1.4643   1.7745   1.8173   2.9122   3.0017   3.2642   3.3432
     3.4939   3.6062   3.8104   3.8332   3.9398   4.0453   4.1515   4.2436
     4.2621   4.2947   4.3379   4.3410   4.9558   5.0645   5.2401   5.2965
     5.4258   5.5728   5.6465   5.7307   7.9198   7.9837   8.0337   8.1129
     8.1956   8.2382   8.2755   8.2829   8.3270   8.3469   8.3726   8.4088
     8.8438   8.9035   8.9843   9.1345   9.2325   9.3290   9.3486   9.4886
    10.8861  11.0344  11.2821  11.3729  11.4443  11.5699  11.8309  11.9580
    12.3047  12.3802  12.6017  12.7345  14.7859  15.0388  15.3398  15.4546
    16.4772  16.5621  16.9786  17.2394  17.6122  17.8735  18.0952  18.3306
    18.5416  18.6415  18.9867  19.1350  19.3728  19.6003  19.7295  19.9007
    20.1841  20.3007  20.3527  20.5099  20.5987  20.7780  21.1766  21.3650
    21.5336  21.8667  22.4119  22.6344  23.0557  23.2737  23.4224  23.8852
    24.0362  24.2752  24.7428  24.9770  25.1139  25.4741  25.8268  26.0972
    26.2582  26.3793  26.4417  26.9279  27.0973  27.3253  27.6876  28.0356
    28.3660  28.5281  28.6716  28.8255  28.9906  29.3653  29.4929  29.6638
    29.9374  30.1853  30.4964  30.5626  30.8476  31.2006  31.4636  31.5490
    31.7731  31.9265  32.0051  32.3341  32.3836  32.5670  32.8697  32.9340
    33.1041  33.2433  33.6363  33.8551  33.9995  34.2068  34.3230  34.4636
    34.5896  34.7932  34.9141  35.1187  35.2745  35.4738  35.7425  35.8093
    35.9614  36.2179  36.3785  36.4272  36.4552  36.5624  36.6179  36.6752
    36.6882  36.7592  36.8413  36.8640  36.9587  36.9750  37.0207  37.0606
    37.0788  37.1019  37.1516  37.2160  37.2462  37.2754  37.3283  37.3817
    37.4114  37.4796  37.5278  37.6513  37.6581  37.6923  37.8654  37.8823
    38.0287  38.0622  38.1191  38.2426  38.5333  38.9401  39.1825  39.3417
    39.5217  39.5758  39.8411  40.0259  40.1638  40.3072  40.3449  40.6577
    40.7219  40.8200  41.0048  41.1521  41.2388  41.5232  41.6789  41.8271
    41.9619  42.1261  42.2494  42.4132  42.4370  42.5779  42.7663  42.9826

     occupation numbers
     1.0000   1.0000   1.0000   1.0000   1.0000   1.0000   1.0000   1.0000
     1.0000   1.0000   1.0000   1.0000   1.0000   1.0000   1.0000   1.0000
     1.0000   1.0000   1.0000   1.0000   1.0000   1.0000   1.0000   1.0000
     1.0000   1.0000   1.0000   1.0000   1.0000   1.0000   1.0000   1.0000
     1.0000   1.0000   1.0000   1.0000   1.0000   1.0000   1.0000   1.0000
     1.0000   1.0000   1.0000   1.0000   1.0000   1.0000   1.0000   1.0000
     1.0000   1.0000   1.0000   1.0000   1.0000   1.0000   1.0000   1.0000
     1.0000   1.0000   1.0000   1.0000   1.0000   1.0000   1.0000   1.0000
     1.0000   1.0000   1.0000   1.0000   1.0000   1.0000   1.0000   1.0000
     1.0000   1.0000   1.0000   1.0000   1.0000   1.0000   0.0000   0.0000
     0.0000   0.0000   0.0000   0.0000   0.0000   0.0000   0.0000   0.0000
     0.0000   0.0000   0.0000   0.0000   0.0000   0.0000   0.0000   0.0000
     0.0000   0.0000   0.0000   0.0000   0.0000   0.0000   0.0000   0.0000
     0.0000   0.0000   0.0000   0.0000   0.0000   0.0000   0.0000   0.0000
     0.0000   0.0000   0.0000   0.0000   0.0000   0.0000   0.0000   0.0000
     0.0000   0.0000   0.0000   0.0000   0.0000   0.0000   0.0000   0.0000
     0.0000   0.0000   0.0000   0.0000   0.0000   0.0000   0.0000   0.0000
     0.0000   0.0000   0.0000   0.0000   0.0000   0.0000   0.0000   0.0000
     0.0000   0.0000   0.0000   0.0000   0.0000   0.0000   0.0000   0.0000
     0.0000   0.0000   0.0000   0.0000   0.0000   0.0000   0.0000   0.0000
     0.0000   0.0000   0.0000   0.0000   0.0000   0.0000   0.0000   0.0000
     0.0000   0.0000   0.0000   0.0000   0.0000   0.0000   0.0000   0.0000
     0.0000   0.0000   0.0000   0.0000   0.0000   0.0000   0.0000   0.0000
     0.0000   0.0000   0.0000   0.0000   0.0000   0.0000   0.0000   0.0000
     0.0000   0.0000   0.0000   0.0000   0.0000   0.0000   0.0000   0.0000
     0.0000   0.0000   0.0000   0.0000   0.0000   0.0000   0.0000   0.0000
     0.0000   0.0000   0.0000   0.0000   0.0000   0.0000   0.0000   0.0000
     0.0000   0.0000   0.0000   0.0000   0.0000   0.0000   0.0000   0.0000
     0.0000   0.0000   0.0000   0.0000   0.0000   0.0000   0.0000   0.0000
     0.0000   0.0000   0.0000   0.0000   0.0000   0.0000   0.0000   0.0000
     0.0000   0.0000   0.0000   0.0000   0.0000   0.0000   0.0000   0.0000
     0.0000   0.0000   0.0000   0.0000   0.0000   0.0000   0.0000   0.0000

     highest occupied, lowest unoccupied level (ev):     8.3907    8.3536

!    total energy              =   -1517.36904113 Ry
     estimated scf accuracy    <       0.00000055 Ry

     The total energy is the sum of the following terms:
     one-electron contribution =    -676.60050885 Ry
     hartree contribution      =     415.20044938 Ry
     xc contribution           =    -312.69400567 Ry
     ewald contribution        =    -828.89537186 Ry
     one-center paw contrib.   =    -114.37960412 Ry
      -> PAW hartree energy AE =       0.00000000 Ry
      -> PAW hartree energy PS =       0.00000000 Ry
      -> PAW xc energy AE      =       0.00000000 Ry
      -> PAW xc energy PS      =       0.00000000 Ry
      -> total E_H with PAW    =     415.20044938 Ry
      -> total E_XC with PAW   =    -312.69400567 Ry

     convergence has been achieved in  21 iterations

     Writing all to output data dir bands_nm/myprefix.save/

     General routines

     Parallel routines

     PAW routines

   This run was terminated on:   1:38:43  17Jul2023

   JOB DONE.