     Program PWSCF v.7.1 starts on 14Jul2023 at  2: 5:53

     Reading input from espresso_6636.pwi
Warning: card &CELL ignored
Warning: card / ignored

     Current dimensions of program PWSCF are:
     Max number of different atomic species (ntypx) = 10
     Max number of k-points (npk) =  40000
     Max angular momentum in pseudopotentials (lmaxx) =  4
     file O.pbe-n-kjpaw_psl.0.1.UPF: wavefunction(s)  2P renormalized
     Message from routine setup:
     using ibrav=0 with symmetry is DISCOURAGED, use correct ibrav instead

     K-points division:     npool     =       2
     R & G space division:  proc/nbgrp/npool/nimage =       4
     Subspace diagonalization in iterative solution of the eigenvalue problem:
     a serial algorithm will be used

     Using Slab Decomposition

     bravais-lattice index     =            0
     lattice parameter (alat)  =      13.6251  a.u.
     unit-cell volume          =    1788.5495 (a.u.)^3
     number of atoms/cell      =           18
     number of atomic types    =            5
     number of electrons       =       128.00
     number of Kohn-Sham states=           64
     kinetic-energy cutoff     =      30.0000  Ry
     charge density cutoff     =     240.0000  Ry
     scf convergence threshold =      1.0E-06
     mixing beta               =       0.7000
     number of iterations used =            8  plain     mixing
     Exchange-correlation=  SLA  PW   PBX  PBC
                           (   1   4   3   4   0   0   0)

     celldm(1)=  13.625067  celldm(2)=   0.000000  celldm(3)=   0.000000
     celldm(4)=   0.000000  celldm(5)=   0.000000  celldm(6)=   0.000000

     crystal axes: (cart. coord. in units of alat)
               a(1) = (   1.000000   0.000000   0.000000 )
               a(2) = (   0.500000   0.866025   0.000000 )
               a(3) = (   0.500000   0.288675   0.816497 )

     reciprocal axes: (cart. coord. in units 2 pi/alat)
               b(1) = (  1.000000 -0.577350 -0.408248 )
               b(2) = (  0.000000  1.154701 -0.408248 )
               b(3) = (  0.000000  0.000000  1.224745 )

     PseudoPot. # 1 for Na read from file:
     /lustre07/scratch/pragov/crystal_structure_design/utils/SSSP/na_pbe_v1.5.uspp.F.UPF
     MD5 check sum: 44600605ef58000f06b90626533354dc
     Pseudo is Ultrasoft, Zval =  9.0
     Generated by new atomic code, or converted to UPF format
     Using radial grid of  819 points,  5 beta functions with:
                l(1) =   0
                l(2) =   0
                l(3) =   1
                l(4) =   1
                l(5) =   2
     Q(r) pseudized with  8 coefficients,  rinner =    1.250   1.250   1.250
                                                       1.250   1.250

     PseudoPot. # 2 for S  read from file:
     /lustre07/scratch/pragov/crystal_structure_design/utils/SSSP/s_pbe_v1.4.uspp.F.UPF
     MD5 check sum: 88d86576ff6df21479756cfb9bdac1df
     Pseudo is Ultrasoft + core correction, Zval =  6.0
     Generated by new atomic code, or converted to UPF format
     Using radial grid of  907 points,  6 beta functions with:
                l(1) =   0
                l(2) =   0
                l(3) =   1
                l(4) =   1
                l(5) =   2
                l(6) =   2
     Q(r) pseudized with  8 coefficients,  rinner =    1.300   1.300   1.300
                                                       1.300   1.300

     PseudoPot. # 3 for Cl read from file:
     /lustre07/scratch/pragov/crystal_structure_design/utils/SSSP/cl_pbe_v1.4.uspp.F.UPF
     MD5 check sum: fc6f6913ecf08c9257cb748ef0700058
     Pseudo is Ultrasoft + core correction, Zval =  7.0
     Generated by new atomic code, or converted to UPF format
     Using radial grid of  909 points,  6 beta functions with:
                l(1) =   0
                l(2) =   0
                l(3) =   1
                l(4) =   1
                l(5) =   2
                l(6) =   2
     Q(r) pseudized with  8 coefficients,  rinner =    1.300   1.300   1.300
                                                       1.300   1.300

     PseudoPot. # 4 for O  read from file:
     /lustre07/scratch/pragov/crystal_structure_design/utils/SSSP/O.pbe-n-kjpaw_psl.0.1.UPF
     MD5 check sum: 0234752ac141de4415c5fc33072bef88
     Pseudo is Projector augmented-wave + core cor, Zval =  6.0
     Generated using "atomic" code by A. Dal Corso  v.5.0.99 svn rev. 10869
     Shape of augmentation charge: BESSEL
     Using radial grid of 1095 points,  4 beta functions with:
                l(1) =   0
                l(2) =   0
                l(3) =   1
                l(4) =   1
     Q(r) pseudized with 0 coefficients

     PseudoPot. # 5 for F  read from file:
     /lustre07/scratch/pragov/crystal_structure_design/utils/SSSP/f_pbe_v1.4.uspp.F.UPF
     MD5 check sum: 4c38b6a325caf53ec0e86aed9459de46
     Pseudo is Ultrasoft, Zval =  7.0
     Generated by new atomic code, or converted to UPF format
     Using radial grid of  799 points,  4 beta functions with:
                l(1) =   0
                l(2) =   0
                l(3) =   1
                l(4) =   1
     Q(r) pseudized with  8 coefficients,  rinner =    0.950   0.950   0.950

     atomic species   valence    mass     pseudopotential
        Na             9.00    22.98977     Na( 1.00)
        S              6.00    32.06000     S ( 1.00)
        Cl             7.00    35.45000     Cl( 1.00)
        O              6.00    15.99900     O ( 1.00)
        F              7.00    18.99840     F ( 1.00)

     12 Sym. Ops., with inversion, found

                                    s                        frac. trans.

      isym =  1     identity

 cryst.   s( 1) = (     1          0          0      )
                  (     0          1          0      )
                  (     0          0          1      )

 cart.    s( 1) = (  1.0000000  0.0000000  0.0000000 )
                  (  0.0000000  1.0000000 -0.0000000 )
                  (  0.0000000  0.0000000  1.0000000 )

      isym =  2     180 deg rotation - cart. axis [1,0,0]

[...]

      isym =  3     120 deg rotation - cryst. axis [0,0,1]

[...]

      isym =  6     180 deg rotation - cryst. axis [1,1,0]

[...]

      isym =  7     inversion

[...]

      isym =  8     inv. 180 deg rotation - cart. axis [1,0,0]

[...]

      isym =  9     inv. 120 deg rotation - cryst. axis [0,0,1]

 cryst.   s( 9) = (     1         -1          0      )
                  (     1          0          0      )
                  (     1          0         -1      )

 cart.    s( 9) = (  0.5000000  0.8660254  0.0000000 )
                  ( -0.8660254  0.5000000 -0.0000000 )
                  (  0.0000000  0.0000000 -1.0000000 )

[...]

 cryst.   s(10) = (     0          1          0      )
                  (    -1          1          0      )
                  (     0          1         -1      )

 cart.    s(10) = (  0.5000000 -0.8660254  0.0000000 )
                  (  0.8660254  0.5000000  0.0000000 )
                  (  0.0000000  0.0000000 -1.0000000 )

[...]

      isym = 12     inv. 180 deg rotation - cryst. axis [1,1,0]

 cryst.   s(12) = (     1         -1          0      )
                  (     0         -1          0      )
                  (     0         -1          1      )

 cart.    s(12) = (  0.5000000 -0.8660254  0.0000000 )
                  ( -0.8660254 -0.5000000  0.0000000 )
                  (  0.0000000  0.0000000  1.0000000 )

   Cartesian axes

     site n.     atom                  positions (alat units)
         1           Na  tau(   1) = (   1.0000000   0.2575386   0.1821073  )
         2           Na  tau(   2) = (   0.7230350   0.7372561   0.1821073  )
         3           Na  tau(   3) = (   0.7230350   0.4174445   0.6343893  )
         4           Na  tau(   4) = (   1.0000000   0.8971619   0.6343893  )
         5           Na  tau(   5) = (   1.2769650   0.7372561   0.1821073  )
         6           Na  tau(   6) = (   1.2769650   0.4174445   0.6343893  )
         7           S   tau(   7) = (   1.5000000   0.8660254   0.6123724  )
         8           S   tau(   8) = (   0.5000000   0.2886751   0.2041241  )
         9           Cl  tau(   9) = (   1.0000000   0.5773503   0.4082483  )
        10           O   tau(  10) = (   0.5000000   0.4841613   0.1350093  )
        11           O   tau(  11) = (   1.5000000   0.8660254   0.4050280  )
        12           O   tau(  12) = (   1.6692960   0.9637685   0.6814872  )
        13           O   tau(  13) = (   1.3307040   0.9637685   0.6814872  )
        14           O   tau(  14) = (   0.3307040   0.1909320   0.1350093  )
        15           O   tau(  15) = (   0.6692960   0.1909320   0.1350093  )
        16           O   tau(  16) = (   0.5000000   0.2886751   0.4114686  )
        17           O   tau(  17) = (   1.5000000   0.6705392   0.6814872  )
        18           F   tau(  18) = (   0.0000000   0.0000000   0.0000000  )

   Crystallographic axes

     site n.     atom                  positions (cryst. coord.)
         1           Na  tau(   1) = (  0.7769650  0.2230350  0.2230350  )
         2           Na  tau(   2) = (  0.2230350  0.7769650  0.2230350  )
         3           Na  tau(   3) = (  0.2230350  0.2230350  0.7769650  )
         4           Na  tau(   4) = (  0.2230350  0.7769650  0.7769650  )
         5           Na  tau(   5) = (  0.7769650  0.7769650  0.2230350  )
         6           Na  tau(   6) = (  0.7769650  0.2230350  0.7769650  )
         7           S   tau(   7) = (  0.7500000  0.7500000  0.7500000  )
         8           S   tau(   8) = (  0.2500000  0.2500000  0.2500000  )
         9           Cl  tau(   9) = (  0.5000000  0.5000000  0.5000000  )
        10           O   tau(  10) = (  0.1653520  0.5039440  0.1653520  )
        11           O   tau(  11) = (  0.8346480  0.8346480  0.4960560  )
        12           O   tau(  12) = (  0.8346480  0.8346480  0.8346480  )
        13           O   tau(  13) = (  0.4960560  0.8346480  0.8346480  )
        14           O   tau(  14) = (  0.1653520  0.1653520  0.1653520  )
        15           O   tau(  15) = (  0.5039440  0.1653520  0.1653520  )
        16           O   tau(  16) = (  0.1653520  0.1653520  0.5039440  )
        17           O   tau(  17) = (  0.8346480  0.4960560  0.8346480  )
        18           F   tau(  18) = (  0.0000000  0.0000000  0.0000000  )

     number of k points=     6
                       cart. coord. in units 2pi/alat
        k(    1) = (   0.0000000   0.0000000   0.0000000), wk =   0.0740741
        k(    2) = (   0.0000000   0.0000000   0.4082483), wk =   0.1481481
        k(    3) = (   0.0000000   0.3849002  -0.1360828), wk =   0.4444444
        k(    4) = (   0.0000000   0.3849002   0.2721655), wk =   0.4444444
        k(    5) = (   0.0000000   0.3849002  -0.5443311), wk =   0.4444444
        k(    6) = (   0.3333333  -0.5773503   0.0000000), wk =   0.4444444

                       cryst. coord.
        k(    1) = (   0.0000000   0.0000000   0.0000000), wk =   0.0740741
        k(    2) = (   0.0000000   0.0000000   0.3333333), wk =   0.1481481
        k(    3) = (   0.0000000   0.3333333   0.0000000), wk =   0.4444444
        k(    4) = (   0.0000000   0.3333333   0.3333333), wk =   0.4444444
        k(    5) = (   0.0000000   0.3333333  -0.3333333), wk =   0.4444444
        k(    6) = (   0.3333333  -0.3333333   0.0000000), wk =   0.4444444

     Check: negative core charge=   -0.000010

     Initial potential from superposition of free atoms

     starting charge     127.9622, renormalised to     128.0000

     negative rho (up, down):  1.489E-02 0.000E+00
     Starting wfcs are   78 randomized atomic wfcs
     Checking if some PAW data can be deallocated...

     Self-consistent Calculation

     iteration #  1     ecut=    30.00 Ry     beta= 0.70
     Davidson diagonalization with overlap

     ethr =  1.00E-02,  avg # of iterations =  2.0

     negative rho (up, down):  1.548E-02 0.000E+00

     total energy              =   -1034.65385149 Ry
     estimated scf accuracy    <       3.15103497 Ry

[...]

     total energy              =   -1036.15844263 Ry
     estimated scf accuracy    <       0.00000978 Ry

     iteration #  9     ecut=    30.00 Ry     beta= 0.70
     Davidson diagonalization with overlap

     ethr =  7.64E-09,  avg # of iterations =  3.0

     negative rho (up, down):  1.476E-02 0.000E+00

     End of self-consistent calculation

          k = 0.0000 0.0000 0.0000 (  4957 PWs)   bands (ev):

   -46.8947 -46.8896 -46.8896 -46.8896 -46.8868 -46.8868 -20.3659 -20.3329
   -19.2116 -18.8594 -18.8594 -18.8594 -18.8521 -18.8521 -18.8521 -18.7951
   -18.7951 -18.7951 -18.7864 -18.7864 -18.7864 -18.7845 -18.7845 -18.7753
   -18.7753 -18.7753 -17.7447 -16.1843 -16.1843 -16.1840 -16.1797 -16.1797
   -16.1794 -11.0817  -6.3428  -5.9539  -3.7070  -3.7070  -3.7068  -3.3536
    -3.3536  -3.3534  -0.7005  -0.7005  -0.2636  -0.2636  -0.2636  -0.1140
    -0.1140  -0.1109  -0.1109  -0.1109   0.3548   0.3548   0.3548   0.7362
     0.7362   0.7362   1.7612   1.7614   1.7614   2.1141   2.1143   2.1143

     occupation numbers
     1.0000   1.0000   1.0000   1.0000   1.0000   1.0000   1.0000   1.0000
     1.0000   1.0000   1.0000   1.0000   1.0000   1.0000   1.0000   1.0000
     1.0000   1.0000   1.0000   1.0000   1.0000   1.0000   1.0000   1.0000
     1.0000   1.0000   1.0000   1.0000   1.0000   1.0000   1.0000   1.0000
     1.0000   1.0000   1.0000   1.0000   1.0000   1.0000   1.0000   1.0000
     1.0000   1.0000   1.0000   1.0000   1.0000   1.0000   1.0000   1.0000
     1.0000   1.0000   1.0000   1.0000   1.0000   1.0000   1.0000   1.0000
     1.0000   1.0000   1.0000   1.0000   1.0000   1.0000   1.0000   1.0000

[...]

          k = 0.3333-0.5774 0.0000 (  4968 PWs)   bands (ev):

   -46.8945 -46.8895 -46.8895 -46.8891 -46.8871 -46.8870 -20.3654 -20.3649
   -19.2108 -18.8560 -18.8554 -18.8510 -18.8466 -18.8204 -18.8193 -18.7975
   -18.7953 -18.7951 -18.7905 -18.7881 -18.7840 -18.7830 -18.7803 -18.7776
   -18.7770 -18.7753 -17.7415 -16.2395 -16.1973 -16.1927 -16.1869 -16.1782
   -16.1731 -11.0819  -6.1276  -6.1244  -3.6837  -3.5827  -3.5047  -3.4806
    -3.4220  -3.3374  -0.6778  -0.5804  -0.5473  -0.5147  -0.4340  -0.3456
    -0.1039  -0.0281   0.1388   0.1660   0.4489   0.4769   0.4844   0.5685
     0.5728   0.6563   1.6873   1.8154   1.8960   1.9112   1.9547   2.1017

     occupation numbers
     1.0000   1.0000   1.0000   1.0000   1.0000   1.0000   1.0000   1.0000
     1.0000   1.0000   1.0000   1.0000   1.0000   1.0000   1.0000   1.0000
     1.0000   1.0000   1.0000   1.0000   1.0000   1.0000   1.0000   1.0000
     1.0000   1.0000   1.0000   1.0000   1.0000   1.0000   1.0000   1.0000
     1.0000   1.0000   1.0000   1.0000   1.0000   1.0000   1.0000   1.0000
     1.0000   1.0000   1.0000   1.0000   1.0000   1.0000   1.0000   1.0000
     1.0000   1.0000   1.0000   1.0000   1.0000   1.0000   1.0000   1.0000
     1.0000   1.0000   1.0000   1.0000   1.0000   1.0000   1.0000   1.0000

     highest occupied level (ev):     2.1143

!    total energy              =   -1036.15844453 Ry
     estimated scf accuracy    <       0.00000004 Ry

     The total energy is the sum of the following terms:
     one-electron contribution =    -651.21202454 Ry
     hartree contribution      =     376.99083117 Ry
     xc contribution           =    -182.86599193 Ry
     ewald contribution        =    -502.89739320 Ry
     one-center paw contrib.   =     -76.17386603 Ry
      -> PAW hartree energy AE =       0.00000000 Ry
      -> PAW hartree energy PS =       0.00000000 Ry
      -> PAW xc energy AE      =       0.00000000 Ry
      -> PAW xc energy PS      =       0.00000000 Ry
      -> total E_H with PAW    =     376.99083117 Ry
      -> total E_XC with PAW   =    -182.86599193 Ry

     convergence has been achieved in   9 iterations

     Writing all to output data dir bands_nm/myprefix.save/

     General routines

     Parallel routines

     PAW routines

   This run was terminated on:   2: 6: 0  14Jul2023

   JOB DONE.