     Program PWSCF v.7.1 starts on 15Jul2023 at 18:35:29

     Reading input from espresso_10867.pwi
Warning: card &CELL ignored
Warning: card / ignored

     Current dimensions of program PWSCF are:
     Max number of different atomic species (ntypx) = 10
     Max number of k-points (npk) =  40000
     Max angular momentum in pseudopotentials (lmaxx) =  4
     file O.pbe-n-kjpaw_psl.0.1.UPF: wavefunction(s)  2P renormalized

     K-points division:     npool     =       2
     R & G space division:  proc/nbgrp/npool/nimage =       4
     Subspace diagonalization in iterative solution of the eigenvalue problem:
     one sub-group per band group will be used

     Using Slab Decomposition

     bravais-lattice index     =            0
     lattice parameter (alat)  =       9.8494  a.u.
     unit-cell volume          =    1436.6314 (a.u.)^3
     number of atoms/cell      =           16
     number of atomic types    =            3
     number of electrons       =       132.00
     number of Kohn-Sham states=          256
     kinetic-energy cutoff     =      30.0000  Ry
     charge density cutoff     =     240.0000  Ry
     scf convergence threshold =      1.0E-06
     mixing beta               =       0.7000
     number of iterations used =            8  plain     mixing
     Exchange-correlation=  SLA  PW   PBX  PBC
                           (   1   4   3   4   0   0   0)

     celldm(1)=   9.849434  celldm(2)=   0.000000  celldm(3)=   0.000000
     celldm(4)=   0.000000  celldm(5)=   0.000000  celldm(6)=   0.000000

     crystal axes: (cart. coord. in units of alat)
               a(1) = (   1.000000   0.000000   0.000000 )
               a(2) = (   0.493911   0.880393   0.000000 )
               a(3) = (   0.473973   0.266903   1.707791 )

     reciprocal axes: (cart. coord. in units 2 pi/alat)
               b(1) = (  1.000000 -0.561011 -0.189858 )
               b(2) = (  0.000000  1.135856 -0.177518 )
               b(3) = (  0.000000  0.000000  0.585552 )

     PseudoPot. # 1 for V  read from file:
     /lustre07/scratch/pragov/crystal_structure_design/utils/SSSP/v_pbe_v1.4.uspp.F.UPF
     MD5 check sum: 22b79981416ebb76fdaf5b1b8640f6fb
     Pseudo is Ultrasoft + core correction, Zval = 13.0
     Generated by new atomic code, or converted to UPF format
     Using radial grid of  853 points,  6 beta functions with:
                l(1) =   0
                l(2) =   0
                l(3) =   1
                l(4) =   1
                l(5) =   2
                l(6) =   2
     Q(r) pseudized with  8 coefficients,  rinner =    1.100   1.100   1.100
                                                       1.100   1.100

     PseudoPot. # 2 for O  read from file:
     /lustre07/scratch/pragov/crystal_structure_design/utils/SSSP/O.pbe-n-kjpaw_psl.0.1.UPF
     MD5 check sum: 0234752ac141de4415c5fc33072bef88
     Pseudo is Projector augmented-wave + core cor, Zval =  6.0
     Generated using "atomic" code by A. Dal Corso  v.5.0.99 svn rev. 10869
     Shape of augmentation charge: BESSEL
     Using radial grid of 1095 points,  4 beta functions with:
                l(1) =   0
                l(2) =   0
                l(3) =   1
                l(4) =   1
     Q(r) pseudized with 0 coefficients

     PseudoPot. # 3 for F  read from file:
     /lustre07/scratch/pragov/crystal_structure_design/utils/SSSP/f_pbe_v1.4.uspp.F.UPF
     MD5 check sum: 4c38b6a325caf53ec0e86aed9459de46
     Pseudo is Ultrasoft, Zval =  7.0
     Generated by new atomic code, or converted to UPF format
     Using radial grid of  799 points,  4 beta functions with:
                l(1) =   0
                l(2) =   0
                l(3) =   1
                l(4) =   1
     Q(r) pseudized with  8 coefficients,  rinner =    0.950   0.950   0.950

     atomic species   valence    mass     pseudopotential
        V             13.00    50.94150     V ( 1.00)
        O              6.00    15.99900     O ( 1.00)
        F              7.00    18.99840     F ( 1.00)

     No symmetry found

                                    s                        frac. trans.

      isym =  1     identity

 cryst.   s( 1) = (     1          0          0      )
                  (     0          1          0      )
                  (     0          0          1      )

 cart.    s( 1) = (  1.0000000  0.0000000  0.0000000 )
                  (  0.0000000  1.0000000  0.0000000 )
                  (  0.0000000  0.0000000  1.0000000 )

   Cartesian axes

     site n.     atom                  positions (alat units)
         1           V   tau(   1) = (   0.9999094   0.0036609   0.0035898  )
         2           V   tau(   2) = (   0.4667464   0.2929381   0.4202976  )
         3           V   tau(   3) = (   1.0241993   0.5889525   0.8544830  )
         4           V   tau(   4) = (   1.5022761   0.8614634   1.2916109  )
         5           O   tau(   5) = (   0.2211290   0.2143770   0.2223459  )
         6           O   tau(   6) = (   1.1842516   0.7702199   1.0640990  )
         7           O   tau(   7) = (   1.7488624   0.9388470   1.4847775  )
         8           O   tau(   8) = (   1.2628534   0.5046169   0.6501424  )
         9           F   tau(   9) = (   0.8925075   0.8635559   0.6484636  )
        10           F   tau(  10) = (   1.2584269   1.0857491   1.4821953  )
        11           F   tau(  11) = (   0.5881204   0.5833923   0.2151646  )
        12           F   tau(  12) = (   0.6912755   0.6312941   1.0606698  )
        13           F   tau(  13) = (   0.7673974   0.3605177   0.6408315  )
        14           F   tau(  14) = (   1.3817457   0.5686880   1.4951523  )
        15           F   tau(  15) = (   0.7080098   0.0661977   0.2279713  )
        16           F   tau(  16) = (   1.0614219   0.2702578   1.0466368  )

   Crystallographic axes

     site n.     atom                  positions (cryst. coord.)
         1           V   tau(   1) = (  0.9971740  0.0035210  0.0021020  )
         2           V   tau(   2) = (  0.2226080  0.2581250  0.2461060  )
         3           V   tau(   3) = (  0.5315600  0.5172790  0.5003440  )
         4           V   tau(   4) = (  0.7737630  0.7492140  0.7563050  )
         5           O   tau(   5) = (  0.0586470  0.2040310  0.1301950  )
         6           O   tau(   6) = (  0.5501220  0.6859620  0.6230850  )
         7           O   tau(   7) = (  0.9402620  0.8028200  0.8694140  )
         8           O   tau(   8) = (  0.8563230  0.4577600  0.3806920  )
         9           F   tau(   9) = (  0.2849270  0.8657610  0.3797090  )
        10           F   tau(  10) = (  0.3679030  0.9701380  0.8679020  )
        11           F   tau(  11) = (  0.2199800  0.6244540  0.1259900  )
        12           F   tau(  12) = (  0.1357360  0.5287710  0.6210770  )
        13           F   tau(  13) = (  0.4434760  0.2957370  0.3752400  )
        14           F   tau(  14) = (  0.7788390  0.3805310  0.8754890  )
        15           F   tau(  15) = (  0.6275900  0.0347220  0.1334890  )
        16           F   tau(  16) = (  0.7110920  0.1211770  0.6128600  )

     number of k points=    14
                       cart. coord. in units 2pi/alat
        k(    1) = (   0.0000000   0.0000000   0.0000000), wk =   0.0740741
        k(    2) = (   0.0000000   0.0000000   0.1951839), wk =   0.1481481
        k(    3) = (   0.0000000   0.3786186  -0.0591727), wk =   0.1481481
        k(    4) = (   0.0000000   0.3786186   0.1360112), wk =   0.1481481
        k(    5) = (   0.0000000   0.3786186  -0.2543566), wk =   0.1481481
        k(    6) = (   0.3333333  -0.1870038  -0.0632859), wk =   0.1481481
        k(    7) = (   0.3333333  -0.1870038   0.1318980), wk =   0.1481481
        k(    8) = (   0.3333333  -0.1870038  -0.2584698), wk =   0.1481481
        k(    9) = (   0.3333333   0.1916148  -0.1224586), wk =   0.1481481
        k(   10) = (   0.3333333   0.1916148   0.0727253), wk =   0.1481481
        k(   11) = (   0.3333333   0.1916148  -0.3176425), wk =   0.1481481
        k(   12) = (   0.3333333  -0.5656224  -0.0041132), wk =   0.1481481
        k(   13) = (   0.3333333  -0.5656224   0.1910707), wk =   0.1481481
        k(   14) = (   0.3333333  -0.5656224  -0.1992971), wk =   0.1481481

                       cryst. coord.
        k(    1) = (   0.0000000   0.0000000   0.0000000), wk =   0.0740741
        k(    2) = (   0.0000000   0.0000000   0.3333333), wk =   0.1481481
        k(    3) = (   0.0000000   0.3333333   0.0000000), wk =   0.1481481
        k(    4) = (   0.0000000   0.3333333   0.3333333), wk =   0.1481481
        k(    5) = (   0.0000000   0.3333333  -0.3333333), wk =   0.1481481
        k(    6) = (   0.3333333   0.0000000   0.0000000), wk =   0.1481481
        k(    7) = (   0.3333333   0.0000000   0.3333333), wk =   0.1481481
        k(    8) = (   0.3333333   0.0000000  -0.3333333), wk =   0.1481481
        k(    9) = (   0.3333333   0.3333333   0.0000000), wk =   0.1481481
        k(   10) = (   0.3333333   0.3333333   0.3333333), wk =   0.1481481
        k(   11) = (   0.3333333   0.3333333  -0.3333333), wk =   0.1481481
        k(   12) = (   0.3333333  -0.3333333   0.0000000), wk =   0.1481481
        k(   13) = (   0.3333333  -0.3333333   0.3333333), wk =   0.1481481
        k(   14) = (   0.3333333  -0.3333333  -0.3333333), wk =   0.1481481

     Check: negative core charge=   -0.000010

     Initial potential from superposition of free atoms

     starting charge     131.9951, renormalised to     132.0000

     negative rho (up, down):  3.918E-03 0.000E+00
     Starting wfcs are   88 randomized atomic wfcs +  168 random wfcs
     Checking if some PAW data can be deallocated...

     Self-consistent Calculation

     iteration #  1     ecut=    30.00 Ry     beta= 0.70
     Davidson diagonalization with overlap

     ethr =  1.00E-02,  avg # of iterations =  7.1

     negative rho (up, down):  9.187E-03 0.000E+00

     total energy              =   -1133.70866427 Ry
     estimated scf accuracy    <       5.01355413 Ry

[...]

     total energy              =   -1136.72414775 Ry
     estimated scf accuracy    <       0.00000162 Ry

     iteration # 22     ecut=    30.00 Ry     beta= 0.70
     Davidson diagonalization with overlap

     ethr =  1.23E-09,  avg # of iterations =  1.0

     negative rho (up, down):  6.652E-03 0.000E+00

     End of self-consistent calculation

          k = 0.0000 0.0000 0.0000 (  3991 PWs)   bands (ev):

   -61.0216 -60.9692 -60.8673 -60.7239 -34.9930 -34.9692 -34.9293 -34.8633
   -34.8293 -34.7353 -34.7041 -34.6808 -34.6041 -34.5669 -34.5492 -34.3801
   -19.2794 -19.0015 -18.9662 -18.8437 -18.8231 -18.5559 -18.3617 -17.8519
   -13.6989 -13.4217 -13.2422 -12.9684  -2.5272  -2.3005  -1.8858  -1.8533
    -1.6922  -1.6479  -1.4864  -1.4405  -1.3109  -1.1955  -1.1808  -0.9347
    -0.6783  -0.6138  -0.5694  -0.4920  -0.4032  -0.3065  -0.1523  -0.0669
     0.2605   0.5259   0.5750   0.7372   0.8263   1.0168   1.3925   1.4995
     1.5496   1.6420   1.6691   1.7613   1.7891   1.9879   2.0934   2.9372
     4.7345   4.7956   4.8414   5.3205   5.4371   5.8526   5.9488   5.9925
     6.0991   6.2278   6.3051   6.6327   6.8655   7.0636   7.2187   7.6021
     8.2515   8.4741   9.0741  10.0576  10.3726  12.6617  12.7083  14.4464
    16.5040  16.6346  16.8619  16.9938  17.2703  17.4208  17.5832  17.6384
    18.0119  18.1563  18.2673  18.5049  18.7216  19.2113  19.3573  19.6530
    19.7493  19.9032  20.0553  20.3564  20.5204  20.9253  21.2477  21.7807
    21.9949  22.7562  22.8665  24.2868  24.4226  24.4815  25.1116  25.2077
    25.2767  25.3204  25.4067  25.5027  25.7998  26.2200  26.6112  27.6828
    27.8977  27.9166  28.1335  28.1566  28.2794  28.6089  28.7077  28.8668
    29.4421  30.4871  30.6096  30.9071  31.1340  31.2628  31.4165  31.6113
    31.6842  31.7505  31.9436  31.9928  32.1755  32.3083  32.3942  32.4495
    32.5210  32.5561  32.9298  33.1955  34.4842  34.5671  34.7786  34.8521
    35.1067  35.1550  35.6743  36.0390  36.0641  36.3708  36.5582  36.8061
    36.8901  37.1301  37.2997  37.3898  37.4916  37.5285  37.8279  38.0476
    38.5684  39.0794  39.2519  39.3321  39.5475  39.7258  39.7527  39.7938
    39.9789  40.3479  40.3864  40.5844  40.8170  41.4192  41.9303  42.2605
    42.3115  42.5104  42.6511  42.7516  43.0059  43.2292  43.5873  43.7219
    44.0290  44.2110  44.2459  44.4795  44.5548  44.7399  44.7802  44.8254
    44.9965  45.1001  45.1909  45.2925  45.5196  45.7843  45.9527  45.9943
    46.3680  46.8386  47.1482  47.2952  47.4717  47.7255  47.8664  48.0052
    48.1136  48.3265  48.5657  48.6589  48.8083  48.8842  49.0672  49.2187
    49.5768  49.7334  49.8970  50.0613  50.2169  50.6020  50.7485  51.2662
    51.4116  51.5420  51.7470  52.0111  52.2167  52.3560  52.5811  52.6151
    52.7314  52.8917  53.0873  53.1269  53.3496  53.5685  53.6785  53.7639

     occupation numbers
     1.0000   1.0000   1.0000   1.0000   1.0000   1.0000   1.0000   1.0000
     1.0000   1.0000   1.0000   1.0000   1.0000   1.0000   1.0000   1.0000
     1.0000   1.0000   1.0000   1.0000   1.0000   1.0000   1.0000   1.0000
     1.0000   1.0000   1.0000   1.0000   1.0000   1.0000   1.0000   1.0000
     1.0000   1.0000   1.0000   1.0000   1.0000   1.0000   1.0000   1.0000
     1.0000   1.0000   1.0000   1.0000   1.0000   1.0000   1.0000   1.0000
     1.0000   1.0000   1.0000   1.0000   1.0000   1.0000   1.0000   1.0000
     1.0000   1.0000   1.0000   1.0000   1.0000   1.0000   1.0000   1.0000
     1.0000   1.0000   0.0000   0.0000   0.0000   0.0000   0.0000   0.0000
     0.0000   0.0000   0.0000   0.0000   0.0000   0.0000   0.0000   0.0000
     0.0000   0.0000   0.0000   0.0000   0.0000   0.0000   0.0000   0.0000
     0.0000   0.0000   0.0000   0.0000   0.0000   0.0000   0.0000   0.0000
     0.0000   0.0000   0.0000   0.0000   0.0000   0.0000   0.0000   0.0000
     0.0000   0.0000   0.0000   0.0000   0.0000   0.0000   0.0000   0.0000
     0.0000   0.0000   0.0000   0.0000   0.0000   0.0000   0.0000   0.0000
     0.0000   0.0000   0.0000   0.0000   0.0000   0.0000   0.0000   0.0000
     0.0000   0.0000   0.0000   0.0000   0.0000   0.0000   0.0000   0.0000
     0.0000   0.0000   0.0000   0.0000   0.0000   0.0000   0.0000   0.0000
     0.0000   0.0000   0.0000   0.0000   0.0000   0.0000   0.0000   0.0000
     0.0000   0.0000   0.0000   0.0000   0.0000   0.0000   0.0000   0.0000
     0.0000   0.0000   0.0000   0.0000   0.0000   0.0000   0.0000   0.0000
     0.0000   0.0000   0.0000   0.0000   0.0000   0.0000   0.0000   0.0000
     0.0000   0.0000   0.0000   0.0000   0.0000   0.0000   0.0000   0.0000
     0.0000   0.0000   0.0000   0.0000   0.0000   0.0000   0.0000   0.0000
     0.0000   0.0000   0.0000   0.0000   0.0000   0.0000   0.0000   0.0000
     0.0000   0.0000   0.0000   0.0000   0.0000   0.0000   0.0000   0.0000
     0.0000   0.0000   0.0000   0.0000   0.0000   0.0000   0.0000   0.0000
     0.0000   0.0000   0.0000   0.0000   0.0000   0.0000   0.0000   0.0000
     0.0000   0.0000   0.0000   0.0000   0.0000   0.0000   0.0000   0.0000
     0.0000   0.0000   0.0000   0.0000   0.0000   0.0000   0.0000   0.0000
     0.0000   0.0000   0.0000   0.0000   0.0000   0.0000   0.0000   0.0000
     0.0000   0.0000   0.0000   0.0000   0.0000   0.0000   0.0000   0.0000

[...]

          k = 0.3333-0.5656-0.1993 (  3971 PWs)   bands (ev):

   -61.0214 -60.9691 -60.8672 -60.7238 -34.9931 -34.9678 -34.9283 -34.8629
   -34.8290 -34.7355 -34.7037 -34.6800 -34.6040 -34.5665 -34.5473 -34.3792
   -19.1622 -19.0520 -18.9683 -18.8817 -18.7743 -18.5936 -18.3823 -17.8576
   -13.6746 -13.4629 -13.2397 -12.9998  -2.5213  -2.4087  -1.9144  -1.8703
    -1.7937  -1.6036  -1.3045  -1.2008  -1.1274  -1.0301  -0.8583  -0.8129
    -0.7115  -0.5624  -0.3868  -0.3201  -0.2127  -0.0823   0.0715   0.1130
     0.3012   0.3420   0.4458   0.5532   0.6573   0.8199   0.9291   1.0901
     1.1947   1.3971   1.5147   1.5314   1.6439   1.7729   1.9717   2.7789
     5.0788   5.1180   5.2098   5.2930   5.4395   5.8294   5.8788   6.0661
     6.2390   6.3631   6.5433   6.5834   6.7404   6.9338   7.3180   7.4161
     8.2010   8.3833   8.8923   9.5036  13.1370  13.2969  13.3889  13.7121
    14.6585  15.1429  15.1870  16.1225  16.4418  17.3253  17.5340  17.8857
    18.6902  18.8254  18.9372  18.9880  19.2455  19.5152  19.7273  19.8965
    20.1399  20.7274  20.8451  21.0140  21.5090  21.9736  22.0362  22.6274
    22.8350  23.3838  23.5209  23.6167  23.7064  23.8986  24.1848  24.2925
    24.4883  24.6615  24.8126  24.8654  25.4422  25.5358  25.7643  25.8969
    26.1569  26.7193  26.8507  26.9641  28.5369  28.6883  29.0076  29.2819
    29.7648  30.1283  30.2519  30.4318  30.5597  30.8983  31.1274  31.1858
    31.2441  31.5575  31.6554  32.5112  32.7178  32.7827  33.0093  33.2209
    33.4987  33.6494  33.9321  34.1024  34.6027  34.9202  35.0668  35.3734
    35.4089  35.7124  35.8174  36.0055  36.5063  36.8260  36.9549  37.0038
    37.4354  38.0117  38.1867  38.2899  38.5503  38.7454  38.9565  39.0296
    39.1958  39.4922  39.6044  39.8616  40.0887  40.2128  40.3388  40.5813
    40.7897  40.9815  41.1304  41.3575  41.5616  41.7011  41.7733  41.9476
    42.0658  42.2929  42.6024  42.6312  42.7512  42.8550  43.0690  43.1990
    43.3538  43.5140  43.6859  43.9706  44.0535  44.2643  44.4513  44.6609
    44.7722  44.9032  45.0768  45.2023  45.2924  45.5244  45.7153  45.8013
    46.0001  46.1920  46.3506  46.5123  46.6562  46.9289  47.2017  47.3898
    47.5549  47.8401  47.9862  48.2198  48.2972  48.5455  48.6764  48.8909
    49.2137  49.2309  49.4817  49.7356  49.8799  50.1557  50.1939  50.4417
    50.6156  50.8269  51.1352  51.2662  51.3779  51.6446  51.7824  51.9607
    52.1105  52.3268  52.4195  52.5034  52.7050  52.8159  52.9515  53.3140

     occupation numbers
     1.0000   1.0000   1.0000   1.0000   1.0000   1.0000   1.0000   1.0000
     1.0000   1.0000   1.0000   1.0000   1.0000   1.0000   1.0000   1.0000
     1.0000   1.0000   1.0000   1.0000   1.0000   1.0000   1.0000   1.0000
     1.0000   1.0000   1.0000   1.0000   1.0000   1.0000   1.0000   1.0000
     1.0000   1.0000   1.0000   1.0000   1.0000   1.0000   1.0000   1.0000
     1.0000   1.0000   1.0000   1.0000   1.0000   1.0000   1.0000   1.0000
     1.0000   1.0000   1.0000   1.0000   1.0000   1.0000   1.0000   1.0000
     1.0000   1.0000   1.0000   1.0000   1.0000   1.0000   1.0000   1.0000
     1.0000   1.0000   0.0000   0.0000   0.0000   0.0000   0.0000   0.0000
     0.0000   0.0000   0.0000   0.0000   0.0000   0.0000   0.0000   0.0000
     0.0000   0.0000   0.0000   0.0000   0.0000   0.0000   0.0000   0.0000
     0.0000   0.0000   0.0000   0.0000   0.0000   0.0000   0.0000   0.0000
     0.0000   0.0000   0.0000   0.0000   0.0000   0.0000   0.0000   0.0000
     0.0000   0.0000   0.0000   0.0000   0.0000   0.0000   0.0000   0.0000
     0.0000   0.0000   0.0000   0.0000   0.0000   0.0000   0.0000   0.0000
     0.0000   0.0000   0.0000   0.0000   0.0000   0.0000   0.0000   0.0000
     0.0000   0.0000   0.0000   0.0000   0.0000   0.0000   0.0000   0.0000
     0.0000   0.0000   0.0000   0.0000   0.0000   0.0000   0.0000   0.0000
     0.0000   0.0000   0.0000   0.0000   0.0000   0.0000   0.0000   0.0000
     0.0000   0.0000   0.0000   0.0000   0.0000   0.0000   0.0000   0.0000
     0.0000   0.0000   0.0000   0.0000   0.0000   0.0000   0.0000   0.0000
     0.0000   0.0000   0.0000   0.0000   0.0000   0.0000   0.0000   0.0000
     0.0000   0.0000   0.0000   0.0000   0.0000   0.0000   0.0000   0.0000
     0.0000   0.0000   0.0000   0.0000   0.0000   0.0000   0.0000   0.0000
     0.0000   0.0000   0.0000   0.0000   0.0000   0.0000   0.0000   0.0000
     0.0000   0.0000   0.0000   0.0000   0.0000   0.0000   0.0000   0.0000
     0.0000   0.0000   0.0000   0.0000   0.0000   0.0000   0.0000   0.0000
     0.0000   0.0000   0.0000   0.0000   0.0000   0.0000   0.0000   0.0000
     0.0000   0.0000   0.0000   0.0000   0.0000   0.0000   0.0000   0.0000
     0.0000   0.0000   0.0000   0.0000   0.0000   0.0000   0.0000   0.0000
     0.0000   0.0000   0.0000   0.0000   0.0000   0.0000   0.0000   0.0000
     0.0000   0.0000   0.0000   0.0000   0.0000   0.0000   0.0000   0.0000

     highest occupied, lowest unoccupied level (ev):     5.1595    4.8414

!    total energy              =   -1136.72414772 Ry
     estimated scf accuracy    <       0.00000009 Ry

     The total energy is the sum of the following terms:
     one-electron contribution =    -685.52414938 Ry
     hartree contribution      =     392.46621037 Ry
     xc contribution           =    -181.91382994 Ry
     ewald contribution        =    -623.62756661 Ry
     one-center paw contrib.   =     -38.12481215 Ry
      -> PAW hartree energy AE =       0.00000000 Ry
      -> PAW hartree energy PS =       0.00000000 Ry
      -> PAW xc energy AE      =       0.00000000 Ry
      -> PAW xc energy PS      =       0.00000000 Ry
      -> total E_H with PAW    =     392.46621037 Ry
      -> total E_XC with PAW   =    -181.91382994 Ry

     convergence has been achieved in  22 iterations

     Writing all to output data dir bands_nm/myprefix.save/

     General routines

     Parallel routines

     PAW routines

   This run was terminated on:  18:37: 6  15Jul2023

   JOB DONE.