     Program PWSCF v.7.1 starts on 14Jul2023 at 18: 8:18

     Reading input from espresso_15204.pwi
Warning: card &CELL ignored
Warning: card / ignored

     Current dimensions of program PWSCF are:
     Max number of different atomic species (ntypx) = 10
     Max number of k-points (npk) =  40000
     Max angular momentum in pseudopotentials (lmaxx) =  4

     K-points division:     npool     =       2
     R & G space division:  proc/nbgrp/npool/nimage =       4
     Subspace diagonalization in iterative solution of the eigenvalue problem:
     a serial algorithm will be used

     Using Slab Decomposition

     bravais-lattice index     =            0
     lattice parameter (alat)  =      10.3215  a.u.
     unit-cell volume          =    1100.1275 (a.u.)^3
     number of atoms/cell      =            5
     number of atomic types    =            3
     number of electrons       =        40.00
     number of Kohn-Sham states=           64
     kinetic-energy cutoff     =      30.0000  Ry
     charge density cutoff     =     240.0000  Ry
     scf convergence threshold =      1.0E-06
     mixing beta               =       0.7000
     number of iterations used =            8  plain     mixing
     Exchange-correlation=  SLA  PW   PBX  PBC
                           (   1   4   3   4   0   0   0)

     celldm(1)=  10.321518  celldm(2)=   0.000000  celldm(3)=   0.000000
     celldm(4)=   0.000000  celldm(5)=   0.000000  celldm(6)=   0.000000

     crystal axes: (cart. coord. in units of alat)
               a(1) = (   1.000000   0.000000   0.000000 )
               a(2) = (   0.000413   1.000023   0.000000 )
               a(3) = (  -0.000545   0.000450   1.000466 )

     reciprocal axes: (cart. coord. in units 2 pi/alat)
               b(1) = (  1.000000 -0.000413  0.000545 )
               b(2) = (  0.000000  0.999977 -0.000449 )
               b(3) = (  0.000000  0.000000  0.999534 )

     PseudoPot. # 1 for Cs read from file:
     /lustre07/scratch/pragov/crystal_structure_design/utils/SSSP/Cs_pbe_v1.uspp.F.UPF
     MD5 check sum: 3476d69cb178dfad3ffaa59df4e07ca4
     Pseudo is Ultrasoft + core correction, Zval =  9.0
     Generated by new atomic code, or converted to UPF format
     Using radial grid of  905 points,  6 beta functions with:
                l(1) =   0
                l(2) =   0
                l(3) =   1
                l(4) =   1
                l(5) =   2
                l(6) =   2
     Q(r) pseudized with  6 coefficients,  rinner =    1.500   1.500   1.500
                                                       1.500   1.500

     PseudoPot. # 2 for Ca read from file:
     /lustre07/scratch/pragov/crystal_structure_design/utils/SSSP/Ca_pbe_v1.uspp.F.UPF
     MD5 check sum: 403a4c14b9e4d4dfdc3024c9a3812218
     Pseudo is Ultrasoft + core correction, Zval = 10.0
     Generated by new atomic code, or converted to UPF format
     Using radial grid of  845 points,  6 beta functions with:
                l(1) =   0
                l(2) =   0
                l(3) =   1
                l(4) =   1
                l(5) =   2
                l(6) =   2
     Q(r) pseudized with  8 coefficients,  rinner =    1.500   1.500   1.500
                                                       1.500   1.500

     PseudoPot. # 3 for Cl read from file:
     /lustre07/scratch/pragov/crystal_structure_design/utils/SSSP/cl_pbe_v1.4.uspp.F.UPF
     MD5 check sum: fc6f6913ecf08c9257cb748ef0700058
     Pseudo is Ultrasoft + core correction, Zval =  7.0
     Generated by new atomic code, or converted to UPF format
     Using radial grid of  909 points,  6 beta functions with:
                l(1) =   0
                l(2) =   0
                l(3) =   1
                l(4) =   1
                l(5) =   2
                l(6) =   2
     Q(r) pseudized with  8 coefficients,  rinner =    1.300   1.300   1.300
                                                       1.300   1.300

     atomic species   valence    mass     pseudopotential
        Cs             9.00   132.90545     Cs( 1.00)
        Ca            10.00    40.07800     Ca( 1.00)
        Cl             7.00    35.45000     Cl( 1.00)

     No symmetry found

                                    s                        frac. trans.

      isym =  1     identity

 cryst.   s( 1) = (     1          0          0      )
                  (     0          1          0      )
                  (     0          0          1      )

 cart.    s( 1) = (  1.0000000  0.0000000 -0.0000000 )
                  (  0.0000000  1.0000000  0.0000000 )
                  (  0.0000000  0.0000000  1.0000000 )

   Cartesian axes

     site n.     atom                  positions (alat units)
         1           Cs  tau(   1) = (   0.0006553   0.0069298   0.0024479  )
         2           Ca  tau(   2) = (   0.4994203   0.5122022   0.5007789  )
         3           Cl  tau(   3) = (   0.9995404   0.5157231   0.5069197  )
         4           Cl  tau(   4) = (   0.4973976   0.0127356   0.4995343  )
         5           Cl  tau(   5) = (   0.5028052   0.5131261   0.0010226  )

   Crystallographic axes

     site n.     atom                  positions (cryst. coord.)
         1           Cs  tau(   1) = (  0.0006538  0.0069286  0.0024468  )
         2           Ca  tau(   2) = (  0.4994819  0.5119653  0.5005457  )
         3           Cl  tau(   3) = (  0.9996039  0.5154834  0.5066837  )
         4           Cl  tau(   4) = (  0.4976647  0.0125109  0.4993016  )
         5           Cl  tau(   5) = (  0.5025938  0.5131138  0.0010221  )

     number of k points=    14
                       cart. coord. in units 2pi/alat
        k(    1) = (   0.0000000   0.0000000   0.0000000), wk =   0.0740741
        k(    2) = (   0.0000000   0.0000000   0.3331781), wk =   0.1481481
        k(    3) = (   0.0000000   0.3333257  -0.0001498), wk =   0.1481481
        k(    4) = (   0.0000000   0.3333257   0.3330283), wk =   0.1481481
        k(    5) = (   0.0000000   0.3333257  -0.3333279), wk =   0.1481481
        k(    6) = (   0.3333333  -0.0001377   0.0001818), wk =   0.1481481
        k(    7) = (   0.3333333  -0.0001377   0.3333599), wk =   0.1481481
        k(    8) = (   0.3333333  -0.0001377  -0.3329963), wk =   0.1481481
        k(    9) = (   0.3333333   0.3331880   0.0000320), wk =   0.1481481
        k(   10) = (   0.3333333   0.3331880   0.3332101), wk =   0.1481481
        k(   11) = (   0.3333333   0.3331880  -0.3331461), wk =   0.1481481
        k(   12) = (   0.3333333  -0.3334634   0.0003316), wk =   0.1481481
        k(   13) = (   0.3333333  -0.3334634   0.3335097), wk =   0.1481481
        k(   14) = (   0.3333333  -0.3334634  -0.3328465), wk =   0.1481481

                       cryst. coord.
        k(    1) = (   0.0000000   0.0000000   0.0000000), wk =   0.0740741
        k(    2) = (   0.0000000   0.0000000   0.3333333), wk =   0.1481481
        k(    3) = (   0.0000000   0.3333333   0.0000000), wk =   0.1481481
        k(    4) = (   0.0000000   0.3333333   0.3333333), wk =   0.1481481
        k(    5) = (   0.0000000   0.3333333  -0.3333333), wk =   0.1481481
        k(    6) = (   0.3333333   0.0000000  -0.0000000), wk =   0.1481481
        k(    7) = (   0.3333333   0.0000000   0.3333333), wk =   0.1481481
        k(    8) = (   0.3333333   0.0000000  -0.3333333), wk =   0.1481481
        k(    9) = (   0.3333333   0.3333333  -0.0000000), wk =   0.1481481
        k(   10) = (   0.3333333   0.3333333   0.3333333), wk =   0.1481481
        k(   11) = (   0.3333333   0.3333333  -0.3333333), wk =   0.1481481
        k(   12) = (   0.3333333  -0.3333333  -0.0000000), wk =   0.1481481
        k(   13) = (   0.3333333  -0.3333333   0.3333333), wk =   0.1481481
        k(   14) = (   0.3333333  -0.3333333  -0.3333333), wk =   0.1481481

     Initial potential from superposition of free atoms

     starting charge      39.9551, renormalised to      40.0000

     negative rho (up, down):  4.440E-02 0.000E+00
     Starting wfcs are   35 randomized atomic wfcs +   29 random wfcs

     Self-consistent Calculation

     iteration #  1     ecut=    30.00 Ry     beta= 0.70
     Davidson diagonalization with overlap

     ethr =  1.00E-02,  avg # of iterations =  7.2

     Threshold (ethr) on eigenvalues was too large:
     Diagonalizing with lowered threshold

     Davidson diagonalization with overlap

[...]

     negative rho (up, down):  4.591E-02 0.000E+00

     total energy              =    -238.66665637 Ry
     estimated scf accuracy    <       0.12927447 Ry

[...]

     total energy              =    -238.70686012 Ry
     estimated scf accuracy    <       0.00000116 Ry

     iteration #  6     ecut=    30.00 Ry     beta= 0.70
     Davidson diagonalization with overlap

     ethr =  2.90E-09,  avg # of iterations =  3.2

     negative rho (up, down):  4.432E-02 0.000E+00

     End of self-consistent calculation

          k = 0.0000 0.0000 0.0000 (  3005 PWs)   bands (ev):

   -36.4572 -17.4872 -17.4870 -17.4869 -17.1710 -10.9042 -10.5929 -10.5916
    -3.9937  -3.9933  -3.9931   0.3916   0.3917   0.3925   1.3719   1.3733
     1.3738   1.6387   1.6396   1.6404   7.2020   7.3995   7.4011   7.4026
     8.3124   8.3146   8.7435   8.7449   9.8208  10.3287  10.3294  10.3323
    14.0518  14.0590  14.0618  15.1343  15.1364  15.1419  15.5568  15.5700
    15.8776  16.9177  16.9279  16.9361  17.9190  17.9599  18.0123  18.0586
    18.1080  18.1455  18.6769  18.6845  18.6884  18.7497  18.9784  19.0015
    19.2795  19.2900  19.3080  20.4035  21.4420  22.3877  22.3941  22.4044

     occupation numbers
     1.0000   1.0000   1.0000   1.0000   1.0000   1.0000   1.0000   1.0000
     1.0000   1.0000   1.0000   1.0000   1.0000   1.0000   1.0000   1.0000
     1.0000   1.0000   1.0000   1.0000   0.0000   0.0000   0.0000   0.0000
     0.0000   0.0000   0.0000   0.0000   0.0000   0.0000   0.0000   0.0000
     0.0000   0.0000   0.0000   0.0000   0.0000   0.0000   0.0000   0.0000
     0.0000   0.0000   0.0000   0.0000   0.0000   0.0000   0.0000   0.0000
     0.0000   0.0000   0.0000   0.0000   0.0000   0.0000   0.0000   0.0000
     0.0000   0.0000   0.0000   0.0000   0.0000   0.0000   0.0000   0.0000

[...]

          k = 0.3333-0.3335-0.3328 (  3067 PWs)   bands (ev):

   -36.4568 -17.5080 -17.5078 -17.5074 -17.1640 -10.6561 -10.5714 -10.5668
    -4.0421  -4.0403  -3.9965  -0.3662   0.5531   0.5611   0.5862   0.7431
     0.7607   1.6593   1.6600   1.7258   8.4131   8.5807   8.5965   9.1481
     9.4773   9.5121  10.2107  10.2183  10.3732  10.5232  10.5369  11.4517
    12.2727  12.6094  12.6370  12.8283  13.1283  13.1392  13.9119  13.9582
    13.9818  15.9287  15.9496  16.1242  17.3366  17.3843  17.5424  17.5461
    17.8630  18.0332  18.1440  18.1852  18.9357  18.9520  19.3423  19.3913
    19.8450  20.4634  21.2863  21.3206  21.9437  22.5934  22.6189  22.8283

     occupation numbers
     1.0000   1.0000   1.0000   1.0000   1.0000   1.0000   1.0000   1.0000
     1.0000   1.0000   1.0000   1.0000   1.0000   1.0000   1.0000   1.0000
     1.0000   1.0000   1.0000   1.0000   0.0000   0.0000   0.0000   0.0000
     0.0000   0.0000   0.0000   0.0000   0.0000   0.0000   0.0000   0.0000
     0.0000   0.0000   0.0000   0.0000   0.0000   0.0000   0.0000   0.0000
     0.0000   0.0000   0.0000   0.0000   0.0000   0.0000   0.0000   0.0000
     0.0000   0.0000   0.0000   0.0000   0.0000   0.0000   0.0000   0.0000
     0.0000   0.0000   0.0000   0.0000   0.0000   0.0000   0.0000   0.0000

     highest occupied, lowest unoccupied level (ev):     1.7261    7.2020

!    total energy              =    -238.70686055 Ry
     estimated scf accuracy    <       0.00000033 Ry

     The total energy is the sum of the following terms:
     one-electron contribution =     -70.28595490 Ry
     hartree contribution      =      48.19735646 Ry
     xc contribution           =     -70.66658935 Ry
     ewald contribution        =    -145.95167276 Ry

     convergence has been achieved in   6 iterations

     Writing all to output data dir bands_nm/myprefix.save/

     General routines

     Parallel routines

   This run was terminated on:  18: 8:28  14Jul2023

   JOB DONE.