     Program PWSCF v.7.1 starts on 16Jul2023 at 14:52:40

     Reading input from espresso_15927.pwi
Warning: card &CELL ignored
Warning: card / ignored

     Current dimensions of program PWSCF are:
     Max number of different atomic species (ntypx) = 10
     Max number of k-points (npk) =  40000
     Max angular momentum in pseudopotentials (lmaxx) =  4
     Message from routine setup:
     using ibrav=0 with symmetry is DISCOURAGED, use correct ibrav instead

     K-points division:     npool     =       2
     R & G space division:  proc/nbgrp/npool/nimage =       4
     Subspace diagonalization in iterative solution of the eigenvalue problem:
     a serial algorithm will be used

     Using Slab Decomposition

     bravais-lattice index     =            0
     lattice parameter (alat)  =      13.3375  a.u.
     unit-cell volume          =    1336.6846 (a.u.)^3
     number of atoms/cell      =           16
     number of atomic types    =            3
     number of electrons       =        64.00
     number of Kohn-Sham states=           64
     kinetic-energy cutoff     =      30.0000  Ry
     charge density cutoff     =     240.0000  Ry
     scf convergence threshold =      1.0E-06
     mixing beta               =       0.7000
     number of iterations used =            8  plain     mixing
     Exchange-correlation= PBE
                           (   1   4   3   4   0   0   0)

     celldm(1)=  13.337533  celldm(2)=   0.000000  celldm(3)=   0.000000
     celldm(4)=   0.000000  celldm(5)=   0.000000  celldm(6)=   0.000000

     crystal axes: (cart. coord. in units of alat)
               a(1) = (   1.000000   0.000000   0.000000 )
               a(2) = (   0.621936   0.756704   0.000000 )
               a(3) = (   0.378064   0.135241   0.744520 )

     reciprocal axes: (cart. coord. in units 2 pi/alat)
               b(1) = (  1.000000 -0.821902 -0.358498 )
               b(2) = (  0.000000  1.321521 -0.240053 )
               b(3) = (  0.000000  0.000000  1.343147 )

     PseudoPot. # 1 for Na read from file:
     /lustre07/scratch/pragov/crystal_structure_design/utils/SSSP/na_pbe_v1.5.uspp.F.UPF
     MD5 check sum: 44600605ef58000f06b90626533354dc
     Pseudo is Ultrasoft, Zval =  9.0
     Generated by new atomic code, or converted to UPF format
     Using radial grid of  819 points,  5 beta functions with:
                l(1) =   0
                l(2) =   0
                l(3) =   1
                l(4) =   1
                l(5) =   2
     Q(r) pseudized with  8 coefficients,  rinner =    1.250   1.250   1.250
                                                       1.250   1.250

     PseudoPot. # 2 for H  read from file:
     /lustre07/scratch/pragov/crystal_structure_design/utils/SSSP/H.pbe-rrkjus_psl.1.0.0.UPF
     MD5 check sum: f52b6d4d1c606e5624b1dc7b2218f220
     Pseudo is Ultrasoft, Zval =  1.0
     Generated using "atomic" code by A. Dal Corso  v.5.1
     Using radial grid of  929 points,  2 beta functions with:
                l(1) =   0
                l(2) =   0
     Q(r) pseudized with 0 coefficients

     PseudoPot. # 3 for N  read from file:
     /lustre07/scratch/pragov/crystal_structure_design/utils/SSSP/N.pbe-n-radius_5.UPF
     MD5 check sum: 16739722b17309cd8fe442a2ace49922
     Pseudo is Ultrasoft + core correction, Zval =  5.0
     Generated using "atomic" code by A. Dal Corso  v.5.1
     Using radial grid of 1085 points,  4 beta functions with:
                l(1) =   0
                l(2) =   0
                l(3) =   1
                l(4) =   1
     Q(r) pseudized with 0 coefficients

     atomic species   valence    mass     pseudopotential
        Na             9.00    22.98977     Na( 1.00)
        H              1.00     1.00800     H ( 1.00)
        N              5.00    14.00700     N ( 1.00)

      2 Sym. Ops., with inversion, found ( 1 have fractional translation)

                                    s                        frac. trans.

      isym =  1     identity

 cryst.   s( 1) = (     1          0          0      )
                  (     0          1          0      )
                  (     0          0          1      )

 cart.    s( 1) = (  1.0000000  0.0000000  0.0000000 )
                  (  0.0000000  1.0000000  0.0000000 )
                  (  0.0000000  0.0000000  1.0000000 )

      isym =  2     inversion

 cryst.   s( 2) = (    -1          0          0      )    f =( -0.2500000 )
                  (     0         -1          0      )       ( -0.2500000 )
                  (     0          0         -1      )       ( -0.2500000 )

 cart.    s( 2) = ( -1.0000000  0.0000000 -0.0000000 )    f =( -0.5000000 )
                  (  0.0000000 -1.0000000 -0.0000000 )       ( -0.2229862 )
                  (  0.0000000  0.0000000 -1.0000000 )       ( -0.1861301 )

   Cartesian axes

     site n.     atom                  positions (alat units)
         1           Na  tau(   1) = (   0.3319292   0.1390148   0.2867289  )
         2           Na  tau(   2) = (   0.6680708   0.3069576   0.0855312  )
         3           Na  tau(   3) = (   0.5461346   0.2192125   0.6439215  )
         4           Na  tau(   4) = (   1.4538654   0.6727324   0.1005988  )
         5           H   tau(   5) = (   1.3866960   0.5032897   0.4206867  )
         6           H   tau(   6) = (   0.6133040   0.5038633   0.4199995  )
         7           H   tau(   7) = (   0.9061296   0.1479814   0.6121639  )
         8           H   tau(   8) = (   1.0938704   0.6287555   0.0361904  )
         9           H   tau(   9) = (   1.1133040   0.6116415   0.5099636  )
        10           H   tau(  10) = (   1.0280658   0.3509346   0.1499397  )
        11           H   tau(  11) = (   0.9719342   0.2102460   0.3184864  )
        12           H   tau(  12) = (   0.8866960   0.6110679   0.5106508  )
        13           N   tau(  13) = (   1.0000000   0.2098639   0.1751767  )
        14           N   tau(  14) = (   0.5000000   0.0131223   0.0109534  )
        15           N   tau(  15) = (   1.0000000   0.6820810   0.5693436  )
        16           N   tau(  16) = (   0.5000000   0.4328502   0.3613068  )

   Crystallographic axes

     site n.     atom                  positions (cryst. coord.)
         1           Na  tau(   1) = (  0.1148810  0.1148810  0.3851190  )
         2           Na  tau(   2) = (  0.3851190  0.3851190  0.1148810  )
         3           Na  tau(   3) = (  0.1351190  0.1351190  0.8648810  )
         4           Na  tau(   4) = (  0.8648810  0.8648810  0.1351190  )
         5           H   tau(   5) = (  0.8222260  0.5641210  0.5650440  )
         6           H   tau(   6) = (  0.0486090  0.5650440  0.5641210  )
         7           H   tau(   7) = (  0.5650440  0.0486090  0.8222260  )
         8           H   tau(   8) = (  0.5641210  0.8222260  0.0486090  )
         9           H   tau(   9) = (  0.4277740  0.6858790  0.6849560  )
        10           H   tau(  10) = (  0.6858790  0.4277740  0.2013910  )
        11           H   tau(  11) = (  0.6849560  0.2013910  0.4277740  )
        12           H   tau(  12) = (  0.2013910  0.6849560  0.6858790  )
        13           N   tau(  13) = (  0.7647120  0.2352880  0.2352880  )
        14           N   tau(  14) = (  0.4852880  0.0147120  0.0147120  )
        15           N   tau(  15) = (  0.2352880  0.7647120  0.7647120  )
        16           N   tau(  16) = (  0.0147120  0.4852880  0.4852880  )

     number of k points=    14
                       cart. coord. in units 2pi/alat
        k(    1) = (   0.0000000   0.0000000   0.0000000), wk =   0.0740741
        k(    2) = (   0.0000000   0.0000000   0.4477156), wk =   0.1481481
        k(    3) = (   0.0000000   0.4405070  -0.0800175), wk =   0.1481481
        k(    4) = (   0.0000000   0.4405070   0.3676981), wk =   0.1481481
        k(    5) = (   0.0000000   0.4405070  -0.5277331), wk =   0.1481481
        k(    6) = (   0.3333333  -0.2739672  -0.1194993), wk =   0.1481481
        k(    7) = (   0.3333333  -0.2739672   0.3282163), wk =   0.1481481
        k(    8) = (   0.3333333  -0.2739672  -0.5672149), wk =   0.1481481
        k(    9) = (   0.3333333   0.1665398  -0.1995168), wk =   0.1481481
        k(   10) = (   0.3333333   0.1665398   0.2481988), wk =   0.1481481
        k(   11) = (   0.3333333   0.1665398  -0.6472324), wk =   0.1481481
        k(   12) = (   0.3333333  -0.7144743  -0.0394818), wk =   0.1481481
        k(   13) = (   0.3333333  -0.7144743   0.4082338), wk =   0.1481481
        k(   14) = (   0.3333333  -0.7144743  -0.4871974), wk =   0.1481481

                       cryst. coord.
        k(    1) = (   0.0000000   0.0000000   0.0000000), wk =   0.0740741
        k(    2) = (   0.0000000   0.0000000   0.3333333), wk =   0.1481481
        k(    3) = (   0.0000000   0.3333333   0.0000000), wk =   0.1481481
        k(    4) = (   0.0000000   0.3333333   0.3333333), wk =   0.1481481
        k(    5) = (   0.0000000   0.3333333  -0.3333333), wk =   0.1481481
        k(    6) = (   0.3333333   0.0000000   0.0000000), wk =   0.1481481
        k(    7) = (   0.3333333   0.0000000   0.3333333), wk =   0.1481481
        k(    8) = (   0.3333333   0.0000000  -0.3333333), wk =   0.1481481
        k(    9) = (   0.3333333   0.3333333   0.0000000), wk =   0.1481481
        k(   10) = (   0.3333333   0.3333333   0.3333333), wk =   0.1481481
        k(   11) = (   0.3333333   0.3333333  -0.3333333), wk =   0.1481481
        k(   12) = (   0.3333333  -0.3333333  -0.0000000), wk =   0.1481481
        k(   13) = (   0.3333333  -0.3333333   0.3333333), wk =   0.1481481
        k(   14) = (   0.3333333  -0.3333333  -0.3333333), wk =   0.1481481

     Check: negative core charge=   -0.000002

     Initial potential from superposition of free atoms

     starting charge      63.9747, renormalised to      64.0000
     Starting wfcs are   44 randomized atomic wfcs +   20 random wfcs

     Self-consistent Calculation

     iteration #  1     ecut=    30.00 Ry     beta= 0.70
     Davidson diagonalization with overlap

     ethr =  1.00E-02,  avg # of iterations =  7.5

     total energy              =    -470.29257329 Ry
     estimated scf accuracy    <       3.43016248 Ry

[...]

     total energy              =    -471.79129463 Ry
     estimated scf accuracy    <       0.00000128 Ry

     iteration #  8     ecut=    30.00 Ry     beta= 0.70
     Davidson diagonalization with overlap

     ethr =  2.00E-09,  avg # of iterations =  2.0

     End of self-consistent calculation

          k = 0.0000 0.0000 0.0000 (  3717 PWs)   bands (ev):

   -49.5197 -49.5135 -49.5069 -49.5029 -21.5133 -21.5001 -21.4933 -21.4665
   -21.4615 -21.4516 -21.4298 -21.4265 -21.4062 -21.3891 -21.3430 -21.3425
   -14.0750 -13.8598 -13.7839 -13.7731  -5.3932  -5.1115  -4.5794  -4.5622
    -2.1545  -1.8344  -1.6025  -1.1714  -0.2016   0.1926   0.2604   0.5750
     2.5863   5.8800   6.3187   6.3233   7.0887   7.5895   7.7598   7.9679
     8.4968   9.6599   9.8195   9.8228  10.0620  10.9479  11.4760  11.8281
    12.1724  12.1848  12.5046  12.8879  13.6395  13.8296  13.9285  14.2737
    14.4418  14.6556  15.0392  15.0600  15.4055  15.8841  15.9659  16.5862

     occupation numbers
     1.0000   1.0000   1.0000   1.0000   1.0000   1.0000   1.0000   1.0000
     1.0000   1.0000   1.0000   1.0000   1.0000   1.0000   1.0000   1.0000
     1.0000   1.0000   1.0000   1.0000   1.0000   1.0000   1.0000   1.0000
     1.0000   1.0000   1.0000   1.0000   1.0000   1.0000   1.0000   1.0000
     0.0000   0.0000   0.0000   0.0000   0.0000   0.0000   0.0000   0.0000
     0.0000   0.0000   0.0000   0.0000   0.0000   0.0000   0.0000   0.0000
     0.0000   0.0000   0.0000   0.0000   0.0000   0.0000   0.0000   0.0000
     0.0000   0.0000   0.0000   0.0000   0.0000   0.0000   0.0000   0.0000

[...]

          k = 0.3333-0.7145-0.4872 (  3714 PWs)   bands (ev):

   -49.5156 -49.5135 -49.5078 -49.5058 -21.4858 -21.4767 -21.4740 -21.4704
   -21.4484 -21.4480 -21.4334 -21.4289 -21.3998 -21.3972 -21.3815 -21.3785
   -13.9443 -13.8851 -13.8485 -13.8138  -5.2929  -5.1381  -4.7378  -4.5435
    -2.1418  -2.0430  -1.4153  -1.3059  -0.1715  -0.0678   0.4607   0.5520
     4.3717   5.1729   5.8106   6.3921   7.1803   7.4094   7.5666   8.3941
     8.7057   8.8875   9.5251  10.2889  10.3361  10.7323  11.0101  11.0711
    11.8264  12.1106  12.8238  12.8943  13.1973  13.6169  13.6631  13.8843
    14.1918  14.7439  15.1975  15.3734  15.4845  15.8494  16.7902  16.9861

     occupation numbers
     1.0000   1.0000   1.0000   1.0000   1.0000   1.0000   1.0000   1.0000
     1.0000   1.0000   1.0000   1.0000   1.0000   1.0000   1.0000   1.0000
     1.0000   1.0000   1.0000   1.0000   1.0000   1.0000   1.0000   1.0000
     1.0000   1.0000   1.0000   1.0000   1.0000   1.0000   1.0000   1.0000
     0.0000   0.0000   0.0000   0.0000   0.0000   0.0000   0.0000   0.0000
     0.0000   0.0000   0.0000   0.0000   0.0000   0.0000   0.0000   0.0000
     0.0000   0.0000   0.0000   0.0000   0.0000   0.0000   0.0000   0.0000
     0.0000   0.0000   0.0000   0.0000   0.0000   0.0000   0.0000   0.0000

     highest occupied, lowest unoccupied level (ev):     0.6410    2.5863

!    total energy              =    -471.79129470 Ry
     estimated scf accuracy    <       0.00000020 Ry

     The total energy is the sum of the following terms:
     one-electron contribution =    -412.39993904 Ry
     hartree contribution      =     221.32652162 Ry
     xc contribution           =     -85.22208820 Ry
     ewald contribution        =    -195.49578908 Ry

     convergence has been achieved in   8 iterations

     Writing all to output data dir bands_nm/myprefix.save/

     General routines

     Parallel routines

   This run was terminated on:  14:52:47  16Jul2023

   JOB DONE.