     Program PWSCF v.7.1 starts on 16Jul2023 at 14: 7:28

     Reading input from espresso_1960.pwi
Warning: card &CELL ignored
Warning: card / ignored

     Current dimensions of program PWSCF are:
     Max number of different atomic species (ntypx) = 10
     Max number of k-points (npk) =  40000
     Max angular momentum in pseudopotentials (lmaxx) =  4
     file Ba.pbe-spn-kjpaw_psl.1.0.0.UPF: wavefunction(s)  5S 6S renormalized
     Message from routine setup:
     using ibrav=0 with symmetry is DISCOURAGED, use correct ibrav instead

     K-points division:     npool     =       2
     R & G space division:  proc/nbgrp/npool/nimage =       4
     Subspace diagonalization in iterative solution of the eigenvalue problem:
     a serial algorithm will be used

     Using Slab Decomposition

     bravais-lattice index     =            0
     lattice parameter (alat)  =      10.2401  a.u.
     unit-cell volume          =    3171.5549 (a.u.)^3
     number of atoms/cell      =           12
     number of atomic types    =            2
     number of electrons       =        96.00
     number of Kohn-Sham states=           64
     kinetic-energy cutoff     =      30.0000  Ry
     charge density cutoff     =     240.0000  Ry
     scf convergence threshold =      1.0E-06
     mixing beta               =       0.7000
     number of iterations used =            8  plain     mixing
     Exchange-correlation= PBE
                           (   1   4   3   4   0   0   0)

     celldm(1)=  10.240114  celldm(2)=   0.000000  celldm(3)=   0.000000
     celldm(4)=   0.000000  celldm(5)=   0.000000  celldm(6)=   0.000000

     crystal axes: (cart. coord. in units of alat)
               a(1) = (   1.000000   0.000000   0.000000 )
               a(2) = (   0.000000   1.573103   0.000000 )
               a(3) = (   0.000000   0.000000   1.877589 )

     reciprocal axes: (cart. coord. in units 2 pi/alat)
               b(1) = (  1.000000  0.000000  0.000000 )
               b(2) = (  0.000000  0.635686  0.000000 )
               b(3) = (  0.000000  0.000000  0.532598 )

     PseudoPot. # 1 for Ba read from file:
     /lustre07/scratch/pragov/crystal_structure_design/utils/SSSP/Ba.pbe-spn-kjpaw_psl.1.0.0.UPF
     MD5 check sum: c432291d3e53af55f19d5e8866385beb
     Pseudo is Projector augmented-wave + core cor, Zval = 10.0
     Generated using "atomic" code by A. Dal Corso  v.5.1
     Shape of augmentation charge: PSQ
     Using radial grid of 1251 points,  7 beta functions with:
                l(1) =   0
                l(2) =   0
                l(3) =   0
                l(4) =   1
                l(5) =   1
                l(6) =   2
                l(7) =   2
     Q(r) pseudized with 0 coefficients

     PseudoPot. # 2 for Si read from file:
     /lustre07/scratch/pragov/crystal_structure_design/utils/SSSP/Si.pbe-n-rrkjus_psl.1.0.0.UPF
     MD5 check sum: 0b0bb1205258b0d07b9f9672cf965d36
     Pseudo is Ultrasoft + core correction, Zval =  4.0
     Generated using "atomic" code by A. Dal Corso  v.5.1
     Using radial grid of 1141 points,  6 beta functions with:
                l(1) =   0
                l(2) =   0
                l(3) =   1
                l(4) =   1
                l(5) =   2
                l(6) =   2
     Q(r) pseudized with 0 coefficients

     atomic species   valence    mass     pseudopotential
        Ba            10.00   137.32700     Ba( 1.00)
        Si             4.00    28.08500     Si( 1.00)

      8 Sym. Ops., with inversion, found ( 6 have fractional translation)

                                    s                        frac. trans.

      isym =  1     identity

 cryst.   s( 1) = (     1          0          0      )
                  (     0          1          0      )
                  (     0          0          1      )

 cart.    s( 1) = (  1.0000000  0.0000000  0.0000000 )
                  (  0.0000000  1.0000000  0.0000000 )
                  (  0.0000000  0.0000000  1.0000000 )

      isym =  2     180 deg rotation - cart. axis [0,0,1]

 cryst.   s( 2) = (    -1          0          0      )    f =(  0.0000000 )
                  (     0         -1          0      )       ( -0.5000000 )
                  (     0          0          1      )       (  0.5000000 )

 cart.    s( 2) = ( -1.0000000  0.0000000  0.0000000 )    f =(  0.0000000 )
                  (  0.0000000 -1.0000000  0.0000000 )       ( -0.7865516 )
                  (  0.0000000  0.0000000  1.0000000 )       (  0.9387947 )

[...]

      isym =  4     180 deg rotation - cart. axis [1,0,0]

[...]

      isym =  5     inversion

 cryst.   s( 5) = (    -1          0          0      )
                  (     0         -1          0      )
                  (     0          0         -1      )

 cart.    s( 5) = ( -1.0000000  0.0000000  0.0000000 )
                  (  0.0000000 -1.0000000  0.0000000 )
                  (  0.0000000  0.0000000 -1.0000000 )

      isym =  6     inv. 180 deg rotation - cart. axis [0,0,1]

[...]

      isym =  8     inv. 180 deg rotation - cart. axis [1,0,0]

 cryst.   s( 8) = (    -1          0          0      )    f =(  0.5000000 )
                  (     0          1          0      )       (  0.0000000 )
                  (     0          0          1      )       (  0.0000000 )

 cart.    s( 8) = ( -1.0000000  0.0000000  0.0000000 )    f =(  0.5000000 )
                  (  0.0000000  1.0000000  0.0000000 )       (  0.0000000 )
                  (  0.0000000  0.0000000  1.0000000 )       (  0.0000000 )

   Cartesian axes

     site n.     atom                  positions (alat units)
         1           Ba  tau(   1) = (   0.7500000   0.7541268   1.2574479  )
         2           Ba  tau(   2) = (   0.2500000   0.8189764   0.6201415  )
         3           Ba  tau(   3) = (   0.7500000   1.5406785   1.5589362  )
         4           Ba  tau(   4) = (   0.2500000   0.0324248   0.3186532  )
         5           Ba  tau(   5) = (   0.2500000   0.2273622   1.0944882  )
         6           Ba  tau(   6) = (   0.7500000   1.3457411   0.7831012  )
         7           Ba  tau(   7) = (   0.2500000   1.0139138   1.7218959  )
         8           Ba  tau(   8) = (   0.7500000   0.5591894   0.1556935  )
         9           Si  tau(   9) = (   0.2500000   1.1784117   1.1291015  )
        10           Si  tau(  10) = (   0.7500000   0.3946916   0.7484879  )
        11           Si  tau(  11) = (   0.2500000   0.3918600   1.6872825  )
        12           Si  tau(  12) = (   0.7500000   1.1812432   0.1903068  )

   Crystallographic axes

     site n.     atom                  positions (cryst. coord.)
         1           Ba  tau(   1) = (  0.7500000  0.4793880  0.6697140  )
         2           Ba  tau(   2) = (  0.2500000  0.5206120  0.3302860  )
         3           Ba  tau(   3) = (  0.7500000  0.9793880  0.8302860  )
         4           Ba  tau(   4) = (  0.2500000  0.0206120  0.1697140  )
         5           Ba  tau(   5) = (  0.2500000  0.1445310  0.5829220  )
         6           Ba  tau(   6) = (  0.7500000  0.8554690  0.4170780  )
         7           Ba  tau(   7) = (  0.2500000  0.6445310  0.9170780  )
         8           Ba  tau(   8) = (  0.7500000  0.3554690  0.0829220  )
         9           Si  tau(   9) = (  0.2500000  0.7491000  0.6013570  )
        10           Si  tau(  10) = (  0.7500000  0.2509000  0.3986430  )
        11           Si  tau(  11) = (  0.2500000  0.2491000  0.8986430  )
        12           Si  tau(  12) = (  0.7500000  0.7509000  0.1013570  )

     number of k points=     8
                       cart. coord. in units 2pi/alat
        k(    1) = (   0.0000000   0.0000000   0.0000000), wk =   0.0740741
        k(    2) = (   0.0000000   0.0000000   0.1775326), wk =   0.1481481
        k(    3) = (   0.0000000   0.2118954   0.0000000), wk =   0.1481481
        k(    4) = (   0.0000000   0.2118954   0.1775326), wk =   0.2962963
        k(    5) = (   0.3333333   0.0000000   0.0000000), wk =   0.1481481
        k(    6) = (   0.3333333   0.0000000   0.1775326), wk =   0.2962963
        k(    7) = (   0.3333333   0.2118954   0.0000000), wk =   0.2962963
        k(    8) = (   0.3333333   0.2118954   0.1775326), wk =   0.5925926

                       cryst. coord.
        k(    1) = (   0.0000000   0.0000000   0.0000000), wk =   0.0740741
        k(    2) = (   0.0000000   0.0000000   0.3333333), wk =   0.1481481
        k(    3) = (   0.0000000   0.3333333   0.0000000), wk =   0.1481481
        k(    4) = (   0.0000000   0.3333333   0.3333333), wk =   0.2962963
        k(    5) = (   0.3333333   0.0000000   0.0000000), wk =   0.1481481
        k(    6) = (   0.3333333   0.0000000   0.3333333), wk =   0.2962963
        k(    7) = (   0.3333333   0.3333333   0.0000000), wk =   0.2962963
        k(    8) = (   0.3333333   0.3333333   0.3333333), wk =   0.5925926

     Initial potential from superposition of free atoms

     starting charge      95.8617, renormalised to      96.0000
     Starting wfcs are   56 randomized atomic wfcs +    8 random wfcs
     Checking if some PAW data can be deallocated...

     Self-consistent Calculation

     iteration #  1     ecut=    30.00 Ry     beta= 0.70
     Davidson diagonalization with overlap

     ethr =  1.00E-02,  avg # of iterations =  6.4

     negative rho (up, down):  1.221E-02 0.000E+00

     total energy              =   -3534.83933376 Ry
     estimated scf accuracy    <       1.12776575 Ry

[...]

     negative rho (up, down):  5.923E-03 0.000E+00

[...]

     total energy              =   -3535.40643405 Ry
     estimated scf accuracy    <       0.00000187 Ry

     iteration # 14     ecut=    30.00 Ry     beta= 0.70
     Davidson diagonalization with overlap

     ethr =  1.94E-09,  avg # of iterations =  3.1

     End of self-consistent calculation

          k = 0.0000 0.0000 0.0000 (  8821 PWs)   bands (ev):

   -21.0149 -20.9919 -20.9898 -20.9756 -20.6544 -20.6425 -20.6059 -20.6025
    -6.4685  -6.4300  -6.4235  -6.4223  -6.3874  -6.3481  -6.3009  -6.2604
    -6.2158  -6.1616  -6.1278  -6.1209  -6.0478  -6.0352  -6.0129  -5.8323
    -5.8015  -5.7981  -5.7915  -5.7795  -5.7601  -5.7176  -5.6939  -5.6759
     0.9404   1.4650   1.4873   1.5185   5.7329   5.8047   6.1798   6.3128
     6.3959   6.4102   6.4381   6.4842   6.5418   6.9335   7.1239   7.3585
     7.4269   8.0023   8.1750   8.2420   8.2649   8.6254   8.6338   8.8466
     8.9537   9.1769   9.3346   9.4039   9.5519   9.6719   9.7493   9.7637

     occupation numbers
     1.0000   1.0000   1.0000   1.0000   1.0000   1.0000   1.0000   1.0000
     1.0000   1.0000   1.0000   1.0000   1.0000   1.0000   1.0000   1.0000
     1.0000   1.0000   1.0000   1.0000   1.0000   1.0000   1.0000   1.0000
     1.0000   1.0000   1.0000   1.0000   1.0000   1.0000   1.0000   1.0000
     1.0000   1.0000   1.0000   1.0000   1.0000   1.0000   1.0000   1.0000
     1.0000   1.0000   1.0000   1.0000   1.0000   1.0000   1.0000   1.0000
     0.0000   0.0000   0.0000   0.0000   0.0000   0.0000   0.0000   0.0000
     0.0000   0.0000   0.0000   0.0000   0.0000   0.0000   0.0000   0.0000

[...]

          k = 0.3333 0.2119 0.1775 (  8810 PWs)   bands (ev):

   -20.9966 -20.9929 -20.9854 -20.9827 -20.6410 -20.6401 -20.6165 -20.6164
    -6.5164  -6.5082  -6.4885  -6.4397  -6.3875  -6.3542  -6.3272  -6.2778
    -6.2720  -6.2300  -6.1820  -6.1563  -6.0139  -5.9771  -5.9434  -5.9262
    -5.8015  -5.7910  -5.7639  -5.7540  -5.6947  -5.6866  -5.6745  -5.6592
     1.3864   1.4452   1.4708   1.5042   5.6610   5.8653   5.8804   6.1305
     6.4538   6.5671   6.7060   6.7428   6.8423   6.8592   6.9649   6.9884
     8.1573   8.2176   8.2724   8.3360   8.4184   8.4777   8.7596   8.8453
     8.9618   9.1567   9.3334   9.4241   9.8231   9.9536   9.9764  10.1606

     occupation numbers
     1.0000   1.0000   1.0000   1.0000   1.0000   1.0000   1.0000   1.0000
     1.0000   1.0000   1.0000   1.0000   1.0000   1.0000   1.0000   1.0000
     1.0000   1.0000   1.0000   1.0000   1.0000   1.0000   1.0000   1.0000
     1.0000   1.0000   1.0000   1.0000   1.0000   1.0000   1.0000   1.0000
     1.0000   1.0000   1.0000   1.0000   1.0000   1.0000   1.0000   1.0000
     1.0000   1.0000   1.0000   1.0000   1.0000   1.0000   1.0000   1.0000
     0.0000   0.0000   0.0000   0.0000   0.0000   0.0000   0.0000   0.0000
     0.0000   0.0000   0.0000   0.0000   0.0000   0.0000   0.0000   0.0000

     highest occupied, lowest unoccupied level (ev):     7.3585    7.4269

!    total energy              =   -3535.40643420 Ry
     estimated scf accuracy    <       0.00000044 Ry

     The total energy is the sum of the following terms:
     one-electron contribution =     -38.11280216 Ry
     hartree contribution      =      58.22282158 Ry
     xc contribution           =    -186.32846443 Ry
     ewald contribution        =    -369.56071134 Ry
     one-center paw contrib.   =   -2999.62727786 Ry
      -> PAW hartree energy AE =      57.36050027 Ry
      -> PAW hartree energy PS =     -57.14937818 Ry
      -> PAW xc energy AE      =    -788.43457048 Ry
      -> PAW xc energy PS      =      38.31769048 Ry
      -> total E_H with PAW    =      58.43394367 Ry
      -> total E_XC with PAW   =    -936.44534443 Ry

     convergence has been achieved in  14 iterations

     Writing all to output data dir bands_nm/myprefix.save/

     General routines

     Parallel routines

     PAW routines

   This run was terminated on:  14: 7:46  16Jul2023

   JOB DONE.