     Program PWSCF v.7.1 starts on 15Jul2023 at 18:54: 7

     Reading input from espresso_17641.pwi
Warning: card &CELL ignored
Warning: card / ignored

     Current dimensions of program PWSCF are:
     Max number of different atomic species (ntypx) = 10
     Max number of k-points (npk) =  40000
     Max angular momentum in pseudopotentials (lmaxx) =  4
     file O.pbe-n-kjpaw_psl.0.1.UPF: wavefunction(s)  2P renormalized

     K-points division:     npool     =       2
     R & G space division:  proc/nbgrp/npool/nimage =       4
     Subspace diagonalization in iterative solution of the eigenvalue problem:
     one sub-group per band group will be used

     Using Slab Decomposition

     bravais-lattice index     =            0
     lattice parameter (alat)  =      10.2253  a.u.
     unit-cell volume          =    1618.6905 (a.u.)^3
     number of atoms/cell      =           20
     number of atomic types    =            3
     number of electrons       =       180.00
     number of Kohn-Sham states=          256
     kinetic-energy cutoff     =      30.0000  Ry
     charge density cutoff     =     240.0000  Ry
     scf convergence threshold =      1.0E-06
     mixing beta               =       0.7000
     number of iterations used =            8  plain     mixing
     Exchange-correlation= SLA  PW   PBX  PBC
                           (   1   4   3   4   0   0   0)

     celldm(1)=  10.225346  celldm(2)=   0.000000  celldm(3)=   0.000000
     celldm(4)=   0.000000  celldm(5)=   0.000000  celldm(6)=   0.000000

     crystal axes: (cart. coord. in units of alat)
               a(1) = (   1.000000   0.000000   0.000000 )
               a(2) = (  -0.000012   1.036129   0.000000 )
               a(3) = (   0.000002   0.000000   1.461221 )

     reciprocal axes: (cart. coord. in units 2 pi/alat)
               b(1) = (  1.000000  0.000011 -0.000001 )
               b(2) = (  0.000000  0.965131 -0.000000 )
               b(3) = (  0.000000  0.000000  0.684359 )

     PseudoPot. # 1 for Hf read from file:
     /lustre07/scratch/pragov/crystal_structure_design/utils/SSSP/Hf-sp.oncvpsp.upf
     MD5 check sum: 417ed15784afe83d2e06dacf143de3f8
     Pseudo is Norm-conserving + core correction, Zval = 12.0
     Generated using ONCVPSP code by D. R. Hamann
     Using radial grid of 1656 points,  8 beta functions with:
                l(1) =   0
                l(2) =   0
                l(3) =   1
                l(4) =   1
                l(5) =   2
                l(6) =   2
                l(7) =   3
                l(8) =   3

     PseudoPot. # 2 for Mn read from file:
     /lustre07/scratch/pragov/crystal_structure_design/utils/SSSP/mn_pbe_v1.5.uspp.F.UPF
     MD5 check sum: 82ef2b46521d7a7d9e736dc3972e4928
     Pseudo is Ultrasoft + core correction, Zval = 15.0
     Generated by new atomic code, or converted to UPF format
     Using radial grid of  859 points,  6 beta functions with:
                l(1) =   0
                l(2) =   0
                l(3) =   1
                l(4) =   1
                l(5) =   2
                l(6) =   2
     Q(r) pseudized with  8 coefficients,  rinner =    0.950   0.950   0.950
                                                       0.950   0.950

     PseudoPot. # 3 for O  read from file:
     /lustre07/scratch/pragov/crystal_structure_design/utils/SSSP/O.pbe-n-kjpaw_psl.0.1.UPF
     MD5 check sum: 0234752ac141de4415c5fc33072bef88
     Pseudo is Projector augmented-wave + core cor, Zval =  6.0
     Generated using "atomic" code by A. Dal Corso  v.5.0.99 svn rev. 10869
     Shape of augmentation charge: BESSEL
     Using radial grid of 1095 points,  4 beta functions with:
                l(1) =   0
                l(2) =   0
                l(3) =   1
                l(4) =   1
     Q(r) pseudized with 0 coefficients

     atomic species   valence    mass     pseudopotential
        Hf            12.00   178.49000     Hf( 1.00)
        Mn            15.00    54.93804     Mn( 1.00)
        O              6.00    15.99900     O ( 1.00)

     No symmetry found

                                    s                        frac. trans.

      isym =  1     identity

 cryst.   s( 1) = (     1          0          0      )
                  (     0          1          0      )
                  (     0          0          1      )

 cart.    s( 1) = (  1.0000000  0.0000000  0.0000000 )
                  (  0.0000000  1.0000000  0.0000000 )
                  (  0.0000000  0.0000000  1.0000000 )

   Cartesian axes

     site n.     atom                  positions (alat units)
         1           Hf  tau(   1) = (  -0.0000032   0.5180660   1.4612197  )
         2           Hf  tau(   2) = (  -0.0000041   0.5180647   0.7306106  )
         3           Hf  tau(   3) = (   0.5000020   0.0000000   0.0000000  )
         4           Hf  tau(   4) = (   0.5000029   0.0000013   0.7306106  )
         5           Mn  tau(   5) = (   0.4914149   0.4715250   1.0959261  )
         6           Mn  tau(   6) = (   0.5085460   0.5646003   0.3652994  )
         7           Mn  tau(   7) = (   0.0083980   0.9898041   1.0959188  )
         8           Mn  tau(   8) = (   0.9915979   0.0463203   0.3653024  )
         9           O   tau(   9) = (   0.1237412   0.4547053   0.3653038  )
        10           O   tau(  10) = (   0.3762363   0.9727761   0.3653053  )
        11           O   tau(  11) = (   0.6237556   0.0633544   1.0959159  )
        12           O   tau(  12) = (   0.8762527   0.5814273   1.0959159  )
        13           O   tau(  13) = (   0.1817828   0.1932922   0.8274501  )
        14           O   tau(  14) = (   0.1817844   0.1932944   1.3643817  )
        15           O   tau(  15) = (   0.3182028   0.7113712   0.8274501  )
        16           O   tau(  16) = (   0.3182045   0.7113714   1.3643787  )
        17           O   tau(  17) = (   0.6817894   0.3247591   0.0968410  )
        18           O   tau(  18) = (   0.6817900   0.3247593   0.6337682  )
        19           O   tau(  19) = (   0.8182085   0.8428361   0.0968410  )
        20           O   tau(  20) = (   0.8182101   0.8428363   0.6337711  )

   Crystallographic axes

     site n.     atom                  positions (cryst. coord.)
         1           Hf  tau(   1) = (  0.0000010  0.5000010  0.9999990  )
         2           Hf  tau(   2) = (  0.0000010  0.5000000  0.5000000  )
         3           Hf  tau(   3) = (  0.5000020  0.0000000  0.0000000  )
         4           Hf  tau(   4) = (  0.5000020  0.0000010  0.5000000  )
         5           Mn  tau(   5) = (  0.4914190  0.4550830  0.7500070  )
         6           Mn  tau(   6) = (  0.5085520  0.5449130  0.2499960  )
         7           Mn  tau(   7) = (  0.0084080  0.9552900  0.7500020  )
         8           Mn  tau(   8) = (  0.9915980  0.0447050  0.2499980  )
         9           O   tau(   9) = (  0.1237460  0.4388500  0.2499990  )
        10           O   tau(  10) = (  0.3762470  0.9388560  0.2500000  )
        11           O   tau(  11) = (  0.6237550  0.0611450  0.7500000  )
        12           O   tau(  12) = (  0.8762580  0.5611530  0.7500000  )
        13           O   tau(  13) = (  0.1817840  0.1865520  0.5662730  )
        14           O   tau(  14) = (  0.1817850  0.1865540  0.9337270  )
        15           O   tau(  15) = (  0.3182100  0.6865660  0.5662730  )
        16           O   tau(  16) = (  0.3182110  0.6865660  0.9337250  )
        17           O   tau(  17) = (  0.6817930  0.3134350  0.0662740  )
        18           O   tau(  18) = (  0.6817930  0.3134350  0.4337250  )
        19           O   tau(  19) = (  0.8182180  0.8134470  0.0662740  )
        20           O   tau(  20) = (  0.8182190  0.8134470  0.4337270  )

     number of k points=    14
                       cart. coord. in units 2pi/alat
        k(    1) = (   0.0000000   0.0000000   0.0000000), wk =   0.0740741
        k(    2) = (   0.0000000   0.0000000   0.2281197), wk =   0.1481481
        k(    3) = (   0.0000000   0.3217102  -0.0000001), wk =   0.1481481
        k(    4) = (   0.0000000   0.3217102   0.2281196), wk =   0.1481481
        k(    5) = (   0.0000000   0.3217102  -0.2281198), wk =   0.1481481
        k(    6) = (   0.3333333   0.0000038  -0.0000004), wk =   0.1481481
        k(    7) = (   0.3333333   0.0000038   0.2281193), wk =   0.1481481
        k(    8) = (   0.3333333   0.0000038  -0.2281201), wk =   0.1481481
        k(    9) = (   0.3333333   0.3217141  -0.0000005), wk =   0.1481481
        k(   10) = (   0.3333333   0.3217141   0.2281192), wk =   0.1481481
        k(   11) = (   0.3333333   0.3217141  -0.2281202), wk =   0.1481481
        k(   12) = (   0.3333333  -0.3217064  -0.0000003), wk =   0.1481481
        k(   13) = (   0.3333333  -0.3217064   0.2281194), wk =   0.1481481
        k(   14) = (   0.3333333  -0.3217064  -0.2281200), wk =   0.1481481

                       cryst. coord.
        k(    1) = (   0.0000000   0.0000000   0.0000000), wk =   0.0740741
        k(    2) = (   0.0000000   0.0000000   0.3333333), wk =   0.1481481
        k(    3) = (   0.0000000   0.3333333   0.0000000), wk =   0.1481481
        k(    4) = (   0.0000000   0.3333333   0.3333333), wk =   0.1481481
        k(    5) = (   0.0000000   0.3333333  -0.3333333), wk =   0.1481481
        k(    6) = (   0.3333333   0.0000000   0.0000000), wk =   0.1481481
        k(    7) = (   0.3333333   0.0000000   0.3333333), wk =   0.1481481
        k(    8) = (   0.3333333   0.0000000  -0.3333333), wk =   0.1481481
        k(    9) = (   0.3333333   0.3333333   0.0000000), wk =   0.1481481
        k(   10) = (   0.3333333   0.3333333   0.3333333), wk =   0.1481481
        k(   11) = (   0.3333333   0.3333333  -0.3333333), wk =   0.1481481
        k(   12) = (   0.3333333  -0.3333333   0.0000000), wk =   0.1481481
        k(   13) = (   0.3333333  -0.3333333   0.3333333), wk =   0.1481481
        k(   14) = (   0.3333333  -0.3333333  -0.3333333), wk =   0.1481481

     Check: negative core charge=   -0.000022

     Initial potential from superposition of free atoms

     starting charge     177.9922, renormalised to     180.0000
     Starting wfcs are  140 randomized atomic wfcs +  116 random wfcs
     Checking if some PAW data can be deallocated...

     Self-consistent Calculation

     iteration #  1     ecut=    30.00 Ry     beta= 0.70
     Davidson diagonalization with overlap

     ethr =  1.00E-02,  avg # of iterations =  6.1

     total energy              =   -1793.24171332 Ry
     estimated scf accuracy    <       5.21570088 Ry

[...]

     total energy              =   -1796.07442445 Ry
     estimated scf accuracy    <       0.00000340 Ry

     iteration # 32     ecut=    30.00 Ry     beta= 0.70
     Davidson diagonalization with overlap

     ethr =  7.38E-10,  avg # of iterations =  1.0

     End of self-consistent calculation

          k = 0.0000 0.0000 0.0000 (  4441 PWs)   bands (ev):

   -67.1706 -67.1702 -67.1697 -67.1696 -50.5936 -50.5895 -50.5773 -50.5591
   -36.0659 -36.0643 -36.0640 -36.0610 -35.9211 -35.9167 -35.9123 -35.9119
   -35.7946 -35.7935 -35.7932 -35.7922 -19.5651 -19.5598 -19.5567 -19.5442
   -19.5410 -19.5182 -19.3976 -19.3971 -19.3939 -19.3844 -19.3728 -19.3697
    -8.0594  -7.5868  -7.3760  -7.3282  -7.3023  -7.1687  -6.7844  -6.5772
    -6.4987  -6.4197  -6.3299  -6.2967   4.6238   5.0634   5.1303   5.1384
     5.1529   5.3529   5.5478   5.6223   5.6569   5.6986   6.2325   6.4941
     6.7201   6.8581   6.9733   7.0374   7.0607   7.1041   7.2136   7.2504
     7.4606   7.5425   7.5949   7.8016   7.9168   8.0084   8.0825   8.0901
     8.0976   8.2625   8.4025   8.4355   8.7385   8.7682   8.8610   9.0706
    11.5925  11.6320  11.6647  11.7223  11.7445  11.8083  11.8629  11.9029
    11.9052  11.9254  11.9256  11.9347  12.2280  12.4287  12.4839  12.5209
    12.5422  12.5637  12.6110  12.6656  13.6354  14.3953  14.6261  14.6738
    14.7298  14.8449  14.9842  15.4958  15.6739  15.9648  16.0536  16.4868
    16.8205  16.8676  17.0873  17.5976  18.2139  18.6815  18.7690  19.0854
    19.1412  19.1770  19.7663  20.8520  20.9678  21.3149  21.3534  21.3638
    21.4678  21.5612  21.6569  21.7744  22.0204  22.0555  22.2124  22.3025
    22.5661  23.0157  23.0285  23.4608  24.2012  24.4712  24.7254  24.8792
    24.9281  25.0401  25.3250  25.6305  25.9662  26.3520  27.1991  27.2633
    27.8959  28.4944  28.7161  28.7749  28.8015  29.5203  29.6090  29.9880
    30.0948  30.3266  30.6348  30.7522  31.0429  31.2446  31.9333  32.0159
    32.3102  32.3343  32.6152  32.6174  32.7154  32.7363  33.0791  33.4570
    33.7717  33.7927  34.1143  34.6432  34.8433  34.9646  35.0729  35.2600
    35.4211  35.7570  35.7991  36.0458  36.2991  36.8211  36.8244  37.2299
    37.2603  37.5203  37.5574  37.6511  38.2171  38.5017  38.6171  38.6726
    39.0519  39.1169  39.2626  39.8300  39.8473  39.8595  40.4567  40.5491
    40.5778  40.6083  41.0795  41.3868  41.5444  41.7872  41.8239  41.9192
    41.9377  42.1041  42.2334  42.2703  42.7742  43.0514  43.1824  43.1899
    43.4089  43.5323  43.5611  43.7616  43.9149  43.9890  44.1362  44.7717
    44.9168  44.9615  45.4347  45.4719  45.5126  45.5348  45.6447  45.6900
    45.7536  45.8990  45.9634  46.1469  46.2737  46.5717  47.3152  47.4523
    47.4828  47.5193  47.5598  47.8721  48.1272  48.1956  48.5016  48.6145

     occupation numbers
     1.0000   1.0000   1.0000   1.0000   1.0000   1.0000   1.0000   1.0000
     1.0000   1.0000   1.0000   1.0000   1.0000   1.0000   1.0000   1.0000
     1.0000   1.0000   1.0000   1.0000   1.0000   1.0000   1.0000   1.0000
     1.0000   1.0000   1.0000   1.0000   1.0000   1.0000   1.0000   1.0000
     1.0000   1.0000   1.0000   1.0000   1.0000   1.0000   1.0000   1.0000
     1.0000   1.0000   1.0000   1.0000   1.0000   1.0000   1.0000   1.0000
     1.0000   1.0000   1.0000   1.0000   1.0000   1.0000   1.0000   1.0000
     1.0000   1.0000   1.0000   1.0000   1.0000   1.0000   1.0000   1.0000
     1.0000   1.0000   1.0000   1.0000   1.0000   1.0000   1.0000   1.0000
     1.0000   1.0000   1.0000   1.0000   1.0000   1.0000   1.0000   1.0000
     1.0000   1.0000   1.0000   1.0000   1.0000   1.0000   1.0000   1.0000
     1.0000   1.0000   0.0000   0.0000   0.0000   0.0000   0.0000   0.0000
     0.0000   0.0000   0.0000   0.0000   0.0000   0.0000   0.0000   0.0000
     0.0000   0.0000   0.0000   0.0000   0.0000   0.0000   0.0000   0.0000
     0.0000   0.0000   0.0000   0.0000   0.0000   0.0000   0.0000   0.0000
     0.0000   0.0000   0.0000   0.0000   0.0000   0.0000   0.0000   0.0000
     0.0000   0.0000   0.0000   0.0000   0.0000   0.0000   0.0000   0.0000
     0.0000   0.0000   0.0000   0.0000   0.0000   0.0000   0.0000   0.0000
     0.0000   0.0000   0.0000   0.0000   0.0000   0.0000   0.0000   0.0000
     0.0000   0.0000   0.0000   0.0000   0.0000   0.0000   0.0000   0.0000
     0.0000   0.0000   0.0000   0.0000   0.0000   0.0000   0.0000   0.0000
     0.0000   0.0000   0.0000   0.0000   0.0000   0.0000   0.0000   0.0000
     0.0000   0.0000   0.0000   0.0000   0.0000   0.0000   0.0000   0.0000
     0.0000   0.0000   0.0000   0.0000   0.0000   0.0000   0.0000   0.0000
     0.0000   0.0000   0.0000   0.0000   0.0000   0.0000   0.0000   0.0000
     0.0000   0.0000   0.0000   0.0000   0.0000   0.0000   0.0000   0.0000
     0.0000   0.0000   0.0000   0.0000   0.0000   0.0000   0.0000   0.0000
     0.0000   0.0000   0.0000   0.0000   0.0000   0.0000   0.0000   0.0000
     0.0000   0.0000   0.0000   0.0000   0.0000   0.0000   0.0000   0.0000
     0.0000   0.0000   0.0000   0.0000   0.0000   0.0000   0.0000   0.0000
     0.0000   0.0000   0.0000   0.0000   0.0000   0.0000   0.0000   0.0000
     0.0000   0.0000   0.0000   0.0000   0.0000   0.0000   0.0000   0.0000

[...]

          k = 0.3333-0.3217-0.2281 (  4496 PWs)   bands (ev):

   -67.1707 -67.1705 -67.1703 -67.1702 -50.5959 -50.5952 -50.5892 -50.5828
   -36.0679 -36.0671 -36.0664 -36.0652 -35.9209 -35.9202 -35.9188 -35.9185
   -35.7971 -35.7960 -35.7956 -35.7951 -19.5702 -19.5628 -19.5286 -19.5230
   -19.5002 -19.4940 -19.4301 -19.4288 -19.4266 -19.4193 -19.3855 -19.3805
    -7.5906  -7.3996  -7.3546  -7.1874  -7.1278  -7.0853  -6.8765  -6.8423
    -6.7512  -6.6842  -6.5267  -6.4346   5.0370   5.1643   5.2614   5.2819
     5.4721   5.6688   5.7399   5.8014   5.8365   6.0842   6.2346   6.2688
     6.3521   6.5205   6.7104   6.7732   6.9525   7.0075   7.0483   7.1684
     7.3133   7.4840   7.5158   7.7077   7.8162   7.8943   7.9158   8.0338
     8.1290   8.1344   8.3698   8.4405   8.5277   8.5416   8.5525   8.6105
    11.6087  11.6147  11.6781  11.7040  11.7521  11.7757  11.8537  11.8860
    11.9264  11.9987  12.0269  12.1341  12.1774  12.2800  12.4001  12.4326
    12.5680  12.5872  12.6446  12.6528  14.6234  14.8549  14.9225  15.0671
    15.2311  15.2642  15.4531  15.5583  15.7518  15.9909  16.0857  16.2025
    16.3490  16.7131  17.2484  17.4429  18.0421  18.3620  18.9284  18.9782
    19.1856  19.3593  19.6654  19.7734  19.9550  20.4296  20.9222  21.0090
    21.1771  21.3022  21.4660  21.5957  22.1431  22.2882  22.6387  22.6928
    23.3015  23.4454  23.8830  24.1959  24.3274  24.7696  25.0465  25.2696
    25.3394  25.6198  25.8538  26.1236  26.2652  26.4811  26.8534  26.9516
    27.4749  27.6842  28.0950  28.4061  28.5398  28.8346  29.2595  29.4908
    29.7228  29.8306  30.2284  30.5819  30.7849  31.1363  31.5870  31.7651
    32.0704  32.1014  32.5092  32.6168  32.8088  33.0146  33.4375  33.6589
    33.7730  34.2701  34.3878  34.6557  34.9663  35.0476  35.2690  35.6770
    35.8407  35.9360  36.1044  36.3240  36.5287  36.7436  37.0846  37.0901
    37.3627  37.4696  37.9378  38.1205  38.3346  38.5504  38.7769  38.8705
    39.0976  39.4031  39.7755  39.8079  40.0144  40.0877  40.2893  40.6613
    40.6988  40.7451  41.1761  41.2416  41.4053  41.5520  41.7443  41.8006
    41.9919  42.1403  42.3233  42.5422  42.5732  42.8601  43.0115  43.1138
    43.1197  43.3811  43.5678  43.7551  43.7784  44.0819  44.2031  44.3043
    44.4889  44.6326  44.8240  44.9190  45.1006  45.2672  45.3887  45.5956
    45.7021  45.8882  46.0508  46.1066  46.2109  46.3873  46.5574  46.7446
    47.0776  47.1465  47.2007  47.4200  47.6069  47.6573  47.7904  47.9672

     occupation numbers
     1.0000   1.0000   1.0000   1.0000   1.0000   1.0000   1.0000   1.0000
     1.0000   1.0000   1.0000   1.0000   1.0000   1.0000   1.0000   1.0000
     1.0000   1.0000   1.0000   1.0000   1.0000   1.0000   1.0000   1.0000
     1.0000   1.0000   1.0000   1.0000   1.0000   1.0000   1.0000   1.0000
     1.0000   1.0000   1.0000   1.0000   1.0000   1.0000   1.0000   1.0000
     1.0000   1.0000   1.0000   1.0000   1.0000   1.0000   1.0000   1.0000
     1.0000   1.0000   1.0000   1.0000   1.0000   1.0000   1.0000   1.0000
     1.0000   1.0000   1.0000   1.0000   1.0000   1.0000   1.0000   1.0000
     1.0000   1.0000   1.0000   1.0000   1.0000   1.0000   1.0000   1.0000
     1.0000   1.0000   1.0000   1.0000   1.0000   1.0000   1.0000   1.0000
     1.0000   1.0000   1.0000   1.0000   1.0000   1.0000   1.0000   1.0000
     1.0000   1.0000   0.0000   0.0000   0.0000   0.0000   0.0000   0.0000
     0.0000   0.0000   0.0000   0.0000   0.0000   0.0000   0.0000   0.0000
     0.0000   0.0000   0.0000   0.0000   0.0000   0.0000   0.0000   0.0000
     0.0000   0.0000   0.0000   0.0000   0.0000   0.0000   0.0000   0.0000
     0.0000   0.0000   0.0000   0.0000   0.0000   0.0000   0.0000   0.0000
     0.0000   0.0000   0.0000   0.0000   0.0000   0.0000   0.0000   0.0000
     0.0000   0.0000   0.0000   0.0000   0.0000   0.0000   0.0000   0.0000
     0.0000   0.0000   0.0000   0.0000   0.0000   0.0000   0.0000   0.0000
     0.0000   0.0000   0.0000   0.0000   0.0000   0.0000   0.0000   0.0000
     0.0000   0.0000   0.0000   0.0000   0.0000   0.0000   0.0000   0.0000
     0.0000   0.0000   0.0000   0.0000   0.0000   0.0000   0.0000   0.0000
     0.0000   0.0000   0.0000   0.0000   0.0000   0.0000   0.0000   0.0000
     0.0000   0.0000   0.0000   0.0000   0.0000   0.0000   0.0000   0.0000
     0.0000   0.0000   0.0000   0.0000   0.0000   0.0000   0.0000   0.0000
     0.0000   0.0000   0.0000   0.0000   0.0000   0.0000   0.0000   0.0000
     0.0000   0.0000   0.0000   0.0000   0.0000   0.0000   0.0000   0.0000
     0.0000   0.0000   0.0000   0.0000   0.0000   0.0000   0.0000   0.0000
     0.0000   0.0000   0.0000   0.0000   0.0000   0.0000   0.0000   0.0000
     0.0000   0.0000   0.0000   0.0000   0.0000   0.0000   0.0000   0.0000
     0.0000   0.0000   0.0000   0.0000   0.0000   0.0000   0.0000   0.0000
     0.0000   0.0000   0.0000   0.0000   0.0000   0.0000   0.0000   0.0000

     highest occupied, lowest unoccupied level (ev):    12.0241   11.9256

!    total energy              =   -1796.07442399 Ry
     estimated scf accuracy    <       0.00000059 Ry

     The total energy is the sum of the following terms:
     one-electron contribution =    -629.42398332 Ry
     hartree contribution      =     406.60858210 Ry
     xc contribution           =    -308.93475311 Ry
     ewald contribution        =   -1150.04071962 Ry
     one-center paw contrib.   =    -114.28355005 Ry
      -> PAW hartree energy AE =       0.00000000 Ry
      -> PAW hartree energy PS =       0.00000000 Ry
      -> PAW xc energy AE      =       0.00000000 Ry
      -> PAW xc energy PS      =       0.00000000 Ry
      -> total E_H with PAW    =     406.60858210 Ry
      -> total E_XC with PAW   =    -308.93475311 Ry

     convergence has been achieved in  32 iterations

     Writing all to output data dir bands_nm/myprefix.save/

     General routines

     Parallel routines

     PAW routines

   This run was terminated on:  18:56:45  15Jul2023

   JOB DONE.