     Program PWSCF v.7.1 starts on 15Jul2023 at 19: 1:44

     Reading input from espresso_17500.pwi
Warning: card &CELL ignored
Warning: card / ignored

     Current dimensions of program PWSCF are:
     Max number of different atomic species (ntypx) = 10
     Max number of k-points (npk) =  40000
     Max angular momentum in pseudopotentials (lmaxx) =  4
     file O.pbe-n-kjpaw_psl.0.1.UPF: wavefunction(s)  2P renormalized
     Message from routine setup:
     using ibrav=0 with symmetry is DISCOURAGED, use correct ibrav instead

     K-points division:     npool     =       2
     R & G space division:  proc/nbgrp/npool/nimage =       4
     Subspace diagonalization in iterative solution of the eigenvalue problem:
     one sub-group per band group will be used

     Using Slab Decomposition

     bravais-lattice index     =            0
     lattice parameter (alat)  =      12.5105  a.u.
     unit-cell volume          =    2001.0316 (a.u.)^3
     number of atoms/cell      =           16
     number of atomic types    =            3
     number of electrons       =       152.00
     number of Kohn-Sham states=          256
     kinetic-energy cutoff     =      30.0000  Ry
     charge density cutoff     =     240.0000  Ry
     scf convergence threshold =      1.0E-06
     mixing beta               =       0.7000
     number of iterations used =            8  plain     mixing
     Exchange-correlation=  SLA  PW   PBX  PBC
                           (   1   4   3   4   0   0   0)

     celldm(1)=  12.510533  celldm(2)=   0.000000  celldm(3)=   0.000000
     celldm(4)=   0.000000  celldm(5)=   0.000000  celldm(6)=   0.000000

     crystal axes: (cart. coord. in units of alat)
               a(1) = (   1.000000   0.000000   0.000000 )
               a(2) = (  -0.811327   0.584593   0.000000 )
               a(3) = (   0.000000   0.000000   1.748126 )

     reciprocal axes: (cart. coord. in units 2 pi/alat)
               b(1) = (  1.000000  1.387848  0.000000 )
               b(2) = (  0.000000  1.710591  0.000000 )
               b(3) = (  0.000000  0.000000  0.572041 )

     PseudoPot. # 1 for Bi read from file:
     /lustre07/scratch/pragov/crystal_structure_design/utils/SSSP/Bi_pbe_v1.uspp.F.UPF
     MD5 check sum: cceb9f28ec65b6d7ff33140f5b0b1758
     Pseudo is Ultrasoft + core correction, Zval = 15.0
     Generated by new atomic code, or converted to UPF format
     Using radial grid of  899 points,  6 beta functions with:
                l(1) =   0
                l(2) =   0
                l(3) =   1
                l(4) =   1
                l(5) =   2
                l(6) =   2
     Q(r) pseudized with  6 coefficients,  rinner =    1.000   1.000   1.000
                                                       1.000   1.000

     PseudoPot. # 2 for O  read from file:
     /lustre07/scratch/pragov/crystal_structure_design/utils/SSSP/O.pbe-n-kjpaw_psl.0.1.UPF
     MD5 check sum: 0234752ac141de4415c5fc33072bef88
     Pseudo is Projector augmented-wave + core cor, Zval =  6.0
     Generated using "atomic" code by A. Dal Corso  v.5.0.99 svn rev. 10869
     Shape of augmentation charge: BESSEL
     Using radial grid of 1095 points,  4 beta functions with:
                l(1) =   0
                l(2) =   0
                l(3) =   1
                l(4) =   1
     Q(r) pseudized with 0 coefficients

     PseudoPot. # 3 for F  read from file:
     /lustre07/scratch/pragov/crystal_structure_design/utils/SSSP/f_pbe_v1.4.uspp.F.UPF
     MD5 check sum: 4c38b6a325caf53ec0e86aed9459de46
     Pseudo is Ultrasoft, Zval =  7.0
     Generated by new atomic code, or converted to UPF format
     Using radial grid of  799 points,  4 beta functions with:
                l(1) =   0
                l(2) =   0
                l(3) =   1
                l(4) =   1
     Q(r) pseudized with  8 coefficients,  rinner =    0.950   0.950   0.950

     atomic species   valence    mass     pseudopotential
        Bi            15.00   208.98040     Bi( 1.00)
        O              6.00    15.99900     O ( 1.00)
        F              7.00    18.99840     F ( 1.00)

      4 Sym. Ops., with inversion, found ( 2 have fractional translation)

                                    s                        frac. trans.

      isym =  1     identity

 cryst.   s( 1) = (     1          0          0      )
                  (     0          1          0      )
                  (     0          0          1      )

 cart.    s( 1) = (  1.0000000  0.0000000  0.0000000 )
                  (  0.0000000  1.0000000  0.0000000 )
                  (  0.0000000  0.0000000  1.0000000 )

      isym =  2     180 deg rotation - cart. axis [0,0,1]

 cryst.   s( 2) = (    -1          0          0      )    f =(  0.0000000 )
                  (     0         -1          0      )       (  0.0000000 )
                  (     0          0          1      )       (  0.5000000 )

 cart.    s( 2) = ( -1.0000000  0.0000000  0.0000000 )    f =( -0.0000000 )
                  (  0.0000000 -1.0000000  0.0000000 )       (  0.0000000 )
                  (  0.0000000  0.0000000  1.0000000 )       (  0.8740631 )

      isym =  3     inversion

 cryst.   s( 3) = (    -1          0          0      )
                  (     0         -1          0      )
                  (     0          0         -1      )

 cart.    s( 3) = ( -1.0000000  0.0000000  0.0000000 )
                  (  0.0000000 -1.0000000  0.0000000 )
                  (  0.0000000  0.0000000 -1.0000000 )

      isym =  4     inv. 180 deg rotation - cart. axis [0,0,1]

 cryst.   s( 4) = (     1          0          0      )    f =(  0.0000000 )
                  (     0          1          0      )       (  0.0000000 )
                  (     0          0         -1      )       ( -0.5000000 )

 cart.    s( 4) = (  1.0000000  0.0000000  0.0000000 )    f =(  0.0000000 )
                  (  0.0000000  1.0000000  0.0000000 )       (  0.0000000 )
                  (  0.0000000  0.0000000 -1.0000000 )       ( -0.8740631 )

   Cartesian axes

     site n.     atom                  positions (alat units)
         1           Bi  tau(   1) = (  -0.2120546   0.3911822   0.4370316  )
         2           Bi  tau(   2) = (  -0.1471458   0.3702333   1.0367525  )
         3           Bi  tau(   3) = (  -0.1471458   0.3702333   1.5854369  )
         4           Bi  tau(   4) = (   0.3358191   0.2143598   0.1626894  )
         5           Bi  tau(   5) = (   0.3358191   0.2143598   0.7113738  )
         6           Bi  tau(   6) = (   0.4007280   0.1934109   1.3110947  )
         7           O   tau(   7) = (   0.0244956   0.3148373   1.3110947  )
         8           O   tau(   8) = (   0.5529229   0.1442910   0.4370316  )
         9           O   tau(   9) = (  -0.4047961   0.4533882   0.7021681  )
        10           O   tau(  10) = (  -0.4047961   0.4533882   0.1718950  )
        11           O   tau(  11) = (   0.5934695   0.1312049   1.5762313  )
        12           O   tau(  12) = (   0.5934695   0.1312049   1.0459581  )
        13           O   tau(  13) = (  -0.3642495   0.4403021   1.3110947  )
        14           O   tau(  14) = (   0.1641778   0.2697558   0.4370316  )
        15           F   tau(  15) = (   0.0000000   0.0000000   0.0000000  )
        16           F   tau(  16) = (   0.0000000   0.0000000   0.8740631  )

   Crystallographic axes

     site n.     atom                  positions (cryst. coord.)
         1           Bi  tau(   1) = (  0.3308470  0.6691530  0.2500000  )
         2           Bi  tau(   2) = (  0.3666820  0.6333180  0.5930650  )
         3           Bi  tau(   3) = (  0.3666820  0.6333180  0.9069350  )
         4           Bi  tau(   4) = (  0.6333180  0.3666820  0.0930650  )
         5           Bi  tau(   5) = (  0.6333180  0.3666820  0.4069350  )
         6           Bi  tau(   6) = (  0.6691530  0.3308470  0.7500000  )
         7           O   tau(   7) = (  0.4614420  0.5385580  0.7500000  )
         8           O   tau(   8) = (  0.7531770  0.2468230  0.2500000  )
         9           O   tau(   9) = (  0.2244380  0.7755620  0.4016690  )
        10           O   tau(  10) = (  0.2244380  0.7755620  0.0983310  )
        11           O   tau(  11) = (  0.7755620  0.2244380  0.9016690  )
        12           O   tau(  12) = (  0.7755620  0.2244380  0.5983310  )
        13           O   tau(  13) = (  0.2468230  0.7531770  0.7500000  )
        14           O   tau(  14) = (  0.5385580  0.4614420  0.2500000  )
        15           F   tau(  15) = (  0.0000000  0.0000000  0.0000000  )
        16           F   tau(  16) = (  0.0000000  0.0000000  0.5000000  )

     number of k points=    10
                       cart. coord. in units 2pi/alat
        k(    1) = (   0.0000000   0.0000000   0.0000000), wk =   0.0740741
        k(    2) = (   0.0000000   0.0000000   0.1906804), wk =   0.1481481
        k(    3) = (   0.0000000   0.5701972   0.0000000), wk =   0.1481481
        k(    4) = (   0.0000000   0.5701972   0.1906804), wk =   0.2962963
        k(    5) = (   0.3333333   0.4626161   0.0000000), wk =   0.1481481
        k(    6) = (   0.3333333   0.4626161   0.1906804), wk =   0.2962963
        k(    7) = (   0.3333333   1.0328133   0.0000000), wk =   0.1481481
        k(    8) = (   0.3333333   1.0328133   0.1906804), wk =   0.2962963
        k(    9) = (   0.3333333  -0.1075810   0.0000000), wk =   0.1481481
        k(   10) = (   0.3333333  -0.1075810   0.1906804), wk =   0.2962963

                       cryst. coord.
        k(    1) = (   0.0000000   0.0000000   0.0000000), wk =   0.0740741
        k(    2) = (   0.0000000   0.0000000   0.3333333), wk =   0.1481481
        k(    3) = (   0.0000000   0.3333333   0.0000000), wk =   0.1481481
        k(    4) = (   0.0000000   0.3333333   0.3333333), wk =   0.2962963
        k(    5) = (   0.3333333   0.0000000   0.0000000), wk =   0.1481481
        k(    6) = (   0.3333333   0.0000000   0.3333333), wk =   0.2962963
        k(    7) = (   0.3333333   0.3333333   0.0000000), wk =   0.1481481
        k(    8) = (   0.3333333   0.3333333   0.3333333), wk =   0.2962963
        k(    9) = (   0.3333333  -0.3333333   0.0000000), wk =   0.1481481
        k(   10) = (   0.3333333  -0.3333333   0.3333333), wk =   0.2962963

     Check: negative core charge=   -0.000009

     Initial potential from superposition of free atoms

     starting charge     145.9997, renormalised to     152.0000

     negative rho (up, down):  2.683E-01 0.000E+00
     Starting wfcs are   94 randomized atomic wfcs +  162 random wfcs
     Checking if some PAW data can be deallocated...

     Self-consistent Calculation

     iteration #  1     ecut=    30.00 Ry     beta= 0.70
     Davidson diagonalization with overlap

     ethr =  1.00E-02,  avg # of iterations =  7.3

     negative rho (up, down):  2.409E-01 0.000E+00

     total energy              =   -1540.11738783 Ry
     estimated scf accuracy    <       3.78873830 Ry

[...]

     total energy              =   -1541.79877070 Ry
     estimated scf accuracy    <       0.00000162 Ry

     iteration # 11     ecut=    30.00 Ry     beta= 0.70
     Davidson diagonalization with overlap

     ethr =  1.00E-09,  avg # of iterations =  1.0

     negative rho (up, down):  2.530E-01 0.000E+00

     End of self-consistent calculation

          k = 0.0000 0.0000 0.0000 (  5545 PWs)   bands (ev):

   -15.0642 -15.0589 -14.9677 -14.9514 -14.9473 -14.9317 -14.8390 -14.8320
   -14.8305 -14.8294 -14.8279 -14.8253 -14.8251 -14.8237 -14.8026 -14.7961
   -14.7805 -14.7654 -14.7650 -14.7633 -14.7548 -14.7512 -14.7297 -14.7292
   -14.7286 -14.7238 -14.7234 -14.7198 -14.7150 -14.7078 -13.5045 -13.4946
   -11.4531 -11.3164  -9.9273  -9.5189  -9.2543  -9.2305  -9.1845  -8.9850
    -2.5945  -2.4192  -2.1234  -1.8100  -0.1057  -0.0152   2.3249   2.4848
     2.8515   2.8579   3.2642   3.4019   3.7834   3.9412   3.9726   4.0820
     4.4091   4.6821   4.6825   4.9685   4.9950   5.0107   5.1248   5.2273
     5.2564   5.3382   5.5873   5.6037   5.9065   6.0977   6.1419   6.2042
     6.3719   6.7792   6.8887   6.8914   9.4514   9.7233  10.6273  11.0274
    11.2203  11.5115  11.5663  12.2495  12.3887  12.7387  12.9166  12.9323
    13.0717  13.0977  13.1175  13.6127  13.9806  14.1801  14.7201  15.8354
    17.0708  17.6983  17.8630  18.1741  18.6510  18.6679  18.6683  19.2578
    19.3123  19.3152  19.4569  19.7559  20.2103  20.2166  20.6318  20.7323
    20.7323  21.1312  21.2782  21.5626  21.9101  22.1872  22.2200  22.3974
    22.5394  22.5752  22.8854  22.9574  23.0263  23.2189  23.4183  23.7692
    23.8641  24.2581  24.6475  24.6795  24.8706  25.0341  25.3826  25.3930
    25.6388  25.6695  25.9449  25.9863  26.3235  26.3420  26.7038  26.8653
    26.8822  26.9799  27.0684  27.2069  27.6358  28.0549  28.2116  28.6118
    28.7873  29.0978  29.1422  29.1726  29.3261  29.4013  29.6919  29.8887
    29.9160  30.7618  30.8918  30.9056  30.9677  31.4355  31.5070  31.6357
    31.9052  31.9328  32.4217  32.4987  32.5022  32.5811  32.6278  32.7559
    32.7737  33.3751  33.7001  33.8671  34.0228  34.0334  34.0337  34.0594
    34.0735  34.0964  34.1115  34.2596  34.2712  34.4382  34.4567  34.8108
    34.8399  34.8998  34.9230  35.0699  35.4073  35.5705  35.8734  36.1574
    36.3288  36.4882  36.5009  36.5435  36.6855  37.0518  37.3019  37.3260
    37.4489  37.6447  37.6878  37.9274  38.1795  38.2154  38.2591  38.5409
    38.5721  38.8004  38.8323  38.9432  39.0382  39.1697  39.2930  39.4517
    39.4868  39.5376  39.6662  39.7469  39.9530  40.0213  40.1311  40.4502
    40.4851  40.8200  40.8296  40.9953  41.0442  41.0451  41.1499  41.4383
    41.5003  41.5366  41.6526  41.9995  42.0952  42.3042  42.7158  42.9112
    42.9404  43.1502  43.3362  43.4006  43.4563  43.4993  43.5305  43.7266

     occupation numbers
     1.0000   1.0000   1.0000   1.0000   1.0000   1.0000   1.0000   1.0000
     1.0000   1.0000   1.0000   1.0000   1.0000   1.0000   1.0000   1.0000
     1.0000   1.0000   1.0000   1.0000   1.0000   1.0000   1.0000   1.0000
     1.0000   1.0000   1.0000   1.0000   1.0000   1.0000   1.0000   1.0000
     1.0000   1.0000   1.0000   1.0000   1.0000   1.0000   1.0000   1.0000
     1.0000   1.0000   1.0000   1.0000   1.0000   1.0000   1.0000   1.0000
     1.0000   1.0000   1.0000   1.0000   1.0000   1.0000   1.0000   1.0000
     1.0000   1.0000   1.0000   1.0000   1.0000   1.0000   1.0000   1.0000
     1.0000   1.0000   1.0000   1.0000   1.0000   1.0000   1.0000   1.0000
     1.0000   1.0000   1.0000   1.0000   0.0000   0.0000   0.0000   0.0000
     0.0000   0.0000   0.0000   0.0000   0.0000   0.0000   0.0000   0.0000
     0.0000   0.0000   0.0000   0.0000   0.0000   0.0000   0.0000   0.0000
     0.0000   0.0000   0.0000   0.0000   0.0000   0.0000   0.0000   0.0000
     0.0000   0.0000   0.0000   0.0000   0.0000   0.0000   0.0000   0.0000
     0.0000   0.0000   0.0000   0.0000   0.0000   0.0000   0.0000   0.0000
     0.0000   0.0000   0.0000   0.0000   0.0000   0.0000   0.0000   0.0000
     0.0000   0.0000   0.0000   0.0000   0.0000   0.0000   0.0000   0.0000
     0.0000   0.0000   0.0000   0.0000   0.0000   0.0000   0.0000   0.0000
     0.0000   0.0000   0.0000   0.0000   0.0000   0.0000   0.0000   0.0000
     0.0000   0.0000   0.0000   0.0000   0.0000   0.0000   0.0000   0.0000
     0.0000   0.0000   0.0000   0.0000   0.0000   0.0000   0.0000   0.0000
     0.0000   0.0000   0.0000   0.0000   0.0000   0.0000   0.0000   0.0000
     0.0000   0.0000   0.0000   0.0000   0.0000   0.0000   0.0000   0.0000
     0.0000   0.0000   0.0000   0.0000   0.0000   0.0000   0.0000   0.0000
     0.0000   0.0000   0.0000   0.0000   0.0000   0.0000   0.0000   0.0000
     0.0000   0.0000   0.0000   0.0000   0.0000   0.0000   0.0000   0.0000
     0.0000   0.0000   0.0000   0.0000   0.0000   0.0000   0.0000   0.0000
     0.0000   0.0000   0.0000   0.0000   0.0000   0.0000   0.0000   0.0000
     0.0000   0.0000   0.0000   0.0000   0.0000   0.0000   0.0000   0.0000
     0.0000   0.0000   0.0000   0.0000   0.0000   0.0000   0.0000   0.0000
     0.0000   0.0000   0.0000   0.0000   0.0000   0.0000   0.0000   0.0000
     0.0000   0.0000   0.0000   0.0000   0.0000   0.0000   0.0000   0.0000

[...]

          k = 0.3333-0.1076 0.1907 (  5556 PWs)   bands (ev):

   -15.0605 -15.0591 -14.9754 -14.9657 -14.9305 -14.9254 -14.8398 -14.8346
   -14.8341 -14.8317 -14.8242 -14.8239 -14.8224 -14.8208 -14.8069 -14.8019
   -14.7778 -14.7706 -14.7669 -14.7651 -14.7514 -14.7489 -14.7370 -14.7338
   -14.7247 -14.7227 -14.7192 -14.7172 -14.7125 -14.7091 -13.5004 -13.4959
   -11.3893 -11.3141  -9.8415  -9.6466  -9.3200  -9.3183  -9.1114  -9.0140
    -2.2750  -2.2382  -2.0047  -1.8610  -0.4012  -0.3433   2.3188   2.4170
     2.9870   3.1125   3.1659   3.3644   3.7624   3.9256   4.0435   4.0839
     4.5860   4.6955   4.7593   4.8424   4.9831   5.0091   5.0763   5.1419
     5.2025   5.2268   5.2351   5.3864   6.0656   6.1790   6.1951   6.1971
     6.4610   6.6184   7.0616   7.1149   9.5258   9.8168  10.7681  10.8709
    11.3708  11.7419  11.9023  12.1319  12.1394  12.3426  12.7076  12.9160
    12.9898  13.2363  13.2532  13.7145  13.8770  13.9454  15.8027  16.2252
    16.6740  16.9331  17.6219  17.8032  18.1508  18.2691  18.6659  18.8025
    19.0662  19.1753  19.4940  19.7430  19.7918  19.9819  20.2572  20.4064
    20.8791  21.4920  21.6692  21.9662  22.1120  22.4062  22.4308  22.5260
    22.6127  22.6657  22.8490  23.1547  23.5155  23.5993  23.8180  24.0676
    24.1183  24.3502  24.4801  24.5027  25.0396  25.2850  25.4905  25.8501
    26.0134  26.2742  26.2983  26.4437  26.6294  26.7158  26.7311  27.1197
    27.2814  27.2875  27.5306  27.7856  27.8025  27.8664  28.3308  28.4975
    28.6616  28.8708  28.9667  29.2993  29.4982  29.5690  29.8115  29.9807
    30.1681  30.2629  30.2786  30.7285  30.7668  30.8659  30.8763  30.9288
    31.4334  31.4524  31.8343  31.9199  31.9717  32.1890  32.3119  32.3883
    32.5503  32.6833  32.9752  32.9836  33.2296  33.3608  33.8561  34.0266
    34.0323  34.0550  34.0602  34.0958  34.1111  34.1199  34.3178  34.4073
    34.5652  34.6842  34.9719  34.9801  35.2737  35.6639  35.6671  35.7994
    35.8499  36.2463  36.4875  36.6923  36.8552  37.0231  37.0552  37.3137
    37.4515  37.5109  37.7654  37.9796  38.0280  38.2316  38.4853  38.6316
    38.7178  38.7624  38.8623  39.0996  39.1406  39.1652  39.4014  39.4955
    39.5548  39.5871  39.9520  40.2562  40.3127  40.3342  40.4442  40.5912
    40.8548  41.1731  41.3484  41.4287  41.6420  41.7588  41.9716  42.0625
    42.2140  42.4192  42.4349  42.4833  42.5451  42.7878  43.0219  43.0366
    43.0679  43.2298  43.3081  43.4575  43.5792  43.6134  43.7428  43.8171

     occupation numbers
     1.0000   1.0000   1.0000   1.0000   1.0000   1.0000   1.0000   1.0000
     1.0000   1.0000   1.0000   1.0000   1.0000   1.0000   1.0000   1.0000
     1.0000   1.0000   1.0000   1.0000   1.0000   1.0000   1.0000   1.0000
     1.0000   1.0000   1.0000   1.0000   1.0000   1.0000   1.0000   1.0000
     1.0000   1.0000   1.0000   1.0000   1.0000   1.0000   1.0000   1.0000
     1.0000   1.0000   1.0000   1.0000   1.0000   1.0000   1.0000   1.0000
     1.0000   1.0000   1.0000   1.0000   1.0000   1.0000   1.0000   1.0000
     1.0000   1.0000   1.0000   1.0000   1.0000   1.0000   1.0000   1.0000
     1.0000   1.0000   1.0000   1.0000   1.0000   1.0000   1.0000   1.0000
     1.0000   1.0000   1.0000   1.0000   0.0000   0.0000   0.0000   0.0000
     0.0000   0.0000   0.0000   0.0000   0.0000   0.0000   0.0000   0.0000
     0.0000   0.0000   0.0000   0.0000   0.0000   0.0000   0.0000   0.0000
     0.0000   0.0000   0.0000   0.0000   0.0000   0.0000   0.0000   0.0000
     0.0000   0.0000   0.0000   0.0000   0.0000   0.0000   0.0000   0.0000
     0.0000   0.0000   0.0000   0.0000   0.0000   0.0000   0.0000   0.0000
     0.0000   0.0000   0.0000   0.0000   0.0000   0.0000   0.0000   0.0000
     0.0000   0.0000   0.0000   0.0000   0.0000   0.0000   0.0000   0.0000
     0.0000   0.0000   0.0000   0.0000   0.0000   0.0000   0.0000   0.0000
     0.0000   0.0000   0.0000   0.0000   0.0000   0.0000   0.0000   0.0000
     0.0000   0.0000   0.0000   0.0000   0.0000   0.0000   0.0000   0.0000
     0.0000   0.0000   0.0000   0.0000   0.0000   0.0000   0.0000   0.0000
     0.0000   0.0000   0.0000   0.0000   0.0000   0.0000   0.0000   0.0000
     0.0000   0.0000   0.0000   0.0000   0.0000   0.0000   0.0000   0.0000
     0.0000   0.0000   0.0000   0.0000   0.0000   0.0000   0.0000   0.0000
     0.0000   0.0000   0.0000   0.0000   0.0000   0.0000   0.0000   0.0000
     0.0000   0.0000   0.0000   0.0000   0.0000   0.0000   0.0000   0.0000
     0.0000   0.0000   0.0000   0.0000   0.0000   0.0000   0.0000   0.0000
     0.0000   0.0000   0.0000   0.0000   0.0000   0.0000   0.0000   0.0000
     0.0000   0.0000   0.0000   0.0000   0.0000   0.0000   0.0000   0.0000
     0.0000   0.0000   0.0000   0.0000   0.0000   0.0000   0.0000   0.0000
     0.0000   0.0000   0.0000   0.0000   0.0000   0.0000   0.0000   0.0000
     0.0000   0.0000   0.0000   0.0000   0.0000   0.0000   0.0000   0.0000

     highest occupied, lowest unoccupied level (ev):     7.1324    9.3513

!    total energy              =   -1541.79877096 Ry
     estimated scf accuracy    <       0.00000013 Ry

     The total energy is the sum of the following terms:
     one-electron contribution =    -520.45207416 Ry
     hartree contribution      =     357.92769473 Ry
     xc contribution           =    -465.93409401 Ry
     ewald contribution        =    -837.08090220 Ry
     one-center paw contrib.   =     -76.25939531 Ry
      -> PAW hartree energy AE =       0.00000000 Ry
      -> PAW hartree energy PS =       0.00000000 Ry
      -> PAW xc energy AE      =       0.00000000 Ry
      -> PAW xc energy PS      =       0.00000000 Ry
      -> total E_H with PAW    =     357.92769473 Ry
      -> total E_XC with PAW   =    -465.93409401 Ry

     convergence has been achieved in  11 iterations

     Writing all to output data dir bands_nm/myprefix.save/

     General routines

     Parallel routines

     PAW routines

   This run was terminated on:  19: 2:41  15Jul2023

   JOB DONE.