     Program PWSCF v.7.1 starts on 15Jul2023 at 13:52:13

     Reading input from espresso_11701.pwi
Warning: card &CELL ignored
Warning: card / ignored

     Current dimensions of program PWSCF are:
     Max number of different atomic species (ntypx) = 10
     Max number of k-points (npk) =  40000
     Max angular momentum in pseudopotentials (lmaxx) =  4
     file Al.pbe-n-kjpaw_psl.1.0.0.UPF: wavefunction(s)  3S 3P renormalized
     Message from routine setup:
     the system is metallic, specify occupations
     Message from routine setup:
     using ibrav=0 with symmetry is DISCOURAGED, use correct ibrav instead

     K-points division:     npool     =       2
     R & G space division:  proc/nbgrp/npool/nimage =       4
     Subspace diagonalization in iterative solution of the eigenvalue problem:
     a serial algorithm will be used

     Using Slab Decomposition

     bravais-lattice index     =            0
     lattice parameter (alat)  =      14.3503  a.u.
     unit-cell volume          =    1525.7178 (a.u.)^3
     number of atoms/cell      =            7
     number of atomic types    =            3
     number of electrons       =        45.00 (up:  25.00, down:  20.00)
     number of Kohn-Sham states=           64
     kinetic-energy cutoff     =      30.0000  Ry
     charge density cutoff     =     240.0000  Ry
     scf convergence threshold =      1.0E-06
     mixing beta               =       0.7000
     number of iterations used =            8  plain     mixing
     Exchange-correlation= SLA  PW   PBE  PBE
                           (   1   4   3   4   0   0   0)

     celldm(1)=  14.350268  celldm(2)=   0.000000  celldm(3)=   0.000000
     celldm(4)=   0.000000  celldm(5)=   0.000000  celldm(6)=   0.000000

     crystal axes: (cart. coord. in units of alat)
               a(1) = (   1.000000   0.000000   0.000000 )
               a(2) = (   0.378011   0.925801   0.000000 )
               a(3) = (  -0.689005  -0.462901   0.557669 )

     reciprocal axes: (cart. coord. in units 2 pi/alat)
               b(1) = (  1.000000 -0.408307  0.896589 )
               b(2) = (  0.000000  1.080146  0.896589 )
               b(3) = (  0.000000  0.000000  1.793179 )

     PseudoPot. # 1 for Mn read from file:
     /lustre07/scratch/pragov/crystal_structure_design/utils/SSSP/mn_pbe_v1.5.uspp.F.UPF
     MD5 check sum: 82ef2b46521d7a7d9e736dc3972e4928
     Pseudo is Ultrasoft + core correction, Zval = 15.0
     Generated by new atomic code, or converted to UPF format
     Using radial grid of  859 points,  6 beta functions with:
                l(1) =   0
                l(2) =   0
                l(3) =   1
                l(4) =   1
                l(5) =   2
                l(6) =   2
     Q(r) pseudized with  8 coefficients,  rinner =    0.950   0.950   0.950
                                                       0.950   0.950

     PseudoPot. # 2 for Al read from file:
     /lustre07/scratch/pragov/crystal_structure_design/utils/SSSP/Al.pbe-n-kjpaw_psl.1.0.0.UPF
     MD5 check sum: cfc449ca30b5f3223ec38ddd88ac046d
     Pseudo is Projector augmented-wave + core cor, Zval =  3.0
     Generated using "atomic" code by A. Dal Corso  v.5.1
     Shape of augmentation charge: PSQ
     Using radial grid of 1135 points,  6 beta functions with:
                l(1) =   0
                l(2) =   0
                l(3) =   1
                l(4) =   1
                l(5) =   2
                l(6) =   2
     Q(r) pseudized with 0 coefficients

     PseudoPot. # 3 for Te read from file:
     /lustre07/scratch/pragov/crystal_structure_design/utils/SSSP/Te_pbe_v1.uspp.F.UPF
     MD5 check sum: c319670d6894cc26e93307826a071b75
     Pseudo is Ultrasoft + core correction, Zval =  6.0
     Generated by new atomic code, or converted to UPF format
     Using radial grid of  891 points,  5 beta functions with:
                l(1) =   0
                l(2) =   0
                l(3) =   1
                l(4) =   1
                l(5) =   2
     Q(r) pseudized with  6 coefficients,  rinner =    1.800   1.800   1.800
                                                       1.800   1.800

     atomic species   valence    mass     pseudopotential
        Mn            15.00    54.93804     Mn( 1.00)
        Al             3.00    26.98154     Al( 1.00)
        Te             6.00   127.60000     Te( 1.00)

     Starting magnetic structure
     atomic species   magnetization
        Mn           0.000
        Al           0.000
        Te           0.000

      2 Sym. Ops. (no inversion) found

                                    s                        frac. trans.

      isym =  1     identity

 cryst.   s( 1) = (     1          0          0      )
                  (     0          1          0      )
                  (     0          0          1      )

 cart.    s( 1) = (  1.0000000  0.0000000  0.0000000 )
                  (  0.0000000  1.0000000  0.0000000 )
                  (  0.0000000  0.0000000  1.0000000 )

      isym =  2     inv. 180 deg rotation - cart. axis [0,0,1]

 cryst.   s( 2) = (     1          0          0      )
                  (     0          1          0      )
                  (    -1         -1         -1      )

 cart.    s( 2) = (  1.0000000  0.0000000  0.0000000 )
                  (  0.0000000  1.0000000  0.0000000 )
                  (  0.0000000  0.0000000 -1.0000000 )

   Cartesian axes

     site n.     atom                  positions (alat units)
         1           Mn  tau(   1) = (   0.0000000   0.0000000   0.0000000  )
         2           Al  tau(   2) = (   0.1890054   0.4629006   0.2788345  )
         3           Al  tau(   3) = (   0.5000000  -0.0000000   0.2788345  )
         4           Te  tau(   4) = (   0.7120208   0.7915369   0.0000000  )
         5           Te  tau(   5) = (   1.0019573   0.3599802   0.0000000  )
         6           Te  tau(   6) = (  -0.1679836  -0.1128579   0.2977149  )
         7           Te  tau(   7) = (   0.5210217   0.3500427   0.2599540  )

   Crystallographic axes

     site n.     atom                  positions (cryst. coord.)
         1           Mn  tau(   1) = (  0.0000000  0.0000000  0.0000000  )
         2           Al  tau(   2) = (  0.2500000  0.7500000  0.5000000  )
         3           Al  tau(   3) = (  0.7500000  0.2500000  0.5000000  )
         4           Te  tau(   4) = (  0.3888310  0.8549750  0.0000000  )
         5           Te  tau(   5) = (  0.8549750  0.3888310  0.0000000  )
         6           Te  tau(   6) = (  0.1450250  0.1450250  0.5338560  )
         7           Te  tau(   7) = (  0.6111690  0.6111690  0.4661440  )

     number of k points=    10
                       cart. coord. in units 2pi/alat
        k(    1) = (   0.0000000   0.0000000   0.0000000), wk =   0.0370370
        k(    2) = (   0.0000000   0.0000000   0.5977262), wk =   0.0740741
        k(    3) = (   0.0000000   0.3600485   0.2988631), wk =   0.1481481
        k(    4) = (   0.0000000   0.3600485   0.8965893), wk =   0.0740741
        k(    5) = (   0.3333333  -0.1361022   0.2988631), wk =   0.1481481
        k(    6) = (   0.3333333  -0.1361022   0.8965893), wk =   0.0740741
        k(    7) = (   0.3333333   0.2239463   0.5977262), wk =   0.1481481
        k(    8) = (   0.3333333   0.2239463   0.0000000), wk =   0.0740741
        k(    9) = (   0.3333333  -0.4961507   0.0000000), wk =   0.0740741
        k(   10) = (   0.3333333  -0.4961507   0.5977262), wk =   0.1481481

                       cryst. coord.
        k(    1) = (   0.0000000   0.0000000   0.0000000), wk =   0.0370370
        k(    2) = (   0.0000000   0.0000000   0.3333333), wk =   0.0740741
        k(    3) = (   0.0000000   0.3333333  -0.0000000), wk =   0.1481481
        k(    4) = (   0.0000000   0.3333333   0.3333333), wk =   0.0740741
        k(    5) = (   0.3333333   0.0000000  -0.0000000), wk =   0.1481481
        k(    6) = (   0.3333333   0.0000000   0.3333333), wk =   0.0740741
        k(    7) = (   0.3333333   0.3333333  -0.0000000), wk =   0.1481481
        k(    8) = (   0.3333333   0.3333333  -0.3333333), wk =   0.0740741
        k(    9) = (   0.3333333  -0.3333333   0.0000000), wk =   0.0740741
        k(   10) = (   0.3333333  -0.3333333   0.3333333), wk =   0.1481481

     Check: negative core charge=   -0.000003
     Generating pointlists ...
     new r_m :   0.1485 (alat units)  2.1309 (a.u.) for type    1
     new r_m :   0.1449 (alat units)  2.0788 (a.u.) for type    2
     new r_m :   0.1449 (alat units)  2.0788 (a.u.) for type    3

     Initial potential from superposition of free atoms

     starting charge      44.4945, renormalised to      45.0000
     Starting wfcs are   37 randomized atomic wfcs +   27 random wfcs
     Checking if some PAW data can be deallocated...

     Self-consistent Calculation

     iteration #  1     ecut=    30.00 Ry     beta= 0.70
     Davidson diagonalization with overlap

     ethr =  1.00E-02,  avg # of iterations =  6.8

     Threshold (ethr) on eigenvalues was too large:
     Diagonalizing with lowered threshold

     Davidson diagonalization with overlap

[...]

     total energy              =    -396.19787233 Ry
     estimated scf accuracy    <       0.44478957 Ry

     total magnetization       =     5.00 Bohr mag/cell
     absolute magnetization    =     5.00 Bohr mag/cell

[...]

     negative rho (up, down):  0.000E+00 1.185E-04

[...]

     total energy              =    -396.36917428 Ry
     estimated scf accuracy    <       0.00002835 Ry

[...]

     iteration #  9     ecut=    30.00 Ry     beta= 0.70
     Davidson diagonalization with overlap

     ethr =  6.30E-08,  avg # of iterations =  1.5

     negative rho (up, down):  0.000E+00 3.782E-04

     Magnetic moment per site  (integrated on atomic sphere of radius R)
     atom   1 (R=0.148)  charge= 13.4363  magn=  4.2207
     atom   2 (R=0.145)  charge=  1.2990  magn=  0.0283
     atom   3 (R=0.145)  charge=  1.2990  magn=  0.0283
     atom   4 (R=0.145)  charge=  3.0924  magn=  0.0258
     atom   5 (R=0.145)  charge=  3.0924  magn=  0.0258
     atom   6 (R=0.145)  charge=  3.0925  magn=  0.0258
     atom   7 (R=0.145)  charge=  3.0925  magn=  0.0258

     End of self-consistent calculation

 ------ SPIN UP ------------

          k = 0.0000 0.0000 0.0000 (  4237 PWs)   bands (ev):

   -76.9807 -45.7241 -45.7241 -45.6214  -7.1828  -5.9905  -5.8505  -5.8503
    -1.1830  -0.5466   0.5493   1.2383   1.4468   1.4469   1.4557   2.1733
     2.1733   2.2070   2.2114   2.3032   2.3033   2.3446   4.3953   4.6885
     4.6886   5.8051   6.3321   7.5548   7.8389   8.2772   8.2772   8.7311
     8.7311   9.2431   9.7535  10.4290  10.4290  10.7372  11.2565  12.4894
    13.0773  13.1886  14.1289  14.2512  14.2512  14.5091  15.2939  15.5534
    15.7233  15.7234  16.2698  16.2698  16.5874  16.6061  16.6061  16.9770
    18.0099  18.2533  18.4358  18.4613  18.8407  18.8408  19.2839  20.2185

     occupation numbers
     1.0000   1.0000   1.0000   1.0000   1.0000   1.0000   1.0000   1.0000
     1.0000   1.0000   1.0000   1.0000   1.0000   1.0000   1.0000   1.0000
     1.0000   1.0000   1.0000   1.0000   1.0000   1.0000   1.0000   1.0000
     1.0000   0.0000   0.0000   0.0000   0.0000   0.0000   0.0000   0.0000
     0.0000   0.0000   0.0000   0.0000   0.0000   0.0000   0.0000   0.0000
     0.0000   0.0000   0.0000   0.0000   0.0000   0.0000   0.0000   0.0000
     0.0000   0.0000   0.0000   0.0000   0.0000   0.0000   0.0000   0.0000
     0.0000   0.0000   0.0000   0.0000   0.0000   0.0000   0.0000   0.0000

[...]

 ------ SPIN DOWN ----------

[...]

          k = 0.3333-0.4962 0.5977 (  4230 PWs)   bands (ev):

   -72.2720 -41.1061 -41.1056 -41.0367  -6.5782  -6.2693  -6.1993  -5.8287
    -0.7674   0.1161   1.1806   1.4789   1.5490   1.8216   2.0115   2.4451
     2.4798   3.2205   3.3957   3.6113   5.4939   5.9237   5.9816   5.9850
     6.1497   7.1852   7.7516   7.7792   8.0854   8.3005   8.8708   9.3491
     9.4435  10.4108  10.6196  10.9277  10.9752  11.6073  11.6518  11.7989
    12.3446  12.7821  13.6610  14.0493  14.7562  14.7943  15.2355  15.4119
    15.8421  16.0134  16.2897  16.4073  16.6070  16.9152  17.3998  17.6593
    17.9307  18.0800  18.2589  18.4687  18.5624  19.2030  19.3674  19.4789

     occupation numbers
     1.0000   1.0000   1.0000   1.0000   1.0000   1.0000   1.0000   1.0000
     1.0000   1.0000   1.0000   1.0000   1.0000   1.0000   1.0000   1.0000
     1.0000   1.0000   1.0000   1.0000   0.0000   0.0000   0.0000   0.0000
     0.0000   0.0000   0.0000   0.0000   0.0000   0.0000   0.0000   0.0000
     0.0000   0.0000   0.0000   0.0000   0.0000   0.0000   0.0000   0.0000
     0.0000   0.0000   0.0000   0.0000   0.0000   0.0000   0.0000   0.0000
     0.0000   0.0000   0.0000   0.0000   0.0000   0.0000   0.0000   0.0000
     0.0000   0.0000   0.0000   0.0000   0.0000   0.0000   0.0000   0.0000

     highest occupied, lowest unoccupied level (ev):     4.6886    5.2680

!    total energy              =    -396.36918077 Ry
     estimated scf accuracy    <       0.00000012 Ry

     The total energy is the sum of the following terms:
     one-electron contribution =    -204.45958279 Ry
     hartree contribution      =     115.97205158 Ry
     xc contribution           =     -89.49820898 Ry
     ewald contribution        =    -149.04692345 Ry
     one-center paw contrib.   =     -69.33651713 Ry
      -> PAW hartree energy AE =       0.00000000 Ry
      -> PAW hartree energy PS =       0.00000000 Ry
      -> PAW xc energy AE      =       0.00000000 Ry
      -> PAW xc energy PS      =       0.00000000 Ry
      -> total E_H with PAW    =     115.97205158 Ry
      -> total E_XC with PAW   =     -89.49820898 Ry

     total magnetization       =     5.00 Bohr mag/cell
     absolute magnetization    =     5.04 Bohr mag/cell

     convergence has been achieved in   9 iterations

     Writing all to output data dir bands_nm/myprefix.save/

     General routines

     Parallel routines

     PAW routines

   This run was terminated on:  13:52:33  15Jul2023

   JOB DONE.