     Program PWSCF v.7.0 starts on  7Jun2023 at  8:10:19

     K-points division:     npool     =       2
     R & G space division:  proc/nbgrp/npool/nimage =       4

     Reading input from espresso_5377.pwi
Warning: card &CELL ignored
Warning: card / ignored

     Current dimensions of program PWSCF are:
     Max number of different atomic species (ntypx) = 10
     Max number of k-points (npk) =  40000
     Max angular momentum in pseudopotentials (lmaxx) =  4
     Message from routine setup:
     using ibrav=0 with symmetry is DISCOURAGED, use correct ibrav instead

     Using Slab Decomposition

     bravais-lattice index     =            0
     lattice parameter (alat)  =      16.0331  a.u.
     unit-cell volume          =    2669.7550 (a.u.)^3
     number of atoms/cell      =           12
     number of atomic types    =            4
     number of electrons       =       116.00
     number of Kohn-Sham states=           64
     kinetic-energy cutoff     =      30.0000  Ry
     charge density cutoff     =     240.0000  Ry
     scf convergence threshold =      1.0E-06
     mixing beta               =       0.7000
     number of iterations used =            8  plain     mixing
     Exchange-correlation= SLA  PW   PBE  PBE
                           (   1   4   3   4   0   0   0)

     celldm(1)=  16.033140  celldm(2)=   0.000000  celldm(3)=   0.000000
     celldm(4)=   0.000000  celldm(5)=   0.000000  celldm(6)=   0.000000

     crystal axes: (cart. coord. in units of alat)
               a(1) = (   1.000000   0.000000   0.000000 )
               a(2) = (  -0.871074   0.491151   0.000000 )
               a(3) = (   0.000000   0.000000   1.318866 )

     reciprocal axes: (cart. coord. in units 2 pi/alat)
               b(1) = (  1.000000  1.773536  0.000000 )
               b(2) = (  0.000000  2.036033  0.000000 )
               b(3) = (  0.000000  0.000000  0.758227 )

     PseudoPot. # 1 for Cs read from file:
     /home/pragov/projects/rrg-bengioy-ad/pragov/crystal_structure_design/SSSP/Cs_pbe_v1.uspp.F.UPF
     MD5 check sum: 3476d69cb178dfad3ffaa59df4e07ca4
     Pseudo is Ultrasoft + core correction, Zval =  9.0
     Generated by new atomic code, or converted to UPF format
     Using radial grid of  905 points,  6 beta functions with:
                l(1) =   0
                l(2) =   0
                l(3) =   1
                l(4) =   1
                l(5) =   2
                l(6) =   2
     Q(r) pseudized with  6 coefficients,  rinner =    1.500   1.500   1.500
                                                       1.500   1.500

     PseudoPot. # 2 for Y  read from file:
     /home/pragov/projects/rrg-bengioy-ad/pragov/crystal_structure_design/SSSP/Y_pbe_v1.uspp.F.UPF
     MD5 check sum: 2cf71db95cafeb975fc457bd7f14888e
     Pseudo is Ultrasoft + core correction, Zval = 11.0
     Generated by new atomic code, or converted to UPF format
     Using radial grid of  885 points,  6 beta functions with:
                l(1) =   0
                l(2) =   0
                l(3) =   1
                l(4) =   1
                l(5) =   2
                l(6) =   2
     Q(r) pseudized with  6 coefficients,  rinner =    1.200   1.200   1.200
                                                       1.200   1.200

     PseudoPot. # 3 for Hg read from file:
     /home/pragov/projects/rrg-bengioy-ad/pragov/crystal_structure_design/SSSP/Hg_ONCV_PBE-1.0.oncvpsp.upf
     MD5 check sum: dd5a8773074bfcf4280086d4d95875c4
     Pseudo is Norm-conserving, Zval = 20.0
     Generated using ONCVPSP code by D. R. Hamann
     Using radial grid of 1262 points,  8 beta functions with:
                l(1) =   0
                l(2) =   0
                l(3) =   1
                l(4) =   1
                l(5) =   2
                l(6) =   2
                l(7) =   3
                l(8) =   3

     PseudoPot. # 4 for Se read from file:
     /home/pragov/projects/rrg-bengioy-ad/pragov/crystal_structure_design/SSSP/Se_pbe_v1.uspp.F.UPF
     MD5 check sum: 1b3568f3a8ae88f9a2a0ad0698632c85
     Pseudo is Ultrasoft + core correction, Zval =  6.0
     Generated by new atomic code, or converted to UPF format
     Using radial grid of  877 points,  6 beta functions with:
                l(1) =   0
                l(2) =   0
                l(3) =   1
                l(4) =   1
                l(5) =   2
                l(6) =   2
     Q(r) pseudized with  8 coefficients,  rinner =    1.300   1.300   1.300
                                                       1.300   1.300

     atomic species   valence    mass     pseudopotential
        Cs             9.00   132.90545     Cs( 1.00)
        Y             11.00    88.90584     Y ( 1.00)
        Hg            20.00   200.59200     Hg( 1.00)
        Se             6.00    78.97100     Se( 1.00)

      4 Sym. Ops., with inversion, found ( 2 have fractional translation)

                                    s                        frac. trans.

      isym =  1     identity

 cryst.   s( 1) = (     1          0          0      )
                  (     0          1          0      )
                  (     0          0          1      )

 cart.    s( 1) = (  1.0000000 -0.0000000  0.0000000 )
                  (  0.0000000  1.0000000  0.0000000 )
                  (  0.0000000  0.0000000  1.0000000 )

      isym =  2     180 deg rotation - cart. axis [0,0,1]

 cryst.   s( 2) = (    -1          0          0      )    f =( -0.0000000 )
                  (     0         -1          0      )       ( -0.0000000 )
                  (     0          0          1      )       ( -0.5000000 )

 cart.    s( 2) = ( -1.0000000  0.0000000  0.0000000 )    f =( -0.0000000 )
                  (  0.0000000 -1.0000000  0.0000000 )       ( -0.0000000 )
                  (  0.0000000  0.0000000  1.0000000 )       ( -0.6594328 )

      isym =  3     inversion

 cryst.   s( 3) = (    -1          0          0      )
                  (     0         -1          0      )
                  (     0          0         -1      )

 cart.    s( 3) = ( -1.0000000  0.0000000  0.0000000 )
                  (  0.0000000 -1.0000000  0.0000000 )
                  (  0.0000000  0.0000000 -1.0000000 )

      isym =  4     inv. 180 deg rotation - cart. axis [0,0,1]

 cryst.   s( 4) = (     1          0          0      )    f =(  0.0000000 )
                  (     0          1          0      )       (  0.0000000 )
                  (     0          0         -1      )       (  0.5000000 )

 cart.    s( 4) = (  1.0000000 -0.0000000  0.0000000 )    f =(  0.0000000 )
                  (  0.0000000  1.0000000  0.0000000 )       (  0.0000000 )
                  (  0.0000000  0.0000000 -1.0000000 )       (  0.6594328 )

   Cartesian axes

     site n.     atom                  positions (alat units)
         1           Cs  tau(   1) = (   0.5222343   0.1254120   0.3297164  )
         2           Cs  tau(   2) = (  -0.3933086   0.3657391   0.9891491  )
         3           Y   tau(   3) = (   0.0000000   0.0000000   0.0000000  )
         4           Y   tau(   4) = (   0.0000000   0.0000000   0.6594328  )
         5           Hg  tau(   5) = (  -0.0199507   0.2677338   0.3297164  )
         6           Hg  tau(   6) = (   0.1488763   0.2234173   0.9891491  )
         7           Se  tau(   7) = (  -0.7577359   0.4614001   0.3297164  )
         8           Se  tau(   8) = (   0.8866615   0.0297510   0.9891491  )
         9           Se  tau(   9) = (   0.2850176   0.1876806   0.7130895  )
        10           Se  tau(  10) = (   0.2850176   0.1876806   1.2652088  )
        11           Se  tau(  11) = (  -0.1560920   0.3034705   0.0536567  )
        12           Se  tau(  12) = (  -0.1560920   0.3034705   0.6057760  )

   Crystallographic axes

     site n.     atom                  positions (cryst. coord.)
         1           Cs  tau(   1) = (  0.7446570  0.2553430  0.2500000  )
         2           Cs  tau(   2) = (  0.2553430  0.7446570  0.7500000  )
         3           Y   tau(   3) = (  0.0000000  0.0000000  0.0000000  )
         4           Y   tau(   4) = (  0.0000000  0.0000000  0.5000000  )
         5           Hg  tau(   5) = (  0.4548850  0.5451150  0.2500000  )
         6           Hg  tau(   6) = (  0.5451150  0.4548850  0.7500000  )
         7           Se  tau(   7) = (  0.0605740  0.9394260  0.2500000  )
         8           Se  tau(   8) = (  0.9394260  0.0605740  0.7500000  )
         9           Se  tau(   9) = (  0.6178760  0.3821240  0.5406840  )
        10           Se  tau(  10) = (  0.6178760  0.3821240  0.9593160  )
        11           Se  tau(  11) = (  0.3821240  0.6178760  0.0406840  )
        12           Se  tau(  12) = (  0.3821240  0.6178760  0.4593160  )

     number of k points=    10
                       cart. coord. in units 2pi/alat
        k(    1) = (   0.0000000   0.0000000   0.0000000), wk =   0.0740741
        k(    2) = (   0.0000000   0.0000000   0.2527425), wk =   0.1481481
        k(    3) = (   0.0000000   0.6786777   0.0000000), wk =   0.1481481
        k(    4) = (   0.0000000   0.6786777   0.2527425), wk =   0.2962963
        k(    5) = (   0.3333333   0.5911788   0.0000000), wk =   0.1481481
        k(    6) = (   0.3333333   0.5911788   0.2527425), wk =   0.2962963
        k(    7) = (   0.3333333   1.2698566   0.0000000), wk =   0.1481481
        k(    8) = (   0.3333333   1.2698566   0.2527425), wk =   0.2962963
        k(    9) = (   0.3333333  -0.0874989   0.0000000), wk =   0.1481481
        k(   10) = (   0.3333333  -0.0874989   0.2527425), wk =   0.2962963

                       cryst. coord.
        k(    1) = (   0.0000000   0.0000000   0.0000000), wk =   0.0740741
        k(    2) = (   0.0000000   0.0000000   0.3333333), wk =   0.1481481
        k(    3) = (   0.0000000   0.3333333   0.0000000), wk =   0.1481481
        k(    4) = (   0.0000000   0.3333333   0.3333333), wk =   0.2962963
        k(    5) = (   0.3333333  -0.0000000   0.0000000), wk =   0.1481481
        k(    6) = (   0.3333333  -0.0000000   0.3333333), wk =   0.2962963
        k(    7) = (   0.3333333   0.3333333   0.0000000), wk =   0.1481481
        k(    8) = (   0.3333333   0.3333333   0.3333333), wk =   0.2962963
        k(    9) = (   0.3333333  -0.3333333   0.0000000), wk =   0.1481481
        k(   10) = (   0.3333333  -0.3333333   0.3333333), wk =   0.2962963

     Check: negative core charge=   -0.000001

     Initial potential from superposition of free atoms

     starting charge     115.9117, renormalised to     116.0000

     negative rho (up, down):  8.616E-02 0.000E+00
     Starting wfcs are   96 randomized atomic wfcs

     Self-consistent Calculation

     iteration #  1     ecut=    30.00 Ry     beta= 0.70
     Davidson diagonalization with overlap

     ethr =  1.00E-02,  avg # of iterations =  2.0

     Threshold (ethr) on eigenvalues was too large:
     Diagonalizing with lowered threshold

     Davidson diagonalization with overlap

[...]

     negative rho (up, down):  8.689E-02 0.000E+00

     total energy              =   -1183.25106404 Ry
     estimated scf accuracy    <       0.88120522 Ry

[...]

     total energy              =   -1183.68627056 Ry
     estimated scf accuracy    <       0.00000326 Ry

     iteration #  8     ecut=    30.00 Ry     beta= 0.70
     Davidson diagonalization with overlap

     ethr =  2.81E-09,  avg # of iterations =  5.9

     negative rho (up, down):  8.762E-02 0.000E+00

     End of self-consistent calculation

          k = 0.0000 0.0000 0.0000 (  7373 PWs)   bands (ev):

  -109.6528-109.6527 -57.5520 -57.5517 -57.4910 -57.4883 -57.4873 -57.4860
   -36.5509 -36.5508 -16.5878 -16.5779 -16.5051 -16.5021 -16.4468 -16.4467
   -15.3321 -15.3303  -6.3731  -6.0461  -5.8975  -5.8291  -5.7288  -5.5792
    -2.2270  -2.1619  -2.1391  -2.1280  -1.9463  -1.9402  -0.5762  -0.5315
    -0.5273  -0.4794  -0.4543  -0.4053  -0.4002  -0.3974  -0.3757  -0.3608
     1.5534   1.7161   2.9226   3.2364   3.3901   3.6683   4.2202   4.4293
     4.4744   4.5523   4.5680   4.9726   5.0652   5.1480   5.4368   5.6560
     5.7965   5.9118   7.2579   8.2699   8.3965   8.5020   8.9425   9.1746

     occupation numbers
     1.0000   1.0000   1.0000   1.0000   1.0000   1.0000   1.0000   1.0000
     1.0000   1.0000   1.0000   1.0000   1.0000   1.0000   1.0000   1.0000
     1.0000   1.0000   1.0000   1.0000   1.0000   1.0000   1.0000   1.0000
     1.0000   1.0000   1.0000   1.0000   1.0000   1.0000   1.0000   1.0000
     1.0000   1.0000   1.0000   1.0000   1.0000   1.0000   1.0000   1.0000
     1.0000   1.0000   1.0000   1.0000   1.0000   1.0000   1.0000   1.0000
     1.0000   1.0000   1.0000   1.0000   1.0000   1.0000   1.0000   1.0000
     1.0000   1.0000   0.0000   0.0000   0.0000   0.0000   0.0000   0.0000

[...]

          k = 0.3333-0.0875 0.2527 (  7409 PWs)   bands (ev):

  -109.6528-109.6528 -57.5541 -57.5522 -57.4924 -57.4910 -57.4904 -57.4899
   -36.5508 -36.5508 -16.5853 -16.5803 -16.5045 -16.5030 -16.4468 -16.4468
   -15.3315 -15.3307  -6.3266  -6.1696  -5.8397  -5.8190  -5.6794  -5.6282
    -2.1791  -2.1590  -2.1359  -2.1254  -1.9419  -1.9391  -0.5440  -0.5357
    -0.5326  -0.4981  -0.4663  -0.4205  -0.4157  -0.4009  -0.3963  -0.3778
     1.4819   1.5894   2.9632   3.0318   3.7448   3.8837   4.2820   4.3975
     4.4463   4.6856   4.7140   4.8729   4.9064   5.2396   5.3246   5.4028
     5.5395   5.7662   7.8164   8.1684   8.2439   8.3326   9.0594   9.1009

     occupation numbers
     1.0000   1.0000   1.0000   1.0000   1.0000   1.0000   1.0000   1.0000
     1.0000   1.0000   1.0000   1.0000   1.0000   1.0000   1.0000   1.0000
     1.0000   1.0000   1.0000   1.0000   1.0000   1.0000   1.0000   1.0000
     1.0000   1.0000   1.0000   1.0000   1.0000   1.0000   1.0000   1.0000
     1.0000   1.0000   1.0000   1.0000   1.0000   1.0000   1.0000   1.0000
     1.0000   1.0000   1.0000   1.0000   1.0000   1.0000   1.0000   1.0000
     1.0000   1.0000   1.0000   1.0000   1.0000   1.0000   1.0000   1.0000
     1.0000   1.0000   0.0000   0.0000   0.0000   0.0000   0.0000   0.0000

     highest occupied, lowest unoccupied level (ev):     5.9118    7.2579

!    total energy              =   -1183.68627324 Ry
     estimated scf accuracy    <       0.00000024 Ry

     The total energy is the sum of the following terms:
     one-electron contribution =    -727.96879834 Ry
     hartree contribution      =     387.46319318 Ry
     xc contribution           =    -337.69630455 Ry
     ewald contribution        =    -505.48436353 Ry

     convergence has been achieved in   8 iterations

     Writing all to output data dir calculations_bands/myprefix.save/

     General routines

     Parallel routines

   This run was terminated on:   8:10:41   7Jun2023

   JOB DONE.