     Program PWSCF v.7.1 starts on 14Jul2023 at 17:51:47

     Reading input from espresso_14517.pwi
Warning: card &CELL ignored
Warning: card / ignored

     Current dimensions of program PWSCF are:
     Max number of different atomic species (ntypx) = 10
     Max number of k-points (npk) =  40000
     Max angular momentum in pseudopotentials (lmaxx) =  4
     Message from routine setup:
     using ibrav=0 with symmetry is DISCOURAGED, use correct ibrav instead

     K-points division:     npool     =       2
     R & G space division:  proc/nbgrp/npool/nimage =       4
     Subspace diagonalization in iterative solution of the eigenvalue problem:
     a serial algorithm will be used

     Using Slab Decomposition

     bravais-lattice index     =            0
     lattice parameter (alat)  =       7.7789  a.u.
     unit-cell volume          =    1606.7679 (a.u.)^3
     number of atoms/cell      =           12
     number of atomic types    =            4
     number of electrons       =        96.00
     number of Kohn-Sham states=           64
     kinetic-energy cutoff     =      30.0000  Ry
     charge density cutoff     =     240.0000  Ry
     scf convergence threshold =      1.0E-06
     mixing beta               =       0.7000
     number of iterations used =            8  plain     mixing
     Exchange-correlation=  SLA  PW   PBX  PBC
                           (   1   4   3   4   0   0   0)

     celldm(1)=   7.778910  celldm(2)=   0.000000  celldm(3)=   0.000000
     celldm(4)=   0.000000  celldm(5)=   0.000000  celldm(6)=   0.000000

     crystal axes: (cart. coord. in units of alat)
               a(1) = (   1.000000   0.000000   0.000000 )
               a(2) = (   0.000000   1.000000   0.000000 )
               a(3) = (   0.000000   0.000000   3.413476 )

     reciprocal axes: (cart. coord. in units 2 pi/alat)
               b(1) = (  1.000000  0.000000  0.000000 )
               b(2) = (  0.000000  1.000000  0.000000 )
               b(3) = (  0.000000  0.000000  0.292956 )

     PseudoPot. # 1 for Sr read from file:
     /lustre07/scratch/pragov/crystal_structure_design/utils/SSSP/Sr_pbe_v1.uspp.F.UPF
     MD5 check sum: 6b418c05fbe9db5448babca5e47b7a5b
     Pseudo is Ultrasoft + core correction, Zval = 10.0
     Generated by new atomic code, or converted to UPF format
     Using radial grid of  883 points,  6 beta functions with:
                l(1) =   0
                l(2) =   0
                l(3) =   1
                l(4) =   1
                l(5) =   2
                l(6) =   2
     Q(r) pseudized with  6 coefficients,  rinner =    1.400   1.400   1.400
                                                       1.400   1.400

     PseudoPot. # 2 for Ca read from file:
     /lustre07/scratch/pragov/crystal_structure_design/utils/SSSP/Ca_pbe_v1.uspp.F.UPF
     MD5 check sum: 403a4c14b9e4d4dfdc3024c9a3812218
     Pseudo is Ultrasoft + core correction, Zval = 10.0
     Generated by new atomic code, or converted to UPF format
     Using radial grid of  845 points,  6 beta functions with:
                l(1) =   0
                l(2) =   0
                l(3) =   1
                l(4) =   1
                l(5) =   2
                l(6) =   2
     Q(r) pseudized with  8 coefficients,  rinner =    1.500   1.500   1.500
                                                       1.500   1.500

     PseudoPot. # 3 for Cl read from file:
     /lustre07/scratch/pragov/crystal_structure_design/utils/SSSP/cl_pbe_v1.4.uspp.F.UPF
     MD5 check sum: fc6f6913ecf08c9257cb748ef0700058
     Pseudo is Ultrasoft + core correction, Zval =  7.0
     Generated by new atomic code, or converted to UPF format
     Using radial grid of  909 points,  6 beta functions with:
                l(1) =   0
                l(2) =   0
                l(3) =   1
                l(4) =   1
                l(5) =   2
                l(6) =   2
     Q(r) pseudized with  8 coefficients,  rinner =    1.300   1.300   1.300
                                                       1.300   1.300

     PseudoPot. # 4 for F  read from file:
     /lustre07/scratch/pragov/crystal_structure_design/utils/SSSP/f_pbe_v1.4.uspp.F.UPF
     MD5 check sum: 4c38b6a325caf53ec0e86aed9459de46
     Pseudo is Ultrasoft, Zval =  7.0
     Generated by new atomic code, or converted to UPF format
     Using radial grid of  799 points,  4 beta functions with:
                l(1) =   0
                l(2) =   0
                l(3) =   1
                l(4) =   1
     Q(r) pseudized with  8 coefficients,  rinner =    0.950   0.950   0.950

     atomic species   valence    mass     pseudopotential
        Sr            10.00    87.62000     Sr( 1.00)
        Ca            10.00    40.07800     Ca( 1.00)
        Cl             7.00    35.45000     Cl( 1.00)
        F              7.00    18.99840     F ( 1.00)

      8 Sym. Ops. (no inversion) found

                                    s                        frac. trans.

      isym =  1     identity

 cryst.   s( 1) = (     1          0          0      )
                  (     0          1          0      )
                  (     0          0          1      )

 cart.    s( 1) = (  1.0000000  0.0000000  0.0000000 )
                  (  0.0000000  1.0000000  0.0000000 )
                  (  0.0000000  0.0000000  1.0000000 )

      isym =  2     180 deg rotation - cart. axis [0,0,1]

[...]

      isym =  4      90 deg rotation - cart. axis [0,0,1]

[...]

      isym =  5     inv. 180 deg rotation - cart. axis [0,1,0]

[...]

      isym =  8     inv. 180 deg rotation - cart. axis [1,-1,0]

 cryst.   s( 8) = (     0          1          0      )
                  (     1          0          0      )
                  (     0          0          1      )

 cart.    s( 8) = (  0.0000000  1.0000000  0.0000000 )
                  (  1.0000000  0.0000000  0.0000000 )
                  (  0.0000000  0.0000000  1.0000000 )

   Cartesian axes

     site n.     atom                  positions (alat units)
         1           Sr  tau(   1) = (   0.5000000   0.5000000   3.0717871  )
         2           Sr  tau(   2) = (   0.0000000   0.0000000   0.3634977  )
         3           Sr  tau(   3) = (   0.0000000   0.0000000   2.0328786  )
         4           Ca  tau(   4) = (   0.5000000   0.5000000   1.3771908  )
         5           Cl  tau(   5) = (   0.5000000   0.5000000   0.6367464  )
         6           Cl  tau(   6) = (   0.5000000   0.5000000   2.2977985  )
         7           Cl  tau(   7) = (   0.0000000   0.0000000   1.1152372  )
         8           Cl  tau(   8) = (   0.0000000   0.0000000   2.7928037  )
         9           F   tau(   9) = (   0.5000000   0.0000000   0.0064685  )
        10           F   tau(  10) = (   0.5000000   0.0000000   1.6832533  )
        11           F   tau(  11) = (   0.0000000   0.5000000   0.0064685  )
        12           F   tau(  12) = (   0.0000000   0.5000000   1.6832533  )

   Crystallographic axes

     site n.     atom                  positions (cryst. coord.)
         1           Sr  tau(   1) = (  0.5000000  0.5000000  0.8999000  )
         2           Sr  tau(   2) = (  0.0000000  0.0000000  0.1064890  )
         3           Sr  tau(   3) = (  0.0000000  0.0000000  0.5955450  )
         4           Ca  tau(   4) = (  0.5000000  0.5000000  0.4034570  )
         5           Cl  tau(   5) = (  0.5000000  0.5000000  0.1865390  )
         6           Cl  tau(   6) = (  0.5000000  0.5000000  0.6731550  )
         7           Cl  tau(   7) = (  0.0000000  0.0000000  0.3267160  )
         8           Cl  tau(   8) = (  0.0000000  0.0000000  0.8181700  )
         9           F   tau(   9) = (  0.5000000  0.0000000  0.0018950  )
        10           F   tau(  10) = (  0.5000000  0.0000000  0.4931200  )
        11           F   tau(  11) = (  0.0000000  0.5000000  0.0018950  )
        12           F   tau(  12) = (  0.0000000  0.5000000  0.4931200  )

     number of k points=     6
                       cart. coord. in units 2pi/alat
        k(    1) = (   0.0000000   0.0000000   0.0000000), wk =   0.0740741
        k(    2) = (   0.0000000   0.0000000   0.0976522), wk =   0.1481481
        k(    3) = (   0.0000000   0.3333333   0.0000000), wk =   0.2962963
        k(    4) = (   0.0000000   0.3333333   0.0976522), wk =   0.5925926
        k(    5) = (   0.3333333   0.3333333   0.0000000), wk =   0.2962963
        k(    6) = (   0.3333333   0.3333333   0.0976522), wk =   0.5925926

                       cryst. coord.
        k(    1) = (   0.0000000   0.0000000   0.0000000), wk =   0.0740741
        k(    2) = (   0.0000000   0.0000000   0.3333333), wk =   0.1481481
        k(    3) = (   0.0000000   0.3333333   0.0000000), wk =   0.2962963
        k(    4) = (   0.0000000   0.3333333   0.3333333), wk =   0.5925926
        k(    5) = (   0.3333333   0.3333333   0.0000000), wk =   0.2962963
        k(    6) = (   0.3333333   0.3333333   0.3333333), wk =   0.5925926

     Check: negative core charge=   -0.000003

     Initial potential from superposition of free atoms

     starting charge      95.8935, renormalised to      96.0000

     negative rho (up, down):  2.522E-01 0.000E+00
     Starting wfcs are   81 randomized atomic wfcs

     Self-consistent Calculation

     iteration #  1     ecut=    30.00 Ry     beta= 0.70
     Davidson diagonalization with overlap

     ethr =  1.00E-02,  avg # of iterations =  3.0

     negative rho (up, down):  2.584E-01 0.000E+00

     total energy              =    -614.63284619 Ry
     estimated scf accuracy    <       1.10406630 Ry

[...]

     total energy              =    -615.13302054 Ry
     estimated scf accuracy    <       0.00000308 Ry

     iteration #  8     ecut=    30.00 Ry     beta= 0.70
     Davidson diagonalization with overlap

     ethr =  3.20E-09,  avg # of iterations =  2.0

     negative rho (up, down):  2.623E-01 0.000E+00

     End of self-consistent calculation

          k = 0.0000 0.0000 0.0000 (  4479 PWs)   bands (ev):

   -33.9617 -27.7526 -27.7273 -27.6518 -16.8860 -16.5954 -16.3941 -16.2128
   -14.9117 -14.9117 -14.7747  -9.8575  -9.7542  -9.7542  -9.7369  -9.7369
    -9.6958  -9.6237  -9.6237  -9.5795  -8.2933  -8.2044  -8.0710  -7.7976
     1.2661   1.3049   1.3049   1.4414   1.5711   1.5711   1.7630   1.8766
     2.4125   2.4125   2.6196   2.6196   2.9341   3.3367   3.3367   3.3588
     3.5329   3.5329   3.7035   4.1434   4.1434   4.2903   4.4363   4.4363
    10.1390  10.2512  10.7586  10.9641  11.2609  11.2894  11.3643  11.7744
    11.7931  12.1363  12.3714  12.3861  12.3861  12.5635  12.5865  12.8849

     occupation numbers
     1.0000   1.0000   1.0000   1.0000   1.0000   1.0000   1.0000   1.0000
     1.0000   1.0000   1.0000   1.0000   1.0000   1.0000   1.0000   1.0000
     1.0000   1.0000   1.0000   1.0000   1.0000   1.0000   1.0000   1.0000
     1.0000   1.0000   1.0000   1.0000   1.0000   1.0000   1.0000   1.0000
     1.0000   1.0000   1.0000   1.0000   1.0000   1.0000   1.0000   1.0000
     1.0000   1.0000   1.0000   1.0000   1.0000   1.0000   1.0000   1.0000
     0.0000   0.0000   0.0000   0.0000   0.0000   0.0000   0.0000   0.0000
     0.0000   0.0000   0.0000   0.0000   0.0000   0.0000   0.0000   0.0000

[...]

          k = 0.3333 0.3333 0.0977 (  4459 PWs)   bands (ev):

   -33.9560 -27.7323 -27.7034 -27.6363 -16.8411 -16.7301 -16.5225 -16.4289
   -14.9646 -14.7317 -14.6993  -9.9478  -9.8655  -9.7726  -9.7660  -9.7418
    -9.7255  -9.6848  -9.5818  -9.5412  -8.1434  -8.0489  -8.0207  -7.8017
     0.9849   1.2878   1.3656   1.5847   1.7108   1.8028   1.9425   2.0480
     2.1753   2.4030   2.5089   2.6226   2.6463   2.7638   2.8451   2.9024
     3.3702   3.5144   3.6588   3.8449   3.9195   3.9707   4.1545   4.2651
    11.2401  11.4145  11.7290  11.8905  11.9835  12.0343  12.2159  12.2389
    12.5039  12.7573  12.8420  12.9837  13.0232  13.0920  13.1689  13.1789

     occupation numbers
     1.0000   1.0000   1.0000   1.0000   1.0000   1.0000   1.0000   1.0000
     1.0000   1.0000   1.0000   1.0000   1.0000   1.0000   1.0000   1.0000
     1.0000   1.0000   1.0000   1.0000   1.0000   1.0000   1.0000   1.0000
     1.0000   1.0000   1.0000   1.0000   1.0000   1.0000   1.0000   1.0000
     1.0000   1.0000   1.0000   1.0000   1.0000   1.0000   1.0000   1.0000
     1.0000   1.0000   1.0000   1.0000   1.0000   1.0000   1.0000   1.0000
     0.0000   0.0000   0.0000   0.0000   0.0000   0.0000   0.0000   0.0000
     0.0000   0.0000   0.0000   0.0000   0.0000   0.0000   0.0000   0.0000

     highest occupied, lowest unoccupied level (ev):     4.4363   10.1390

!    total energy              =    -615.13302147 Ry
     estimated scf accuracy    <       0.00000049 Ry

     The total energy is the sum of the following terms:
     one-electron contribution =    -219.02272558 Ry
     hartree contribution      =     154.23502317 Ry
     xc contribution           =    -142.55997213 Ry
     ewald contribution        =    -407.78534693 Ry

     convergence has been achieved in   8 iterations

     Writing all to output data dir bands_nm/myprefix.save/

     General routines

     Parallel routines

   This run was terminated on:  17:51:53  14Jul2023

   JOB DONE.