     Program PWSCF v.7.1 starts on 14Jul2023 at  2:51: 3

     Reading input from espresso_17837.pwi
Warning: card &CELL ignored
Warning: card / ignored

     Current dimensions of program PWSCF are:
     Max number of different atomic species (ntypx) = 10
     Max number of k-points (npk) =  40000
     Max angular momentum in pseudopotentials (lmaxx) =  4
     file Pb.pbe-dn-kjpaw_psl.0.2.2.UPF: wavefunction(s)  6S renormalized
     Message from routine setup:
     using ibrav=0 with symmetry is DISCOURAGED, use correct ibrav instead

     K-points division:     npool     =       2
     R & G space division:  proc/nbgrp/npool/nimage =       4
     Subspace diagonalization in iterative solution of the eigenvalue problem:
     a serial algorithm will be used

     Using Slab Decomposition

     bravais-lattice index     =            0
     lattice parameter (alat)  =      41.7854  a.u.
     unit-cell volume          =    2812.0706 (a.u.)^3
     number of atoms/cell      =            9
     number of atomic types    =            2
     number of electrons       =        84.00
     number of Kohn-Sham states=           64
     kinetic-energy cutoff     =      30.0000  Ry
     charge density cutoff     =     240.0000  Ry
     scf convergence threshold =      1.0E-06
     mixing beta               =       0.7000
     number of iterations used =            8  plain     mixing
     Exchange-correlation= SLA  PW   PBX  PBC
                           (   1   4   3   4   0   0   0)

     celldm(1)=  41.785399  celldm(2)=   0.000000  celldm(3)=   0.000000
     celldm(4)=   0.000000  celldm(5)=   0.000000  celldm(6)=   0.000000

     crystal axes: (cart. coord. in units of alat)
               a(1) = (   1.000000   0.000000   0.000000 )
               a(2) = (   0.977579   0.210571   0.000000 )
               a(3) = (   0.977579   0.104092   0.183044 )

     reciprocal axes: (cart. coord. in units 2 pi/alat)
               b(1) = (  1.000000 -4.642519 -2.700620 )
               b(2) = (  0.000000  4.748998 -2.700620 )
               b(3) = (  0.000000  0.000000  5.463180 )

     PseudoPot. # 1 for Pb read from file:
     /lustre07/scratch/pragov/crystal_structure_design/utils/SSSP/Pb.pbe-dn-kjpaw_psl.0.2.2.UPF
     MD5 check sum: 9d431e6316058b74ade52399a6cf67da
     Pseudo is Projector augmented-wave + core cor, Zval = 14.0
     Generated using "atomic" code by A. Dal Corso  v.5.0.99 svn rev. 10869
     Shape of augmentation charge: PSQ
     Using radial grid of 1281 points,  6 beta functions with:
                l(1) =   0
                l(2) =   0
                l(3) =   1
                l(4) =   1
                l(5) =   2
                l(6) =   2
     Q(r) pseudized with 0 coefficients

     PseudoPot. # 2 for I  read from file:
     /lustre07/scratch/pragov/crystal_structure_design/utils/SSSP/I.pbe-n-kjpaw_psl.0.2.UPF
     MD5 check sum: d4ef18d9c8f18dc85e5843bca1e50dc0
     Pseudo is Projector augmented-wave + core cor, Zval =  7.0
     Generated using "atomic" code by A. Dal Corso  v.5.0.99 svn rev. 10869
     Shape of augmentation charge: PSQ
     Using radial grid of 1247 points,  4 beta functions with:
                l(1) =   0
                l(2) =   0
                l(3) =   1
                l(4) =   1
     Q(r) pseudized with 0 coefficients

     atomic species   valence    mass     pseudopotential
        Pb            14.00   207.20000     Pb( 1.00)
        I              7.00   126.90447     I ( 1.00)

      2 Sym. Ops., with inversion, found

                                    s                        frac. trans.

      isym =  1     identity

 cryst.   s( 1) = (     1          0          0      )
                  (     0          1          0      )
                  (     0          0          1      )

 cart.    s( 1) = (  1.0000000  0.0000000  0.0000000 )
                  (  0.0000000  1.0000000  0.0000000 )
                  (  0.0000000  0.0000000  1.0000000 )

      isym =  2     inversion

 cryst.   s( 2) = (    -1          0          0      )
                  (     0         -1          0      )
                  (     0          0         -1      )

 cart.    s( 2) = ( -1.0000000  0.0000000  0.0000000 )
                  (  0.0000000 -1.0000000 -0.0000000 )
                  (  0.0000000  0.0000000 -1.0000000 )

   Cartesian axes

     site n.     atom                  positions (alat units)
         1           Pb  tau(   1) = (   0.0000000   0.0000000   0.0000000  )
         2           Pb  tau(   2) = (   1.6417080   0.1748076   0.1016880  )
         3           Pb  tau(   3) = (   1.3134492   0.1398549   0.0813556  )
         4           I   tau(   4) = (   0.2433365   0.0259102   0.0150724  )
         5           I   tau(   5) = (   0.9000847   0.0958402   0.0557516  )
         6           I   tau(   6) = (   2.3835914   0.2538026   0.1476406  )
         7           I   tau(   7) = (   0.5715658   0.0608598   0.0354030  )
         8           I   tau(   8) = (   2.7118207   0.2887522   0.1679712  )
         9           I   tau(   9) = (   2.0550725   0.2188222   0.1272920  )

   Crystallographic axes

     site n.     atom                  positions (cryst. coord.)
         1           Pb  tau(   1) = (  0.0000000  0.0000000  0.0000000  )
         2           Pb  tau(   2) = (  0.5555400  0.5555400  0.5555400  )
         3           Pb  tau(   3) = (  0.4444600  0.4444600  0.4444600  )
         4           I   tau(   4) = (  0.0823430  0.0823430  0.0823430  )
         5           I   tau(   5) = (  0.3045810  0.3045810  0.3045810  )
         6           I   tau(   6) = (  0.8065870  0.8065870  0.8065870  )
         7           I   tau(   7) = (  0.1934130  0.1934130  0.1934130  )
         8           I   tau(   8) = (  0.9176570  0.9176570  0.9176570  )
         9           I   tau(   9) = (  0.6954190  0.6954190  0.6954190  )

     number of k points=    14
                       cart. coord. in units 2pi/alat
        k(    1) = (   0.0000000   0.0000000   0.0000000), wk =   0.0740741
        k(    2) = (   0.0000000   0.0000000   1.8210599), wk =   0.1481481
        k(    3) = (   0.0000000   1.5829992  -0.9002065), wk =   0.1481481
        k(    4) = (   0.0000000   1.5829992   0.9208534), wk =   0.1481481
        k(    5) = (   0.0000000   1.5829992  -2.7212664), wk =   0.1481481
        k(    6) = (   0.3333333  -1.5475062  -0.9002065), wk =   0.1481481
        k(    7) = (   0.3333333  -1.5475062   0.9208534), wk =   0.1481481
        k(    8) = (   0.3333333  -1.5475062  -2.7212664), wk =   0.1481481
        k(    9) = (   0.3333333   0.0354930  -1.8004131), wk =   0.1481481
        k(   10) = (   0.3333333   0.0354930   0.0206468), wk =   0.1481481
        k(   11) = (   0.3333333   0.0354930  -3.6214730), wk =   0.1481481
        k(   12) = (   0.3333333  -3.1305054  -0.0000000), wk =   0.1481481
        k(   13) = (   0.3333333  -3.1305054   1.8210599), wk =   0.1481481
        k(   14) = (   0.3333333  -3.1305054  -1.8210599), wk =   0.1481481

                       cryst. coord.
        k(    1) = (   0.0000000   0.0000000   0.0000000), wk =   0.0740741
        k(    2) = (   0.0000000   0.0000000   0.3333333), wk =   0.1481481
        k(    3) = (   0.0000000   0.3333333   0.0000000), wk =   0.1481481
        k(    4) = (   0.0000000   0.3333333   0.3333333), wk =   0.1481481
        k(    5) = (   0.0000000   0.3333333  -0.3333333), wk =   0.1481481
        k(    6) = (   0.3333333   0.0000000   0.0000000), wk =   0.1481481
        k(    7) = (   0.3333333   0.0000000   0.3333333), wk =   0.1481481
        k(    8) = (   0.3333333   0.0000000  -0.3333333), wk =   0.1481481
        k(    9) = (   0.3333333   0.3333333   0.0000000), wk =   0.1481481
        k(   10) = (   0.3333333   0.3333333   0.3333333), wk =   0.1481481
        k(   11) = (   0.3333333   0.3333333  -0.3333333), wk =   0.1481481
        k(   12) = (   0.3333333  -0.3333333   0.0000000), wk =   0.1481481
        k(   13) = (   0.3333333  -0.3333333   0.3333333), wk =   0.1481481
        k(   14) = (   0.3333333  -0.3333333  -0.3333333), wk =   0.1481481

     Check: negative core charge=   -0.000001

     Initial potential from superposition of free atoms

     starting charge      83.9925, renormalised to      84.0000
     Starting wfcs are   51 randomized atomic wfcs +   13 random wfcs
     Checking if some PAW data can be deallocated...

     Self-consistent Calculation

     iteration #  1     ecut=    30.00 Ry     beta= 0.70
     Davidson diagonalization with overlap

     ethr =  1.00E-02,  avg # of iterations =  6.5

     Threshold (ethr) on eigenvalues was too large:
     Diagonalizing with lowered threshold

     Davidson diagonalization with overlap

[...]

     total energy              =   -4885.45191897 Ry
     estimated scf accuracy    <       0.22622123 Ry

[...]

     c_bands:  1 eigenvalues not converged
     ethr =  1.17E-05,  avg # of iterations = 10.6

[...]

     total energy              =   -4885.55753652 Ry
     estimated scf accuracy    <       0.00000122 Ry

     iteration #  9     ecut=    30.00 Ry     beta= 0.70
     Davidson diagonalization with overlap

     ethr =  1.46E-09,  avg # of iterations =  2.0

     End of self-consistent calculation

          k = 0.0000 0.0000 0.0000 (  7837 PWs)   bands (ev):

   -13.2798 -13.2797 -13.2797 -13.2797 -13.2789 -13.2788 -13.2706 -13.2706
   -13.2700 -13.2694 -13.2694 -13.2693 -13.2693 -13.2600 -13.2600  -8.9915
    -8.9198  -8.9167  -8.5295  -8.5248  -8.4297  -4.0189  -3.9504  -3.9444
     1.3534   1.3668   1.7886   1.8640   1.8640   1.8666   1.8666   1.9460
     1.9460   2.0593   2.0593   2.1534   2.1542   2.1542   2.1561   2.1561
     2.5960   2.6127   5.0851   5.0985   5.2480   5.9789   5.9790   6.0053
     6.0053   6.0573   6.0573   8.9443   9.3378   9.3422  10.0978  10.2021
    10.3730  10.3730  10.4218  10.4218  10.4361  10.6316  10.6316  10.9120

     occupation numbers
     1.0000   1.0000   1.0000   1.0000   1.0000   1.0000   1.0000   1.0000
     1.0000   1.0000   1.0000   1.0000   1.0000   1.0000   1.0000   1.0000
     1.0000   1.0000   1.0000   1.0000   1.0000   1.0000   1.0000   1.0000
     1.0000   1.0000   1.0000   1.0000   1.0000   1.0000   1.0000   1.0000
     1.0000   1.0000   1.0000   1.0000   1.0000   1.0000   1.0000   1.0000
     1.0000   1.0000   0.0000   0.0000   0.0000   0.0000   0.0000   0.0000
     0.0000   0.0000   0.0000   0.0000   0.0000   0.0000   0.0000   0.0000
     0.0000   0.0000   0.0000   0.0000   0.0000   0.0000   0.0000   0.0000

[...]

          k = 0.3333-3.1305-1.8211 (  7795 PWs)   bands (ev):

   -13.3002 -13.3002 -13.2913 -13.2777 -13.2777 -13.2755 -13.2755 -13.2688
   -13.2682 -13.2682 -13.2664 -13.2615 -13.2614 -13.2590 -13.2519  -8.6371
    -8.6339  -8.5762  -8.4028  -8.3398  -8.3350  -4.3233  -4.3137  -4.3077
     0.2407   0.3228   0.4372   0.9499   1.0303   1.1984   1.2413   1.3189
     1.3301   1.6215   1.8888   1.9722   2.0930   2.0978   2.1626   2.2688
     2.2763   2.4499   5.6541   5.7367   6.0035   6.4270   6.4829   6.6078
     6.6177   6.7547   6.8731   8.5239   8.6537   8.9154   9.9128  10.0822
    10.4283  10.4881  10.6508  10.9874  11.3754  11.4417  11.5205  11.7530

     occupation numbers
     1.0000   1.0000   1.0000   1.0000   1.0000   1.0000   1.0000   1.0000
     1.0000   1.0000   1.0000   1.0000   1.0000   1.0000   1.0000   1.0000
     1.0000   1.0000   1.0000   1.0000   1.0000   1.0000   1.0000   1.0000
     1.0000   1.0000   1.0000   1.0000   1.0000   1.0000   1.0000   1.0000
     1.0000   1.0000   1.0000   1.0000   1.0000   1.0000   1.0000   1.0000
     1.0000   1.0000   0.0000   0.0000   0.0000   0.0000   0.0000   0.0000
     0.0000   0.0000   0.0000   0.0000   0.0000   0.0000   0.0000   0.0000
     0.0000   0.0000   0.0000   0.0000   0.0000   0.0000   0.0000   0.0000

     highest occupied, lowest unoccupied level (ev):     2.6910    5.0464

!    total energy              =   -4885.55753661 Ry
     total all-electron energy =   -210690.127607 Ry
     estimated scf accuracy    <       0.00000025 Ry

     The total energy is the sum of the following terms:
     one-electron contribution =    -239.31465062 Ry
     hartree contribution      =     166.24604754 Ry
     xc contribution           =    -383.28178347 Ry
     ewald contribution        =    -320.63326002 Ry
     one-center paw contrib.   =   -4108.57389004 Ry
      -> PAW hartree energy AE =     193.31756424 Ry
      -> PAW hartree energy PS =    -192.89151616 Ry
      -> PAW xc energy AE      =   -1544.68783010 Ry
      -> PAW xc energy PS      =      87.31089101 Ry
      -> total E_H with PAW    =     166.67209562 Ry
      -> total E_XC with PAW   =   -1840.65872257 Ry

     convergence has been achieved in   9 iterations

     Writing all to output data dir bands_nm/myprefix.save/

     General routines

     Parallel routines

     PAW routines

   This run was terminated on:   2:53:25  14Jul2023

   JOB DONE.