     Program PWSCF v.7.1 starts on 17Jul2023 at  0:36:46

     Reading input from espresso_3617.pwi
Warning: card &CELL ignored
Warning: card / ignored

     Current dimensions of program PWSCF are:
     Max number of different atomic species (ntypx) = 10
     Max number of k-points (npk) =  40000
     Max angular momentum in pseudopotentials (lmaxx) =  4
     file O.pbe-n-kjpaw_psl.0.1.UPF: wavefunction(s)  2P renormalized
     Message from routine setup:
     using ibrav=0 with symmetry is DISCOURAGED, use correct ibrav instead

     K-points division:     npool     =       2
     R & G space division:  proc/nbgrp/npool/nimage =       4
     Subspace diagonalization in iterative solution of the eigenvalue problem:
     one sub-group per band group will be used

     Using Slab Decomposition

     bravais-lattice index     =            0
     lattice parameter (alat)  =       9.3682  a.u.
     unit-cell volume          =    1381.6096 (a.u.)^3
     number of atoms/cell      =           18
     number of atomic types    =            3
     number of electrons       =       170.00
     number of Kohn-Sham states=          256
     kinetic-energy cutoff     =      30.0000  Ry
     charge density cutoff     =     240.0000  Ry
     scf convergence threshold =      1.0E-06
     mixing beta               =       0.7000
     number of iterations used =            8  plain     mixing
     Exchange-correlation= SLA  PW   PBX  PBC
                           (   1   4   3   4   0   0   0)

     celldm(1)=   9.368158  celldm(2)=   0.000000  celldm(3)=   0.000000
     celldm(4)=   0.000000  celldm(5)=   0.000000  celldm(6)=   0.000000

     crystal axes: (cart. coord. in units of alat)
               a(1) = (   1.000000   0.000000   0.000000 )
               a(2) = (  -0.501408   0.865211   0.000000 )
               a(3) = (   0.000000   0.000000   1.942230 )

     reciprocal axes: (cart. coord. in units 2 pi/alat)
               b(1) = (  1.000000  0.579521  0.000000 )
               b(2) = (  0.000000  1.155787  0.000000 )
               b(3) = (  0.000000  0.000000  0.514872 )

     PseudoPot. # 1 for Mn read from file:
     /lustre07/scratch/pragov/crystal_structure_design/utils/SSSP/mn_pbe_v1.5.uspp.F.UPF
     MD5 check sum: 82ef2b46521d7a7d9e736dc3972e4928
     Pseudo is Ultrasoft + core correction, Zval = 15.0
     Generated by new atomic code, or converted to UPF format
     Using radial grid of  859 points,  6 beta functions with:
                l(1) =   0
                l(2) =   0
                l(3) =   1
                l(4) =   1
                l(5) =   2
                l(6) =   2
     Q(r) pseudized with  8 coefficients,  rinner =    0.950   0.950   0.950
                                                       0.950   0.950

     PseudoPot. # 2 for Co read from file:
     /lustre07/scratch/pragov/crystal_structure_design/utils/SSSP/Co_pbe_v1.2.uspp.F.UPF
     MD5 check sum: 5f91765df6ddd3222702df6e7b74a16d
     Pseudo is Ultrasoft + core correction, Zval = 17.0
     Generated by new atomic code, or converted to UPF format
     Using radial grid of  863 points,  6 beta functions with:
                l(1) =   0
                l(2) =   0
                l(3) =   1
                l(4) =   1
                l(5) =   2
                l(6) =   2
     Q(r) pseudized with  8 coefficients,  rinner =    1.200   1.200   1.200
                                                       1.200   1.200

     PseudoPot. # 3 for O  read from file:
     /lustre07/scratch/pragov/crystal_structure_design/utils/SSSP/O.pbe-n-kjpaw_psl.0.1.UPF
     MD5 check sum: 0234752ac141de4415c5fc33072bef88
     Pseudo is Projector augmented-wave + core cor, Zval =  6.0
     Generated using "atomic" code by A. Dal Corso  v.5.0.99 svn rev. 10869
     Shape of augmentation charge: BESSEL
     Using radial grid of 1095 points,  4 beta functions with:
                l(1) =   0
                l(2) =   0
                l(3) =   1
                l(4) =   1
     Q(r) pseudized with 0 coefficients

     atomic species   valence    mass     pseudopotential
        Mn            15.00    54.93804     Mn( 1.00)
        Co            17.00    58.93319     Co( 1.00)
        O              6.00    15.99900     O ( 1.00)

      4 Sym. Ops., with inversion, found ( 2 have fractional translation)

                                    s                        frac. trans.

      isym =  1     identity

 cryst.   s( 1) = (     1          0          0      )
                  (     0          1          0      )
                  (     0          0          1      )

 cart.    s( 1) = (  1.0000000  0.0000000  0.0000000 )
                  (  0.0000000  1.0000000  0.0000000 )
                  (  0.0000000  0.0000000  1.0000000 )

      isym =  2     180 deg rotation - cart. axis [0,0,1]

 cryst.   s( 2) = (    -1          0          0      )    f =(  0.5000000 )
                  (     0         -1          0      )       (  0.5000000 )
                  (     0          0          1      )       (  0.5000000 )

 cart.    s( 2) = ( -1.0000000  0.0000000  0.0000000 )    f =(  0.2492961 )
                  (  0.0000000 -1.0000000  0.0000000 )       (  0.4326056 )
                  (  0.0000000  0.0000000  1.0000000 )       (  0.9711150 )

      isym =  3     inversion

 cryst.   s( 3) = (    -1          0          0      )
                  (     0         -1          0      )
                  (     0          0         -1      )

 cart.    s( 3) = ( -1.0000000  0.0000000  0.0000000 )
                  (  0.0000000 -1.0000000  0.0000000 )
                  (  0.0000000  0.0000000 -1.0000000 )

      isym =  4     inv. 180 deg rotation - cart. axis [0,0,1]

 cryst.   s( 4) = (     1          0          0      )    f =(  0.5000000 )
                  (     0          1          0      )       (  0.5000000 )
                  (     0          0         -1      )       (  0.5000000 )

 cart.    s( 4) = (  1.0000000  0.0000000  0.0000000 )    f =(  0.2492961 )
                  (  0.0000000  1.0000000  0.0000000 )       (  0.4326056 )
                  (  0.0000000  0.0000000 -1.0000000 )       (  0.9711150 )

   Cartesian axes

     site n.     atom                  positions (alat units)
         1           Mn  tau(   1) = (   0.2492961   0.4326056   0.9711150  )
         2           Mn  tau(   2) = (   0.0000000   0.0000000   0.0000000  )
         3           Co  tau(   3) = (   0.7497348   0.1442194   0.9711150  )
         4           Co  tau(   4) = (  -0.0009690   0.5768250   0.0000000  )
         5           Co  tau(   5) = (   0.4995613   0.2883861   0.0000000  )
         6           Co  tau(   6) = (  -0.2511426   0.7209917   0.9711150  )
         7           O   tau(   7) = (   0.3296363   0.5720205   0.1919448  )
         8           O   tau(   8) = (   0.4182521   0.7257962   1.1630597  )
         9           O   tau(   9) = (   0.0803402   0.1394149   0.7791702  )
        10           O   tau(  10) = (   0.0795582   0.7254527   0.7792304  )
        11           O   tau(  11) = (   0.1689560   0.2931906   1.7502852  )
        12           O   tau(  12) = (   0.6615175   0.0000234   1.7503454  )
        13           O   tau(  13) = (   0.8302620   0.2928471   0.1918845  )
        14           O   tau(  14) = (  -0.0891864   0.4326289   1.1629995  )
        15           O   tau(  15) = (   0.4190341   0.1397584   1.1629995  )
        16           O   tau(  16) = (   0.5877787   0.4325822   0.7792304  )
        17           O   tau(  17) = (  -0.3316698   0.5723640   1.7503454  )
        18           O   tau(  18) = (  -0.1629252   0.8651878   0.1918845  )

   Crystallographic axes

     site n.     atom                  positions (cryst. coord.)
         1           Mn  tau(   1) = (  0.5000000  0.5000000  0.5000000  )
         2           Mn  tau(   2) = (  0.0000000  0.0000000  0.0000000  )
         3           Co  tau(   3) = (  0.8333130  0.1666870  0.5000000  )
         4           Co  tau(   4) = (  0.3333130  0.6666870  0.0000000  )
         5           Co  tau(   5) = (  0.6666870  0.3333130  0.0000000  )
         6           Co  tau(   6) = (  0.1666870  0.8333130  0.5000000  )
         7           O   tau(   7) = (  0.6611340  0.6611340  0.0988270  )
         8           O   tau(   8) = (  0.8388660  0.8388660  0.5988270  )
         9           O   tau(   9) = (  0.1611340  0.1611340  0.4011730  )
        10           O   tau(  10) = (  0.4999730  0.8384690  0.4012040  )
        11           O   tau(  11) = (  0.3388660  0.3388660  0.9011730  )
        12           O   tau(  12) = (  0.6615310  0.0000270  0.9012040  )
        13           O   tau(  13) = (  0.9999730  0.3384690  0.0987960  )
        14           O   tau(  14) = (  0.1615310  0.5000270  0.5987960  )
        15           O   tau(  15) = (  0.5000270  0.1615310  0.5987960  )
        16           O   tau(  16) = (  0.8384690  0.4999730  0.4012040  )
        17           O   tau(  17) = (  0.0000270  0.6615310  0.9012040  )
        18           O   tau(  18) = (  0.3384690  0.9999730  0.0987960  )

     number of k points=    10
                       cart. coord. in units 2pi/alat
        k(    1) = (   0.0000000   0.0000000   0.0000000), wk =   0.0740741
        k(    2) = (   0.0000000   0.0000000   0.1716240), wk =   0.1481481
        k(    3) = (   0.0000000   0.3852624   0.0000000), wk =   0.1481481
        k(    4) = (   0.0000000   0.3852624   0.1716240), wk =   0.2962963
        k(    5) = (   0.3333333   0.1931736   0.0000000), wk =   0.1481481
        k(    6) = (   0.3333333   0.1931736   0.1716240), wk =   0.2962963
        k(    7) = (   0.3333333   0.5784360   0.0000000), wk =   0.1481481
        k(    8) = (   0.3333333   0.5784360   0.1716240), wk =   0.2962963
        k(    9) = (   0.3333333  -0.1920889   0.0000000), wk =   0.1481481
        k(   10) = (   0.3333333  -0.1920889   0.1716240), wk =   0.2962963

                       cryst. coord.
        k(    1) = (   0.0000000   0.0000000   0.0000000), wk =   0.0740741
        k(    2) = (   0.0000000   0.0000000   0.3333333), wk =   0.1481481
        k(    3) = (   0.0000000   0.3333333   0.0000000), wk =   0.1481481
        k(    4) = (   0.0000000   0.3333333   0.3333333), wk =   0.2962963
        k(    5) = (   0.3333333   0.0000000   0.0000000), wk =   0.1481481
        k(    6) = (   0.3333333   0.0000000   0.3333333), wk =   0.2962963
        k(    7) = (   0.3333333   0.3333333   0.0000000), wk =   0.1481481
        k(    8) = (   0.3333333   0.3333333   0.3333333), wk =   0.2962963
        k(    9) = (   0.3333333  -0.3333333   0.0000000), wk =   0.1481481
        k(   10) = (   0.3333333  -0.3333333   0.3333333), wk =   0.2962963

     Check: negative core charge=   -0.000027

     Initial potential from superposition of free atoms

     starting charge     164.9998, renormalised to     170.0000
     Starting wfcs are  126 randomized atomic wfcs +  130 random wfcs
     Checking if some PAW data can be deallocated...

     Self-consistent Calculation

     iteration #  1     ecut=    30.00 Ry     beta= 0.70
     Davidson diagonalization with overlap

     ethr =  1.00E-02,  avg # of iterations =  6.0

     total energy              =   -2094.06544463 Ry
     estimated scf accuracy    <      30.78778761 Ry

[...]

     total energy              =   -2114.98032317 Ry
     estimated scf accuracy    <       0.00211472 Ry

     iteration # 20     ecut=    30.00 Ry     beta= 0.70
     Davidson diagonalization with overlap

     ethr =  8.94E-10,  avg # of iterations =  1.2

     End of self-consistent calculation

          k = 0.0000 0.0000 0.0000 (  3853 PWs)   bands (ev):

   -88.9842 -88.9839 -88.9789 -88.9787 -73.6295 -73.6294 -52.2592 -52.2585
   -52.2581 -52.2546 -52.2368 -52.2356 -52.2354 -52.2329 -52.1225 -52.1172
   -52.1115 -52.1103 -42.3608 -42.3605 -42.3510 -42.3505 -42.2367 -42.2343
   -12.9957 -12.9218 -11.3107 -11.3066 -11.2871 -11.2863 -11.1841 -11.1707
   -11.1609 -11.1487 -10.9743 -10.8516   0.9261   1.0916   1.1191   1.1688
     1.1890   1.2215   1.2377   1.2858   1.3091   1.3308   1.3442   1.3445
     1.3479   1.4947   1.5149   1.5458   1.9185   1.9427   3.3356   3.3581
     3.3761   3.4464   3.4589   3.5018   3.5038   3.5357   3.6455   3.6859
     3.9119   3.9251   4.4234   5.2038   5.2213   5.2310   5.2379   5.3502
     5.3565   5.3581   5.3609   5.4431   5.4539   5.4665   5.7656   5.7688
     6.3877   6.4190   6.4286   6.4616   6.7607   6.7939   6.8085   6.8162
     7.0056   7.1325   8.4684   8.5293   8.5809   8.6354   8.8194   8.8682
     8.9088   8.9565   9.5717   9.6005   9.6082   9.6323  13.6299  15.6653
    15.8788  17.2134  19.7658  19.8606  19.9803  20.0912  20.2211  20.4793
    20.5481  20.5495  20.6657  20.6812  20.8492  21.0774  21.4822  21.5273
    21.6500  21.7775  21.8372  21.9423  22.0294  22.0905  22.8967  23.0857
    23.3443  23.4999  23.7485  24.0026  24.5625  24.5746  26.0391  26.2509
    26.3375  26.3663  27.0912  27.2086  27.3377  27.5080  27.7024  28.4390
    29.4960  29.6734  30.1731  30.3944  30.6492  30.8950  30.9259  30.9758
    31.0292  31.0737  31.0786  31.2022  31.3327  31.4978  32.3543  32.5301
    32.6495  32.7337  33.1569  33.6109  33.8753  34.3428  34.6634  35.0208
    35.1405  35.4054  35.5592  35.6743  35.8206  35.9964  36.0854  36.5012
    37.5777  37.6245  37.8136  37.9389  37.9959  38.2828  38.2871  38.5497
    38.6173  39.4172  39.5570  39.9498  39.9593  40.0974  40.2078  40.4491
    40.5101  40.8971  41.3999  41.4177  41.4937  42.0578  42.0595  42.2982
    42.4562  43.1391  43.2724  43.7267  43.9146  43.9523  43.9946  44.0914
    44.1018  44.1019  44.3730  44.5852  44.6603  44.7875  45.3559  45.3571
    45.5839  45.6507  45.6519  45.8543  45.9410  46.9238  47.0495  47.1315
    47.1746  47.4651  48.0981  48.3319  48.7472  48.9036  49.2486  49.2852
    49.3336  49.7179  49.7357  49.7629  49.8584  49.8942  49.9700  50.1587
    50.1876  50.2229  50.2399  50.4426  50.4611  50.9005  51.1323  51.5427
    51.6684  51.9239  52.1284  52.8031  52.8129  52.8281  52.8639  52.8737

     occupation numbers
     1.0000   1.0000   1.0000   1.0000   1.0000   1.0000   1.0000   1.0000
     1.0000   1.0000   1.0000   1.0000   1.0000   1.0000   1.0000   1.0000
     1.0000   1.0000   1.0000   1.0000   1.0000   1.0000   1.0000   1.0000
     1.0000   1.0000   1.0000   1.0000   1.0000   1.0000   1.0000   1.0000
     1.0000   1.0000   1.0000   1.0000   1.0000   1.0000   1.0000   1.0000
     1.0000   1.0000   1.0000   1.0000   1.0000   1.0000   1.0000   1.0000
     1.0000   1.0000   1.0000   1.0000   1.0000   1.0000   1.0000   1.0000
     1.0000   1.0000   1.0000   1.0000   1.0000   1.0000   1.0000   1.0000
     1.0000   1.0000   1.0000   1.0000   1.0000   1.0000   1.0000   1.0000
     1.0000   1.0000   1.0000   1.0000   1.0000   1.0000   1.0000   1.0000
     1.0000   1.0000   1.0000   1.0000   1.0000   0.0000   0.0000   0.0000
     0.0000   0.0000   0.0000   0.0000   0.0000   0.0000   0.0000   0.0000
     0.0000   0.0000   0.0000   0.0000   0.0000   0.0000   0.0000   0.0000
     0.0000   0.0000   0.0000   0.0000   0.0000   0.0000   0.0000   0.0000
     0.0000   0.0000   0.0000   0.0000   0.0000   0.0000   0.0000   0.0000
     0.0000   0.0000   0.0000   0.0000   0.0000   0.0000   0.0000   0.0000
     0.0000   0.0000   0.0000   0.0000   0.0000   0.0000   0.0000   0.0000
     0.0000   0.0000   0.0000   0.0000   0.0000   0.0000   0.0000   0.0000
     0.0000   0.0000   0.0000   0.0000   0.0000   0.0000   0.0000   0.0000
     0.0000   0.0000   0.0000   0.0000   0.0000   0.0000   0.0000   0.0000
     0.0000   0.0000   0.0000   0.0000   0.0000   0.0000   0.0000   0.0000
     0.0000   0.0000   0.0000   0.0000   0.0000   0.0000   0.0000   0.0000
     0.0000   0.0000   0.0000   0.0000   0.0000   0.0000   0.0000   0.0000
     0.0000   0.0000   0.0000   0.0000   0.0000   0.0000   0.0000   0.0000
     0.0000   0.0000   0.0000   0.0000   0.0000   0.0000   0.0000   0.0000
     0.0000   0.0000   0.0000   0.0000   0.0000   0.0000   0.0000   0.0000
     0.0000   0.0000   0.0000   0.0000   0.0000   0.0000   0.0000   0.0000
     0.0000   0.0000   0.0000   0.0000   0.0000   0.0000   0.0000   0.0000
     0.0000   0.0000   0.0000   0.0000   0.0000   0.0000   0.0000   0.0000
     0.0000   0.0000   0.0000   0.0000   0.0000   0.0000   0.0000   0.0000
     0.0000   0.0000   0.0000   0.0000   0.0000   0.0000   0.0000   0.0000
     0.0000   0.0000   0.0000   0.0000   0.0000   0.0000   0.0000   0.0000

[...]

          k = 0.3333-0.1921 0.1716 (  3842 PWs)   bands (ev):

   -88.9829 -88.9828 -88.9799 -88.9799 -73.6294 -73.6294 -52.2598 -52.2594
   -52.2553 -52.2551 -52.2383 -52.2369 -52.2340 -52.2332 -52.1180 -52.1165
   -52.1128 -52.1111 -42.3596 -42.3594 -42.3525 -42.3518 -42.2356 -42.2338
   -12.5647 -12.5319 -11.7065 -11.6908 -11.3299 -11.3258 -11.2773 -11.2726
   -11.1020 -11.0868 -10.9826 -10.9379   0.3155   0.3824   1.0695   1.1210
     1.1384   1.1901   1.2151   1.2494   1.5868   1.5956   1.6112   1.6167
     1.6284   1.7821   2.2094   2.2394   2.4821   2.5623   2.8855   2.9123
     3.0219   3.0426   3.1148   3.1555   3.4329   3.4423   3.4701   3.4785
     3.9113   3.9179   4.3891   4.5344   4.7441   4.8595   5.3228   5.5221
     5.7410   5.7461   5.7919   5.8016   5.9501   5.9530   6.1104   6.1170
     6.2162   6.2247   6.3679   6.4104   6.6039   6.6299   6.8204   6.8676
     7.0112   7.0805   8.5087   8.5493   8.6389   8.6679   8.7844   8.8255
     8.8657   8.8726   9.3354   9.3446   9.4030   9.4034  15.2996  15.9115
    17.8206  17.8295  17.9969  18.3851  18.6181  19.0212  19.2810  19.3112
    20.0513  20.3259  20.4709  20.6160  20.9301  21.0114  21.3146  21.5545
    22.0309  22.3186  22.5777  22.8527  22.9768  23.0517  23.3268  23.6156
    23.7693  23.8389  24.3092  24.6715  24.9187  25.0601  25.2886  25.5602
    26.2099  26.3641  26.5744  26.8672  27.1980  27.4313  27.5036  27.9729
    28.1853  28.1902  28.4211  28.4786  29.4784  29.5031  29.9764  30.0627
    31.3895  31.6131  31.6970  32.0357  32.1494  32.1896  32.7267  32.7799
    33.5614  33.6012  34.3574  34.5138  34.5243  34.6925  34.8495  34.8555
    35.3336  35.6140  35.9875  36.1588  36.2597  36.6994  36.8126  36.9611
    37.4988  37.9373  38.0409  38.2020  38.3085  38.3912  38.6620  38.7053
    38.9221  39.0441  39.3388  39.6956  39.8723  40.2666  40.4408  40.8532
    41.2337  41.4251  41.4808  41.7068  41.8445  41.9987  42.2313  42.2737
    42.8480  42.8899  42.9066  43.0450  43.3551  43.3848  43.6515  43.8962
    44.1956  44.2125  44.4149  44.8176  44.9340  45.1470  45.2601  45.4783
    45.7511  45.8943  45.9517  46.1324  46.4460  46.6487  46.8258  46.9461
    47.0477  47.2123  47.4550  47.6195  47.6444  48.4681  48.5148  48.7408
    48.7914  48.8810  49.0207  49.3341  49.4228  49.9890  50.1618  50.3982
    50.5558  50.7591  50.8430  50.8664  51.1881  51.3788  51.8098  52.1108
    52.3217  52.6375  52.7973  52.9545  53.0690  53.1092  53.2956  53.4897

     occupation numbers
     1.0000   1.0000   1.0000   1.0000   1.0000   1.0000   1.0000   1.0000
     1.0000   1.0000   1.0000   1.0000   1.0000   1.0000   1.0000   1.0000
     1.0000   1.0000   1.0000   1.0000   1.0000   1.0000   1.0000   1.0000
     1.0000   1.0000   1.0000   1.0000   1.0000   1.0000   1.0000   1.0000
     1.0000   1.0000   1.0000   1.0000   1.0000   1.0000   1.0000   1.0000
     1.0000   1.0000   1.0000   1.0000   1.0000   1.0000   1.0000   1.0000
     1.0000   1.0000   1.0000   1.0000   1.0000   1.0000   1.0000   1.0000
     1.0000   1.0000   1.0000   1.0000   1.0000   1.0000   1.0000   1.0000
     1.0000   1.0000   1.0000   1.0000   1.0000   1.0000   1.0000   1.0000
     1.0000   1.0000   1.0000   1.0000   1.0000   1.0000   1.0000   1.0000
     1.0000   1.0000   1.0000   1.0000   1.0000   0.0000   0.0000   0.0000
     0.0000   0.0000   0.0000   0.0000   0.0000   0.0000   0.0000   0.0000
     0.0000   0.0000   0.0000   0.0000   0.0000   0.0000   0.0000   0.0000
     0.0000   0.0000   0.0000   0.0000   0.0000   0.0000   0.0000   0.0000
     0.0000   0.0000   0.0000   0.0000   0.0000   0.0000   0.0000   0.0000
     0.0000   0.0000   0.0000   0.0000   0.0000   0.0000   0.0000   0.0000
     0.0000   0.0000   0.0000   0.0000   0.0000   0.0000   0.0000   0.0000
     0.0000   0.0000   0.0000   0.0000   0.0000   0.0000   0.0000   0.0000
     0.0000   0.0000   0.0000   0.0000   0.0000   0.0000   0.0000   0.0000
     0.0000   0.0000   0.0000   0.0000   0.0000   0.0000   0.0000   0.0000
     0.0000   0.0000   0.0000   0.0000   0.0000   0.0000   0.0000   0.0000
     0.0000   0.0000   0.0000   0.0000   0.0000   0.0000   0.0000   0.0000
     0.0000   0.0000   0.0000   0.0000   0.0000   0.0000   0.0000   0.0000
     0.0000   0.0000   0.0000   0.0000   0.0000   0.0000   0.0000   0.0000
     0.0000   0.0000   0.0000   0.0000   0.0000   0.0000   0.0000   0.0000
     0.0000   0.0000   0.0000   0.0000   0.0000   0.0000   0.0000   0.0000
     0.0000   0.0000   0.0000   0.0000   0.0000   0.0000   0.0000   0.0000
     0.0000   0.0000   0.0000   0.0000   0.0000   0.0000   0.0000   0.0000
     0.0000   0.0000   0.0000   0.0000   0.0000   0.0000   0.0000   0.0000
     0.0000   0.0000   0.0000   0.0000   0.0000   0.0000   0.0000   0.0000
     0.0000   0.0000   0.0000   0.0000   0.0000   0.0000   0.0000   0.0000
     0.0000   0.0000   0.0000   0.0000   0.0000   0.0000   0.0000   0.0000

     highest occupied, lowest unoccupied level (ev):     6.7729    6.6182

!    total energy              =   -2114.98044455 Ry
     estimated scf accuracy    <       0.00000068 Ry

     The total energy is the sum of the following terms:
     one-electron contribution =   -1696.17029736 Ry
     hartree contribution      =     915.55336693 Ry
     xc contribution           =    -270.51874564 Ry
     ewald contribution        =    -949.41719561 Ry
     one-center paw contrib.   =    -114.42757286 Ry
      -> PAW hartree energy AE =       0.00000000 Ry
      -> PAW hartree energy PS =       0.00000000 Ry
      -> PAW xc energy AE      =       0.00000000 Ry
      -> PAW xc energy PS      =       0.00000000 Ry
      -> total E_H with PAW    =     915.55336693 Ry
      -> total E_XC with PAW   =    -270.51874564 Ry

     convergence has been achieved in  20 iterations

     Writing all to output data dir bands_nm/myprefix.save/

     General routines

     Parallel routines

     PAW routines

   This run was terminated on:   0:38:21  17Jul2023

   JOB DONE.