     Program PWSCF v.7.1 starts on 16Jul2023 at 13:47:26

     Reading input from espresso_26724.pwi
Warning: card &CELL ignored
Warning: card / ignored

     Current dimensions of program PWSCF are:
     Max number of different atomic species (ntypx) = 10
     Max number of k-points (npk) =  40000
     Max angular momentum in pseudopotentials (lmaxx) =  4
     file O.pbe-n-kjpaw_psl.0.1.UPF: wavefunction(s)  2P renormalized
     Message from routine setup:
     using ibrav=0 with symmetry is DISCOURAGED, use correct ibrav instead

     K-points division:     npool     =       2
     R & G space division:  proc/nbgrp/npool/nimage =       4
     Subspace diagonalization in iterative solution of the eigenvalue problem:
     a serial algorithm will be used

     Using Slab Decomposition

     bravais-lattice index     =            0
     lattice parameter (alat)  =      11.4931  a.u.
     unit-cell volume          =     936.1848 (a.u.)^3
     number of atoms/cell      =           10
     number of atomic types    =            3
     number of electrons       =        84.00
     number of Kohn-Sham states=           64
     kinetic-energy cutoff     =      30.0000  Ry
     charge density cutoff     =     240.0000  Ry
     scf convergence threshold =      1.0E-06
     mixing beta               =       0.7000
     number of iterations used =            8  plain     mixing
     Exchange-correlation= SLA  PW   PBX  PBC
                           (   1   4   3   4   0   0   0)

     celldm(1)=  11.493103  celldm(2)=   0.000000  celldm(3)=   0.000000
     celldm(4)=   0.000000  celldm(5)=   0.000000  celldm(6)=   0.000000

     crystal axes: (cart. coord. in units of alat)
               a(1) = (   1.000000   0.000000   0.000000 )
               a(2) = (   0.580512   0.814252   0.000000 )
               a(3) = (   0.580512   0.299069   0.757340 )

     reciprocal axes: (cart. coord. in units 2 pi/alat)
               b(1) = (  1.000000 -0.712939 -0.484978 )
               b(2) = (  0.000000  1.228121 -0.484978 )
               b(3) = (  0.000000  0.000000  1.320411 )

     PseudoPot. # 1 for Ca read from file:
     /lustre07/scratch/pragov/crystal_structure_design/utils/SSSP/Ca_pbe_v1.uspp.F.UPF
     MD5 check sum: 403a4c14b9e4d4dfdc3024c9a3812218
     Pseudo is Ultrasoft + core correction, Zval = 10.0
     Generated by new atomic code, or converted to UPF format
     Using radial grid of  845 points,  6 beta functions with:
                l(1) =   0
                l(2) =   0
                l(3) =   1
                l(4) =   1
                l(5) =   2
                l(6) =   2
     Q(r) pseudized with  8 coefficients,  rinner =    1.500   1.500   1.500
                                                       1.500   1.500

     PseudoPot. # 2 for Sn read from file:
     /lustre07/scratch/pragov/crystal_structure_design/utils/SSSP/Sn_pbe_v1.uspp.F.UPF
     MD5 check sum: 4cf58ce39ec5d5d420df3dd08604eb00
     Pseudo is Ultrasoft + core correction, Zval = 14.0
     Generated by new atomic code, or converted to UPF format
     Using radial grid of  891 points,  6 beta functions with:
                l(1) =   0
                l(2) =   0
                l(3) =   1
                l(4) =   1
                l(5) =   2
                l(6) =   2
     Q(r) pseudized with  6 coefficients,  rinner =    1.200   1.200   1.200
                                                       1.200   1.200

     PseudoPot. # 3 for O  read from file:
     /lustre07/scratch/pragov/crystal_structure_design/utils/SSSP/O.pbe-n-kjpaw_psl.0.1.UPF
     MD5 check sum: 0234752ac141de4415c5fc33072bef88
     Pseudo is Projector augmented-wave + core cor, Zval =  6.0
     Generated using "atomic" code by A. Dal Corso  v.5.0.99 svn rev. 10869
     Shape of augmentation charge: BESSEL
     Using radial grid of 1095 points,  4 beta functions with:
                l(1) =   0
                l(2) =   0
                l(3) =   1
                l(4) =   1
     Q(r) pseudized with 0 coefficients

     atomic species   valence    mass     pseudopotential
        Ca            10.00    40.07800     Ca( 1.00)
        Sn            14.00   118.71000     Sn( 1.00)
        O              6.00    15.99900     O ( 1.00)

      2 Sym. Ops., with inversion, found

                                    s                        frac. trans.

      isym =  1     identity

 cryst.   s( 1) = (     1          0          0      )
                  (     0          1          0      )
                  (     0          0          1      )

 cart.    s( 1) = (  1.0000000  0.0000000 -0.0000000 )
                  (  0.0000000  1.0000000  0.0000000 )
                  (  0.0000000  0.0000000  1.0000000 )

      isym =  2     inversion

 cryst.   s( 2) = (    -1          0          0      )
                  (     0         -1          0      )
                  (     0          0         -1      )

 cart.    s( 2) = ( -1.0000000  0.0000000  0.0000000 )
                  (  0.0000000 -1.0000000  0.0000000 )
                  (  0.0000000  0.0000000 -1.0000000 )

   Cartesian axes

     site n.     atom                  positions (alat units)
         1           Ca  tau(   1) = (   0.7838745   0.4038384   0.2747122  )
         2           Ca  tau(   2) = (   1.3771489   0.7094829   0.4826278  )
         3           Sn  tau(   3) = (   0.3333551   0.1717387   0.1168257  )
         4           Sn  tau(   4) = (   1.8276682   0.9415826   0.6405142  )
         5           O   tau(   5) = (   0.9239955   0.6552335   0.0271211  )
         6           O   tau(   6) = (   0.7528903   0.5980136   0.5994747  )
         7           O   tau(   7) = (   1.0699153   0.1618566   0.3360325  )
         8           O   tau(   8) = (   1.2370278   0.4580878   0.7302188  )
         9           O   tau(   9) = (   1.0911081   0.9514647   0.4213074  )
        10           O   tau(  10) = (   1.4081330   0.5153076   0.1578652  )

   Crystallographic axes

     site n.     atom                  positions (cryst. coord.)
         1           Ca  tau(   1) = (  0.3627330  0.3627330  0.3627330  )
         2           Ca  tau(   2) = (  0.6372670  0.6372670  0.6372670  )
         3           Sn  tau(   3) = (  0.1542580  0.1542580  0.1542580  )
         4           Sn  tau(   4) = (  0.8457420  0.8457420  0.8457420  )
         5           O   tau(   5) = (  0.4437010  0.7915530  0.0358110  )
         6           O   tau(   6) = (  0.0358110  0.4437010  0.7915530  )
         7           O   tau(   7) = (  0.7915530  0.0358110  0.4437010  )
         8           O   tau(   8) = (  0.5562990  0.2084470  0.9641890  )
         9           O   tau(   9) = (  0.2084470  0.9641890  0.5562990  )
        10           O   tau(  10) = (  0.9641890  0.5562990  0.2084470  )

     number of k points=    14
                       cart. coord. in units 2pi/alat
        k(    1) = (   0.0000000   0.0000000   0.0000000), wk =   0.0740741
        k(    2) = (   0.0000000   0.0000000   0.4401370), wk =   0.1481481
        k(    3) = (   0.0000000   0.4093737  -0.1616594), wk =   0.1481481
        k(    4) = (   0.0000000   0.4093737   0.2784776), wk =   0.1481481
        k(    5) = (   0.0000000   0.4093737  -0.6017965), wk =   0.1481481
        k(    6) = (   0.3333333  -0.2376463  -0.1616594), wk =   0.1481481
        k(    7) = (   0.3333333  -0.2376463   0.2784776), wk =   0.1481481
        k(    8) = (   0.3333333  -0.2376463  -0.6017965), wk =   0.1481481
        k(    9) = (   0.3333333   0.1717275  -0.3233189), wk =   0.1481481
        k(   10) = (   0.3333333   0.1717275   0.1168181), wk =   0.1481481
        k(   11) = (   0.3333333   0.1717275  -0.7634559), wk =   0.1481481
        k(   12) = (   0.3333333  -0.6470200  -0.0000000), wk =   0.1481481
        k(   13) = (   0.3333333  -0.6470200   0.4401370), wk =   0.1481481
        k(   14) = (   0.3333333  -0.6470200  -0.4401370), wk =   0.1481481

                       cryst. coord.
        k(    1) = (   0.0000000   0.0000000   0.0000000), wk =   0.0740741
        k(    2) = (   0.0000000   0.0000000   0.3333333), wk =   0.1481481
        k(    3) = (   0.0000000   0.3333333  -0.0000000), wk =   0.1481481
        k(    4) = (   0.0000000   0.3333333   0.3333333), wk =   0.1481481
        k(    5) = (   0.0000000   0.3333333  -0.3333333), wk =   0.1481481
        k(    6) = (   0.3333333   0.0000000  -0.0000000), wk =   0.1481481
        k(    7) = (   0.3333333   0.0000000   0.3333333), wk =   0.1481481
        k(    8) = (   0.3333333   0.0000000  -0.3333333), wk =   0.1481481
        k(    9) = (   0.3333333   0.3333333   0.0000000), wk =   0.1481481
        k(   10) = (   0.3333333   0.3333333   0.3333333), wk =   0.1481481
        k(   11) = (   0.3333333   0.3333333  -0.3333333), wk =   0.1481481
        k(   12) = (   0.3333333  -0.3333333  -0.0000000), wk =   0.1481481
        k(   13) = (   0.3333333  -0.3333333   0.3333333), wk =   0.1481481
        k(   14) = (   0.3333333  -0.3333333  -0.3333333), wk =   0.1481481

     Check: negative core charge=   -0.000011

     Initial potential from superposition of free atoms

     starting charge      81.9890, renormalised to      84.0000
     Starting wfcs are   62 randomized atomic wfcs +    2 random wfcs
     Checking if some PAW data can be deallocated...

     Self-consistent Calculation

     iteration #  1     ecut=    30.00 Ry     beta= 0.70
     Davidson diagonalization with overlap

     ethr =  1.00E-02,  avg # of iterations =  4.4

     total energy              =    -725.81165757 Ry
     estimated scf accuracy    <       1.96030628 Ry

[...]

     total energy              =    -726.73905177 Ry
     estimated scf accuracy    <       0.00000783 Ry

     iteration #  8     ecut=    30.00 Ry     beta= 0.70
     Davidson diagonalization with overlap

     ethr =  9.32E-09,  avg # of iterations =  2.0

     End of self-consistent calculation

          k = 0.0000 0.0000 0.0000 (  2579 PWs)   bands (ev):

   -30.2979 -30.2400 -12.6571 -12.6570 -12.4634 -12.4634 -12.1829 -12.1526
   -12.1011 -12.1011 -12.0630 -12.0630 -11.5756 -11.5756 -11.5595 -11.3488
   -11.2889 -11.2889 -10.1310  -8.5007  -8.3609  -8.3604  -7.7331  -7.7326
     0.9689   2.3354   3.6619   4.1033   4.1037   4.3908   4.3909   6.2329
     6.3063   6.4933   6.4935   6.5543   6.5549   6.8795   6.8798   6.9042
     6.9417   6.9418  10.0551  13.2299  13.9815  14.2184  14.2184  14.5881
    14.8237  14.8238  16.0839  16.2715  16.2919  16.2920  16.2921  16.2921
    17.6493  17.6495  17.7259  17.7259  17.8856  19.8800  20.4326  20.6014

     occupation numbers
     1.0000   1.0000   1.0000   1.0000   1.0000   1.0000   1.0000   1.0000
     1.0000   1.0000   1.0000   1.0000   1.0000   1.0000   1.0000   1.0000
     1.0000   1.0000   1.0000   1.0000   1.0000   1.0000   1.0000   1.0000
     1.0000   1.0000   1.0000   1.0000   1.0000   1.0000   1.0000   1.0000
     1.0000   1.0000   1.0000   1.0000   1.0000   1.0000   1.0000   1.0000
     1.0000   1.0000   0.0000   0.0000   0.0000   0.0000   0.0000   0.0000
     0.0000   0.0000   0.0000   0.0000   0.0000   0.0000   0.0000   0.0000
     0.0000   0.0000   0.0000   0.0000   0.0000   0.0000   0.0000   0.0000

[...]

          k = 0.3333-0.6470-0.4401 (  2608 PWs)   bands (ev):

   -30.2851 -30.2528 -12.7576 -12.6921 -12.3968 -12.3322 -12.1807 -12.1749
   -12.1244 -12.0879 -12.0532 -12.0339 -11.7137 -11.6368 -11.5292 -11.4464
   -11.2900 -11.2516  -9.4152  -8.8568  -8.6789  -8.4502  -7.7792  -7.5638
     1.2813   2.3363   3.5867   4.1868   4.2902   4.6260   4.9716   5.6827
     5.7951   5.9927   6.1617   6.4271   6.4966   6.6530   6.7154   6.9359
     7.0220   7.1014  11.7955  12.8051  13.8209  14.0250  14.2677  14.5455
    14.7004  15.0477  15.1635  15.4694  15.9178  16.4035  16.6722  16.9020
    17.0527  17.6645  18.2228  18.5688  18.6821  19.3124  19.7290  20.1803

     occupation numbers
     1.0000   1.0000   1.0000   1.0000   1.0000   1.0000   1.0000   1.0000
     1.0000   1.0000   1.0000   1.0000   1.0000   1.0000   1.0000   1.0000
     1.0000   1.0000   1.0000   1.0000   1.0000   1.0000   1.0000   1.0000
     1.0000   1.0000   1.0000   1.0000   1.0000   1.0000   1.0000   1.0000
     1.0000   1.0000   1.0000   1.0000   1.0000   1.0000   1.0000   1.0000
     1.0000   1.0000   0.0000   0.0000   0.0000   0.0000   0.0000   0.0000
     0.0000   0.0000   0.0000   0.0000   0.0000   0.0000   0.0000   0.0000
     0.0000   0.0000   0.0000   0.0000   0.0000   0.0000   0.0000   0.0000

     highest occupied, lowest unoccupied level (ev):     7.1797   10.0551

!    total energy              =    -726.73905344 Ry
     estimated scf accuracy    <       0.00000029 Ry

     The total energy is the sum of the following terms:
     one-electron contribution =    -227.39358755 Ry
     hartree contribution      =     167.72772144 Ry
     xc contribution           =    -164.32281330 Ry
     ewald contribution        =    -445.60654586 Ry
     one-center paw contrib.   =     -57.14382818 Ry
      -> PAW hartree energy AE =       0.00000000 Ry
      -> PAW hartree energy PS =       0.00000000 Ry
      -> PAW xc energy AE      =       0.00000000 Ry
      -> PAW xc energy PS      =       0.00000000 Ry
      -> total E_H with PAW    =     167.72772144 Ry
      -> total E_XC with PAW   =    -164.32281330 Ry

     convergence has been achieved in   8 iterations

     Writing all to output data dir bands_nm/myprefix.save/

     General routines

     Parallel routines

     PAW routines

   This run was terminated on:  13:47:44  16Jul2023

   JOB DONE.