     Program PWSCF v.7.1 starts on 15Jul2023 at 18:47:48

     Reading input from espresso_4916.pwi
Warning: card &CELL ignored
Warning: card / ignored

     Current dimensions of program PWSCF are:
     Max number of different atomic species (ntypx) = 10
     Max number of k-points (npk) =  40000
     Max angular momentum in pseudopotentials (lmaxx) =  4
     file Ce.paw.z_12.atompaw.wentzcovitch.v1.2.upf: wavefunction(s)  6S 0P 5D 0D 4F 0F renormalized
     file Tm.paw.z_23.atompaw.wentzcovitch.v1.2.upf: wavefunction(s)  6S 0P 5D 0D 4F 0F renormalized
     file O.pbe-n-kjpaw_psl.0.1.UPF: wavefunction(s)  2P renormalized
     Message from routine setup:
     using ibrav=0 with symmetry is DISCOURAGED, use correct ibrav instead

     K-points division:     npool     =       2
     R & G space division:  proc/nbgrp/npool/nimage =       4
     Subspace diagonalization in iterative solution of the eigenvalue problem:
     one sub-group per band group will be used

     Using Slab Decomposition

     bravais-lattice index     =            0
     lattice parameter (alat)  =      10.9785  a.u.
     unit-cell volume          =    1983.5856 (a.u.)^3
     number of atoms/cell      =           20
     number of atomic types    =            3
     number of electrons       =       212.00
     number of Kohn-Sham states=          256
     kinetic-energy cutoff     =      30.0000  Ry
     charge density cutoff     =     240.0000  Ry
     scf convergence threshold =      1.0E-06
     mixing beta               =       0.7000
     number of iterations used =            8  plain     mixing
     Exchange-correlation= SLA  PW   PBX  PBC
                           (   1   4   3   4   0   0   0)

     celldm(1)=  10.978487  celldm(2)=   0.000000  celldm(3)=   0.000000
     celldm(4)=   0.000000  celldm(5)=   0.000000  celldm(6)=   0.000000

     crystal axes: (cart. coord. in units of alat)
               a(1) = (   1.000000   0.000000   0.000000 )
               a(2) = (   0.000000   1.037352   0.000000 )
               a(3) = (   0.000000   0.000000   1.445098 )

     reciprocal axes: (cart. coord. in units 2 pi/alat)
               b(1) = (  1.000000  0.000000  0.000000 )
               b(2) = (  0.000000  0.963993  0.000000 )
               b(3) = (  0.000000  0.000000  0.691995 )

     PseudoPot. # 1 for Ce read from file:
     /lustre07/scratch/pragov/crystal_structure_design/utils/SSSP/Ce.paw.z_12.atompaw.wentzcovitch.v1.2.upf
     MD5 check sum: 2241420ff980c77e0c917a2dc8a7e08e
     Pseudo is Projector augmented-wave + core cor, Zval = 12.0
     Generated using ATOMPAW code
     Shape of augmentation charge: BESSEL
     Using radial grid of 1102 points,  8 beta functions with:
                l(1) =   0
                l(2) =   0
                l(3) =   1
                l(4) =   1
                l(5) =   2
                l(6) =   2
                l(7) =   3
                l(8) =   3
     Q(r) pseudized with 0 coefficients

     PseudoPot. # 2 for Tm read from file:
     /lustre07/scratch/pragov/crystal_structure_design/utils/SSSP/Tm.paw.z_23.atompaw.wentzcovitch.v1.2.upf
     MD5 check sum: 65ac1a59d66520b67f41930ed0a84655
     Pseudo is Projector augmented-wave + core cor, Zval = 23.0
     Generated using ATOMPAW code
     Shape of augmentation charge: BESSEL
     Using radial grid of 1116 points,  8 beta functions with:
                l(1) =   0
                l(2) =   0
                l(3) =   1
                l(4) =   1
                l(5) =   2
                l(6) =   2
                l(7) =   3
                l(8) =   3
     Q(r) pseudized with 0 coefficients

     PseudoPot. # 3 for O  read from file:
     /lustre07/scratch/pragov/crystal_structure_design/utils/SSSP/O.pbe-n-kjpaw_psl.0.1.UPF
     MD5 check sum: 0234752ac141de4415c5fc33072bef88
     Pseudo is Projector augmented-wave + core cor, Zval =  6.0
     Generated using "atomic" code by A. Dal Corso  v.5.0.99 svn rev. 10869
     Shape of augmentation charge: BESSEL
     Using radial grid of 1095 points,  4 beta functions with:
                l(1) =   0
                l(2) =   0
                l(3) =   1
                l(4) =   1
     Q(r) pseudized with 0 coefficients

     atomic species   valence    mass     pseudopotential
        Ce            12.00   140.11600     Ce( 1.00)
        Tm            23.00   168.93422     Tm( 1.00)
        O              6.00    15.99900     O ( 1.00)

      8 Sym. Ops., with inversion, found ( 6 have fractional translation)

                                    s                        frac. trans.

      isym =  1     identity

 cryst.   s( 1) = (     1          0          0      )
                  (     0          1          0      )
                  (     0          0          1      )

 cart.    s( 1) = (  1.0000000  0.0000000  0.0000000 )
                  (  0.0000000  1.0000000  0.0000000 )
                  (  0.0000000  0.0000000  1.0000000 )

      isym =  2     180 deg rotation - cart. axis [0,0,1]

 cryst.   s( 2) = (    -1          0          0      )    f =(  0.0000000 )
                  (     0         -1          0      )       (  0.0000000 )
                  (     0          0          1      )       ( -0.5000000 )

 cart.    s( 2) = ( -1.0000000  0.0000000  0.0000000 )    f =(  0.0000000 )
                  (  0.0000000 -1.0000000  0.0000000 )       (  0.0000000 )
                  (  0.0000000  0.0000000  1.0000000 )       ( -0.7225488 )

[...]

      isym =  4     180 deg rotation - cart. axis [1,0,0]

[...]

      isym =  5     inversion

 cryst.   s( 5) = (    -1          0          0      )
                  (     0         -1          0      )
                  (     0          0         -1      )

 cart.    s( 5) = ( -1.0000000  0.0000000  0.0000000 )
                  (  0.0000000 -1.0000000  0.0000000 )
                  (  0.0000000  0.0000000 -1.0000000 )

      isym =  6     inv. 180 deg rotation - cart. axis [0,0,1]

[...]

      isym =  8     inv. 180 deg rotation - cart. axis [1,0,0]

 cryst.   s( 8) = (    -1          0          0      )    f =( -0.5000000 )
                  (     0          1          0      )       ( -0.5000000 )
                  (     0          0          1      )       (  0.0000000 )

 cart.    s( 8) = ( -1.0000000  0.0000000  0.0000000 )    f =( -0.5000000 )
                  (  0.0000000  1.0000000  0.0000000 )       ( -0.5186762 )
                  (  0.0000000  0.0000000  1.0000000 )       (  0.0000000 )

   Cartesian axes

     site n.     atom                  positions (alat units)
         1           Ce  tau(   1) = (   0.0138700   0.4618853   0.3612744  )
         2           Ce  tau(   2) = (   0.9861300   0.5754671   1.0838233  )
         3           Ce  tau(   3) = (   0.5138700   0.0567909   1.0838233  )
         4           Ce  tau(   4) = (   0.4861300   0.9805615   0.3612744  )
         5           Tm  tau(   5) = (   0.0000000   0.0000000   0.0000000  )
         6           Tm  tau(   6) = (   0.5000000   0.5186762   0.0000000  )
         7           Tm  tau(   7) = (   0.0000000   0.0000000   0.7225488  )
         8           Tm  tau(   8) = (   0.5000000   0.5186762   0.7225488  )
         9           O   tau(   9) = (   0.3148340   0.1948905   0.0970311  )
        10           O   tau(  10) = (   0.6851660   0.8424619   1.3480666  )
        11           O   tau(  11) = (   0.8148340   0.3237857   1.3480666  )
        12           O   tau(  12) = (   0.6851660   0.8424619   0.8195799  )
        13           O   tau(  13) = (   0.1851660   0.7135667   0.0970311  )
        14           O   tau(  14) = (   0.3148340   0.1948905   0.6255178  )
        15           O   tau(  15) = (   0.1851660   0.7135667   0.6255178  )
        16           O   tau(  16) = (   0.8148340   0.3237857   0.8195799  )
        17           O   tau(  17) = (   0.6299610   0.5795812   0.3612744  )
        18           O   tau(  18) = (   0.3700390   0.4577712   1.0838233  )
        19           O   tau(  19) = (   0.1299610   0.9764473   1.0838233  )
        20           O   tau(  20) = (   0.8700390   0.0609050   0.3612744  )

   Crystallographic axes

     site n.     atom                  positions (cryst. coord.)
         1           Ce  tau(   1) = (  0.0138700  0.4452540  0.2500000  )
         2           Ce  tau(   2) = (  0.9861300  0.5547460  0.7500000  )
         3           Ce  tau(   3) = (  0.5138700  0.0547460  0.7500000  )
         4           Ce  tau(   4) = (  0.4861300  0.9452540  0.2500000  )
         5           Tm  tau(   5) = (  0.0000000  0.0000000  0.0000000  )
         6           Tm  tau(   6) = (  0.5000000  0.5000000  0.0000000  )
         7           Tm  tau(   7) = (  0.0000000  0.0000000  0.5000000  )
         8           Tm  tau(   8) = (  0.5000000  0.5000000  0.5000000  )
         9           O   tau(   9) = (  0.3148340  0.1878730  0.0671450  )
        10           O   tau(  10) = (  0.6851660  0.8121270  0.9328550  )
        11           O   tau(  11) = (  0.8148340  0.3121270  0.9328550  )
        12           O   tau(  12) = (  0.6851660  0.8121270  0.5671450  )
        13           O   tau(  13) = (  0.1851660  0.6878730  0.0671450  )
        14           O   tau(  14) = (  0.3148340  0.1878730  0.4328550  )
        15           O   tau(  15) = (  0.1851660  0.6878730  0.4328550  )
        16           O   tau(  16) = (  0.8148340  0.3121270  0.5671450  )
        17           O   tau(  17) = (  0.6299610  0.5587120  0.2500000  )
        18           O   tau(  18) = (  0.3700390  0.4412880  0.7500000  )
        19           O   tau(  19) = (  0.1299610  0.9412880  0.7500000  )
        20           O   tau(  20) = (  0.8700390  0.0587120  0.2500000  )

     number of k points=     8
                       cart. coord. in units 2pi/alat
        k(    1) = (   0.0000000   0.0000000   0.0000000), wk =   0.0740741
        k(    2) = (   0.0000000   0.0000000   0.2306649), wk =   0.1481481
        k(    3) = (   0.0000000   0.3213309   0.0000000), wk =   0.1481481
        k(    4) = (   0.0000000   0.3213309   0.2306649), wk =   0.2962963
        k(    5) = (   0.3333333   0.0000000   0.0000000), wk =   0.1481481
        k(    6) = (   0.3333333   0.0000000   0.2306649), wk =   0.2962963
        k(    7) = (   0.3333333   0.3213309   0.0000000), wk =   0.2962963
        k(    8) = (   0.3333333   0.3213309   0.2306649), wk =   0.5925926

                       cryst. coord.
        k(    1) = (   0.0000000   0.0000000   0.0000000), wk =   0.0740741
        k(    2) = (   0.0000000   0.0000000   0.3333333), wk =   0.1481481
        k(    3) = (   0.0000000   0.3333333   0.0000000), wk =   0.1481481
        k(    4) = (   0.0000000   0.3333333   0.3333333), wk =   0.2962963
        k(    5) = (   0.3333333   0.0000000   0.0000000), wk =   0.1481481
        k(    6) = (   0.3333333   0.0000000   0.3333333), wk =   0.2962963
        k(    7) = (   0.3333333   0.3333333   0.0000000), wk =   0.2962963
        k(    8) = (   0.3333333   0.3333333   0.3333333), wk =   0.5925926

     Check: negative core charge=   -0.000011

     Initial potential from superposition of free atoms

     starting charge     211.9546, renormalised to     212.0000
     Starting wfcs are  304 randomized atomic wfcs
     Checking if some PAW data can be deallocated...

     Self-consistent Calculation

     iteration #  1     ecut=    30.00 Ry     beta= 0.70
     Davidson diagonalization with overlap

     ethr =  1.00E-02,  avg # of iterations =  8.5

     total energy              =   -6205.17665167 Ry
     estimated scf accuracy    <       9.66116848 Ry

[...]

     c_bands:  1 eigenvalues not converged
     ethr =  5.62E-06,  avg # of iterations =  6.6

[...]

     total energy              =   -6215.62005562 Ry
     estimated scf accuracy    <       0.00004992 Ry

     iteration # 32     ecut=    30.00 Ry     beta= 0.70
     Davidson diagonalization with overlap

     ethr =  2.64E-09,  avg # of iterations =  1.0

     End of self-consistent calculation

          k = 0.0000 0.0000 0.0000 (  5503 PWs)   bands (ev):

   -36.0150 -36.0128 -36.0102 -36.0081 -21.3768 -21.3638 -21.3315 -21.3181
    -9.9535  -9.9091  -9.8520  -9.8173  -9.8168  -9.7406  -9.4014  -9.3878
    -9.3664  -9.3585  -9.3369  -9.3206  -6.2311  -6.2078  -6.1723  -5.7007
    -5.5553  -5.5259  -5.3913  -5.2525  -4.9192  -4.9140  -4.5428  -4.4028
    -4.0851  -3.7935  -3.7347  -3.4943  -3.4704  -3.2750  -2.9610  -2.7847
    -2.7453  -2.6960  -2.2992  -2.0917   7.7679   8.0226   8.0425   8.2075
     8.5311   8.6441   8.6931   8.8067   8.9160   8.9202   9.1314   9.1978
     9.2265   9.2926   9.3431   9.4556   9.4591   9.4656   9.4945   9.6263
     9.7381   9.8109   9.8630   9.8695   9.9644  10.0546  10.1236  10.2235
    10.2532  10.3070  10.3300  10.3661  10.4472  10.4486  10.5034  10.6638
    13.1076  13.1088  13.1208  13.1423  13.1491  13.1820  13.1846  13.1940
    13.2111  13.2193  13.2220  13.2351  13.2391  13.2804  13.2921  13.2948
    13.3006  13.3125  13.3258  13.3315  13.3565  13.3582  13.3609  13.3759
    13.4022  13.4062  13.4162  13.5063  13.5643  13.5663  13.5680  13.5842
    13.6269  13.6423  13.6514  13.6795  13.6962  13.6963  13.6979  13.7162
    13.7311  13.7750  13.7856  13.8056  13.8079  13.8444  13.8512  13.8535
    13.8933  13.8994  13.9276  13.9594  13.9814  14.0017  14.0044  14.0548
    16.1056  16.5932  16.6408  16.6706  16.6796  16.7333  16.8409  16.9984
    17.0226  17.1996  17.2462  17.8492  17.9977  18.0888  18.2310  18.2417
    18.3806  18.4616  19.0019  19.1686  19.1796  19.2325  19.3044  19.3687
    19.4214  19.4701  19.6134  19.9113  19.9319  20.1412  20.4633  20.7386
    21.0457  21.4479  21.6751  21.8284  22.2815  22.5180  22.6386  22.6703
    22.6874  23.6073  24.2501  24.4905  24.4961  24.5427  24.8187  24.8733
    24.9315  24.9899  25.0189  25.3852  25.5448  25.6793  25.8104  26.0401
    26.0653  26.5828  26.6650  26.7315  26.7687  26.9555  28.0767  28.6704
    28.7054  28.7953  28.9464  29.6841  29.7469  29.7705  29.9103  29.9213
    30.2431  30.2755  30.7956  30.9306  31.4532  31.6365  31.6921  31.7469
    31.7665  32.2539  32.7687  32.7927  32.8557  32.8597  33.1591  33.3786
    34.0606  34.1768  34.2666  34.7144  34.7338  34.9513  35.3356  35.4471
    35.4832  35.5246  35.8121  35.8767  35.9026  36.4500  36.5795  36.6148
    36.8328  36.9204  37.1779  37.3945  37.4478  37.4696  37.5443  37.8062
    37.9117  38.2949  38.4929  38.7158  38.8485  39.0843  39.2175  39.4358

     occupation numbers
     1.0000   1.0000   1.0000   1.0000   1.0000   1.0000   1.0000   1.0000
     1.0000   1.0000   1.0000   1.0000   1.0000   1.0000   1.0000   1.0000
     1.0000   1.0000   1.0000   1.0000   1.0000   1.0000   1.0000   1.0000
     1.0000   1.0000   1.0000   1.0000   1.0000   1.0000   1.0000   1.0000
     1.0000   1.0000   1.0000   1.0000   1.0000   1.0000   1.0000   1.0000
     1.0000   1.0000   1.0000   1.0000   1.0000   1.0000   1.0000   1.0000
     1.0000   1.0000   1.0000   1.0000   1.0000   1.0000   1.0000   1.0000
     1.0000   1.0000   1.0000   1.0000   1.0000   1.0000   1.0000   1.0000
     1.0000   1.0000   1.0000   1.0000   1.0000   1.0000   1.0000   1.0000
     1.0000   1.0000   1.0000   1.0000   1.0000   1.0000   1.0000   1.0000
     1.0000   1.0000   1.0000   1.0000   1.0000   1.0000   1.0000   1.0000
     1.0000   1.0000   1.0000   1.0000   1.0000   1.0000   1.0000   1.0000
     1.0000   1.0000   1.0000   1.0000   1.0000   1.0000   1.0000   1.0000
     1.0000   1.0000   0.0000   0.0000   0.0000   0.0000   0.0000   0.0000
     0.0000   0.0000   0.0000   0.0000   0.0000   0.0000   0.0000   0.0000
     0.0000   0.0000   0.0000   0.0000   0.0000   0.0000   0.0000   0.0000
     0.0000   0.0000   0.0000   0.0000   0.0000   0.0000   0.0000   0.0000
     0.0000   0.0000   0.0000   0.0000   0.0000   0.0000   0.0000   0.0000
     0.0000   0.0000   0.0000   0.0000   0.0000   0.0000   0.0000   0.0000
     0.0000   0.0000   0.0000   0.0000   0.0000   0.0000   0.0000   0.0000
     0.0000   0.0000   0.0000   0.0000   0.0000   0.0000   0.0000   0.0000
     0.0000   0.0000   0.0000   0.0000   0.0000   0.0000   0.0000   0.0000
     0.0000   0.0000   0.0000   0.0000   0.0000   0.0000   0.0000   0.0000
     0.0000   0.0000   0.0000   0.0000   0.0000   0.0000   0.0000   0.0000
     0.0000   0.0000   0.0000   0.0000   0.0000   0.0000   0.0000   0.0000
     0.0000   0.0000   0.0000   0.0000   0.0000   0.0000   0.0000   0.0000
     0.0000   0.0000   0.0000   0.0000   0.0000   0.0000   0.0000   0.0000
     0.0000   0.0000   0.0000   0.0000   0.0000   0.0000   0.0000   0.0000
     0.0000   0.0000   0.0000   0.0000   0.0000   0.0000   0.0000   0.0000
     0.0000   0.0000   0.0000   0.0000   0.0000   0.0000   0.0000   0.0000
     0.0000   0.0000   0.0000   0.0000   0.0000   0.0000   0.0000   0.0000
     0.0000   0.0000   0.0000   0.0000   0.0000   0.0000   0.0000   0.0000

[...]

          k = 0.3333 0.3213 0.2307 (  5501 PWs)   bands (ev):

   -36.0126 -36.0116 -36.0115 -36.0104 -21.3573 -21.3503 -21.3451 -21.3380
    -9.8794  -9.8742  -9.7921  -9.7704  -9.7342  -9.7067  -9.5320  -9.5036
    -9.4869  -9.4471  -9.3551  -9.3444  -6.1986  -6.1413  -5.9026  -5.8137
    -5.4829  -5.3861  -5.2380  -5.2113  -5.0321  -4.9873  -4.9158  -4.7680
    -3.7878  -3.7293  -3.5499  -3.4848  -3.3620  -3.1880  -2.9855  -2.8911
    -2.6044  -2.5399  -2.4056  -2.3539   8.1166   8.1884   8.2392   8.2934
     8.4312   8.5245   8.6407   8.7895   8.8739   8.9085   8.9836   9.0102
     9.0939   9.1376   9.2053   9.2664   9.3351   9.4225   9.4913   9.5600
     9.6310   9.6781   9.8073   9.8795   9.9577  10.0519  10.1032  10.1535
    10.2234  10.2892  10.3441  10.3671  10.4379  10.4577  10.5169  10.5836
    13.1617  13.1626  13.1805  13.1857  13.1868  13.1930  13.2014  13.2023
    13.2216  13.2250  13.2378  13.2421  13.2561  13.2632  13.2685  13.2814
    13.2870  13.3016  13.3033  13.3049  13.3106  13.3163  13.3206  13.3285
    13.3383  13.3439  13.3598  13.3803  13.5839  13.6037  13.6074  13.6231
    13.6380  13.6636  13.6837  13.6997  13.7031  13.7047  13.7320  13.7347
    13.7592  13.7764  13.7947  13.8016  13.8281  13.8368  13.8502  13.8622
    13.8680  13.8820  13.9126  13.9174  13.9400  13.9531  13.9695  13.9878
    16.3810  16.5070  16.5463  16.7247  16.8315  16.8527  17.0002  17.2183
    17.3980  17.4770  17.6553  17.7300  17.8460  18.0368  18.2917  18.3662
    18.5735  18.6187  18.6997  18.9906  19.2671  19.4324  19.4843  19.6555
    19.6792  19.7844  19.9923  20.0562  20.2804  20.3632  20.4959  20.7711
    20.8960  21.0718  21.4482  21.7968  22.2543  22.2831  22.6388  22.7119
    22.8736  23.0846  23.2543  23.3854  24.2807  24.3208  24.4832  24.5323
    24.8856  25.0441  25.5058  25.6820  25.6971  26.0756  26.2906  26.4837
    26.7836  27.0687  27.0970  27.2665  27.3644  27.5691  28.0890  28.1747
    28.3415  28.5059  28.7791  29.0515  29.3831  29.5319  29.6305  29.9181
    30.2056  30.4382  30.7182  30.7852  31.1000  31.4884  31.6999  31.9114
    32.0978  32.2251  32.5089  32.7022  33.0675  33.5250  33.5942  33.7965
    34.0298  34.0866  34.2325  34.3280  34.5690  34.7636  34.8028  35.1691
    35.4829  35.5778  35.6689  35.7050  35.9746  36.0755  36.3501  36.4398
    36.4578  36.6212  36.7659  36.8683  37.1607  37.3499  37.5330  37.7071
    37.9107  38.1721  38.2345  38.6306  38.7959  38.8620  38.9933  39.1520

     occupation numbers
     1.0000   1.0000   1.0000   1.0000   1.0000   1.0000   1.0000   1.0000
     1.0000   1.0000   1.0000   1.0000   1.0000   1.0000   1.0000   1.0000
     1.0000   1.0000   1.0000   1.0000   1.0000   1.0000   1.0000   1.0000
     1.0000   1.0000   1.0000   1.0000   1.0000   1.0000   1.0000   1.0000
     1.0000   1.0000   1.0000   1.0000   1.0000   1.0000   1.0000   1.0000
     1.0000   1.0000   1.0000   1.0000   1.0000   1.0000   1.0000   1.0000
     1.0000   1.0000   1.0000   1.0000   1.0000   1.0000   1.0000   1.0000
     1.0000   1.0000   1.0000   1.0000   1.0000   1.0000   1.0000   1.0000
     1.0000   1.0000   1.0000   1.0000   1.0000   1.0000   1.0000   1.0000
     1.0000   1.0000   1.0000   1.0000   1.0000   1.0000   1.0000   1.0000
     1.0000   1.0000   1.0000   1.0000   1.0000   1.0000   1.0000   1.0000
     1.0000   1.0000   1.0000   1.0000   1.0000   1.0000   1.0000   1.0000
     1.0000   1.0000   1.0000   1.0000   1.0000   1.0000   1.0000   1.0000
     1.0000   1.0000   0.0000   0.0000   0.0000   0.0000   0.0000   0.0000
     0.0000   0.0000   0.0000   0.0000   0.0000   0.0000   0.0000   0.0000
     0.0000   0.0000   0.0000   0.0000   0.0000   0.0000   0.0000   0.0000
     0.0000   0.0000   0.0000   0.0000   0.0000   0.0000   0.0000   0.0000
     0.0000   0.0000   0.0000   0.0000   0.0000   0.0000   0.0000   0.0000
     0.0000   0.0000   0.0000   0.0000   0.0000   0.0000   0.0000   0.0000
     0.0000   0.0000   0.0000   0.0000   0.0000   0.0000   0.0000   0.0000
     0.0000   0.0000   0.0000   0.0000   0.0000   0.0000   0.0000   0.0000
     0.0000   0.0000   0.0000   0.0000   0.0000   0.0000   0.0000   0.0000
     0.0000   0.0000   0.0000   0.0000   0.0000   0.0000   0.0000   0.0000
     0.0000   0.0000   0.0000   0.0000   0.0000   0.0000   0.0000   0.0000
     0.0000   0.0000   0.0000   0.0000   0.0000   0.0000   0.0000   0.0000
     0.0000   0.0000   0.0000   0.0000   0.0000   0.0000   0.0000   0.0000
     0.0000   0.0000   0.0000   0.0000   0.0000   0.0000   0.0000   0.0000
     0.0000   0.0000   0.0000   0.0000   0.0000   0.0000   0.0000   0.0000
     0.0000   0.0000   0.0000   0.0000   0.0000   0.0000   0.0000   0.0000
     0.0000   0.0000   0.0000   0.0000   0.0000   0.0000   0.0000   0.0000
     0.0000   0.0000   0.0000   0.0000   0.0000   0.0000   0.0000   0.0000
     0.0000   0.0000   0.0000   0.0000   0.0000   0.0000   0.0000   0.0000

     highest occupied, lowest unoccupied level (ev):    13.4062   13.3346

!    total energy              =   -6215.62005783 Ry
     total all-electron energy =     -7521.782767 Ry
     estimated scf accuracy    <       0.00000056 Ry

     The total energy is the sum of the following terms:
     one-electron contribution =   -1381.42131282 Ry
     hartree contribution      =     755.66600927 Ry
     xc contribution           =    -287.49187732 Ry
     ewald contribution        =   -1616.33312353 Ry
     one-center paw contrib.   =   -3686.03975344 Ry
      -> PAW hartree energy AE =     131.72150352 Ry
      -> PAW hartree energy PS =    -130.98706310 Ry
      -> PAW xc energy AE      =   -1251.38472778 Ry
      -> PAW xc energy PS      =      36.10132972 Ry
      -> total E_H with PAW    =     756.40044970 Ry
      -> total E_XC with PAW   =   -1502.77527538 Ry

     convergence has been achieved in  32 iterations

     Writing all to output data dir bands_nm/myprefix.save/

     General routines

     Parallel routines

     PAW routines

   This run was terminated on:  18:50: 8  15Jul2023

   JOB DONE.