     Program PWSCF v.7.1 starts on 14Jul2023 at 19: 8:27

     Reading input from espresso_21558.pwi
Warning: card &CELL ignored
Warning: card / ignored

     Current dimensions of program PWSCF are:
     Max number of different atomic species (ntypx) = 10
     Max number of k-points (npk) =  40000
     Max angular momentum in pseudopotentials (lmaxx) =  4
     file K.pbe-spn-kjpaw_psl.1.0.0.UPF: wavefunction(s)  3S renormalized
     file O.pbe-n-kjpaw_psl.0.1.UPF: wavefunction(s)  2P renormalized
     Message from routine setup:
     using ibrav=0 with symmetry is DISCOURAGED, use correct ibrav instead

     K-points division:     npool     =       2
     R & G space division:  proc/nbgrp/npool/nimage =       4
     Subspace diagonalization in iterative solution of the eigenvalue problem:
     a serial algorithm will be used

     Using Slab Decomposition

     bravais-lattice index     =            0
     lattice parameter (alat)  =      17.3117  a.u.
     unit-cell volume          =    1549.9275 (a.u.)^3
     number of atoms/cell      =            7
     number of atomic types    =            3
     number of electrons       =        56.00
     number of Kohn-Sham states=           64
     kinetic-energy cutoff     =      30.0000  Ry
     charge density cutoff     =     240.0000  Ry
     scf convergence threshold =      1.0E-06
     mixing beta               =       0.7000
     number of iterations used =            8  plain     mixing
     Exchange-correlation= SLA  PW   PBX  PBC
                           (   1   4   3   4   0   0   0)

     celldm(1)=  17.311679  celldm(2)=   0.000000  celldm(3)=   0.000000
     celldm(4)=   0.000000  celldm(5)=   0.000000  celldm(6)=   0.000000

     crystal axes: (cart. coord. in units of alat)
               a(1) = (   1.000000   0.000000   0.000000 )
               a(2) = (   0.673406   0.739273   0.000000 )
               a(3) = (  -0.836703  -0.369636   0.404100 )

     reciprocal axes: (cart. coord. in units 2 pi/alat)
               b(1) = (  1.000000 -0.910903  1.237317 )
               b(2) = (  0.000000  1.352681  1.237317 )
               b(3) = (  0.000000  0.000000  2.474634 )

     PseudoPot. # 1 for K  read from file:
     /lustre07/scratch/pragov/crystal_structure_design/utils/SSSP/K.pbe-spn-kjpaw_psl.1.0.0.UPF
     MD5 check sum: 7d58810084cac21f60fbe77ea2b688fd
     Pseudo is Projector augmented-wave + core cor, Zval =  9.0
     Generated using "atomic" code by A. Dal Corso  v.5.1
     Shape of augmentation charge: PSQ
     Using radial grid of 1165 points,  6 beta functions with:
                l(1) =   0
                l(2) =   0
                l(3) =   1
                l(4) =   1
                l(5) =   2
                l(6) =   2
     Q(r) pseudized with 0 coefficients

     PseudoPot. # 2 for Br read from file:
     /lustre07/scratch/pragov/crystal_structure_design/utils/SSSP/br_pbe_v1.4.uspp.F.UPF
     MD5 check sum: d3ffb7b29f6225aa16fe06858fb2a80b
     Pseudo is Ultrasoft + core correction, Zval =  7.0
     Generated by new atomic code, or converted to UPF format
     Using radial grid of  879 points,  6 beta functions with:
                l(1) =   0
                l(2) =   0
                l(3) =   1
                l(4) =   1
                l(5) =   2
                l(6) =   2
     Q(r) pseudized with  8 coefficients,  rinner =    1.100   1.100   1.100
                                                       1.100   1.100

     PseudoPot. # 3 for O  read from file:
     /lustre07/scratch/pragov/crystal_structure_design/utils/SSSP/O.pbe-n-kjpaw_psl.0.1.UPF
     MD5 check sum: 0234752ac141de4415c5fc33072bef88
     Pseudo is Projector augmented-wave + core cor, Zval =  6.0
     Generated using "atomic" code by A. Dal Corso  v.5.0.99 svn rev. 10869
     Shape of augmentation charge: BESSEL
     Using radial grid of 1095 points,  4 beta functions with:
                l(1) =   0
                l(2) =   0
                l(3) =   1
                l(4) =   1
     Q(r) pseudized with 0 coefficients

     atomic species   valence    mass     pseudopotential
        K              9.00    39.09830     K ( 1.00)
        Br             7.00    79.90400     Br( 1.00)
        O              6.00    15.99900     O ( 1.00)

      4 Sym. Ops., with inversion, found

                                    s                        frac. trans.

      isym =  1     identity

 cryst.   s( 1) = (     1          0          0      )
                  (     0          1          0      )
                  (     0          0          1      )

 cart.    s( 1) = (  1.0000000  0.0000000 -0.0000000 )
                  (  0.0000000  1.0000000  0.0000000 )
                  (  0.0000000  0.0000000  1.0000000 )

      isym =  2     180 deg rotation - cart. axis [0,0,1]

[...]

      isym =  3     inversion

[...]

      isym =  4     inv. 180 deg rotation - cart. axis [0,0,1]

 cryst.   s( 4) = (     1          0          0      )
                  (     0          1          0      )
                  (    -1         -1         -1      )

 cart.    s( 4) = (  1.0000000  0.0000000 -0.0000000 )
                  (  0.0000000  1.0000000 -0.0000000 )
                  (  0.0000000  0.0000000 -1.0000000 )

   Cartesian axes

     site n.     atom                  positions (alat units)
         1           K   tau(   1) = (   0.2586868   0.1142820   0.0000000  )
         2           K   tau(   2) = (   0.0816485  -0.1848182   0.2020501  )
         3           K   tau(   3) = (   1.4147192   0.6249909   0.0000000  )
         4           K   tau(   4) = (  -0.0816485   0.1848182   0.2020501  )
         5           Br  tau(   5) = (   0.5930082   0.2619776   0.0000000  )
         6           Br  tau(   6) = (   1.0803978   0.4772952   0.0000000  )
         7           O   tau(   7) = (   0.0000000   0.0000000   0.0000000  )

   Crystallographic axes

     site n.     atom                  positions (cryst. coord.)
         1           K   tau(   1) = (  0.1545870  0.1545870  0.0000000  )
         2           K   tau(   2) = (  0.5000000 -0.0000000  0.5000000  )
         3           K   tau(   3) = (  0.8454130  0.8454130  0.0000000  )
         4           K   tau(   4) = (  0.0000000  0.5000000  0.5000000  )
         5           Br  tau(   5) = (  0.3543720  0.3543720  0.0000000  )
         6           Br  tau(   6) = (  0.6456280  0.6456280  0.0000000  )
         7           O   tau(   7) = (  0.0000000  0.0000000  0.0000000  )

     number of k points=    10
                       cart. coord. in units 2pi/alat
        k(    1) = (   0.0000000   0.0000000   0.0000000), wk =   0.0740741
        k(    2) = (   0.0000000   0.0000000   0.8248779), wk =   0.1481481
        k(    3) = (   0.0000000   0.4508935   0.4124389), wk =   0.2962963
        k(    4) = (   0.0000000   0.4508935   1.2373168), wk =   0.1481481
        k(    5) = (   0.3333333  -0.3036344   0.4124389), wk =   0.2962963
        k(    6) = (   0.3333333  -0.3036344   1.2373168), wk =   0.1481481
        k(    7) = (   0.3333333   0.1472591   0.8248779), wk =   0.2962963
        k(    8) = (   0.3333333   0.1472591  -0.0000000), wk =   0.1481481
        k(    9) = (   0.3333333  -0.7545280   0.0000000), wk =   0.1481481
        k(   10) = (   0.3333333  -0.7545280   0.8248779), wk =   0.2962963

                       cryst. coord.
        k(    1) = (   0.0000000   0.0000000   0.0000000), wk =   0.0740741
        k(    2) = (   0.0000000   0.0000000   0.3333333), wk =   0.1481481
        k(    3) = (   0.0000000   0.3333333   0.0000000), wk =   0.2962963
        k(    4) = (   0.0000000   0.3333333   0.3333333), wk =   0.1481481
        k(    5) = (   0.3333333   0.0000000  -0.0000000), wk =   0.2962963
        k(    6) = (   0.3333333   0.0000000   0.3333333), wk =   0.1481481
        k(    7) = (   0.3333333   0.3333333  -0.0000000), wk =   0.2962963
        k(    8) = (   0.3333333   0.3333333  -0.3333333), wk =   0.1481481
        k(    9) = (   0.3333333  -0.3333333  -0.0000000), wk =   0.1481481
        k(   10) = (   0.3333333  -0.3333333   0.3333333), wk =   0.2962963

     Check: negative core charge=   -0.000005

     Initial potential from superposition of free atoms

     starting charge      55.9246, renormalised to      56.0000
     Starting wfcs are   44 randomized atomic wfcs +   20 random wfcs
     Checking if some PAW data can be deallocated...

     Self-consistent Calculation

     iteration #  1     ecut=    30.00 Ry     beta= 0.70
     Davidson diagonalization with overlap

     ethr =  1.00E-02,  avg # of iterations =  9.0

     total energy              =    -587.25794345 Ry
     estimated scf accuracy    <       1.36790269 Ry

[...]

     total energy              =    -587.93906456 Ry
     estimated scf accuracy    <       0.00000161 Ry

     iteration # 10     ecut=    30.00 Ry     beta= 0.70
     Davidson diagonalization with overlap

     ethr =  2.88E-09,  avg # of iterations =  2.1

     End of self-consistent calculation

          k = 0.0000 0.0000 0.0000 (  4323 PWs)   bands (ev):

   -26.7205 -26.7171 -25.9139 -25.8562 -11.3203 -11.3130 -11.1042 -10.2991
   -10.2991 -10.2981 -10.2981 -10.0936  -9.6987  -9.5835  -9.5835  -9.5304
    -9.5134  -9.1600  -9.1600   0.1279   0.5222   0.5222   0.6579   0.6579
     0.6622   3.5580   3.9729   3.9729   4.9675   7.0789   7.2217   7.5472
     7.6966   8.4053   8.4053   8.5002   9.2978   9.7996  10.3693  10.6217
    10.6217  10.9443  10.9443  11.3248  11.6021  11.7096  11.7096  11.8581
    11.8581  12.4093  12.6976  13.3205  13.3726  13.4436  14.1276  14.2617
    14.2617  14.5588  14.6935  14.6935  14.9256  15.9373  16.0081  16.1298

     occupation numbers
     1.0000   1.0000   1.0000   1.0000   1.0000   1.0000   1.0000   1.0000
     1.0000   1.0000   1.0000   1.0000   1.0000   1.0000   1.0000   1.0000
     1.0000   1.0000   1.0000   1.0000   1.0000   1.0000   1.0000   1.0000
     1.0000   1.0000   1.0000   1.0000   0.0000   0.0000   0.0000   0.0000
     0.0000   0.0000   0.0000   0.0000   0.0000   0.0000   0.0000   0.0000
     0.0000   0.0000   0.0000   0.0000   0.0000   0.0000   0.0000   0.0000
     0.0000   0.0000   0.0000   0.0000   0.0000   0.0000   0.0000   0.0000
     0.0000   0.0000   0.0000   0.0000   0.0000   0.0000   0.0000   0.0000

[...]

          k = 0.3333-0.7545 0.8249 (  4310 PWs)   bands (ev):

   -26.7186 -26.7181 -25.8991 -25.8703 -11.3735 -11.3335 -11.2399 -10.3043
   -10.2867 -10.2743 -10.2714 -10.1282  -9.7726  -9.5432  -9.5292  -9.5255
    -9.5122  -9.2058  -8.8397   0.1740   0.2511   0.4480   0.5478   0.5580
     0.5844   3.4174   3.4832   3.8934   6.5167   6.8777   7.6519   8.0174
     8.7239   8.9448   9.1248   9.1699   9.6144   9.6479   9.7416   9.9170
    10.0538  10.4217  10.7979  10.8926  11.0196  11.3276  11.7645  11.8788
    12.1570  12.1655  12.2224  12.7235  12.8017  13.0542  13.4751  13.5965
    14.1720  14.4678  14.5184  14.7548  15.2568  15.6236  15.7474  16.0935

     occupation numbers
     1.0000   1.0000   1.0000   1.0000   1.0000   1.0000   1.0000   1.0000
     1.0000   1.0000   1.0000   1.0000   1.0000   1.0000   1.0000   1.0000
     1.0000   1.0000   1.0000   1.0000   1.0000   1.0000   1.0000   1.0000
     1.0000   1.0000   1.0000   1.0000   0.0000   0.0000   0.0000   0.0000
     0.0000   0.0000   0.0000   0.0000   0.0000   0.0000   0.0000   0.0000
     0.0000   0.0000   0.0000   0.0000   0.0000   0.0000   0.0000   0.0000
     0.0000   0.0000   0.0000   0.0000   0.0000   0.0000   0.0000   0.0000
     0.0000   0.0000   0.0000   0.0000   0.0000   0.0000   0.0000   0.0000

     highest occupied, lowest unoccupied level (ev):     3.9729    4.9675

!    total energy              =    -587.93906496 Ry
     estimated scf accuracy    <       0.00000004 Ry

     The total energy is the sum of the following terms:
     one-electron contribution =    -151.02234549 Ry
     hartree contribution      =      95.97609804 Ry
     xc contribution           =    -105.00985915 Ry
     ewald contribution        =    -196.68862676 Ry
     one-center paw contrib.   =    -231.19433161 Ry
      -> PAW hartree energy AE =      37.74784971 Ry
      -> PAW hartree energy PS =     -37.53786087 Ry
      -> PAW xc energy AE      =     -66.22182626 Ry
      -> PAW xc energy PS      =      10.59536901 Ry
      -> total E_H with PAW    =      96.18608688 Ry
      -> total E_XC with PAW   =    -160.63631640 Ry

     convergence has been achieved in  10 iterations

     Writing all to output data dir bands_nm/myprefix.save/

     General routines

     Parallel routines

     PAW routines

   This run was terminated on:  19: 8:51  14Jul2023

   JOB DONE.