     Program PWSCF v.7.0 starts on  4Jun2023 at 18:41:25

     K-points division:     npool     =       2
     R & G space division:  proc/nbgrp/npool/nimage =       4

     Reading input from espresso_5113.pwi
Warning: card &CELL ignored
Warning: card / ignored

     Current dimensions of program PWSCF are:
     Max number of different atomic species (ntypx) = 10
     Max number of k-points (npk) =  40000
     Max angular momentum in pseudopotentials (lmaxx) =  4
     file Ga.pbe-dn-kjpaw_psl.1.0.0.UPF: wavefunction(s)  4S renormalized
     file O.pbe-n-kjpaw_psl.0.1.UPF: wavefunction(s)  2P renormalized
     Message from routine setup:
     using ibrav=0 with symmetry is DISCOURAGED, use correct ibrav instead

     Using Slab Decomposition

     bravais-lattice index     =            0
     lattice parameter (alat)  =       9.6907  a.u.
     unit-cell volume          =    1396.8466 (a.u.)^3
     number of atoms/cell      =           12
     number of atomic types    =            4
     number of electrons       =        86.00
     number of Kohn-Sham states=           64
     kinetic-energy cutoff     =      30.0000  Ry
     charge density cutoff     =     240.0000  Ry
     scf convergence threshold =      1.0E-06
     mixing beta               =       0.7000
     number of iterations used =            8  plain     mixing
     Exchange-correlation= SLA  PW   PBX  PBC
                           (   1   4   3   4   0   0   0)

     celldm(1)=   9.690709  celldm(2)=   0.000000  celldm(3)=   0.000000
     celldm(4)=   0.000000  celldm(5)=   0.000000  celldm(6)=   0.000000

     crystal axes: (cart. coord. in units of alat)
               a(1) = (   1.000000   0.000000   0.000000 )
               a(2) = (  -0.500000   0.866025   0.000000 )
               a(3) = (   0.000000   0.000000   1.772358 )

     reciprocal axes: (cart. coord. in units 2 pi/alat)
               b(1) = (  1.000000  0.577350  0.000000 )
               b(2) = (  0.000000  1.154701  0.000000 )
               b(3) = (  0.000000  0.000000  0.564220 )

     PseudoPot. # 1 for Tl read from file:
     /home/pragov/projects/rrg-bengioy-ad/pragov/crystal_structure_design/SSSP/Tl_pbe_v1.2.uspp.F.UPF
     MD5 check sum: b76cf1f7e72655a2b2c53cf6385d7059
     Pseudo is Ultrasoft + core correction, Zval = 13.0
     Generated by new atomic code, or converted to UPF format
     Using radial grid of  899 points,  6 beta functions with:
                l(1) =   0
                l(2) =   0
                l(3) =   1
                l(4) =   1
                l(5) =   2
                l(6) =   2
     Q(r) pseudized with  6 coefficients,  rinner =    1.100   1.100   1.100
                                                       1.100   1.100

     PseudoPot. # 2 for Ga read from file:
     /home/pragov/projects/rrg-bengioy-ad/pragov/crystal_structure_design/SSSP/Ga.pbe-dn-kjpaw_psl.1.0.0.UPF
     MD5 check sum: a27b4342b1af7e5f338de752e9ed7044
     Pseudo is Projector augmented-wave + core cor, Zval = 13.0
     Generated using "atomic" code by A. Dal Corso  v.5.1
     Shape of augmentation charge: PSQ
     Using radial grid of 1205 points,  6 beta functions with:
                l(1) =   0
                l(2) =   0
                l(3) =   1
                l(4) =   1
                l(5) =   2
                l(6) =   2
     Q(r) pseudized with 0 coefficients

     PseudoPot. # 3 for Se read from file:
     /home/pragov/projects/rrg-bengioy-ad/pragov/crystal_structure_design/SSSP/Se_pbe_v1.uspp.F.UPF
     MD5 check sum: 1b3568f3a8ae88f9a2a0ad0698632c85
     Pseudo is Ultrasoft + core correction, Zval =  6.0
     Generated by new atomic code, or converted to UPF format
     Using radial grid of  877 points,  6 beta functions with:
                l(1) =   0
                l(2) =   0
                l(3) =   1
                l(4) =   1
                l(5) =   2
                l(6) =   2
     Q(r) pseudized with  8 coefficients,  rinner =    1.300   1.300   1.300
                                                       1.300   1.300

     PseudoPot. # 4 for O  read from file:
     /home/pragov/projects/rrg-bengioy-ad/pragov/crystal_structure_design/SSSP/O.pbe-n-kjpaw_psl.0.1.UPF
     MD5 check sum: 0234752ac141de4415c5fc33072bef88
     Pseudo is Projector augmented-wave + core cor, Zval =  6.0
     Generated using "atomic" code by A. Dal Corso  v.5.0.99 svn rev. 10869
     Shape of augmentation charge: BESSEL
     Using radial grid of 1095 points,  4 beta functions with:
                l(1) =   0
                l(2) =   0
                l(3) =   1
                l(4) =   1
     Q(r) pseudized with 0 coefficients

     atomic species   valence    mass     pseudopotential
        Tl            13.00   204.38000     Tl( 1.00)
        Ga            13.00    69.72300     Ga( 1.00)
        Se             6.00    78.97100     Se( 1.00)
        O              6.00    15.99900     O ( 1.00)

      6 Sym. Ops. (no inversion) found

                                    s                        frac. trans.

      isym =  1     identity

 cryst.   s( 1) = (     1          0          0      )
                  (     0          1          0      )
                  (     0          0          1      )

 cart.    s( 1) = (  1.0000000  0.0000000  0.0000000 )
                  (  0.0000000  1.0000000  0.0000000 )
                  (  0.0000000  0.0000000  1.0000000 )

      isym =  2     180 deg rotation - cart. axis [1,0,0]

[...]

      isym =  3     120 deg rotation - cryst. axis [0,0,1]

[...]

      isym =  6     180 deg rotation - cryst. axis [1,1,0]

 cryst.   s( 6) = (     0          1          0      )
                  (     1          0          0      )
                  (     0          0         -1      )

 cart.    s( 6) = ( -0.5000001  0.8660254  0.0000000 )
                  (  0.8660254  0.5000001  0.0000000 )
                  (  0.0000000  0.0000000 -1.0000000 )

   Cartesian axes

     site n.     atom                  positions (alat units)
         1           Tl  tau(   1) = (   0.0000000   0.0000000   0.8861790  )
         2           Ga  tau(   2) = (   0.0000000   0.0000000   0.0000000  )
         3           Se  tau(   3) = (   0.5000005   0.2886748   1.4157560  )
         4           Se  tau(   4) = (  -0.0000005   0.5773505   0.3566020  )
         5           O   tau(   5) = (   0.8046075   0.2241646   1.5179502  )
         6           O   tau(   6) = (   0.2918285   0.0571326   1.5179502  )
         7           O   tau(   7) = (   0.3046075   0.6418608   0.2544078  )
         8           O   tau(   8) = (   0.4035640   0.5847282   1.5179502  )
         9           O   tau(   9) = (  -0.2081716   0.8088928   0.2544078  )
        10           O   tau(  10) = (  -0.0964360   0.2812972   0.2544078  )
        11           O   tau(  11) = (   0.5000005   0.2886748   1.0935839  )
        12           O   tau(  12) = (  -0.0000005   0.5773505   0.6787741  )

   Crystallographic axes

     site n.     atom                  positions (cryst. coord.)
         1           Tl  tau(   1) = (  0.0000000  0.0000000  0.5000000  )
         2           Ga  tau(   2) = (  0.0000000  0.0000000  0.0000000  )
         3           Se  tau(   3) = (  0.6666670  0.3333330  0.7987980  )
         4           Se  tau(   4) = (  0.3333330  0.6666670  0.2012020  )
         5           O   tau(   5) = (  0.9340290  0.2588430  0.8564580  )
         6           O   tau(   6) = (  0.3248140  0.0659710  0.8564580  )
         7           O   tau(   7) = (  0.6751860  0.7411570  0.1435420  )
         8           O   tau(   8) = (  0.7411570  0.6751860  0.8564580  )
         9           O   tau(   9) = (  0.2588430  0.9340290  0.1435420  )
        10           O   tau(  10) = (  0.0659710  0.3248140  0.1435420  )
        11           O   tau(  11) = (  0.6666670  0.3333330  0.6170220  )
        12           O   tau(  12) = (  0.3333330  0.6666670  0.3829780  )

     number of k points=     7
                       cart. coord. in units 2pi/alat
        k(    1) = (   0.0000000   0.0000000   0.0000000), wk =   0.0740741
        k(    2) = (   0.0000000   0.0000000   0.1880734), wk =   0.1481481
        k(    3) = (   0.0000000   0.3849002   0.0000000), wk =   0.4444444
        k(    4) = (   0.0000000   0.3849002   0.1880734), wk =   0.4444444
        k(    5) = (   0.3333333   0.5773503   0.0000000), wk =   0.1481481
        k(    6) = (   0.3333333   0.5773503   0.1880734), wk =   0.2962963
        k(    7) = (   0.0000000   0.3849002  -0.1880734), wk =   0.4444444

                       cryst. coord.
        k(    1) = (   0.0000000   0.0000000   0.0000000), wk =   0.0740741
        k(    2) = (   0.0000000   0.0000000   0.3333333), wk =   0.1481481
        k(    3) = (   0.0000000   0.3333333   0.0000000), wk =   0.4444444
        k(    4) = (   0.0000000   0.3333333   0.3333333), wk =   0.4444444
        k(    5) = (   0.3333333   0.3333333   0.0000000), wk =   0.1481481
        k(    6) = (   0.3333333   0.3333333   0.3333333), wk =   0.2962963
        k(    7) = (   0.0000000   0.3333333  -0.3333333), wk =   0.4444444

     Check: negative core charge=   -0.000010

     Initial potential from superposition of free atoms

     starting charge      85.9920, renormalised to      86.0000

     negative rho (up, down):  5.026E-02 0.000E+00
     Starting wfcs are   58 randomized atomic wfcs +    6 random wfcs
     Checking if some PAW data can be deallocated...

     Self-consistent Calculation

     iteration #  1     ecut=    30.00 Ry     beta= 0.70
     Davidson diagonalization with overlap

     ethr =  1.00E-02,  avg # of iterations =  5.9

     negative rho (up, down):  5.005E-02 0.000E+00

     total energy              =    -841.05640058 Ry
     estimated scf accuracy    <       2.92755683 Ry

[...]

     total energy              =    -842.42844670 Ry
     estimated scf accuracy    <       0.00000392 Ry

     iteration #  8     ecut=    30.00 Ry     beta= 0.70
     Davidson diagonalization with overlap

     ethr =  4.56E-09,  avg # of iterations =  3.7

     negative rho (up, down):  4.952E-02 0.000E+00

     End of self-consistent calculation

          k = 0.0000 0.0000 0.0000 (  3899 PWs)   bands (ev):

   -18.7330 -18.5756 -15.4874 -15.4874 -15.3162 -15.3161 -15.2249 -15.0486
   -11.3534 -11.3534 -11.3421 -11.2957 -11.2957  -8.5954  -7.7521  -6.2319
    -6.2195  -6.2195  -6.1955  -6.1955  -3.8014  -3.8013  -2.7564  -2.7564
    -2.7370  -2.5240  -1.5507   0.1019   0.3429   0.3429   0.4808   0.4808
     0.5320   1.1730   1.1730   1.2529   1.2529   1.2712   1.5017   1.7777
     1.7777   2.3395   2.3395   5.0779   6.1192   7.7035   8.8365   8.8365
     9.2904   9.5591   9.5591  10.1478  10.4111  10.5524  10.5524  11.1329
    12.7956  13.1471  13.1471  14.2978  14.5781  14.5782  14.9477  15.5422

     occupation numbers
     1.0000   1.0000   1.0000   1.0000   1.0000   1.0000   1.0000   1.0000
     1.0000   1.0000   1.0000   1.0000   1.0000   1.0000   1.0000   1.0000
     1.0000   1.0000   1.0000   1.0000   1.0000   1.0000   1.0000   1.0000
     1.0000   1.0000   1.0000   1.0000   1.0000   1.0000   1.0000   1.0000
     1.0000   1.0000   1.0000   1.0000   1.0000   1.0000   1.0000   1.0000
     1.0000   1.0000   1.0000   0.0000   0.0000   0.0000   0.0000   0.0000
     0.0000   0.0000   0.0000   0.0000   0.0000   0.0000   0.0000   0.0000
     0.0000   0.0000   0.0000   0.0000   0.0000   0.0000   0.0000   0.0000

[...]

          k = 0.0000 0.3849-0.1881 (  3874 PWs)   bands (ev):

   -18.6000 -18.5244 -15.8328 -15.5630 -15.4419 -15.3884 -15.0593 -15.0314
   -11.4450 -11.3902 -11.3498 -11.3222 -11.2973  -7.7631  -7.1722  -6.2252
    -6.2217  -6.2163  -6.1820  -6.1792  -4.7194  -3.7112  -3.2696  -2.7264
    -2.4361  -2.3663  -0.8782  -0.5518  -0.1147   0.0974   0.2556   0.3762
     0.6582   0.8480   0.9724   1.1068   1.3567   1.5945   1.6435   1.7932
     1.9565   2.1641   2.3100   5.9302   6.5358   8.0068   8.1224   8.2714
     9.0246   9.7561   9.9282  10.0977  10.2737  10.3610  11.1291  11.8666
    12.3376  12.6201  13.2886  14.3434  15.0341  15.0915  15.4451  15.6684

     occupation numbers
     1.0000   1.0000   1.0000   1.0000   1.0000   1.0000   1.0000   1.0000
     1.0000   1.0000   1.0000   1.0000   1.0000   1.0000   1.0000   1.0000
     1.0000   1.0000   1.0000   1.0000   1.0000   1.0000   1.0000   1.0000
     1.0000   1.0000   1.0000   1.0000   1.0000   1.0000   1.0000   1.0000
     1.0000   1.0000   1.0000   1.0000   1.0000   1.0000   1.0000   1.0000
     1.0000   1.0000   1.0000   0.0000   0.0000   0.0000   0.0000   0.0000
     0.0000   0.0000   0.0000   0.0000   0.0000   0.0000   0.0000   0.0000
     0.0000   0.0000   0.0000   0.0000   0.0000   0.0000   0.0000   0.0000

     highest occupied, lowest unoccupied level (ev):     2.3508    5.0224

!    total energy              =    -842.42844808 Ry
     estimated scf accuracy    <       0.00000042 Ry

     The total energy is the sum of the following terms:
     one-electron contribution =    -385.33136609 Ry
     hartree contribution      =     245.39651966 Ry
     xc contribution           =    -219.07827135 Ry
     ewald contribution        =    -296.13226526 Ry
     one-center paw contrib.   =    -187.28306505 Ry
      -> PAW hartree energy AE =     136.07274506 Ry
      -> PAW hartree energy PS =    -133.97228399 Ry
      -> PAW xc energy AE      =    -150.52681457 Ry
      -> PAW xc energy PS      =      37.40692997 Ry
      -> total E_H with PAW    =     247.49698073 Ry
      -> total E_XC with PAW   =    -332.19815595 Ry

     convergence has been achieved in   8 iterations

     Writing all to output data dir calculations_bands/myprefix.save/

     General routines

     Parallel routines

     PAW routines

   This run was terminated on:  18:42:12   4Jun2023

   JOB DONE.