     Program PWSCF v.7.1 starts on 12Jul2023 at 15:18:45

     Reading input from espresso_22422.pwi
Warning: card &CELL ignored
Warning: card / ignored

     Current dimensions of program PWSCF are:
     Max number of different atomic species (ntypx) = 10
     Max number of k-points (npk) =  40000
     Max angular momentum in pseudopotentials (lmaxx) =  4

     K-points division:     npool     =       2
     R & G space division:  proc/nbgrp/npool/nimage =       8
     Subspace diagonalization in iterative solution of the eigenvalue problem:
     a serial algorithm will be used

     Using Slab Decomposition

     bravais-lattice index     =            0
     lattice parameter (alat)  =      10.3591  a.u.
     unit-cell volume          =    1099.8687 (a.u.)^3
     number of atoms/cell      =            8
     number of atomic types    =            4
     number of electrons       =        88.00
     number of Kohn-Sham states=           64
     kinetic-energy cutoff     =      30.0000  Ry
     charge density cutoff     =     240.0000  Ry
     scf convergence threshold =      1.0E-06
     mixing beta               =       0.7000
     number of iterations used =            8  plain     mixing
     Exchange-correlation=  SLA  PW   PBX  PBC
                           (   1   4   3   4   0   0   0)

     celldm(1)=  10.359063  celldm(2)=   0.000000  celldm(3)=   0.000000
     celldm(4)=   0.000000  celldm(5)=   0.000000  celldm(6)=   0.000000

     crystal axes: (cart. coord. in units of alat)
               a(1) = (   1.000000   0.000000   0.000000 )
               a(2) = (   0.086292   0.996270   0.000000 )
               a(3) = (   0.086292   0.079141   0.993122 )

     reciprocal axes: (cart. coord. in units 2 pi/alat)
               b(1) = (  1.000000 -0.086615 -0.079987 )
               b(2) = (  0.000000  1.003744 -0.079987 )
               b(3) = (  0.000000  0.000000  1.006926 )

     PseudoPot. # 1 for Cu read from file:
     /lustre07/scratch/pragov/crystal_structure_design/utils/SSSP/Cu_pbe_v1.2.uspp.F.UPF
     MD5 check sum: 6e991ff952a84172a2a52a1c1e996048
     Pseudo is Ultrasoft + core correction, Zval = 19.0
     Generated by new atomic code, or converted to UPF format
     Using radial grid of  867 points,  6 beta functions with:
                l(1) =   0
                l(2) =   0
                l(3) =   1
                l(4) =   1
                l(5) =   2
                l(6) =   2
     Q(r) pseudized with  8 coefficients,  rinner =    1.150   1.150   1.150
                                                       1.150   1.150

     PseudoPot. # 2 for Te read from file:
     /lustre07/scratch/pragov/crystal_structure_design/utils/SSSP/Te_pbe_v1.uspp.F.UPF
     MD5 check sum: c319670d6894cc26e93307826a071b75
     Pseudo is Ultrasoft + core correction, Zval =  6.0
     Generated by new atomic code, or converted to UPF format
     Using radial grid of  891 points,  5 beta functions with:
                l(1) =   0
                l(2) =   0
                l(3) =   1
                l(4) =   1
                l(5) =   2
     Q(r) pseudized with  6 coefficients,  rinner =    1.800   1.800   1.800
                                                       1.800   1.800

     PseudoPot. # 3 for S  read from file:
     /lustre07/scratch/pragov/crystal_structure_design/utils/SSSP/s_pbe_v1.4.uspp.F.UPF
     MD5 check sum: 88d86576ff6df21479756cfb9bdac1df
     Pseudo is Ultrasoft + core correction, Zval =  6.0
     Generated by new atomic code, or converted to UPF format
     Using radial grid of  907 points,  6 beta functions with:
                l(1) =   0
                l(2) =   0
                l(3) =   1
                l(4) =   1
                l(5) =   2
                l(6) =   2
     Q(r) pseudized with  8 coefficients,  rinner =    1.300   1.300   1.300
                                                       1.300   1.300

     PseudoPot. # 4 for Cl read from file:
     /lustre07/scratch/pragov/crystal_structure_design/utils/SSSP/cl_pbe_v1.4.uspp.F.UPF
     MD5 check sum: fc6f6913ecf08c9257cb748ef0700058
     Pseudo is Ultrasoft + core correction, Zval =  7.0
     Generated by new atomic code, or converted to UPF format
     Using radial grid of  909 points,  6 beta functions with:
                l(1) =   0
                l(2) =   0
                l(3) =   1
                l(4) =   1
                l(5) =   2
                l(6) =   2
     Q(r) pseudized with  8 coefficients,  rinner =    1.300   1.300   1.300
                                                       1.300   1.300

     atomic species   valence    mass     pseudopotential
        Cu            19.00    63.54600     Cu( 1.00)
        Te             6.00   127.60000     Te( 1.00)
        S              6.00    32.06000     S ( 1.00)
        Cl             7.00    35.45000     Cl( 1.00)

     No symmetry found

                                    s                        frac. trans.

      isym =  1     identity

 cryst.   s( 1) = (     1          0          0      )
                  (     0          1          0      )
                  (     0          0          1      )

 cart.    s( 1) = (  1.0000000  0.0000000  0.0000000 )
                  (  0.0000000  1.0000000  0.0000000 )
                  (  0.0000000  0.0000000  1.0000000 )

   Cartesian axes

     site n.     atom                  positions (alat units)
         1           Cu  tau(   1) = (   0.3184064   0.2920198   0.7984916  )
         2           Cu  tau(   2) = (   0.3184064   0.8191655   0.2276672  )
         3           Cu  tau(   3) = (   0.8435858   0.2465314   0.2276672  )
         4           Te  tau(   4) = (   0.8766130   0.8039673   0.7424487  )
         5           S   tau(   5) = (   0.5331363   0.0307406   0.0283884  )
         6           S   tau(   6) = (   0.0766312   0.5284950   0.0283884  )
         7           S   tau(   7) = (   0.0766312   0.0702807   0.5245698  )
         8           Cl  tau(   8) = (   0.5063884   0.4644236   0.4288865  )

   Crystallographic axes

     site n.     atom                  positions (cryst. coord.)
         1           Cu  tau(   1) = (  0.2292440  0.2292440  0.8040220  )
         2           Cu  tau(   2) = (  0.2292440  0.8040220  0.2292440  )
         3           Cu  tau(   3) = (  0.8040220  0.2292440  0.2292440  )
         4           Te  tau(   4) = (  0.7475910  0.7475910  0.7475910  )
         5           S   tau(   5) = (  0.5282030  0.0285850  0.0285850  )
         6           S   tau(   6) = (  0.0285850  0.5282030  0.0285850  )
         7           S   tau(   7) = (  0.0285850  0.0285850  0.5282030  )
         8           Cl  tau(   8) = (  0.4318570  0.4318570  0.4318570  )

     number of k points=    14
                       cart. coord. in units 2pi/alat
        k(    1) = (   0.0000000   0.0000000   0.0000000), wk =   0.0740741
        k(    2) = (   0.0000000   0.0000000   0.3356420), wk =   0.1481481
        k(    3) = (   0.0000000   0.3345814  -0.0266624), wk =   0.1481481
        k(    4) = (   0.0000000   0.3345814   0.3089796), wk =   0.1481481
        k(    5) = (   0.0000000   0.3345814  -0.3623044), wk =   0.1481481
        k(    6) = (   0.3333333  -0.0288716  -0.0266624), wk =   0.1481481
        k(    7) = (   0.3333333  -0.0288716   0.3089796), wk =   0.1481481
        k(    8) = (   0.3333333  -0.0288716  -0.3623044), wk =   0.1481481
        k(    9) = (   0.3333333   0.3057097  -0.0533248), wk =   0.1481481
        k(   10) = (   0.3333333   0.3057097   0.2823172), wk =   0.1481481
        k(   11) = (   0.3333333   0.3057097  -0.3889668), wk =   0.1481481
        k(   12) = (   0.3333333  -0.3634530  -0.0000000), wk =   0.1481481
        k(   13) = (   0.3333333  -0.3634530   0.3356420), wk =   0.1481481
        k(   14) = (   0.3333333  -0.3634530  -0.3356420), wk =   0.1481481

                       cryst. coord.
        k(    1) = (   0.0000000   0.0000000   0.0000000), wk =   0.0740741
        k(    2) = (   0.0000000   0.0000000   0.3333333), wk =   0.1481481
        k(    3) = (   0.0000000   0.3333333  -0.0000000), wk =   0.1481481
        k(    4) = (   0.0000000   0.3333333   0.3333333), wk =   0.1481481
        k(    5) = (   0.0000000   0.3333333  -0.3333333), wk =   0.1481481
        k(    6) = (   0.3333333   0.0000000   0.0000000), wk =   0.1481481
        k(    7) = (   0.3333333   0.0000000   0.3333333), wk =   0.1481481
        k(    8) = (   0.3333333   0.0000000  -0.3333333), wk =   0.1481481
        k(    9) = (   0.3333333   0.3333333  -0.0000000), wk =   0.1481481
        k(   10) = (   0.3333333   0.3333333   0.3333333), wk =   0.1481481
        k(   11) = (   0.3333333   0.3333333  -0.3333333), wk =   0.1481481
        k(   12) = (   0.3333333  -0.3333333   0.0000000), wk =   0.1481481
        k(   13) = (   0.3333333  -0.3333333   0.3333333), wk =   0.1481481
        k(   14) = (   0.3333333  -0.3333333  -0.3333333), wk =   0.1481481

     Initial potential from superposition of free atoms

     starting charge      84.9997, renormalised to      88.0000

     negative rho (up, down):  1.549E-02 0.000E+00
     Starting wfcs are   59 randomized atomic wfcs +    5 random wfcs

     Self-consistent Calculation

     iteration #  1     ecut=    30.00 Ry     beta= 0.70
     Davidson diagonalization with overlap

     ethr =  1.00E-02,  avg # of iterations =  8.0

     negative rho (up, down):  1.486E-02 0.000E+00

     total energy              =   -1342.07789657 Ry
     estimated scf accuracy    <       2.20419931 Ry

[...]

     total energy              =   -1343.33736417 Ry
     estimated scf accuracy    <       0.00000248 Ry

     iteration # 10     ecut=    30.00 Ry     beta= 0.70
     Davidson diagonalization with overlap

     ethr =  2.81E-09,  avg # of iterations =  2.1

     negative rho (up, down):  1.469E-02 0.000E+00

     End of self-consistent calculation

          k = 0.0000 0.0000 0.0000 (  3017 PWs)   bands (ev):

  -104.3146-104.3136-104.3128 -61.7692 -61.7665 -61.7656 -61.7358 -61.7348
   -61.7306 -61.6199 -61.6150 -61.6140  -8.2036  -7.4218  -5.8520  -5.8519
    -3.5943   1.8056   1.8057   2.1632   2.1633   2.2665   3.3577   3.3579
     3.4232   3.5853   3.5855   3.7888   4.1752   5.2798   5.5130   5.5137
     5.5567   5.5567   5.6834   5.6835   5.7602   5.9480   6.1388   6.3844
     6.3847   7.2575   7.3974   7.3976   8.2768   8.2769   8.4648   9.3070
    11.0692  11.6536  11.6537  12.9024  12.9024  14.1849  15.7357  15.7358
    16.9184  16.9185  17.2826  17.7068  17.7069  18.2120  18.6758  18.8866

     occupation numbers
     1.0000   1.0000   1.0000   1.0000   1.0000   1.0000   1.0000   1.0000
     1.0000   1.0000   1.0000   1.0000   1.0000   1.0000   1.0000   1.0000
     1.0000   1.0000   1.0000   1.0000   1.0000   1.0000   1.0000   1.0000
     1.0000   1.0000   1.0000   1.0000   1.0000   1.0000   1.0000   1.0000
     1.0000   1.0000   1.0000   1.0000   1.0000   1.0000   1.0000   1.0000
     1.0000   1.0000   1.0000   1.0000   0.0000   0.0000   0.0000   0.0000
     0.0000   0.0000   0.0000   0.0000   0.0000   0.0000   0.0000   0.0000
     0.0000   0.0000   0.0000   0.0000   0.0000   0.0000   0.0000   0.0000

[...]

          k = 0.3333-0.3635-0.3356 (  3065 PWs)   bands (ev):

  -104.3161-104.3151-104.3138 -61.7723 -61.7699 -61.7689 -61.7367 -61.7355
   -61.7346 -61.6206 -61.6184 -61.6169  -7.8737  -7.5048  -6.1530  -6.0046
    -3.4051   1.1734   1.3102   1.3977   2.6813   3.0298   3.0678   3.3378
     3.4670   3.6918   3.8514   3.9019   4.4703   5.2711   5.4247   5.4804
     5.5390   5.5568   5.7090   5.7682   5.9240   5.9593   5.9916   6.3311
     6.4635   6.8609   6.9415   7.1542   8.8461   9.1682   9.2703  10.7389
    11.9763  12.2324  12.9673  13.2438  13.5125  14.0800  14.3018  14.5288
    15.1208  15.4774  15.8125  15.9586  16.6200  17.5377  17.7181  17.7630

     occupation numbers
     1.0000   1.0000   1.0000   1.0000   1.0000   1.0000   1.0000   1.0000
     1.0000   1.0000   1.0000   1.0000   1.0000   1.0000   1.0000   1.0000
     1.0000   1.0000   1.0000   1.0000   1.0000   1.0000   1.0000   1.0000
     1.0000   1.0000   1.0000   1.0000   1.0000   1.0000   1.0000   1.0000
     1.0000   1.0000   1.0000   1.0000   1.0000   1.0000   1.0000   1.0000
     1.0000   1.0000   1.0000   1.0000   0.0000   0.0000   0.0000   0.0000
     0.0000   0.0000   0.0000   0.0000   0.0000   0.0000   0.0000   0.0000
     0.0000   0.0000   0.0000   0.0000   0.0000   0.0000   0.0000   0.0000

     highest occupied, lowest unoccupied level (ev):     7.3976    8.2618

!    total energy              =   -1343.33736447 Ry
     estimated scf accuracy    <       0.00000035 Ry

     The total energy is the sum of the following terms:
     one-electron contribution =   -1262.46765953 Ry
     hartree contribution      =     665.73354393 Ry
     xc contribution           =    -165.68289327 Ry
     ewald contribution        =    -580.92035559 Ry

     convergence has been achieved in  10 iterations

     Writing all to output data dir bands_nm/myprefix.save/

     General routines

     Parallel routines

   This run was terminated on:  15:18:55  12Jul2023

   JOB DONE.