     Program PWSCF v.7.1 starts on 16Jul2023 at 14: 0:20

     Reading input from espresso_26774.pwi
Warning: card &CELL ignored
Warning: card / ignored

     Current dimensions of program PWSCF are:
     Max number of different atomic species (ntypx) = 10
     Max number of k-points (npk) =  40000
     Max angular momentum in pseudopotentials (lmaxx) =  4
     file Al.pbe-n-kjpaw_psl.1.0.0.UPF: wavefunction(s)  3S 3P renormalized
     file Fe.pbe-spn-kjpaw_psl.0.2.1.UPF: wavefunction(s)  3D renormalized
     file O.pbe-n-kjpaw_psl.0.1.UPF: wavefunction(s)  2P renormalized
     Message from routine setup:
     using ibrav=0 with symmetry is DISCOURAGED, use correct ibrav instead

     K-points division:     npool     =       2
     R & G space division:  proc/nbgrp/npool/nimage =       4
     Subspace diagonalization in iterative solution of the eigenvalue problem:
     a serial algorithm will be used

     Using Slab Decomposition

     bravais-lattice index     =            0
     lattice parameter (alat)  =       9.5095  a.u.
     unit-cell volume          =    1182.8981 (a.u.)^3
     number of atoms/cell      =           16
     number of atomic types    =            4
     number of electrons       =        98.00
     number of Kohn-Sham states=           64
     kinetic-energy cutoff     =      30.0000  Ry
     charge density cutoff     =     240.0000  Ry
     scf convergence threshold =      1.0E-06
     mixing beta               =       0.7000
     number of iterations used =            8  plain     mixing
     Exchange-correlation= SLA  PW   PBX  PBC
                           (   1   4   3   4   0   0   0)

     celldm(1)=   9.509499  celldm(2)=   0.000000  celldm(3)=   0.000000
     celldm(4)=   0.000000  celldm(5)=   0.000000  celldm(6)=   0.000000

     crystal axes: (cart. coord. in units of alat)
               a(1) = (   1.000000   0.000000   0.000000 )
               a(2) = (   0.000000   1.103020   0.000000 )
               a(3) = (   0.000000   0.000000   1.247071 )

     reciprocal axes: (cart. coord. in units 2 pi/alat)
               b(1) = (  1.000000  0.000000  0.000000 )
               b(2) = (  0.000000  0.906602  0.000000 )
               b(3) = (  0.000000  0.000000  0.801879 )

     PseudoPot. # 1 for Li read from file:
     /lustre07/scratch/pragov/crystal_structure_design/utils/SSSP/li_pbe_v1.4.uspp.F.UPF
     MD5 check sum: e912e257baa3777c20ea3d68f190483c
     Pseudo is Ultrasoft, Zval =  3.0
     Generated by new atomic code, or converted to UPF format
     Using radial grid of  751 points,  5 beta functions with:
                l(1) =   0
                l(2) =   0
                l(3) =   0
                l(4) =   1
                l(5) =   1
     Q(r) pseudized with 10 coefficients,  rinner =    1.150   1.150   1.150

     PseudoPot. # 2 for Al read from file:
     /lustre07/scratch/pragov/crystal_structure_design/utils/SSSP/Al.pbe-n-kjpaw_psl.1.0.0.UPF
     MD5 check sum: cfc449ca30b5f3223ec38ddd88ac046d
     Pseudo is Projector augmented-wave + core cor, Zval =  3.0
     Generated using "atomic" code by A. Dal Corso  v.5.1
     Shape of augmentation charge: PSQ
     Using radial grid of 1135 points,  6 beta functions with:
                l(1) =   0
                l(2) =   0
                l(3) =   1
                l(4) =   1
                l(5) =   2
                l(6) =   2
     Q(r) pseudized with 0 coefficients

     PseudoPot. # 3 for Fe read from file:
     /lustre07/scratch/pragov/crystal_structure_design/utils/SSSP/Fe.pbe-spn-kjpaw_psl.0.2.1.UPF
     MD5 check sum: e86618425769142926afa95317d90200
     Pseudo is Projector augmented-wave + core cor, Zval = 16.0
     Generated using "atomic" code by A. Dal Corso  v.5.0.99 svn rev. 10869
     Shape of augmentation charge: PSQ
     Using radial grid of 1191 points,  6 beta functions with:
                l(1) =   0
                l(2) =   0
                l(3) =   1
                l(4) =   1
                l(5) =   2
                l(6) =   2
     Q(r) pseudized with 0 coefficients

     PseudoPot. # 4 for O  read from file:
     /lustre07/scratch/pragov/crystal_structure_design/utils/SSSP/O.pbe-n-kjpaw_psl.0.1.UPF
     MD5 check sum: 0234752ac141de4415c5fc33072bef88
     Pseudo is Projector augmented-wave + core cor, Zval =  6.0
     Generated using "atomic" code by A. Dal Corso  v.5.0.99 svn rev. 10869
     Shape of augmentation charge: BESSEL
     Using radial grid of 1095 points,  4 beta functions with:
                l(1) =   0
                l(2) =   0
                l(3) =   1
                l(4) =   1
     Q(r) pseudized with 0 coefficients

     atomic species   valence    mass     pseudopotential
        Li             3.00     6.94000     Li( 1.00)
        Al             3.00    26.98154     Al( 1.00)
        Fe            16.00    55.84500     Fe( 1.00)
        O              6.00    15.99900     O ( 1.00)

      4 Sym. Ops. (no inversion) found ( 2 have fractional translation)

                                    s                        frac. trans.

      isym =  1     identity

 cryst.   s( 1) = (     1          0          0      )
                  (     0          1          0      )
                  (     0          0          1      )

 cart.    s( 1) = (  1.0000000  0.0000000  0.0000000 )
                  (  0.0000000  1.0000000  0.0000000 )
                  (  0.0000000  0.0000000  1.0000000 )

      isym =  2     180 deg rotation - cart. axis [1,0,0]

 cryst.   s( 2) = (     1          0          0      )    f =(  0.5000000 )
                  (     0         -1          0      )       (  0.0000000 )
                  (     0          0         -1      )       (  0.5000000 )

 cart.    s( 2) = (  1.0000000  0.0000000  0.0000000 )    f =(  0.5000000 )
                  (  0.0000000 -1.0000000  0.0000000 )       (  0.0000000 )
                  (  0.0000000  0.0000000 -1.0000000 )       (  0.6235354 )

      isym =  3     inv. 180 deg rotation - cart. axis [0,0,1]

 cryst.   s( 3) = (     1          0          0      )
                  (     0          1          0      )
                  (     0          0         -1      )

 cart.    s( 3) = (  1.0000000  0.0000000  0.0000000 )
                  (  0.0000000  1.0000000  0.0000000 )
                  (  0.0000000  0.0000000 -1.0000000 )

      isym =  4     inv. 180 deg rotation - cart. axis [0,1,0]

 cryst.   s( 4) = (     1          0          0      )    f =(  0.5000000 )
                  (     0         -1          0      )       (  0.0000000 )
                  (     0          0          1      )       ( -0.5000000 )

 cart.    s( 4) = (  1.0000000  0.0000000  0.0000000 )    f =(  0.5000000 )
                  (  0.0000000 -1.0000000  0.0000000 )       (  0.0000000 )
                  (  0.0000000  0.0000000  1.0000000 )       ( -0.6235354 )

   Cartesian axes

     site n.     atom                  positions (alat units)
         1           Li  tau(   1) = (   0.9929830   0.3682278   0.3120383  )
         2           Li  tau(   2) = (   0.4929830   0.7347922   0.3114971  )
         3           Li  tau(   3) = (   0.9929830   0.3682278   0.9350325  )
         4           Li  tau(   4) = (   0.4929830   0.7347922   0.9355737  )
         5           Al  tau(   5) = (   0.4989700   0.1844062   0.0000000  )
         6           Al  tau(   6) = (   0.9989700   0.9186138   0.6235354  )
         7           Fe  tau(   7) = (   0.9961780   0.9206974   0.0000000  )
         8           Fe  tau(   8) = (   0.4961780   0.1823226   0.6235354  )
         9           O   tau(   9) = (   0.8543790   0.1691503   0.0000000  )
        10           O   tau(  10) = (   0.3752620   0.9532806   0.0000000  )
        11           O   tau(  11) = (   0.8946270   0.7519838   0.3267675  )
        12           O   tau(  12) = (   0.3946270   0.3510361   0.2967679  )
        13           O   tau(  13) = (   0.8752620   0.1497394   0.6235354  )
        14           O   tau(  14) = (   0.3543790   0.9338696   0.6235354  )
        15           O   tau(  15) = (   0.3946270   0.3510361   0.9503028  )
        16           O   tau(  16) = (   0.8946270   0.7519838   0.9203033  )

   Crystallographic axes

     site n.     atom                  positions (cryst. coord.)
         1           Li  tau(   1) = (  0.9929830  0.3338360  0.2502170  )
         2           Li  tau(   2) = (  0.4929830  0.6661640  0.2497830  )
         3           Li  tau(   3) = (  0.9929830  0.3338360  0.7497830  )
         4           Li  tau(   4) = (  0.4929830  0.6661640  0.7502170  )
         5           Al  tau(   5) = (  0.4989700  0.1671830  0.0000000  )
         6           Al  tau(   6) = (  0.9989700  0.8328170  0.5000000  )
         7           Fe  tau(   7) = (  0.9961780  0.8347060  0.0000000  )
         8           Fe  tau(   8) = (  0.4961780  0.1652940  0.5000000  )
         9           O   tau(   9) = (  0.8543790  0.1533520  0.0000000  )
        10           O   tau(  10) = (  0.3752620  0.8642460  0.0000000  )
        11           O   tau(  11) = (  0.8946270  0.6817500  0.2620280  )
        12           O   tau(  12) = (  0.3946270  0.3182500  0.2379720  )
        13           O   tau(  13) = (  0.8752620  0.1357540  0.5000000  )
        14           O   tau(  14) = (  0.3543790  0.8466480  0.5000000  )
        15           O   tau(  15) = (  0.3946270  0.3182500  0.7620280  )
        16           O   tau(  16) = (  0.8946270  0.6817500  0.7379720  )

     number of k points=     8
                       cart. coord. in units 2pi/alat
        k(    1) = (   0.0000000   0.0000000   0.0000000), wk =   0.0740741
        k(    2) = (   0.0000000   0.0000000   0.2672930), wk =   0.1481481
        k(    3) = (   0.0000000   0.3022006   0.0000000), wk =   0.1481481
        k(    4) = (   0.0000000   0.3022006   0.2672930), wk =   0.2962963
        k(    5) = (   0.3333333   0.0000000   0.0000000), wk =   0.1481481
        k(    6) = (   0.3333333   0.0000000   0.2672930), wk =   0.2962963
        k(    7) = (   0.3333333   0.3022006   0.0000000), wk =   0.2962963
        k(    8) = (   0.3333333   0.3022006   0.2672930), wk =   0.5925926

                       cryst. coord.
        k(    1) = (   0.0000000   0.0000000   0.0000000), wk =   0.0740741
        k(    2) = (   0.0000000   0.0000000   0.3333333), wk =   0.1481481
        k(    3) = (   0.0000000   0.3333333   0.0000000), wk =   0.1481481
        k(    4) = (   0.0000000   0.3333333   0.3333333), wk =   0.2962963
        k(    5) = (   0.3333333   0.0000000   0.0000000), wk =   0.1481481
        k(    6) = (   0.3333333   0.0000000   0.3333333), wk =   0.2962963
        k(    7) = (   0.3333333   0.3333333   0.0000000), wk =   0.2962963
        k(    8) = (   0.3333333   0.3333333   0.3333333), wk =   0.5925926

     Check: negative core charge=   -0.000084

     Initial potential from superposition of free atoms

     starting charge      96.1916, renormalised to      98.0000
     Starting wfcs are   86 randomized atomic wfcs
     Checking if some PAW data can be deallocated...

     Self-consistent Calculation

     iteration #  1     ecut=    30.00 Ry     beta= 0.70
     Davidson diagonalization with overlap

     ethr =  1.00E-02,  avg # of iterations =  3.2

     negative rho (up, down):  8.746E-05 0.000E+00

     total energy              =   -1120.04052902 Ry
     estimated scf accuracy    <      11.84498043 Ry

[...]

     negative rho (up, down):  5.523E-06 0.000E+00

[...]

     total energy              =   -1128.73555588 Ry
     estimated scf accuracy    <       0.00000124 Ry

     iteration # 15     ecut=    30.00 Ry     beta= 0.70
     Davidson diagonalization with overlap

     ethr =  1.27E-09,  avg # of iterations =  2.2

     End of self-consistent calculation

          k = 0.0000 0.0000 0.0000 (  3299 PWs)   bands (ev):

   -81.6859 -81.6825 -47.3970 -47.3956 -47.3358 -47.3256 -47.1053 -47.0965
   -38.1059 -38.0995 -38.0995 -38.0925 -13.0053 -12.5359 -12.2247 -12.1234
   -12.1125 -12.0310 -12.0138 -11.9701  -0.0601   0.2041   0.3578   0.6889
     0.8364   1.1094   1.1823   1.3117   1.6034   1.6967   1.7404   1.9034
     2.0935   2.2725   2.4495   2.5231   2.5551   2.7854   2.9653   2.9786
     3.0023   3.2663   3.4473   3.4536   5.1298   5.1580   5.1845   5.4622
     6.3256   6.5062   6.5495   6.5877   6.6740   6.7794   8.6754  12.3961
    12.9647  12.9652  13.5242  13.6625  13.6812  13.9362  14.8037  15.0747

     occupation numbers
     1.0000   1.0000   1.0000   1.0000   1.0000   1.0000   1.0000   1.0000
     1.0000   1.0000   1.0000   1.0000   1.0000   1.0000   1.0000   1.0000
     1.0000   1.0000   1.0000   1.0000   1.0000   1.0000   1.0000   1.0000
     1.0000   1.0000   1.0000   1.0000   1.0000   1.0000   1.0000   1.0000
     1.0000   1.0000   1.0000   1.0000   1.0000   1.0000   1.0000   1.0000
     1.0000   1.0000   1.0000   1.0000   1.0000   1.0000   1.0000   1.0000
     1.0000   0.0000   0.0000   0.0000   0.0000   0.0000   0.0000   0.0000
     0.0000   0.0000   0.0000   0.0000   0.0000   0.0000   0.0000   0.0000

[...]

          k = 0.3333 0.3022 0.2673 (  3282 PWs)   bands (ev):

   -81.6840 -81.6832 -47.3961 -47.3854 -47.3314 -47.3274 -47.1044 -47.0943
   -38.1025 -38.0992 -38.0992 -38.0961 -12.7088 -12.5720 -12.2905 -12.1962
   -12.1230 -12.0702 -12.0530 -12.0331  -0.2123  -0.1452   0.7025   0.7864
     0.9131   1.0977   1.3256   1.3728   1.5112   1.6740   1.8392   1.8899
     2.0562   2.1068   2.3998   2.5037   2.5321   2.6402   2.9039   3.0055
     3.1915   3.2898   3.4331   3.4979   5.0985   5.1237   5.2036   5.2494
     6.2458   6.2870   6.7422   6.7789   6.8763   6.9010  10.9152  11.7338
    11.9784  12.6195  12.8911  12.9644  13.2979  13.3582  15.2292  15.3525

     occupation numbers
     1.0000   1.0000   1.0000   1.0000   1.0000   1.0000   1.0000   1.0000
     1.0000   1.0000   1.0000   1.0000   1.0000   1.0000   1.0000   1.0000
     1.0000   1.0000   1.0000   1.0000   1.0000   1.0000   1.0000   1.0000
     1.0000   1.0000   1.0000   1.0000   1.0000   1.0000   1.0000   1.0000
     1.0000   1.0000   1.0000   1.0000   1.0000   1.0000   1.0000   1.0000
     1.0000   1.0000   1.0000   1.0000   1.0000   1.0000   1.0000   1.0000
     1.0000   0.0000   0.0000   0.0000   0.0000   0.0000   0.0000   0.0000
     0.0000   0.0000   0.0000   0.0000   0.0000   0.0000   0.0000   0.0000

     highest occupied, lowest unoccupied level (ev):     6.5338    6.2711

!    total energy              =   -1128.73555621 Ry
     estimated scf accuracy    <       0.00000034 Ry

     The total energy is the sum of the following terms:
     one-electron contribution =    -547.57163516 Ry
     hartree contribution      =     313.95479278 Ry
     xc contribution           =    -148.27590038 Ry
     ewald contribution        =    -449.18373851 Ry
     one-center paw contrib.   =    -297.65907495 Ry
      -> PAW hartree energy AE =       0.00000000 Ry
      -> PAW hartree energy PS =       0.00000000 Ry
      -> PAW xc energy AE      =       0.00000000 Ry
      -> PAW xc energy PS      =       0.00000000 Ry
      -> total E_H with PAW    =     313.95479278 Ry
      -> total E_XC with PAW   =    -148.27590038 Ry

     convergence has been achieved in  15 iterations

     Writing all to output data dir bands_nm/myprefix.save/

     General routines

     Parallel routines

     PAW routines

   This run was terminated on:  14: 0:33  16Jul2023

   JOB DONE.