     Program PWSCF v.7.1 starts on 13Jul2023 at  3: 7:42

     Reading input from espresso_24892.pwi
Warning: card &CELL ignored
Warning: card / ignored

     Current dimensions of program PWSCF are:
     Max number of different atomic species (ntypx) = 10
     Max number of k-points (npk) =  40000
     Max angular momentum in pseudopotentials (lmaxx) =  4
     file O.pbe-n-kjpaw_psl.0.1.UPF: wavefunction(s)  2P renormalized
     Message from routine setup:
     using ibrav=0 with symmetry is DISCOURAGED, use correct ibrav instead

     K-points division:     npool     =       2
     R & G space division:  proc/nbgrp/npool/nimage =       8
     Subspace diagonalization in iterative solution of the eigenvalue problem:
     a serial algorithm will be used

     Using Slab Decomposition

     bravais-lattice index     =            0
     lattice parameter (alat)  =      13.4347  a.u.
     unit-cell volume          =    1335.7409 (a.u.)^3
     number of atoms/cell      =           12
     number of atomic types    =            3
     number of electrons       =        88.00
     number of Kohn-Sham states=           64
     kinetic-energy cutoff     =      30.0000  Ry
     charge density cutoff     =     240.0000  Ry
     scf convergence threshold =      1.0E-06
     mixing beta               =       0.7000
     number of iterations used =            8  plain     mixing
     Exchange-correlation= SLA  PW   PBX  PBC
                           (   1   4   3   4   0   0   0)

     celldm(1)=  13.434685  celldm(2)=   0.000000  celldm(3)=   0.000000
     celldm(4)=   0.000000  celldm(5)=   0.000000  celldm(6)=   0.000000

     crystal axes: (cart. coord. in units of alat)
               a(1) = (   1.000000   0.000000   0.000000 )
               a(2) = (   0.000000   0.695501   0.000000 )
               a(3) = (   0.000000   0.088147   0.792031 )

     reciprocal axes: (cart. coord. in units 2 pi/alat)
               b(1) = (  1.000000  0.000000  0.000000 )
               b(2) = (  0.000000  1.437813 -0.160017 )
               b(3) = (  0.000000  0.000000  1.262576 )

     PseudoPot. # 1 for Sb read from file:
     /lustre07/scratch/pragov/crystal_structure_design/utils/SSSP/sb_pbe_v1.4.uspp.F.UPF
     MD5 check sum: 9bc50dfb53373b713f5709b9110fe27f
     Pseudo is Ultrasoft + core correction, Zval = 15.0
     Generated by new atomic code, or converted to UPF format
     Using radial grid of  891 points,  6 beta functions with:
                l(1) =   0
                l(2) =   0
                l(3) =   1
                l(4) =   1
                l(5) =   2
                l(6) =   2
     Q(r) pseudized with  8 coefficients,  rinner =    1.350   1.350   1.350
                                                       1.350   1.350

     PseudoPot. # 2 for As read from file:
     /lustre07/scratch/pragov/crystal_structure_design/utils/SSSP/As.pbe-n-rrkjus_psl.0.2.UPF
     MD5 check sum: 767315de957beeeb34f87d97bf945c8f
     Pseudo is Ultrasoft + core correction, Zval =  5.0
     Generated using "atomic" code by A. Dal Corso  v.5.0.99 svn rev. 10869
     Using radial grid of 1209 points,  4 beta functions with:
                l(1) =   0
                l(2) =   0
                l(3) =   1
                l(4) =   1
     Q(r) pseudized with 0 coefficients

     PseudoPot. # 3 for O  read from file:
     /lustre07/scratch/pragov/crystal_structure_design/utils/SSSP/O.pbe-n-kjpaw_psl.0.1.UPF
     MD5 check sum: 0234752ac141de4415c5fc33072bef88
     Pseudo is Projector augmented-wave + core cor, Zval =  6.0
     Generated using "atomic" code by A. Dal Corso  v.5.0.99 svn rev. 10869
     Shape of augmentation charge: BESSEL
     Using radial grid of 1095 points,  4 beta functions with:
                l(1) =   0
                l(2) =   0
                l(3) =   1
                l(4) =   1
     Q(r) pseudized with 0 coefficients

     atomic species   valence    mass     pseudopotential
        Sb            15.00   121.76000     Sb( 1.00)
        As             5.00    74.92159     As( 1.00)
        O              6.00    15.99900     O ( 1.00)

      4 Sym. Ops., with inversion, found ( 2 have fractional translation)

                                    s                        frac. trans.

      isym =  1     identity

 cryst.   s( 1) = (     1          0          0      )
                  (     0          1          0      )
                  (     0          0          1      )

 cart.    s( 1) = (  1.0000000  0.0000000  0.0000000 )
                  (  0.0000000  1.0000000  0.0000000 )
                  (  0.0000000  0.0000000  1.0000000 )

      isym =  2     180 deg rotation - cart. axis [1,0,0]

 cryst.   s( 2) = (     1          0          0      )    f =(  0.5000000 )
                  (     0         -1          0      )       ( -0.0000000 )
                  (     0          0         -1      )       (  0.0000000 )

 cart.    s( 2) = (  1.0000000  0.0000000  0.0000000 )    f =(  0.5000000 )
                  (  0.0000000 -1.0000000 -0.0000000 )       ( -0.0000000 )
                  (  0.0000000  0.0000000 -1.0000000 )       (  0.0000000 )

      isym =  3     inversion

 cryst.   s( 3) = (    -1          0          0      )
                  (     0         -1          0      )
                  (     0          0         -1      )

 cart.    s( 3) = ( -1.0000000  0.0000000  0.0000000 )
                  (  0.0000000 -1.0000000 -0.0000000 )
                  (  0.0000000  0.0000000 -1.0000000 )

      isym =  4     inv. 180 deg rotation - cart. axis [1,0,0]

 cryst.   s( 4) = (    -1          0          0      )    f =(  0.5000000 )
                  (     0          1          0      )       (  0.0000000 )
                  (     0          0          1      )       (  0.0000000 )

 cart.    s( 4) = ( -1.0000000  0.0000000  0.0000000 )    f =(  0.5000000 )
                  (  0.0000000  1.0000000  0.0000000 )       (  0.0000000 )
                  (  0.0000000  0.0000000  1.0000000 )       (  0.0000000 )

   Cartesian axes

     site n.     atom                  positions (alat units)
         1           Sb  tau(   1) = (   0.7500000   0.1548845   0.2384379  )
         2           Sb  tau(   2) = (   0.2500000   0.6287626   0.5535934  )
         3           As  tau(   3) = (   0.7500000   0.5763579   0.7035582  )
         4           As  tau(   4) = (   0.2500000   0.2072892   0.0884731  )
         5           O   tau(   5) = (   0.5595350   0.6316274   0.5690428  )
         6           O   tau(   6) = (   0.0595350   0.1520197   0.2229885  )
         7           O   tau(   7) = (   0.4404650   0.1520197   0.2229885  )
         8           O   tau(   8) = (   0.9404650   0.6316274   0.5690428  )
         9           O   tau(   9) = (   0.7500000   0.5825165   0.1390736  )
        10           O   tau(  10) = (   0.2500000   0.2011306   0.6529577  )
        11           O   tau(  11) = (   0.7500000   0.3367306   0.7565816  )
        12           O   tau(  12) = (   0.2500000   0.4469165   0.0354497  )

   Crystallographic axes

     site n.     atom                  positions (cryst. coord.)
         1           Sb  tau(   1) = (  0.7500000  0.1845410  0.3010460  )
         2           Sb  tau(   2) = (  0.2500000  0.8154590  0.6989540  )
         3           As  tau(   3) = (  0.7500000  0.7161140  0.8882960  )
         4           As  tau(   4) = (  0.2500000  0.2838860  0.1117040  )
         5           O   tau(   5) = (  0.5595350  0.8171060  0.7184600  )
         6           O   tau(   6) = (  0.0595350  0.1828940  0.2815400  )
         7           O   tau(   7) = (  0.4404650  0.1828940  0.2815400  )
         8           O   tau(   8) = (  0.9404650  0.8171060  0.7184600  )
         9           O   tau(   9) = (  0.7500000  0.8152960  0.1755910  )
        10           O   tau(  10) = (  0.2500000  0.1847040  0.8244090  )
        11           O   tau(  11) = (  0.7500000  0.3630900  0.9552420  )
        12           O   tau(  12) = (  0.2500000  0.6369100  0.0447580  )

     number of k points=    10
                       cart. coord. in units 2pi/alat
        k(    1) = (   0.0000000   0.0000000   0.0000000), wk =   0.0740741
        k(    2) = (   0.0000000   0.0000000   0.4208588), wk =   0.1481481
        k(    3) = (   0.0000000   0.4792712  -0.0533389), wk =   0.1481481
        k(    4) = (   0.0000000   0.4792712   0.3675199), wk =   0.1481481
        k(    5) = (   0.0000000   0.4792712  -0.4741977), wk =   0.1481481
        k(    6) = (   0.3333333   0.0000000   0.0000000), wk =   0.1481481
        k(    7) = (   0.3333333   0.0000000   0.4208588), wk =   0.2962963
        k(    8) = (   0.3333333   0.4792712  -0.0533389), wk =   0.2962963
        k(    9) = (   0.3333333   0.4792712   0.3675199), wk =   0.2962963
        k(   10) = (   0.3333333   0.4792712  -0.4741977), wk =   0.2962963

                       cryst. coord.
        k(    1) = (   0.0000000   0.0000000   0.0000000), wk =   0.0740741
        k(    2) = (   0.0000000   0.0000000   0.3333333), wk =   0.1481481
        k(    3) = (   0.0000000   0.3333333   0.0000000), wk =   0.1481481
        k(    4) = (   0.0000000   0.3333333   0.3333333), wk =   0.1481481
        k(    5) = (   0.0000000   0.3333333  -0.3333333), wk =   0.1481481
        k(    6) = (   0.3333333   0.0000000   0.0000000), wk =   0.1481481
        k(    7) = (   0.3333333   0.0000000   0.3333333), wk =   0.2962963
        k(    8) = (   0.3333333   0.3333333   0.0000000), wk =   0.2962963
        k(    9) = (   0.3333333   0.3333333   0.3333333), wk =   0.2962963
        k(   10) = (   0.3333333   0.3333333  -0.3333333), wk =   0.2962963

     Check: negative core charge=   -0.000009

     Initial potential from superposition of free atoms

     starting charge      85.9995, renormalised to      88.0000
     Starting wfcs are   58 randomized atomic wfcs +    6 random wfcs
     Checking if some PAW data can be deallocated...

     Self-consistent Calculation

     iteration #  1     ecut=    30.00 Ry     beta= 0.70
     Davidson diagonalization with overlap

     ethr =  1.00E-02,  avg # of iterations =  6.5

     total energy              =    -737.99881195 Ry
     estimated scf accuracy    <       2.16354217 Ry

[...]

     total energy              =    -738.93762609 Ry
     estimated scf accuracy    <       0.00000441 Ry

     iteration #  9     ecut=    30.00 Ry     beta= 0.70
     Davidson diagonalization with overlap

     ethr =  5.01E-09,  avg # of iterations =  2.0

     End of self-consistent calculation

          k = 0.0000 0.0000 0.0000 (  3701 PWs)   bands (ev):

   -24.3629 -24.3538 -24.3196 -24.3135 -24.3100 -24.3083 -24.2211 -24.2172
   -24.2154 -24.2140 -15.9816 -15.5446 -14.1813 -13.7107 -13.6407 -13.5963
   -13.5084 -13.3691  -6.7543  -5.0481  -4.2373  -1.7645  -1.6185  -1.6075
    -1.2809  -1.2415  -0.3217  -0.0897   0.3360   0.9323   1.4017   1.6630
     1.9615   2.0936   2.2062   2.2542   2.2936   2.4399   2.5670   2.8832
     2.8955   3.0268   3.2292   3.3753   8.0469   8.1948   8.8035   9.6015
    10.1295  10.2334  10.2720  10.7245  12.0633  12.1079  12.1274  12.5969
    12.9670  13.5181  13.6398  14.6667  14.7037  15.1261  15.2770  15.8426

     occupation numbers
     1.0000   1.0000   1.0000   1.0000   1.0000   1.0000   1.0000   1.0000
     1.0000   1.0000   1.0000   1.0000   1.0000   1.0000   1.0000   1.0000
     1.0000   1.0000   1.0000   1.0000   1.0000   1.0000   1.0000   1.0000
     1.0000   1.0000   1.0000   1.0000   1.0000   1.0000   1.0000   1.0000
     1.0000   1.0000   1.0000   1.0000   1.0000   1.0000   1.0000   1.0000
     1.0000   1.0000   1.0000   1.0000   0.0000   0.0000   0.0000   0.0000
     0.0000   0.0000   0.0000   0.0000   0.0000   0.0000   0.0000   0.0000
     0.0000   0.0000   0.0000   0.0000   0.0000   0.0000   0.0000   0.0000

[...]

          k = 0.3333 0.4793-0.4742 (  3700 PWs)   bands (ev):

   -24.3620 -24.3599 -24.3174 -24.3164 -24.3089 -24.3068 -24.2191 -24.2173
   -24.2157 -24.2153 -15.6435 -15.5233 -14.3108 -14.1251 -13.7785 -13.7418
   -13.3268 -13.3144  -5.7590  -5.0046  -4.5447  -3.6988  -1.7236  -1.5118
    -1.0022  -0.8844   0.0535   0.2682   0.6543   0.7519   1.4534   1.6576
     1.8212   1.9877   2.0737   2.3165   2.5076   2.5950   2.7695   2.8371
     3.0041   3.1934   3.6784   3.7798   7.6302   7.7191   8.5518   8.8407
     9.5912   9.7447  10.7667  11.1294  11.5511  11.7977  12.1628  12.2762
    13.2323  13.6472  13.8540  14.4278  14.6521  14.9208  15.6719  16.2882

     occupation numbers
     1.0000   1.0000   1.0000   1.0000   1.0000   1.0000   1.0000   1.0000
     1.0000   1.0000   1.0000   1.0000   1.0000   1.0000   1.0000   1.0000
     1.0000   1.0000   1.0000   1.0000   1.0000   1.0000   1.0000   1.0000
     1.0000   1.0000   1.0000   1.0000   1.0000   1.0000   1.0000   1.0000
     1.0000   1.0000   1.0000   1.0000   1.0000   1.0000   1.0000   1.0000
     1.0000   1.0000   1.0000   1.0000   0.0000   0.0000   0.0000   0.0000
     0.0000   0.0000   0.0000   0.0000   0.0000   0.0000   0.0000   0.0000
     0.0000   0.0000   0.0000   0.0000   0.0000   0.0000   0.0000   0.0000

     highest occupied, lowest unoccupied level (ev):     3.8706    7.3216

!    total energy              =    -738.93762697 Ry
     estimated scf accuracy    <       0.00000040 Ry

     The total energy is the sum of the following terms:
     one-electron contribution =    -345.57790880 Ry
     hartree contribution      =     218.82260647 Ry
     xc contribution           =    -165.92267034 Ry
     ewald contribution        =    -370.02876172 Ry
     one-center paw contrib.   =     -76.23089256 Ry
      -> PAW hartree energy AE =       0.00000000 Ry
      -> PAW hartree energy PS =       0.00000000 Ry
      -> PAW xc energy AE      =       0.00000000 Ry
      -> PAW xc energy PS      =       0.00000000 Ry
      -> total E_H with PAW    =     218.82260647 Ry
      -> total E_XC with PAW   =    -165.92267034 Ry

     convergence has been achieved in   9 iterations

     Writing all to output data dir bands_nm/myprefix.save/

     General routines

     Parallel routines

     PAW routines

   This run was terminated on:   3: 7:59  13Jul2023

   JOB DONE.