     Program PWSCF v.7.1 starts on 14Jul2023 at  1:12:28

     Reading input from espresso_3945.pwi
Warning: card &CELL ignored
Warning: card / ignored

     Current dimensions of program PWSCF are:
     Max number of different atomic species (ntypx) = 10
     Max number of k-points (npk) =  40000
     Max angular momentum in pseudopotentials (lmaxx) =  4
     file Pb.pbe-dn-kjpaw_psl.0.2.2.UPF: wavefunction(s)  6S renormalized
     file O.pbe-n-kjpaw_psl.0.1.UPF: wavefunction(s)  2P renormalized
     Message from routine setup:
     using ibrav=0 with symmetry is DISCOURAGED, use correct ibrav instead

     K-points division:     npool     =       2
     R & G space division:  proc/nbgrp/npool/nimage =       4
     Subspace diagonalization in iterative solution of the eigenvalue problem:
     a serial algorithm will be used

     Using Slab Decomposition

     bravais-lattice index     =            0
     lattice parameter (alat)  =      10.2947  a.u.
     unit-cell volume          =     902.1788 (a.u.)^3
     number of atoms/cell      =           12
     number of atomic types    =            3
     number of electrons       =        76.00
     number of Kohn-Sham states=           64
     kinetic-energy cutoff     =      30.0000  Ry
     charge density cutoff     =     240.0000  Ry
     scf convergence threshold =      1.0E-06
     mixing beta               =       0.7000
     number of iterations used =            8  plain     mixing
     Exchange-correlation= SLA  PW   PBX  PBC
                           (   1   4   3   4   0   0   0)

     celldm(1)=  10.294666  celldm(2)=   0.000000  celldm(3)=   0.000000
     celldm(4)=   0.000000  celldm(5)=   0.000000  celldm(6)=   0.000000

     crystal axes: (cart. coord. in units of alat)
               a(1) = (   1.000000   0.000000   0.000000 )
               a(2) = (  -0.494831   0.868989   0.000000 )
               a(3) = (   0.178196   0.306532   0.951571 )

     reciprocal axes: (cart. coord. in units 2 pi/alat)
               b(1) = (  1.000000  0.569433 -0.370698 )
               b(2) = (  0.000000  1.150762 -0.370698 )
               b(3) = (  0.000000  0.000000  1.050893 )

     PseudoPot. # 1 for Li read from file:
     /lustre07/scratch/pragov/crystal_structure_design/utils/SSSP/li_pbe_v1.4.uspp.F.UPF
     MD5 check sum: e912e257baa3777c20ea3d68f190483c
     Pseudo is Ultrasoft, Zval =  3.0
     Generated by new atomic code, or converted to UPF format
     Using radial grid of  751 points,  5 beta functions with:
                l(1) =   0
                l(2) =   0
                l(3) =   0
                l(4) =   1
                l(5) =   1
     Q(r) pseudized with 10 coefficients,  rinner =    1.150   1.150   1.150

     PseudoPot. # 2 for Pb read from file:
     /lustre07/scratch/pragov/crystal_structure_design/utils/SSSP/Pb.pbe-dn-kjpaw_psl.0.2.2.UPF
     MD5 check sum: 9d431e6316058b74ade52399a6cf67da
     Pseudo is Projector augmented-wave + core cor, Zval = 14.0
     Generated using "atomic" code by A. Dal Corso  v.5.0.99 svn rev. 10869
     Shape of augmentation charge: PSQ
     Using radial grid of 1281 points,  6 beta functions with:
                l(1) =   0
                l(2) =   0
                l(3) =   1
                l(4) =   1
                l(5) =   2
                l(6) =   2
     Q(r) pseudized with 0 coefficients

     PseudoPot. # 3 for O  read from file:
     /lustre07/scratch/pragov/crystal_structure_design/utils/SSSP/O.pbe-n-kjpaw_psl.0.1.UPF
     MD5 check sum: 0234752ac141de4415c5fc33072bef88
     Pseudo is Projector augmented-wave + core cor, Zval =  6.0
     Generated using "atomic" code by A. Dal Corso  v.5.0.99 svn rev. 10869
     Shape of augmentation charge: BESSEL
     Using radial grid of 1095 points,  4 beta functions with:
                l(1) =   0
                l(2) =   0
                l(3) =   1
                l(4) =   1
     Q(r) pseudized with 0 coefficients

     atomic species   valence    mass     pseudopotential
        Li             3.00     6.94000     Li( 1.00)
        Pb            14.00   207.20000     Pb( 1.00)
        O              6.00    15.99900     O ( 1.00)

      2 Sym. Ops., with inversion, found

                                    s                        frac. trans.

      isym =  1     identity

 cryst.   s( 1) = (     1          0          0      )
                  (     0          1          0      )
                  (     0          0          1      )

 cart.    s( 1) = (  1.0000000  0.0000000  0.0000000 )
                  (  0.0000000  1.0000000  0.0000000 )
                  (  0.0000000  0.0000000  1.0000000 )

      isym =  2     inversion

 cryst.   s( 2) = (    -1          0          0      )
                  (     0         -1          0      )
                  (     0          0         -1      )

 cart.    s( 2) = ( -1.0000000  0.0000000 -0.0000000 )
                  (  0.0000000 -1.0000000  0.0000000 )
                  (  0.0000000  0.0000000 -1.0000000 )

   Cartesian axes

     site n.     atom                  positions (alat units)
         1           Li  tau(   1) = (   0.0182176   0.8783309   0.7136785  )
         2           Li  tau(   2) = (   0.6651475   0.2971903   0.2378928  )
         3           Li  tau(   3) = (   0.5055923   0.5950056   0.7136785  )
         4           Li  tau(   4) = (   0.1777728   0.5805155   0.2378928  )
         5           Pb  tau(   5) = (  -0.3163107   0.8677408   0.2378928  )
         6           Pb  tau(   6) = (   0.9996758   0.3077803   0.7136785  )
         7           O   tau(   7) = (   0.5000000   0.0000000   0.0000000  )
         8           O   tau(   8) = (  -0.1583175   0.5877606   0.4757857  )
         9           O   tau(   9) = (   0.1796018   0.5837254   0.9435078  )
        10           O   tau(  10) = (   0.3540845   0.8838697   0.4838493  )
        11           O   tau(  11) = (   0.5037633   0.5917957   0.0080636  )
        12           O   tau(  12) = (   0.3292806   0.2916515   0.4677221  )

   Crystallographic axes

     site n.     atom                  positions (cryst. coord.)
         1           Li  tau(   1) = (  0.2538090  0.7461910  0.7500000  )
         2           Li  tau(   2) = (  0.7461910  0.2538090  0.2500000  )
         3           Li  tau(   3) = (  0.5798490  0.4201510  0.7500000  )
         4           Li  tau(   4) = (  0.4201510  0.5798490  0.2500000  )
         5           Pb  tau(   5) = (  0.0896230  0.9103770  0.2500000  )
         6           Pb  tau(   6) = (  0.9103770  0.0896230  0.7500000  )
         7           O   tau(   7) = (  0.5000000  0.0000000  0.0000000  )
         8           O   tau(   8) = ( -0.0000000  0.5000000  0.5000000  )
         9           O   tau(   9) = (  0.1622380  0.3219730  0.9915260  )
        10           O   tau(  10) = (  0.6780270  0.8377620  0.5084740  )
        11           O   tau(  11) = (  0.8377620  0.6780270  0.0084740  )
        12           O   tau(  12) = (  0.3219730  0.1622380  0.4915260  )

     number of k points=    14
                       cart. coord. in units 2pi/alat
        k(    1) = (   0.0000000   0.0000000   0.0000000), wk =   0.0740741
        k(    2) = (   0.0000000   0.0000000   0.3502978), wk =   0.1481481
        k(    3) = (   0.0000000   0.3835874  -0.1235659), wk =   0.1481481
        k(    4) = (   0.0000000   0.3835874   0.2267319), wk =   0.1481481
        k(    5) = (   0.0000000   0.3835874  -0.4738637), wk =   0.1481481
        k(    6) = (   0.3333333   0.1898109  -0.1235659), wk =   0.1481481
        k(    7) = (   0.3333333   0.1898109   0.2267319), wk =   0.1481481
        k(    8) = (   0.3333333   0.1898109  -0.4738637), wk =   0.1481481
        k(    9) = (   0.3333333   0.5733983  -0.2471318), wk =   0.1481481
        k(   10) = (   0.3333333   0.5733983   0.1031660), wk =   0.1481481
        k(   11) = (   0.3333333   0.5733983  -0.5974295), wk =   0.1481481
        k(   12) = (   0.3333333  -0.1937765   0.0000000), wk =   0.1481481
        k(   13) = (   0.3333333  -0.1937765   0.3502978), wk =   0.1481481
        k(   14) = (   0.3333333  -0.1937765  -0.3502978), wk =   0.1481481

                       cryst. coord.
        k(    1) = (   0.0000000   0.0000000   0.0000000), wk =   0.0740741
        k(    2) = (   0.0000000   0.0000000   0.3333333), wk =   0.1481481
        k(    3) = (   0.0000000   0.3333333   0.0000000), wk =   0.1481481
        k(    4) = (   0.0000000   0.3333333   0.3333333), wk =   0.1481481
        k(    5) = (   0.0000000   0.3333333  -0.3333333), wk =   0.1481481
        k(    6) = (   0.3333333   0.0000000   0.0000000), wk =   0.1481481
        k(    7) = (   0.3333333   0.0000000   0.3333333), wk =   0.1481481
        k(    8) = (   0.3333333   0.0000000  -0.3333333), wk =   0.1481481
        k(    9) = (   0.3333333   0.3333333   0.0000000), wk =   0.1481481
        k(   10) = (   0.3333333   0.3333333   0.3333333), wk =   0.1481481
        k(   11) = (   0.3333333   0.3333333  -0.3333333), wk =   0.1481481
        k(   12) = (   0.3333333  -0.3333333  -0.0000000), wk =   0.1481481
        k(   13) = (   0.3333333  -0.3333333   0.3333333), wk =   0.1481481
        k(   14) = (   0.3333333  -0.3333333  -0.3333333), wk =   0.1481481

     Check: negative core charge=   -0.000011

     Initial potential from superposition of free atoms

     starting charge      74.1923, renormalised to      76.0000
     Starting wfcs are   62 randomized atomic wfcs +    2 random wfcs
     Checking if some PAW data can be deallocated...

     Self-consistent Calculation

     iteration #  1     ecut=    30.00 Ry     beta= 0.70
     Davidson diagonalization with overlap

     ethr =  1.00E-02,  avg # of iterations =  5.9

     total energy              =   -2047.91362696 Ry
     estimated scf accuracy    <       2.10058293 Ry

[...]

     c_bands:  1 eigenvalues not converged
     ethr =  2.39E-05,  avg # of iterations =  3.3

[...]

     total energy              =   -2048.95961787 Ry
     estimated scf accuracy    <       0.00001389 Ry

     iteration #  9     ecut=    30.00 Ry     beta= 0.70
     Davidson diagonalization with overlap

     ethr =  1.83E-08,  avg # of iterations =  1.4

     End of self-consistent calculation

          k = 0.0000 0.0000 0.0000 (  2471 PWs)   bands (ev):

   -36.6965 -36.6879 -36.6830 -36.6814 -11.1018 -10.9396 -10.8534 -10.3347
   -10.2606  -9.9341  -8.7443  -8.7418  -8.7307  -8.5929  -8.5853  -8.5851
    -8.2124  -7.9342  -7.2187  -7.1202  -1.4293   0.9145   2.8609   3.2311
     3.3528   3.8915   4.3118   4.4549   4.5051   5.0145   5.4683   5.5870
     5.8779   5.9905   6.0569   6.0835   6.2900   6.3216   7.3782  10.7726
    12.2137  14.1263  14.5362  15.2764  15.3606  15.4137  16.6805  17.0202
    17.2615  17.8255  18.5933  18.9734  19.1014  19.4660  19.5047  19.6937
    19.8021  20.3824  20.7312  23.9845  24.0395  24.4578  24.4625  24.5054

     occupation numbers
     1.0000   1.0000   1.0000   1.0000   1.0000   1.0000   1.0000   1.0000
     1.0000   1.0000   1.0000   1.0000   1.0000   1.0000   1.0000   1.0000
     1.0000   1.0000   1.0000   1.0000   1.0000   1.0000   1.0000   1.0000
     1.0000   1.0000   1.0000   1.0000   1.0000   1.0000   1.0000   1.0000
     1.0000   1.0000   1.0000   1.0000   1.0000   1.0000   0.0000   0.0000
     0.0000   0.0000   0.0000   0.0000   0.0000   0.0000   0.0000   0.0000
     0.0000   0.0000   0.0000   0.0000   0.0000   0.0000   0.0000   0.0000
     0.0000   0.0000   0.0000   0.0000   0.0000   0.0000   0.0000   0.0000

[...]

          k = 0.3333-0.1938-0.3503 (  2504 PWs)   bands (ev):

   -36.6929 -36.6896 -36.6855 -36.6833 -11.0784 -10.9470 -10.7224 -10.3892
   -10.2205  -9.8873  -8.7850  -8.7642  -8.6613  -8.6457  -8.6012  -8.5475
    -8.4474  -7.7491  -7.6561  -7.0135  -0.5630   0.1885   2.8625   3.1131
     3.7431   3.8971   4.2071   4.5224   5.0216   5.0752   5.2851   5.3384
     5.4987   5.7251   5.8145   5.9846   6.0812   6.1057   9.1223   9.8716
    13.3634  13.6874  14.0714  14.9521  15.8164  16.2972  17.1002  17.3416
    17.8181  17.8482  18.0509  18.6464  19.0230  19.3924  19.4467  19.7442
    19.9523  20.2961  20.5689  20.8347  20.9154  21.4751  23.2713  23.5304

     occupation numbers
     1.0000   1.0000   1.0000   1.0000   1.0000   1.0000   1.0000   1.0000
     1.0000   1.0000   1.0000   1.0000   1.0000   1.0000   1.0000   1.0000
     1.0000   1.0000   1.0000   1.0000   1.0000   1.0000   1.0000   1.0000
     1.0000   1.0000   1.0000   1.0000   1.0000   1.0000   1.0000   1.0000
     1.0000   1.0000   1.0000   1.0000   1.0000   1.0000   0.0000   0.0000
     0.0000   0.0000   0.0000   0.0000   0.0000   0.0000   0.0000   0.0000
     0.0000   0.0000   0.0000   0.0000   0.0000   0.0000   0.0000   0.0000
     0.0000   0.0000   0.0000   0.0000   0.0000   0.0000   0.0000   0.0000

     highest occupied, lowest unoccupied level (ev):     6.3439    7.3782

!    total energy              =   -2048.95962049 Ry
     estimated scf accuracy    <       0.00000078 Ry

     The total energy is the sum of the following terms:
     one-electron contribution =    -145.41925788 Ry
     hartree contribution      =     121.64634312 Ry
     xc contribution           =    -147.55760041 Ry
     ewald contribution        =    -363.38835954 Ry
     one-center paw contrib.   =   -1514.24074579 Ry
      -> PAW hartree energy AE =       0.00000000 Ry
      -> PAW hartree energy PS =       0.00000000 Ry
      -> PAW xc energy AE      =       0.00000000 Ry
      -> PAW xc energy PS      =       0.00000000 Ry
      -> total E_H with PAW    =     121.64634312 Ry
      -> total E_XC with PAW   =    -147.55760041 Ry

     convergence has been achieved in   9 iterations

     Writing all to output data dir bands_nm/myprefix.save/

     General routines

     Parallel routines

     PAW routines

   This run was terminated on:   1:12:37  14Jul2023

   JOB DONE.