     Program PWSCF v.7.1 starts on 14Jul2023 at 12:17: 5

     Reading input from espresso_17929.pwi
Warning: card &CELL ignored
Warning: card / ignored

     Current dimensions of program PWSCF are:
     Max number of different atomic species (ntypx) = 10
     Max number of k-points (npk) =  40000
     Max angular momentum in pseudopotentials (lmaxx) =  4
     file O.pbe-n-kjpaw_psl.0.1.UPF: wavefunction(s)  2P renormalized
     Message from routine setup:
     using ibrav=0 with symmetry is DISCOURAGED, use correct ibrav instead

     K-points division:     npool     =       2
     R & G space division:  proc/nbgrp/npool/nimage =       4
     Subspace diagonalization in iterative solution of the eigenvalue problem:
     a serial algorithm will be used

     Using Slab Decomposition

     bravais-lattice index     =            0
     lattice parameter (alat)  =      16.1692  a.u.
     unit-cell volume          =    1483.7316 (a.u.)^3
     number of atoms/cell      =           17
     number of atomic types    =            4
     number of electrons       =       108.00
     number of Kohn-Sham states=           64
     kinetic-energy cutoff     =      30.0000  Ry
     charge density cutoff     =     240.0000  Ry
     scf convergence threshold =      1.0E-06
     mixing beta               =       0.7000
     number of iterations used =            8  plain     mixing
     Exchange-correlation= SLA  PW   PBX  PBC
                           (   1   4   3   4   0   0   0)

     celldm(1)=  16.169183  celldm(2)=   0.000000  celldm(3)=   0.000000
     celldm(4)=   0.000000  celldm(5)=   0.000000  celldm(6)=   0.000000

     crystal axes: (cart. coord. in units of alat)
               a(1) = (   1.000000   0.000000   0.000000 )
               a(2) = (   0.000000   0.573474   0.000000 )
               a(3) = (   0.000000   0.006013   0.612036 )

     reciprocal axes: (cart. coord. in units 2 pi/alat)
               b(1) = (  1.000000  0.000000  0.000000 )
               b(2) = (  0.000000  1.743757 -0.017131 )
               b(3) = (  0.000000  0.000000  1.633890 )

     PseudoPot. # 1 for Li read from file:
     /lustre07/scratch/pragov/crystal_structure_design/utils/SSSP/li_pbe_v1.4.uspp.F.UPF
     MD5 check sum: e912e257baa3777c20ea3d68f190483c
     Pseudo is Ultrasoft, Zval =  3.0
     Generated by new atomic code, or converted to UPF format
     Using radial grid of  751 points,  5 beta functions with:
                l(1) =   0
                l(2) =   0
                l(3) =   0
                l(4) =   1
                l(5) =   1
     Q(r) pseudized with 10 coefficients,  rinner =    1.150   1.150   1.150

     PseudoPot. # 2 for Sb read from file:
     /lustre07/scratch/pragov/crystal_structure_design/utils/SSSP/sb_pbe_v1.4.uspp.F.UPF
     MD5 check sum: 9bc50dfb53373b713f5709b9110fe27f
     Pseudo is Ultrasoft + core correction, Zval = 15.0
     Generated by new atomic code, or converted to UPF format
     Using radial grid of  891 points,  6 beta functions with:
                l(1) =   0
                l(2) =   0
                l(3) =   1
                l(4) =   1
                l(5) =   2
                l(6) =   2
     Q(r) pseudized with  8 coefficients,  rinner =    1.350   1.350   1.350
                                                       1.350   1.350

     PseudoPot. # 3 for Te read from file:
     /lustre07/scratch/pragov/crystal_structure_design/utils/SSSP/Te_pbe_v1.uspp.F.UPF
     MD5 check sum: c319670d6894cc26e93307826a071b75
     Pseudo is Ultrasoft + core correction, Zval =  6.0
     Generated by new atomic code, or converted to UPF format
     Using radial grid of  891 points,  5 beta functions with:
                l(1) =   0
                l(2) =   0
                l(3) =   1
                l(4) =   1
                l(5) =   2
     Q(r) pseudized with  6 coefficients,  rinner =    1.800   1.800   1.800
                                                       1.800   1.800

     PseudoPot. # 4 for O  read from file:
     /lustre07/scratch/pragov/crystal_structure_design/utils/SSSP/O.pbe-n-kjpaw_psl.0.1.UPF
     MD5 check sum: 0234752ac141de4415c5fc33072bef88
     Pseudo is Projector augmented-wave + core cor, Zval =  6.0
     Generated using "atomic" code by A. Dal Corso  v.5.0.99 svn rev. 10869
     Shape of augmentation charge: BESSEL
     Using radial grid of 1095 points,  4 beta functions with:
                l(1) =   0
                l(2) =   0
                l(3) =   1
                l(4) =   1
     Q(r) pseudized with 0 coefficients

     atomic species   valence    mass     pseudopotential
        Li             3.00     6.94000     Li( 1.00)
        Sb            15.00   121.76000     Sb( 1.00)
        Te             6.00   127.60000     Te( 1.00)
        O              6.00    15.99900     O ( 1.00)

      2 Sym. Ops. (no inversion) found

                                    s                        frac. trans.

      isym =  1     identity

 cryst.   s( 1) = (     1          0          0      )
                  (     0          1          0      )
                  (     0          0          1      )

 cart.    s( 1) = (  1.0000000  0.0000000  0.0000000 )
                  (  0.0000000  1.0000000  0.0000000 )
                  (  0.0000000  0.0000000  1.0000000 )

      isym =  2     180 deg rotation - cart. axis [1,0,0]

 cryst.   s( 2) = (     1          0          0      )
                  (     0         -1          0      )
                  (     0          0         -1      )

 cart.    s( 2) = (  1.0000000  0.0000000  0.0000000 )
                  (  0.0000000 -1.0000000  0.0000000 )
                  (  0.0000000  0.0000000 -1.0000000 )

   Cartesian axes

     site n.     atom                  positions (alat units)
         1           Li  tau(   1) = (   0.7191560   0.0000000   0.0000000  )
         2           Sb  tau(   2) = (   0.1030680   0.0000000   0.0000000  )
         3           Te  tau(   3) = (   0.4099310   0.2867372   0.0000000  )
         4           Te  tau(   4) = (   0.9244040   0.0030064   0.3060181  )
         5           Te  tau(   5) = (   0.6028080   0.2897436   0.3060181  )
         6           O   tau(   6) = (   0.2611360   0.1461803   0.0881981  )
         7           O   tau(   7) = (   0.5822480   0.1654812   0.1117284  )
         8           O   tau(   8) = (   0.9202180   0.1173061   0.1116317  )
         9           O   tau(   9) = (   0.4394330   0.4102086   0.1915924  )
        10           O   tau(  10) = (   0.0808920   0.4508453   0.1974576  )
        11           O   tau(  11) = (   0.7544780   0.4369836   0.2186805  )
        12           O   tau(  12) = (   0.7544780   0.1425035   0.3933557  )
        13           O   tau(  13) = (   0.0808920   0.1286418   0.4145786  )
        14           O   tau(  14) = (   0.4394330   0.1692785   0.4204438  )
        15           O   tau(  15) = (   0.9202180   0.4621810   0.5004045  )
        16           O   tau(  16) = (   0.5822480   0.4140059   0.5003078  )
        17           O   tau(  17) = (   0.2611360   0.4333068   0.5238381  )

   Crystallographic axes

     site n.     atom                  positions (cryst. coord.)
         1           Li  tau(   1) = (  0.7191560  0.0000000  0.0000000  )
         2           Sb  tau(   2) = (  0.1030680  0.0000000  0.0000000  )
         3           Te  tau(   3) = (  0.4099310  0.5000000  0.0000000  )
         4           Te  tau(   4) = (  0.9244040  0.0000000  0.5000000  )
         5           Te  tau(   5) = (  0.6028080  0.5000000  0.5000000  )
         6           O   tau(   6) = (  0.2611360  0.2533920  0.1441060  )
         7           O   tau(   7) = (  0.5822480  0.2866450  0.1825520  )
         8           O   tau(   8) = (  0.9202180  0.2026410  0.1823940  )
         9           O   tau(   9) = (  0.4394330  0.7120220  0.3130410  )
        10           O   tau(  10) = (  0.0808920  0.7827820  0.3226240  )
        11           O   tau(  11) = (  0.7544780  0.7582470  0.3573000  )
        12           O   tau(  12) = (  0.7544780  0.2417530  0.6427000  )
        13           O   tau(  13) = (  0.0808920  0.2172180  0.6773760  )
        14           O   tau(  14) = (  0.4394330  0.2879780  0.6869590  )
        15           O   tau(  15) = (  0.9202180  0.7973590  0.8176060  )
        16           O   tau(  16) = (  0.5822480  0.7133550  0.8174480  )
        17           O   tau(  17) = (  0.2611360  0.7466080  0.8558940  )

     number of k points=    10
                       cart. coord. in units 2pi/alat
        k(    1) = (   0.0000000   0.0000000   0.0000000), wk =   0.0740741
        k(    2) = (   0.0000000   0.0000000   0.5446301), wk =   0.1481481
        k(    3) = (   0.0000000   0.5812524  -0.0057103), wk =   0.1481481
        k(    4) = (   0.0000000   0.5812524   0.5389198), wk =   0.1481481
        k(    5) = (   0.0000000   0.5812524  -0.5503404), wk =   0.1481481
        k(    6) = (   0.3333333   0.0000000   0.0000000), wk =   0.1481481
        k(    7) = (   0.3333333   0.0000000   0.5446301), wk =   0.2962963
        k(    8) = (   0.3333333   0.5812524  -0.0057103), wk =   0.2962963
        k(    9) = (   0.3333333   0.5812524   0.5389198), wk =   0.2962963
        k(   10) = (   0.3333333   0.5812524  -0.5503404), wk =   0.2962963

                       cryst. coord.
        k(    1) = (   0.0000000   0.0000000   0.0000000), wk =   0.0740741
        k(    2) = (   0.0000000   0.0000000   0.3333333), wk =   0.1481481
        k(    3) = (   0.0000000   0.3333333  -0.0000000), wk =   0.1481481
        k(    4) = (   0.0000000   0.3333333   0.3333333), wk =   0.1481481
        k(    5) = (   0.0000000   0.3333333  -0.3333333), wk =   0.1481481
        k(    6) = (   0.3333333   0.0000000   0.0000000), wk =   0.1481481
        k(    7) = (   0.3333333   0.0000000   0.3333333), wk =   0.2962963
        k(    8) = (   0.3333333   0.3333333  -0.0000000), wk =   0.2962963
        k(    9) = (   0.3333333   0.3333333   0.3333333), wk =   0.2962963
        k(   10) = (   0.3333333   0.3333333  -0.3333333), wk =   0.2962963

     Check: negative core charge=   -0.000009

     Initial potential from superposition of free atoms

     starting charge     106.5486, renormalised to     108.0000
     Starting wfcs are   74 randomized atomic wfcs
     Checking if some PAW data can be deallocated...

     Self-consistent Calculation

     iteration #  1     ecut=    30.00 Ry     beta= 0.70
     Davidson diagonalization with overlap

     ethr =  1.00E-02,  avg # of iterations =  2.0

     total energy              =    -775.58430737 Ry
     estimated scf accuracy    <       4.08215588 Ry

[...]

     c_bands:  1 eigenvalues not converged
     ethr =  6.74E-06,  avg # of iterations =  8.6

[...]

     total energy              =    -777.45497270 Ry
     estimated scf accuracy    <       0.00000193 Ry

     iteration # 12     ecut=    30.00 Ry     beta= 0.70
     Davidson diagonalization with overlap

     ethr =  1.78E-09,  avg # of iterations =  2.0

     End of self-consistent calculation

          k = 0.0000 0.0000 0.0000 (  4119 PWs)   bands (ev):

   -37.7158 -23.6425 -23.6143 -23.4757 -23.4542 -23.4472 -15.6535 -14.7116
   -13.7899 -13.3004 -12.8297 -12.6935 -12.5767 -12.2454 -12.0173 -12.0153
   -11.7696 -11.4969  -7.1481  -4.8404  -4.1630  -1.5529  -1.5024  -1.0787
    -0.7595  -0.7515  -0.1610   0.1102   0.1940   0.5632   0.8640   1.9761
     1.9792   2.2512   2.5957   2.6085   2.8282   2.8478   3.0070   3.0969
     3.3898   3.6110   3.6466   3.7527   3.8132   3.9403   4.0808   4.1181
     4.2607   4.2904   4.5347   4.6141   4.7353   5.0158   6.3194   7.9808
     8.6549  10.1274  10.8522  11.6971  11.8016  12.2019  13.0018  13.5619

     occupation numbers
     1.0000   1.0000   1.0000   1.0000   1.0000   1.0000   1.0000   1.0000
     1.0000   1.0000   1.0000   1.0000   1.0000   1.0000   1.0000   1.0000
     1.0000   1.0000   1.0000   1.0000   1.0000   1.0000   1.0000   1.0000
     1.0000   1.0000   1.0000   1.0000   1.0000   1.0000   1.0000   1.0000
     1.0000   1.0000   1.0000   1.0000   1.0000   1.0000   1.0000   1.0000
     1.0000   1.0000   1.0000   1.0000   1.0000   1.0000   1.0000   1.0000
     1.0000   1.0000   1.0000   1.0000   1.0000   1.0000   0.0000   0.0000
     0.0000   0.0000   0.0000   0.0000   0.0000   0.0000   0.0000   0.0000

[...]

          k = 0.3333 0.5813-0.5503 (  4120 PWs)   bands (ev):

   -37.7158 -23.6430 -23.6126 -23.4743 -23.4579 -23.4482 -15.1550 -14.5517
   -14.1734 -13.3990 -12.9418 -12.8648 -12.6647 -12.5196 -12.1920 -12.0219
   -11.6957 -11.4974  -5.9497  -4.8303  -4.1647  -2.7924  -1.2121  -1.0617
    -0.8396  -0.3399  -0.2648   0.2539   0.3182   0.8099   1.0844   1.6047
     1.7912   2.1373   2.2307   2.5698   2.8367   2.9370   3.0680   3.2763
     3.4662   3.5998   3.6545   3.7263   3.8915   3.9999   4.0576   4.1404
     4.2801   4.3847   4.4869   4.5519   4.6730   4.7857   7.5061   8.1105
     8.5068   9.3984  11.3847  11.6631  11.8100  12.2459  12.6635  13.2941

     occupation numbers
     1.0000   1.0000   1.0000   1.0000   1.0000   1.0000   1.0000   1.0000
     1.0000   1.0000   1.0000   1.0000   1.0000   1.0000   1.0000   1.0000
     1.0000   1.0000   1.0000   1.0000   1.0000   1.0000   1.0000   1.0000
     1.0000   1.0000   1.0000   1.0000   1.0000   1.0000   1.0000   1.0000
     1.0000   1.0000   1.0000   1.0000   1.0000   1.0000   1.0000   1.0000
     1.0000   1.0000   1.0000   1.0000   1.0000   1.0000   1.0000   1.0000
     1.0000   1.0000   1.0000   1.0000   1.0000   1.0000   0.0000   0.0000
     0.0000   0.0000   0.0000   0.0000   0.0000   0.0000   0.0000   0.0000

     highest occupied, lowest unoccupied level (ev):     5.0158    6.3194

!    total energy              =    -777.45497286 Ry
     estimated scf accuracy    <       0.00000065 Ry

     The total energy is the sum of the following terms:
     one-electron contribution =    -270.87833841 Ry
     hartree contribution      =     198.83720776 Ry
     xc contribution           =    -180.46008739 Ry
     ewald contribution        =    -410.56100575 Ry
     one-center paw contrib.   =    -114.39274907 Ry
      -> PAW hartree energy AE =       0.00000000 Ry
      -> PAW hartree energy PS =       0.00000000 Ry
      -> PAW xc energy AE      =       0.00000000 Ry
      -> PAW xc energy PS      =       0.00000000 Ry
      -> total E_H with PAW    =     198.83720776 Ry
      -> total E_XC with PAW   =    -180.46008739 Ry

     convergence has been achieved in  12 iterations

     Writing all to output data dir bands_nm/myprefix.save/

     General routines

     Parallel routines

     PAW routines

   This run was terminated on:  12:17:41  14Jul2023

   JOB DONE.