     Program PWSCF v.7.1 starts on 15Jul2023 at 20:23:36

     Reading input from espresso_9002.pwi
Warning: card &CELL ignored
Warning: card / ignored

     Current dimensions of program PWSCF are:
     Max number of different atomic species (ntypx) = 10
     Max number of k-points (npk) =  40000
     Max angular momentum in pseudopotentials (lmaxx) =  4

     K-points division:     npool     =       2
     R & G space division:  proc/nbgrp/npool/nimage =       4
     Subspace diagonalization in iterative solution of the eigenvalue problem:
     one sub-group per band group will be used

     Using Slab Decomposition

     bravais-lattice index     =            0
     lattice parameter (alat)  =       8.5772  a.u.
     unit-cell volume          =    2840.6442 (a.u.)^3
     number of atoms/cell      =           16
     number of atomic types    =            5
     number of electrons       =       208.00
     number of Kohn-Sham states=          256
     kinetic-energy cutoff     =      30.0000  Ry
     charge density cutoff     =     240.0000  Ry
     scf convergence threshold =      1.0E-06
     mixing beta               =       0.7000
     number of iterations used =            8  plain     mixing
     Exchange-correlation=  SLA  PW   PBX  PBC
                           (   1   4   3   4   0   0   0)

     celldm(1)=   8.577170  celldm(2)=   0.000000  celldm(3)=   0.000000
     celldm(4)=   0.000000  celldm(5)=   0.000000  celldm(6)=   0.000000

     crystal axes: (cart. coord. in units of alat)
               a(1) = (   1.000000   0.000000   0.000000 )
               a(2) = (   0.002988   1.538055   0.000000 )
               a(3) = (   0.002592   0.013764   2.926934 )

     reciprocal axes: (cart. coord. in units 2 pi/alat)
               b(1) = (  1.000000 -0.001943 -0.000877 )
               b(2) = (  0.000000  0.650172 -0.003057 )
               b(3) = (  0.000000  0.000000  0.341654 )

     PseudoPot. # 1 for Ag read from file:
     /lustre07/scratch/pragov/crystal_structure_design/utils/SSSP/Ag_ONCV_PBE-1.0.oncvpsp.upf
     MD5 check sum: 94f47bd0669c641108e45594df92fabc
     Pseudo is Norm-conserving, Zval = 19.0
     Generated using ONCVPSP code by D. R. Hamann
     Using radial grid of 1398 points,  6 beta functions with:
                l(1) =   0
                l(2) =   0
                l(3) =   1
                l(4) =   1
                l(5) =   2
                l(6) =   2

     PseudoPot. # 2 for Hg read from file:
     /lustre07/scratch/pragov/crystal_structure_design/utils/SSSP/Hg_ONCV_PBE-1.0.oncvpsp.upf
     MD5 check sum: dd5a8773074bfcf4280086d4d95875c4
     Pseudo is Norm-conserving, Zval = 20.0
     Generated using ONCVPSP code by D. R. Hamann
     Using radial grid of 1262 points,  8 beta functions with:
                l(1) =   0
                l(2) =   0
                l(3) =   1
                l(4) =   1
                l(5) =   2
                l(6) =   2
                l(7) =   3
                l(8) =   3

     PseudoPot. # 3 for S  read from file:
     /lustre07/scratch/pragov/crystal_structure_design/utils/SSSP/s_pbe_v1.4.uspp.F.UPF
     MD5 check sum: 88d86576ff6df21479756cfb9bdac1df
     Pseudo is Ultrasoft + core correction, Zval =  6.0
     Generated by new atomic code, or converted to UPF format
     Using radial grid of  907 points,  6 beta functions with:
                l(1) =   0
                l(2) =   0
                l(3) =   1
                l(4) =   1
                l(5) =   2
                l(6) =   2
     Q(r) pseudized with  8 coefficients,  rinner =    1.300   1.300   1.300
                                                       1.300   1.300

     PseudoPot. # 4 for Br read from file:
     /lustre07/scratch/pragov/crystal_structure_design/utils/SSSP/br_pbe_v1.4.uspp.F.UPF
     MD5 check sum: d3ffb7b29f6225aa16fe06858fb2a80b
     Pseudo is Ultrasoft + core correction, Zval =  7.0
     Generated by new atomic code, or converted to UPF format
     Using radial grid of  879 points,  6 beta functions with:
                l(1) =   0
                l(2) =   0
                l(3) =   1
                l(4) =   1
                l(5) =   2
                l(6) =   2
     Q(r) pseudized with  8 coefficients,  rinner =    1.100   1.100   1.100
                                                       1.100   1.100

     PseudoPot. # 5 for Cl read from file:
     /lustre07/scratch/pragov/crystal_structure_design/utils/SSSP/cl_pbe_v1.4.uspp.F.UPF
     MD5 check sum: fc6f6913ecf08c9257cb748ef0700058
     Pseudo is Ultrasoft + core correction, Zval =  7.0
     Generated by new atomic code, or converted to UPF format
     Using radial grid of  909 points,  6 beta functions with:
                l(1) =   0
                l(2) =   0
                l(3) =   1
                l(4) =   1
                l(5) =   2
                l(6) =   2
     Q(r) pseudized with  8 coefficients,  rinner =    1.300   1.300   1.300
                                                       1.300   1.300

     atomic species   valence    mass     pseudopotential
        Ag            19.00   107.86820     Ag( 1.00)
        Hg            20.00   200.59200     Hg( 1.00)
        S              6.00    32.06000     S ( 1.00)
        Br             7.00    79.90400     Br( 1.00)
        Cl             7.00    35.45000     Cl( 1.00)

     No symmetry found

                                    s                        frac. trans.

      isym =  1     identity

 cryst.   s( 1) = (     1          0          0      )
                  (     0          1          0      )
                  (     0          0          1      )

 cart.    s( 1) = (  1.0000000  0.0000000  0.0000000 )
                  (  0.0000000  1.0000000  0.0000000 )
                  (  0.0000000  0.0000000  1.0000000 )

   Cartesian axes

     site n.     atom                  positions (alat units)
         1           Ag  tau(   1) = (   0.0155704   1.2215106   1.3386656  )
         2           Ag  tau(   2) = (   0.0136298   0.3321781   1.5931332  )
         3           Ag  tau(   3) = (   0.9882371   0.4493217   0.1280036  )
         4           Ag  tau(   4) = (   0.9921271   1.0976365   2.7799407  )
         5           Hg  tau(   5) = (   0.5035847   0.9685363   0.7143505  )
         6           Hg  tau(   6) = (   0.5078185   0.5803826   2.2167312  )
         7           Hg  tau(   7) = (   0.4964881   0.2016074   0.7671407  )
         8           Hg  tau(   8) = (   0.5010798   1.3509698   2.1644562  )
         9           S   tau(   9) = (   0.5128596   1.3297087   1.1081988  )
        10           S   tau(  10) = (   0.5110836   0.2202175   1.8251455  )
        11           S   tau(  11) = (   0.4905581   0.5597419   0.3726895  )
        12           S   tau(  12) = (   0.4959265   0.9895051   2.5545726  )
        13           Br  tau(  13) = (   0.0077592   1.3462937   0.3739598  )
        14           Cl  tau(  14) = (   0.0027135   0.2169162   2.5465206  )
        15           Cl  tau(  15) = (   1.0019710   0.5757393   1.0890039  )
        16           Cl  tau(  16) = (   1.0032342   0.9742834   1.8429588  )

   Crystallographic axes

     site n.     atom                  positions (cryst. coord.)
         1           Ag  tau(   1) = (  0.0120240  0.7900990  0.4573610  )
         2           Ag  tau(   2) = (  0.0115880  0.2111020  0.5443010  )
         3           Ag  tau(   3) = (  0.9872520  0.2917450  0.0437330  )
         4           Ag  tau(   4) = (  0.9875580  0.7051530  0.9497790  )
         5           Hg  tau(   5) = (  0.5010770  0.6275310  0.2440610  )
         6           Hg  tau(   6) = (  0.5047480  0.3705710  0.7573560  )
         7           Hg  tau(   7) = (  0.4954240  0.1287340  0.2620970  )
         8           Hg  tau(   8) = (  0.4965580  0.8717450  0.7394960  )
         9           S   tau(   9) = (  0.5093050  0.8611510  0.3786210  )
        10           S   tau(  10) = (  0.5090560  0.1375990  0.6235690  )
        11           S   tau(  11) = (  0.4891440  0.3627890  0.1273310  )
        12           S   tau(  12) = (  0.4917650  0.6355380  0.8727810  )
        13           Br  tau(  13) = (  0.0048160  0.8741790  0.1277650  )
        14           Cl  tau(  14) = (  0.0000600  0.1332470  0.8700300  )
        15           Cl  tau(  15) = (  0.9998980  0.3710000  0.3720630  )
        16           Cl  tau(  16) = (  0.9997260  0.6278170  0.6296550  )

     number of k points=    14
                       cart. coord. in units 2pi/alat
        k(    1) = (   0.0000000   0.0000000   0.0000000), wk =   0.0740741
        k(    2) = (   0.0000000   0.0000000   0.1138848), wk =   0.1481481
        k(    3) = (   0.0000000   0.2167240  -0.0010191), wk =   0.1481481
        k(    4) = (   0.0000000   0.2167240   0.1128657), wk =   0.1481481
        k(    5) = (   0.0000000   0.2167240  -0.1149039), wk =   0.1481481
        k(    6) = (   0.3333333  -0.0006476  -0.0002922), wk =   0.1481481
        k(    7) = (   0.3333333  -0.0006476   0.1135926), wk =   0.1481481
        k(    8) = (   0.3333333  -0.0006476  -0.1141770), wk =   0.1481481
        k(    9) = (   0.3333333   0.2160764  -0.0013113), wk =   0.1481481
        k(   10) = (   0.3333333   0.2160764   0.1125735), wk =   0.1481481
        k(   11) = (   0.3333333   0.2160764  -0.1151961), wk =   0.1481481
        k(   12) = (   0.3333333  -0.2173715   0.0007270), wk =   0.1481481
        k(   13) = (   0.3333333  -0.2173715   0.1146118), wk =   0.1481481
        k(   14) = (   0.3333333  -0.2173715  -0.1131578), wk =   0.1481481

                       cryst. coord.
        k(    1) = (   0.0000000   0.0000000   0.0000000), wk =   0.0740741
        k(    2) = (   0.0000000   0.0000000   0.3333333), wk =   0.1481481
        k(    3) = (   0.0000000   0.3333333   0.0000000), wk =   0.1481481
        k(    4) = (   0.0000000   0.3333333   0.3333333), wk =   0.1481481
        k(    5) = (   0.0000000   0.3333333  -0.3333333), wk =   0.1481481
        k(    6) = (   0.3333333  -0.0000000   0.0000000), wk =   0.1481481
        k(    7) = (   0.3333333  -0.0000000   0.3333333), wk =   0.1481481
        k(    8) = (   0.3333333  -0.0000000  -0.3333333), wk =   0.1481481
        k(    9) = (   0.3333333   0.3333333   0.0000000), wk =   0.1481481
        k(   10) = (   0.3333333   0.3333333   0.3333333), wk =   0.1481481
        k(   11) = (   0.3333333   0.3333333  -0.3333333), wk =   0.1481481
        k(   12) = (   0.3333333  -0.3333333   0.0000000), wk =   0.1481481
        k(   13) = (   0.3333333  -0.3333333   0.3333333), wk =   0.1481481
        k(   14) = (   0.3333333  -0.3333333  -0.3333333), wk =   0.1481481

     Initial potential from superposition of free atoms

     starting charge     207.9984, renormalised to     208.0000

     negative rho (up, down):  4.510E-02 0.000E+00
     Starting wfcs are  112 randomized atomic wfcs +  144 random wfcs

     Self-consistent Calculation

     iteration #  1     ecut=    30.00 Ry     beta= 0.70
     Davidson diagonalization with overlap

     ethr =  1.00E-02,  avg # of iterations =  7.0

     Threshold (ethr) on eigenvalues was too large:
     Diagonalizing with lowered threshold

     Davidson diagonalization with overlap

[...]

     negative rho (up, down):  4.645E-02 0.000E+00

     total energy              =   -2630.90409343 Ry
     estimated scf accuracy    <       1.39894755 Ry

[...]

     total energy              =   -2631.55587391 Ry
     estimated scf accuracy    <       0.00000147 Ry

     iteration # 10     ecut=    30.00 Ry     beta= 0.70
     Davidson diagonalization with overlap

     ethr =  7.07E-10,  avg # of iterations =  4.0

     negative rho (up, down):  4.450E-02 0.000E+00

     End of self-consistent calculation

          k = 0.0000 0.0000 0.0000 (  7897 PWs)   bands (ev):

  -108.9306-108.8933-108.8756-108.8677 -84.9603 -84.8600 -84.8519 -84.8268
   -56.9581 -56.9201 -56.8944 -56.8840 -56.7039 -56.6933 -56.6692 -56.6556
   -56.6531 -56.6465 -56.6428 -56.6363 -48.0411 -47.9954 -47.9899 -47.9405
   -47.9336 -47.9019 -47.8983 -47.8879 -47.8826 -47.8766 -47.8698 -47.8510
    -7.3590  -7.2604  -7.2537  -7.1722  -6.5908  -6.4650  -5.9583  -5.8133
    -0.9148  -0.8112  -0.4977  -0.3782   0.0302   0.0935   0.3656   0.4077
     0.4895   0.5361   0.5894   0.5980   0.6063   0.6219   0.6301   0.6462
     0.7762   0.7973   0.8385   0.8640   2.1246   2.1430   2.2523   2.2792
     2.5189   2.6206   2.6777   2.8078   2.9128   2.9391   2.9752   3.0115
     3.2458   3.2947   3.3589   3.5547   3.6193   3.7168   3.7281   3.7733
     4.0703   4.1144   4.1375   4.1691   4.2325   4.2488   4.3470   4.4119
     4.8339   4.8858   4.9635   5.1982   5.2395   5.3044   5.3139   5.6150
     5.7236   5.7523   5.9301   5.9665   6.0516   6.3102   6.4606   6.5618
     7.6028   8.7406   9.0348   9.1954   9.3266   9.8634  10.1247  10.4054
    10.5724  11.0007  12.2667  12.3493  12.4753  12.5865  12.9216  13.0160
    13.0980  13.6408  13.8118  14.1287  14.3586  14.5118  14.9173  15.0112
    15.0715  15.1463  15.3662  15.4539  15.7711  15.9151  16.0332  16.2132
    16.3304  16.4513  16.6178  16.7638  16.8402  17.0674  17.2077  17.4350
    17.9647  18.1353  18.3499  18.4022  18.4634  18.5225  19.0058  19.0919
    19.1561  19.4618  19.6278  19.7202  19.7550  19.7676  19.8978  20.0460
    20.1134  20.2004  20.2476  20.2642  20.3427  20.3552  20.8315  20.9408
    21.0659  21.4209  21.5382  21.5718  21.7836  21.8078  22.4164  22.6260
    22.7073  22.9646  23.0147  23.0403  23.1587  23.3764  23.6299  23.6668
    23.9423  24.0181  24.1224  24.2433  24.2949  24.6915  25.0884  25.4393
    25.7621  25.9921  26.0431  26.1388  26.1928  26.3601  26.4173  26.5400
    26.6594  26.9892  27.1435  27.1647  27.3554  27.4353  27.5930  27.6650
    27.7547  27.8065  28.0003  28.0822  28.1794  28.2626  28.4592  28.5109
    28.7443  28.7720  28.9672  28.9956  29.0656  29.2387  29.5351  29.6624
    29.7522  30.0811  30.1828  30.3249  30.3936  30.6030  30.6120  30.7418
    30.8522  30.8798  30.9724  30.9927  31.1525  31.2093  31.3026  31.3236
    31.4785  31.5605  31.6235  31.7296  31.7515  31.8550  31.8918  31.9618
    32.0990  32.1311  32.3169  32.5393  32.7109  32.8106  32.8543  32.8947

     occupation numbers
     1.0000   1.0000   1.0000   1.0000   1.0000   1.0000   1.0000   1.0000
     1.0000   1.0000   1.0000   1.0000   1.0000   1.0000   1.0000   1.0000
     1.0000   1.0000   1.0000   1.0000   1.0000   1.0000   1.0000   1.0000
     1.0000   1.0000   1.0000   1.0000   1.0000   1.0000   1.0000   1.0000
     1.0000   1.0000   1.0000   1.0000   1.0000   1.0000   1.0000   1.0000
     1.0000   1.0000   1.0000   1.0000   1.0000   1.0000   1.0000   1.0000
     1.0000   1.0000   1.0000   1.0000   1.0000   1.0000   1.0000   1.0000
     1.0000   1.0000   1.0000   1.0000   1.0000   1.0000   1.0000   1.0000
     1.0000   1.0000   1.0000   1.0000   1.0000   1.0000   1.0000   1.0000
     1.0000   1.0000   1.0000   1.0000   1.0000   1.0000   1.0000   1.0000
     1.0000   1.0000   1.0000   1.0000   1.0000   1.0000   1.0000   1.0000
     1.0000   1.0000   1.0000   1.0000   1.0000   1.0000   1.0000   1.0000
     1.0000   1.0000   1.0000   1.0000   1.0000   1.0000   1.0000   1.0000
     0.0000   0.0000   0.0000   0.0000   0.0000   0.0000   0.0000   0.0000
     0.0000   0.0000   0.0000   0.0000   0.0000   0.0000   0.0000   0.0000
     0.0000   0.0000   0.0000   0.0000   0.0000   0.0000   0.0000   0.0000
     0.0000   0.0000   0.0000   0.0000   0.0000   0.0000   0.0000   0.0000
     0.0000   0.0000   0.0000   0.0000   0.0000   0.0000   0.0000   0.0000
     0.0000   0.0000   0.0000   0.0000   0.0000   0.0000   0.0000   0.0000
     0.0000   0.0000   0.0000   0.0000   0.0000   0.0000   0.0000   0.0000
     0.0000   0.0000   0.0000   0.0000   0.0000   0.0000   0.0000   0.0000
     0.0000   0.0000   0.0000   0.0000   0.0000   0.0000   0.0000   0.0000
     0.0000   0.0000   0.0000   0.0000   0.0000   0.0000   0.0000   0.0000
     0.0000   0.0000   0.0000   0.0000   0.0000   0.0000   0.0000   0.0000
     0.0000   0.0000   0.0000   0.0000   0.0000   0.0000   0.0000   0.0000
     0.0000   0.0000   0.0000   0.0000   0.0000   0.0000   0.0000   0.0000
     0.0000   0.0000   0.0000   0.0000   0.0000   0.0000   0.0000   0.0000
     0.0000   0.0000   0.0000   0.0000   0.0000   0.0000   0.0000   0.0000
     0.0000   0.0000   0.0000   0.0000   0.0000   0.0000   0.0000   0.0000
     0.0000   0.0000   0.0000   0.0000   0.0000   0.0000   0.0000   0.0000
     0.0000   0.0000   0.0000   0.0000   0.0000   0.0000   0.0000   0.0000
     0.0000   0.0000   0.0000   0.0000   0.0000   0.0000   0.0000   0.0000

[...]

          k = 0.3333-0.2174-0.1132 (  7870 PWs)   bands (ev):

  -108.9306-108.8933-108.8756-108.8676 -84.9603 -84.8600 -84.8519 -84.8268
   -56.9574 -56.9191 -56.8938 -56.8831 -56.7032 -56.6906 -56.6691 -56.6532
   -56.6519 -56.6463 -56.6400 -56.6333 -48.0402 -47.9953 -47.9889 -47.9396
   -47.9326 -47.8995 -47.8974 -47.8880 -47.8833 -47.8766 -47.8692 -47.8510
    -7.2744  -7.2296  -7.2051  -7.1479  -6.4213  -6.3028  -6.0656  -5.9521
    -0.5855  -0.4925  -0.2348  -0.1597   0.0502   0.1120   0.1678   0.2184
     0.3153   0.3630   0.3747   0.4185   0.6754   0.6899   0.7032   0.7185
     0.7531   0.7691   0.8259   0.8495   2.1041   2.1906   2.2921   2.3753
     2.5392   2.6507   2.7539   2.8645   3.0503   3.1130   3.1498   3.1798
     3.3108   3.3694   3.4104   3.4796   3.5784   3.6124   3.7190   3.7539
     3.9681   3.9911   4.0476   4.0876   4.1914   4.2664   4.3077   4.3566
     4.5333   4.5957   4.7415   4.7809   5.0153   5.0282   5.1375   5.2955
     5.4067   5.4492   5.5199   5.5832   5.6586   5.7039   5.9132   5.9903
     8.8287   8.9146   9.2776   9.3300   9.9695  10.1154  10.7017  10.7978
    11.4874  11.6114  11.7723  11.9388  12.5574  12.6494  12.8206  13.0089
    13.0877  13.1808  13.4919  13.5802  13.9990  14.3370  14.5159  14.5996
    15.0694  15.3970  15.6387  15.7621  15.8702  16.1419  16.2809  16.3722
    16.6524  16.8684  17.0165  17.2455  17.4764  17.6873  17.8864  17.9456
    18.2112  18.3205  18.5600  18.7289  18.7968  18.8459  19.3603  19.6282
    19.7150  19.8183  19.8761  19.9678  20.1248  20.1528  20.3111  20.4345
    20.5633  20.6746  20.7266  20.8928  21.0281  21.0918  21.1837  21.3333
    21.4042  21.6722  21.6995  21.8770  22.0842  22.2458  22.4359  22.4700
    22.6685  22.8001  22.9063  23.0530  23.2052  23.3692  23.4466  23.6015
    23.7597  23.8535  24.1383  24.2146  24.4570  24.6556  24.7938  24.8791
    25.1727  25.2485  25.3309  25.5436  25.7483  25.8784  25.9977  26.0955
    26.2793  26.3873  26.5019  26.7276  26.7704  26.9023  27.1200  27.2809
    27.3892  27.5294  27.6587  27.7267  27.8192  27.9481  28.0176  28.1395
    28.2262  28.3014  28.4082  28.4944  28.6999  28.8156  28.9812  29.0729
    29.1927  29.2673  29.4134  29.5745  29.6319  29.7638  29.8723  30.0352
    30.1557  30.2646  30.4057  30.5098  30.6886  30.7425  30.9177  30.9748
    31.0585  31.1976  31.4197  31.5063  31.6802  31.8698  31.9431  32.2071
    32.2993  32.3369  32.5064  32.6572  32.7735  32.8437  32.9951  33.0801

     occupation numbers
     1.0000   1.0000   1.0000   1.0000   1.0000   1.0000   1.0000   1.0000
     1.0000   1.0000   1.0000   1.0000   1.0000   1.0000   1.0000   1.0000
     1.0000   1.0000   1.0000   1.0000   1.0000   1.0000   1.0000   1.0000
     1.0000   1.0000   1.0000   1.0000   1.0000   1.0000   1.0000   1.0000
     1.0000   1.0000   1.0000   1.0000   1.0000   1.0000   1.0000   1.0000
     1.0000   1.0000   1.0000   1.0000   1.0000   1.0000   1.0000   1.0000
     1.0000   1.0000   1.0000   1.0000   1.0000   1.0000   1.0000   1.0000
     1.0000   1.0000   1.0000   1.0000   1.0000   1.0000   1.0000   1.0000
     1.0000   1.0000   1.0000   1.0000   1.0000   1.0000   1.0000   1.0000
     1.0000   1.0000   1.0000   1.0000   1.0000   1.0000   1.0000   1.0000
     1.0000   1.0000   1.0000   1.0000   1.0000   1.0000   1.0000   1.0000
     1.0000   1.0000   1.0000   1.0000   1.0000   1.0000   1.0000   1.0000
     1.0000   1.0000   1.0000   1.0000   1.0000   1.0000   1.0000   1.0000
     0.0000   0.0000   0.0000   0.0000   0.0000   0.0000   0.0000   0.0000
     0.0000   0.0000   0.0000   0.0000   0.0000   0.0000   0.0000   0.0000
     0.0000   0.0000   0.0000   0.0000   0.0000   0.0000   0.0000   0.0000
     0.0000   0.0000   0.0000   0.0000   0.0000   0.0000   0.0000   0.0000
     0.0000   0.0000   0.0000   0.0000   0.0000   0.0000   0.0000   0.0000
     0.0000   0.0000   0.0000   0.0000   0.0000   0.0000   0.0000   0.0000
     0.0000   0.0000   0.0000   0.0000   0.0000   0.0000   0.0000   0.0000
     0.0000   0.0000   0.0000   0.0000   0.0000   0.0000   0.0000   0.0000
     0.0000   0.0000   0.0000   0.0000   0.0000   0.0000   0.0000   0.0000
     0.0000   0.0000   0.0000   0.0000   0.0000   0.0000   0.0000   0.0000
     0.0000   0.0000   0.0000   0.0000   0.0000   0.0000   0.0000   0.0000
     0.0000   0.0000   0.0000   0.0000   0.0000   0.0000   0.0000   0.0000
     0.0000   0.0000   0.0000   0.0000   0.0000   0.0000   0.0000   0.0000
     0.0000   0.0000   0.0000   0.0000   0.0000   0.0000   0.0000   0.0000
     0.0000   0.0000   0.0000   0.0000   0.0000   0.0000   0.0000   0.0000
     0.0000   0.0000   0.0000   0.0000   0.0000   0.0000   0.0000   0.0000
     0.0000   0.0000   0.0000   0.0000   0.0000   0.0000   0.0000   0.0000
     0.0000   0.0000   0.0000   0.0000   0.0000   0.0000   0.0000   0.0000
     0.0000   0.0000   0.0000   0.0000   0.0000   0.0000   0.0000   0.0000

     highest occupied, lowest unoccupied level (ev):     6.5618    7.6028

!    total energy              =   -2631.55587428 Ry
     estimated scf accuracy    <       0.00000021 Ry

     The total energy is the sum of the following terms:
     one-electron contribution =   -1688.33170239 Ry
     hartree contribution      =     874.56374886 Ry
     xc contribution           =    -305.90528424 Ry
     ewald contribution        =   -1511.88263652 Ry

     convergence has been achieved in  10 iterations

     Writing all to output data dir bands_nm/myprefix.save/

     General routines

     Parallel routines

   This run was terminated on:  20:25:58  15Jul2023

   JOB DONE.