     Program PWSCF v.7.1 starts on 17Jul2023 at  4:59:46

     Reading input from espresso_16071.pwi
Warning: card &CELL ignored
Warning: card / ignored

     Current dimensions of program PWSCF are:
     Max number of different atomic species (ntypx) = 10
     Max number of k-points (npk) =  40000
     Max angular momentum in pseudopotentials (lmaxx) =  4
     file Gd.paw.z_18.atompaw.wentzcovitch.v1.2.upf: wavefunction(s)  6S 0P 5D 0D 4F 0F renormalized
     file Cu.paw.z_11.ld1.psl.v1.0.0-low.upf: wavefunction(s)  4S 3D renormalized
     Message from routine setup:
     using ibrav=0 with symmetry is DISCOURAGED, use correct ibrav instead

     K-points division:     npool     =       2
     R & G space division:  proc/nbgrp/npool/nimage =       4
     Subspace diagonalization in iterative solution of the eigenvalue problem:
     one sub-group per band group will be used

     Using Slab Decomposition

     bravais-lattice index     =            0
     lattice parameter (alat)  =      13.3554  a.u.
     unit-cell volume          =    2060.8266 (a.u.)^3
     number of atoms/cell      =           16
     number of atomic types    =            3
     number of electrons       =       164.00
     number of Kohn-Sham states=          256
     kinetic-energy cutoff     =      30.0000  Ry
     charge density cutoff     =     240.0000  Ry
     scf convergence threshold =      1.0E-06
     mixing beta               =       0.7000
     number of iterations used =            8  plain     mixing
     Exchange-correlation=  SLA  PW   PBX  PBC
                           (   1   4   3   4   0   0   0)

     celldm(1)=  13.355432  celldm(2)=   0.000000  celldm(3)=   0.000000
     celldm(4)=   0.000000  celldm(5)=   0.000000  celldm(6)=   0.000000

     crystal axes: (cart. coord. in units of alat)
               a(1) = (   1.000000   0.000000   0.000000 )
               a(2) = (   0.000000   0.911390   0.000000 )
               a(3) = (   0.000000   0.129120   0.949212 )

     reciprocal axes: (cart. coord. in units 2 pi/alat)
               b(1) = (  1.000000  0.000000  0.000000 )
               b(2) = (  0.000000  1.097225 -0.149253 )
               b(3) = (  0.000000  0.000000  1.053505 )

     PseudoPot. # 1 for Gd read from file:
     /lustre07/scratch/pragov/crystal_structure_design/utils/SSSP/Gd.paw.z_18.atompaw.wentzcovitch.v1.2.upf
     MD5 check sum: a44f32af2ba180e1a67c5cef9ff7f39b
     Pseudo is Projector augmented-wave + core cor, Zval = 18.0
     Generated using ATOMPAW code
     Shape of augmentation charge: BESSEL
     Using radial grid of 1110 points,  8 beta functions with:
                l(1) =   0
                l(2) =   0
                l(3) =   1
                l(4) =   1
                l(5) =   2
                l(6) =   2
                l(7) =   3
                l(8) =   3
     Q(r) pseudized with 0 coefficients

     PseudoPot. # 2 for Cu read from file:
     /lustre07/scratch/pragov/crystal_structure_design/utils/SSSP/Cu.paw.z_11.ld1.psl.v1.0.0-low.upf
     MD5 check sum: 619f40885d92a09a85a8b37550532d0c
     Pseudo is Projector augmented-wave + core cor, Zval = 11.0
     Generated using &quot;atomic&quot; code by A. Dal Corso  v.6.3MaX
     Shape of augmentation charge: PSQ
     Using radial grid of 1199 points,  6 beta functions with:
                l(1) =   0
                l(2) =   0
                l(3) =   1
                l(4) =   1
                l(5) =   2
                l(6) =   2
     Q(r) pseudized with 0 coefficients

     PseudoPot. # 3 for S  read from file:
     /lustre07/scratch/pragov/crystal_structure_design/utils/SSSP/s_pbe_v1.4.uspp.F.UPF
     MD5 check sum: 88d86576ff6df21479756cfb9bdac1df
     Pseudo is Ultrasoft + core correction, Zval =  6.0
     Generated by new atomic code, or converted to UPF format
     Using radial grid of  907 points,  6 beta functions with:
                l(1) =   0
                l(2) =   0
                l(3) =   1
                l(4) =   1
                l(5) =   2
                l(6) =   2
     Q(r) pseudized with  8 coefficients,  rinner =    1.300   1.300   1.300
                                                       1.300   1.300

     atomic species   valence    mass     pseudopotential
        Gd            18.00   157.25000     Gd( 1.00)
        Cu            11.00    63.54600     Cu( 1.00)
        S              6.00    32.06000     S ( 1.00)

      4 Sym. Ops., with inversion, found ( 2 have fractional translation)

                                    s                        frac. trans.

      isym =  1     identity

 cryst.   s( 1) = (     1          0          0      )
                  (     0          1          0      )
                  (     0          0          1      )

 cart.    s( 1) = (  1.0000000  0.0000000  0.0000000 )
                  (  0.0000000  1.0000000  0.0000000 )
                  (  0.0000000  0.0000000  1.0000000 )

      isym =  2     180 deg rotation - cart. axis [1,0,0]

 cryst.   s( 2) = (     1          0          0      )    f =( -0.5000000 )
                  (     0         -1          0      )       (  0.0000000 )
                  (     0          0         -1      )       ( -0.5000000 )

 cart.    s( 2) = (  1.0000000  0.0000000  0.0000000 )    f =( -0.5000000 )
                  (  0.0000000 -1.0000000  0.0000000 )       ( -0.0645598 )
                  (  0.0000000  0.0000000 -1.0000000 )       ( -0.4746060 )

      isym =  3     inversion

 cryst.   s( 3) = (    -1          0          0      )
                  (     0         -1          0      )
                  (     0          0         -1      )

 cart.    s( 3) = ( -1.0000000  0.0000000  0.0000000 )
                  (  0.0000000 -1.0000000  0.0000000 )
                  (  0.0000000  0.0000000 -1.0000000 )

      isym =  4     inv. 180 deg rotation - cart. axis [1,0,0]

 cryst.   s( 4) = (    -1          0          0      )    f =(  0.5000000 )
                  (     0          1          0      )       (  0.0000000 )
                  (     0          0          1      )       ( -0.5000000 )

 cart.    s( 4) = ( -1.0000000  0.0000000  0.0000000 )    f =(  0.5000000 )
                  (  0.0000000  1.0000000  0.0000000 )       ( -0.0645598 )
                  (  0.0000000  0.0000000  1.0000000 )       ( -0.4746060 )

   Cartesian axes

     site n.     atom                  positions (alat units)
         1           Gd  tau(   1) = (   0.9498360   0.8384423   0.7617085  )
         2           Gd  tau(   2) = (   0.4498360   0.2666273   0.6621096  )
         3           Gd  tau(   3) = (   0.0501640   0.2020676   0.1875036  )
         4           Gd  tau(   4) = (   0.5501640   0.7738825   0.2871025  )
         5           Cu  tau(   5) = (   0.8442630   0.4484797   0.5302460  )
         6           Cu  tau(   6) = (   0.3442630   0.6565899   0.8935721  )
         7           Cu  tau(   7) = (   0.1557370   0.5920302   0.4189661  )
         8           Cu  tau(   8) = (   0.6557370   0.3839200   0.0556400  )
         9           S   tau(   9) = (   0.3838940   0.4116191   0.2660689  )
        10           S   tau(  10) = (   0.8838940   0.5643310   0.2085371  )
        11           S   tau(  11) = (   0.6161060   0.6288907   0.6831432  )
        12           S   tau(  12) = (   0.1161060   0.4761789   0.7406749  )
        13           S   tau(  13) = (   0.7728980   0.1349841   0.4764437  )
        14           S   tau(  14) = (   0.2728980   0.9700856   0.9473744  )
        15           S   tau(  15) = (   0.2271020   0.9055258   0.4727684  )
        16           S   tau(  16) = (   0.7271020   0.0704243   0.0018377  )

   Crystallographic axes

     site n.     atom                  positions (cryst. coord.)
         1           Gd  tau(   1) = (  0.9498360  0.8062720  0.8024640  )
         2           Gd  tau(   2) = (  0.4498360  0.1937280  0.6975360  )
         3           Gd  tau(   3) = (  0.0501640  0.1937280  0.1975360  )
         4           Gd  tau(   4) = (  0.5501640  0.8062720  0.3024640  )
         5           Cu  tau(   5) = (  0.8442630  0.4129420  0.5586170  )
         6           Cu  tau(   6) = (  0.3442630  0.5870580  0.9413830  )
         7           Cu  tau(   7) = (  0.1557370  0.5870580  0.4413830  )
         8           Cu  tau(   8) = (  0.6557370  0.4129420  0.0586170  )
         9           S   tau(   9) = (  0.3838940  0.4119270  0.2803050  )
        10           S   tau(  10) = (  0.8838940  0.5880730  0.2196950  )
        11           S   tau(  11) = (  0.6161060  0.5880730  0.7196950  )
        12           S   tau(  12) = (  0.1161060  0.4119270  0.7803050  )
        13           S   tau(  13) = (  0.7728980  0.0769970  0.5019360  )
        14           S   tau(  14) = (  0.2728980  0.9230030  0.9980640  )
        15           S   tau(  15) = (  0.2271020  0.9230030  0.4980640  )
        16           S   tau(  16) = (  0.7271020  0.0769970  0.0019360  )

     number of k points=    10
                       cart. coord. in units 2pi/alat
        k(    1) = (   0.0000000   0.0000000   0.0000000), wk =   0.0740741
        k(    2) = (   0.0000000   0.0000000   0.3511684), wk =   0.1481481
        k(    3) = (   0.0000000   0.3657416  -0.0497511), wk =   0.1481481
        k(    4) = (   0.0000000   0.3657416   0.3014173), wk =   0.1481481
        k(    5) = (   0.0000000   0.3657416  -0.4009196), wk =   0.1481481
        k(    6) = (   0.3333333   0.0000000   0.0000000), wk =   0.1481481
        k(    7) = (   0.3333333   0.0000000   0.3511684), wk =   0.2962963
        k(    8) = (   0.3333333   0.3657416  -0.0497511), wk =   0.2962963
        k(    9) = (   0.3333333   0.3657416   0.3014173), wk =   0.2962963
        k(   10) = (   0.3333333   0.3657416  -0.4009196), wk =   0.2962963

                       cryst. coord.
        k(    1) = (   0.0000000   0.0000000   0.0000000), wk =   0.0740741
        k(    2) = (   0.0000000   0.0000000   0.3333333), wk =   0.1481481
        k(    3) = (   0.0000000   0.3333333   0.0000000), wk =   0.1481481
        k(    4) = (   0.0000000   0.3333333   0.3333333), wk =   0.1481481
        k(    5) = (   0.0000000   0.3333333  -0.3333333), wk =   0.1481481
        k(    6) = (   0.3333333   0.0000000   0.0000000), wk =   0.1481481
        k(    7) = (   0.3333333   0.0000000   0.3333333), wk =   0.2962963
        k(    8) = (   0.3333333   0.3333333   0.0000000), wk =   0.2962963
        k(    9) = (   0.3333333   0.3333333   0.3333333), wk =   0.2962963
        k(   10) = (   0.3333333   0.3333333  -0.3333333), wk =   0.2962963

     Check: negative core charge=   -0.000002

     Initial potential from superposition of free atoms

     starting charge     163.9781, renormalised to     164.0000
     Starting wfcs are  196 randomized atomic wfcs +   60 random wfcs
     Checking if some PAW data can be deallocated...

     Self-consistent Calculation

     iteration #  1     ecut=    30.00 Ry     beta= 0.70
     Davidson diagonalization with overlap

     ethr =  1.00E-02,  avg # of iterations =  7.4

     total energy              =   -3574.10020908 Ry
     estimated scf accuracy    <     199.39613653 Ry

[...]

     total energy              =   -3780.44476392 Ry
     estimated scf accuracy    <       0.00000122 Ry

     iteration #201     ecut=    30.00 Ry     beta= 0.70
     Davidson diagonalization with overlap

     ethr =  7.47E-10,  avg # of iterations =  2.0

     End of self-consistent calculation

          k = 0.0000 0.0000 0.0000 (  5733 PWs)   bands (ev):

   -31.7311 -31.7260 -31.7233 -31.7227  -9.8940  -9.8814  -9.8636  -9.7704
    -9.7443  -9.7397  -9.7385  -9.7155  -9.7021  -9.6936  -9.6926  -9.6649
    -3.2180  -2.2810  -2.1995  -2.1918  -1.8038  -1.7190  -1.5771  -1.5667
     4.3238   4.6969   5.4297   5.6010   5.6422   5.7969   5.9684   6.3005
     6.4474   6.5039   6.5816   6.6326   6.6752   6.7436   6.8074   6.9173
     7.0586   7.1642   7.1651   7.2609   7.4527   7.5981   7.6612   7.7842
     7.9241   7.9956   8.1546   8.2112   8.2831   8.4466   8.5063   8.5356
     8.5996   8.6017   8.9598   9.1394   9.1477   9.1569   9.1966   9.2253
     9.4535   9.5666   9.8578  10.0186  10.1892  10.1945  10.2088  10.2173
    10.2188  10.2354  10.2389  10.2557  10.2624  10.2632  10.3032  10.3186
    10.3194  10.3428  10.3743  10.4775  10.4950  10.5090  10.5451  10.5499
    10.5723  10.5781  10.6031  10.6189  10.7470  10.7565  10.8402  10.8897
    11.9016  13.6625  13.6733  13.6958  13.7212  13.7850  13.9673  14.3064
    14.4139  14.4367  14.5693  14.6895  14.7907  15.0395  15.2533  15.4049
    15.4487  15.4756  15.8149  15.9591  16.1072  16.2438  16.5332  16.8463
    17.0430  17.2969  17.3850  17.4777  17.6194  17.7270  18.1312  18.2452
    18.3081  18.3548  18.7392  19.2153  19.2741  19.3798  19.7621  20.1691
    20.2130  20.3068  20.3426  20.5543  21.2261  21.2614  21.3522  21.8591
    21.8818  21.9506  22.1041  22.2086  22.5817  22.7848  22.9725  23.0056
    23.0082  23.4523  23.5463  23.7262  23.7359  24.1823  24.5609  24.6144
    24.8765  25.0057  25.0448  25.3657  25.5781  25.7943  25.8248  25.8942
    26.3796  27.0130  27.1237  27.1674  27.1984  27.6571  27.7366  27.7475
    27.9289  28.4432  28.5573  28.8531  29.1941  29.2489  29.3120  29.5028
    29.5344  29.6809  29.9000  29.9839  30.1391  30.2258  30.6301  30.6917
    30.8790  31.0078  31.1364  31.1921  31.2275  31.3948  31.4261  31.9855
    32.0265  32.3554  32.4966  32.7084  32.7281  32.7492  33.1195  33.1390
    33.2280  33.2691  33.2897  33.4529  33.5425  34.1622  34.2569  34.3313
    34.3616  34.7391  34.7818  34.9346  35.0435  35.1381  35.2670  35.2774
    35.5040  35.5119  35.6789  35.9982  36.0154  36.4216  36.6110  36.8731
    37.0651  37.2194  37.3954  37.3990  37.4981  37.9628  38.0476  38.1427
    38.2665  38.3191  38.4669  38.8179  39.0864  39.1874  39.2458  39.2712
    39.3632  39.4895  39.6410  39.7183  39.8034  39.8924  40.0375  40.1253

     occupation numbers
     1.0000   1.0000   1.0000   1.0000   1.0000   1.0000   1.0000   1.0000
     1.0000   1.0000   1.0000   1.0000   1.0000   1.0000   1.0000   1.0000
     1.0000   1.0000   1.0000   1.0000   1.0000   1.0000   1.0000   1.0000
     1.0000   1.0000   1.0000   1.0000   1.0000   1.0000   1.0000   1.0000
     1.0000   1.0000   1.0000   1.0000   1.0000   1.0000   1.0000   1.0000
     1.0000   1.0000   1.0000   1.0000   1.0000   1.0000   1.0000   1.0000
     1.0000   1.0000   1.0000   1.0000   1.0000   1.0000   1.0000   1.0000
     1.0000   1.0000   1.0000   1.0000   1.0000   1.0000   1.0000   1.0000
     1.0000   1.0000   1.0000   1.0000   1.0000   1.0000   1.0000   1.0000
     1.0000   1.0000   1.0000   1.0000   1.0000   1.0000   1.0000   1.0000
     1.0000   1.0000   0.0000   0.0000   0.0000   0.0000   0.0000   0.0000
     0.0000   0.0000   0.0000   0.0000   0.0000   0.0000   0.0000   0.0000
     0.0000   0.0000   0.0000   0.0000   0.0000   0.0000   0.0000   0.0000
     0.0000   0.0000   0.0000   0.0000   0.0000   0.0000   0.0000   0.0000
     0.0000   0.0000   0.0000   0.0000   0.0000   0.0000   0.0000   0.0000
     0.0000   0.0000   0.0000   0.0000   0.0000   0.0000   0.0000   0.0000
     0.0000   0.0000   0.0000   0.0000   0.0000   0.0000   0.0000   0.0000
     0.0000   0.0000   0.0000   0.0000   0.0000   0.0000   0.0000   0.0000
     0.0000   0.0000   0.0000   0.0000   0.0000   0.0000   0.0000   0.0000
     0.0000   0.0000   0.0000   0.0000   0.0000   0.0000   0.0000   0.0000
     0.0000   0.0000   0.0000   0.0000   0.0000   0.0000   0.0000   0.0000
     0.0000   0.0000   0.0000   0.0000   0.0000   0.0000   0.0000   0.0000
     0.0000   0.0000   0.0000   0.0000   0.0000   0.0000   0.0000   0.0000
     0.0000   0.0000   0.0000   0.0000   0.0000   0.0000   0.0000   0.0000
     0.0000   0.0000   0.0000   0.0000   0.0000   0.0000   0.0000   0.0000
     0.0000   0.0000   0.0000   0.0000   0.0000   0.0000   0.0000   0.0000
     0.0000   0.0000   0.0000   0.0000   0.0000   0.0000   0.0000   0.0000
     0.0000   0.0000   0.0000   0.0000   0.0000   0.0000   0.0000   0.0000
     0.0000   0.0000   0.0000   0.0000   0.0000   0.0000   0.0000   0.0000
     0.0000   0.0000   0.0000   0.0000   0.0000   0.0000   0.0000   0.0000
     0.0000   0.0000   0.0000   0.0000   0.0000   0.0000   0.0000   0.0000
     0.0000   0.0000   0.0000   0.0000   0.0000   0.0000   0.0000   0.0000

[...]

          k = 0.3333 0.3657-0.4009 (  5712 PWs)   bands (ev):

   -31.7282 -31.7269 -31.7241 -31.7238  -9.8784  -9.8712  -9.8525  -9.8197
    -9.7546  -9.7386  -9.7258  -9.7172  -9.7003  -9.6898  -9.6864  -9.6826
    -2.6099  -2.3727  -2.3584  -2.2230  -2.0245  -1.8257  -1.6663  -1.6000
     4.6228   4.9245   5.3627   5.6034   5.8838   5.9644   6.0364   6.1092
     6.1839   6.3126   6.5889   6.6430   6.6830   6.6985   6.9109   7.0149
     7.0561   7.1845   7.3061   7.4513   7.5926   7.6209   7.7901   7.8751
     8.0020   8.0322   8.1711   8.2399   8.3227   8.3640   8.4449   8.5137
     8.5792   8.6285   8.6772   8.8048   8.9171   9.0781   9.1632   9.1943
     9.3349   9.3902   9.4622   9.7251  10.1916  10.1996  10.2115  10.2307
    10.2343  10.2410  10.2524  10.2604  10.2769  10.2833  10.2899  10.3047
    10.3173  10.3290  10.3789  10.4272  10.4887  10.5159  10.5424  10.5504
    10.5599  10.5771  10.6029  10.6160  10.6295  10.6508  10.7106  10.7419
    12.6265  12.9281  13.0866  13.2300  13.6010  13.8495  13.9448  14.0855
    14.5646  14.6725  14.7963  14.8883  15.0126  15.1189  15.2558  15.5844
    15.8102  15.9385  16.0763  16.2185  16.2486  16.4957  16.6515  16.9413
    17.1026  17.4957  17.5931  17.7959  18.1024  18.3061  18.3199  18.4049
    18.6411  18.7249  18.8905  19.3635  19.4638  19.6802  19.7258  19.8742
    20.1525  20.3207  20.3688  20.6149  20.8085  20.9042  21.1098  21.1928
    21.4402  21.5966  21.8685  22.1583  22.3475  22.5031  22.8666  22.9697
    23.2631  23.3714  23.4660  23.6249  24.0055  24.0969  24.3059  24.6013
    24.6554  25.1248  25.4413  25.4461  25.6943  25.7166  25.8308  25.9292
    26.3614  26.4014  26.5132  26.8630  27.2239  27.4607  27.5119  27.7865
    27.9045  28.2013  28.2416  28.5490  28.6513  28.7660  28.9025  29.0854
    29.1853  29.3607  29.4094  29.7597  29.9102  30.0998  30.2792  30.3444
    30.6027  30.8495  30.9520  31.2080  31.3835  31.5541  31.8498  32.1199
    32.2769  32.3281  32.5169  32.6658  32.9408  33.0343  33.2403  33.3951
    33.4671  33.6452  33.8575  33.9178  33.9856  34.1771  34.2774  34.4845
    34.7380  34.8141  34.8479  35.1062  35.2564  35.3649  35.7219  35.8711
    35.9243  35.9643  36.1637  36.3334  36.4394  36.6195  36.8005  36.9478
    37.0627  37.1630  37.2552  37.3650  37.7471  37.7911  37.9126  38.0858
    38.1491  38.5244  38.6334  38.7750  38.8769  39.1838  39.2490  39.4772
    39.5772  39.6814  40.0576  40.1650  40.2649  40.3806  40.4404  40.5431

     occupation numbers
     1.0000   1.0000   1.0000   1.0000   1.0000   1.0000   1.0000   1.0000
     1.0000   1.0000   1.0000   1.0000   1.0000   1.0000   1.0000   1.0000
     1.0000   1.0000   1.0000   1.0000   1.0000   1.0000   1.0000   1.0000
     1.0000   1.0000   1.0000   1.0000   1.0000   1.0000   1.0000   1.0000
     1.0000   1.0000   1.0000   1.0000   1.0000   1.0000   1.0000   1.0000
     1.0000   1.0000   1.0000   1.0000   1.0000   1.0000   1.0000   1.0000
     1.0000   1.0000   1.0000   1.0000   1.0000   1.0000   1.0000   1.0000
     1.0000   1.0000   1.0000   1.0000   1.0000   1.0000   1.0000   1.0000
     1.0000   1.0000   1.0000   1.0000   1.0000   1.0000   1.0000   1.0000
     1.0000   1.0000   1.0000   1.0000   1.0000   1.0000   1.0000   1.0000
     1.0000   1.0000   0.0000   0.0000   0.0000   0.0000   0.0000   0.0000
     0.0000   0.0000   0.0000   0.0000   0.0000   0.0000   0.0000   0.0000
     0.0000   0.0000   0.0000   0.0000   0.0000   0.0000   0.0000   0.0000
     0.0000   0.0000   0.0000   0.0000   0.0000   0.0000   0.0000   0.0000
     0.0000   0.0000   0.0000   0.0000   0.0000   0.0000   0.0000   0.0000
     0.0000   0.0000   0.0000   0.0000   0.0000   0.0000   0.0000   0.0000
     0.0000   0.0000   0.0000   0.0000   0.0000   0.0000   0.0000   0.0000
     0.0000   0.0000   0.0000   0.0000   0.0000   0.0000   0.0000   0.0000
     0.0000   0.0000   0.0000   0.0000   0.0000   0.0000   0.0000   0.0000
     0.0000   0.0000   0.0000   0.0000   0.0000   0.0000   0.0000   0.0000
     0.0000   0.0000   0.0000   0.0000   0.0000   0.0000   0.0000   0.0000
     0.0000   0.0000   0.0000   0.0000   0.0000   0.0000   0.0000   0.0000
     0.0000   0.0000   0.0000   0.0000   0.0000   0.0000   0.0000   0.0000
     0.0000   0.0000   0.0000   0.0000   0.0000   0.0000   0.0000   0.0000
     0.0000   0.0000   0.0000   0.0000   0.0000   0.0000   0.0000   0.0000
     0.0000   0.0000   0.0000   0.0000   0.0000   0.0000   0.0000   0.0000
     0.0000   0.0000   0.0000   0.0000   0.0000   0.0000   0.0000   0.0000
     0.0000   0.0000   0.0000   0.0000   0.0000   0.0000   0.0000   0.0000
     0.0000   0.0000   0.0000   0.0000   0.0000   0.0000   0.0000   0.0000
     0.0000   0.0000   0.0000   0.0000   0.0000   0.0000   0.0000   0.0000
     0.0000   0.0000   0.0000   0.0000   0.0000   0.0000   0.0000   0.0000
     0.0000   0.0000   0.0000   0.0000   0.0000   0.0000   0.0000   0.0000

     highest occupied, lowest unoccupied level (ev):    10.3702   10.3594

!    total energy              =   -3780.44476767 Ry
     estimated scf accuracy    <       0.00000065 Ry

     The total energy is the sum of the following terms:
     one-electron contribution =    -614.21926806 Ry
     hartree contribution      =     448.51226497 Ry
     xc contribution           =    -337.15804804 Ry
     ewald contribution        =   -1053.68298347 Ry
     one-center paw contrib.   =   -2223.89673307 Ry
      -> PAW hartree energy AE =     367.03288089 Ry
      -> PAW hartree energy PS =    -348.57320373 Ry
      -> PAW xc energy AE      =    -993.59567625 Ry
      -> PAW xc energy PS      =      42.83581864 Ry
      -> total E_H with PAW    =     466.97194214 Ry
      -> total E_XC with PAW   =   -1287.91790565 Ry

     convergence has been achieved in 201 iterations

     Writing all to output data dir bands_nm/myprefix.save/

     General routines

     Parallel routines

     PAW routines

   This run was terminated on:   5:16:44  17Jul2023

   JOB DONE.