     Program PWSCF v.7.1 starts on 14Jul2023 at 17:22:56

     Reading input from espresso_11887.pwi
Warning: card &CELL ignored
Warning: card / ignored

     Current dimensions of program PWSCF are:
     Max number of different atomic species (ntypx) = 10
     Max number of k-points (npk) =  40000
     Max angular momentum in pseudopotentials (lmaxx) =  4
     Message from routine setup:
     using ibrav=0 with symmetry is DISCOURAGED, use correct ibrav instead

     K-points division:     npool     =       2
     R & G space division:  proc/nbgrp/npool/nimage =       4
     Subspace diagonalization in iterative solution of the eigenvalue problem:
     a serial algorithm will be used

     Using Slab Decomposition

     bravais-lattice index     =            0
     lattice parameter (alat)  =      16.2740  a.u.
     unit-cell volume          =    2406.3953 (a.u.)^3
     number of atoms/cell      =            8
     number of atomic types    =            2
     number of electrons       =        52.00
     number of Kohn-Sham states=           64
     kinetic-energy cutoff     =      30.0000  Ry
     charge density cutoff     =     240.0000  Ry
     scf convergence threshold =      1.0E-06
     mixing beta               =       0.7000
     number of iterations used =            8  plain     mixing
     Exchange-correlation= SLA  PW   PBX  PBC
                           (   1   4   3   4   0   0   0)

     celldm(1)=  16.274025  celldm(2)=   0.000000  celldm(3)=   0.000000
     celldm(4)=   0.000000  celldm(5)=   0.000000  celldm(6)=   0.000000

     crystal axes: (cart. coord. in units of alat)
               a(1) = (   1.000000   0.000000   0.000000 )
               a(2) = (   0.628339   0.777940   0.000000 )
               a(3) = (   0.628339   0.300189   0.717689 )

     reciprocal axes: (cart. coord. in units 2 pi/alat)
               b(1) = (  1.000000 -0.807696 -0.537667 )
               b(2) = (  0.000000  1.285446 -0.537667 )
               b(3) = (  0.000000  0.000000  1.393362 )

     PseudoPot. # 1 for As read from file:
     /lustre07/scratch/pragov/crystal_structure_design/utils/SSSP/As.pbe-n-rrkjus_psl.0.2.UPF
     MD5 check sum: 767315de957beeeb34f87d97bf945c8f
     Pseudo is Ultrasoft + core correction, Zval =  5.0
     Generated using "atomic" code by A. Dal Corso  v.5.0.99 svn rev. 10869
     Using radial grid of 1209 points,  4 beta functions with:
                l(1) =   0
                l(2) =   0
                l(3) =   1
                l(4) =   1
     Q(r) pseudized with 0 coefficients

     PseudoPot. # 2 for I  read from file:
     /lustre07/scratch/pragov/crystal_structure_design/utils/SSSP/I.pbe-n-kjpaw_psl.0.2.UPF
     MD5 check sum: d4ef18d9c8f18dc85e5843bca1e50dc0
     Pseudo is Projector augmented-wave + core cor, Zval =  7.0
     Generated using "atomic" code by A. Dal Corso  v.5.0.99 svn rev. 10869
     Shape of augmentation charge: PSQ
     Using radial grid of 1247 points,  4 beta functions with:
                l(1) =   0
                l(2) =   0
                l(3) =   1
                l(4) =   1
     Q(r) pseudized with 0 coefficients

     atomic species   valence    mass     pseudopotential
        As             5.00    74.92159     As( 1.00)
        I              7.00   126.90447     I ( 1.00)

      2 Sym. Ops., with inversion, found

                                    s                        frac. trans.

      isym =  1     identity

 cryst.   s( 1) = (     1          0          0      )
                  (     0          1          0      )
                  (     0          0          1      )

 cart.    s( 1) = (  1.0000000 -0.0000000  0.0000000 )
                  (  0.0000000  1.0000000  0.0000000 )
                  (  0.0000000  0.0000000  1.0000000 )

      isym =  2     inversion

 cryst.   s( 2) = (    -1          0          0      )
                  (     0         -1          0      )
                  (     0          0         -1      )

 cart.    s( 2) = ( -1.0000000  0.0000000  0.0000000 )
                  (  0.0000000 -1.0000000  0.0000000 )
                  (  0.0000000  0.0000000 -1.0000000 )

   Cartesian axes

     site n.     atom                  positions (alat units)
         1           As  tau(   1) = (   0.4067684   0.1943338   0.1293641  )
         2           As  tau(   2) = (   1.8499091   0.8837952   0.5883244  )
         3           I   tau(   3) = (   0.8192113   0.5708682   0.5583990  )
         4           I   tau(   4) = (   0.9588434   0.6226559   0.0415477  )
         5           I   tau(   5) = (   1.0868673   0.1751942   0.3111811  )
         6           I   tau(   6) = (   1.4374661   0.5072609   0.1592895  )
         7           I   tau(   7) = (   1.2978341   0.4554731   0.6761408  )
         8           I   tau(   8) = (   1.1698101   0.9029349   0.4065074  )

   Crystallographic axes

     site n.     atom                  positions (cryst. coord.)
         1           As  tau(   1) = (  0.1802510  0.1802510  0.1802510  )
         2           As  tau(   2) = (  0.8197490  0.8197490  0.8197490  )
         3           I   tau(   3) = (  0.0578910  0.4335880  0.7780520  )
         4           I   tau(   4) = (  0.4335880  0.7780520  0.0578910  )
         5           I   tau(   5) = (  0.7780520  0.0578910  0.4335880  )
         6           I   tau(   6) = (  0.9421090  0.5664120  0.2219480  )
         7           I   tau(   7) = (  0.5664120  0.2219480  0.9421090  )
         8           I   tau(   8) = (  0.2219480  0.9421090  0.5664120  )

     number of k points=    14
                       cart. coord. in units 2pi/alat
        k(    1) = (   0.0000000   0.0000000   0.0000000), wk =   0.0740741
        k(    2) = (   0.0000000   0.0000000   0.4644540), wk =   0.1481481
        k(    3) = (   0.0000000   0.4284821  -0.1792222), wk =   0.1481481
        k(    4) = (   0.0000000   0.4284821   0.2852318), wk =   0.1481481
        k(    5) = (   0.0000000   0.4284821  -0.6436762), wk =   0.1481481
        k(    6) = (   0.3333333  -0.2692319  -0.1792222), wk =   0.1481481
        k(    7) = (   0.3333333  -0.2692319   0.2852318), wk =   0.1481481
        k(    8) = (   0.3333333  -0.2692319  -0.6436762), wk =   0.1481481
        k(    9) = (   0.3333333   0.1592502  -0.3584444), wk =   0.1481481
        k(   10) = (   0.3333333   0.1592502   0.1060097), wk =   0.1481481
        k(   11) = (   0.3333333   0.1592502  -0.8228984), wk =   0.1481481
        k(   12) = (   0.3333333  -0.6977141  -0.0000000), wk =   0.1481481
        k(   13) = (   0.3333333  -0.6977141   0.4644540), wk =   0.1481481
        k(   14) = (   0.3333333  -0.6977141  -0.4644540), wk =   0.1481481

                       cryst. coord.
        k(    1) = (   0.0000000   0.0000000   0.0000000), wk =   0.0740741
        k(    2) = (   0.0000000   0.0000000   0.3333333), wk =   0.1481481
        k(    3) = (   0.0000000   0.3333333   0.0000000), wk =   0.1481481
        k(    4) = (   0.0000000   0.3333333   0.3333333), wk =   0.1481481
        k(    5) = (   0.0000000   0.3333333  -0.3333333), wk =   0.1481481
        k(    6) = (   0.3333333   0.0000000  -0.0000000), wk =   0.1481481
        k(    7) = (   0.3333333   0.0000000   0.3333333), wk =   0.1481481
        k(    8) = (   0.3333333   0.0000000  -0.3333333), wk =   0.1481481
        k(    9) = (   0.3333333   0.3333333  -0.0000000), wk =   0.1481481
        k(   10) = (   0.3333333   0.3333333   0.3333333), wk =   0.1481481
        k(   11) = (   0.3333333   0.3333333  -0.3333333), wk =   0.1481481
        k(   12) = (   0.3333333  -0.3333333  -0.0000000), wk =   0.1481481
        k(   13) = (   0.3333333  -0.3333333   0.3333333), wk =   0.1481481
        k(   14) = (   0.3333333  -0.3333333  -0.3333333), wk =   0.1481481

     Initial potential from superposition of free atoms

     starting charge      51.9991, renormalised to      52.0000
     Starting wfcs are   32 randomized atomic wfcs +   32 random wfcs
     Checking if some PAW data can be deallocated...

     Self-consistent Calculation

     iteration #  1     ecut=    30.00 Ry     beta= 0.70
     Davidson diagonalization with overlap

     ethr =  1.00E-02,  avg # of iterations =  6.6

     Threshold (ethr) on eigenvalues was too large:
     Diagonalizing with lowered threshold

     Davidson diagonalization with overlap

[...]

     total energy              =   -2309.91874177 Ry
     estimated scf accuracy    <       0.15560191 Ry

[...]

     negative rho (up, down):  5.014E-06 0.000E+00

[...]

     total energy              =   -2309.98735203 Ry
     estimated scf accuracy    <       0.00000247 Ry

     iteration #  7     ecut=    30.00 Ry     beta= 0.70
     Davidson diagonalization with overlap

     ethr =  4.76E-09,  avg # of iterations =  2.0

     End of self-consistent calculation

          k = 0.0000 0.0000 0.0000 (  6697 PWs)   bands (ev):

   -11.4236 -10.4854  -9.8919  -9.8919  -9.7299  -9.7298  -8.3644  -7.2031
    -2.2121  -2.0241  -2.0241  -1.5939  -1.5939  -0.4900  -0.0355   0.4715
     0.4715   0.6085   0.6085   0.8465   1.0132   1.1881   1.1954   1.1954
     1.1991   1.1991   3.7044   3.8560   3.8560   4.6463   4.6463   4.6654
     7.2188   8.4424   8.6874   8.7254   8.7254   8.8274   8.8274   9.1127
     9.3101  10.2830  10.2830  10.3644  10.3644  10.4547  10.4682  11.0327
    11.0327  11.0943  11.4984  11.4984  11.8376  11.8376  13.0099  13.0164
    13.1760  13.1760  13.5913  13.7115  13.7116  14.0577  14.0578  14.5264

     occupation numbers
     1.0000   1.0000   1.0000   1.0000   1.0000   1.0000   1.0000   1.0000
     1.0000   1.0000   1.0000   1.0000   1.0000   1.0000   1.0000   1.0000
     1.0000   1.0000   1.0000   1.0000   1.0000   1.0000   1.0000   1.0000
     1.0000   1.0000   0.0000   0.0000   0.0000   0.0000   0.0000   0.0000
     0.0000   0.0000   0.0000   0.0000   0.0000   0.0000   0.0000   0.0000
     0.0000   0.0000   0.0000   0.0000   0.0000   0.0000   0.0000   0.0000
     0.0000   0.0000   0.0000   0.0000   0.0000   0.0000   0.0000   0.0000
     0.0000   0.0000   0.0000   0.0000   0.0000   0.0000   0.0000   0.0000

[...]

          k = 0.3333-0.6977-0.4645 (  6694 PWs)   bands (ev):

   -11.2286 -10.7118  -9.9858  -9.9378  -9.7823  -9.7329  -8.0050  -7.2976
    -2.2236  -1.9201  -1.8194  -1.5267  -1.3402  -0.7707  -0.0239   0.1315
     0.2349   0.4993   0.6868   0.7317   0.8620   0.9431   1.0434   1.1948
     1.2465   1.3760   3.8549   4.0936   4.2859   4.4868   4.5982   4.7503
     7.6490   8.1289   8.3210   8.5324   8.6202   8.7877   9.0955   9.1823
     9.2850   9.8430  10.0869  10.2011  10.4016  10.4857  10.7893  10.9507
    11.4794  11.6667  11.7360  12.1346  12.1882  12.4407  12.6890  12.8085
    13.1804  13.4220  13.5189  13.7196  14.0270  14.1604  14.3022  14.5841

     occupation numbers
     1.0000   1.0000   1.0000   1.0000   1.0000   1.0000   1.0000   1.0000
     1.0000   1.0000   1.0000   1.0000   1.0000   1.0000   1.0000   1.0000
     1.0000   1.0000   1.0000   1.0000   1.0000   1.0000   1.0000   1.0000
     1.0000   1.0000   0.0000   0.0000   0.0000   0.0000   0.0000   0.0000
     0.0000   0.0000   0.0000   0.0000   0.0000   0.0000   0.0000   0.0000
     0.0000   0.0000   0.0000   0.0000   0.0000   0.0000   0.0000   0.0000
     0.0000   0.0000   0.0000   0.0000   0.0000   0.0000   0.0000   0.0000
     0.0000   0.0000   0.0000   0.0000   0.0000   0.0000   0.0000   0.0000

     highest occupied, lowest unoccupied level (ev):     1.3815    3.6650

!    total energy              =   -2309.98735275 Ry
     estimated scf accuracy    <       0.00000014 Ry

     The total energy is the sum of the following terms:
     one-electron contribution =     -16.26329470 Ry
     hartree contribution      =      30.10008817 Ry
     xc contribution           =    -268.31464843 Ry
     ewald contribution        =    -132.36440814 Ry
     one-center paw contrib.   =   -1923.14508965 Ry
      -> PAW hartree energy AE =       0.00000000 Ry
      -> PAW hartree energy PS =       0.00000000 Ry
      -> PAW xc energy AE      =       0.00000000 Ry
      -> PAW xc energy PS      =       0.00000000 Ry
      -> total E_H with PAW    =      30.10008817 Ry
      -> total E_XC with PAW   =    -268.31464843 Ry

     convergence has been achieved in   7 iterations

     Writing all to output data dir bands_nm/myprefix.save/

     General routines

     Parallel routines

     PAW routines

   This run was terminated on:  17:23:14  14Jul2023

   JOB DONE.