     Program PWSCF v.7.0 starts on  6Jun2023 at 22:29: 3

     K-points division:     npool     =       2
     R & G space division:  proc/nbgrp/npool/nimage =       4

     Reading input from espresso_654.pwi
Warning: card &CELL ignored
Warning: card / ignored

     Current dimensions of program PWSCF are:
     Max number of different atomic species (ntypx) = 10
     Max number of k-points (npk) =  40000
     Max angular momentum in pseudopotentials (lmaxx) =  4
     file K.pbe-spn-kjpaw_psl.1.0.0.UPF: wavefunction(s)  3S renormalized
     file Fe.pbe-spn-kjpaw_psl.0.2.1.UPF: wavefunction(s)  3D renormalized
     Message from routine setup:
     using ibrav=0 with symmetry is DISCOURAGED, use correct ibrav instead

     Using Slab Decomposition

     bravais-lattice index     =            0
     lattice parameter (alat)  =      14.9336  a.u.
     unit-cell volume          =    2275.5068 (a.u.)^3
     number of atoms/cell      =           11
     number of atomic types    =            4
     number of electrons       =        94.00
     number of Kohn-Sham states=           64
     kinetic-energy cutoff     =      30.0000  Ry
     charge density cutoff     =     240.0000  Ry
     scf convergence threshold =      1.0E-06
     mixing beta               =       0.7000
     number of iterations used =            8  plain     mixing
     Exchange-correlation=  SLA  PW   PBX  PBC
                           (   1   4   3   4   0   0   0)

     celldm(1)=  14.933612  celldm(2)=   0.000000  celldm(3)=   0.000000
     celldm(4)=   0.000000  celldm(5)=   0.000000  celldm(6)=   0.000000

     crystal axes: (cart. coord. in units of alat)
               a(1) = (   1.000000   0.000000   0.000000 )
               a(2) = (  -0.374495   0.927229   0.000000 )
               a(3) = (   0.274431   0.406808   0.736880 )

     reciprocal axes: (cart. coord. in units 2 pi/alat)
               b(1) = (  1.000000  0.403886 -0.595396 )
               b(2) = (  0.000000  1.078482 -0.595396 )
               b(3) = (  0.000000  0.000000  1.357074 )

     PseudoPot. # 1 for K  read from file:
     /home/pragov/projects/rrg-bengioy-ad/pragov/crystal_structure_design/SSSP/K.pbe-spn-kjpaw_psl.1.0.0.UPF
     MD5 check sum: 7d58810084cac21f60fbe77ea2b688fd
     Pseudo is Projector augmented-wave + core cor, Zval =  9.0
     Generated using "atomic" code by A. Dal Corso  v.5.1
     Shape of augmentation charge: PSQ
     Using radial grid of 1165 points,  6 beta functions with:
                l(1) =   0
                l(2) =   0
                l(3) =   1
                l(4) =   1
                l(5) =   2
                l(6) =   2
     Q(r) pseudized with 0 coefficients

     PseudoPot. # 2 for Na read from file:
     /home/pragov/projects/rrg-bengioy-ad/pragov/crystal_structure_design/SSSP/na_pbe_v1.5.uspp.F.UPF
     MD5 check sum: 44600605ef58000f06b90626533354dc
     Pseudo is Ultrasoft, Zval =  9.0
     Generated by new atomic code, or converted to UPF format
     Using radial grid of  819 points,  5 beta functions with:
                l(1) =   0
                l(2) =   0
                l(3) =   1
                l(4) =   1
                l(5) =   2
     Q(r) pseudized with  8 coefficients,  rinner =    1.250   1.250   1.250
                                                       1.250   1.250

     PseudoPot. # 3 for Fe read from file:
     /home/pragov/projects/rrg-bengioy-ad/pragov/crystal_structure_design/SSSP/Fe.pbe-spn-kjpaw_psl.0.2.1.UPF
     MD5 check sum: e86618425769142926afa95317d90200
     Pseudo is Projector augmented-wave + core cor, Zval = 16.0
     Generated using "atomic" code by A. Dal Corso  v.5.0.99 svn rev. 10869
     Shape of augmentation charge: PSQ
     Using radial grid of 1191 points,  6 beta functions with:
                l(1) =   0
                l(2) =   0
                l(3) =   1
                l(4) =   1
                l(5) =   2
                l(6) =   2
     Q(r) pseudized with 0 coefficients

     PseudoPot. # 4 for Cl read from file:
     /home/pragov/projects/rrg-bengioy-ad/pragov/crystal_structure_design/SSSP/cl_pbe_v1.4.uspp.F.UPF
     MD5 check sum: fc6f6913ecf08c9257cb748ef0700058
     Pseudo is Ultrasoft + core correction, Zval =  7.0
     Generated by new atomic code, or converted to UPF format
     Using radial grid of  909 points,  6 beta functions with:
                l(1) =   0
                l(2) =   0
                l(3) =   1
                l(4) =   1
                l(5) =   2
                l(6) =   2
     Q(r) pseudized with  8 coefficients,  rinner =    1.300   1.300   1.300
                                                       1.300   1.300

     atomic species   valence    mass     pseudopotential
        K              9.00    39.09830     K ( 1.00)
        Na             9.00    22.98977     Na( 1.00)
        Fe            16.00    55.84500     Fe( 1.00)
        Cl             7.00    35.45000     Cl( 1.00)

      2 Sym. Ops., with inversion, found

                                    s                        frac. trans.

      isym =  1     identity

 cryst.   s( 1) = (     1          0          0      )
                  (     0          1          0      )
                  (     0          0          1      )

 cart.    s( 1) = (  1.0000000  0.0000000  0.0000000 )
                  (  0.0000000  1.0000000  0.0000000 )
                  (  0.0000000  0.0000000  1.0000000 )

      isym =  2     inversion

 cryst.   s( 2) = (    -1          0          0      )
                  (     0         -1          0      )
                  (     0          0         -1      )

 cart.    s( 2) = ( -1.0000000 -0.0000000 -0.0000000 )
                  (  0.0000000 -1.0000000 -0.0000000 )
                  (  0.0000000  0.0000000 -1.0000000 )

   Cartesian axes

     site n.     atom                  positions (alat units)
         1           K   tau(   1) = (   0.4499680   0.6670185   0.3684399  )
         2           K   tau(   2) = (   0.5000000   0.0000000   0.0000000  )
         3           K   tau(   3) = (  -0.1872475   0.4636145   0.0000000  )
         4           Na  tau(   4) = (   0.1372156   0.2034040   0.3684399  )
         5           Fe  tau(   5) = (   0.0000000   0.0000000   0.0000000  )
         6           Cl  tau(   6) = (   0.0935654   0.5394982   0.5109797  )
         7           Cl  tau(   7) = (   0.7235419   1.0725558   0.7153061  )
         8           Cl  tau(   8) = (   0.4651986   0.2887959   0.5109797  )
         9           Cl  tau(   9) = (   0.8063707   0.7945388   0.2259001  )
        10           Cl  tau(  10) = (   0.1763942   0.2614812   0.0215736  )
        11           Cl  tau(  11) = (   0.4347375   1.0452411   0.2259001  )

   Crystallographic axes

     site n.     atom                  positions (cryst. coord.)
         1           K   tau(   1) = (  0.5000000  0.5000000  0.5000000  )
         2           K   tau(   2) = (  0.5000000  0.0000000  0.0000000  )
         3           K   tau(   3) = (  0.0000000  0.5000000  0.0000000  )
         4           Na  tau(   4) = (  0.0000000 -0.0000000  0.5000000  )
         5           Fe  tau(   5) = (  0.0000000  0.0000000  0.0000000  )
         6           Cl  tau(   6) = (  0.0072260  0.2776040  0.6934370  )
         7           Cl  tau(   7) = (  0.7308420  0.7308420  0.9707230  )
         8           Cl  tau(   8) = (  0.2776040  0.0072260  0.6934370  )
         9           Cl  tau(   9) = (  0.9927740  0.7223960  0.3065630  )
        10           Cl  tau(  10) = (  0.2691580  0.2691580  0.0292770  )
        11           Cl  tau(  11) = (  0.7223960  0.9927740  0.3065630  )

     number of k points=    14
                       cart. coord. in units 2pi/alat
        k(    1) = (   0.0000000   0.0000000   0.0000000), wk =   0.0740741
        k(    2) = (   0.0000000   0.0000000   0.4523578), wk =   0.1481481
        k(    3) = (   0.0000000   0.3594941  -0.1984654), wk =   0.1481481
        k(    4) = (   0.0000000   0.3594941   0.2538925), wk =   0.1481481
        k(    5) = (   0.0000000   0.3594941  -0.6508232), wk =   0.1481481
        k(    6) = (   0.3333333   0.1346288  -0.1984654), wk =   0.1481481
        k(    7) = (   0.3333333   0.1346288   0.2538925), wk =   0.1481481
        k(    8) = (   0.3333333   0.1346288  -0.6508232), wk =   0.1481481
        k(    9) = (   0.3333333   0.4941229  -0.3969307), wk =   0.1481481
        k(   10) = (   0.3333333   0.4941229   0.0554271), wk =   0.1481481
        k(   11) = (   0.3333333   0.4941229  -0.8492886), wk =   0.1481481
        k(   12) = (   0.3333333  -0.2248653  -0.0000000), wk =   0.1481481
        k(   13) = (   0.3333333  -0.2248653   0.4523578), wk =   0.1481481
        k(   14) = (   0.3333333  -0.2248653  -0.4523578), wk =   0.1481481

                       cryst. coord.
        k(    1) = (   0.0000000   0.0000000   0.0000000), wk =   0.0740741
        k(    2) = (   0.0000000   0.0000000   0.3333333), wk =   0.1481481
        k(    3) = (   0.0000000   0.3333333   0.0000000), wk =   0.1481481
        k(    4) = (   0.0000000   0.3333333   0.3333333), wk =   0.1481481
        k(    5) = (   0.0000000   0.3333333  -0.3333333), wk =   0.1481481
        k(    6) = (   0.3333333   0.0000000   0.0000000), wk =   0.1481481
        k(    7) = (   0.3333333   0.0000000   0.3333333), wk =   0.1481481
        k(    8) = (   0.3333333   0.0000000  -0.3333333), wk =   0.1481481
        k(    9) = (   0.3333333   0.3333333   0.0000000), wk =   0.1481481
        k(   10) = (   0.3333333   0.3333333   0.3333333), wk =   0.1481481
        k(   11) = (   0.3333333   0.3333333  -0.3333333), wk =   0.1481481
        k(   12) = (   0.3333333  -0.3333333   0.0000000), wk =   0.1481481
        k(   13) = (   0.3333333  -0.3333333   0.3333333), wk =   0.1481481
        k(   14) = (   0.3333333  -0.3333333  -0.3333333), wk =   0.1481481

     Check: negative core charge=   -0.000031

     Initial potential from superposition of free atoms

     starting charge      93.9367, renormalised to      94.0000

     negative rho (up, down):  8.949E-02 0.000E+00
     Starting wfcs are   66 randomized atomic wfcs
     Checking if some PAW data can be deallocated...

     Self-consistent Calculation

     iteration #  1     ecut=    30.00 Ry     beta= 0.70
     Davidson diagonalization with overlap

     ethr =  1.00E-02,  avg # of iterations =  8.5

     Threshold (ethr) on eigenvalues was too large:
     Diagonalizing with lowered threshold

     Davidson diagonalization with overlap

[...]

     negative rho (up, down):  9.187E-02 0.000E+00

     total energy              =    -964.15513251 Ry
     estimated scf accuracy    <       0.50859950 Ry

[...]

     total energy              =    -964.35004430 Ry
     estimated scf accuracy    <       0.00000288 Ry

     iteration # 10     ecut=    30.00 Ry     beta= 0.70
     Davidson diagonalization with overlap

     ethr =  3.07E-09,  avg # of iterations =  2.0

     negative rho (up, down):  8.905E-02 0.000E+00

     End of self-consistent calculation

          k = 0.0000 0.0000 0.0000 (  6313 PWs)   bands (ev):

   -83.7137 -49.3249 -49.3118 -49.3032 -48.5384 -27.0868 -27.0832 -26.8489
   -20.4528 -20.4483 -20.4334 -12.1597 -11.9103 -11.8716 -11.8290 -11.7221
   -11.6980 -10.6431 -10.5926 -10.5779 -10.5457 -10.4828 -10.4494 -10.3356
   -10.3151 -10.2174  -1.9212  -1.0974  -0.8453  -0.8324  -0.6231  -0.5556
    -0.5530  -0.5274  -0.5187  -0.1336  -0.1135   0.0353   0.4442   0.4751
     0.5194   0.5550   0.6065   0.6105   2.2969   2.3279   2.3353   3.9596
     3.9893   5.1335   7.7464   7.8465   7.8748   8.5495   8.5641   8.6288
     8.7448   9.0145   9.0833   9.4496   9.5709   9.7251   9.7550   9.8463

     occupation numbers
     1.0000   1.0000   1.0000   1.0000   1.0000   1.0000   1.0000   1.0000
     1.0000   1.0000   1.0000   1.0000   1.0000   1.0000   1.0000   1.0000
     1.0000   1.0000   1.0000   1.0000   1.0000   1.0000   1.0000   1.0000
     1.0000   1.0000   1.0000   1.0000   1.0000   1.0000   1.0000   1.0000
     1.0000   1.0000   1.0000   1.0000   1.0000   1.0000   1.0000   1.0000
     1.0000   1.0000   1.0000   1.0000   1.0000   1.0000   1.0000   0.0000
     0.0000   0.0000   0.0000   0.0000   0.0000   0.0000   0.0000   0.0000
     0.0000   0.0000   0.0000   0.0000   0.0000   0.0000   0.0000   0.0000

[...]

          k = 0.3333-0.2249-0.4524 (  6324 PWs)   bands (ev):

   -83.7141 -49.3267 -49.3173 -49.3015 -48.5385 -27.0867 -27.0833 -26.8489
   -20.4535 -20.4482 -20.4337 -12.2376 -11.8555 -11.8202 -11.7910 -11.7646
   -11.7067 -10.6137 -10.5898 -10.5799 -10.5341 -10.5141 -10.4475 -10.3596
   -10.3157 -10.2257  -1.7548  -0.9738  -0.8802  -0.8616  -0.7186  -0.6524
    -0.6209  -0.5603  -0.3943  -0.0069   0.0169   0.0710   0.1962   0.3784
     0.4561   0.5113   0.5490   0.5708   2.3209   2.3299   2.3404   3.9522
     4.0693   6.4463   7.0955   7.2442   7.4298   7.6830   8.4527   8.5318
     8.7643   8.9580   9.0859   9.1329   9.3203   9.4558  10.1721  10.3707

     occupation numbers
     1.0000   1.0000   1.0000   1.0000   1.0000   1.0000   1.0000   1.0000
     1.0000   1.0000   1.0000   1.0000   1.0000   1.0000   1.0000   1.0000
     1.0000   1.0000   1.0000   1.0000   1.0000   1.0000   1.0000   1.0000
     1.0000   1.0000   1.0000   1.0000   1.0000   1.0000   1.0000   1.0000
     1.0000   1.0000   1.0000   1.0000   1.0000   1.0000   1.0000   1.0000
     1.0000   1.0000   1.0000   1.0000   1.0000   1.0000   1.0000   0.0000
     0.0000   0.0000   0.0000   0.0000   0.0000   0.0000   0.0000   0.0000
     0.0000   0.0000   0.0000   0.0000   0.0000   0.0000   0.0000   0.0000

     highest occupied, lowest unoccupied level (ev):     2.3459    3.9349

!    total energy              =    -964.35004441 Ry
     estimated scf accuracy    <       0.00000041 Ry

     The total energy is the sum of the following terms:
     one-electron contribution =    -535.01104482 Ry
     hartree contribution      =     295.17420375 Ry
     xc contribution           =    -139.79516803 Ry
     ewald contribution        =    -342.40062443 Ry
     one-center paw contrib.   =    -242.31741088 Ry
      -> PAW hartree energy AE =      75.38907482 Ry
      -> PAW hartree energy PS =     -74.96862713 Ry
      -> PAW xc energy AE      =    -132.43543780 Ry
      -> PAW xc energy PS      =      21.18060027 Ry
      -> total E_H with PAW    =     295.59465144 Ry
      -> total E_XC with PAW   =    -251.05000556 Ry

     convergence has been achieved in  10 iterations

     Writing all to output data dir calculations_bands/myprefix.save/

     General routines

     Parallel routines

     PAW routines

   This run was terminated on:  22:29:34   6Jun2023

   JOB DONE.