     Program PWSCF v.7.1 starts on 16Jul2023 at 15:31:39

     Reading input from espresso_26573.pwi
Warning: card &CELL ignored
Warning: card / ignored

     Current dimensions of program PWSCF are:
     Max number of different atomic species (ntypx) = 10
     Max number of k-points (npk) =  40000
     Max angular momentum in pseudopotentials (lmaxx) =  4
     file Cu.paw.z_11.ld1.psl.v1.0.0-low.upf: wavefunction(s)  4S 3D renormalized
     Message from routine setup:
     using ibrav=0 with symmetry is DISCOURAGED, use correct ibrav instead

     K-points division:     npool     =       2
     R & G space division:  proc/nbgrp/npool/nimage =       4
     Subspace diagonalization in iterative solution of the eigenvalue problem:
     a serial algorithm will be used

     Using Slab Decomposition

     bravais-lattice index     =            0
     lattice parameter (alat)  =      14.0551  a.u.
     unit-cell volume          =    1785.7142 (a.u.)^3
     number of atoms/cell      =           12
     number of atomic types    =            4
     number of electrons       =       108.00
     number of Kohn-Sham states=           64
     kinetic-energy cutoff     =      30.0000  Ry
     charge density cutoff     =     240.0000  Ry
     scf convergence threshold =      1.0E-06
     mixing beta               =       0.7000
     number of iterations used =            8  plain     mixing
     Exchange-correlation=  SLA  PW   PBX  PBC
                           (   1   4   3   4   0   0   0)

     celldm(1)=  14.055100  celldm(2)=   0.000000  celldm(3)=   0.000000
     celldm(4)=   0.000000  celldm(5)=   0.000000  celldm(6)=   0.000000

     crystal axes: (cart. coord. in units of alat)
               a(1) = (   1.000000   0.000000   0.000000 )
               a(2) = (  -0.873500   0.486824   0.000000 )
               a(3) = (   0.000000   0.000000   1.321108 )

     reciprocal axes: (cart. coord. in units 2 pi/alat)
               b(1) = (  1.000000  1.794285  0.000000 )
               b(2) = (  0.000000  2.054132  0.000000 )
               b(3) = (  0.000000  0.000000  0.756940 )

     PseudoPot. # 1 for Zr read from file:
     /lustre07/scratch/pragov/crystal_structure_design/utils/SSSP/Zr_pbe_v1.uspp.F.UPF
     MD5 check sum: 5db81b1e868ab7776c4564c113de050b
     Pseudo is Ultrasoft + core correction, Zval = 12.0
     Generated by new atomic code, or converted to UPF format
     Using radial grid of  887 points,  6 beta functions with:
                l(1) =   0
                l(2) =   0
                l(3) =   1
                l(4) =   1
                l(5) =   2
                l(6) =   2
     Q(r) pseudized with  6 coefficients,  rinner =    1.200   1.200   1.200
                                                       1.200   1.200

     PseudoPot. # 2 for Tl read from file:
     /lustre07/scratch/pragov/crystal_structure_design/utils/SSSP/Tl_pbe_v1.2.uspp.F.UPF
     MD5 check sum: b76cf1f7e72655a2b2c53cf6385d7059
     Pseudo is Ultrasoft + core correction, Zval = 13.0
     Generated by new atomic code, or converted to UPF format
     Using radial grid of  899 points,  6 beta functions with:
                l(1) =   0
                l(2) =   0
                l(3) =   1
                l(4) =   1
                l(5) =   2
                l(6) =   2
     Q(r) pseudized with  6 coefficients,  rinner =    1.100   1.100   1.100
                                                       1.100   1.100

     PseudoPot. # 3 for Cu read from file:
     /lustre07/scratch/pragov/crystal_structure_design/utils/SSSP/Cu.paw.z_11.ld1.psl.v1.0.0-low.upf
     MD5 check sum: 619f40885d92a09a85a8b37550532d0c
     Pseudo is Projector augmented-wave + core cor, Zval = 11.0
     Generated using &quot;atomic&quot; code by A. Dal Corso  v.6.3MaX
     Shape of augmentation charge: PSQ
     Using radial grid of 1199 points,  6 beta functions with:
                l(1) =   0
                l(2) =   0
                l(3) =   1
                l(4) =   1
                l(5) =   2
                l(6) =   2
     Q(r) pseudized with 0 coefficients

     PseudoPot. # 4 for S  read from file:
     /lustre07/scratch/pragov/crystal_structure_design/utils/SSSP/s_pbe_v1.4.uspp.F.UPF
     MD5 check sum: 88d86576ff6df21479756cfb9bdac1df
     Pseudo is Ultrasoft + core correction, Zval =  6.0
     Generated by new atomic code, or converted to UPF format
     Using radial grid of  907 points,  6 beta functions with:
                l(1) =   0
                l(2) =   0
                l(3) =   1
                l(4) =   1
                l(5) =   2
                l(6) =   2
     Q(r) pseudized with  8 coefficients,  rinner =    1.300   1.300   1.300
                                                       1.300   1.300

     atomic species   valence    mass     pseudopotential
        Zr            12.00    91.22400     Zr( 1.00)
        Tl            13.00   204.38000     Tl( 1.00)
        Cu            11.00    63.54600     Cu( 1.00)
        S              6.00    32.06000     S ( 1.00)

      4 Sym. Ops., with inversion, found ( 2 have fractional translation)

                                    s                        frac. trans.

      isym =  1     identity

 cryst.   s( 1) = (     1          0          0      )
                  (     0          1          0      )
                  (     0          0          1      )

 cart.    s( 1) = (  1.0000000  0.0000000  0.0000000 )
                  (  0.0000000  1.0000000  0.0000000 )
                  (  0.0000000  0.0000000  1.0000000 )

      isym =  2     180 deg rotation - cart. axis [0,0,1]

 cryst.   s( 2) = (    -1          0          0      )    f =(  0.0000000 )
                  (     0         -1          0      )       (  0.0000000 )
                  (     0          0          1      )       (  0.5000000 )

 cart.    s( 2) = ( -1.0000000 -0.0000000  0.0000000 )    f =(  0.0000000 )
                  (  0.0000000 -1.0000000  0.0000000 )       (  0.0000000 )
                  (  0.0000000  0.0000000  1.0000000 )       (  0.6605541 )

      isym =  3     inversion

 cryst.   s( 3) = (    -1          0          0      )
                  (     0         -1          0      )
                  (     0          0         -1      )

 cart.    s( 3) = ( -1.0000000 -0.0000000  0.0000000 )
                  (  0.0000000 -1.0000000  0.0000000 )
                  (  0.0000000  0.0000000 -1.0000000 )

      isym =  4     inv. 180 deg rotation - cart. axis [0,0,1]

 cryst.   s( 4) = (     1          0          0      )    f =(  0.0000000 )
                  (     0          1          0      )       (  0.0000000 )
                  (     0          0         -1      )       (  0.5000000 )

 cart.    s( 4) = (  1.0000000  0.0000000  0.0000000 )    f =(  0.0000000 )
                  (  0.0000000  1.0000000  0.0000000 )       (  0.0000000 )
                  (  0.0000000  0.0000000 -1.0000000 )       (  0.6605541 )

   Cartesian axes

     site n.     atom                  positions (alat units)
         1           Zr  tau(   1) = (   0.0000000   0.0000000   0.6605541  )
         2           Zr  tau(   2) = (   0.0000000   0.0000000   0.0000000  )
         3           Tl  tau(   3) = (   0.5232429   0.1238840   0.3302771  )
         4           Tl  tau(   4) = (  -0.3967431   0.3629397   0.9908312  )
         5           Cu  tau(   5) = (   0.1301376   0.2260313   0.9908312  )
         6           Cu  tau(   6) = (  -0.0036378   0.2607924   0.3302771  )
         7           S   tau(   7) = (   0.2896212   0.1845899   0.7297578  )
         8           S   tau(   8) = (  -0.1631214   0.3022338   0.5913505  )
         9           S   tau(   9) = (  -0.1631214   0.3022338   0.0692036  )
        10           S   tau(  10) = (   0.8828819   0.0304328   0.9908312  )
        11           S   tau(  11) = (  -0.7563821   0.4563909   0.3302771  )
        12           S   tau(  12) = (   0.2896212   0.1845899   1.2519047  )

   Crystallographic axes

     site n.     atom                  positions (cryst. coord.)
         1           Zr  tau(   1) = (  0.0000000  0.0000000  0.5000000  )
         2           Zr  tau(   2) = (  0.0000000  0.0000000  0.0000000  )
         3           Tl  tau(   3) = (  0.7455260  0.2544740  0.2500000  )
         4           Tl  tau(   4) = (  0.2544740  0.7455260  0.7500000  )
         5           Cu  tau(   5) = (  0.5357020  0.4642980  0.7500000  )
         6           Cu  tau(   6) = (  0.4642980  0.5357020  0.2500000  )
         7           S   tau(   7) = (  0.6208280  0.3791720  0.5523830  )
         8           S   tau(   8) = (  0.3791720  0.6208280  0.4476170  )
         9           S   tau(   9) = (  0.3791720  0.6208280  0.0523830  )
        10           S   tau(  10) = (  0.9374870  0.0625130  0.7500000  )
        11           S   tau(  11) = (  0.0625130  0.9374870  0.2500000  )
        12           S   tau(  12) = (  0.6208280  0.3791720  0.9476170  )

     number of k points=    10
                       cart. coord. in units 2pi/alat
        k(    1) = (   0.0000000   0.0000000   0.0000000), wk =   0.0740741
        k(    2) = (   0.0000000   0.0000000   0.2523134), wk =   0.1481481
        k(    3) = (   0.0000000   0.6847106   0.0000000), wk =   0.1481481
        k(    4) = (   0.0000000   0.6847106   0.2523134), wk =   0.2962963
        k(    5) = (   0.3333333   0.5980949   0.0000000), wk =   0.1481481
        k(    6) = (   0.3333333   0.5980949   0.2523134), wk =   0.2962963
        k(    7) = (   0.3333333   1.2828054   0.0000000), wk =   0.1481481
        k(    8) = (   0.3333333   1.2828054   0.2523134), wk =   0.2962963
        k(    9) = (   0.3333333  -0.0866157   0.0000000), wk =   0.1481481
        k(   10) = (   0.3333333  -0.0866157   0.2523134), wk =   0.2962963

                       cryst. coord.
        k(    1) = (   0.0000000   0.0000000   0.0000000), wk =   0.0740741
        k(    2) = (   0.0000000   0.0000000   0.3333333), wk =   0.1481481
        k(    3) = (   0.0000000   0.3333333   0.0000000), wk =   0.1481481
        k(    4) = (   0.0000000   0.3333333   0.3333333), wk =   0.2962963
        k(    5) = (   0.3333333   0.0000000   0.0000000), wk =   0.1481481
        k(    6) = (   0.3333333   0.0000000   0.3333333), wk =   0.2962963
        k(    7) = (   0.3333333   0.3333333   0.0000000), wk =   0.1481481
        k(    8) = (   0.3333333   0.3333333   0.3333333), wk =   0.2962963
        k(    9) = (   0.3333333  -0.3333333   0.0000000), wk =   0.1481481
        k(   10) = (   0.3333333  -0.3333333   0.3333333), wk =   0.2962963

     Check: negative core charge=   -0.000004

     Initial potential from superposition of free atoms

     starting charge     107.9853, renormalised to     108.0000

     negative rho (up, down):  2.212E-01 0.000E+00
     Starting wfcs are   86 randomized atomic wfcs
     Checking if some PAW data can be deallocated...

     Self-consistent Calculation

     iteration #  1     ecut=    30.00 Ry     beta= 0.70
     Davidson diagonalization with overlap

     ethr =  1.00E-02,  avg # of iterations =  2.2

     Threshold (ethr) on eigenvalues was too large:
     Diagonalizing with lowered threshold

     Davidson diagonalization with overlap

[...]

     negative rho (up, down):  2.243E-01 0.000E+00

     total energy              =   -1059.57623236 Ry
     estimated scf accuracy    <       0.66505705 Ry

[...]

     total energy              =   -1059.85136944 Ry
     estimated scf accuracy    <       0.00000628 Ry

     iteration #  9     ecut=    30.00 Ry     beta= 0.70
     Davidson diagonalization with overlap

     ethr =  5.81E-09,  avg # of iterations =  4.9

     negative rho (up, down):  2.261E-01 0.000E+00

     End of self-consistent calculation

          k = 0.0000 0.0000 0.0000 (  4945 PWs)   bands (ev):

   -41.4382 -41.4379 -19.5160 -19.5056 -19.4393 -19.4297 -19.3617 -19.3615
    -5.2618  -4.5516  -4.4847  -4.2566  -4.0480  -3.9119  -2.8595  -2.8560
    -2.6710  -2.6580  -2.6557  -2.6554  -2.6545  -2.6522  -2.6344  -2.5585
     1.6989   2.0362   3.0713   3.1821   3.8398   4.0178   4.2894   4.4000
     4.4376   4.5876   4.6118   4.6760   4.8683   5.0370   5.1327   5.2947
     5.4228   5.6920   6.1306   6.1816   6.4092   6.4720   6.8448   7.2936
     7.3052   7.3761   7.4393   7.8365   7.9062   8.2367   8.8942   9.1120
     9.7907  10.0345  10.3063  10.7856  11.0176  11.3741  11.3801  11.9050

     occupation numbers
     1.0000   1.0000   1.0000   1.0000   1.0000   1.0000   1.0000   1.0000
     1.0000   1.0000   1.0000   1.0000   1.0000   1.0000   1.0000   1.0000
     1.0000   1.0000   1.0000   1.0000   1.0000   1.0000   1.0000   1.0000
     1.0000   1.0000   1.0000   1.0000   1.0000   1.0000   1.0000   1.0000
     1.0000   1.0000   1.0000   1.0000   1.0000   1.0000   1.0000   1.0000
     1.0000   1.0000   1.0000   1.0000   1.0000   1.0000   1.0000   1.0000
     1.0000   1.0000   1.0000   1.0000   1.0000   1.0000   0.0000   0.0000
     0.0000   0.0000   0.0000   0.0000   0.0000   0.0000   0.0000   0.0000

[...]

          k = 0.3333-0.0866 0.2523 (  4949 PWs)   bands (ev):

   -41.4381 -41.4380 -19.5132 -19.5080 -19.4371 -19.4323 -19.3617 -19.3615
    -5.0961  -4.8155  -4.3190  -4.2673  -4.0777  -3.9657  -2.8589  -2.8571
    -2.6636  -2.6617  -2.6565  -2.6555  -2.6548  -2.6536  -2.6323  -2.6043
     1.7733   1.9833   3.1928   3.5472   3.6677   3.9755   4.2791   4.4643
     4.5632   4.5919   4.7484   4.7968   4.8882   4.9114   5.0587   5.3010
     5.6084   5.7723   5.9046   5.9130   6.4644   6.5716   6.7494   6.8824
     6.9277   7.2756   7.5199   7.7053   7.8322   8.0691   8.9820   9.0270
    10.0517  10.3280  10.5361  10.5363  10.8996  11.2786  11.7452  12.0308

     occupation numbers
     1.0000   1.0000   1.0000   1.0000   1.0000   1.0000   1.0000   1.0000
     1.0000   1.0000   1.0000   1.0000   1.0000   1.0000   1.0000   1.0000
     1.0000   1.0000   1.0000   1.0000   1.0000   1.0000   1.0000   1.0000
     1.0000   1.0000   1.0000   1.0000   1.0000   1.0000   1.0000   1.0000
     1.0000   1.0000   1.0000   1.0000   1.0000   1.0000   1.0000   1.0000
     1.0000   1.0000   1.0000   1.0000   1.0000   1.0000   1.0000   1.0000
     1.0000   1.0000   1.0000   1.0000   1.0000   1.0000   0.0000   0.0000
     0.0000   0.0000   0.0000   0.0000   0.0000   0.0000   0.0000   0.0000

     highest occupied, lowest unoccupied level (ev):     8.2548    8.8942

!    total energy              =   -1059.85137220 Ry
     estimated scf accuracy    <       0.00000073 Ry

     The total energy is the sum of the following terms:
     one-electron contribution =    -286.12235199 Ry
     hartree contribution      =     217.90895825 Ry
     xc contribution           =    -299.74224552 Ry
     ewald contribution        =    -512.22858183 Ry
     one-center paw contrib.   =    -179.66715111 Ry
      -> PAW hartree energy AE =       0.00000000 Ry
      -> PAW hartree energy PS =       0.00000000 Ry
      -> PAW xc energy AE      =       0.00000000 Ry
      -> PAW xc energy PS      =       0.00000000 Ry
      -> total E_H with PAW    =     217.90895825 Ry
      -> total E_XC with PAW   =    -299.74224552 Ry

     convergence has been achieved in   9 iterations

     Writing all to output data dir bands_nm/myprefix.save/

     General routines

     Parallel routines

     PAW routines

   This run was terminated on:  15:31:57  16Jul2023

   JOB DONE.