     Program PWSCF v.7.0 starts on  7Jun2023 at 12:13:29

     K-points division:     npool     =       2
     R & G space division:  proc/nbgrp/npool/nimage =       4

     Reading input from espresso_8788.pwi
Warning: card &CELL ignored
Warning: card / ignored

     Current dimensions of program PWSCF are:
     Max number of different atomic species (ntypx) = 10
     Max number of k-points (npk) =  40000
     Max angular momentum in pseudopotentials (lmaxx) =  4
     file O.pbe-n-kjpaw_psl.0.1.UPF: wavefunction(s)  2P renormalized
     Message from routine setup:
     using ibrav=0 with symmetry is DISCOURAGED, use correct ibrav instead

     Using Slab Decomposition

     bravais-lattice index     =            0
     lattice parameter (alat)  =      13.0144  a.u.
     unit-cell volume          =    1149.3048 (a.u.)^3
     number of atoms/cell      =           15
     number of atomic types    =            2
     number of electrons       =       120.00
     number of Kohn-Sham states=           64
     kinetic-energy cutoff     =      30.0000  Ry
     charge density cutoff     =     240.0000  Ry
     scf convergence threshold =      1.0E-06
     mixing beta               =       0.7000
     number of iterations used =            8  plain     mixing
     Exchange-correlation= SLA  PW   PBX  PBC
                           (   1   4   3   4   0   0   0)

     celldm(1)=  13.014351  celldm(2)=   0.000000  celldm(3)=   0.000000
     celldm(4)=   0.000000  celldm(5)=   0.000000  celldm(6)=   0.000000

     crystal axes: (cart. coord. in units of alat)
               a(1) = (   1.000000   0.000000   0.000000 )
               a(2) = (   0.891082   0.453842   0.000000 )
               a(3) = (   0.210272   0.050463   1.148849 )

     reciprocal axes: (cart. coord. in units 2 pi/alat)
               b(1) = (  1.000000 -1.963418 -0.096785 )
               b(2) = (  0.000000  2.203409 -0.096785 )
               b(3) = (  0.000000  0.000000  0.870437 )

     PseudoPot. # 1 for Sc read from file:
     /home/pragov/projects/rrg-bengioy-ad/pragov/crystal_structure_design/SSSP/Sc_ONCV_PBE-1.0.oncvpsp.upf
     MD5 check sum: e21af8023abb52e52cb7cd3133e4a229
     Pseudo is Norm-conserving, Zval = 11.0
     Generated using ONCVPSP code by D. R. Hamann
     Using radial grid of 1662 points,  6 beta functions with:
                l(1) =   0
                l(2) =   0
                l(3) =   1
                l(4) =   1
                l(5) =   2
                l(6) =   2

     PseudoPot. # 2 for O  read from file:
     /home/pragov/projects/rrg-bengioy-ad/pragov/crystal_structure_design/SSSP/O.pbe-n-kjpaw_psl.0.1.UPF
     MD5 check sum: 0234752ac141de4415c5fc33072bef88
     Pseudo is Projector augmented-wave + core cor, Zval =  6.0
     Generated using "atomic" code by A. Dal Corso  v.5.0.99 svn rev. 10869
     Shape of augmentation charge: BESSEL
     Using radial grid of 1095 points,  4 beta functions with:
                l(1) =   0
                l(2) =   0
                l(3) =   1
                l(4) =   1
     Q(r) pseudized with 0 coefficients

     atomic species   valence    mass     pseudopotential
        Sc            11.00    44.95591     Sc( 1.00)
        O              6.00    15.99900     O ( 1.00)

      2 Sym. Ops., with inversion, found

                                    s                        frac. trans.

      isym =  1     identity

 cryst.   s( 1) = (     1          0          0      )
                  (     0          1          0      )
                  (     0          0          1      )

 cart.    s( 1) = (  1.0000000 -0.0000000  0.0000000 )
                  (  0.0000000  1.0000000  0.0000000 )
                  (  0.0000000  0.0000000  1.0000000 )

      isym =  2     inversion

 cryst.   s( 2) = (    -1          0          0      )
                  (     0         -1          0      )
                  (     0          0         -1      )

 cart.    s( 2) = ( -1.0000000  0.0000000 -0.0000000 )
                  (  0.0000000 -1.0000000 -0.0000000 )
                  (  0.0000000  0.0000000 -1.0000000 )

   Cartesian axes

     site n.     atom                  positions (alat units)
         1           Sc  tau(   1) = (   0.0968987   0.0232548   0.2113330  )
         2           Sc  tau(   2) = (   0.7901794   0.1896357   0.5597065  )
         3           Sc  tau(   3) = (   1.4902633   0.3576494   0.9922205  )
         4           Sc  tau(   4) = (   2.0044550   0.4810506   0.9375157  )
         5           Sc  tau(   5) = (   1.3111743   0.3146697   0.5891423  )
         6           Sc  tau(   6) = (   0.6110904   0.1466560   0.1566283  )
         7           O   tau(   7) = (   1.7654456   0.4236906   1.1085380  )
         8           O   tau(   8) = (   0.3359081   0.0806148   0.0403108  )
         9           O   tau(   9) = (   1.6244791   0.3898599   0.7136132  )
        10           O   tau(  10) = (   0.3889408   0.0933422   0.8278156  )
        11           O   tau(  11) = (   0.9455410   0.2269211   0.0000000  )
        12           O   tau(  12) = (   0.4768746   0.1144455   0.4352356  )
        13           O   tau(  13) = (   1.0818252   0.2596280   0.3917322  )
        14           O   tau(  14) = (   1.7124129   0.4109632   0.3210332  )
        15           O   tau(  15) = (   1.0195285   0.2446774   0.7571166  )

   Crystallographic axes

     site n.     atom                  positions (cryst. coord.)
         1           Sc  tau(   1) = (  0.0307860  0.0307860  0.1839520  )
         2           Sc  tau(   2) = (  0.3636740  0.3636740  0.4871890  )
         3           Sc  tau(   3) = (  0.6920160  0.6920160  0.8636650  )
         4           Sc  tau(   4) = (  0.9692140  0.9692140  0.8160480  )
         5           Sc  tau(   5) = (  0.6363260  0.6363260  0.5128110  )
         6           Sc  tau(   6) = (  0.3079840  0.3079840  0.1363350  )
         7           O   tau(   7) = (  0.8262740  0.8262740  0.9649120  )
         8           O   tau(   8) = (  0.1737260  0.1737260  0.0350880  )
         9           O   tau(   9) = (  0.7899540  0.7899540  0.6211550  )
        10           O   tau(  10) = (  0.1255510  0.1255510  0.7205610  )
        11           O   tau(  11) = (  0.5000000  0.5000000  0.0000000  )
        12           O   tau(  12) = (  0.2100460  0.2100460  0.3788450  )
        13           O   tau(  13) = (  0.5341530  0.5341530  0.3409780  )
        14           O   tau(  14) = (  0.8744490  0.8744490  0.2794390  )
        15           O   tau(  15) = (  0.4658470  0.4658470  0.6590220  )

     number of k points=    14
                       cart. coord. in units 2pi/alat
        k(    1) = (   0.0000000   0.0000000   0.0000000), wk =   0.0740741
        k(    2) = (   0.0000000   0.0000000   0.2901455), wk =   0.1481481
        k(    3) = (   0.0000000   0.7344697  -0.0322616), wk =   0.1481481
        k(    4) = (   0.0000000   0.7344697   0.2578839), wk =   0.1481481
        k(    5) = (   0.0000000   0.7344697  -0.3224071), wk =   0.1481481
        k(    6) = (   0.3333333  -0.6544728  -0.0322616), wk =   0.1481481
        k(    7) = (   0.3333333  -0.6544728   0.2578839), wk =   0.1481481
        k(    8) = (   0.3333333  -0.6544728  -0.3224071), wk =   0.1481481
        k(    9) = (   0.3333333   0.0799969  -0.0645232), wk =   0.1481481
        k(   10) = (   0.3333333   0.0799969   0.2256223), wk =   0.1481481
        k(   11) = (   0.3333333   0.0799969  -0.3546688), wk =   0.1481481
        k(   12) = (   0.3333333  -1.3889425   0.0000000), wk =   0.1481481
        k(   13) = (   0.3333333  -1.3889425   0.2901455), wk =   0.1481481
        k(   14) = (   0.3333333  -1.3889425  -0.2901455), wk =   0.1481481

                       cryst. coord.
        k(    1) = (   0.0000000   0.0000000   0.0000000), wk =   0.0740741
        k(    2) = (   0.0000000   0.0000000   0.3333333), wk =   0.1481481
        k(    3) = (   0.0000000   0.3333333   0.0000000), wk =   0.1481481
        k(    4) = (   0.0000000   0.3333333   0.3333333), wk =   0.1481481
        k(    5) = (   0.0000000   0.3333333  -0.3333333), wk =   0.1481481
        k(    6) = (   0.3333333   0.0000000   0.0000000), wk =   0.1481481
        k(    7) = (   0.3333333   0.0000000   0.3333333), wk =   0.1481481
        k(    8) = (   0.3333333   0.0000000  -0.3333333), wk =   0.1481481
        k(    9) = (   0.3333333   0.3333333   0.0000000), wk =   0.1481481
        k(   10) = (   0.3333333   0.3333333   0.3333333), wk =   0.1481481
        k(   11) = (   0.3333333   0.3333333  -0.3333333), wk =   0.1481481
        k(   12) = (   0.3333333  -0.3333333   0.0000000), wk =   0.1481481
        k(   13) = (   0.3333333  -0.3333333   0.3333333), wk =   0.1481481
        k(   14) = (   0.3333333  -0.3333333  -0.3333333), wk =   0.1481481

     Check: negative core charge=   -0.000016

     Initial potential from superposition of free atoms

     starting charge     119.9842, renormalised to     120.0000
     Starting wfcs are   96 randomized atomic wfcs
     Checking if some PAW data can be deallocated...

     Self-consistent Calculation

     iteration #  1     ecut=    30.00 Ry     beta= 0.70
     Davidson diagonalization with overlap

     ethr =  1.00E-02,  avg # of iterations =  2.0

     total energy              =    -925.82989697 Ry
     estimated scf accuracy    <       4.49710437 Ry

[...]

     total energy              =    -928.14194978 Ry
     estimated scf accuracy    <       0.00000222 Ry

     iteration # 13     ecut=    30.00 Ry     beta= 0.70
     Davidson diagonalization with overlap

     ethr =  1.85E-09,  avg # of iterations =  5.0

     End of self-consistent calculation

          k = 0.0000 0.0000 0.0000 (  3213 PWs)   bands (ev):

   -38.1974 -38.1746 -38.1664 -38.1493 -37.7984 -37.7857 -17.1162 -16.9962
   -16.9651 -16.9103 -16.8388 -16.7709 -16.7089 -16.6982 -16.6612 -16.6603
   -16.6557 -16.6389 -16.5892 -16.4664 -16.4631 -16.4508 -16.2933 -16.2757
    -7.7674  -6.9323  -6.7770  -6.7008  -6.6885  -6.4331  -6.3749  -6.2619
    -6.1733   5.4283   5.7999   5.9385   6.1688   6.2052   6.3666   6.6259
     6.7433   6.8215   6.9555   7.0367   7.0844   7.2643   7.2774   7.3375
     7.6630   7.7739   7.9714   8.2055   8.2144   8.5205   8.7887   8.8995
     9.0483   9.2116   9.3609   9.4984  13.3849  13.4024  13.6430  14.0316

     occupation numbers
     1.0000   1.0000   1.0000   1.0000   1.0000   1.0000   1.0000   1.0000
     1.0000   1.0000   1.0000   1.0000   1.0000   1.0000   1.0000   1.0000
     1.0000   1.0000   1.0000   1.0000   1.0000   1.0000   1.0000   1.0000
     1.0000   1.0000   1.0000   1.0000   1.0000   1.0000   1.0000   1.0000
     1.0000   1.0000   1.0000   1.0000   1.0000   1.0000   1.0000   1.0000
     1.0000   1.0000   1.0000   1.0000   1.0000   1.0000   1.0000   1.0000
     1.0000   1.0000   1.0000   1.0000   1.0000   1.0000   1.0000   1.0000
     1.0000   1.0000   1.0000   1.0000   0.0000   0.0000   0.0000   0.0000

[...]

          k = 0.3333-1.3889-0.2901 (  3177 PWs)   bands (ev):

   -38.1657 -38.1616 -38.1409 -38.1321 -37.7759 -37.7631 -17.0665 -17.0236
   -16.9884 -16.9612 -16.9158 -16.8783 -16.8139 -16.7944 -16.7806 -16.7467
   -16.6900 -16.6553 -16.5792 -16.5464 -16.5434 -16.4727 -16.4703 -16.3998
    -6.9484  -6.8285  -6.7353  -6.6108  -6.5885  -6.4809  -6.4121  -6.2848
    -6.2745   5.6521   5.9193   5.9601   6.0623   6.2094   6.2667   6.4502
     6.5512   6.5994   6.6868   6.8390   7.1138   7.2957   7.3315   7.4050
     7.7256   7.8518   8.0199   8.1150   8.3059   8.3599   8.4276   8.4571
     8.9188   8.9353   9.0666   9.1462  13.5032  13.8335  13.9493  14.3148

     occupation numbers
     1.0000   1.0000   1.0000   1.0000   1.0000   1.0000   1.0000   1.0000
     1.0000   1.0000   1.0000   1.0000   1.0000   1.0000   1.0000   1.0000
     1.0000   1.0000   1.0000   1.0000   1.0000   1.0000   1.0000   1.0000
     1.0000   1.0000   1.0000   1.0000   1.0000   1.0000   1.0000   1.0000
     1.0000   1.0000   1.0000   1.0000   1.0000   1.0000   1.0000   1.0000
     1.0000   1.0000   1.0000   1.0000   1.0000   1.0000   1.0000   1.0000
     1.0000   1.0000   1.0000   1.0000   1.0000   1.0000   1.0000   1.0000
     1.0000   1.0000   1.0000   1.0000   0.0000   0.0000   0.0000   0.0000

     highest occupied, lowest unoccupied level (ev):     9.4984   13.1448

!    total energy              =    -928.14195101 Ry
     estimated scf accuracy    <       0.00000053 Ry

     The total energy is the sum of the following terms:
     one-electron contribution =    -212.13950181 Ry
     hartree contribution      =     166.96455024 Ry
     xc contribution           =    -139.23833310 Ry
     ewald contribution        =    -658.05687971 Ry
     one-center paw contrib.   =     -85.67178662 Ry
      -> PAW hartree energy AE =       0.00000000 Ry
      -> PAW hartree energy PS =       0.00000000 Ry
      -> PAW xc energy AE      =       0.00000000 Ry
      -> PAW xc energy PS      =       0.00000000 Ry
      -> total E_H with PAW    =     166.96455024 Ry
      -> total E_XC with PAW   =    -139.23833310 Ry

     convergence has been achieved in  13 iterations

     Writing all to output data dir calculations_bands/myprefix.save/

     General routines

     Parallel routines

     PAW routines

   This run was terminated on:  12:13:49   7Jun2023

   JOB DONE.