     Program PWSCF v.7.1 starts on 15Jul2023 at 18:58:10

     Reading input from espresso_11959.pwi
Warning: card &CELL ignored
Warning: card / ignored

     Current dimensions of program PWSCF are:
     Max number of different atomic species (ntypx) = 10
     Max number of k-points (npk) =  40000
     Max angular momentum in pseudopotentials (lmaxx) =  4
     Message from routine setup:
     using ibrav=0 with symmetry is DISCOURAGED, use correct ibrav instead

     K-points division:     npool     =       2
     R & G space division:  proc/nbgrp/npool/nimage =       4
     Subspace diagonalization in iterative solution of the eigenvalue problem:
     one sub-group per band group will be used

     Using Slab Decomposition

     bravais-lattice index     =            0
     lattice parameter (alat)  =       9.8037  a.u.
     unit-cell volume          =    2864.8679 (a.u.)^3
     number of atoms/cell      =           12
     number of atomic types    =            3
     number of electrons       =       136.00
     number of Kohn-Sham states=          256
     kinetic-energy cutoff     =      30.0000  Ry
     charge density cutoff     =     240.0000  Ry
     scf convergence threshold =      1.0E-06
     mixing beta               =       0.7000
     number of iterations used =            8  plain     mixing
     Exchange-correlation= SLA  PW   PBE  PBE
                           (   1   4   3   4   0   0   0)

     celldm(1)=   9.803701  celldm(2)=   0.000000  celldm(3)=   0.000000
     celldm(4)=   0.000000  celldm(5)=   0.000000  celldm(6)=   0.000000

     crystal axes: (cart. coord. in units of alat)
               a(1) = (   1.000000   0.000000   0.000000 )
               a(2) = (   0.000000   1.627338   0.000000 )
               a(3) = (   0.000000   0.000000   1.868343 )

     reciprocal axes: (cart. coord. in units 2 pi/alat)
               b(1) = (  1.000000  0.000000  0.000000 )
               b(2) = (  0.000000  0.614500  0.000000 )
               b(3) = (  0.000000  0.000000  0.535234 )

     PseudoPot. # 1 for Sr read from file:
     /lustre07/scratch/pragov/crystal_structure_design/utils/SSSP/Sr_pbe_v1.uspp.F.UPF
     MD5 check sum: 6b418c05fbe9db5448babca5e47b7a5b
     Pseudo is Ultrasoft + core correction, Zval = 10.0
     Generated by new atomic code, or converted to UPF format
     Using radial grid of  883 points,  6 beta functions with:
                l(1) =   0
                l(2) =   0
                l(3) =   1
                l(4) =   1
                l(5) =   2
                l(6) =   2
     Q(r) pseudized with  6 coefficients,  rinner =    1.400   1.400   1.400
                                                       1.400   1.400

     PseudoPot. # 2 for Ca read from file:
     /lustre07/scratch/pragov/crystal_structure_design/utils/SSSP/Ca_pbe_v1.uspp.F.UPF
     MD5 check sum: 403a4c14b9e4d4dfdc3024c9a3812218
     Pseudo is Ultrasoft + core correction, Zval = 10.0
     Generated by new atomic code, or converted to UPF format
     Using radial grid of  845 points,  6 beta functions with:
                l(1) =   0
                l(2) =   0
                l(3) =   1
                l(4) =   1
                l(5) =   2
                l(6) =   2
     Q(r) pseudized with  8 coefficients,  rinner =    1.500   1.500   1.500
                                                       1.500   1.500

     PseudoPot. # 3 for Sn read from file:
     /lustre07/scratch/pragov/crystal_structure_design/utils/SSSP/Sn_pbe_v1.uspp.F.UPF
     MD5 check sum: 4cf58ce39ec5d5d420df3dd08604eb00
     Pseudo is Ultrasoft + core correction, Zval = 14.0
     Generated by new atomic code, or converted to UPF format
     Using radial grid of  891 points,  6 beta functions with:
                l(1) =   0
                l(2) =   0
                l(3) =   1
                l(4) =   1
                l(5) =   2
                l(6) =   2
     Q(r) pseudized with  6 coefficients,  rinner =    1.200   1.200   1.200
                                                       1.200   1.200

     atomic species   valence    mass     pseudopotential
        Sr            10.00    87.62000     Sr( 1.00)
        Ca            10.00    40.07800     Ca( 1.00)
        Sn            14.00   118.71000     Sn( 1.00)

      8 Sym. Ops., with inversion, found ( 6 have fractional translation)

                                    s                        frac. trans.

      isym =  1     identity

 cryst.   s( 1) = (     1          0          0      )
                  (     0          1          0      )
                  (     0          0          1      )

 cart.    s( 1) = (  1.0000000  0.0000000  0.0000000 )
                  (  0.0000000  1.0000000  0.0000000 )
                  (  0.0000000  0.0000000  1.0000000 )

      isym =  2     180 deg rotation - cart. axis [0,0,1]

 cryst.   s( 2) = (    -1          0          0      )    f =(  0.0000000 )
                  (     0         -1          0      )       (  0.5000000 )
                  (     0          0          1      )       (  0.5000000 )

 cart.    s( 2) = ( -1.0000000  0.0000000  0.0000000 )    f =(  0.0000000 )
                  (  0.0000000 -1.0000000  0.0000000 )       (  0.8136691 )
                  (  0.0000000  0.0000000  1.0000000 )       (  0.9341716 )

[...]

      isym =  4     180 deg rotation - cart. axis [1,0,0]

[...]

      isym =  5     inversion

 cryst.   s( 5) = (    -1          0          0      )
                  (     0         -1          0      )
                  (     0          0         -1      )

 cart.    s( 5) = ( -1.0000000  0.0000000  0.0000000 )
                  (  0.0000000 -1.0000000  0.0000000 )
                  (  0.0000000  0.0000000 -1.0000000 )

      isym =  6     inv. 180 deg rotation - cart. axis [0,0,1]

[...]

      isym =  8     inv. 180 deg rotation - cart. axis [1,0,0]

 cryst.   s( 8) = (    -1          0          0      )    f =(  0.5000000 )
                  (     0          1          0      )       (  0.0000000 )
                  (     0          0          1      )       (  0.0000000 )

 cart.    s( 8) = ( -1.0000000  0.0000000  0.0000000 )    f =(  0.5000000 )
                  (  0.0000000  1.0000000  0.0000000 )       (  0.0000000 )
                  (  0.0000000  0.0000000  1.0000000 )       (  0.0000000 )

   Cartesian axes

     site n.     atom                  positions (alat units)
         1           Sr  tau(   1) = (   0.7500000   1.5923244   1.2743240  )
         2           Sr  tau(   2) = (   0.2500000   0.0350138   0.5940191  )
         3           Sr  tau(   3) = (   0.7500000   0.7786553   1.5281907  )
         4           Sr  tau(   4) = (   0.2500000   0.8486829   0.3401524  )
         5           Ca  tau(   5) = (   0.7500000   1.3836883   0.1310867  )
         6           Ca  tau(   6) = (   0.2500000   0.2436500   1.7372564  )
         7           Ca  tau(   7) = (   0.7500000   0.5700192   0.8030849  )
         8           Ca  tau(   8) = (   0.2500000   1.0573191   1.0652583  )
         9           Sn  tau(   9) = (   0.7500000   1.1993450   0.7287099  )
        10           Sn  tau(  10) = (   0.2500000   0.4279932   1.1396333  )
        11           Sn  tau(  11) = (   0.7500000   0.3856759   0.2054617  )
        12           Sn  tau(  12) = (   0.2500000   1.2416623   1.6628814  )

   Crystallographic axes

     site n.     atom                  positions (cryst. coord.)
         1           Sr  tau(   1) = (  0.7500000  0.9784840  0.6820610  )
         2           Sr  tau(   2) = (  0.2500000  0.0215160  0.3179390  )
         3           Sr  tau(   3) = (  0.7500000  0.4784840  0.8179390  )
         4           Sr  tau(   4) = (  0.2500000  0.5215160  0.1820610  )
         5           Ca  tau(   5) = (  0.7500000  0.8502770  0.0701620  )
         6           Ca  tau(   6) = (  0.2500000  0.1497230  0.9298380  )
         7           Ca  tau(   7) = (  0.7500000  0.3502770  0.4298380  )
         8           Ca  tau(   8) = (  0.2500000  0.6497230  0.5701620  )
         9           Sn  tau(   9) = (  0.7500000  0.7369980  0.3900300  )
        10           Sn  tau(  10) = (  0.2500000  0.2630020  0.6099700  )
        11           Sn  tau(  11) = (  0.7500000  0.2369980  0.1099700  )
        12           Sn  tau(  12) = (  0.2500000  0.7630020  0.8900300  )

     number of k points=     8
                       cart. coord. in units 2pi/alat
        k(    1) = (   0.0000000   0.0000000   0.0000000), wk =   0.0740741
        k(    2) = (   0.0000000   0.0000000   0.1784112), wk =   0.1481481
        k(    3) = (   0.0000000   0.2048335   0.0000000), wk =   0.1481481
        k(    4) = (   0.0000000   0.2048335   0.1784112), wk =   0.2962963
        k(    5) = (   0.3333333   0.0000000   0.0000000), wk =   0.1481481
        k(    6) = (   0.3333333   0.0000000   0.1784112), wk =   0.2962963
        k(    7) = (   0.3333333   0.2048335   0.0000000), wk =   0.2962963
        k(    8) = (   0.3333333   0.2048335   0.1784112), wk =   0.5925926

                       cryst. coord.
        k(    1) = (   0.0000000   0.0000000   0.0000000), wk =   0.0740741
        k(    2) = (   0.0000000   0.0000000   0.3333333), wk =   0.1481481
        k(    3) = (   0.0000000   0.3333333   0.0000000), wk =   0.1481481
        k(    4) = (   0.0000000   0.3333333   0.3333333), wk =   0.2962963
        k(    5) = (   0.3333333   0.0000000   0.0000000), wk =   0.1481481
        k(    6) = (   0.3333333   0.0000000   0.3333333), wk =   0.2962963
        k(    7) = (   0.3333333   0.3333333   0.0000000), wk =   0.2962963
        k(    8) = (   0.3333333   0.3333333   0.3333333), wk =   0.5925926

     Check: negative core charge=   -0.000003

     Initial potential from superposition of free atoms

     starting charge     131.8434, renormalised to     136.0000

     negative rho (up, down):  2.637E-01 0.000E+00
     Starting wfcs are  128 randomized atomic wfcs +  128 random wfcs

     Self-consistent Calculation

     iteration #  1     ecut=    30.00 Ry     beta= 0.70
     Davidson diagonalization with overlap

     ethr =  1.00E-02,  avg # of iterations =  7.1

     negative rho (up, down):  2.566E-01 0.000E+00

     total energy              =   -1233.41879017 Ry
     estimated scf accuracy    <       1.65926420 Ry

[...]

     c_bands:  1 eigenvalues not converged
     ethr =  3.36E-08,  avg # of iterations =  6.4

[...]

     total energy              =   -1233.82983734 Ry
     estimated scf accuracy    <       0.00000549 Ry

     iteration #  7     ecut=    30.00 Ry     beta= 0.70
     Davidson diagonalization with overlap

     ethr =  4.04E-09,  avg # of iterations =  2.0

     negative rho (up, down):  2.677E-01 0.000E+00

     End of self-consistent calculation

          k = 0.0000 0.0000 0.0000 (  7937 PWs)   bands (ev):

   -34.0691 -34.0690 -34.0635 -34.0635 -28.6482 -28.6452 -28.6450 -28.6420
   -15.1285 -15.1276 -15.1053 -15.1036 -15.0990 -15.0990 -15.0875 -15.0863
   -15.0798 -15.0794 -15.0705 -15.0680 -12.9606 -12.9593 -12.9584 -12.9570
   -12.9568 -12.9559 -12.9558 -12.9550 -12.9514 -12.9510 -12.9490 -12.9466
   -12.9408 -12.9402 -12.9386 -12.9375 -12.9370 -12.9368 -12.9364 -12.9344
   -10.7218 -10.7153 -10.7024 -10.6736 -10.6688 -10.6489 -10.6437 -10.6327
   -10.6207 -10.6115 -10.6058 -10.6016   0.1535   0.8777   0.9002   0.9590
     4.6432   4.7620   5.2932   5.8734   5.9683   6.5534   6.6596   6.6889
     6.7904   6.8307   6.9742   7.1843   7.4826   8.1660   8.2804   8.3184
     8.4520   8.5964   8.9631   8.9704   9.1289   9.1468   9.2717   9.2908
     9.3825   9.7691   9.8676   9.8710  10.0364  10.3120  10.3585  10.5171
    10.6368  10.7245  10.8388  11.1072  11.1912  11.3195  11.4544  11.5080
    11.7115  11.8378  11.8889  11.9548  11.9937  12.0000  12.1497  12.5268
    12.5988  12.6348  12.7768  12.8721  12.8777  13.0153  13.0632  13.2025
    13.5571  13.7214  13.8319  13.8732  14.2130  14.2502  14.3306  14.4155
    14.4212  14.6654  15.0297  15.1083  15.1213  15.2864  15.8807  15.8974
    16.0214  16.2857  16.3925  16.6187  16.7961  17.1863  17.2044  17.2099
    17.4969  17.6770  17.7472  17.8389  17.9805  18.1947  18.4853  18.7578
    18.9754  19.1350  19.3017  19.3119  19.4915  19.5365  19.6394  19.7026
    19.9567  20.0224  20.3325  20.4135  20.7618  21.1620  21.2421  21.3946
    21.5050  21.8305  22.1355  22.1579  22.3327  22.6637  22.7285  22.7948
    22.8704  23.0777  23.1653  23.2257  23.4094  23.4894  23.5564  23.6224
    23.8268  24.0773  24.0812  24.4360  24.5216  24.6761  24.9174  25.0320
    25.0508  25.2049  25.2766  25.3227  25.7762  25.8629  25.9197  25.9244
    25.9918  26.0771  26.1450  26.2885  26.3420  26.4028  26.5948  26.7118
    26.7921  27.0686  27.1731  27.2633  27.2749  27.2820  27.2881  27.3493
    27.4646  27.4868  27.7431  27.9178  27.9295  27.9736  28.0428  28.1563
    28.2245  28.2808  28.5600  28.6086  28.6298  28.7451  28.8535  28.8557
    28.9131  29.0224  29.3643  29.5980  29.6568  29.9028  30.1356  30.1863
    30.2114  30.2139  30.4563  30.4636  30.5446  30.6301  31.0470  31.1021
    31.3009  31.5571  31.7151  31.8043  31.8623  31.9091  31.9236  32.0255
    32.0270  32.0594  32.0751  32.1330  32.6473  32.7344  32.7939  32.8360

     occupation numbers
     1.0000   1.0000   1.0000   1.0000   1.0000   1.0000   1.0000   1.0000
     1.0000   1.0000   1.0000   1.0000   1.0000   1.0000   1.0000   1.0000
     1.0000   1.0000   1.0000   1.0000   1.0000   1.0000   1.0000   1.0000
     1.0000   1.0000   1.0000   1.0000   1.0000   1.0000   1.0000   1.0000
     1.0000   1.0000   1.0000   1.0000   1.0000   1.0000   1.0000   1.0000
     1.0000   1.0000   1.0000   1.0000   1.0000   1.0000   1.0000   1.0000
     1.0000   1.0000   1.0000   1.0000   1.0000   1.0000   1.0000   1.0000
     1.0000   1.0000   1.0000   1.0000   1.0000   1.0000   1.0000   1.0000
     1.0000   1.0000   1.0000   1.0000   0.0000   0.0000   0.0000   0.0000
     0.0000   0.0000   0.0000   0.0000   0.0000   0.0000   0.0000   0.0000
     0.0000   0.0000   0.0000   0.0000   0.0000   0.0000   0.0000   0.0000
     0.0000   0.0000   0.0000   0.0000   0.0000   0.0000   0.0000   0.0000
     0.0000   0.0000   0.0000   0.0000   0.0000   0.0000   0.0000   0.0000
     0.0000   0.0000   0.0000   0.0000   0.0000   0.0000   0.0000   0.0000
     0.0000   0.0000   0.0000   0.0000   0.0000   0.0000   0.0000   0.0000
     0.0000   0.0000   0.0000   0.0000   0.0000   0.0000   0.0000   0.0000
     0.0000   0.0000   0.0000   0.0000   0.0000   0.0000   0.0000   0.0000
     0.0000   0.0000   0.0000   0.0000   0.0000   0.0000   0.0000   0.0000
     0.0000   0.0000   0.0000   0.0000   0.0000   0.0000   0.0000   0.0000
     0.0000   0.0000   0.0000   0.0000   0.0000   0.0000   0.0000   0.0000
     0.0000   0.0000   0.0000   0.0000   0.0000   0.0000   0.0000   0.0000
     0.0000   0.0000   0.0000   0.0000   0.0000   0.0000   0.0000   0.0000
     0.0000   0.0000   0.0000   0.0000   0.0000   0.0000   0.0000   0.0000
     0.0000   0.0000   0.0000   0.0000   0.0000   0.0000   0.0000   0.0000
     0.0000   0.0000   0.0000   0.0000   0.0000   0.0000   0.0000   0.0000
     0.0000   0.0000   0.0000   0.0000   0.0000   0.0000   0.0000   0.0000
     0.0000   0.0000   0.0000   0.0000   0.0000   0.0000   0.0000   0.0000
     0.0000   0.0000   0.0000   0.0000   0.0000   0.0000   0.0000   0.0000
     0.0000   0.0000   0.0000   0.0000   0.0000   0.0000   0.0000   0.0000
     0.0000   0.0000   0.0000   0.0000   0.0000   0.0000   0.0000   0.0000
     0.0000   0.0000   0.0000   0.0000   0.0000   0.0000   0.0000   0.0000
     0.0000   0.0000   0.0000   0.0000   0.0000   0.0000   0.0000   0.0000

[...]

          k = 0.3333 0.2048 0.1784 (  7954 PWs)   bands (ev):

   -34.0676 -34.0676 -34.0649 -34.0648 -28.6463 -28.6457 -28.6441 -28.6436
   -15.1262 -15.1261 -15.1169 -15.1164 -15.0950 -15.0946 -15.0894 -15.0891
   -15.0729 -15.0725 -15.0696 -15.0692 -12.9604 -12.9600 -12.9589 -12.9586
   -12.9565 -12.9561 -12.9554 -12.9550 -12.9528 -12.9520 -12.9514 -12.9504
   -12.9387 -12.9386 -12.9382 -12.9379 -12.9376 -12.9372 -12.9356 -12.9355
   -10.7122 -10.7103 -10.6976 -10.6947 -10.6550 -10.6536 -10.6387 -10.6334
   -10.6306 -10.6270 -10.6152 -10.6139   0.7400   0.8784   0.9434   0.9924
     4.8737   4.9521   5.1157   5.2353   5.8027   6.1272   6.2256   6.4159
     6.5341   6.6269   6.7458   6.7741   7.8902   8.0973   8.2392   8.3542
     8.3884   8.4425   8.7027   8.7780   9.1436   9.3358   9.4298   9.5645
     9.7684   9.8432  10.0666  10.1663  10.4047  10.5633  10.6662  10.7107
    10.8091  10.8673  11.0629  11.1799  11.2721  11.4021  11.5281  11.6692
    11.7005  11.8231  11.8906  12.0533  12.0829  12.1644  12.3306  12.3608
    12.5178  12.6016  12.6528  12.7996  12.9041  12.9328  13.0397  13.1405
    13.3484  13.6148  13.6663  13.8721  14.0540  14.1709  14.4536  14.5919
    14.6894  14.8746  14.9384  15.0929  15.1938  15.4650  15.5467  15.9207
    15.9655  16.4266  16.4715  16.6201  16.6880  16.9870  17.2596  17.4320
    17.4900  17.6756  17.9386  18.0603  18.2442  18.3299  18.3869  18.6882
    18.7246  18.9437  19.2272  19.4820  19.5920  19.7989  19.8670  20.1070
    20.3276  20.3724  20.6083  20.7084  20.9527  20.9910  21.1229  21.1764
    21.3933  21.4677  21.7050  21.9128  21.9568  22.1988  22.2552  22.4286
    22.5563  22.7423  22.8929  23.0092  23.1801  23.2640  23.3026  23.4946
    23.6528  23.7360  23.8359  23.9851  24.1695  24.3229  24.4603  24.6140
    24.6873  24.8312  24.8827  25.0449  25.2069  25.3437  25.4241  25.5111
    25.6942  25.8527  25.8887  26.1855  26.3308  26.4415  26.5556  26.6379
    26.7436  26.8885  27.0263  27.1384  27.2334  27.2783  27.2785  27.2810
    27.2872  27.3039  27.5721  27.8573  27.8859  27.9493  28.0634  28.2313
    28.3453  28.4473  28.5631  28.5852  28.8900  29.0256  29.1653  29.2735
    29.3697  29.5797  29.8417  29.9470  30.0459  30.1301  30.1932  30.3297
    30.3882  30.4558  30.6996  30.7965  30.8207  30.9126  31.0407  31.1694
    31.2874  31.5259  31.6853  31.7449  31.7657  31.8022  32.0685  32.1327
    32.2514  32.4072  32.5377  32.6773  32.7397  32.8497  33.0103  33.0550

     occupation numbers
     1.0000   1.0000   1.0000   1.0000   1.0000   1.0000   1.0000   1.0000
     1.0000   1.0000   1.0000   1.0000   1.0000   1.0000   1.0000   1.0000
     1.0000   1.0000   1.0000   1.0000   1.0000   1.0000   1.0000   1.0000
     1.0000   1.0000   1.0000   1.0000   1.0000   1.0000   1.0000   1.0000
     1.0000   1.0000   1.0000   1.0000   1.0000   1.0000   1.0000   1.0000
     1.0000   1.0000   1.0000   1.0000   1.0000   1.0000   1.0000   1.0000
     1.0000   1.0000   1.0000   1.0000   1.0000   1.0000   1.0000   1.0000
     1.0000   1.0000   1.0000   1.0000   1.0000   1.0000   1.0000   1.0000
     1.0000   1.0000   1.0000   1.0000   0.0000   0.0000   0.0000   0.0000
     0.0000   0.0000   0.0000   0.0000   0.0000   0.0000   0.0000   0.0000
     0.0000   0.0000   0.0000   0.0000   0.0000   0.0000   0.0000   0.0000
     0.0000   0.0000   0.0000   0.0000   0.0000   0.0000   0.0000   0.0000
     0.0000   0.0000   0.0000   0.0000   0.0000   0.0000   0.0000   0.0000
     0.0000   0.0000   0.0000   0.0000   0.0000   0.0000   0.0000   0.0000
     0.0000   0.0000   0.0000   0.0000   0.0000   0.0000   0.0000   0.0000
     0.0000   0.0000   0.0000   0.0000   0.0000   0.0000   0.0000   0.0000
     0.0000   0.0000   0.0000   0.0000   0.0000   0.0000   0.0000   0.0000
     0.0000   0.0000   0.0000   0.0000   0.0000   0.0000   0.0000   0.0000
     0.0000   0.0000   0.0000   0.0000   0.0000   0.0000   0.0000   0.0000
     0.0000   0.0000   0.0000   0.0000   0.0000   0.0000   0.0000   0.0000
     0.0000   0.0000   0.0000   0.0000   0.0000   0.0000   0.0000   0.0000
     0.0000   0.0000   0.0000   0.0000   0.0000   0.0000   0.0000   0.0000
     0.0000   0.0000   0.0000   0.0000   0.0000   0.0000   0.0000   0.0000
     0.0000   0.0000   0.0000   0.0000   0.0000   0.0000   0.0000   0.0000
     0.0000   0.0000   0.0000   0.0000   0.0000   0.0000   0.0000   0.0000
     0.0000   0.0000   0.0000   0.0000   0.0000   0.0000   0.0000   0.0000
     0.0000   0.0000   0.0000   0.0000   0.0000   0.0000   0.0000   0.0000
     0.0000   0.0000   0.0000   0.0000   0.0000   0.0000   0.0000   0.0000
     0.0000   0.0000   0.0000   0.0000   0.0000   0.0000   0.0000   0.0000
     0.0000   0.0000   0.0000   0.0000   0.0000   0.0000   0.0000   0.0000
     0.0000   0.0000   0.0000   0.0000   0.0000   0.0000   0.0000   0.0000
     0.0000   0.0000   0.0000   0.0000   0.0000   0.0000   0.0000   0.0000

     highest occupied, lowest unoccupied level (ev):     7.1843    7.4826

!    total energy              =   -1233.82983862 Ry
     estimated scf accuracy    <       0.00000044 Ry

     The total energy is the sum of the following terms:
     one-electron contribution =    -513.19325411 Ry
     hartree contribution      =     307.01986732 Ry
     xc contribution           =    -310.79686050 Ry
     ewald contribution        =    -716.85959133 Ry

     convergence has been achieved in   7 iterations

     Writing all to output data dir bands_nm/myprefix.save/

     General routines

     Parallel routines

   This run was terminated on:  18:59: 1  15Jul2023

   JOB DONE.