     Program PWSCF v.7.0 starts on  6Jun2023 at 19:24: 1

     K-points division:     npool     =       2
     R & G space division:  proc/nbgrp/npool/nimage =       4

     Reading input from espresso_19886.pwi
Warning: card &CELL ignored
Warning: card / ignored

     Current dimensions of program PWSCF are:
     Max number of different atomic species (ntypx) = 10
     Max number of k-points (npk) =  40000
     Max angular momentum in pseudopotentials (lmaxx) =  4
     file C.pbe-n-kjpaw_psl.1.0.0.UPF: wavefunction(s)  2S 2P renormalized
     Message from routine setup:
     using ibrav=0 with symmetry is DISCOURAGED, use correct ibrav instead

     Using Slab Decomposition

     bravais-lattice index     =            0
     lattice parameter (alat)  =       5.8481  a.u.
     unit-cell volume          =    1416.5382 (a.u.)^3
     number of atoms/cell      =           20
     number of atomic types    =            2
     number of electrons       =        80.00
     number of Kohn-Sham states=           64
     kinetic-energy cutoff     =      30.0000  Ry
     charge density cutoff     =     240.0000  Ry
     scf convergence threshold =      1.0E-06
     mixing beta               =       0.7000
     number of iterations used =            8  plain     mixing
     Exchange-correlation= SLA  PW   PBX  PBC
                           (   1   4   3   4   0   0   0)

     celldm(1)=   5.848050  celldm(2)=   0.000000  celldm(3)=   0.000000
     celldm(4)=   0.000000  celldm(5)=   0.000000  celldm(6)=   0.000000

     crystal axes: (cart. coord. in units of alat)
               a(1) = (   1.000000   0.000000   0.000000 )
               a(2) = (  -0.500000   0.866025   0.000000 )
               a(3) = (   0.000000   0.000000   8.178327 )

     reciprocal axes: (cart. coord. in units 2 pi/alat)
               b(1) = (  1.000000  0.577351  0.000000 )
               b(2) = (  0.000000  1.154701  0.000000 )
               b(3) = (  0.000000  0.000000  0.122274 )

     PseudoPot. # 1 for Si read from file:
     /home/pragov/projects/rrg-bengioy-ad/pragov/crystal_structure_design/SSSP/Si.pbe-n-rrkjus_psl.1.0.0.UPF
     MD5 check sum: 0b0bb1205258b0d07b9f9672cf965d36
     Pseudo is Ultrasoft + core correction, Zval =  4.0
     Generated using "atomic" code by A. Dal Corso  v.5.1
     Using radial grid of 1141 points,  6 beta functions with:
                l(1) =   0
                l(2) =   0
                l(3) =   1
                l(4) =   1
                l(5) =   2
                l(6) =   2
     Q(r) pseudized with 0 coefficients

     PseudoPot. # 2 for C  read from file:
     /home/pragov/projects/rrg-bengioy-ad/pragov/crystal_structure_design/SSSP/C.pbe-n-kjpaw_psl.1.0.0.UPF
     MD5 check sum: 5d2aebdfa2cae82b50a7e79e9516da0f
     Pseudo is Projector augmented-wave + core cor, Zval =  4.0
     Generated using "atomic" code by A. Dal Corso  v.5.1
     Shape of augmentation charge: PSQ
     Using radial grid of 1073 points,  4 beta functions with:
                l(1) =   0
                l(2) =   0
                l(3) =   1
                l(4) =   1
     Q(r) pseudized with 0 coefficients

     atomic species   valence    mass     pseudopotential
        Si             4.00    28.08500     Si( 1.00)
        C              4.00    12.01100     C ( 1.00)

      6 Sym. Ops. (no inversion) found

                                    s                        frac. trans.

      isym =  1     identity

 cryst.   s( 1) = (     1          0          0      )
                  (     0          1          0      )
                  (     0          0          1      )

 cart.    s( 1) = (  1.0000000 -0.0000000  0.0000000 )
                  (  0.0000000  1.0000000  0.0000000 )
                  (  0.0000000  0.0000000  1.0000000 )

      isym =  2     120 deg rotation - cryst. axis [0,0,1]

[...]

      isym =  3     120 deg rotation - cryst. axis [0,0,-1]

[...]

      isym =  4     inv. 180 deg rotation - cart. axis [1,0,0]

[...]

      isym =  5     inv. 180 deg rotation - cryst. axis [0,1,0]

[...]

      isym =  6     inv. 180 deg rotation - cryst. axis [1,1,0]

 cryst.   s( 6) = (     0         -1          0      )
                  (    -1          0          0      )
                  (     0          0          1      )

 cart.    s( 6) = (  0.5000003 -0.8660252  0.0000000 )
                  ( -0.8660252 -0.5000003  0.0000000 )
                  (  0.0000000  0.0000000  1.0000000 )

   Cartesian axes

     site n.     atom                  positions (alat units)
         1           Si  tau(   1) = (   0.0000000   0.0000000   1.6349948  )
         2           Si  tau(   2) = (   0.0000000   0.0000000   3.2709547  )
         3           Si  tau(   3) = (  -0.0000007   0.5773504   2.4533428  )
         4           Si  tau(   4) = (   0.0000000   0.0000000   4.9066610  )
         5           Si  tau(   5) = (  -0.0000007   0.5773504   8.1780736  )
         6           Si  tau(   6) = (  -0.0000007   0.5773504   5.7246654  )
         7           Si  tau(   7) = (   0.5000004   0.2886748   7.3597175  )
         8           Si  tau(   8) = (   0.0000000   0.0000000   6.5428498  )
         9           Si  tau(   9) = (   0.5000004   0.2886748   0.8179636  )
        10           Si  tau(  10) = (   0.5000004   0.2886748   4.0889182  )
        11           C   tau(  11) = (  -0.0000007   0.5773504   6.3396838  )
        12           C   tau(  12) = (  -0.0000007   0.5773504   0.6148303  )
        13           C   tau(  13) = (   0.0000000   0.0000000   5.5194712  )
        14           C   tau(  14) = (   0.0000000   0.0000000   2.2484511  )
        15           C   tau(  15) = (   0.5000004   0.2886748   1.4311173  )
        16           C   tau(  16) = (   0.5000004   0.2886748   4.7039938  )
        17           C   tau(  17) = (   0.0000000   0.0000000   3.8837976  )
        18           C   tau(  18) = (   0.5000004   0.2886748   7.9731493  )
        19           C   tau(  19) = (  -0.0000007   0.5773504   3.0683121  )
        20           C   tau(  20) = (   0.0000000   0.0000000   7.1560690  )

   Crystallographic axes

     site n.     atom                  positions (cryst. coord.)
         1           Si  tau(   1) = (  0.0000000  0.0000000  0.1999180  )
         2           Si  tau(   2) = (  0.0000000  0.0000000  0.3999540  )
         3           Si  tau(   3) = (  0.3333330  0.6666670  0.2999810  )
         4           Si  tau(   4) = (  0.0000000  0.0000000  0.5999590  )
         5           Si  tau(   5) = (  0.3333330  0.6666670  0.9999690  )
         6           Si  tau(   6) = (  0.3333330  0.6666670  0.6999800  )
         7           Si  tau(   7) = (  0.6666670  0.3333330  0.8999050  )
         8           Si  tau(   8) = (  0.0000000  0.0000000  0.8000230  )
         9           Si  tau(   9) = (  0.6666670  0.3333330  0.1000160  )
        10           Si  tau(  10) = (  0.6666670  0.3333330  0.4999700  )
        11           C   tau(  11) = (  0.3333330  0.6666670  0.7751810  )
        12           C   tau(  12) = (  0.3333330  0.6666670  0.0751780  )
        13           C   tau(  13) = (  0.0000000  0.0000000  0.6748900  )
        14           C   tau(  14) = (  0.0000000  0.0000000  0.2749280  )
        15           C   tau(  15) = (  0.6666670  0.3333330  0.1749890  )
        16           C   tau(  16) = (  0.6666670  0.3333330  0.5751780  )
        17           C   tau(  17) = (  0.0000000  0.0000000  0.4748890  )
        18           C   tau(  18) = (  0.6666670  0.3333330  0.9749120  )
        19           C   tau(  19) = (  0.3333330  0.6666670  0.3751760  )
        20           C   tau(  20) = (  0.0000000  0.0000000  0.8750040  )

     number of k points=     7
                       cart. coord. in units 2pi/alat
        k(    1) = (   0.0000000   0.0000000   0.0000000), wk =   0.0740741
        k(    2) = (   0.0000000   0.0000000   0.0407581), wk =   0.1481481
        k(    3) = (   0.0000000   0.3849003   0.0000000), wk =   0.4444444
        k(    4) = (   0.0000000   0.3849003   0.0407581), wk =   0.4444444
        k(    5) = (   0.3333333   0.5773505   0.0000000), wk =   0.1481481
        k(    6) = (   0.3333333   0.5773505   0.0407581), wk =   0.2962963
        k(    7) = (   0.0000000  -0.3849003   0.0407581), wk =   0.4444444

                       cryst. coord.
        k(    1) = (   0.0000000   0.0000000   0.0000000), wk =   0.0740741
        k(    2) = (   0.0000000   0.0000000   0.3333333), wk =   0.1481481
        k(    3) = (   0.0000000   0.3333333   0.0000000), wk =   0.4444444
        k(    4) = (   0.0000000   0.3333333   0.3333333), wk =   0.4444444
        k(    5) = (   0.3333333   0.3333333   0.0000000), wk =   0.1481481
        k(    6) = (   0.3333333   0.3333333   0.3333333), wk =   0.2962963
        k(    7) = (   0.0000000  -0.3333333   0.3333333), wk =   0.4444444

     Check: negative core charge=   -0.000014

     Initial potential from superposition of free atoms

     starting charge      79.9940, renormalised to      80.0000
     Starting wfcs are   80 randomized atomic wfcs
     Checking if some PAW data can be deallocated...

     Self-consistent Calculation

     iteration #  1     ecut=    30.00 Ry     beta= 0.70
     Davidson diagonalization with overlap

     ethr =  1.00E-02,  avg # of iterations =  3.0

     total energy              =    -297.06569448 Ry
     estimated scf accuracy    <       4.44426940 Ry

[...]

     c_bands:  1 eigenvalues not converged
     ethr =  2.32E-05,  avg # of iterations = 13.7

[...]

     c_bands:  1 eigenvalues not converged
     ethr =  5.49E-06,  avg # of iterations = 10.7

[...]

     total energy              =    -298.67159777 Ry
     estimated scf accuracy    <       0.00000255 Ry

     iteration # 10     ecut=    30.00 Ry     beta= 0.70
     Davidson diagonalization with overlap

     ethr =  3.18E-09,  avg # of iterations =  3.0

     End of self-consistent calculation

          k = 0.0000 0.0000 0.0000 (  3911 PWs)   bands (ev):

    -5.9776  -5.7861  -5.7763  -5.2222  -5.1970  -4.3062  -4.2842  -3.1697
    -3.1613  -2.4484   0.8610   1.8895   1.8974   3.9234   3.9488   6.2340
     6.2557   8.2647   8.2647   8.3574   8.3575   8.3704   8.3705   8.3775
     8.3846   8.5807   8.5807   8.6636   8.6636   8.9460   8.9461   9.0126
     9.0126   9.3005   9.3005   9.3132   9.3132   9.4034   9.4487   9.4487
    14.3702  14.4967  14.5161  14.7617  15.0984  15.3904  15.5399  15.7309
    15.9687  15.9908  16.2015  16.2015  16.3042  16.3042  16.3083  16.3083
    16.3759  16.3759  16.6343  16.7007  16.7140  16.7677  16.7703  16.8518

     occupation numbers
     1.0000   1.0000   1.0000   1.0000   1.0000   1.0000   1.0000   1.0000
     1.0000   1.0000   1.0000   1.0000   1.0000   1.0000   1.0000   1.0000
     1.0000   1.0000   1.0000   1.0000   1.0000   1.0000   1.0000   1.0000
     1.0000   1.0000   1.0000   1.0000   1.0000   1.0000   1.0000   1.0000
     1.0000   1.0000   1.0000   1.0000   1.0000   1.0000   1.0000   1.0000
     0.0000   0.0000   0.0000   0.0000   0.0000   0.0000   0.0000   0.0000
     0.0000   0.0000   0.0000   0.0000   0.0000   0.0000   0.0000   0.0000
     0.0000   0.0000   0.0000   0.0000   0.0000   0.0000   0.0000   0.0000

[...]

          k = 0.0000-0.3849 0.0408 (  3944 PWs)   bands (ev):

    -4.1233  -4.0557  -3.8205  -3.6424  -3.1841  -2.9078  -2.2890  -1.9649
    -1.3842  -1.1915   2.1045   2.1996   2.4184   2.5889   2.8606   3.0806
     3.5404   3.8138   3.9466   4.2176   4.5687   4.8410   5.0402   5.4726
     6.3842   6.5792   6.6379   6.7773   6.8254   6.9656   7.3145   7.4187
     7.5186   7.7724   7.9454   8.0585   8.1513   8.2558   8.4777   8.5757
    12.1851  12.2470  12.4521  12.5920  13.2031  13.5060  14.0560  14.4435
    14.5538  14.8754  15.1006  15.3390  15.6076  15.8085  16.5878  16.7429
    16.8618  16.9991  17.0547  17.3212  17.7519  17.8977  18.1010  18.2181

     occupation numbers
     1.0000   1.0000   1.0000   1.0000   1.0000   1.0000   1.0000   1.0000
     1.0000   1.0000   1.0000   1.0000   1.0000   1.0000   1.0000   1.0000
     1.0000   1.0000   1.0000   1.0000   1.0000   1.0000   1.0000   1.0000
     1.0000   1.0000   1.0000   1.0000   1.0000   1.0000   1.0000   1.0000
     1.0000   1.0000   1.0000   1.0000   1.0000   1.0000   1.0000   1.0000
     0.0000   0.0000   0.0000   0.0000   0.0000   0.0000   0.0000   0.0000
     0.0000   0.0000   0.0000   0.0000   0.0000   0.0000   0.0000   0.0000
     0.0000   0.0000   0.0000   0.0000   0.0000   0.0000   0.0000   0.0000

     highest occupied, lowest unoccupied level (ev):     9.4487   12.1803

!    total energy              =    -298.67159851 Ry
     estimated scf accuracy    <       0.00000029 Ry

     The total energy is the sum of the following terms:
     one-electron contribution =      56.91057781 Ry
     hartree contribution      =      23.86987100 Ry
     xc contribution           =    -109.62183902 Ry
     ewald contribution        =    -208.19258116 Ry
     one-center paw contrib.   =     -61.63762713 Ry
      -> PAW hartree energy AE =       0.00000000 Ry
      -> PAW hartree energy PS =       0.00000000 Ry
      -> PAW xc energy AE      =       0.00000000 Ry
      -> PAW xc energy PS      =       0.00000000 Ry
      -> total E_H with PAW    =      23.86987100 Ry
      -> total E_XC with PAW   =    -109.62183902 Ry

     convergence has been achieved in  10 iterations

     Writing all to output data dir calculations_bands/myprefix.save/

     General routines

     Parallel routines

     PAW routines

   This run was terminated on:  19:24:14   6Jun2023

   JOB DONE.