     Program PWSCF v.7.1 starts on 13Jul2023 at  6:58:51

     Reading input from espresso_5757.pwi
Warning: card &CELL ignored
Warning: card / ignored

     Current dimensions of program PWSCF are:
     Max number of different atomic species (ntypx) = 10
     Max number of k-points (npk) =  40000
     Max angular momentum in pseudopotentials (lmaxx) =  4
     file Cd.pbe-dn-rrkjus_psl.0.3.1.UPF: wavefunction(s)  4D renormalized
     file O.pbe-n-kjpaw_psl.0.1.UPF: wavefunction(s)  2P renormalized
     Message from routine setup:
     using ibrav=0 with symmetry is DISCOURAGED, use correct ibrav instead

     K-points division:     npool     =       2
     R & G space division:  proc/nbgrp/npool/nimage =       8
     Subspace diagonalization in iterative solution of the eigenvalue problem:
     a serial algorithm will be used

     Using Slab Decomposition

     bravais-lattice index     =            0
     lattice parameter (alat)  =       7.7344  a.u.
     unit-cell volume          =    2136.8793 (a.u.)^3
     number of atoms/cell      =           14
     number of atomic types    =            4
     number of electrons       =       116.00
     number of Kohn-Sham states=           64
     kinetic-energy cutoff     =      30.0000  Ry
     charge density cutoff     =     240.0000  Ry
     scf convergence threshold =      1.0E-06
     mixing beta               =       0.7000
     number of iterations used =            8  plain     mixing
     Exchange-correlation= SLA  PW   PBX  PBC
                           (   1   4   3   4   0   0   0)

     celldm(1)=   7.734449  celldm(2)=   0.000000  celldm(3)=   0.000000
     celldm(4)=   0.000000  celldm(5)=   0.000000  celldm(6)=   0.000000

     crystal axes: (cart. coord. in units of alat)
               a(1) = (   1.000000   0.000000   0.000000 )
               a(2) = (   0.000000   1.000000   0.000000 )
               a(3) = (   0.000000   0.000000   4.618404 )

     reciprocal axes: (cart. coord. in units 2 pi/alat)
               b(1) = (  1.000000  0.000000  0.000000 )
               b(2) = (  0.000000  1.000000  0.000000 )
               b(3) = (  0.000000  0.000000  0.216525 )

     PseudoPot. # 1 for La read from file:
     /lustre07/scratch/pragov/crystal_structure_design/utils/SSSP/La.GGA-PBE-paw-v1.0.UPF
     MD5 check sum: 436541e95c1ad8901025bd0b0ed42ae2
     Pseudo is Projector augmented-wave + core cor, Zval = 11.0
     Generated using ATOMPAW code
     Shape of augmentation charge: BESSEL
     Using radial grid of 1101 points,  8 beta functions with:
                l(1) =   0
                l(2) =   0
                l(3) =   1
                l(4) =   1
                l(5) =   2
                l(6) =   2
                l(7) =   3
                l(8) =   3
     Q(r) pseudized with 0 coefficients

     PseudoPot. # 2 for Cd read from file:
     /lustre07/scratch/pragov/crystal_structure_design/utils/SSSP/Cd.pbe-dn-rrkjus_psl.0.3.1.UPF
     MD5 check sum: 558e9f355611b531a870a69ef6ace9e2
     Pseudo is Ultrasoft + core correction, Zval = 12.0
     Generated using "atomic" code by A. Dal Corso  v.5.0.99 svn rev. 10869
     Using radial grid of 1239 points,  6 beta functions with:
                l(1) =   0
                l(2) =   0
                l(3) =   1
                l(4) =   1
                l(5) =   2
                l(6) =   2
     Q(r) pseudized with 0 coefficients

     PseudoPot. # 3 for Se read from file:
     /lustre07/scratch/pragov/crystal_structure_design/utils/SSSP/Se_pbe_v1.uspp.F.UPF
     MD5 check sum: 1b3568f3a8ae88f9a2a0ad0698632c85
     Pseudo is Ultrasoft + core correction, Zval =  6.0
     Generated by new atomic code, or converted to UPF format
     Using radial grid of  877 points,  6 beta functions with:
                l(1) =   0
                l(2) =   0
                l(3) =   1
                l(4) =   1
                l(5) =   2
                l(6) =   2
     Q(r) pseudized with  8 coefficients,  rinner =    1.300   1.300   1.300
                                                       1.300   1.300

     PseudoPot. # 4 for O  read from file:
     /lustre07/scratch/pragov/crystal_structure_design/utils/SSSP/O.pbe-n-kjpaw_psl.0.1.UPF
     MD5 check sum: 0234752ac141de4415c5fc33072bef88
     Pseudo is Projector augmented-wave + core cor, Zval =  6.0
     Generated using "atomic" code by A. Dal Corso  v.5.0.99 svn rev. 10869
     Shape of augmentation charge: BESSEL
     Using radial grid of 1095 points,  4 beta functions with:
                l(1) =   0
                l(2) =   0
                l(3) =   1
                l(4) =   1
     Q(r) pseudized with 0 coefficients

     atomic species   valence    mass     pseudopotential
        La            11.00   138.90547     La( 1.00)
        Cd            12.00   112.41400     Cd( 1.00)
        Se             6.00    78.97100     Se( 1.00)
        O              6.00    15.99900     O ( 1.00)

      8 Sym. Ops. (no inversion) found ( 4 have fractional translation)

                                    s                        frac. trans.

      isym =  1     identity

 cryst.   s( 1) = (     1          0          0      )
                  (     0          1          0      )
                  (     0          0          1      )

 cart.    s( 1) = (  1.0000000  0.0000000  0.0000000 )
                  (  0.0000000  1.0000000  0.0000000 )
                  (  0.0000000  0.0000000  1.0000000 )

      isym =  2     180 deg rotation - cart. axis [0,0,1]

[...]

 cryst.   s( 3) = (     0         -1          0      )    f =(  0.0000000 )
                  (     1          0          0      )       ( -0.0000000 )
                  (     0          0          1      )       ( -0.5000000 )

 cart.    s( 3) = (  0.0000000  1.0000000  0.0000000 )    f =(  0.0000000 )
                  ( -1.0000000  0.0000000  0.0000000 )       ( -0.0000000 )
                  (  0.0000000  0.0000000  1.0000000 )       ( -2.3092019 )

      isym =  4      90 deg rotation - cart. axis [0,0,1]

[...]

      isym =  5     inv. 180 deg rotation - cart. axis [0,1,0]

[...]

 cryst.   s( 6) = (    -1          0          0      )
                  (     0          1          0      )
                  (     0          0          1      )

 cart.    s( 6) = ( -1.0000000  0.0000000  0.0000000 )
                  (  0.0000000  1.0000000  0.0000000 )
                  (  0.0000000  0.0000000  1.0000000 )

[...]

      isym =  8     inv. 180 deg rotation - cart. axis [1,-1,0]

 cryst.   s( 8) = (     0          1          0      )    f =(  0.0000000 )
                  (     1          0          0      )       (  0.0000000 )
                  (     0          0          1      )       ( -0.5000000 )

 cart.    s( 8) = (  0.0000000  1.0000000  0.0000000 )    f =(  0.0000000 )
                  (  1.0000000  0.0000000  0.0000000 )       (  0.0000000 )
                  (  0.0000000  0.0000000  1.0000000 )       ( -2.3092019 )

   Cartesian axes

     site n.     atom                  positions (alat units)
         1           La  tau(   1) = (   0.5000000   0.5000000   0.5878166  )
         2           La  tau(   2) = (   0.5000000   0.5000000   2.8970184  )
         3           La  tau(   3) = (   0.0000000   0.0000000   4.6102892  )
         4           La  tau(   4) = (   0.0000000   0.0000000   2.3010873  )
         5           Cd  tau(   5) = (   0.0000000   0.5000000   1.4559379  )
         6           Cd  tau(   6) = (   0.5000000   0.0000000   3.7651398  )
         7           Se  tau(   7) = (   0.0000000   0.0000000   1.0259738  )
         8           Se  tau(   8) = (   0.0000000   0.0000000   3.3351757  )
         9           Se  tau(   9) = (   0.5000000   0.5000000   1.8852324  )
        10           Se  tau(  10) = (   0.5000000   0.5000000   4.1944343  )
        11           O   tau(  11) = (   0.0000000   0.5000000   2.5983047  )
        12           O   tau(  12) = (   0.5000000   0.0000000   0.2891028  )
        13           O   tau(  13) = (   0.0000000   0.5000000   0.2918185  )
        14           O   tau(  14) = (   0.5000000   0.0000000   2.6010203  )

   Crystallographic axes

     site n.     atom                  positions (cryst. coord.)
         1           La  tau(   1) = (  0.5000000  0.5000000  0.1272770  )
         2           La  tau(   2) = (  0.5000000  0.5000000  0.6272770  )
         3           La  tau(   3) = (  0.0000000  0.0000000  0.9982430  )
         4           La  tau(   4) = (  0.0000000  0.0000000  0.4982430  )
         5           Cd  tau(   5) = (  0.0000000  0.5000000  0.3152470  )
         6           Cd  tau(   6) = (  0.5000000  0.0000000  0.8152470  )
         7           Se  tau(   7) = (  0.0000000  0.0000000  0.2221490  )
         8           Se  tau(   8) = (  0.0000000  0.0000000  0.7221490  )
         9           Se  tau(   9) = (  0.5000000  0.5000000  0.4082000  )
        10           Se  tau(  10) = (  0.5000000  0.5000000  0.9082000  )
        11           O   tau(  11) = (  0.0000000  0.5000000  0.5625980  )
        12           O   tau(  12) = (  0.5000000  0.0000000  0.0625980  )
        13           O   tau(  13) = (  0.0000000  0.5000000  0.0631860  )
        14           O   tau(  14) = (  0.5000000  0.0000000  0.5631860  )

     number of k points=     6
                       cart. coord. in units 2pi/alat
        k(    1) = (   0.0000000   0.0000000   0.0000000), wk =   0.0740741
        k(    2) = (   0.0000000   0.0000000   0.0721750), wk =   0.1481481
        k(    3) = (   0.0000000   0.3333333   0.0000000), wk =   0.2962963
        k(    4) = (   0.0000000   0.3333333   0.0721750), wk =   0.5925926
        k(    5) = (   0.3333333   0.3333333   0.0000000), wk =   0.2962963
        k(    6) = (   0.3333333   0.3333333   0.0721750), wk =   0.5925926

                       cryst. coord.
        k(    1) = (   0.0000000   0.0000000   0.0000000), wk =   0.0740741
        k(    2) = (   0.0000000   0.0000000   0.3333333), wk =   0.1481481
        k(    3) = (   0.0000000   0.3333333   0.0000000), wk =   0.2962963
        k(    4) = (   0.0000000   0.3333333   0.3333333), wk =   0.5925926
        k(    5) = (   0.3333333   0.3333333   0.0000000), wk =   0.2962963
        k(    6) = (   0.3333333   0.3333333   0.3333333), wk =   0.5925926

     Check: negative core charge=   -0.000004

     Initial potential from superposition of free atoms

     starting charge     115.9558, renormalised to     116.0000
     Starting wfcs are  178 randomized atomic wfcs
     Checking if some PAW data can be deallocated...

     Self-consistent Calculation

     iteration #  1     ecut=    30.00 Ry     beta= 0.70
     Davidson diagonalization with overlap

     ethr =  1.00E-02,  avg # of iterations =  1.8

     total energy              =   -2418.27392747 Ry
     estimated scf accuracy    <       3.01946643 Ry

[...]

     c_bands:  1 eigenvalues not converged
     c_bands:  1 eigenvalues not converged
     ethr =  5.78E-05,  avg # of iterations = 13.7

[...]

     c_bands:  1 eigenvalues not converged
     ethr =  2.53E-06,  avg # of iterations = 14.0

[...]

     total energy              =   -2420.02473499 Ry
     estimated scf accuracy    <       0.00000563 Ry

     iteration # 14     ecut=    30.00 Ry     beta= 0.70
     Davidson diagonalization with overlap

     ethr =  4.85E-09,  avg # of iterations =  8.2

     End of self-consistent calculation

          k = 0.0000 0.0000 0.0000 (  5943 PWs)   bands (ev):

   -23.2767 -23.2767 -23.0708 -23.0708 -10.3831 -10.3829  -9.1395  -9.1393
    -7.1344  -7.1344  -7.0978  -7.0978  -6.8305  -6.8218  -6.6702  -6.6702
    -6.6305  -6.6305  -5.6259  -5.6053  -3.7863  -3.7190  -3.5622  -3.5064
     0.2594   0.2594   0.2649   0.2649   0.3683   0.3686   0.3747   0.3761
     0.5242   0.5285   3.6196   4.0608   4.4668   4.4674   4.5462   4.6687
     4.6687   4.6821   4.6821   5.4145   5.7863   5.7863   5.8417   5.8417
     6.7669   7.0586   7.0586   7.2396   7.2396   7.5124   7.8442   7.8442
     8.0019   8.0019   9.9360  10.3382  10.5846  10.8632  11.0572  11.1611

     occupation numbers
     1.0000   1.0000   1.0000   1.0000   1.0000   1.0000   1.0000   1.0000
     1.0000   1.0000   1.0000   1.0000   1.0000   1.0000   1.0000   1.0000
     1.0000   1.0000   1.0000   1.0000   1.0000   1.0000   1.0000   1.0000
     1.0000   1.0000   1.0000   1.0000   1.0000   1.0000   1.0000   1.0000
     1.0000   1.0000   1.0000   1.0000   1.0000   1.0000   1.0000   1.0000
     1.0000   1.0000   1.0000   1.0000   1.0000   1.0000   1.0000   1.0000
     1.0000   1.0000   1.0000   1.0000   1.0000   1.0000   1.0000   1.0000
     1.0000   1.0000   0.0000   0.0000   0.0000   0.0000   0.0000   0.0000

[...]

          k = 0.3333 0.3333 0.0722 (  5923 PWs)   bands (ev):

   -23.1361 -23.1361 -23.0810 -23.0810 -10.6604 -10.6604 -10.4822 -10.4822
    -7.2730  -7.2723  -7.0441  -7.0434  -6.9088  -6.9088  -6.7833  -6.7832
    -5.4162  -5.4159  -5.1176  -5.1168  -3.5301  -3.5296  -3.4327  -3.4325
     0.3284   0.3295   0.3791   0.3805   0.4217   0.4231   0.5304   0.5320
     0.5789   0.5791   4.0056   4.1156   4.5478   4.7049   4.7577   4.7674
     5.1427   5.1692   5.2196   5.2754   5.5167   5.5468   5.7373   5.8840
     6.0839   6.1535   6.3863   6.4423   6.5904   6.6636   6.8275   6.8631
     7.0389   7.0514  10.6018  10.6785  11.0677  11.1320  11.5137  11.5232

     occupation numbers
     1.0000   1.0000   1.0000   1.0000   1.0000   1.0000   1.0000   1.0000
     1.0000   1.0000   1.0000   1.0000   1.0000   1.0000   1.0000   1.0000
     1.0000   1.0000   1.0000   1.0000   1.0000   1.0000   1.0000   1.0000
     1.0000   1.0000   1.0000   1.0000   1.0000   1.0000   1.0000   1.0000
     1.0000   1.0000   1.0000   1.0000   1.0000   1.0000   1.0000   1.0000
     1.0000   1.0000   1.0000   1.0000   1.0000   1.0000   1.0000   1.0000
     1.0000   1.0000   1.0000   1.0000   1.0000   1.0000   1.0000   1.0000
     1.0000   1.0000   0.0000   0.0000   0.0000   0.0000   0.0000   0.0000

     highest occupied, lowest unoccupied level (ev):     8.0019    9.9360

!    total energy              =   -2420.02473797 Ry
     estimated scf accuracy    <       0.00000075 Ry

     The total energy is the sum of the following terms:
     one-electron contribution =    -221.85974587 Ry
     hartree contribution      =     189.52160472 Ry
     xc contribution           =    -269.95522978 Ry
     ewald contribution        =    -487.22441577 Ry
     one-center paw contrib.   =   -1630.50695127 Ry
      -> PAW hartree energy AE =      35.13545444 Ry
      -> PAW hartree energy PS =     -35.18407822 Ry
      -> PAW xc energy AE      =    -405.38214000 Ry
      -> PAW xc energy PS      =       7.32888121 Ry
      -> total E_H with PAW    =     189.47298093 Ry
      -> total E_XC with PAW   =    -668.00848857 Ry

     convergence has been achieved in  14 iterations

     Writing all to output data dir bands_nm/myprefix.save/

     General routines

     Parallel routines

     PAW routines

   This run was terminated on:   6:59: 4  13Jul2023

   JOB DONE.