     Program PWSCF v.7.1 starts on 17Jul2023 at  1:17:49

     Reading input from espresso_26372.pwi
Warning: card &CELL ignored
Warning: card / ignored

     Current dimensions of program PWSCF are:
     Max number of different atomic species (ntypx) = 10
     Max number of k-points (npk) =  40000
     Max angular momentum in pseudopotentials (lmaxx) =  4
     Message from routine setup:
     the system is metallic, specify occupations
     Message from routine setup:
     using ibrav=0 with symmetry is DISCOURAGED, use correct ibrav instead

     K-points division:     npool     =       2
     R & G space division:  proc/nbgrp/npool/nimage =       4
     Subspace diagonalization in iterative solution of the eigenvalue problem:
     a serial algorithm will be used

     Using Slab Decomposition

     bravais-lattice index     =            0
     lattice parameter (alat)  =      12.7894  a.u.
     unit-cell volume          =    3138.7068 (a.u.)^3
     number of atoms/cell      =           15
     number of atomic types    =            3
     number of electrons       =       111.00 (up:  57.00, down:  54.00)
     number of Kohn-Sham states=           64
     kinetic-energy cutoff     =      30.0000  Ry
     charge density cutoff     =     240.0000  Ry
     scf convergence threshold =      1.0E-06
     mixing beta               =       0.7000
     number of iterations used =            8  plain     mixing
     Exchange-correlation=  SLA  PW   PBX  PBC
                           (   1   4   3   4   0   0   0)

     celldm(1)=  12.789434  celldm(2)=   0.000000  celldm(3)=   0.000000
     celldm(4)=   0.000000  celldm(5)=   0.000000  celldm(6)=   0.000000

     crystal axes: (cart. coord. in units of alat)
               a(1) = (   1.000000   0.000000   0.000000 )
               a(2) = (   0.483028   0.953238   0.000000 )
               a(3) = (   0.046128   0.557905   1.573967 )

     reciprocal axes: (cart. coord. in units 2 pi/alat)
               b(1) = (  1.000000 -0.506724  0.150305 )
               b(2) = (  0.000000  1.049056 -0.371846 )
               b(3) = (  0.000000  0.000000  0.635337 )

     PseudoPot. # 1 for Re read from file:
     /lustre03/project/6004852/pragov/crystal_structure_design/crystal-design/crystal_design/utils/SSSP/Re_pbe_v1.2.uspp.F.UPF
     MD5 check sum: 85f993410f3e006da9d71c142b4ad953
     Pseudo is Ultrasoft + core correction, Zval = 15.0
     Generated by new atomic code, or converted to UPF format
     Using radial grid of  981 points,  8 beta functions with:
                l(1) =   0
                l(2) =   0
                l(3) =   1
                l(4) =   1
                l(5) =   2
                l(6) =   2
                l(7) =   3
                l(8) =   3
     Q(r) pseudized with  8 coefficients,  rinner =    1.150   1.150   1.150
                                                       1.150   1.150   1.150
                                                       1.150

     PseudoPot. # 2 for Te read from file:
     /lustre03/project/6004852/pragov/crystal_structure_design/crystal-design/crystal_design/utils/SSSP/Te_pbe_v1.uspp.F.UPF
     MD5 check sum: c319670d6894cc26e93307826a071b75
     Pseudo is Ultrasoft + core correction, Zval =  6.0
     Generated by new atomic code, or converted to UPF format
     Using radial grid of  891 points,  5 beta functions with:
                l(1) =   0
                l(2) =   0
                l(3) =   1
                l(4) =   1
                l(5) =   2
     Q(r) pseudized with  6 coefficients,  rinner =    1.800   1.800   1.800
                                                       1.800   1.800

     PseudoPot. # 3 for Cl read from file:
     /lustre03/project/6004852/pragov/crystal_structure_design/crystal-design/crystal_design/utils/SSSP/cl_pbe_v1.4.uspp.F.UPF
     MD5 check sum: fc6f6913ecf08c9257cb748ef0700058
     Pseudo is Ultrasoft + core correction, Zval =  7.0
     Generated by new atomic code, or converted to UPF format
     Using radial grid of  909 points,  6 beta functions with:
                l(1) =   0
                l(2) =   0
                l(3) =   1
                l(4) =   1
                l(5) =   2
                l(6) =   2
     Q(r) pseudized with  8 coefficients,  rinner =    1.300   1.300   1.300
                                                       1.300   1.300

     atomic species   valence    mass     pseudopotential
        Re            15.00   186.20700     Re( 1.00)
        Te             6.00   127.60000     Te( 1.00)
        Cl             7.00    35.45000     Cl( 1.00)

     Starting magnetic structure
     atomic species   magnetization
        Re           0.000
        Te           0.000
        Cl           0.000

      2 Sym. Ops., with inversion, found

                                    s                        frac. trans.

      isym =  1     identity

 cryst.   s( 1) = (     1          0          0      )
                  (     0          1          0      )
                  (     0          0          1      )

 cart.    s( 1) = (  1.0000000  0.0000000 -0.0000000 )
                  (  0.0000000  1.0000000  0.0000000 )
                  (  0.0000000  0.0000000  1.0000000 )

      isym =  2     inversion

 cryst.   s( 2) = (    -1          0          0      )
                  (     0         -1          0      )
                  (     0          0         -1      )

 cart.    s( 2) = ( -1.0000000  0.0000000  0.0000000 )
                  (  0.0000000 -1.0000000  0.0000000 )
                  (  0.0000000  0.0000000 -1.0000000 )

   Cartesian axes

     site n.     atom                  positions (alat units)
         1           Re  tau(   1) = (   0.0000000   0.0000000   0.0000000  )
         2           Te  tau(   2) = (   0.5353517   0.8975121   1.1923979  )
         3           Te  tau(   3) = (   0.9938042   0.6136305   0.3815689  )
         4           Cl  tau(   4) = (   1.3491658   1.0175649   0.9234621  )
         5           Cl  tau(   5) = (   0.1799901   0.4935777   0.6505047  )
         6           Cl  tau(   6) = (   0.8137176   1.0863037   1.1061823  )
         7           Cl  tau(   7) = (   0.7556353   0.7529332   1.5431171  )
         8           Cl  tau(   8) = (   0.7735207   0.7582093   0.0308497  )
         9           Cl  tau(   9) = (   1.3678024   0.8399080   0.3108726  )
        10           Cl  tau(  10) = (   0.1613536   0.6712346   1.2630942  )
        11           Cl  tau(  11) = (   1.3645190   1.2464196   1.4138298  )
        12           Cl  tau(  12) = (   0.1646369   0.2647230   0.1601370  )
        13           Cl  tau(  13) = (   0.8899151   0.8971848   0.5527189  )
        14           Cl  tau(  14) = (   0.6392408   0.6139577   1.0212479  )
        15           Cl  tau(  15) = (   0.7154384   0.4248389   0.4677845  )

   Crystallographic axes

     site n.     atom                  positions (cryst. coord.)
         1           Re  tau(   1) = (  0.0000000  0.0000000  0.0000000  )
         2           Te  tau(   2) = (  0.2597850  0.4981520  0.7575750  )
         3           Te  tau(   3) = (  0.7402150  0.5018480  0.2424250  )
         4           Cl  tau(   4) = (  0.9723430  0.7240970  0.5867100  )
         5           Cl  tau(   5) = (  0.0276570  0.2759030  0.4132900  )
         6           Cl  tau(   6) = (  0.4295270  0.7282640  0.7027990  )
         7           Cl  tau(   7) = (  0.6060450  0.2160670  0.9804000  )
         8           Cl  tau(   8) = (  0.3939550  0.7839330  0.0196000  )
         9           Cl  tau(   9) = (  0.9889270  0.7655140  0.1975090  )
        10           Cl  tau(  10) = (  0.0110730  0.2344860  0.8024910  )
        11           Cl  tau(  11) = (  0.9454350  0.7818370  0.8982590  )
        12           Cl  tau(  12) = (  0.0545650  0.2181630  0.1017410  )
        13           Cl  tau(  13) = (  0.5183670  0.7356710  0.3511630  )
        14           Cl  tau(  14) = (  0.4816330  0.2643290  0.6488370  )
        15           Cl  tau(  15) = (  0.5704730  0.2717360  0.2972010  )

     number of k points=    14
                       cart. coord. in units 2pi/alat
        k(    1) = (   0.0000000   0.0000000   0.0000000), wk =   0.0370370
        k(    2) = (   0.0000000   0.0000000   0.2117791), wk =   0.0740741
        k(    3) = (   0.0000000   0.3496855  -0.1239488), wk =   0.0740741
        k(    4) = (   0.0000000   0.3496855   0.0878304), wk =   0.0740741
        k(    5) = (   0.0000000   0.3496855  -0.3357279), wk =   0.0740741
        k(    6) = (   0.3333333  -0.1689079   0.0501018), wk =   0.0740741
        k(    7) = (   0.3333333  -0.1689079   0.2618809), wk =   0.0740741
        k(    8) = (   0.3333333  -0.1689079  -0.1616774), wk =   0.0740741
        k(    9) = (   0.3333333   0.1807776  -0.0738470), wk =   0.0740741
        k(   10) = (   0.3333333   0.1807776   0.1379321), wk =   0.0740741
        k(   11) = (   0.3333333   0.1807776  -0.2856261), wk =   0.0740741
        k(   12) = (   0.3333333  -0.5185933   0.1740506), wk =   0.0740741
        k(   13) = (   0.3333333  -0.5185933   0.3858297), wk =   0.0740741
        k(   14) = (   0.3333333  -0.5185933  -0.0377286), wk =   0.0740741

                       cryst. coord.
        k(    1) = (   0.0000000   0.0000000   0.0000000), wk =   0.0370370
        k(    2) = (   0.0000000   0.0000000   0.3333333), wk =   0.0740741
        k(    3) = (   0.0000000   0.3333333   0.0000000), wk =   0.0740741
        k(    4) = (   0.0000000   0.3333333   0.3333333), wk =   0.0740741
        k(    5) = (   0.0000000   0.3333333  -0.3333333), wk =   0.0740741
        k(    6) = (   0.3333333   0.0000000   0.0000000), wk =   0.0740741
        k(    7) = (   0.3333333   0.0000000   0.3333333), wk =   0.0740741
        k(    8) = (   0.3333333   0.0000000  -0.3333333), wk =   0.0740741
        k(    9) = (   0.3333333   0.3333333  -0.0000000), wk =   0.0740741
        k(   10) = (   0.3333333   0.3333333   0.3333333), wk =   0.0740741
        k(   11) = (   0.3333333   0.3333333  -0.3333333), wk =   0.0740741
        k(   12) = (   0.3333333  -0.3333333   0.0000000), wk =   0.0740741
        k(   13) = (   0.3333333  -0.3333333   0.3333333), wk =   0.0740741
        k(   14) = (   0.3333333  -0.3333333  -0.3333333), wk =   0.0740741

     Initial potential from superposition of free atoms

     starting charge     110.4994, renormalised to     111.0000

     negative rho (up, down):  1.554E-01 1.554E-01
     Starting wfcs are   69 randomized atomic wfcs

     Self-consistent Calculation

     iteration #  1     ecut=    30.00 Ry     beta= 0.70
     Davidson diagonalization with overlap

     ethr =  1.00E-02,  avg # of iterations =  2.0

     negative rho (up, down):  1.444E-01 1.638E-01

     total energy              =    -643.09679204 Ry
     estimated scf accuracy    <       1.27435532 Ry

     total magnetization       =     3.00 Bohr mag/cell
     absolute magnetization    =     3.00 Bohr mag/cell

[...]

     total energy              =    -643.77671313 Ry
     estimated scf accuracy    <       0.00000531 Ry

[...]

     iteration # 12     ecut=    30.00 Ry     beta= 0.70
     Davidson diagonalization with overlap

     ethr =  4.78E-09,  avg # of iterations =  2.6

     negative rho (up, down):  1.369E-01 1.711E-01

     Magnetic moment per site  (integrated on atomic sphere of radius R)
     atom   1 (R=0.145)  charge= 11.1786  magn=  1.6925
     atom   2 (R=0.143)  charge=  2.0235  magn=  0.0120
     atom   3 (R=0.143)  charge=  2.0235  magn=  0.0120
     atom   4 (R=0.143)  charge=  5.0610  magn=  0.0067
     atom   5 (R=0.143)  charge=  5.0610  magn=  0.0067
     atom   6 (R=0.143)  charge=  5.0610  magn=  0.0147
     atom   7 (R=0.143)  charge=  5.0873  magn=  0.0537
     atom   8 (R=0.143)  charge=  5.0873  magn=  0.0537
     atom   9 (R=0.143)  charge=  5.0875  magn=  0.0549
     atom  10 (R=0.143)  charge=  5.0875  magn=  0.0549
     atom  11 (R=0.143)  charge=  5.0880  magn=  0.0572
     atom  12 (R=0.143)  charge=  5.0880  magn=  0.0572
     atom  13 (R=0.143)  charge=  5.0617  magn=  0.0116
     atom  14 (R=0.143)  charge=  5.0617  magn=  0.0116
     atom  15 (R=0.143)  charge=  5.0610  magn=  0.0147

     End of self-consistent calculation

 ------ SPIN UP ------------

          k = 0.0000 0.0000 0.0000 (  8691 PWs)   bands (ev):

   -78.8671 -40.8181 -40.8099 -40.7940 -14.3556 -14.2945 -13.0035 -12.9184
   -12.9077 -12.8772 -12.8659 -12.3974 -12.3790 -12.3113 -12.2952 -12.2639
    -9.0628  -8.9710  -3.7518  -3.5416  -3.4988  -3.4930  -3.4026  -3.1241
    -2.5351  -2.4863  -2.2062  -2.0818  -2.0418  -2.0186  -1.5906  -1.3699
    -1.2317  -0.9260  -0.8835  -0.7851  -0.7247  -0.6421  -0.3834  -0.1701
    -0.1265  -0.0779  -0.0161   0.0809   0.0883   0.1239   0.2424   0.3491
     0.3589   0.4320   0.4349   0.4845   0.5258   0.6997   1.8039   1.9477
     2.1091   4.0389   4.1118   4.1349   4.1774   4.2244   4.2476   5.4435

     occupation numbers
     1.0000   1.0000   1.0000   1.0000   1.0000   1.0000   1.0000   1.0000
     1.0000   1.0000   1.0000   1.0000   1.0000   1.0000   1.0000   1.0000
     1.0000   1.0000   1.0000   1.0000   1.0000   1.0000   1.0000   1.0000
     1.0000   1.0000   1.0000   1.0000   1.0000   1.0000   1.0000   1.0000
     1.0000   1.0000   1.0000   1.0000   1.0000   1.0000   1.0000   1.0000
     1.0000   1.0000   1.0000   1.0000   1.0000   1.0000   1.0000   1.0000
     1.0000   1.0000   1.0000   1.0000   1.0000   1.0000   1.0000   1.0000
     1.0000   0.0000   0.0000   0.0000   0.0000   0.0000   0.0000   0.0000

[...]

 ------ SPIN DOWN ----------

[...]

          k = 0.3333-0.5186-0.0377 (  8721 PWs)   bands (ev):

   -77.8293 -39.4555 -39.4464 -39.4194 -14.2735 -14.2676 -12.9680 -12.9530
   -12.9110 -12.8732 -12.7703 -12.3370 -12.3014 -12.2758 -12.2292 -12.2178
    -8.9246  -8.9177  -3.5782  -3.5222  -3.4465  -3.3501  -3.0741  -3.0580
    -2.6009  -2.1465  -2.0770  -1.5483  -1.4971  -1.4224  -1.3393  -1.2175
    -1.0738  -0.9445  -0.8437  -0.7211  -0.6522  -0.4726  -0.4596  -0.3261
    -0.2432  -0.1895  -0.1440  -0.0488  -0.0186   0.0956   0.1353   0.2219
     0.2743   0.3907   0.4130   0.4507   0.7723   0.8997   3.3478   3.4246
     3.6101   4.2151   4.2751   4.4042   4.4262   4.5178   4.5506   5.9950

     occupation numbers
     1.0000   1.0000   1.0000   1.0000   1.0000   1.0000   1.0000   1.0000
     1.0000   1.0000   1.0000   1.0000   1.0000   1.0000   1.0000   1.0000
     1.0000   1.0000   1.0000   1.0000   1.0000   1.0000   1.0000   1.0000
     1.0000   1.0000   1.0000   1.0000   1.0000   1.0000   1.0000   1.0000
     1.0000   1.0000   1.0000   1.0000   1.0000   1.0000   1.0000   1.0000
     1.0000   1.0000   1.0000   1.0000   1.0000   1.0000   1.0000   1.0000
     1.0000   1.0000   1.0000   1.0000   1.0000   1.0000   0.0000   0.0000
     0.0000   0.0000   0.0000   0.0000   0.0000   0.0000   0.0000   0.0000

     highest occupied, lowest unoccupied level (ev):     2.2038    3.1083

!    total energy              =    -643.77671358 Ry
     estimated scf accuracy    <       0.00000056 Ry

     The total energy is the sum of the following terms:
     one-electron contribution =    -300.02760843 Ry
     hartree contribution      =     184.90751898 Ry
     xc contribution           =    -194.10230986 Ry
     ewald contribution        =    -334.55431428 Ry

     total magnetization       =     3.00 Bohr mag/cell
     absolute magnetization    =     3.23 Bohr mag/cell

     convergence has been achieved in  12 iterations

     Writing all to output data dir bands_nm_v2/myprefix.save/

     General routines

     Parallel routines

   This run was terminated on:   1:19:19  17Jul2023

   JOB DONE.