     Program PWSCF v.7.1 starts on 14Jul2023 at  2:17: 5

     Reading input from espresso_7251.pwi
Warning: card &CELL ignored
Warning: card / ignored

     Current dimensions of program PWSCF are:
     Max number of different atomic species (ntypx) = 10
     Max number of k-points (npk) =  40000
     Max angular momentum in pseudopotentials (lmaxx) =  4
     file Ba.pbe-spn-kjpaw_psl.1.0.0.UPF: wavefunction(s)  5S 6S renormalized
     Message from routine setup:
     using ibrav=0 with symmetry is DISCOURAGED, use correct ibrav instead

     K-points division:     npool     =       2
     R & G space division:  proc/nbgrp/npool/nimage =       4
     Subspace diagonalization in iterative solution of the eigenvalue problem:
     a serial algorithm will be used

     Using Slab Decomposition

     bravais-lattice index     =            0
     lattice parameter (alat)  =      15.4067  a.u.
     unit-cell volume          =     982.0750 (a.u.)^3
     number of atoms/cell      =            4
     number of atomic types    =            3
     number of electrons       =        32.00
     number of Kohn-Sham states=           64
     kinetic-energy cutoff     =      30.0000  Ry
     charge density cutoff     =     240.0000  Ry
     scf convergence threshold =      1.0E-06
     mixing beta               =       0.7000
     number of iterations used =            8  plain     mixing
     Exchange-correlation=  SLA  PW   PBX  PBC
                           (   1   4   3   4   0   0   0)

     celldm(1)=  15.406724  celldm(2)=   0.000000  celldm(3)=   0.000000
     celldm(4)=   0.000000  celldm(5)=   0.000000  celldm(6)=   0.000000

     crystal axes: (cart. coord. in units of alat)
               a(1) = (   1.000000   0.000000   0.000000 )
               a(2) = (   0.835697   0.549190   0.000000 )
               a(3) = (   0.835697   0.250018   0.488980 )

     reciprocal axes: (cart. coord. in units 2 pi/alat)
               b(1) = (  1.000000 -1.521690 -0.931016 )
               b(2) = (  0.000000  1.820862 -0.931016 )
               b(3) = (  0.000000  0.000000  2.045074 )

     PseudoPot. # 1 for Ba read from file:
     /lustre07/scratch/pragov/crystal_structure_design/utils/SSSP/Ba.pbe-spn-kjpaw_psl.1.0.0.UPF
     MD5 check sum: c432291d3e53af55f19d5e8866385beb
     Pseudo is Projector augmented-wave + core cor, Zval = 10.0
     Generated using "atomic" code by A. Dal Corso  v.5.1
     Shape of augmentation charge: PSQ
     Using radial grid of 1251 points,  7 beta functions with:
                l(1) =   0
                l(2) =   0
                l(3) =   0
                l(4) =   1
                l(5) =   1
                l(6) =   2
                l(7) =   2
     Q(r) pseudized with 0 coefficients

     PseudoPot. # 2 for P  read from file:
     /lustre07/scratch/pragov/crystal_structure_design/utils/SSSP/P.pbe-n-rrkjus_psl.1.0.0.UPF
     MD5 check sum: 8b930f418f0a4573dca56cd030ffe088
     Pseudo is Ultrasoft + core correction, Zval =  5.0
     Generated using "atomic" code by A. Dal Corso  v.5.1
     Using radial grid of 1147 points,  6 beta functions with:
                l(1) =   0
                l(2) =   0
                l(3) =   1
                l(4) =   1
                l(5) =   2
                l(6) =   2
     Q(r) pseudized with 0 coefficients

     PseudoPot. # 3 for Cl read from file:
     /lustre07/scratch/pragov/crystal_structure_design/utils/SSSP/cl_pbe_v1.4.uspp.F.UPF
     MD5 check sum: fc6f6913ecf08c9257cb748ef0700058
     Pseudo is Ultrasoft + core correction, Zval =  7.0
     Generated by new atomic code, or converted to UPF format
     Using radial grid of  909 points,  6 beta functions with:
                l(1) =   0
                l(2) =   0
                l(3) =   1
                l(4) =   1
                l(5) =   2
                l(6) =   2
     Q(r) pseudized with  8 coefficients,  rinner =    1.300   1.300   1.300
                                                       1.300   1.300

     atomic species   valence    mass     pseudopotential
        Ba            10.00   137.32700     Ba( 1.00)
        P              5.00    30.97376     P ( 1.00)
        Cl             7.00    35.45000     Cl( 1.00)

      2 Sym. Ops., with inversion, found

                                    s                        frac. trans.

      isym =  1     identity

 cryst.   s( 1) = (     1          0          0      )
                  (     0          1          0      )
                  (     0          0          1      )

 cart.    s( 1) = (  1.0000000  0.0000000  0.0000000 )
                  (  0.0000000  1.0000000 -0.0000000 )
                  (  0.0000000  0.0000000  1.0000000 )

      isym =  2     inversion

 cryst.   s( 2) = (    -1          0          0      )
                  (     0         -1          0      )
                  (     0          0         -1      )

 cart.    s( 2) = ( -1.0000000  0.0000000  0.0000000 )
                  (  0.0000000 -1.0000000  0.0000000 )
                  (  0.0000000  0.0000000 -1.0000000 )

   Cartesian axes

     site n.     atom                  positions (alat units)
         1           Ba  tau(   1) = (   2.0292929   0.6071088   0.3714476  )
         2           Ba  tau(   2) = (   0.6421018   0.1920992   0.1175322  )
         3           P   tau(   3) = (   1.3356973   0.3996040   0.2444899  )
         4           Cl  tau(   4) = (   0.0000000   0.0000000   0.0000000  )

   Crystallographic axes

     site n.     atom                  positions (cryst. coord.)
         1           Ba  tau(   1) = (  0.7596380  0.7596380  0.7596380  )
         2           Ba  tau(   2) = (  0.2403620  0.2403620  0.2403620  )
         3           P   tau(   3) = (  0.5000000  0.5000000  0.5000000  )
         4           Cl  tau(   4) = (  0.0000000  0.0000000  0.0000000  )

     number of k points=    14
                       cart. coord. in units 2pi/alat
        k(    1) = (   0.0000000   0.0000000   0.0000000), wk =   0.0740741
        k(    2) = (   0.0000000   0.0000000   0.6816914), wk =   0.1481481
        k(    3) = (   0.0000000   0.6069541  -0.3103386), wk =   0.1481481
        k(    4) = (   0.0000000   0.6069541   0.3713528), wk =   0.1481481
        k(    5) = (   0.0000000   0.6069541  -0.9920300), wk =   0.1481481
        k(    6) = (   0.3333333  -0.5072299  -0.3103386), wk =   0.1481481
        k(    7) = (   0.3333333  -0.5072299   0.3713528), wk =   0.1481481
        k(    8) = (   0.3333333  -0.5072299  -0.9920300), wk =   0.1481481
        k(    9) = (   0.3333333   0.0997242  -0.6206772), wk =   0.1481481
        k(   10) = (   0.3333333   0.0997242   0.0610143), wk =   0.1481481
        k(   11) = (   0.3333333   0.0997242  -1.3023686), wk =   0.1481481
        k(   12) = (   0.3333333  -1.1141841  -0.0000000), wk =   0.1481481
        k(   13) = (   0.3333333  -1.1141841   0.6816914), wk =   0.1481481
        k(   14) = (   0.3333333  -1.1141841  -0.6816914), wk =   0.1481481

                       cryst. coord.
        k(    1) = (   0.0000000   0.0000000   0.0000000), wk =   0.0740741
        k(    2) = (   0.0000000   0.0000000   0.3333333), wk =   0.1481481
        k(    3) = (   0.0000000   0.3333333   0.0000000), wk =   0.1481481
        k(    4) = (   0.0000000   0.3333333   0.3333333), wk =   0.1481481
        k(    5) = (   0.0000000   0.3333333  -0.3333333), wk =   0.1481481
        k(    6) = (   0.3333333   0.0000000   0.0000000), wk =   0.1481481
        k(    7) = (   0.3333333   0.0000000   0.3333333), wk =   0.1481481
        k(    8) = (   0.3333333   0.0000000  -0.3333333), wk =   0.1481481
        k(    9) = (   0.3333333   0.3333333   0.0000000), wk =   0.1481481
        k(   10) = (   0.3333333   0.3333333   0.3333333), wk =   0.1481481
        k(   11) = (   0.3333333   0.3333333  -0.3333333), wk =   0.1481481
        k(   12) = (   0.3333333  -0.3333333   0.0000000), wk =   0.1481481
        k(   13) = (   0.3333333  -0.3333333   0.3333333), wk =   0.1481481
        k(   14) = (   0.3333333  -0.3333333  -0.3333333), wk =   0.1481481

     Initial potential from superposition of free atoms

     starting charge      31.9658, renormalised to      32.0000

     negative rho (up, down):  1.509E-02 0.000E+00
     Starting wfcs are   18 randomized atomic wfcs +   46 random wfcs
     Checking if some PAW data can be deallocated...

     Self-consistent Calculation

     iteration #  1     ecut=    30.00 Ry     beta= 0.70
     Davidson diagonalization with overlap

     ethr =  1.00E-02,  avg # of iterations =  8.2

     negative rho (up, down):  5.627E-02 0.000E+00

     total energy              =    -919.98512535 Ry
     estimated scf accuracy    <       0.57002607 Ry

[...]

     total energy              =    -920.19178964 Ry
     estimated scf accuracy    <       0.00000315 Ry

     iteration # 15     ecut=    30.00 Ry     beta= 0.70
     Davidson diagonalization with overlap

     ethr =  6.06E-09,  avg # of iterations =  1.0

     negative rho (up, down):  1.508E-02 0.000E+00

     End of self-consistent calculation

          k = 0.0000 0.0000 0.0000 (  2731 PWs)   bands (ev):

   -21.2357 -21.1993  -9.8210  -6.6789  -6.3429  -6.3429  -6.3352  -6.2991
    -6.2990  -1.4332   1.7222   1.9961   1.9961   5.2307   5.9134   5.9134
     7.8482   8.7963   8.7963   8.8974   9.6892   9.6892  10.4740  10.5618
    11.1149  11.1149  13.1419  13.3343  13.3343  13.3682  13.3682  14.1188
    16.3485  16.3486  16.9083  18.2237  18.9000  18.9000  19.9213  20.4150
    20.4150  20.4673  21.1403  21.5956  21.5956  22.1686  22.1686  23.5508
    23.5508  23.7041  23.8429  23.8429  24.1863  24.3184  24.3232  24.3233
    24.7371  24.7371  24.8983  25.1697  25.3546  25.7616  25.7616  26.4898

     occupation numbers
     1.0000   1.0000   1.0000   1.0000   1.0000   1.0000   1.0000   1.0000
     1.0000   1.0000   1.0000   1.0000   1.0000   1.0000   1.0000   1.0000
     0.0000   0.0000   0.0000   0.0000   0.0000   0.0000   0.0000   0.0000
     0.0000   0.0000   0.0000   0.0000   0.0000   0.0000   0.0000   0.0000
     0.0000   0.0000   0.0000   0.0000   0.0000   0.0000   0.0000   0.0000
     0.0000   0.0000   0.0000   0.0000   0.0000   0.0000   0.0000   0.0000
     0.0000   0.0000   0.0000   0.0000   0.0000   0.0000   0.0000   0.0000
     0.0000   0.0000   0.0000   0.0000   0.0000   0.0000   0.0000   0.0000

[...]

          k = 0.3333-1.1142-0.6817 (  2722 PWs)   bands (ev):

   -21.2115 -21.1969  -9.7940  -6.7258  -6.5236  -6.4218  -6.4189  -6.3857
    -6.3227  -1.3094   1.7014   1.8381   1.9463   5.3588   5.6998   5.9599
     7.5077   9.0351   9.2943  10.0552  10.5604  10.5960  10.8081  11.2271
    11.5381  12.1021  12.9617  13.2288  13.6003  13.9129  14.8161  15.0335
    15.4448  15.5002  16.4290  16.4417  17.3111  18.3897  18.7492  18.7497
    19.4393  19.6762  19.7322  20.0880  20.0897  20.5823  21.8908  21.9056
    22.6800  23.1052  23.5201  23.5753  24.0298  24.3858  24.4512  24.6355
    24.8991  25.1226  26.0380  26.1902  26.9372  27.0689  27.4906  27.6233

     occupation numbers
     1.0000   1.0000   1.0000   1.0000   1.0000   1.0000   1.0000   1.0000
     1.0000   1.0000   1.0000   1.0000   1.0000   1.0000   1.0000   1.0000
     0.0000   0.0000   0.0000   0.0000   0.0000   0.0000   0.0000   0.0000
     0.0000   0.0000   0.0000   0.0000   0.0000   0.0000   0.0000   0.0000
     0.0000   0.0000   0.0000   0.0000   0.0000   0.0000   0.0000   0.0000
     0.0000   0.0000   0.0000   0.0000   0.0000   0.0000   0.0000   0.0000
     0.0000   0.0000   0.0000   0.0000   0.0000   0.0000   0.0000   0.0000
     0.0000   0.0000   0.0000   0.0000   0.0000   0.0000   0.0000   0.0000

     highest occupied, lowest unoccupied level (ev):     5.9599    7.5077

!    total energy              =    -920.19178965 Ry
     estimated scf accuracy    <       0.00000045 Ry

     The total energy is the sum of the following terms:
     one-electron contribution =     -16.91295953 Ry
     hartree contribution      =      21.94269720 Ry
     xc contribution           =     -54.41931432 Ry
     ewald contribution        =    -120.89369813 Ry
     one-center paw contrib.   =    -749.90851487 Ry
      -> PAW hartree energy AE =      28.74210196 Ry
      -> PAW hartree energy PS =     -28.63411851 Ry
      -> PAW xc energy AE      =    -394.22949388 Ry
      -> PAW xc energy PS      =      19.16725300 Ry
      -> total E_H with PAW    =      22.05068065 Ry
      -> total E_XC with PAW   =    -429.48155520 Ry

     convergence has been achieved in  15 iterations

     Writing all to output data dir bands_nm/myprefix.save/

     General routines

     Parallel routines

     PAW routines

   This run was terminated on:   2:17:20  14Jul2023

   JOB DONE.