     Program PWSCF v.7.1 starts on 14Jul2023 at 19:19:58

     Reading input from espresso_21828.pwi
Warning: card &CELL ignored
Warning: card / ignored

     Current dimensions of program PWSCF are:
     Max number of different atomic species (ntypx) = 10
     Max number of k-points (npk) =  40000
     Max angular momentum in pseudopotentials (lmaxx) =  4
     file K.pbe-spn-kjpaw_psl.1.0.0.UPF: wavefunction(s)  3S renormalized
     file O.pbe-n-kjpaw_psl.0.1.UPF: wavefunction(s)  2P renormalized
     Message from routine setup:
     using ibrav=0 with symmetry is DISCOURAGED, use correct ibrav instead

     K-points division:     npool     =       2
     R & G space division:  proc/nbgrp/npool/nimage =       4
     Subspace diagonalization in iterative solution of the eigenvalue problem:
     a serial algorithm will be used

     Using Slab Decomposition

     bravais-lattice index     =            0
     lattice parameter (alat)  =      10.8950  a.u.
     unit-cell volume          =    1439.9125 (a.u.)^3
     number of atoms/cell      =           14
     number of atomic types    =            4
     number of electrons       =        96.00
     number of Kohn-Sham states=           64
     kinetic-energy cutoff     =      30.0000  Ry
     charge density cutoff     =     240.0000  Ry
     scf convergence threshold =      1.0E-06
     mixing beta               =       0.7000
     number of iterations used =            8  plain     mixing
     Exchange-correlation= SLA  PW   PBX  PBC
                           (   1   4   3   4   0   0   0)

     celldm(1)=  10.894966  celldm(2)=   0.000000  celldm(3)=   0.000000
     celldm(4)=   0.000000  celldm(5)=   0.000000  celldm(6)=   0.000000

     crystal axes: (cart. coord. in units of alat)
               a(1) = (   1.000000   0.000000   0.000000 )
               a(2) = (  -0.500000   0.866025   0.000000 )
               a(3) = (   0.000000   0.000000   1.285665 )

     reciprocal axes: (cart. coord. in units 2 pi/alat)
               b(1) = (  1.000000  0.577350  0.000000 )
               b(2) = (  0.000000  1.154701  0.000000 )
               b(3) = (  0.000000  0.000000  0.777808 )

     PseudoPot. # 1 for K  read from file:
     /lustre07/scratch/pragov/crystal_structure_design/utils/SSSP/K.pbe-spn-kjpaw_psl.1.0.0.UPF
     MD5 check sum: 7d58810084cac21f60fbe77ea2b688fd
     Pseudo is Projector augmented-wave + core cor, Zval =  9.0
     Generated using "atomic" code by A. Dal Corso  v.5.1
     Shape of augmentation charge: PSQ
     Using radial grid of 1165 points,  6 beta functions with:
                l(1) =   0
                l(2) =   0
                l(3) =   1
                l(4) =   1
                l(5) =   2
                l(6) =   2
     Q(r) pseudized with 0 coefficients

     PseudoPot. # 2 for Na read from file:
     /lustre07/scratch/pragov/crystal_structure_design/utils/SSSP/na_pbe_v1.5.uspp.F.UPF
     MD5 check sum: 44600605ef58000f06b90626533354dc
     Pseudo is Ultrasoft, Zval =  9.0
     Generated by new atomic code, or converted to UPF format
     Using radial grid of  819 points,  5 beta functions with:
                l(1) =   0
                l(2) =   0
                l(3) =   1
                l(4) =   1
                l(5) =   2
     Q(r) pseudized with  8 coefficients,  rinner =    1.250   1.250   1.250
                                                       1.250   1.250

     PseudoPot. # 3 for S  read from file:
     /lustre07/scratch/pragov/crystal_structure_design/utils/SSSP/s_pbe_v1.4.uspp.F.UPF
     MD5 check sum: 88d86576ff6df21479756cfb9bdac1df
     Pseudo is Ultrasoft + core correction, Zval =  6.0
     Generated by new atomic code, or converted to UPF format
     Using radial grid of  907 points,  6 beta functions with:
                l(1) =   0
                l(2) =   0
                l(3) =   1
                l(4) =   1
                l(5) =   2
                l(6) =   2
     Q(r) pseudized with  8 coefficients,  rinner =    1.300   1.300   1.300
                                                       1.300   1.300

     PseudoPot. # 4 for O  read from file:
     /lustre07/scratch/pragov/crystal_structure_design/utils/SSSP/O.pbe-n-kjpaw_psl.0.1.UPF
     MD5 check sum: 0234752ac141de4415c5fc33072bef88
     Pseudo is Projector augmented-wave + core cor, Zval =  6.0
     Generated using "atomic" code by A. Dal Corso  v.5.0.99 svn rev. 10869
     Shape of augmentation charge: BESSEL
     Using radial grid of 1095 points,  4 beta functions with:
                l(1) =   0
                l(2) =   0
                l(3) =   1
                l(4) =   1
     Q(r) pseudized with 0 coefficients

     atomic species   valence    mass     pseudopotential
        K              9.00    39.09830     K ( 1.00)
        Na             9.00    22.98977     Na( 1.00)
        S              6.00    32.06000     S ( 1.00)
        O              6.00    15.99900     O ( 1.00)

     12 Sym. Ops., with inversion, found

                                    s                        frac. trans.

      isym =  1     identity

 cryst.   s( 1) = (     1          0          0      )
                  (     0          1          0      )
                  (     0          0          1      )

 cart.    s( 1) = (  1.0000000  0.0000000  0.0000000 )
                  (  0.0000000  1.0000000  0.0000000 )
                  (  0.0000000  0.0000000  1.0000000 )

      isym =  2     180 deg rotation - cart. axis [1,0,0]

[...]

      isym =  3     120 deg rotation - cryst. axis [0,0,1]

[...]

      isym =  6     180 deg rotation - cryst. axis [1,1,0]

[...]

      isym =  7     inversion

[...]

      isym =  8     inv. 180 deg rotation - cart. axis [1,0,0]

[...]

      isym =  9     inv. 120 deg rotation - cryst. axis [0,0,1]

 cryst.   s( 9) = (     0         -1          0      )
                  (     1          1          0      )
                  (     0          0         -1      )

 cart.    s( 9) = (  0.5000000  0.8660254  0.0000000 )
                  ( -0.8660254  0.5000000  0.0000000 )
                  (  0.0000000  0.0000000 -1.0000000 )

[...]

 cryst.   s(10) = (     1          1          0      )
                  (    -1          0          0      )
                  (     0          0         -1      )

 cart.    s(10) = (  0.5000000 -0.8660254  0.0000000 )
                  (  0.8660254  0.5000000  0.0000000 )
                  (  0.0000000  0.0000000 -1.0000000 )

[...]

      isym = 12     inv. 180 deg rotation - cryst. axis [1,1,0]

 cryst.   s(12) = (     0         -1          0      )
                  (    -1          0          0      )
                  (     0          0          1      )

 cart.    s(12) = (  0.5000000 -0.8660254  0.0000000 )
                  ( -0.8660254 -0.5000000  0.0000000 )
                  (  0.0000000  0.0000000  1.0000000 )

   Cartesian axes

     site n.     atom                  positions (alat units)
         1           K   tau(   1) = (  -0.0000005   0.5773506   0.2267051  )
         2           K   tau(   2) = (   0.0000000   0.0000000   0.6428324  )
         3           K   tau(   3) = (   0.5000005   0.2886749   1.0589597  )
         4           Na  tau(   4) = (   0.0000000   0.0000000   0.0000000  )
         5           S   tau(   5) = (   0.5000005   0.2886749   0.3449516  )
         6           S   tau(   6) = (  -0.0000005   0.5773506   0.9407133  )
         7           O   tau(   7) = (  -0.2114255   0.6994168   1.0320906  )
         8           O   tau(   8) = (   0.0000000   0.3332171   1.0320906  )
         9           O   tau(   9) = (   0.2114255   0.6994168   1.0320906  )
        10           O   tau(  10) = (   0.2885745   0.1666086   0.2535743  )
        11           O   tau(  11) = (   0.5000000   0.5328083   0.2535743  )
        12           O   tau(  12) = (   0.7114255   0.1666086   0.2535743  )
        13           O   tau(  13) = (   0.5000005   0.2886749   0.6003734  )
        14           O   tau(  14) = (  -0.0000005   0.5773506   0.6852915  )

   Crystallographic axes

     site n.     atom                  positions (cryst. coord.)
         1           K   tau(   1) = (  0.3333330  0.6666670  0.1763330  )
         2           K   tau(   2) = (  0.0000000  0.0000000  0.5000000  )
         3           K   tau(   3) = (  0.6666670  0.3333330  0.8236670  )
         4           Na  tau(   4) = (  0.0000000  0.0000000  0.0000000  )
         5           S   tau(   5) = (  0.6666670  0.3333330  0.2683060  )
         6           S   tau(   6) = (  0.3333330  0.6666670  0.7316940  )
         7           O   tau(   7) = (  0.1923830  0.8076170  0.8027680  )
         8           O   tau(   8) = (  0.1923830  0.3847660  0.8027680  )
         9           O   tau(   9) = (  0.6152340  0.8076170  0.8027680  )
        10           O   tau(  10) = (  0.3847660  0.1923830  0.1972320  )
        11           O   tau(  11) = (  0.8076170  0.6152340  0.1972320  )
        12           O   tau(  12) = (  0.8076170  0.1923830  0.1972320  )
        13           O   tau(  13) = (  0.6666670  0.3333330  0.4669750  )
        14           O   tau(  14) = (  0.3333330  0.6666670  0.5330250  )

     number of k points=     7
                       cart. coord. in units 2pi/alat
        k(    1) = (   0.0000000   0.0000000   0.0000000), wk =   0.0740741
        k(    2) = (   0.0000000   0.0000000   0.2592692), wk =   0.1481481
        k(    3) = (   0.0000000   0.3849002   0.0000000), wk =   0.4444444
        k(    4) = (   0.0000000   0.3849002   0.2592692), wk =   0.4444444
        k(    5) = (   0.3333333   0.5773503   0.0000000), wk =   0.1481481
        k(    6) = (   0.3333333   0.5773503   0.2592692), wk =   0.2962963
        k(    7) = (   0.0000000   0.3849002  -0.2592692), wk =   0.4444444

                       cryst. coord.
        k(    1) = (   0.0000000   0.0000000   0.0000000), wk =   0.0740741
        k(    2) = (   0.0000000   0.0000000   0.3333333), wk =   0.1481481
        k(    3) = (   0.0000000   0.3333333   0.0000000), wk =   0.4444444
        k(    4) = (   0.0000000   0.3333333   0.3333333), wk =   0.4444444
        k(    5) = (   0.3333333   0.3333333   0.0000000), wk =   0.1481481
        k(    6) = (   0.3333333   0.3333333   0.3333333), wk =   0.2962963
        k(    7) = (   0.0000000   0.3333333  -0.3333333), wk =   0.4444444

     Check: negative core charge=   -0.000012

     Initial potential from superposition of free atoms

     starting charge      95.9371, renormalised to      96.0000
     Starting wfcs are   69 randomized atomic wfcs
     Checking if some PAW data can be deallocated...

     Self-consistent Calculation

     iteration #  1     ecut=    30.00 Ry     beta= 0.70
     Davidson diagonalization with overlap

     ethr =  1.00E-02,  avg # of iterations =  6.7

     total energy              =    -814.98868607 Ry
     estimated scf accuracy    <       2.49261169 Ry

[...]

     total energy              =    -816.13983231 Ry
     estimated scf accuracy    <       0.00000358 Ry

     iteration #  9     ecut=    30.00 Ry     beta= 0.70
     Davidson diagonalization with overlap

     ethr =  3.72E-09,  avg # of iterations =  2.0

     End of self-consistent calculation

          k = 0.0000 0.0000 0.0000 (  3997 PWs)   bands (ev):

   -45.9980 -24.2358 -24.1400 -24.1269 -19.2096 -19.1975 -17.9243 -17.9243
   -17.9082 -15.1103 -15.0400 -15.0203 -15.0202 -15.0138 -15.0137  -7.7732
    -7.7537  -7.7537  -7.7205  -7.7205  -7.7144  -7.6554  -7.6554  -7.6487
    -5.1590  -4.8376  -2.2968  -2.2967  -2.2748  -2.2748  -2.2108  -2.1589
     0.7364   0.7364   0.8297   0.9001   0.9001   1.2155   1.2155   1.4579
     1.5776   1.5776   3.1461   3.2144   3.2145   3.2370   3.2531   3.2531
     8.5930  10.9023  11.1288  11.1592  11.1592  11.5837  11.5837  11.9494
    12.1351  12.1351  12.8981  13.0857  13.0857  13.1063  13.1716  13.4302

     occupation numbers
     1.0000   1.0000   1.0000   1.0000   1.0000   1.0000   1.0000   1.0000
     1.0000   1.0000   1.0000   1.0000   1.0000   1.0000   1.0000   1.0000
     1.0000   1.0000   1.0000   1.0000   1.0000   1.0000   1.0000   1.0000
     1.0000   1.0000   1.0000   1.0000   1.0000   1.0000   1.0000   1.0000
     1.0000   1.0000   1.0000   1.0000   1.0000   1.0000   1.0000   1.0000
     1.0000   1.0000   1.0000   1.0000   1.0000   1.0000   1.0000   1.0000
     0.0000   0.0000   0.0000   0.0000   0.0000   0.0000   0.0000   0.0000
     0.0000   0.0000   0.0000   0.0000   0.0000   0.0000   0.0000   0.0000

[...]

          k = 0.0000 0.3849-0.2593 (  4008 PWs)   bands (ev):

   -45.9982 -24.2343 -24.1361 -24.1285 -19.2106 -19.2035 -17.9247 -17.9217
   -17.9130 -15.0929 -15.0625 -15.0378 -15.0262 -15.0222 -15.0170  -7.7869
    -7.7586  -7.7492  -7.7485  -7.6896  -7.6859  -7.6457  -7.6344  -7.6121
    -4.8528  -4.7792  -2.5391  -2.3343  -2.2711  -2.2542  -2.0562  -1.9926
     0.6160   0.6732   0.7559   0.8343   0.9241   1.0052   1.2107   1.2619
     1.3223   1.4873   2.9365   3.0093   3.0095   3.2004   3.2367   3.2483
    10.0694  10.9283  11.1116  11.4513  11.6370  11.8817  11.9889  12.2284
    12.4353  12.6304  12.7780  12.8026  12.8891  13.2347  13.2677  13.5921

     occupation numbers
     1.0000   1.0000   1.0000   1.0000   1.0000   1.0000   1.0000   1.0000
     1.0000   1.0000   1.0000   1.0000   1.0000   1.0000   1.0000   1.0000
     1.0000   1.0000   1.0000   1.0000   1.0000   1.0000   1.0000   1.0000
     1.0000   1.0000   1.0000   1.0000   1.0000   1.0000   1.0000   1.0000
     1.0000   1.0000   1.0000   1.0000   1.0000   1.0000   1.0000   1.0000
     1.0000   1.0000   1.0000   1.0000   1.0000   1.0000   1.0000   1.0000
     0.0000   0.0000   0.0000   0.0000   0.0000   0.0000   0.0000   0.0000
     0.0000   0.0000   0.0000   0.0000   0.0000   0.0000   0.0000   0.0000

     highest occupied, lowest unoccupied level (ev):     3.3294    8.5930

!    total energy              =    -816.13983289 Ry
     estimated scf accuracy    <       0.00000004 Ry

     The total energy is the sum of the following terms:
     one-electron contribution =    -261.68984635 Ry
     hartree contribution      =     177.34023369 Ry
     xc contribution           =    -125.80396129 Ry
     ewald contribution        =    -363.55263635 Ry
     one-center paw contrib.   =    -242.43362259 Ry
      -> PAW hartree energy AE =      75.47693836 Ry
      -> PAW hartree energy PS =     -75.05630243 Ry
      -> PAW xc energy AE      =    -132.44791608 Ry
      -> PAW xc energy PS      =      21.19243737 Ry
      -> total E_H with PAW    =     177.76086962 Ry
      -> total E_XC with PAW   =    -237.05944001 Ry

     convergence has been achieved in   9 iterations

     Writing all to output data dir bands_nm/myprefix.save/

     General routines

     Parallel routines

     PAW routines

   This run was terminated on:  19:20: 9  14Jul2023

   JOB DONE.