     Program PWSCF v.7.1 starts on 16Jul2023 at 15:40:25

     Reading input from espresso_26981.pwi
Warning: card &CELL ignored
Warning: card / ignored

     Current dimensions of program PWSCF are:
     Max number of different atomic species (ntypx) = 10
     Max number of k-points (npk) =  40000
     Max angular momentum in pseudopotentials (lmaxx) =  4
     file O.pbe-n-kjpaw_psl.0.1.UPF: wavefunction(s)  2P renormalized
     Message from routine setup:
     using ibrav=0 with symmetry is DISCOURAGED, use correct ibrav instead

     K-points division:     npool     =       2
     R & G space division:  proc/nbgrp/npool/nimage =       4
     Subspace diagonalization in iterative solution of the eigenvalue problem:
     a serial algorithm will be used

     Using Slab Decomposition

     bravais-lattice index     =            0
     lattice parameter (alat)  =       9.6081  a.u.
     unit-cell volume          =    1238.2111 (a.u.)^3
     number of atoms/cell      =           12
     number of atomic types    =            2
     number of electrons       =        64.00
     number of Kohn-Sham states=           64
     kinetic-energy cutoff     =      30.0000  Ry
     charge density cutoff     =     240.0000  Ry
     scf convergence threshold =      1.0E-06
     mixing beta               =       0.7000
     number of iterations used =            8  plain     mixing
     Exchange-correlation= SLA  PW   PBX  PBC
                           (   1   4   3   4   0   0   0)

     celldm(1)=   9.608069  celldm(2)=   0.000000  celldm(3)=   0.000000
     celldm(4)=   0.000000  celldm(5)=   0.000000  celldm(6)=   0.000000

     crystal axes: (cart. coord. in units of alat)
               a(1) = (   1.000000   0.000000   0.000000 )
               a(2) = (   0.000000   1.000000   0.000000 )
               a(3) = (   0.000000   0.000000   1.396003 )

     reciprocal axes: (cart. coord. in units 2 pi/alat)
               b(1) = (  1.000000  0.000000  0.000000 )
               b(2) = (  0.000000  1.000000  0.000000 )
               b(3) = (  0.000000  0.000000  0.716331 )

     PseudoPot. # 1 for Si read from file:
     /lustre07/scratch/pragov/crystal_structure_design/utils/SSSP/Si.pbe-n-rrkjus_psl.1.0.0.UPF
     MD5 check sum: 0b0bb1205258b0d07b9f9672cf965d36
     Pseudo is Ultrasoft + core correction, Zval =  4.0
     Generated using "atomic" code by A. Dal Corso  v.5.1
     Using radial grid of 1141 points,  6 beta functions with:
                l(1) =   0
                l(2) =   0
                l(3) =   1
                l(4) =   1
                l(5) =   2
                l(6) =   2
     Q(r) pseudized with 0 coefficients

     PseudoPot. # 2 for O  read from file:
     /lustre07/scratch/pragov/crystal_structure_design/utils/SSSP/O.pbe-n-kjpaw_psl.0.1.UPF
     MD5 check sum: 0234752ac141de4415c5fc33072bef88
     Pseudo is Projector augmented-wave + core cor, Zval =  6.0
     Generated using "atomic" code by A. Dal Corso  v.5.0.99 svn rev. 10869
     Shape of augmentation charge: BESSEL
     Using radial grid of 1095 points,  4 beta functions with:
                l(1) =   0
                l(2) =   0
                l(3) =   1
                l(4) =   1
     Q(r) pseudized with 0 coefficients

     atomic species   valence    mass     pseudopotential
        Si             4.00    28.08500     Si( 1.00)
        O              6.00    15.99900     O ( 1.00)

      8 Sym. Ops. (no inversion) found ( 6 have fractional translation)

                                    s                        frac. trans.

      isym =  1     identity

 cryst.   s( 1) = (     1          0          0      )
                  (     0          1          0      )
                  (     0          0          1      )

 cart.    s( 1) = (  1.0000000  0.0000000  0.0000000 )
                  (  0.0000000  1.0000000  0.0000000 )
                  (  0.0000000  0.0000000  1.0000000 )

      isym =  2     180 deg rotation - cart. axis [0,0,1]

 cryst.   s( 2) = (    -1          0          0      )    f =(  0.0000000 )
                  (     0         -1          0      )       (  0.0000000 )
                  (     0          0          1      )       ( -0.5000000 )

 cart.    s( 2) = ( -1.0000000  0.0000000  0.0000000 )    f =(  0.0000000 )
                  (  0.0000000 -1.0000000  0.0000000 )       (  0.0000000 )
                  (  0.0000000  0.0000000  1.0000000 )       ( -0.6980016 )

[...]

 cryst.   s( 5) = (     0          1          0      )
                  (     1          0          0      )
                  (     0          0         -1      )

 cart.    s( 5) = (  0.0000000  1.0000000  0.0000000 )
                  (  1.0000000  0.0000000  0.0000000 )
                  (  0.0000000  0.0000000 -1.0000000 )

[...]

      isym =  8      90 deg rotation - cart. axis [0,0,1]

 cryst.   s( 8) = (     0          1          0      )    f =(  0.5000000 )
                  (    -1          0          0      )       ( -0.5000000 )
                  (     0          0          1      )       (  0.2500000 )

 cart.    s( 8) = (  0.0000000 -1.0000000  0.0000000 )    f =(  0.5000000 )
                  (  1.0000000  0.0000000  0.0000000 )       ( -0.5000000 )
                  (  0.0000000  0.0000000  1.0000000 )       (  0.3490008 )

   Cartesian axes

     site n.     atom                  positions (alat units)
         1           Si  tau(   1) = (   0.2055000   0.2055000   0.0000000  )
         2           Si  tau(   2) = (   0.2945000   0.7055000   1.0470024  )
         3           Si  tau(   3) = (   0.7055000   0.2945000   0.3490008  )
         4           Si  tau(   4) = (   0.7945000   0.7945000   0.6980016  )
         5           O   tau(   5) = (   0.5942070   0.7410050   0.9414729  )
         6           O   tau(   6) = (   0.4057930   0.2589950   0.2434713  )
         7           O   tau(   7) = (   0.7410050   0.5942070   0.4545303  )
         8           O   tau(   8) = (   0.2410050   0.9057930   1.2904737  )
         9           O   tau(   9) = (   0.2589950   0.4057930   1.1525318  )
        10           O   tau(  10) = (   0.0942070   0.7589950   0.8035310  )
        11           O   tau(  11) = (   0.9057930   0.2410050   0.1055295  )
        12           O   tau(  12) = (   0.7589950   0.0942070   0.5924721  )

   Crystallographic axes

     site n.     atom                  positions (cryst. coord.)
         1           Si  tau(   1) = (  0.2055000  0.2055000  0.0000000  )
         2           Si  tau(   2) = (  0.2945000  0.7055000  0.7500000  )
         3           Si  tau(   3) = (  0.7055000  0.2945000  0.2500000  )
         4           Si  tau(   4) = (  0.7945000  0.7945000  0.5000000  )
         5           O   tau(   5) = (  0.5942070  0.7410050  0.6744060  )
         6           O   tau(   6) = (  0.4057930  0.2589950  0.1744060  )
         7           O   tau(   7) = (  0.7410050  0.5942070  0.3255940  )
         8           O   tau(   8) = (  0.2410050  0.9057930  0.9244060  )
         9           O   tau(   9) = (  0.2589950  0.4057930  0.8255940  )
        10           O   tau(  10) = (  0.0942070  0.7589950  0.5755940  )
        11           O   tau(  11) = (  0.9057930  0.2410050  0.0755940  )
        12           O   tau(  12) = (  0.7589950  0.0942070  0.4244060  )

     number of k points=     6
                       cart. coord. in units 2pi/alat
        k(    1) = (   0.0000000   0.0000000   0.0000000), wk =   0.0740741
        k(    2) = (   0.0000000   0.0000000   0.2387769), wk =   0.1481481
        k(    3) = (   0.0000000   0.3333333   0.0000000), wk =   0.2962963
        k(    4) = (   0.0000000   0.3333333   0.2387769), wk =   0.5925926
        k(    5) = (   0.3333333   0.3333333   0.0000000), wk =   0.2962963
        k(    6) = (   0.3333333   0.3333333   0.2387769), wk =   0.5925926

                       cryst. coord.
        k(    1) = (   0.0000000   0.0000000   0.0000000), wk =   0.0740741
        k(    2) = (   0.0000000   0.0000000   0.3333333), wk =   0.1481481
        k(    3) = (   0.0000000   0.3333333   0.0000000), wk =   0.2962963
        k(    4) = (   0.0000000   0.3333333   0.3333333), wk =   0.5925926
        k(    5) = (   0.3333333   0.3333333   0.0000000), wk =   0.2962963
        k(    6) = (   0.3333333   0.3333333   0.3333333), wk =   0.5925926

     Check: negative core charge=   -0.000010

     Initial potential from superposition of free atoms

     starting charge      63.9978, renormalised to      64.0000
     Starting wfcs are   48 randomized atomic wfcs +   16 random wfcs
     Checking if some PAW data can be deallocated...

     Self-consistent Calculation

     iteration #  1     ecut=    30.00 Ry     beta= 0.70
     Davidson diagonalization with overlap

     ethr =  1.00E-02,  avg # of iterations =  6.7

     total energy              =    -378.74282447 Ry
     estimated scf accuracy    <       2.64213333 Ry

[...]

     total energy              =    -379.80803978 Ry
     estimated scf accuracy    <       0.00023792 Ry

     iteration #  6     ecut=    30.00 Ry     beta= 0.70
     Davidson diagonalization with overlap

     ethr =  3.72E-07,  avg # of iterations =  2.2

     End of self-consistent calculation

          k = 0.0000 0.0000 0.0000 (  3475 PWs)   bands (ev):

   -18.5344 -17.6853 -17.6853 -16.5846 -16.5568 -16.5539 -16.5406 -16.5406
    -8.6515  -6.5402  -6.5402  -4.8536  -4.7677  -4.7677  -4.3020  -4.1772
    -1.9466  -1.9466  -1.9363  -1.4382  -1.3842  -1.1229  -0.9615  -0.9135
    -0.9135  -0.3801  -0.3801  -0.2700   0.2208   0.6447   0.6447   0.8878
     6.3381   9.5274   9.5274   9.7685   9.7685  10.1983  10.4895  11.6331
    11.6331  11.8465  11.8809  12.0286  12.3631  12.9577  12.9577  13.3974
    13.3974  13.7663  14.1114  14.5424  14.9172  14.9172  14.9896  16.1506
    16.5201  16.8855  17.5301  17.6267  17.6268  18.0284  18.3513  18.3527

     occupation numbers
     1.0000   1.0000   1.0000   1.0000   1.0000   1.0000   1.0000   1.0000
     1.0000   1.0000   1.0000   1.0000   1.0000   1.0000   1.0000   1.0000
     1.0000   1.0000   1.0000   1.0000   1.0000   1.0000   1.0000   1.0000
     1.0000   1.0000   1.0000   1.0000   1.0000   1.0000   1.0000   1.0000
     0.0000   0.0000   0.0000   0.0000   0.0000   0.0000   0.0000   0.0000
     0.0000   0.0000   0.0000   0.0000   0.0000   0.0000   0.0000   0.0000
     0.0000   0.0000   0.0000   0.0000   0.0000   0.0000   0.0000   0.0000
     0.0000   0.0000   0.0000   0.0000   0.0000   0.0000   0.0000   0.0000

[...]

          k = 0.3333 0.3333 0.2388 (  3431 PWs)   bands (ev):

   -18.0587 -17.8954 -17.4222 -17.2247 -16.5921 -16.5871 -16.5838 -16.5803
    -7.4469  -7.0794  -6.0223  -5.6962  -4.3926  -4.3337  -4.3044  -4.2218
    -2.1793  -2.0072  -1.7470  -1.6850  -1.5509  -1.3683  -1.0347  -0.7824
    -0.7573  -0.5929  -0.3455  -0.1674  -0.1059   0.2070   0.4998   0.5729
     8.5459   9.2392   9.7989  10.0716  10.2606  10.4144  10.6050  10.6615
    11.0537  11.2447  11.6987  11.9939  12.4595  12.7990  13.3707  13.5928
    13.7319  14.0408  14.4275  14.4455  14.9296  14.9701  15.8166  16.0795
    16.1909  17.0527  17.1452  17.2918  18.1485  18.2878  18.4017  18.7441

     occupation numbers
     1.0000   1.0000   1.0000   1.0000   1.0000   1.0000   1.0000   1.0000
     1.0000   1.0000   1.0000   1.0000   1.0000   1.0000   1.0000   1.0000
     1.0000   1.0000   1.0000   1.0000   1.0000   1.0000   1.0000   1.0000
     1.0000   1.0000   1.0000   1.0000   1.0000   1.0000   1.0000   1.0000
     0.0000   0.0000   0.0000   0.0000   0.0000   0.0000   0.0000   0.0000
     0.0000   0.0000   0.0000   0.0000   0.0000   0.0000   0.0000   0.0000
     0.0000   0.0000   0.0000   0.0000   0.0000   0.0000   0.0000   0.0000
     0.0000   0.0000   0.0000   0.0000   0.0000   0.0000   0.0000   0.0000

     highest occupied, lowest unoccupied level (ev):     0.8878    6.3381

!    total energy              =    -379.80808335 Ry
     estimated scf accuracy    <       0.00000080 Ry

     The total energy is the sum of the following terms:
     one-electron contribution =    -190.51918634 Ry
     hartree contribution      =     126.29318382 Ry
     xc contribution           =     -85.61761266 Ry
     ewald contribution        =    -153.93051607 Ry
     one-center paw contrib.   =     -76.03395211 Ry
      -> PAW hartree energy AE =       0.00000000 Ry
      -> PAW hartree energy PS =       0.00000000 Ry
      -> PAW xc energy AE      =       0.00000000 Ry
      -> PAW xc energy PS      =       0.00000000 Ry
      -> total E_H with PAW    =     126.29318382 Ry
      -> total E_XC with PAW   =     -85.61761266 Ry

     convergence has been achieved in   6 iterations

     Writing all to output data dir bands_nm/myprefix.save/

     General routines

     Parallel routines

     PAW routines

   This run was terminated on:  15:40:33  16Jul2023

   JOB DONE.