     Program PWSCF v.7.1 starts on 15Jul2023 at 14:21:57

     Reading input from espresso_9592.pwi
Warning: card &CELL ignored
Warning: card / ignored

     Current dimensions of program PWSCF are:
     Max number of different atomic species (ntypx) = 10
     Max number of k-points (npk) =  40000
     Max angular momentum in pseudopotentials (lmaxx) =  4
     file Eu.paw.z_17.atompaw.wentzcovitch.v1.2.upf: wavefunction(s)  6S 0P 5D 0D 4F 0F renormalized
     file Nb.pbe-spn-kjpaw_psl.0.3.0.UPF: wavefunction(s)  4S 4P renormalized
     file O.pbe-n-kjpaw_psl.0.1.UPF: wavefunction(s)  2P renormalized
     Message from routine setup:
     the system is metallic, specify occupations
     Message from routine setup:
     using ibrav=0 with symmetry is DISCOURAGED, use correct ibrav instead

     K-points division:     npool     =       2
     R & G space division:  proc/nbgrp/npool/nimage =       4
     Subspace diagonalization in iterative solution of the eigenvalue problem:
     a serial algorithm will be used

     Using Slab Decomposition

     bravais-lattice index     =            0
     lattice parameter (alat)  =      10.8501  a.u.
     unit-cell volume          =     903.2104 (a.u.)^3
     number of atoms/cell      =           10
     number of atomic types    =            5
     number of electrons       =        89.00 (up:  48.00, down:  41.00)
     number of Kohn-Sham states=           64
     kinetic-energy cutoff     =      30.0000  Ry
     charge density cutoff     =     240.0000  Ry
     scf convergence threshold =      1.0E-06
     mixing beta               =       0.7000
     number of iterations used =            8  plain     mixing
     Exchange-correlation= SLA  PW   PBX  PBC
                           (   1   4   3   4   0   0   0)

     celldm(1)=  10.850123  celldm(2)=   0.000000  celldm(3)=   0.000000
     celldm(4)=   0.000000  celldm(5)=   0.000000  celldm(6)=   0.000000

     crystal axes: (cart. coord. in units of alat)
               a(1) = (   1.000000   0.000000   0.000000 )
               a(2) = (   0.500000   0.866025   0.000000 )
               a(3) = (   0.500000   0.288675   0.816497 )

     reciprocal axes: (cart. coord. in units 2 pi/alat)
               b(1) = (  1.000000 -0.577350 -0.408248 )
               b(2) = (  0.000000  1.154701 -0.408248 )
               b(3) = (  0.000000  0.000000  1.224745 )

     PseudoPot. # 1 for Na read from file:
     /lustre07/scratch/pragov/crystal_structure_design/utils/SSSP/na_pbe_v1.5.uspp.F.UPF
     MD5 check sum: 44600605ef58000f06b90626533354dc
     Pseudo is Ultrasoft, Zval =  9.0
     Generated by new atomic code, or converted to UPF format
     Using radial grid of  819 points,  5 beta functions with:
                l(1) =   0
                l(2) =   0
                l(3) =   1
                l(4) =   1
                l(5) =   2
     Q(r) pseudized with  8 coefficients,  rinner =    1.250   1.250   1.250
                                                       1.250   1.250

     PseudoPot. # 2 for Eu read from file:
     /lustre07/scratch/pragov/crystal_structure_design/utils/SSSP/Eu.paw.z_17.atompaw.wentzcovitch.v1.2.upf
     MD5 check sum: 52b6e423bc4e840b6e0dc4248fa51623
     Pseudo is Projector augmented-wave + core cor, Zval = 17.0
     Generated using ATOMPAW code
     Shape of augmentation charge: BESSEL
     Using radial grid of 1109 points,  8 beta functions with:
                l(1) =   0
                l(2) =   0
                l(3) =   1
                l(4) =   1
                l(5) =   2
                l(6) =   2
                l(7) =   3
                l(8) =   3
     Q(r) pseudized with 0 coefficients

     PseudoPot. # 3 for Nb read from file:
     /lustre07/scratch/pragov/crystal_structure_design/utils/SSSP/Nb.pbe-spn-kjpaw_psl.0.3.0.UPF
     MD5 check sum: 411d72ad547312f8017e2943ceca08cc
     Pseudo is Projector augmented-wave + core cor, Zval = 13.0
     Generated using "atomic" code by A. Dal Corso  v.5.0.99 svn rev. 10869
     Shape of augmentation charge: PSQ
     Using radial grid of 1227 points,  6 beta functions with:
                l(1) =   0
                l(2) =   0
                l(3) =   1
                l(4) =   1
                l(5) =   2
                l(6) =   2
     Q(r) pseudized with 0 coefficients

     PseudoPot. # 4 for Sn read from file:
     /lustre07/scratch/pragov/crystal_structure_design/utils/SSSP/Sn_pbe_v1.uspp.F.UPF
     MD5 check sum: 4cf58ce39ec5d5d420df3dd08604eb00
     Pseudo is Ultrasoft + core correction, Zval = 14.0
     Generated by new atomic code, or converted to UPF format
     Using radial grid of  891 points,  6 beta functions with:
                l(1) =   0
                l(2) =   0
                l(3) =   1
                l(4) =   1
                l(5) =   2
                l(6) =   2
     Q(r) pseudized with  6 coefficients,  rinner =    1.200   1.200   1.200
                                                       1.200   1.200

     PseudoPot. # 5 for O  read from file:
     /lustre07/scratch/pragov/crystal_structure_design/utils/SSSP/O.pbe-n-kjpaw_psl.0.1.UPF
     MD5 check sum: 0234752ac141de4415c5fc33072bef88
     Pseudo is Projector augmented-wave + core cor, Zval =  6.0
     Generated using "atomic" code by A. Dal Corso  v.5.0.99 svn rev. 10869
     Shape of augmentation charge: BESSEL
     Using radial grid of 1095 points,  4 beta functions with:
                l(1) =   0
                l(2) =   0
                l(3) =   1
                l(4) =   1
     Q(r) pseudized with 0 coefficients

     atomic species   valence    mass     pseudopotential
        Na             9.00    22.98977     Na( 1.00)
        Eu            17.00   151.96400     Eu( 1.00)
        Nb            13.00    92.90637     Nb( 1.00)
        Sn            14.00   118.71000     Sn( 1.00)
        O              6.00    15.99900     O ( 1.00)

     Starting magnetic structure
     atomic species   magnetization
        Na           0.000
        Eu           0.000
        Nb           0.000
        Sn           0.000
        O            0.000

      6 Sym. Ops. (no inversion) found

                                    s                        frac. trans.

      isym =  1     identity

 cryst.   s( 1) = (     1          0          0      )
                  (     0          1          0      )
                  (     0          0          1      )

 cart.    s( 1) = (  1.0000000  0.0000000 -0.0000000 )
                  (  0.0000000  1.0000000  0.0000000 )
                  (  0.0000000  0.0000000  1.0000000 )

      isym =  2     120 deg rotation - cryst. axis [0,0,1]

[...]

      isym =  3     120 deg rotation - cryst. axis [0,0,-1]

[...]

      isym =  4     inv. 180 deg rotation - cart. axis [1,0,0]

[...]

      isym =  5     inv. 180 deg rotation - cryst. axis [0,1,0]

[...]

      isym =  6     inv. 180 deg rotation - cryst. axis [1,1,0]

 cryst.   s( 6) = (     1         -1          0      )
                  (     0         -1          0      )
                  (     0         -1          1      )

 cart.    s( 6) = (  0.5000000 -0.8660254 -0.0000000 )
                  ( -0.8660254 -0.5000000 -0.0000000 )
                  (  0.0000000  0.0000000  1.0000000 )

   Cartesian axes

     site n.     atom                  positions (alat units)
         1           Na  tau(   1) = (   0.5000000   0.2886751   0.2041241  )
         2           Eu  tau(   2) = (   1.5000000   0.8660254   0.6123724  )
         3           Nb  tau(   3) = (   0.0000000   0.0000000   0.0000000  )
         4           Sn  tau(   4) = (   1.0000000   0.5773503   0.4082483  )
         5           O   tau(   5) = (   1.0000000   0.2847373   0.2013397  )
         6           O   tau(   6) = (   1.0000000   0.8699632   0.6151569  )
         7           O   tau(   7) = (   1.2534102   0.4310438   0.6151569  )
         8           O   tau(   8) = (   0.7465898   0.7236567   0.2013397  )
         9           O   tau(   9) = (   1.2534102   0.7236567   0.2013397  )
        10           O   tau(  10) = (   0.7465898   0.4310438   0.6151569  )

   Crystallographic axes

     site n.     atom                  positions (cryst. coord.)
         1           Na  tau(   1) = (  0.2500000  0.2500000  0.2500000  )
         2           Eu  tau(   2) = (  0.7500000  0.7500000  0.7500000  )
         3           Nb  tau(   3) = (  0.0000000  0.0000000  0.0000000  )
         4           Sn  tau(   4) = (  0.5000000  0.5000000  0.5000000  )
         5           O   tau(   5) = (  0.7534102  0.2465897  0.2465898  )
         6           O   tau(   6) = (  0.2465897  0.7534102  0.7534103  )
         7           O   tau(   7) = (  0.7534102  0.2465897  0.7534103  )
         8           O   tau(   8) = (  0.2465897  0.7534103  0.2465898  )
         9           O   tau(   9) = (  0.7534102  0.7534103  0.2465898  )
        10           O   tau(  10) = (  0.2465898  0.2465897  0.7534103  )

     number of k points=     6
                       cart. coord. in units 2pi/alat
        k(    1) = (   0.0000000   0.0000000   0.0000000), wk =   0.0370370
        k(    2) = (   0.0000000   0.0000000   0.4082483), wk =   0.0740741
        k(    3) = (   0.0000000   0.3849002  -0.1360828), wk =   0.2222222
        k(    4) = (   0.0000000   0.3849002   0.2721655), wk =   0.2222222
        k(    5) = (   0.0000000   0.3849002  -0.5443311), wk =   0.2222222
        k(    6) = (   0.3333333  -0.5773503  -0.0000000), wk =   0.2222222

                       cryst. coord.
        k(    1) = (   0.0000000   0.0000000   0.0000000), wk =   0.0370370
        k(    2) = (   0.0000000   0.0000000   0.3333333), wk =   0.0740741
        k(    3) = (   0.0000000   0.3333333   0.0000000), wk =   0.2222222
        k(    4) = (   0.0000000   0.3333333   0.3333333), wk =   0.2222222
        k(    5) = (   0.0000000   0.3333333  -0.3333333), wk =   0.2222222
        k(    6) = (   0.3333333  -0.3333333   0.0000000), wk =   0.2222222

     Check: negative core charge=   -0.000014
     Generating pointlists ...
     new r_m :   0.2063 (alat units)  2.2379 (a.u.) for type    1
     new r_m :   0.2063 (alat units)  2.2379 (a.u.) for type    2
     new r_m :   0.1439 (alat units)  1.5608 (a.u.) for type    3
     new r_m :   0.1478 (alat units)  1.6040 (a.u.) for type    4
     new r_m :   0.1439 (alat units)  1.5608 (a.u.) for type    5

     Initial potential from superposition of free atoms

     starting charge      87.9868, renormalised to      89.0000
     Starting wfcs are   80 randomized atomic wfcs
     Checking if some PAW data can be deallocated...

     Self-consistent Calculation

     iteration #  1     ecut=    30.00 Ry     beta= 0.70
     Davidson diagonalization with overlap

     ethr =  1.00E-02,  avg # of iterations =  4.5

     total energy              =   -1483.95262417 Ry
     estimated scf accuracy    <       4.59372970 Ry

     total magnetization       =     7.00 Bohr mag/cell
     absolute magnetization    =     7.00 Bohr mag/cell

[...]

     total energy              =   -1485.81830039 Ry
     estimated scf accuracy    <       0.00000256 Ry

[...]

     iteration # 17     ecut=    30.00 Ry     beta= 0.70
     Davidson diagonalization with overlap

     ethr =  2.87E-09,  avg # of iterations =  1.5

     Magnetic moment per site  (integrated on atomic sphere of radius R)
     atom   1 (R=0.206)  charge=  8.1034  magn=  0.0006
     atom   2 (R=0.206)  charge= 14.3826  magn=  6.7315
     atom   3 (R=0.144)  charge=  8.0541  magn=  0.0621
     atom   4 (R=0.148)  charge=  9.6962  magn=  0.0013
     atom   5 (R=0.144)  charge=  5.5070  magn= -0.0059
     atom   6 (R=0.144)  charge=  5.5070  magn= -0.0059
     atom   7 (R=0.144)  charge=  5.5070  magn= -0.0059
     atom   8 (R=0.144)  charge=  5.5070  magn= -0.0059
     atom   9 (R=0.144)  charge=  5.5070  magn= -0.0059
     atom  10 (R=0.144)  charge=  5.5070  magn= -0.0059

     End of self-consistent calculation

 ------ SPIN UP ------------

          k = 0.0000 0.0000 0.0000 (  2445 PWs)   bands (ev):

   -46.0632 -41.3160 -30.0861 -22.2141 -22.2141 -22.2141 -13.2141 -13.2141
   -13.2141 -11.6477 -11.6477 -11.0649 -11.0649 -11.0649  -9.0000  -8.9314
    -8.9314  -8.9314  -7.5875  -7.5875  -7.5875  -7.1680  -7.1680   1.6790
     5.1178   5.1178   5.1178   5.1900   5.1900   5.1900   5.4055   5.4055
     7.6681   7.6681   7.6681   7.8576   7.8576   7.8576   8.7972   8.7972
     8.7972  11.6537  11.6537  11.6538  11.6612  11.7546  11.7546  11.7546
    12.1168  12.1168  12.1168  12.5747  14.2554  14.2554  14.6182  14.6182
    14.6182  15.0014  16.5207  17.3658  17.3658  19.3128  19.3128  19.3128

     occupation numbers
     1.0000   1.0000   1.0000   1.0000   1.0000   1.0000   1.0000   1.0000
     1.0000   1.0000   1.0000   1.0000   1.0000   1.0000   1.0000   1.0000
     1.0000   1.0000   1.0000   1.0000   1.0000   1.0000   1.0000   1.0000
     1.0000   1.0000   1.0000   1.0000   1.0000   1.0000   1.0000   1.0000
     1.0000   1.0000   1.0000   1.0000   1.0000   1.0000   1.0000   1.0000
     1.0000   1.0000   1.0000   1.0000   1.0000   1.0000   1.0000   1.0000
     0.0000   0.0000   0.0000   0.0000   0.0000   0.0000   0.0000   0.0000
     0.0000   0.0000   0.0000   0.0000   0.0000   0.0000   0.0000   0.0000

[...]

 ------ SPIN DOWN ----------

[...]

          k = 0.3333-0.5774-0.0000 (  2512 PWs)   bands (ev):

   -45.9867 -41.3170 -27.0305 -22.1298 -22.1293 -22.1286 -13.2213 -13.2209
   -13.2206 -11.6515 -11.6293 -11.0596 -11.0593 -11.0579  -8.7638  -8.3159
    -8.0684  -7.6841  -7.1769  -6.9514  -6.3470  -6.3367  -6.3067   1.9677
     4.0114   4.3414   5.0622   5.2607   5.7105   5.8944   6.2402   6.8018
     6.8138   7.0185   7.1404   7.1910   7.2047   7.8467   7.9315   8.0422
     8.4281  12.4146  12.7790  12.9047  13.1757  15.7384  15.9471  16.0925
    16.2009  16.2382  16.2602  16.2808  16.3177  16.3450  16.3806  16.4853
    16.8582  16.9992  17.1322  17.5379  18.2158  18.3207  19.3738  20.0503

     occupation numbers
     1.0000   1.0000   1.0000   1.0000   1.0000   1.0000   1.0000   1.0000
     1.0000   1.0000   1.0000   1.0000   1.0000   1.0000   1.0000   1.0000
     1.0000   1.0000   1.0000   1.0000   1.0000   1.0000   1.0000   1.0000
     1.0000   1.0000   1.0000   1.0000   1.0000   1.0000   1.0000   1.0000
     1.0000   1.0000   1.0000   1.0000   1.0000   1.0000   1.0000   1.0000
     1.0000   0.0000   0.0000   0.0000   0.0000   0.0000   0.0000   0.0000
     0.0000   0.0000   0.0000   0.0000   0.0000   0.0000   0.0000   0.0000
     0.0000   0.0000   0.0000   0.0000   0.0000   0.0000   0.0000   0.0000

     highest occupied, lowest unoccupied level (ev):    11.7546   12.1168

!    total energy              =   -1485.81830068 Ry
     estimated scf accuracy    <       0.00000002 Ry

     The total energy is the sum of the following terms:
     one-electron contribution =    -260.43539429 Ry
     hartree contribution      =     190.67656259 Ry
     xc contribution           =    -157.17563997 Ry
     ewald contribution        =    -536.52040247 Ry
     one-center paw contrib.   =    -722.36342655 Ry
      -> PAW hartree energy AE =     159.45814126 Ry
      -> PAW hartree energy PS =    -152.30703187 Ry
      -> PAW xc energy AE      =    -484.26522632 Ry
      -> PAW xc energy PS      =      20.37046190 Ry
      -> total E_H with PAW    =     197.82767198 Ry
      -> total E_XC with PAW   =    -621.07040439 Ry

     total magnetization       =     7.00 Bohr mag/cell
     absolute magnetization    =     7.08 Bohr mag/cell

     convergence has been achieved in  17 iterations

     Writing all to output data dir bands_nm/myprefix.save/

     General routines

     Parallel routines

     PAW routines

   This run was terminated on:  14:22:26  15Jul2023

   JOB DONE.