     Program PWSCF v.7.1 starts on 15Jul2023 at 18:54:15

     Reading input from espresso_15021.pwi
Warning: card &CELL ignored
Warning: card / ignored

     Current dimensions of program PWSCF are:
     Max number of different atomic species (ntypx) = 10
     Max number of k-points (npk) =  40000
     Max angular momentum in pseudopotentials (lmaxx) =  4
     file Cu.paw.z_11.ld1.psl.v1.0.0-low.upf: wavefunction(s)  4S 3D renormalized
     Message from routine setup:
     using ibrav=0 with symmetry is DISCOURAGED, use correct ibrav instead

     K-points division:     npool     =       2
     R & G space division:  proc/nbgrp/npool/nimage =       4
     Subspace diagonalization in iterative solution of the eigenvalue problem:
     one sub-group per band group will be used

     Using Slab Decomposition

     bravais-lattice index     =            0
     lattice parameter (alat)  =       7.8754  a.u.
     unit-cell volume          =    3612.5361 (a.u.)^3
     number of atoms/cell      =           20
     number of atomic types    =            3
     number of electrons       =       180.00
     number of Kohn-Sham states=          256
     kinetic-energy cutoff     =      30.0000  Ry
     charge density cutoff     =     240.0000  Ry
     scf convergence threshold =      1.0E-06
     mixing beta               =       0.7000
     number of iterations used =            8  plain     mixing
     Exchange-correlation=  SLA  PW   PBX  PBC
                           (   1   4   3   4   0   0   0)

     celldm(1)=   7.875446  celldm(2)=   0.000000  celldm(3)=   0.000000
     celldm(4)=   0.000000  celldm(5)=   0.000000  celldm(6)=   0.000000

     crystal axes: (cart. coord. in units of alat)
               a(1) = (   1.000000   0.000000   0.000000 )
               a(2) = (  -0.392910   2.173579   0.000000 )
               a(3) = (   0.000000   0.000000   3.402603 )

     reciprocal axes: (cart. coord. in units 2 pi/alat)
               b(1) = (  1.000000  0.180766  0.000000 )
               b(2) = (  0.000000  0.460071  0.000000 )
               b(3) = (  0.000000  0.000000  0.293893 )

     PseudoPot. # 1 for Tl read from file:
     /lustre07/scratch/pragov/crystal_structure_design/utils/SSSP/Tl_pbe_v1.2.uspp.F.UPF
     MD5 check sum: b76cf1f7e72655a2b2c53cf6385d7059
     Pseudo is Ultrasoft + core correction, Zval = 13.0
     Generated by new atomic code, or converted to UPF format
     Using radial grid of  899 points,  6 beta functions with:
                l(1) =   0
                l(2) =   0
                l(3) =   1
                l(4) =   1
                l(5) =   2
                l(6) =   2
     Q(r) pseudized with  6 coefficients,  rinner =    1.100   1.100   1.100
                                                       1.100   1.100

     PseudoPot. # 2 for Cu read from file:
     /lustre07/scratch/pragov/crystal_structure_design/utils/SSSP/Cu.paw.z_11.ld1.psl.v1.0.0-low.upf
     MD5 check sum: 619f40885d92a09a85a8b37550532d0c
     Pseudo is Projector augmented-wave + core cor, Zval = 11.0
     Generated using &quot;atomic&quot; code by A. Dal Corso  v.6.3MaX
     Shape of augmentation charge: PSQ
     Using radial grid of 1199 points,  6 beta functions with:
                l(1) =   0
                l(2) =   0
                l(3) =   1
                l(4) =   1
                l(5) =   2
                l(6) =   2
     Q(r) pseudized with 0 coefficients

     PseudoPot. # 3 for Cl read from file:
     /lustre07/scratch/pragov/crystal_structure_design/utils/SSSP/cl_pbe_v1.4.uspp.F.UPF
     MD5 check sum: fc6f6913ecf08c9257cb748ef0700058
     Pseudo is Ultrasoft + core correction, Zval =  7.0
     Generated by new atomic code, or converted to UPF format
     Using radial grid of  909 points,  6 beta functions with:
                l(1) =   0
                l(2) =   0
                l(3) =   1
                l(4) =   1
                l(5) =   2
                l(6) =   2
     Q(r) pseudized with  8 coefficients,  rinner =    1.300   1.300   1.300
                                                       1.300   1.300

     atomic species   valence    mass     pseudopotential
        Tl            13.00   204.38000     Tl( 1.00)
        Cu            11.00    63.54600     Cu( 1.00)
        Cl             7.00    35.45000     Cl( 1.00)

      4 Sym. Ops., with inversion, found ( 2 have fractional translation)

                                    s                        frac. trans.

      isym =  1     identity

 cryst.   s( 1) = (     1          0          0      )
                  (     0          1          0      )
                  (     0          0          1      )

 cart.    s( 1) = (  1.0000000  0.0000000  0.0000000 )
                  (  0.0000000  1.0000000  0.0000000 )
                  (  0.0000000  0.0000000  1.0000000 )

      isym =  2     180 deg rotation - cart. axis [0,0,1]

 cryst.   s( 2) = (    -1          0          0      )    f =(  0.0000000 )
                  (     0         -1          0      )       ( -0.5000000 )
                  (     0          0          1      )       (  0.5000000 )

 cart.    s( 2) = ( -1.0000000  0.0000000  0.0000000 )    f =(  0.1964550 )
                  (  0.0000000 -1.0000000  0.0000000 )       ( -1.0867894 )
                  (  0.0000000  0.0000000  1.0000000 )       (  1.7013015 )

      isym =  3     inversion

 cryst.   s( 3) = (    -1          0          0      )
                  (     0         -1          0      )
                  (     0          0         -1      )

 cart.    s( 3) = ( -1.0000000  0.0000000  0.0000000 )
                  (  0.0000000 -1.0000000  0.0000000 )
                  (  0.0000000  0.0000000 -1.0000000 )

      isym =  4     inv. 180 deg rotation - cart. axis [0,0,1]

 cryst.   s( 4) = (     1          0          0      )    f =(  0.0000000 )
                  (     0          1          0      )       (  0.5000000 )
                  (     0          0         -1      )       (  0.5000000 )

 cart.    s( 4) = (  1.0000000  0.0000000  0.0000000 )    f =( -0.1964550 )
                  (  0.0000000  1.0000000  0.0000000 )       (  1.0867894 )
                  (  0.0000000  0.0000000 -1.0000000 )       (  1.7013015 )

   Cartesian axes

     site n.     atom                  positions (alat units)
         1           Tl  tau(   1) = (  -0.1275068   2.0579031   2.2718364  )
         2           Tl  tau(   2) = (   0.5381417   1.2024651   0.5705349  )
         3           Tl  tau(   3) = (   0.7345967   0.1156757   1.1307666  )
         4           Tl  tau(   4) = (   0.0689483   0.9711137   2.8320681  )
         5           Cu  tau(   5) = (   0.6170575   0.7609960   1.8657085  )
         6           Cu  tau(   6) = (   0.1864875   0.3257934   0.1644070  )
         7           Cu  tau(   7) = (  -0.0099675   1.4125827   1.5368945  )
         8           Cu  tau(   8) = (   0.4206025   1.8477854   3.2381960  )
         9           Cl  tau(   9) = (   0.6235118   0.5304923   2.3586708  )
        10           Cl  tau(  10) = (   0.1800332   0.5562971   0.6573693  )
        11           Cl  tau(  11) = (  -0.0164218   1.6430864   1.0439322  )
        12           Cl  tau(  12) = (   0.4270568   1.6172817   2.7452337  )
        13           Cl  tau(  13) = (   0.2458551   0.3910181   1.6756153  )
        14           Cl  tau(  14) = (   0.5576899   0.6957713   3.3769168  )
        15           Cl  tau(  15) = (   0.3612349   1.7825606   1.7269878  )
        16           Cl  tau(  16) = (   0.0494000   1.4778075   0.0256863  )
        17           Cl  tau(  17) = (  -0.0210687   1.1531161   2.0239601  )
        18           Cl  tau(  18) = (   0.4317036   2.1072520   0.3226586  )
        19           Cl  tau(  19) = (   0.6281586   1.0204626   1.3786429  )
        20           Cl  tau(  20) = (   0.1753864   0.0663268   3.0799444  )

   Crystallographic axes

     site n.     atom                  positions (cryst. coord.)
         1           Tl  tau(   1) = (  0.2444930  0.9467810  0.6676760  )
         2           Tl  tau(   2) = (  0.7555070  0.5532190  0.1676760  )
         3           Tl  tau(   3) = (  0.7555070  0.0532190  0.3323240  )
         4           Tl  tau(   4) = (  0.2444930  0.4467810  0.8323240  )
         5           Cu  tau(   5) = (  0.7546200  0.3501120  0.5483180  )
         6           Cu  tau(   6) = (  0.2453800  0.1498880  0.0483180  )
         7           Cu  tau(   7) = (  0.2453800  0.6498880  0.4516820  )
         8           Cu  tau(   8) = (  0.7546200  0.8501120  0.9516820  )
         9           Cl  tau(   9) = (  0.7194070  0.2440640  0.6931960  )
        10           Cl  tau(  10) = (  0.2805930  0.2559360  0.1931960  )
        11           Cl  tau(  11) = (  0.2805930  0.7559360  0.3068040  )
        12           Cl  tau(  12) = (  0.7194070  0.7440640  0.8068040  )
        13           Cl  tau(  13) = (  0.3165380  0.1798960  0.4924510  )
        14           Cl  tau(  14) = (  0.6834620  0.3201040  0.9924510  )
        15           Cl  tau(  15) = (  0.6834620  0.8201040  0.5075490  )
        16           Cl  tau(  16) = (  0.3165380  0.6798960  0.0075490  )
        17           Cl  tau(  17) = (  0.1873760  0.5305150  0.5948270  )
        18           Cl  tau(  18) = (  0.8126240  0.9694850  0.0948270  )
        19           Cl  tau(  19) = (  0.8126240  0.4694850  0.4051730  )
        20           Cl  tau(  20) = (  0.1873760  0.0305150  0.9051730  )

     number of k points=    10
                       cart. coord. in units 2pi/alat
        k(    1) = (   0.0000000   0.0000000   0.0000000), wk =   0.0740741
        k(    2) = (   0.0000000   0.0000000   0.0979642), wk =   0.1481481
        k(    3) = (   0.0000000   0.1533569   0.0000000), wk =   0.1481481
        k(    4) = (   0.0000000   0.1533569   0.0979642), wk =   0.2962963
        k(    5) = (   0.3333333   0.0602555   0.0000000), wk =   0.1481481
        k(    6) = (   0.3333333   0.0602555   0.0979642), wk =   0.2962963
        k(    7) = (   0.3333333   0.2136124   0.0000000), wk =   0.1481481
        k(    8) = (   0.3333333   0.2136124   0.0979642), wk =   0.2962963
        k(    9) = (   0.3333333  -0.0931014   0.0000000), wk =   0.1481481
        k(   10) = (   0.3333333  -0.0931014   0.0979642), wk =   0.2962963

                       cryst. coord.
        k(    1) = (   0.0000000   0.0000000   0.0000000), wk =   0.0740741
        k(    2) = (   0.0000000   0.0000000   0.3333333), wk =   0.1481481
        k(    3) = (   0.0000000   0.3333333   0.0000000), wk =   0.1481481
        k(    4) = (   0.0000000   0.3333333   0.3333333), wk =   0.2962963
        k(    5) = (   0.3333333   0.0000000   0.0000000), wk =   0.1481481
        k(    6) = (   0.3333333   0.0000000   0.3333333), wk =   0.2962963
        k(    7) = (   0.3333333   0.3333333   0.0000000), wk =   0.1481481
        k(    8) = (   0.3333333   0.3333333   0.3333333), wk =   0.2962963
        k(    9) = (   0.3333333  -0.3333333   0.0000000), wk =   0.1481481
        k(   10) = (   0.3333333  -0.3333333   0.3333333), wk =   0.2962963

     Check: negative core charge=   -0.000005

     Initial potential from superposition of free atoms

     starting charge     179.9795, renormalised to     180.0000

     negative rho (up, down):  3.835E-01 0.000E+00
     Starting wfcs are  120 randomized atomic wfcs +  136 random wfcs
     Checking if some PAW data can be deallocated...

     Self-consistent Calculation

     iteration #  1     ecut=    30.00 Ry     beta= 0.70
     Davidson diagonalization with overlap

     ethr =  1.00E-02,  avg # of iterations =  7.0

     Threshold (ethr) on eigenvalues was too large:
     Diagonalizing with lowered threshold

     Davidson diagonalization with overlap

[...]

     negative rho (up, down):  3.876E-01 0.000E+00

     total energy              =   -1832.10802965 Ry
     estimated scf accuracy    <       1.01929874 Ry

[...]

     total energy              =   -1832.66348933 Ry
     estimated scf accuracy    <       0.00000117 Ry

     iteration # 10     ecut=    30.00 Ry     beta= 0.70
     Davidson diagonalization with overlap

     ethr =  6.49E-10,  avg # of iterations =  3.7

     negative rho (up, down):  3.808E-01 0.000E+00

     End of self-consistent calculation

          k = 0.0000 0.0000 0.0000 ( 10001 PWs)   bands (ev):

   -11.4494 -11.4249 -10.8818 -10.8488 -10.6092 -10.5889 -10.5564 -10.5457
   -10.3373 -10.3166 -10.2523 -10.2386  -6.3028  -6.3023  -6.3015  -6.3006
    -6.2337  -6.2333  -6.2304  -6.2302  -6.2164  -6.2156  -6.2098  -6.2058
    -6.2058  -6.2035  -6.1980  -6.1889  -6.1821  -6.1796  -6.1699  -6.1670
    -1.6517  -1.5044  -1.4316  -1.2589  -1.0983  -0.9329  -0.8902  -0.5687
    -0.4197  -0.3410  -0.1731   0.0184   0.0934   0.1499   0.2511   0.2977
     0.4959   0.5834   0.5966   0.6189   0.6522   0.8177   0.9104   1.0182
     1.2487   1.3170   1.3933   1.3957   1.4378   1.5909   1.6388   1.7038
     1.7133   1.7287   1.7430   1.8817   2.0374   2.0474   2.0711   2.1131
     2.1288   2.1322   2.1513   2.1673   2.3076   2.4954   2.5272   2.5282
     2.5463   2.6932   2.7714   2.8421   2.8777   2.8804   3.0334   3.0593
     3.6175   3.6753   3.6970   3.7780   7.4454   7.4928   7.8168   7.9713
     8.0226   8.0873   8.2814   8.5366   9.1295   9.1973   9.2876   9.4863
     9.5787   9.6149   9.6543   9.9099  10.0062  10.0280  10.0787  10.1545
    11.5851  11.8537  11.9572  11.9836  12.4315  12.5382  12.5743  12.6037
    12.6712  12.8590  13.1903  13.2721  13.4799  13.5207  13.5427  13.6321
    13.9288  14.0916  14.1563  14.1910  14.2726  14.3033  14.4869  14.6260
    14.6808  14.7103  14.7376  14.8288  14.9735  15.0589  15.0715  15.2013
    15.2500  15.2580  15.2974  15.4551  15.7796  15.8194  16.0212  16.1262
    16.1486  16.3301  16.4835  16.5225  16.7453  16.9255  17.1463  17.1482
    17.2189  17.3581  17.3606  17.3769  17.4607  17.6404  17.8316  17.8396
    17.8946  17.9439  18.1668  18.2249  18.4470  18.7477  18.8439  18.8465
    18.9758  19.1053  19.1918  19.2686  19.5925  19.6632  19.6969  19.8194
    19.8991  19.9196  20.0045  20.1943  20.4144  20.5342  20.6822  20.8203
    20.9043  20.9471  21.0615  21.1637  21.3293  21.4253  21.6005  21.6783
    21.7349  21.8086  22.0197  22.2044  22.3214  22.5254  22.5621  22.6153
    22.6717  22.7407  22.8227  23.0466  23.0662  23.1707  23.3137  23.6449
    23.8093  23.8211  23.8698  24.0742  24.1475  24.1901  24.3090  24.3245
    24.5155  24.5416  24.5479  24.7040  24.7826  24.9734  25.0628  25.2251
    25.2473  25.6159  25.6475  25.6741  25.7369  25.7659  25.7929  26.2398
    26.2770  26.3963  26.4717  26.4840  26.4942  26.5813  26.6292  26.6991
    26.7654  26.9285  27.0892  27.1218  27.2345  27.2389  27.4991  27.7614

     occupation numbers
     1.0000   1.0000   1.0000   1.0000   1.0000   1.0000   1.0000   1.0000
     1.0000   1.0000   1.0000   1.0000   1.0000   1.0000   1.0000   1.0000
     1.0000   1.0000   1.0000   1.0000   1.0000   1.0000   1.0000   1.0000
     1.0000   1.0000   1.0000   1.0000   1.0000   1.0000   1.0000   1.0000
     1.0000   1.0000   1.0000   1.0000   1.0000   1.0000   1.0000   1.0000
     1.0000   1.0000   1.0000   1.0000   1.0000   1.0000   1.0000   1.0000
     1.0000   1.0000   1.0000   1.0000   1.0000   1.0000   1.0000   1.0000
     1.0000   1.0000   1.0000   1.0000   1.0000   1.0000   1.0000   1.0000
     1.0000   1.0000   1.0000   1.0000   1.0000   1.0000   1.0000   1.0000
     1.0000   1.0000   1.0000   1.0000   1.0000   1.0000   1.0000   1.0000
     1.0000   1.0000   1.0000   1.0000   1.0000   1.0000   1.0000   1.0000
     1.0000   1.0000   0.0000   0.0000   0.0000   0.0000   0.0000   0.0000
     0.0000   0.0000   0.0000   0.0000   0.0000   0.0000   0.0000   0.0000
     0.0000   0.0000   0.0000   0.0000   0.0000   0.0000   0.0000   0.0000
     0.0000   0.0000   0.0000   0.0000   0.0000   0.0000   0.0000   0.0000
     0.0000   0.0000   0.0000   0.0000   0.0000   0.0000   0.0000   0.0000
     0.0000   0.0000   0.0000   0.0000   0.0000   0.0000   0.0000   0.0000
     0.0000   0.0000   0.0000   0.0000   0.0000   0.0000   0.0000   0.0000
     0.0000   0.0000   0.0000   0.0000   0.0000   0.0000   0.0000   0.0000
     0.0000   0.0000   0.0000   0.0000   0.0000   0.0000   0.0000   0.0000
     0.0000   0.0000   0.0000   0.0000   0.0000   0.0000   0.0000   0.0000
     0.0000   0.0000   0.0000   0.0000   0.0000   0.0000   0.0000   0.0000
     0.0000   0.0000   0.0000   0.0000   0.0000   0.0000   0.0000   0.0000
     0.0000   0.0000   0.0000   0.0000   0.0000   0.0000   0.0000   0.0000
     0.0000   0.0000   0.0000   0.0000   0.0000   0.0000   0.0000   0.0000
     0.0000   0.0000   0.0000   0.0000   0.0000   0.0000   0.0000   0.0000
     0.0000   0.0000   0.0000   0.0000   0.0000   0.0000   0.0000   0.0000
     0.0000   0.0000   0.0000   0.0000   0.0000   0.0000   0.0000   0.0000
     0.0000   0.0000   0.0000   0.0000   0.0000   0.0000   0.0000   0.0000
     0.0000   0.0000   0.0000   0.0000   0.0000   0.0000   0.0000   0.0000
     0.0000   0.0000   0.0000   0.0000   0.0000   0.0000   0.0000   0.0000
     0.0000   0.0000   0.0000   0.0000   0.0000   0.0000   0.0000   0.0000

[...]

          k = 0.3333-0.0931 0.0980 ( 10036 PWs)   bands (ev):

   -11.3004 -11.2944 -10.8608 -10.8556 -10.5379 -10.5340 -10.5014 -10.4959
   -10.3084 -10.2998 -10.2530 -10.2480  -6.2525  -6.2514  -6.2488  -6.2481
    -6.2410  -6.2391  -6.2366  -6.2358  -6.2195  -6.2186  -6.2175  -6.2173
    -6.2024  -6.2005  -6.1976  -6.1929  -6.1830  -6.1808  -6.1749  -6.1735
    -1.5013  -1.4648  -1.2741  -1.1849  -0.9341  -0.8137  -0.6612  -0.5314
    -0.4596  -0.4043  -0.1104  -0.0737   0.0279   0.0576   0.1206   0.1501
     0.2397   0.3153   0.4254   0.4956   0.6863   0.7545   0.7911   0.8654
     1.0307   1.0940   1.1999   1.2089   1.3372   1.3777   1.4007   1.4202
     1.5377   1.6030   1.6640   1.6944   1.8930   1.9194   2.0556   2.0682
     2.0733   2.1361   2.1626   2.2300   2.3207   2.3729   2.4129   2.4560
     2.5348   2.5563   2.6895   2.7276   2.7705   2.7776   2.8146   2.8515
     3.5842   3.5994   3.8578   3.8682   7.0798   7.2523   7.5436   7.6178
     8.2231   8.2775   8.3404   8.3768   8.5711   8.6005   8.8532   8.9590
     9.3860   9.4261   9.7131   9.7826  10.4351  10.4740  10.7277  10.7481
    11.8701  12.0076  12.0518  12.0943  12.1770  12.2241  12.2914  12.4120
    12.6917  12.7315  13.0582  13.1064  13.2991  13.3803  13.5814  13.6086
    13.8017  13.9026  14.1337  14.2795  14.3015  14.3814  14.6218  14.7909
    14.8913  15.0342  15.2077  15.3464  15.5565  15.6381  15.7148  15.8877
    15.9337  15.9553  16.0843  16.4285  16.5704  16.5733  16.7314  16.8136
    16.8658  17.0077  17.0970  17.1283  17.2932  17.3316  17.4525  17.5962
    17.7152  17.8205  17.8782  17.9541  17.9866  18.1502  18.2170  18.3207
    18.4773  18.5757  18.8512  18.9044  18.9577  19.1289  19.2362  19.4048
    19.4517  19.4965  19.6412  19.7518  19.7981  20.0234  20.0535  20.1211
    20.2170  20.3316  20.4338  20.4546  20.4834  20.6898  20.7771  20.8828
    20.9911  21.0647  21.1643  21.2539  21.3479  21.3877  21.4344  21.6191
    21.7225  21.7840  21.8856  22.0519  22.0937  22.2617  22.4210  22.4927
    22.6180  22.7513  22.8185  22.9149  22.9675  23.0466  23.1033  23.2898
    23.3238  23.4578  23.5883  23.6731  23.8203  23.8352  24.0291  24.1606
    24.1944  24.3677  24.3929  24.5354  24.6062  24.8558  24.9380  25.0812
    25.1499  25.1880  25.2392  25.3180  25.4429  25.5529  25.7296  25.8005
    25.9129  25.9860  26.0516  26.2575  26.3276  26.5159  26.5556  26.6807
    26.7712  26.8472  26.9238  27.0347  27.0512  27.1286  27.1829  27.2527

     occupation numbers
     1.0000   1.0000   1.0000   1.0000   1.0000   1.0000   1.0000   1.0000
     1.0000   1.0000   1.0000   1.0000   1.0000   1.0000   1.0000   1.0000
     1.0000   1.0000   1.0000   1.0000   1.0000   1.0000   1.0000   1.0000
     1.0000   1.0000   1.0000   1.0000   1.0000   1.0000   1.0000   1.0000
     1.0000   1.0000   1.0000   1.0000   1.0000   1.0000   1.0000   1.0000
     1.0000   1.0000   1.0000   1.0000   1.0000   1.0000   1.0000   1.0000
     1.0000   1.0000   1.0000   1.0000   1.0000   1.0000   1.0000   1.0000
     1.0000   1.0000   1.0000   1.0000   1.0000   1.0000   1.0000   1.0000
     1.0000   1.0000   1.0000   1.0000   1.0000   1.0000   1.0000   1.0000
     1.0000   1.0000   1.0000   1.0000   1.0000   1.0000   1.0000   1.0000
     1.0000   1.0000   1.0000   1.0000   1.0000   1.0000   1.0000   1.0000
     1.0000   1.0000   0.0000   0.0000   0.0000   0.0000   0.0000   0.0000
     0.0000   0.0000   0.0000   0.0000   0.0000   0.0000   0.0000   0.0000
     0.0000   0.0000   0.0000   0.0000   0.0000   0.0000   0.0000   0.0000
     0.0000   0.0000   0.0000   0.0000   0.0000   0.0000   0.0000   0.0000
     0.0000   0.0000   0.0000   0.0000   0.0000   0.0000   0.0000   0.0000
     0.0000   0.0000   0.0000   0.0000   0.0000   0.0000   0.0000   0.0000
     0.0000   0.0000   0.0000   0.0000   0.0000   0.0000   0.0000   0.0000
     0.0000   0.0000   0.0000   0.0000   0.0000   0.0000   0.0000   0.0000
     0.0000   0.0000   0.0000   0.0000   0.0000   0.0000   0.0000   0.0000
     0.0000   0.0000   0.0000   0.0000   0.0000   0.0000   0.0000   0.0000
     0.0000   0.0000   0.0000   0.0000   0.0000   0.0000   0.0000   0.0000
     0.0000   0.0000   0.0000   0.0000   0.0000   0.0000   0.0000   0.0000
     0.0000   0.0000   0.0000   0.0000   0.0000   0.0000   0.0000   0.0000
     0.0000   0.0000   0.0000   0.0000   0.0000   0.0000   0.0000   0.0000
     0.0000   0.0000   0.0000   0.0000   0.0000   0.0000   0.0000   0.0000
     0.0000   0.0000   0.0000   0.0000   0.0000   0.0000   0.0000   0.0000
     0.0000   0.0000   0.0000   0.0000   0.0000   0.0000   0.0000   0.0000
     0.0000   0.0000   0.0000   0.0000   0.0000   0.0000   0.0000   0.0000
     0.0000   0.0000   0.0000   0.0000   0.0000   0.0000   0.0000   0.0000
     0.0000   0.0000   0.0000   0.0000   0.0000   0.0000   0.0000   0.0000
     0.0000   0.0000   0.0000   0.0000   0.0000   0.0000   0.0000   0.0000

     highest occupied, lowest unoccupied level (ev):     3.6758    3.6970

!    total energy              =   -1832.66348972 Ry
     estimated scf accuracy    <       0.00000001 Ry

     The total energy is the sum of the following terms:
     one-electron contribution =    -533.98716332 Ry
     hartree contribution      =     394.00475155 Ry
     xc contribution           =    -539.47105272 Ry
     ewald contribution        =    -793.92332667 Ry
     one-center paw contrib.   =    -359.28669857 Ry
      -> PAW hartree energy AE =       0.00000000 Ry
      -> PAW hartree energy PS =       0.00000000 Ry
      -> PAW xc energy AE      =       0.00000000 Ry
      -> PAW xc energy PS      =       0.00000000 Ry
      -> total E_H with PAW    =     394.00475155 Ry
      -> total E_XC with PAW   =    -539.47105272 Ry

     convergence has been achieved in  10 iterations

     Writing all to output data dir bands_nm/myprefix.save/

     General routines

     Parallel routines

     PAW routines

   This run was terminated on:  18:55:58  15Jul2023

   JOB DONE.