     Program PWSCF v.7.1 starts on 15Jul2023 at 22:22:49

     Reading input from espresso_7353.pwi
Warning: card &CELL ignored
Warning: card / ignored

     Current dimensions of program PWSCF are:
     Max number of different atomic species (ntypx) = 10
     Max number of k-points (npk) =  40000
     Max angular momentum in pseudopotentials (lmaxx) =  4
     file Pb.pbe-dn-kjpaw_psl.0.2.2.UPF: wavefunction(s)  6S renormalized
     file O.pbe-n-kjpaw_psl.0.1.UPF: wavefunction(s)  2P renormalized
     Message from routine setup:
     using ibrav=0 with symmetry is DISCOURAGED, use correct ibrav instead

     K-points division:     npool     =       2
     R & G space division:  proc/nbgrp/npool/nimage =       4
     Subspace diagonalization in iterative solution of the eigenvalue problem:
     one sub-group per band group will be used

     Using Slab Decomposition

     bravais-lattice index     =            0
     lattice parameter (alat)  =      14.7187  a.u.
     unit-cell volume          =    1592.1764 (a.u.)^3
     number of atoms/cell      =           20
     number of atomic types    =            4
     number of electrons       =       164.00
     number of Kohn-Sham states=          256
     kinetic-energy cutoff     =      30.0000  Ry
     charge density cutoff     =     240.0000  Ry
     scf convergence threshold =      1.0E-06
     mixing beta               =       0.7000
     number of iterations used =            8  plain     mixing
     Exchange-correlation= SLA  PW   PBX  PBC
                           (   1   4   3   4   0   0   0)

     celldm(1)=  14.718682  celldm(2)=   0.000000  celldm(3)=   0.000000
     celldm(4)=   0.000000  celldm(5)=   0.000000  celldm(6)=   0.000000

     crystal axes: (cart. coord. in units of alat)
               a(1) = (   1.000000   0.000000   0.000000 )
               a(2) = (   0.000000   0.703316   0.000000 )
               a(3) = (   0.000000   0.002639   0.709960 )

     reciprocal axes: (cart. coord. in units 2 pi/alat)
               b(1) = (  1.000000  0.000000  0.000000 )
               b(2) = (  0.000000  1.421836 -0.005285 )
               b(3) = (  0.000000  0.000000  1.408530 )

     PseudoPot. # 1 for Ca read from file:
     /lustre07/scratch/pragov/crystal_structure_design/utils/SSSP/Ca_pbe_v1.uspp.F.UPF
     MD5 check sum: 403a4c14b9e4d4dfdc3024c9a3812218
     Pseudo is Ultrasoft + core correction, Zval = 10.0
     Generated by new atomic code, or converted to UPF format
     Using radial grid of  845 points,  6 beta functions with:
                l(1) =   0
                l(2) =   0
                l(3) =   1
                l(4) =   1
                l(5) =   2
                l(6) =   2
     Q(r) pseudized with  8 coefficients,  rinner =    1.500   1.500   1.500
                                                       1.500   1.500

     PseudoPot. # 2 for Ti read from file:
     /lustre07/scratch/pragov/crystal_structure_design/utils/SSSP/ti_pbe_v1.4.uspp.F.UPF
     MD5 check sum: 88a00a6731bd790ddea75d31a80cb452
     Pseudo is Ultrasoft + core correction, Zval = 12.0
     Generated by new atomic code, or converted to UPF format
     Using radial grid of  851 points,  6 beta functions with:
                l(1) =   0
                l(2) =   0
                l(3) =   1
                l(4) =   1
                l(5) =   2
                l(6) =   2
     Q(r) pseudized with  6 coefficients,  rinner =    1.000   1.000   1.000
                                                       1.000   1.000

     PseudoPot. # 3 for Pb read from file:
     /lustre07/scratch/pragov/crystal_structure_design/utils/SSSP/Pb.pbe-dn-kjpaw_psl.0.2.2.UPF
     MD5 check sum: 9d431e6316058b74ade52399a6cf67da
     Pseudo is Projector augmented-wave + core cor, Zval = 14.0
     Generated using "atomic" code by A. Dal Corso  v.5.0.99 svn rev. 10869
     Shape of augmentation charge: PSQ
     Using radial grid of 1281 points,  6 beta functions with:
                l(1) =   0
                l(2) =   0
                l(3) =   1
                l(4) =   1
                l(5) =   2
                l(6) =   2
     Q(r) pseudized with 0 coefficients

     PseudoPot. # 4 for O  read from file:
     /lustre07/scratch/pragov/crystal_structure_design/utils/SSSP/O.pbe-n-kjpaw_psl.0.1.UPF
     MD5 check sum: 0234752ac141de4415c5fc33072bef88
     Pseudo is Projector augmented-wave + core cor, Zval =  6.0
     Generated using "atomic" code by A. Dal Corso  v.5.0.99 svn rev. 10869
     Shape of augmentation charge: BESSEL
     Using radial grid of 1095 points,  4 beta functions with:
                l(1) =   0
                l(2) =   0
                l(3) =   1
                l(4) =   1
     Q(r) pseudized with 0 coefficients

     atomic species   valence    mass     pseudopotential
        Ca            10.00    40.07800     Ca( 1.00)
        Ti            12.00    47.86700     Ti( 1.00)
        Pb            14.00   207.20000     Pb( 1.00)
        O              6.00    15.99900     O ( 1.00)

      2 Sym. Ops. (no inversion) found

                                    s                        frac. trans.

      isym =  1     identity

 cryst.   s( 1) = (     1          0          0      )
                  (     0          1          0      )
                  (     0          0          1      )

 cart.    s( 1) = (  1.0000000  0.0000000  0.0000000 )
                  (  0.0000000  1.0000000  0.0000000 )
                  (  0.0000000  0.0000000  1.0000000 )

      isym =  2     inv. 180 deg rotation - cart. axis [1,0,0]

 cryst.   s( 2) = (    -1          0          0      )
                  (     0          1          0      )
                  (     0          0          1      )

 cart.    s( 2) = ( -1.0000000  0.0000000  0.0000000 )
                  (  0.0000000  1.0000000  0.0000000 )
                  (  0.0000000  0.0000000  1.0000000 )

   Cartesian axes

     site n.     atom                  positions (alat units)
         1           Ca  tau(   1) = (   0.5000000   0.7022977   0.3791875  )
         2           Ca  tau(   2) = (   0.0000000   0.3512606   0.6787047  )
         3           Ca  tau(   3) = (   0.0000000   0.0023042   0.3311587  )
         4           Ti  tau(   4) = (   0.2469280   0.3538630   0.3489418  )
         5           Ti  tau(   5) = (   0.7545410   0.7055659   0.7078308  )
         6           Ti  tau(   6) = (   0.7530720   0.3538630   0.3489418  )
         7           Ti  tau(   7) = (   0.2454590   0.7055659   0.7078308  )
         8           Pb  tau(   8) = (   0.5000000   0.3546684   0.0095184  )
         9           O   tau(   9) = (   0.5000000   0.3051272   0.3562565  )
        10           O   tau(  10) = (   0.5000000   0.0352627   0.6940122  )
        11           O   tau(  11) = (   0.0000000   0.4000283   0.3630352  )
        12           O   tau(  12) = (   0.0000000   0.6530473   0.0202473  )
        13           O   tau(  13) = (   0.2686190   0.5056500   0.5590097  )
        14           O   tau(  14) = (   0.7172100   0.5608316   0.2127679  )
        15           O   tau(  15) = (   0.7897440   0.2042465   0.1521203  )
        16           O   tau(  16) = (   0.2102380   0.1505962   0.5080502  )
        17           O   tau(  17) = (   0.2102560   0.2042465   0.1521203  )
        18           O   tau(  18) = (   0.7897620   0.1505962   0.5080502  )
        19           O   tau(  19) = (   0.7313810   0.5056500   0.5590097  )
        20           O   tau(  20) = (   0.2827900   0.5608316   0.2127679  )

   Crystallographic axes

     site n.     atom                  positions (cryst. coord.)
         1           Ca  tau(   1) = (  0.5000000  0.9965480  0.5340970  )
         2           Ca  tau(   2) = (  0.0000000  0.4958480  0.9559760  )
         3           Ca  tau(   3) = (  0.0000000  0.0015260  0.4664470  )
         4           Ti  tau(   4) = (  0.2469280  0.5012910  0.4914950  )
         5           Ti  tau(   5) = (  0.7545410  0.9994580  0.9970010  )
         6           Ti  tau(   6) = (  0.7530720  0.5012910  0.4914950  )
         7           Ti  tau(   7) = (  0.2454590  0.9994580  0.9970010  )
         8           Pb  tau(   8) = (  0.5000000  0.5042300  0.0134070  )
         9           O   tau(   9) = (  0.5000000  0.4319580  0.5017980  )
        10           O   tau(  10) = (  0.5000000  0.0464700  0.9775370  )
        11           O   tau(  11) = (  0.0000000  0.5668560  0.5113460  )
        12           O   tau(  12) = (  0.0000000  0.9284190  0.0285190  )
        13           O   tau(  13) = (  0.2686190  0.7159970  0.7873820  )
        14           O   tau(  14) = (  0.7172100  0.7962860  0.2996900  )
        15           O   tau(  15) = (  0.7897440  0.2896010  0.2142660  )
        16           O   tau(  16) = (  0.2102380  0.2114380  0.7156040  )
        17           O   tau(  17) = (  0.2102560  0.2896010  0.2142660  )
        18           O   tau(  18) = (  0.7897620  0.2114380  0.7156040  )
        19           O   tau(  19) = (  0.7313810  0.7159970  0.7873820  )
        20           O   tau(  20) = (  0.2827900  0.7962860  0.2996900  )

     number of k points=    10
                       cart. coord. in units 2pi/alat
        k(    1) = (   0.0000000   0.0000000   0.0000000), wk =   0.0740741
        k(    2) = (   0.0000000   0.0000000   0.4695100), wk =   0.1481481
        k(    3) = (   0.0000000   0.4739453  -0.0017617), wk =   0.1481481
        k(    4) = (   0.0000000   0.4739453   0.4677484), wk =   0.1481481
        k(    5) = (   0.0000000   0.4739453  -0.4712717), wk =   0.1481481
        k(    6) = (   0.3333333   0.0000000   0.0000000), wk =   0.1481481
        k(    7) = (   0.3333333   0.0000000   0.4695100), wk =   0.2962963
        k(    8) = (   0.3333333   0.4739453  -0.0017617), wk =   0.2962963
        k(    9) = (   0.3333333   0.4739453   0.4677484), wk =   0.2962963
        k(   10) = (   0.3333333   0.4739453  -0.4712717), wk =   0.2962963

                       cryst. coord.
        k(    1) = (   0.0000000   0.0000000   0.0000000), wk =   0.0740741
        k(    2) = (   0.0000000   0.0000000   0.3333333), wk =   0.1481481
        k(    3) = (   0.0000000   0.3333333   0.0000000), wk =   0.1481481
        k(    4) = (   0.0000000   0.3333333   0.3333333), wk =   0.1481481
        k(    5) = (   0.0000000   0.3333333  -0.3333333), wk =   0.1481481
        k(    6) = (   0.3333333   0.0000000   0.0000000), wk =   0.1481481
        k(    7) = (   0.3333333   0.0000000   0.3333333), wk =   0.2962963
        k(    8) = (   0.3333333   0.3333333   0.0000000), wk =   0.2962963
        k(    9) = (   0.3333333   0.3333333   0.3333333), wk =   0.2962963
        k(   10) = (   0.3333333   0.3333333  -0.3333333), wk =   0.2962963

     Check: negative core charge=   -0.000015

     Initial potential from superposition of free atoms

     starting charge     159.9811, renormalised to     164.0000

     negative rho (up, down):  6.032E-03 0.000E+00
     Starting wfcs are  127 randomized atomic wfcs +  129 random wfcs
     Checking if some PAW data can be deallocated...

     Self-consistent Calculation

     iteration #  1     ecut=    30.00 Ry     beta= 0.70
     Davidson diagonalization with overlap

     ethr =  1.00E-02,  avg # of iterations =  6.1

     negative rho (up, down):  8.403E-03 0.000E+00

     total energy              =   -2072.64848320 Ry
     estimated scf accuracy    <       3.04324426 Ry

[...]

     total energy              =   -2074.15357041 Ry
     estimated scf accuracy    <       0.00000145 Ry

     iteration # 13     ecut=    30.00 Ry     beta= 0.70
     Davidson diagonalization with overlap

     ethr =  8.86E-10,  avg # of iterations =  1.1

     negative rho (up, down):  5.526E-03 0.000E+00

     End of self-consistent calculation

          k = 0.0000 0.0000 0.0000 (  4409 PWs)   bands (ev):

   -47.2245 -47.2231 -47.2199 -47.2184 -29.1203 -28.9810 -28.9594 -23.5279
   -23.5246 -23.5191 -23.5188 -23.5060 -23.5042 -23.4625 -23.4591 -23.4568
   -23.4524 -23.4450 -23.4403 -10.3592 -10.2660 -10.2538 -10.2076 -10.1918
   -10.1244 -10.0120 -10.0115 -10.0062  -8.2170  -7.4867  -7.4838  -7.2341
    -7.0915  -7.0603  -7.0090  -6.9809  -6.8903  -6.7849  -6.7430  -6.6008
    -5.4978  -5.4643  -5.4093  -5.3071  -5.3004   2.8288   4.9471   4.9474
     5.0123   5.0605   5.1913   5.2218   5.3574   5.3887   5.4502   5.5921
     6.1639   6.3481   6.4346   6.6839   6.8092   6.8098   6.9260   6.9502
     7.0237   7.1787   7.4467   7.6078   7.6302   7.8448   8.2288   8.2812
     8.5300   8.6188   8.6741   8.7388   8.8050   8.8376   8.8953   8.9123
     8.9439   9.3259  11.3709  11.3971  11.4954  11.5628  12.6359  12.6648
    12.8740  12.9093  12.9698  13.0459  13.2054  13.4445  13.9315  13.9500
    14.0099  14.5103  14.9721  15.6052  15.7088  15.7822  15.9304  15.9803
    15.9862  16.0297  16.1326  16.2874  16.5827  16.6627  16.7166  16.8736
    16.9484  17.0560  17.1290  17.1662  17.2008  17.3396  17.4973  17.5774
    17.6271  19.4014  20.1153  20.5841  21.6993  21.8884  22.5757  22.8176
    22.9249  23.2152  23.3390  23.6371  23.9446  24.3736  24.4770  24.5287
    24.7423  24.7571  24.8624  25.1772  25.2754  25.3943  26.0684  26.0981
    26.3930  26.6888  26.8414  27.0789  27.7893  27.9884  28.0750  28.8314
    28.9796  29.1643  29.1694  29.2118  29.5032  29.6457  29.8450  30.0894
    30.1854  30.4254  31.0837  31.2716  31.2741  31.4348  31.5728  31.8840
    31.9811  32.4031  32.7332  32.8557  32.8748  33.3028  33.4448  33.7870
    34.1146  34.2879  34.7592  34.8010  35.2340  35.2395  35.3927  35.8139
    35.8649  35.8821  36.0700  36.2845  36.2909  36.5281  37.1684  37.5667
    37.8189  37.8750  38.1022  38.1547  38.8386  38.8463  38.9481  39.1652
    39.1692  39.4539  39.6835  39.9221  40.0178  40.2539  40.4216  40.5853
    40.5891  40.8201  40.8323  41.0308  41.2971  41.6376  41.6972  41.8797
    42.2047  42.4145  42.8873  43.3395  43.3802  43.4430  43.5448  43.6317
    43.9861  44.1235  44.3213  44.3776  44.4442  44.6141  44.7198  44.8757
    44.9108  44.9799  45.3264  45.5200  45.6510  45.7472  45.7789  46.1861
    46.2963  46.3496  46.4577  46.7217  46.8538  47.1864  47.3051  47.3514
    47.3675  47.6498  47.8492  48.1149  48.1290  48.1844  48.3454  48.4091

     occupation numbers
     1.0000   1.0000   1.0000   1.0000   1.0000   1.0000   1.0000   1.0000
     1.0000   1.0000   1.0000   1.0000   1.0000   1.0000   1.0000   1.0000
     1.0000   1.0000   1.0000   1.0000   1.0000   1.0000   1.0000   1.0000
     1.0000   1.0000   1.0000   1.0000   1.0000   1.0000   1.0000   1.0000
     1.0000   1.0000   1.0000   1.0000   1.0000   1.0000   1.0000   1.0000
     1.0000   1.0000   1.0000   1.0000   1.0000   1.0000   1.0000   1.0000
     1.0000   1.0000   1.0000   1.0000   1.0000   1.0000   1.0000   1.0000
     1.0000   1.0000   1.0000   1.0000   1.0000   1.0000   1.0000   1.0000
     1.0000   1.0000   1.0000   1.0000   1.0000   1.0000   1.0000   1.0000
     1.0000   1.0000   1.0000   1.0000   1.0000   1.0000   1.0000   1.0000
     1.0000   1.0000   0.0000   0.0000   0.0000   0.0000   0.0000   0.0000
     0.0000   0.0000   0.0000   0.0000   0.0000   0.0000   0.0000   0.0000
     0.0000   0.0000   0.0000   0.0000   0.0000   0.0000   0.0000   0.0000
     0.0000   0.0000   0.0000   0.0000   0.0000   0.0000   0.0000   0.0000
     0.0000   0.0000   0.0000   0.0000   0.0000   0.0000   0.0000   0.0000
     0.0000   0.0000   0.0000   0.0000   0.0000   0.0000   0.0000   0.0000
     0.0000   0.0000   0.0000   0.0000   0.0000   0.0000   0.0000   0.0000
     0.0000   0.0000   0.0000   0.0000   0.0000   0.0000   0.0000   0.0000
     0.0000   0.0000   0.0000   0.0000   0.0000   0.0000   0.0000   0.0000
     0.0000   0.0000   0.0000   0.0000   0.0000   0.0000   0.0000   0.0000
     0.0000   0.0000   0.0000   0.0000   0.0000   0.0000   0.0000   0.0000
     0.0000   0.0000   0.0000   0.0000   0.0000   0.0000   0.0000   0.0000
     0.0000   0.0000   0.0000   0.0000   0.0000   0.0000   0.0000   0.0000
     0.0000   0.0000   0.0000   0.0000   0.0000   0.0000   0.0000   0.0000
     0.0000   0.0000   0.0000   0.0000   0.0000   0.0000   0.0000   0.0000
     0.0000   0.0000   0.0000   0.0000   0.0000   0.0000   0.0000   0.0000
     0.0000   0.0000   0.0000   0.0000   0.0000   0.0000   0.0000   0.0000
     0.0000   0.0000   0.0000   0.0000   0.0000   0.0000   0.0000   0.0000
     0.0000   0.0000   0.0000   0.0000   0.0000   0.0000   0.0000   0.0000
     0.0000   0.0000   0.0000   0.0000   0.0000   0.0000   0.0000   0.0000
     0.0000   0.0000   0.0000   0.0000   0.0000   0.0000   0.0000   0.0000
     0.0000   0.0000   0.0000   0.0000   0.0000   0.0000   0.0000   0.0000

[...]

          k = 0.3333 0.4739-0.4713 (  4425 PWs)   bands (ev):

   -47.2237 -47.2228 -47.2203 -47.2194 -29.1202 -28.9786 -28.9620 -23.5234
   -23.5219 -23.5127 -23.5053 -23.4946 -23.4905 -23.4756 -23.4711 -23.4615
   -23.4586 -23.4527 -23.4508 -10.3234 -10.3043 -10.2722 -10.2543 -10.2323
   -10.1278 -10.0616 -10.0432  -9.9861  -7.6516  -7.5598  -7.3120  -7.1892
    -7.1432  -7.0715  -6.9860  -6.9609  -6.9002  -6.8775  -6.8198  -6.7552
    -5.5040  -5.4919  -5.4601  -5.4122  -5.3246   2.3581   5.0902   5.1278
     5.2413   5.3843   5.4938   5.5536   5.6222   5.6907   5.9692   6.0562
     6.1710   6.2501   6.3298   6.4638   6.5473   6.5718   6.6354   6.9716
     7.1171   7.2463   7.3470   7.3901   7.5667   7.6532   7.8898   7.9405
     8.0433   8.1786   8.2606   8.3500   8.4224   8.4369   8.5357   8.7889
     8.8365   9.4870  11.8216  12.1237  12.4486  12.4682  12.5129  12.6101
    12.7180  12.8492  12.9078  13.0126  13.0254  13.1797  14.0823  14.2723
    14.4917  14.5782  15.0271  15.2014  15.3767  15.5730  15.9600  16.1311
    16.2636  16.3577  16.3973  16.5251  16.6521  16.6811  16.7364  16.7837
    16.9078  17.0426  17.1006  17.1900  17.3632  17.4750  17.5330  17.5760
    18.7613  19.3866  19.8793  20.5561  20.9182  21.5470  21.8457  22.1856
    22.6114  23.1198  23.5169  23.9756  24.2582  24.3016  24.5070  24.7827
    24.8909  25.1175  25.2303  25.5276  25.6857  25.8078  25.9389  26.2528
    26.3042  26.4262  26.7438  26.8965  27.2145  27.3237  27.7680  27.8043
    28.0474  28.3015  28.4793  28.8665  29.0725  29.3056  29.5241  29.6946
    30.3686  30.5624  30.6151  31.1857  31.4847  31.6616  32.0399  32.1779
    32.4746  32.6491  33.0809  33.1960  33.3455  33.5877  33.8853  34.0640
    34.1545  34.4849  34.8133  34.9754  35.1756  35.3239  35.6123  35.7676
    36.0536  36.2084  36.3407  36.6726  36.6945  36.9560  37.0862  37.4160
    37.4905  37.7962  38.0329  38.3180  38.4184  38.6211  38.7641  39.0372
    39.2242  39.4239  39.5003  39.8377  40.0067  40.4034  40.5078  40.6297
    40.8660  41.1507  41.4097  41.4626  41.7593  41.8633  42.0568  42.2604
    42.3585  42.6297  42.7068  42.8108  43.1178  43.3329  43.4788  43.7380
    43.9656  44.0962  44.3011  44.4877  44.6596  44.7182  44.7971  44.9844
    45.0518  45.3509  45.5351  45.6515  45.7662  45.8414  46.1348  46.2567
    46.4033  46.5174  46.7108  46.8682  46.8938  47.1351  47.3723  47.4721
    47.5988  47.8038  48.0793  48.1847  48.4966  48.5091  48.6986  48.8211

     occupation numbers
     1.0000   1.0000   1.0000   1.0000   1.0000   1.0000   1.0000   1.0000
     1.0000   1.0000   1.0000   1.0000   1.0000   1.0000   1.0000   1.0000
     1.0000   1.0000   1.0000   1.0000   1.0000   1.0000   1.0000   1.0000
     1.0000   1.0000   1.0000   1.0000   1.0000   1.0000   1.0000   1.0000
     1.0000   1.0000   1.0000   1.0000   1.0000   1.0000   1.0000   1.0000
     1.0000   1.0000   1.0000   1.0000   1.0000   1.0000   1.0000   1.0000
     1.0000   1.0000   1.0000   1.0000   1.0000   1.0000   1.0000   1.0000
     1.0000   1.0000   1.0000   1.0000   1.0000   1.0000   1.0000   1.0000
     1.0000   1.0000   1.0000   1.0000   1.0000   1.0000   1.0000   1.0000
     1.0000   1.0000   1.0000   1.0000   1.0000   1.0000   1.0000   1.0000
     1.0000   1.0000   0.0000   0.0000   0.0000   0.0000   0.0000   0.0000
     0.0000   0.0000   0.0000   0.0000   0.0000   0.0000   0.0000   0.0000
     0.0000   0.0000   0.0000   0.0000   0.0000   0.0000   0.0000   0.0000
     0.0000   0.0000   0.0000   0.0000   0.0000   0.0000   0.0000   0.0000
     0.0000   0.0000   0.0000   0.0000   0.0000   0.0000   0.0000   0.0000
     0.0000   0.0000   0.0000   0.0000   0.0000   0.0000   0.0000   0.0000
     0.0000   0.0000   0.0000   0.0000   0.0000   0.0000   0.0000   0.0000
     0.0000   0.0000   0.0000   0.0000   0.0000   0.0000   0.0000   0.0000
     0.0000   0.0000   0.0000   0.0000   0.0000   0.0000   0.0000   0.0000
     0.0000   0.0000   0.0000   0.0000   0.0000   0.0000   0.0000   0.0000
     0.0000   0.0000   0.0000   0.0000   0.0000   0.0000   0.0000   0.0000
     0.0000   0.0000   0.0000   0.0000   0.0000   0.0000   0.0000   0.0000
     0.0000   0.0000   0.0000   0.0000   0.0000   0.0000   0.0000   0.0000
     0.0000   0.0000   0.0000   0.0000   0.0000   0.0000   0.0000   0.0000
     0.0000   0.0000   0.0000   0.0000   0.0000   0.0000   0.0000   0.0000
     0.0000   0.0000   0.0000   0.0000   0.0000   0.0000   0.0000   0.0000
     0.0000   0.0000   0.0000   0.0000   0.0000   0.0000   0.0000   0.0000
     0.0000   0.0000   0.0000   0.0000   0.0000   0.0000   0.0000   0.0000
     0.0000   0.0000   0.0000   0.0000   0.0000   0.0000   0.0000   0.0000
     0.0000   0.0000   0.0000   0.0000   0.0000   0.0000   0.0000   0.0000
     0.0000   0.0000   0.0000   0.0000   0.0000   0.0000   0.0000   0.0000
     0.0000   0.0000   0.0000   0.0000   0.0000   0.0000   0.0000   0.0000

     highest occupied, lowest unoccupied level (ev):     9.5350   11.3709

!    total energy              =   -2074.15357049 Ry
     estimated scf accuracy    <       0.00000021 Ry

     The total energy is the sum of the following terms:
     one-electron contribution =    -333.23575774 Ry
     hartree contribution      =     259.50409211 Ry
     xc contribution           =    -241.88464479 Ry
     ewald contribution        =    -915.78145297 Ry
     one-center paw contrib.   =    -842.75580711 Ry
      -> PAW hartree energy AE =       0.00000000 Ry
      -> PAW hartree energy PS =       0.00000000 Ry
      -> PAW xc energy AE      =       0.00000000 Ry
      -> PAW xc energy PS      =       0.00000000 Ry
      -> total E_H with PAW    =     259.50409211 Ry
      -> total E_XC with PAW   =    -241.88464479 Ry

     convergence has been achieved in  13 iterations

     Writing all to output data dir bands_nm/myprefix.save/

     General routines

     Parallel routines

     PAW routines

   This run was terminated on:  22:23:53  15Jul2023

   JOB DONE.