     Program PWSCF v.7.1 starts on 14Jul2023 at 19:20:10

     Reading input from espresso_21848.pwi
Warning: card &CELL ignored
Warning: card / ignored

     Current dimensions of program PWSCF are:
     Max number of different atomic species (ntypx) = 10
     Max number of k-points (npk) =  40000
     Max angular momentum in pseudopotentials (lmaxx) =  4
     Message from routine setup:
     using ibrav=0 with symmetry is DISCOURAGED, use correct ibrav instead

     K-points division:     npool     =       2
     R & G space division:  proc/nbgrp/npool/nimage =       4
     Subspace diagonalization in iterative solution of the eigenvalue problem:
     a serial algorithm will be used

     Using Slab Decomposition

     bravais-lattice index     =            0
     lattice parameter (alat)  =      13.6584  a.u.
     unit-cell volume          =    2517.6740 (a.u.)^3
     number of atoms/cell      =           10
     number of atomic types    =            3
     number of electrons       =        82.00
     number of Kohn-Sham states=           64
     kinetic-energy cutoff     =      30.0000  Ry
     charge density cutoff     =     240.0000  Ry
     scf convergence threshold =      1.0E-06
     mixing beta               =       0.7000
     number of iterations used =            8  plain     mixing
     Exchange-correlation= SLA  PW   PBE  PBE
                           (   1   4   3   4   0   0   0)

     celldm(1)=  13.658449  celldm(2)=   0.000000  celldm(3)=   0.000000
     celldm(4)=   0.000000  celldm(5)=   0.000000  celldm(6)=   0.000000

     crystal axes: (cart. coord. in units of alat)
               a(1) = (   1.000000   0.000000   0.000000 )
               a(2) = (  -0.324173   1.006785   0.000000 )
               a(3) = (  -0.480419  -0.308695   0.981428 )

     reciprocal axes: (cart. coord. in units 2 pi/alat)
               b(1) = (  1.000000  0.321989  0.590788 )
               b(2) = (  0.000000  0.993261  0.312417 )
               b(3) = (  0.000000  0.000000  1.018923 )

     PseudoPot. # 1 for Cs read from file:
     /lustre07/scratch/pragov/crystal_structure_design/utils/SSSP/Cs_pbe_v1.uspp.F.UPF
     MD5 check sum: 3476d69cb178dfad3ffaa59df4e07ca4
     Pseudo is Ultrasoft + core correction, Zval =  9.0
     Generated by new atomic code, or converted to UPF format
     Using radial grid of  905 points,  6 beta functions with:
                l(1) =   0
                l(2) =   0
                l(3) =   1
                l(4) =   1
                l(5) =   2
                l(6) =   2
     Q(r) pseudized with  6 coefficients,  rinner =    1.500   1.500   1.500
                                                       1.500   1.500

     PseudoPot. # 2 for Sn read from file:
     /lustre07/scratch/pragov/crystal_structure_design/utils/SSSP/Sn_pbe_v1.uspp.F.UPF
     MD5 check sum: 4cf58ce39ec5d5d420df3dd08604eb00
     Pseudo is Ultrasoft + core correction, Zval = 14.0
     Generated by new atomic code, or converted to UPF format
     Using radial grid of  891 points,  6 beta functions with:
                l(1) =   0
                l(2) =   0
                l(3) =   1
                l(4) =   1
                l(5) =   2
                l(6) =   2
     Q(r) pseudized with  6 coefficients,  rinner =    1.200   1.200   1.200
                                                       1.200   1.200

     PseudoPot. # 3 for Se read from file:
     /lustre07/scratch/pragov/crystal_structure_design/utils/SSSP/Se_pbe_v1.uspp.F.UPF
     MD5 check sum: 1b3568f3a8ae88f9a2a0ad0698632c85
     Pseudo is Ultrasoft + core correction, Zval =  6.0
     Generated by new atomic code, or converted to UPF format
     Using radial grid of  877 points,  6 beta functions with:
                l(1) =   0
                l(2) =   0
                l(3) =   1
                l(4) =   1
                l(5) =   2
                l(6) =   2
     Q(r) pseudized with  8 coefficients,  rinner =    1.300   1.300   1.300
                                                       1.300   1.300

     atomic species   valence    mass     pseudopotential
        Cs             9.00   132.90545     Cs( 1.00)
        Sn            14.00   118.71000     Sn( 1.00)
        Se             6.00    78.97100     Se( 1.00)

      2 Sym. Ops., with inversion, found

                                    s                        frac. trans.

      isym =  1     identity

 cryst.   s( 1) = (     1          0          0      )
                  (     0          1          0      )
                  (     0          0          1      )

 cart.    s( 1) = (  1.0000000  0.0000000  0.0000000 )
                  (  0.0000000  1.0000000  0.0000000 )
                  (  0.0000000  0.0000000  1.0000000 )

      isym =  2     inversion

 cryst.   s( 2) = (    -1          0          0      )
                  (     0         -1          0      )
                  (     0          0         -1      )

 cart.    s( 2) = ( -1.0000000  0.0000000  0.0000000 )
                  (  0.0000000 -1.0000000  0.0000000 )
                  (  0.0000000  0.0000000 -1.0000000 )

   Cartesian axes

     site n.     atom                  positions (alat units)
         1           Cs  tau(   1) = (  -0.2466784  -0.0736125   0.8458331  )
         2           Cs  tau(   2) = (   0.4420857   0.7717026   0.1355951  )
         3           Sn  tau(   3) = (  -0.1490909   0.3825197   0.4184260  )
         4           Sn  tau(   4) = (   0.3444982   0.3155705   0.5630022  )
         5           Se  tau(   5) = (   0.1410031   0.6081944   0.5481061  )
         6           Se  tau(   6) = (  -0.0737674   0.5808151   0.1187459  )
         7           Se  tau(   7) = (   0.0544042   0.0898958   0.4333222  )
         8           Se  tau(   8) = (  -0.3452402   0.4819419   0.7019027  )
         9           Se  tau(   9) = (   0.5406475   0.2161483   0.2795255  )
        10           Se  tau(  10) = (   0.2691747   0.1172750   0.8626823  )

   Crystallographic axes

     site n.     atom                  positions (cryst. coord.)
         1           Cs  tau(   1) = (  0.2293270  0.1911360  0.8618390  )
         2           Cs  tau(   2) = (  0.7706730  0.8088640  0.1381610  )
         3           Sn  tau(   3) = (  0.2212770  0.5106650  0.4263440  )
         4           Sn  tau(   4) = (  0.7787230  0.4893350  0.5736560  )
         5           Se  tau(   5) = (  0.6606490  0.7753330  0.5584780  )
         6           Se  tau(   6) = (  0.1834020  0.6139990  0.1209930  )
         7           Se  tau(   7) = (  0.3393510  0.2246670  0.4415220  )
         8           Se  tau(   8) = (  0.2246150  0.6979800  0.7151850  )
         9           Se  tau(   9) = (  0.7753850  0.3020200  0.2848150  )
        10           Se  tau(  10) = (  0.8165980  0.3860010  0.8790070  )

     number of k points=    14
                       cart. coord. in units 2pi/alat
        k(    1) = (   0.0000000   0.0000000   0.0000000), wk =   0.0740741
        k(    2) = (   0.0000000   0.0000000   0.3396411), wk =   0.1481481
        k(    3) = (   0.0000000   0.3310869   0.1041389), wk =   0.1481481
        k(    4) = (   0.0000000   0.3310869   0.4437800), wk =   0.1481481
        k(    5) = (   0.0000000   0.3310869  -0.2355022), wk =   0.1481481
        k(    6) = (   0.3333333   0.1073295   0.1969292), wk =   0.1481481
        k(    7) = (   0.3333333   0.1073295   0.5365703), wk =   0.1481481
        k(    8) = (   0.3333333   0.1073295  -0.1427118), wk =   0.1481481
        k(    9) = (   0.3333333   0.4384164   0.3010681), wk =   0.1481481
        k(   10) = (   0.3333333   0.4384164   0.6407092), wk =   0.1481481
        k(   11) = (   0.3333333   0.4384164  -0.0385729), wk =   0.1481481
        k(   12) = (   0.3333333  -0.2237574   0.0927903), wk =   0.1481481
        k(   13) = (   0.3333333  -0.2237574   0.4324314), wk =   0.1481481
        k(   14) = (   0.3333333  -0.2237574  -0.2468507), wk =   0.1481481

                       cryst. coord.
        k(    1) = (   0.0000000   0.0000000   0.0000000), wk =   0.0740741
        k(    2) = (   0.0000000   0.0000000   0.3333333), wk =   0.1481481
        k(    3) = (   0.0000000   0.3333333   0.0000000), wk =   0.1481481
        k(    4) = (   0.0000000   0.3333333   0.3333333), wk =   0.1481481
        k(    5) = (   0.0000000   0.3333333  -0.3333333), wk =   0.1481481
        k(    6) = (   0.3333333  -0.0000000   0.0000000), wk =   0.1481481
        k(    7) = (   0.3333333  -0.0000000   0.3333333), wk =   0.1481481
        k(    8) = (   0.3333333  -0.0000000  -0.3333333), wk =   0.1481481
        k(    9) = (   0.3333333   0.3333333   0.0000000), wk =   0.1481481
        k(   10) = (   0.3333333   0.3333333   0.3333333), wk =   0.1481481
        k(   11) = (   0.3333333   0.3333333  -0.3333333), wk =   0.1481481
        k(   12) = (   0.3333333  -0.3333333   0.0000000), wk =   0.1481481
        k(   13) = (   0.3333333  -0.3333333   0.3333333), wk =   0.1481481
        k(   14) = (   0.3333333  -0.3333333  -0.3333333), wk =   0.1481481

     Initial potential from superposition of free atoms

     starting charge      79.9207, renormalised to      82.0000
     Starting wfcs are   68 randomized atomic wfcs

     Self-consistent Calculation

     iteration #  1     ecut=    30.00 Ry     beta= 0.70
     Davidson diagonalization with overlap

     ethr =  1.00E-02,  avg # of iterations =  5.4

     Threshold (ethr) on eigenvalues was too large:
     Diagonalizing with lowered threshold

     Davidson diagonalization with overlap

[...]

     total energy              =    -714.43714456 Ry
     estimated scf accuracy    <       0.80594574 Ry

[...]

     total energy              =    -714.72979195 Ry
     estimated scf accuracy    <       0.00000326 Ry

     iteration #  8     ecut=    30.00 Ry     beta= 0.70
     Davidson diagonalization with overlap

     ethr =  3.97E-09,  avg # of iterations =  4.7

     End of self-consistent calculation

          k = 0.0000 0.0000 0.0000 (  6979 PWs)   bands (ev):

   -17.4116 -17.4052 -17.4000 -17.3963 -17.3856 -17.3698 -17.3607 -17.3589
   -17.3544 -17.3268 -17.1313 -17.1152  -9.7717  -8.5836  -7.8737  -7.8230
    -7.4864  -7.2508  -4.1109  -4.0158  -4.0108  -3.9599  -3.9468  -3.8676
    -3.1573  -2.1687  -0.1957   0.6538   0.6561   0.8397   1.3311   1.9170
     2.3040   2.5099   2.9510   2.9849   3.0929   3.1210   3.1460   3.3948
     3.7085   4.9906   5.2317   6.2534   7.6679   7.8095   7.9587   8.2035
     8.3353   8.5457   8.7122   9.2715   9.4666   9.7461   9.7640   9.9110
     9.9915  10.1125  10.2868  10.5054  10.8801  11.0636  11.2260  11.8319

     occupation numbers
     1.0000   1.0000   1.0000   1.0000   1.0000   1.0000   1.0000   1.0000
     1.0000   1.0000   1.0000   1.0000   1.0000   1.0000   1.0000   1.0000
     1.0000   1.0000   1.0000   1.0000   1.0000   1.0000   1.0000   1.0000
     1.0000   1.0000   1.0000   1.0000   1.0000   1.0000   1.0000   1.0000
     1.0000   1.0000   1.0000   1.0000   1.0000   1.0000   1.0000   1.0000
     1.0000   0.0000   0.0000   0.0000   0.0000   0.0000   0.0000   0.0000
     0.0000   0.0000   0.0000   0.0000   0.0000   0.0000   0.0000   0.0000
     0.0000   0.0000   0.0000   0.0000   0.0000   0.0000   0.0000   0.0000

[...]

          k = 0.3333-0.2238-0.2469 (  6988 PWs)   bands (ev):

   -17.4157 -17.4115 -17.3918 -17.3904 -17.3861 -17.3738 -17.3631 -17.3613
   -17.3448 -17.3309 -17.1285 -17.1175  -9.7385  -8.5115  -8.0934  -7.7770
    -7.5838  -7.2072  -4.0664  -3.9922  -3.9738  -3.9493  -3.9100  -3.8978
    -2.7519  -2.1885  -0.1137   0.0902   0.9178   1.1393   1.4160   1.6726
     1.8140   2.0315   2.6119   2.8095   2.9822   3.1824   3.3473   3.4773
     3.5825   5.4271   6.1019   6.2406   7.5137   7.8122   7.9851   8.3274
     8.4244   8.5056   8.8446   9.0476   9.3700   9.5455   9.9112   9.9773
    10.2389  10.3000  10.4730  10.6371  10.9491  11.0841  11.2694  11.4146

     occupation numbers
     1.0000   1.0000   1.0000   1.0000   1.0000   1.0000   1.0000   1.0000
     1.0000   1.0000   1.0000   1.0000   1.0000   1.0000   1.0000   1.0000
     1.0000   1.0000   1.0000   1.0000   1.0000   1.0000   1.0000   1.0000
     1.0000   1.0000   1.0000   1.0000   1.0000   1.0000   1.0000   1.0000
     1.0000   1.0000   1.0000   1.0000   1.0000   1.0000   1.0000   1.0000
     1.0000   0.0000   0.0000   0.0000   0.0000   0.0000   0.0000   0.0000
     0.0000   0.0000   0.0000   0.0000   0.0000   0.0000   0.0000   0.0000
     0.0000   0.0000   0.0000   0.0000   0.0000   0.0000   0.0000   0.0000

     highest occupied, lowest unoccupied level (ev):     3.7744    4.8918

!    total energy              =    -714.72979479 Ry
     estimated scf accuracy    <       0.00000054 Ry

     The total energy is the sum of the following terms:
     one-electron contribution =    -269.74926220 Ry
     hartree contribution      =     171.19093532 Ry
     xc contribution           =    -333.87442470 Ry
     ewald contribution        =    -282.29704321 Ry

     convergence has been achieved in   8 iterations

     Writing all to output data dir bands_nm/myprefix.save/

     General routines

     Parallel routines

   This run was terminated on:  19:20:33  14Jul2023

   JOB DONE.