     Program PWSCF v.7.1 starts on 13Jul2023 at  8:25:59

     Reading input from espresso_6007.pwi
Warning: card &CELL ignored
Warning: card / ignored

     Current dimensions of program PWSCF are:
     Max number of different atomic species (ntypx) = 10
     Max number of k-points (npk) =  40000
     Max angular momentum in pseudopotentials (lmaxx) =  4
     file Nb.pbe-spn-kjpaw_psl.0.3.0.UPF: wavefunction(s)  4S 4P renormalized
     file O.pbe-n-kjpaw_psl.0.1.UPF: wavefunction(s)  2P renormalized
     Message from routine setup:
     using ibrav=0 with symmetry is DISCOURAGED, use correct ibrav instead

     K-points division:     npool     =       2
     R & G space division:  proc/nbgrp/npool/nimage =       8
     Subspace diagonalization in iterative solution of the eigenvalue problem:
     a serial algorithm will be used

     Using Slab Decomposition

     bravais-lattice index     =            0
     lattice parameter (alat)  =       7.3426  a.u.
     unit-cell volume          =    1575.4255 (a.u.)^3
     number of atoms/cell      =           16
     number of atomic types    =            5
     number of electrons       =       128.00
     number of Kohn-Sham states=           64
     kinetic-energy cutoff     =      30.0000  Ry
     charge density cutoff     =     240.0000  Ry
     scf convergence threshold =      1.0E-06
     mixing beta               =       0.7000
     number of iterations used =            8  plain     mixing
     Exchange-correlation= SLA  PW   PBX  PBC
                           (   1   4   3   4   0   0   0)

     celldm(1)=   7.342586  celldm(2)=   0.000000  celldm(3)=   0.000000
     celldm(4)=   0.000000  celldm(5)=   0.000000  celldm(6)=   0.000000

     crystal axes: (cart. coord. in units of alat)
               a(1) = (   1.000000   0.000000   0.000000 )
               a(2) = (   0.000000   1.000000   0.000000 )
               a(3) = (   0.000000   0.000000   3.979704 )

     reciprocal axes: (cart. coord. in units 2 pi/alat)
               b(1) = (  1.000000  0.000000  0.000000 )
               b(2) = (  0.000000  1.000000  0.000000 )
               b(3) = (  0.000000  0.000000  0.251275 )

     PseudoPot. # 1 for Rb read from file:
     /lustre07/scratch/pragov/crystal_structure_design/utils/SSSP/Rb_ONCV_PBE-1.0.oncvpsp.upf
     MD5 check sum: 55a5172d6bfbce6759a58e35d43f6aa9
     Pseudo is Norm-conserving, Zval =  9.0
     Generated using ONCVPSP code by D. R. Hamann
     Using radial grid of 2308 points,  6 beta functions with:
                l(1) =   0
                l(2) =   0
                l(3) =   1
                l(4) =   1
                l(5) =   2
                l(6) =   2

     PseudoPot. # 2 for La read from file:
     /lustre07/scratch/pragov/crystal_structure_design/utils/SSSP/La.GGA-PBE-paw-v1.0.UPF
     MD5 check sum: 436541e95c1ad8901025bd0b0ed42ae2
     Pseudo is Projector augmented-wave + core cor, Zval = 11.0
     Generated using ATOMPAW code
     Shape of augmentation charge: BESSEL
     Using radial grid of 1101 points,  8 beta functions with:
                l(1) =   0
                l(2) =   0
                l(3) =   1
                l(4) =   1
                l(5) =   2
                l(6) =   2
                l(7) =   3
                l(8) =   3
     Q(r) pseudized with 0 coefficients

     PseudoPot. # 3 for Ti read from file:
     /lustre07/scratch/pragov/crystal_structure_design/utils/SSSP/ti_pbe_v1.4.uspp.F.UPF
     MD5 check sum: 88a00a6731bd790ddea75d31a80cb452
     Pseudo is Ultrasoft + core correction, Zval = 12.0
     Generated by new atomic code, or converted to UPF format
     Using radial grid of  851 points,  6 beta functions with:
                l(1) =   0
                l(2) =   0
                l(3) =   1
                l(4) =   1
                l(5) =   2
                l(6) =   2
     Q(r) pseudized with  6 coefficients,  rinner =    1.000   1.000   1.000
                                                       1.000   1.000

     PseudoPot. # 4 for Nb read from file:
     /lustre07/scratch/pragov/crystal_structure_design/utils/SSSP/Nb.pbe-spn-kjpaw_psl.0.3.0.UPF
     MD5 check sum: 411d72ad547312f8017e2943ceca08cc
     Pseudo is Projector augmented-wave + core cor, Zval = 13.0
     Generated using "atomic" code by A. Dal Corso  v.5.0.99 svn rev. 10869
     Shape of augmentation charge: PSQ
     Using radial grid of 1227 points,  6 beta functions with:
                l(1) =   0
                l(2) =   0
                l(3) =   1
                l(4) =   1
                l(5) =   2
                l(6) =   2
     Q(r) pseudized with 0 coefficients

     PseudoPot. # 5 for O  read from file:
     /lustre07/scratch/pragov/crystal_structure_design/utils/SSSP/O.pbe-n-kjpaw_psl.0.1.UPF
     MD5 check sum: 0234752ac141de4415c5fc33072bef88
     Pseudo is Projector augmented-wave + core cor, Zval =  6.0
     Generated using "atomic" code by A. Dal Corso  v.5.0.99 svn rev. 10869
     Shape of augmentation charge: BESSEL
     Using radial grid of 1095 points,  4 beta functions with:
                l(1) =   0
                l(2) =   0
                l(3) =   1
                l(4) =   1
     Q(r) pseudized with 0 coefficients

     atomic species   valence    mass     pseudopotential
        Rb             9.00    85.46780     Rb( 1.00)
        La            11.00   138.90547     La( 1.00)
        Ti            12.00    47.86700     Ti( 1.00)
        Nb            13.00    92.90637     Nb( 1.00)
        O              6.00    15.99900     O ( 1.00)

      8 Sym. Ops. (no inversion) found

                                    s                        frac. trans.

      isym =  1     identity

 cryst.   s( 1) = (     1          0          0      )
                  (     0          1          0      )
                  (     0          0          1      )

 cart.    s( 1) = (  1.0000000  0.0000000  0.0000000 )
                  (  0.0000000  1.0000000  0.0000000 )
                  (  0.0000000  0.0000000  1.0000000 )

      isym =  2     180 deg rotation - cart. axis [0,0,1]

[...]

      isym =  4      90 deg rotation - cart. axis [0,0,1]

[...]

      isym =  5     inv. 180 deg rotation - cart. axis [0,1,0]

[...]

      isym =  8     inv. 180 deg rotation - cart. axis [1,-1,0]

 cryst.   s( 8) = (     0          1          0      )
                  (     1          0          0      )
                  (     0          0          1      )

 cart.    s( 8) = (  0.0000000  1.0000000  0.0000000 )
                  (  1.0000000  0.0000000  0.0000000 )
                  (  0.0000000  0.0000000  1.0000000 )

   Cartesian axes

     site n.     atom                  positions (alat units)
         1           Rb  tau(   1) = (   0.5000000   0.5000000   2.0251363  )
         2           La  tau(   2) = (   0.5000000   0.5000000   3.3563514  )
         3           La  tau(   3) = (   0.5000000   0.5000000   0.5151449  )
         4           Ti  tau(   4) = (   0.0000000   0.0000000   3.9700855  )
         5           Ti  tau(   5) = (   0.0000000   0.0000000   2.8275044  )
         6           Nb  tau(   6) = (   0.0000000   0.0000000   1.1366792  )
         7           O   tau(   7) = (   0.0000000   0.0000000   3.4893213  )
         8           O   tau(   8) = (   0.0000000   0.0000000   0.5161358  )
         9           O   tau(   9) = (   0.0000000   0.0000000   2.3905169  )
        10           O   tau(  10) = (   0.0000000   0.0000000   1.5977041  )
        11           O   tau(  11) = (   0.5000000   0.0000000   0.0313123  )
        12           O   tau(  12) = (   0.0000000   0.5000000   0.0313123  )
        13           O   tau(  13) = (   0.5000000   0.0000000   2.9733367  )
        14           O   tau(  14) = (   0.0000000   0.5000000   2.9733367  )
        15           O   tau(  15) = (   0.5000000   0.0000000   1.0069568  )
        16           O   tau(  16) = (   0.0000000   0.5000000   1.0069568  )

   Crystallographic axes

     site n.     atom                  positions (cryst. coord.)
         1           Rb  tau(   1) = (  0.5000000  0.5000000  0.5088660  )
         2           La  tau(   2) = (  0.5000000  0.5000000  0.8433670  )
         3           La  tau(   3) = (  0.5000000  0.5000000  0.1294430  )
         4           Ti  tau(   4) = (  0.0000000  0.0000000  0.9975830  )
         5           Ti  tau(   5) = (  0.0000000  0.0000000  0.7104810  )
         6           Nb  tau(   6) = (  0.0000000  0.0000000  0.2856190  )
         7           O   tau(   7) = (  0.0000000  0.0000000  0.8767790  )
         8           O   tau(   8) = (  0.0000000  0.0000000  0.1296920  )
         9           O   tau(   9) = (  0.0000000  0.0000000  0.6006770  )
        10           O   tau(  10) = (  0.0000000  0.0000000  0.4014630  )
        11           O   tau(  11) = (  0.5000000  0.0000000  0.0078680  )
        12           O   tau(  12) = (  0.0000000  0.5000000  0.0078680  )
        13           O   tau(  13) = (  0.5000000  0.0000000  0.7471250  )
        14           O   tau(  14) = (  0.0000000  0.5000000  0.7471250  )
        15           O   tau(  15) = (  0.5000000  0.0000000  0.2530230  )
        16           O   tau(  16) = (  0.0000000  0.5000000  0.2530230  )

     number of k points=     6
                       cart. coord. in units 2pi/alat
        k(    1) = (   0.0000000   0.0000000   0.0000000), wk =   0.0740741
        k(    2) = (   0.0000000   0.0000000   0.0837583), wk =   0.1481481
        k(    3) = (   0.0000000   0.3333333   0.0000000), wk =   0.2962963
        k(    4) = (   0.0000000   0.3333333   0.0837583), wk =   0.5925926
        k(    5) = (   0.3333333   0.3333333   0.0000000), wk =   0.2962963
        k(    6) = (   0.3333333   0.3333333   0.0837583), wk =   0.5925926

                       cryst. coord.
        k(    1) = (   0.0000000   0.0000000   0.0000000), wk =   0.0740741
        k(    2) = (   0.0000000   0.0000000   0.3333333), wk =   0.1481481
        k(    3) = (   0.0000000   0.3333333   0.0000000), wk =   0.2962963
        k(    4) = (   0.0000000   0.3333333   0.3333333), wk =   0.5925926
        k(    5) = (   0.3333333   0.3333333   0.0000000), wk =   0.2962963
        k(    6) = (   0.3333333   0.3333333   0.3333333), wk =   0.5925926

     Check: negative core charge=   -0.000014

     Initial potential from superposition of free atoms

     starting charge     125.9560, renormalised to     128.0000

     negative rho (up, down):  3.402E-03 0.000E+00
     Starting wfcs are  139 randomized atomic wfcs
     Checking if some PAW data can be deallocated...

     Self-consistent Calculation

     iteration #  1     ecut=    30.00 Ry     beta= 0.70
     Davidson diagonalization with overlap

     ethr =  1.00E-02,  avg # of iterations =  2.0

     negative rho (up, down):  1.480E-05 0.000E+00

     total energy              =   -1473.44361213 Ry
     estimated scf accuracy    <     548.36581655 Ry

[...]

     c_bands:  1 eigenvalues not converged
     ethr =  1.00E-02,  avg # of iterations = 36.7

[...]

     total energy              =   -1956.33934954 Ry
     estimated scf accuracy    <       0.00000131 Ry

     iteration # 32     ecut=    30.00 Ry     beta= 0.70
     Davidson diagonalization with overlap

     ethr =  1.02E-09,  avg # of iterations =  4.8

     negative rho (up, down):  3.139E-03 0.000E+00

     End of self-consistent calculation

          k = 0.0000 0.0000 0.0000 (  4347 PWs)   bands (ev):

   -48.1708 -47.5465 -46.8755 -24.4776 -24.4776 -24.4356 -23.9561 -23.8260
   -23.8260 -23.1499 -22.9956 -22.9956 -22.6761 -22.4068 -16.5965 -10.0556
    -9.6370  -9.4173  -9.3399  -8.6436  -8.2713  -8.1871  -8.0075  -7.6710
    -7.1250  -6.1698  -6.1698  -5.9593  -5.9593  -5.7993  -5.1562  -0.6870
    -0.4424  -0.4424   3.9484   4.0624   4.0624   4.6829   4.8926   4.8926
     5.1070   5.1070   5.1779   5.3490   5.6925   5.9702   5.9833   5.9833
     6.1388   6.1388   6.2479   6.2526   6.7396   6.7396   6.8540   6.9523
     6.9523   7.0377   7.0377   7.5838   7.5838   7.7365   7.7821   7.7821

     occupation numbers
     1.0000   1.0000   1.0000   1.0000   1.0000   1.0000   1.0000   1.0000
     1.0000   1.0000   1.0000   1.0000   1.0000   1.0000   1.0000   1.0000
     1.0000   1.0000   1.0000   1.0000   1.0000   1.0000   1.0000   1.0000
     1.0000   1.0000   1.0000   1.0000   1.0000   1.0000   1.0000   1.0000
     1.0000   1.0000   1.0000   1.0000   1.0000   1.0000   1.0000   1.0000
     1.0000   1.0000   1.0000   1.0000   1.0000   1.0000   1.0000   1.0000
     1.0000   1.0000   1.0000   1.0000   1.0000   1.0000   1.0000   1.0000
     1.0000   1.0000   1.0000   1.0000   1.0000   1.0000   1.0000   1.0000

[...]

          k = 0.3333 0.3333 0.0838 (  4366 PWs)   bands (ev):

   -48.1684 -47.5443 -46.8702 -24.5361 -24.5344 -24.4262 -23.9458 -23.8720
   -23.8707 -23.1395 -23.1164 -23.1040 -22.6027 -22.3153 -16.5392  -9.2860
    -9.2017  -9.0151  -8.9284  -8.8444  -8.5272  -8.1847  -8.0478  -7.7720
    -7.1018  -6.2008  -6.1592  -6.1342  -5.8135  -5.5449  -5.2022  -0.7857
    -0.7532  -0.6545   3.0336   3.2197   3.5798   3.8630   3.8991   4.1761
     4.2293   4.5657   4.8463   4.8727   5.0622   5.1986   5.2150   5.3519
     5.4593   6.1878   6.2014   6.3666   6.4753   6.6674   6.8093   6.8463
     6.9986   7.1998   7.2741   7.3648   7.4905   7.5163   7.5264   7.7302

     occupation numbers
     1.0000   1.0000   1.0000   1.0000   1.0000   1.0000   1.0000   1.0000
     1.0000   1.0000   1.0000   1.0000   1.0000   1.0000   1.0000   1.0000
     1.0000   1.0000   1.0000   1.0000   1.0000   1.0000   1.0000   1.0000
     1.0000   1.0000   1.0000   1.0000   1.0000   1.0000   1.0000   1.0000
     1.0000   1.0000   1.0000   1.0000   1.0000   1.0000   1.0000   1.0000
     1.0000   1.0000   1.0000   1.0000   1.0000   1.0000   1.0000   1.0000
     1.0000   1.0000   1.0000   1.0000   1.0000   1.0000   1.0000   1.0000
     1.0000   1.0000   1.0000   1.0000   1.0000   1.0000   1.0000   1.0000

     highest occupied level (ev):     7.7821

!    total energy              =   -1956.33934970 Ry
     estimated scf accuracy    <       0.00000009 Ry

     The total energy is the sum of the following terms:
     one-electron contribution =    -585.99588439 Ry
     hartree contribution      =     363.25541840 Ry
     xc contribution           =    -164.56441311 Ry
     ewald contribution        =    -469.12735370 Ry
     one-center paw contrib.   =   -1099.90711690 Ry
      -> PAW hartree energy AE =       0.00000000 Ry
      -> PAW hartree energy PS =       0.00000000 Ry
      -> PAW xc energy AE      =       0.00000000 Ry
      -> PAW xc energy PS      =       0.00000000 Ry
      -> total E_H with PAW    =     363.25541840 Ry
      -> total E_XC with PAW   =    -164.56441311 Ry

     convergence has been achieved in  32 iterations

     Writing all to output data dir bands_nm/myprefix.save/

     General routines

     Parallel routines

     PAW routines

   This run was terminated on:   8:26:23  13Jul2023

   JOB DONE.