     Program PWSCF v.7.1 starts on 15Jul2023 at 22: 6:26

     Reading input from espresso_23227.pwi
Warning: card &CELL ignored
Warning: card / ignored

     Current dimensions of program PWSCF are:
     Max number of different atomic species (ntypx) = 10
     Max number of k-points (npk) =  40000
     Max angular momentum in pseudopotentials (lmaxx) =  4
     file Cd.pbe-dn-rrkjus_psl.0.3.1.UPF: wavefunction(s)  4D renormalized
     file Cu.paw.z_11.ld1.psl.v1.0.0-low.upf: wavefunction(s)  4S 3D renormalized
     file O.pbe-n-kjpaw_psl.0.1.UPF: wavefunction(s)  2P renormalized
     Message from routine setup:
     using ibrav=0 with symmetry is DISCOURAGED, use correct ibrav instead

     K-points division:     npool     =       2
     R & G space division:  proc/nbgrp/npool/nimage =       4
     Subspace diagonalization in iterative solution of the eigenvalue problem:
     one sub-group per band group will be used

     Using Slab Decomposition

     bravais-lattice index     =            0
     lattice parameter (alat)  =      11.7994  a.u.
     unit-cell volume          =    1062.5276 (a.u.)^3
     number of atoms/cell      =           14
     number of atomic types    =            3
     number of electrons       =       116.00
     number of Kohn-Sham states=          256
     kinetic-energy cutoff     =      30.0000  Ry
     charge density cutoff     =     240.0000  Ry
     scf convergence threshold =      1.0E-06
     mixing beta               =       0.7000
     number of iterations used =            8  plain     mixing
     Exchange-correlation= SLA  PW   PBX  PBC
                           (   1   4   3   4   0   0   0)

     celldm(1)=  11.799440  celldm(2)=   0.000000  celldm(3)=   0.000000
     celldm(4)=   0.000000  celldm(5)=   0.000000  celldm(6)=   0.000000

     crystal axes: (cart. coord. in units of alat)
               a(1) = (   1.000000   0.000000   0.000000 )
               a(2) = (   0.145307   0.989387   0.000000 )
               a(3) = (  -0.572654  -0.494693   0.653717 )

     reciprocal axes: (cart. coord. in units 2 pi/alat)
               b(1) = (  1.000000 -0.146866  0.764857 )
               b(2) = (  0.000000  1.010727  0.764857 )
               b(3) = (  0.000000  0.000000  1.529713 )

     PseudoPot. # 1 for Cd read from file:
     /lustre07/scratch/pragov/crystal_structure_design/utils/SSSP/Cd.pbe-dn-rrkjus_psl.0.3.1.UPF
     MD5 check sum: 558e9f355611b531a870a69ef6ace9e2
     Pseudo is Ultrasoft + core correction, Zval = 12.0
     Generated using "atomic" code by A. Dal Corso  v.5.0.99 svn rev. 10869
     Using radial grid of 1239 points,  6 beta functions with:
                l(1) =   0
                l(2) =   0
                l(3) =   1
                l(4) =   1
                l(5) =   2
                l(6) =   2
     Q(r) pseudized with 0 coefficients

     PseudoPot. # 2 for Cu read from file:
     /lustre07/scratch/pragov/crystal_structure_design/utils/SSSP/Cu.paw.z_11.ld1.psl.v1.0.0-low.upf
     MD5 check sum: 619f40885d92a09a85a8b37550532d0c
     Pseudo is Projector augmented-wave + core cor, Zval = 11.0
     Generated using &quot;atomic&quot; code by A. Dal Corso  v.6.3MaX
     Shape of augmentation charge: PSQ
     Using radial grid of 1199 points,  6 beta functions with:
                l(1) =   0
                l(2) =   0
                l(3) =   1
                l(4) =   1
                l(5) =   2
                l(6) =   2
     Q(r) pseudized with 0 coefficients

     PseudoPot. # 3 for O  read from file:
     /lustre07/scratch/pragov/crystal_structure_design/utils/SSSP/O.pbe-n-kjpaw_psl.0.1.UPF
     MD5 check sum: 0234752ac141de4415c5fc33072bef88
     Pseudo is Projector augmented-wave + core cor, Zval =  6.0
     Generated using "atomic" code by A. Dal Corso  v.5.0.99 svn rev. 10869
     Shape of augmentation charge: BESSEL
     Using radial grid of 1095 points,  4 beta functions with:
                l(1) =   0
                l(2) =   0
                l(3) =   1
                l(4) =   1
     Q(r) pseudized with 0 coefficients

     atomic species   valence    mass     pseudopotential
        Cd            12.00   112.41400     Cd( 1.00)
        Cu            11.00    63.54600     Cu( 1.00)
        O              6.00    15.99900     O ( 1.00)

      2 Sym. Ops., with inversion, found ( 1 have fractional translation)

                                    s                        frac. trans.

      isym =  1     identity

 cryst.   s( 1) = (     1          0          0      )
                  (     0          1          0      )
                  (     0          0          1      )

 cart.    s( 1) = (  1.0000000  0.0000000 -0.0000000 )
                  (  0.0000000  1.0000000  0.0000000 )
                  (  0.0000000  0.0000000  1.0000000 )

      isym =  2     inversion

 cryst.   s( 2) = (    -1          0          0      )    f =(  0.2500000 )
                  (     0         -1          0      )       ( -0.2500000 )
                  (     0          0         -1      )       (  0.5000000 )

 cart.    s( 2) = ( -1.0000000  0.0000000  0.0000000 )    f =( -0.0726536 )
                  (  0.0000000 -1.0000000  0.0000000 )       ( -0.4946933 )
                  (  0.0000000  0.0000000 -1.0000000 )       (  0.3268587 )

   Cartesian axes

     site n.     atom                  positions (alat units)
         1           Cd  tau(   1) = (   0.5000000   0.0000000   0.3268587  )
         2           Cd  tau(   2) = (   0.0000000   0.0000000   0.0000000  )
         3           Cu  tau(   3) = (   0.3226536   0.4946933   0.1634293  )
         4           Cu  tau(   4) = (   0.0363268   0.2473466   0.4902880  )
         5           Cu  tau(   5) = (   0.8226536   0.4946933   0.1634293  )
         6           Cu  tau(   6) = (  -0.0363268  -0.2473466   0.4902880  )
         7           O   tau(   7) = (  -0.2382641   0.1575682   0.5661539  )
         8           O   tau(   8) = (   0.6939291   0.2360632   0.0875635  )
         9           O   tau(   9) = (  -0.0430829   0.5104255   0.6018541  )
        10           O   tau(  10) = (   0.5739057   0.6114874   0.2749954  )
        11           O   tau(  11) = (   0.0714015   0.3778992   0.0518633  )
        12           O   tau(  12) = (   0.1157365  -0.0157322   0.3787220  )
        13           O   tau(  13) = (  -0.0486220   0.7533234   0.2392952  )
        14           O   tau(  14) = (   0.3109177   0.3371251   0.4144222  )

   Crystallographic axes

     site n.     atom                  positions (cryst. coord.)
         1           Cd  tau(   1) = (  0.7500000  0.2500000  0.5000000  )
         2           Cd  tau(   2) = (  0.0000000  0.0000000  0.0000000  )
         3           Cu  tau(   3) = (  0.3750000  0.6250000  0.2500000  )
         4           Cu  tau(   4) = (  0.3750000  0.6250000  0.7500000  )
         5           Cu  tau(   5) = (  0.8750000  0.6250000  0.2500000  )
         6           Cu  tau(   6) = (  0.3750000  0.1250000  0.7500000  )
         7           O   tau(   7) = (  0.1716210  0.5922850  0.8660530  )
         8           O   tau(   8) = (  0.7262330  0.3055690  0.1339470  )
         9           O   tau(   9) = (  0.3422850  0.9762330  0.9206640  )
        10           O   tau(  10) = (  0.6944310  0.8283790  0.4206640  )
        11           O   tau(  11) = (  0.0555690  0.4216210  0.0793360  )
        12           O   tau(  12) = (  0.4077150  0.2737670  0.5793360  )
        13           O   tau(  13) = (  0.0237670  0.9444310  0.3660530  )
        14           O   tau(  14) = (  0.5783790  0.6577150  0.6339470  )

     number of k points=    14
                       cart. coord. in units 2pi/alat
        k(    1) = (   0.0000000   0.0000000   0.0000000), wk =   0.0740741
        k(    2) = (   0.0000000   0.0000000   0.5099044), wk =   0.1481481
        k(    3) = (   0.0000000   0.3369091   0.2549522), wk =   0.1481481
        k(    4) = (   0.0000000   0.3369091   0.7648565), wk =   0.1481481
        k(    5) = (   0.3333333  -0.0489553   0.2549522), wk =   0.1481481
        k(    6) = (   0.3333333  -0.0489553   0.7648565), wk =   0.1481481
        k(    7) = (   0.3333333   0.2879538   0.5099044), wk =   0.1481481
        k(    8) = (   0.3333333   0.2879538  -0.0000000), wk =   0.1481481
        k(    9) = (   0.3333333  -0.3858644  -0.0000000), wk =   0.1481481
        k(   10) = (   0.3333333  -0.3858644   0.5099044), wk =   0.1481481
        k(   11) = (   0.0000000  -0.3369091   0.2549522), wk =   0.1481481
        k(   12) = (  -0.3333333   0.0489553   0.2549522), wk =   0.1481481
        k(   13) = (  -0.3333333  -0.2879538   0.5099044), wk =   0.1481481
        k(   14) = (  -0.3333333   0.3858644   0.5099044), wk =   0.1481481

                       cryst. coord.
        k(    1) = (   0.0000000   0.0000000   0.0000000), wk =   0.0740741
        k(    2) = (   0.0000000   0.0000000   0.3333333), wk =   0.1481481
        k(    3) = (   0.0000000   0.3333333   0.0000000), wk =   0.1481481
        k(    4) = (   0.0000000   0.3333333   0.3333333), wk =   0.1481481
        k(    5) = (   0.3333333   0.0000000  -0.0000000), wk =   0.1481481
        k(    6) = (   0.3333333   0.0000000   0.3333333), wk =   0.1481481
        k(    7) = (   0.3333333   0.3333333   0.0000000), wk =   0.1481481
        k(    8) = (   0.3333333   0.3333333  -0.3333333), wk =   0.1481481
        k(    9) = (   0.3333333  -0.3333333  -0.0000000), wk =   0.1481481
        k(   10) = (   0.3333333  -0.3333333   0.3333333), wk =   0.1481481
        k(   11) = (   0.0000000  -0.3333333   0.3333333), wk =   0.1481481
        k(   12) = (  -0.3333333   0.0000000   0.3333333), wk =   0.1481481
        k(   13) = (  -0.3333333  -0.3333333   0.6666667), wk =   0.1481481
        k(   14) = (  -0.3333333   0.3333333   0.3333333), wk =   0.1481481

     Check: negative core charge=   -0.000008

     Initial potential from superposition of free atoms

     starting charge     115.9893, renormalised to     116.0000
     Starting wfcs are   86 randomized atomic wfcs +  170 random wfcs
     Checking if some PAW data can be deallocated...

     Self-consistent Calculation

     iteration #  1     ecut=    30.00 Ry     beta= 0.70
     Davidson diagonalization with overlap

     ethr =  1.00E-02,  avg # of iterations =  7.1

     total energy              =   -1424.40697270 Ry
     estimated scf accuracy    <       6.95736584 Ry

[...]

     total energy              =   -1429.09702217 Ry
     estimated scf accuracy    <       0.00006214 Ry

     iteration # 11     ecut=    30.00 Ry     beta= 0.70
     Davidson diagonalization with overlap

     ethr =  5.36E-08,  avg # of iterations =  1.5

     End of self-consistent calculation

          k = 0.0000 0.0000 0.0000 (  2975 PWs)   bands (ev):

   -10.8377  -9.7211  -9.7206  -9.5752  -9.4640  -9.4635  -9.3093  -9.1877
     0.8129   1.3826   1.3826   1.4587   1.4712   1.5416   1.6093   1.7474
     1.7474   1.8143   1.9401   2.1287   2.1471   2.1474   2.3329   2.7127
     2.7129   2.7920   3.1514   3.8298   4.0798   4.3523   4.3671   4.5679
     4.5684   4.8608   4.8612   4.9485   5.0521   5.1510   5.1518   5.1712
     5.2235   5.2779   5.5343   5.5346   5.7106   5.7876   5.9415   5.9419
     6.4529   6.4531   6.6406   6.6411   6.8317   6.9494   7.4310   7.4315
     7.4904   7.8717   8.2010   9.1182   9.1187   9.7730  10.4224  13.8385
    14.3310  14.7460  15.7531  16.8929  16.8930  16.9086  17.7482  17.7483
    18.1249  18.5583  19.3491  19.3495  19.6982  21.8691  21.8692  22.3661
    22.9136  23.1651  23.7319  24.3993  24.3994  24.8794  24.8794  24.9132
    25.4656  25.8396  26.8591  26.8595  27.0123  27.4633  27.4635  27.4786
    27.6501  27.6618  28.7972  28.7973  29.0416  29.7658  29.7660  30.5704
    31.5870  31.6731  32.4785  33.0338  33.2069  33.2070  33.7299  34.1084
    34.1085  34.6717  35.0526  35.0635  35.6116  35.9042  36.1237  36.1239
    37.2636  37.2636  37.9386  37.9387  38.5392  38.6446  38.9027  38.9028
    39.1698  40.4654  40.4655  40.5280  40.7712  40.9166  40.9166  41.8818
    41.9625  41.9625  42.2986  43.1980  43.2070  44.0054  44.4199  44.4230
    44.4230  44.5105  44.5317  44.5317  44.8898  45.3472  45.4133  45.4134
    45.4389  45.5942  45.5943  45.5952  45.7445  46.1614  46.4280  46.4281
    46.8255  46.8415  46.8416  47.6326  47.6452  47.8859  47.9300  48.0971
    48.3387  49.1386  49.1387  49.4965  49.5908  49.5908  49.8084  50.3490
    51.8157  51.8157  51.8455  52.0959  52.0960  52.8311  52.8628  52.8850
    53.0934  53.1943  53.1944  54.3259  54.4699  54.5544  54.7003  55.2285
    55.2286  55.6491  55.6492  55.8268  56.0225  56.1593  56.1631  56.3006
    56.3006  57.3200  58.0452  58.2823  58.2824  58.4311  58.5842  58.5844
    59.5361  59.7050  60.2359  60.8619  61.1132  61.1133  61.1699  61.5298
    61.8171  62.0850  62.0851  62.1770  62.3439  62.9234  62.9234  63.1105
    63.5263  63.5263  63.5389  63.8690  63.8690  64.1428  64.4236  65.1155
    65.1155  65.1567  65.1568  65.8295  65.8757  65.9371  66.0132  67.1237
    67.1237  67.2396  67.2610  67.2611  67.5578  67.7582  68.4633  69.0213
    69.0796  69.0797  69.1503  69.1503  70.1661  70.3854  70.6928  70.6930

     occupation numbers
     1.0000   1.0000   1.0000   1.0000   1.0000   1.0000   1.0000   1.0000
     1.0000   1.0000   1.0000   1.0000   1.0000   1.0000   1.0000   1.0000
     1.0000   1.0000   1.0000   1.0000   1.0000   1.0000   1.0000   1.0000
     1.0000   1.0000   1.0000   1.0000   1.0000   1.0000   1.0000   1.0000
     1.0000   1.0000   1.0000   1.0000   1.0000   1.0000   1.0000   1.0000
     1.0000   1.0000   1.0000   1.0000   1.0000   1.0000   1.0000   1.0000
     1.0000   1.0000   1.0000   1.0000   1.0000   1.0000   1.0000   1.0000
     1.0000   1.0000   0.0000   0.0000   0.0000   0.0000   0.0000   0.0000
     0.0000   0.0000   0.0000   0.0000   0.0000   0.0000   0.0000   0.0000
     0.0000   0.0000   0.0000   0.0000   0.0000   0.0000   0.0000   0.0000
     0.0000   0.0000   0.0000   0.0000   0.0000   0.0000   0.0000   0.0000
     0.0000   0.0000   0.0000   0.0000   0.0000   0.0000   0.0000   0.0000
     0.0000   0.0000   0.0000   0.0000   0.0000   0.0000   0.0000   0.0000
     0.0000   0.0000   0.0000   0.0000   0.0000   0.0000   0.0000   0.0000
     0.0000   0.0000   0.0000   0.0000   0.0000   0.0000   0.0000   0.0000
     0.0000   0.0000   0.0000   0.0000   0.0000   0.0000   0.0000   0.0000
     0.0000   0.0000   0.0000   0.0000   0.0000   0.0000   0.0000   0.0000
     0.0000   0.0000   0.0000   0.0000   0.0000   0.0000   0.0000   0.0000
     0.0000   0.0000   0.0000   0.0000   0.0000   0.0000   0.0000   0.0000
     0.0000   0.0000   0.0000   0.0000   0.0000   0.0000   0.0000   0.0000
     0.0000   0.0000   0.0000   0.0000   0.0000   0.0000   0.0000   0.0000
     0.0000   0.0000   0.0000   0.0000   0.0000   0.0000   0.0000   0.0000
     0.0000   0.0000   0.0000   0.0000   0.0000   0.0000   0.0000   0.0000
     0.0000   0.0000   0.0000   0.0000   0.0000   0.0000   0.0000   0.0000
     0.0000   0.0000   0.0000   0.0000   0.0000   0.0000   0.0000   0.0000
     0.0000   0.0000   0.0000   0.0000   0.0000   0.0000   0.0000   0.0000
     0.0000   0.0000   0.0000   0.0000   0.0000   0.0000   0.0000   0.0000
     0.0000   0.0000   0.0000   0.0000   0.0000   0.0000   0.0000   0.0000
     0.0000   0.0000   0.0000   0.0000   0.0000   0.0000   0.0000   0.0000
     0.0000   0.0000   0.0000   0.0000   0.0000   0.0000   0.0000   0.0000
     0.0000   0.0000   0.0000   0.0000   0.0000   0.0000   0.0000   0.0000
     0.0000   0.0000   0.0000   0.0000   0.0000   0.0000   0.0000   0.0000

[...]

          k = 0.0000-0.3369 0.2550 (  2950 PWs)   bands (ev):

[...]

          k =-0.3333 0.0490 0.2550 (  2950 PWs)   bands (ev):

[...]

          k =-0.3333 0.3859 0.5099 (  2938 PWs)   bands (ev):

   -10.3336 -10.0571  -9.9639  -9.9115  -9.4091  -9.3939  -9.1564  -9.1231
     1.1603   1.1874   1.2607   1.4002   1.4444   1.4459   1.5410   1.6091
     1.7488   1.7511   2.2613   2.3769   2.4266   2.5823   2.7473   2.8458
     3.0101   3.1248   3.3887   3.5085   3.6522   3.8943   3.9886   4.0292
     4.2987   4.3263   4.4207   4.5291   4.6136   4.8127   5.2434   5.3408
     5.6181   5.6270   5.6961   5.9729   6.1241   6.2331   6.2822   6.3399
     6.4335   6.4996   6.5946   6.6006   6.8940   6.9099   7.0268   7.1728
     7.5390   7.5842   8.7363   8.7875   9.0798   9.4090  12.8697  12.9580
    14.1579  14.2105  15.0192  15.3145  16.5484  17.4030  17.7026  17.7524
    18.4107  19.1456  19.3288  20.3797  20.9590  21.0239  21.5792  22.0789
    22.2120  23.1846  23.3604  23.6845  24.0042  24.2305  25.1635  25.2631
    25.5980  26.0057  26.4305  27.0013  27.3707  27.4642  28.1093  28.5067
    28.5781  29.3332  29.4065  29.9417  29.9534  30.4244  30.8499  31.2834
    31.5970  32.1350  32.1802  32.5163  32.6109  33.0915  33.9970  34.0314
    34.2934  34.3956  34.4611  34.6173  35.1122  35.2778  35.7371  35.9665
    36.0026  36.5267  37.0989  37.3369  37.7833  37.8680  38.1486  38.3932
    38.6143  38.9974  39.1610  39.6547  39.9358  40.1167  40.2695  40.5173
    40.9492  41.6330  41.7587  42.4020  42.4125  43.2594  43.5438  43.7421
    43.9995  44.2918  44.7020  44.7360  45.1188  45.3319  45.5775  45.9037
    45.9400  46.0633  46.5683  46.6154  47.1402  47.6926  47.9263  47.9266
    47.9446  48.2268  48.4150  48.5461  48.6369  49.0042  49.1471  49.2008
    49.6219  49.6633  50.4002  50.7832  50.9598  51.0304  51.2826  51.5915
    51.6468  51.8414  51.8636  52.1976  52.4313  52.6564  52.8468  53.1923
    53.5992  53.7366  54.0566  54.2144  54.4278  54.6352  54.8971  54.9139
    55.2468  55.2778  56.0089  56.2468  56.5310  56.5475  56.7864  56.8963
    57.0418  57.1360  57.3242  57.7615  57.7780  57.8906  58.5198  58.6360
    58.7068  59.0723  59.2575  59.6413  59.9155  60.0202  60.2998  60.4703
    60.5456  60.9087  60.9987  61.1314  61.5914  61.6178  61.7799  62.2987
    62.3607  62.6452  62.8931  63.0590  63.3399  63.6928  63.8837  64.4051
    64.7097  64.8957  65.2299  65.3796  65.5195  65.6765  66.0399  66.2315
    66.3115  67.0987  67.1062  67.3209  67.4096  67.8517  67.9802  68.1582
    68.3018  68.9429  69.2151  69.3704  69.4601  69.6776  69.7696  70.0772

     occupation numbers
     1.0000   1.0000   1.0000   1.0000   1.0000   1.0000   1.0000   1.0000
     1.0000   1.0000   1.0000   1.0000   1.0000   1.0000   1.0000   1.0000
     1.0000   1.0000   1.0000   1.0000   1.0000   1.0000   1.0000   1.0000
     1.0000   1.0000   1.0000   1.0000   1.0000   1.0000   1.0000   1.0000
     1.0000   1.0000   1.0000   1.0000   1.0000   1.0000   1.0000   1.0000
     1.0000   1.0000   1.0000   1.0000   1.0000   1.0000   1.0000   1.0000
     1.0000   1.0000   1.0000   1.0000   1.0000   1.0000   1.0000   1.0000
     1.0000   1.0000   0.0000   0.0000   0.0000   0.0000   0.0000   0.0000
     0.0000   0.0000   0.0000   0.0000   0.0000   0.0000   0.0000   0.0000
     0.0000   0.0000   0.0000   0.0000   0.0000   0.0000   0.0000   0.0000
     0.0000   0.0000   0.0000   0.0000   0.0000   0.0000   0.0000   0.0000
     0.0000   0.0000   0.0000   0.0000   0.0000   0.0000   0.0000   0.0000
     0.0000   0.0000   0.0000   0.0000   0.0000   0.0000   0.0000   0.0000
     0.0000   0.0000   0.0000   0.0000   0.0000   0.0000   0.0000   0.0000
     0.0000   0.0000   0.0000   0.0000   0.0000   0.0000   0.0000   0.0000
     0.0000   0.0000   0.0000   0.0000   0.0000   0.0000   0.0000   0.0000
     0.0000   0.0000   0.0000   0.0000   0.0000   0.0000   0.0000   0.0000
     0.0000   0.0000   0.0000   0.0000   0.0000   0.0000   0.0000   0.0000
     0.0000   0.0000   0.0000   0.0000   0.0000   0.0000   0.0000   0.0000
     0.0000   0.0000   0.0000   0.0000   0.0000   0.0000   0.0000   0.0000
     0.0000   0.0000   0.0000   0.0000   0.0000   0.0000   0.0000   0.0000
     0.0000   0.0000   0.0000   0.0000   0.0000   0.0000   0.0000   0.0000
     0.0000   0.0000   0.0000   0.0000   0.0000   0.0000   0.0000   0.0000
     0.0000   0.0000   0.0000   0.0000   0.0000   0.0000   0.0000   0.0000
     0.0000   0.0000   0.0000   0.0000   0.0000   0.0000   0.0000   0.0000
     0.0000   0.0000   0.0000   0.0000   0.0000   0.0000   0.0000   0.0000
     0.0000   0.0000   0.0000   0.0000   0.0000   0.0000   0.0000   0.0000
     0.0000   0.0000   0.0000   0.0000   0.0000   0.0000   0.0000   0.0000
     0.0000   0.0000   0.0000   0.0000   0.0000   0.0000   0.0000   0.0000
     0.0000   0.0000   0.0000   0.0000   0.0000   0.0000   0.0000   0.0000
     0.0000   0.0000   0.0000   0.0000   0.0000   0.0000   0.0000   0.0000
     0.0000   0.0000   0.0000   0.0000   0.0000   0.0000   0.0000   0.0000

     highest occupied, lowest unoccupied level (ev):     7.8717    8.2010

!    total energy              =   -1429.09702926 Ry
     estimated scf accuracy    <       0.00000059 Ry

     The total energy is the sum of the following terms:
     one-electron contribution =    -275.70278689 Ry
     hartree contribution      =     259.13276184 Ry
     xc contribution           =    -322.63075655 Ry
     ewald contribution        =    -654.14194783 Ry
     one-center paw contrib.   =    -435.75429983 Ry
      -> PAW hartree energy AE =       0.00000000 Ry
      -> PAW hartree energy PS =       0.00000000 Ry
      -> PAW xc energy AE      =       0.00000000 Ry
      -> PAW xc energy PS      =       0.00000000 Ry
      -> total E_H with PAW    =     259.13276184 Ry
      -> total E_XC with PAW   =    -322.63075655 Ry

     convergence has been achieved in  11 iterations

     Writing all to output data dir bands_nm/myprefix.save/

     General routines

     Parallel routines

     PAW routines

   This run was terminated on:  22: 7:25  15Jul2023

   JOB DONE.