     Program PWSCF v.7.1 starts on 12Jul2023 at 23:25: 9

     Reading input from espresso_23297.pwi
Warning: card &CELL ignored
Warning: card / ignored

     Current dimensions of program PWSCF are:
     Max number of different atomic species (ntypx) = 10
     Max number of k-points (npk) =  40000
     Max angular momentum in pseudopotentials (lmaxx) =  4
     file In.pbe-dn-rrkjus_psl.0.2.2.UPF: wavefunction(s)  5S renormalized
     Message from routine setup:
     using ibrav=0 with symmetry is DISCOURAGED, use correct ibrav instead

     K-points division:     npool     =       2
     R & G space division:  proc/nbgrp/npool/nimage =       8
     Subspace diagonalization in iterative solution of the eigenvalue problem:
     a serial algorithm will be used

     Using Slab Decomposition

     bravais-lattice index     =            0
     lattice parameter (alat)  =      14.8899  a.u.
     unit-cell volume          =    1841.9001 (a.u.)^3
     number of atoms/cell      =            8
     number of atomic types    =            3
     number of electrons       =        56.00
     number of Kohn-Sham states=           64
     kinetic-energy cutoff     =      30.0000  Ry
     charge density cutoff     =     240.0000  Ry
     scf convergence threshold =      1.0E-06
     mixing beta               =       0.7000
     number of iterations used =            8  plain     mixing
     Exchange-correlation= SLA  PW   PBE  PBE
                           (   1   4   3   4   0   0   0)

     celldm(1)=  14.889938  celldm(2)=   0.000000  celldm(3)=   0.000000
     celldm(4)=   0.000000  celldm(5)=   0.000000  celldm(6)=   0.000000

     crystal axes: (cart. coord. in units of alat)
               a(1) = (   1.000000   0.000000   0.000000 )
               a(2) = (   0.310824   0.950468   0.000000 )
               a(3) = (  -0.655412  -0.475234   0.587016 )

     reciprocal axes: (cart. coord. in units 2 pi/alat)
               b(1) = (  1.000000 -0.327022  0.851765 )
               b(2) = (  0.000000  1.052114  0.851765 )
               b(3) = (  0.000000  0.000000  1.703530 )

     PseudoPot. # 1 for Li read from file:
     /lustre07/scratch/pragov/crystal_structure_design/utils/SSSP/li_pbe_v1.4.uspp.F.UPF
     MD5 check sum: e912e257baa3777c20ea3d68f190483c
     Pseudo is Ultrasoft, Zval =  3.0
     Generated by new atomic code, or converted to UPF format
     Using radial grid of  751 points,  5 beta functions with:
                l(1) =   0
                l(2) =   0
                l(3) =   0
                l(4) =   1
                l(5) =   1
     Q(r) pseudized with 10 coefficients,  rinner =    1.150   1.150   1.150

     PseudoPot. # 2 for In read from file:
     /lustre07/scratch/pragov/crystal_structure_design/utils/SSSP/In.pbe-dn-rrkjus_psl.0.2.2.UPF
     MD5 check sum: 25e7c42c3b55b68f4bf926be2e7201a4
     Pseudo is Ultrasoft + core correction, Zval = 13.0
     Generated using "atomic" code by A. Dal Corso  v.5.0.99 svn rev. 10869
     Using radial grid of 1241 points,  6 beta functions with:
                l(1) =   0
                l(2) =   0
                l(3) =   1
                l(4) =   1
                l(5) =   2
                l(6) =   2
     Q(r) pseudized with 0 coefficients

     PseudoPot. # 3 for Te read from file:
     /lustre07/scratch/pragov/crystal_structure_design/utils/SSSP/Te_pbe_v1.uspp.F.UPF
     MD5 check sum: c319670d6894cc26e93307826a071b75
     Pseudo is Ultrasoft + core correction, Zval =  6.0
     Generated by new atomic code, or converted to UPF format
     Using radial grid of  891 points,  5 beta functions with:
                l(1) =   0
                l(2) =   0
                l(3) =   1
                l(4) =   1
                l(5) =   2
     Q(r) pseudized with  6 coefficients,  rinner =    1.800   1.800   1.800
                                                       1.800   1.800

     atomic species   valence    mass     pseudopotential
        Li             3.00     6.94000     Li( 1.00)
        In            13.00   114.81800     In( 1.00)
        Te             6.00   127.60000     Te( 1.00)

      2 Sym. Ops. (no inversion) found ( 1 have fractional translation)

                                    s                        frac. trans.

      isym =  1     identity

 cryst.   s( 1) = (     1          0          0      )
                  (     0          1          0      )
                  (     0          0          1      )

 cart.    s( 1) = (  1.0000000  0.0000000 -0.0000000 )
                  (  0.0000000  1.0000000  0.0000000 )
                  (  0.0000000  0.0000000  1.0000000 )

      isym =  2     inv. 180 deg rotation - cart. axis [0,0,1]

 cryst.   s( 2) = (     1          0          0      )    f =(  0.2500000 )
                  (     0          1          0      )       ( -0.2500000 )
                  (    -1         -1         -1      )       (  0.5000000 )

 cart.    s( 2) = (  1.0000000  0.0000000 -0.0000000 )    f =( -0.1554119 )
                  (  0.0000000  1.0000000 -0.0000000 )       ( -0.4752338 )
                  (  0.0000000  0.0000000 -1.0000000 )       (  0.2935081 )

   Cartesian axes

     site n.     atom                  positions (alat units)
         1           Li  tau(   1) = (   0.1554119   0.4752338   0.2935081  )
         2           Li  tau(   2) = (   0.6554119   0.4752338   0.0000000  )
         3           In  tau(   3) = (   0.5000000   0.0000000   0.2935081  )
         4           In  tau(   4) = (   0.0000000   0.0000000   0.0000000  )
         5           Te  tau(   5) = (   0.8218868   0.5904262   0.2890415  )
         6           Te  tau(   6) = (   0.3218868   0.5904262   0.0044666  )
         7           Te  tau(   7) = (   0.0058191  -0.3528093   0.5825497  )
         8           Te  tau(   8) = (   0.1612310   0.1224245   0.2979747  )

   Crystallographic axes

     site n.     atom                  positions (cryst. coord.)
         1           Li  tau(   1) = (  0.2500000  0.7500000  0.5000000  )
         2           Li  tau(   2) = (  0.5000000  0.5000000  0.0000000  )
         3           In  tau(   3) = (  0.7500000  0.2500000  0.5000000  )
         4           In  tau(   4) = (  0.0000000  0.0000000  0.0000000  )
         5           Te  tau(   5) = (  0.8750000  0.8673910  0.4923910  )
         6           Te  tau(   6) = (  0.1326090  0.6250000  0.0076090  )
         7           Te  tau(   7) = (  0.6173910  0.1250000  0.9923910  )
         8           Te  tau(   8) = (  0.3750000  0.3826090  0.5076090  )

     number of k points=    10
                       cart. coord. in units 2pi/alat
        k(    1) = (   0.0000000   0.0000000   0.0000000), wk =   0.0740741
        k(    2) = (   0.0000000   0.0000000   0.5678434), wk =   0.1481481
        k(    3) = (   0.0000000   0.3507046   0.2839217), wk =   0.2962963
        k(    4) = (   0.0000000   0.3507046   0.8517651), wk =   0.1481481
        k(    5) = (   0.3333333  -0.1090073   0.2839217), wk =   0.2962963
        k(    6) = (   0.3333333  -0.1090073   0.8517651), wk =   0.1481481
        k(    7) = (   0.3333333   0.2416973   0.5678434), wk =   0.2962963
        k(    8) = (   0.3333333   0.2416973  -0.0000000), wk =   0.1481481
        k(    9) = (   0.3333333  -0.4597119  -0.0000000), wk =   0.1481481
        k(   10) = (   0.3333333  -0.4597119   0.5678434), wk =   0.2962963

                       cryst. coord.
        k(    1) = (   0.0000000   0.0000000   0.0000000), wk =   0.0740741
        k(    2) = (   0.0000000   0.0000000   0.3333333), wk =   0.1481481
        k(    3) = (   0.0000000   0.3333333   0.0000000), wk =   0.2962963
        k(    4) = (   0.0000000   0.3333333   0.3333333), wk =   0.1481481
        k(    5) = (   0.3333333   0.0000000  -0.0000000), wk =   0.2962963
        k(    6) = (   0.3333333   0.0000000   0.3333333), wk =   0.1481481
        k(    7) = (   0.3333333   0.3333333  -0.0000000), wk =   0.2962963
        k(    8) = (   0.3333333   0.3333333  -0.3333333), wk =   0.1481481
        k(    9) = (   0.3333333  -0.3333333  -0.0000000), wk =   0.1481481
        k(   10) = (   0.3333333  -0.3333333   0.3333333), wk =   0.2962963

     Initial potential from superposition of free atoms

     starting charge      55.0902, renormalised to      56.0000
     Starting wfcs are   44 randomized atomic wfcs +   20 random wfcs

     Self-consistent Calculation

     iteration #  1     ecut=    30.00 Ry     beta= 0.70
     Davidson diagonalization with overlap

     ethr =  1.00E-02,  avg # of iterations =  8.3

     total energy              =    -424.51671633 Ry
     estimated scf accuracy    <       0.92135209 Ry

[...]

     total energy              =    -424.97869408 Ry
     estimated scf accuracy    <       0.00000386 Ry

     iteration #  7     ecut=    30.00 Ry     beta= 0.70
     Davidson diagonalization with overlap

     ethr =  6.89E-09,  avg # of iterations =  3.0

     End of self-consistent calculation

          k = 0.0000 0.0000 0.0000 (  5053 PWs)   bands (ev):

   -41.9225 -41.9225 -10.8471 -10.8406 -10.8406 -10.7902 -10.7757 -10.7757
   -10.7313 -10.7243 -10.7242 -10.7153  -7.4306  -6.3932  -6.3932  -6.3606
    -2.0690  -0.6525   1.0671   1.0671   1.0809   1.0977   1.4464   1.9072
     1.9072   3.2177   3.2177   3.3109   4.6844   5.5742   5.8679   7.3888
     7.3888   7.6500   8.2199   8.2199   8.7351   9.4015   9.4015   9.4300
     9.6785   9.8071  12.3062  12.3759  12.3759  12.5292  12.7156  12.7271
    12.8504  13.2305  13.6848  13.6848  13.9779  13.9779  14.1728  14.5173
    14.6862  14.6862  14.9128  14.9965  15.0328  15.0567  15.0567  16.2974

     occupation numbers
     1.0000   1.0000   1.0000   1.0000   1.0000   1.0000   1.0000   1.0000
     1.0000   1.0000   1.0000   1.0000   1.0000   1.0000   1.0000   1.0000
     1.0000   1.0000   1.0000   1.0000   1.0000   1.0000   1.0000   1.0000
     1.0000   1.0000   1.0000   1.0000   0.0000   0.0000   0.0000   0.0000
     0.0000   0.0000   0.0000   0.0000   0.0000   0.0000   0.0000   0.0000
     0.0000   0.0000   0.0000   0.0000   0.0000   0.0000   0.0000   0.0000
     0.0000   0.0000   0.0000   0.0000   0.0000   0.0000   0.0000   0.0000
     0.0000   0.0000   0.0000   0.0000   0.0000   0.0000   0.0000   0.0000

[...]

          k = 0.3333-0.4597 0.5678 (  5119 PWs)   bands (ev):

   -41.9233 -41.9229 -10.8473 -10.8435 -10.8230 -10.8098 -10.7789 -10.7712
   -10.7300 -10.7286 -10.7183 -10.7168  -6.9566  -6.8273  -6.5674  -6.3878
    -1.5070  -1.0995   1.0199   1.1665   1.2669   1.5260   1.8232   1.8250
     2.0773   2.3035   2.6710   2.8460   5.3458   5.7908   6.3092   6.9274
     7.5682   7.6723   8.4169   8.5438   9.0080   9.0349   9.3339   9.5310
    10.1471  10.6618  10.8445  10.9750  11.0584  11.3683  11.4254  13.0607
    13.2332  13.4193  13.8168  14.0696  14.1746  14.3691  14.7252  14.7849
    15.0972  15.1513  15.1894  15.7865  16.0061  16.6440  16.8115  16.9545

     occupation numbers
     1.0000   1.0000   1.0000   1.0000   1.0000   1.0000   1.0000   1.0000
     1.0000   1.0000   1.0000   1.0000   1.0000   1.0000   1.0000   1.0000
     1.0000   1.0000   1.0000   1.0000   1.0000   1.0000   1.0000   1.0000
     1.0000   1.0000   1.0000   1.0000   0.0000   0.0000   0.0000   0.0000
     0.0000   0.0000   0.0000   0.0000   0.0000   0.0000   0.0000   0.0000
     0.0000   0.0000   0.0000   0.0000   0.0000   0.0000   0.0000   0.0000
     0.0000   0.0000   0.0000   0.0000   0.0000   0.0000   0.0000   0.0000
     0.0000   0.0000   0.0000   0.0000   0.0000   0.0000   0.0000   0.0000

     highest occupied, lowest unoccupied level (ev):     3.3109    4.6844

!    total energy              =    -424.97869554 Ry
     estimated scf accuracy    <       0.00000014 Ry

     The total energy is the sum of the following terms:
     one-electron contribution =    -192.18294187 Ry
     hartree contribution      =     121.87252426 Ry
     xc contribution           =    -159.89601651 Ry
     ewald contribution        =    -194.77226142 Ry

     convergence has been achieved in   7 iterations

     Writing all to output data dir bands_nm/myprefix.save/

     General routines

     Parallel routines

   This run was terminated on:  23:25:28  12Jul2023

   JOB DONE.