     Program PWSCF v.7.1 starts on 14Jul2023 at  2:19:31

     Reading input from espresso_7337.pwi
Warning: card &CELL ignored
Warning: card / ignored

     Current dimensions of program PWSCF are:
     Max number of different atomic species (ntypx) = 10
     Max number of k-points (npk) =  40000
     Max angular momentum in pseudopotentials (lmaxx) =  4
     file Lu.paw.z_25.atompaw.wentzcovitch.v1.2.upf: wavefunction(s)  6S 0P 5D 0D 0F renormalized
     Message from routine setup:
     using ibrav=0 with symmetry is DISCOURAGED, use correct ibrav instead

     K-points division:     npool     =       2
     R & G space division:  proc/nbgrp/npool/nimage =       4
     Subspace diagonalization in iterative solution of the eigenvalue problem:
     a serial algorithm will be used

     Using Slab Decomposition

     bravais-lattice index     =            0
     lattice parameter (alat)  =      17.6225  a.u.
     unit-cell volume          =    1596.5285 (a.u.)^3
     number of atoms/cell      =           12
     number of atomic types    =            2
     number of electrons       =       100.00
     number of Kohn-Sham states=           64
     kinetic-energy cutoff     =      30.0000  Ry
     charge density cutoff     =     240.0000  Ry
     scf convergence threshold =      1.0E-06
     mixing beta               =       0.7000
     number of iterations used =            8  plain     mixing
     Exchange-correlation= PBE
                           (   1   4   3   4   0   0   0)

     celldm(1)=  17.622531  celldm(2)=   0.000000  celldm(3)=   0.000000
     celldm(4)=   0.000000  celldm(5)=   0.000000  celldm(6)=   0.000000

     crystal axes: (cart. coord. in units of alat)
               a(1) = (   1.000000   0.000000   0.000000 )
               a(2) = (   0.000000   0.526032   0.000000 )
               a(3) = (   0.000000   0.122214   0.554574 )

     reciprocal axes: (cart. coord. in units 2 pi/alat)
               b(1) = (  1.000000  0.000000  0.000000 )
               b(2) = (  0.000000  1.901025 -0.418938 )
               b(3) = (  0.000000  0.000000  1.803185 )

     PseudoPot. # 1 for Lu read from file:
     /lustre07/scratch/pragov/crystal_structure_design/utils/SSSP/Lu.paw.z_25.atompaw.wentzcovitch.v1.2.upf
     MD5 check sum: a517b3205eadf2aa79773283867f4cbe
     Pseudo is Projector augmented-wave + core cor, Zval = 25.0
     Generated using ATOMPAW code
     Shape of augmentation charge: BESSEL
     Using radial grid of 1118 points,  8 beta functions with:
                l(1) =   0
                l(2) =   0
                l(3) =   1
                l(4) =   1
                l(5) =   2
                l(6) =   2
                l(7) =   3
                l(8) =   3
     Q(r) pseudized with 0 coefficients

     PseudoPot. # 2 for P  read from file:
     /lustre07/scratch/pragov/crystal_structure_design/utils/SSSP/P.pbe-n-rrkjus_psl.1.0.0.UPF
     MD5 check sum: 8b930f418f0a4573dca56cd030ffe088
     Pseudo is Ultrasoft + core correction, Zval =  5.0
     Generated using "atomic" code by A. Dal Corso  v.5.1
     Using radial grid of 1147 points,  6 beta functions with:
                l(1) =   0
                l(2) =   0
                l(3) =   1
                l(4) =   1
                l(5) =   2
                l(6) =   2
     Q(r) pseudized with 0 coefficients

     atomic species   valence    mass     pseudopotential
        Lu            25.00   174.96680     Lu( 1.00)
        P              5.00    30.97376     P ( 1.00)

      4 Sym. Ops., with inversion, found ( 2 have fractional translation)

                                    s                        frac. trans.

      isym =  1     identity

 cryst.   s( 1) = (     1          0          0      )
                  (     0          1          0      )
                  (     0          0          1      )

 cart.    s( 1) = (  1.0000000  0.0000000  0.0000000 )
                  (  0.0000000  1.0000000 -0.0000000 )
                  (  0.0000000  0.0000000  1.0000000 )

      isym =  2     180 deg rotation - cart. axis [1,0,0]

 cryst.   s( 2) = (     1          0          0      )    f =( -0.5000000 )
                  (     0         -1          0      )       (  0.0000000 )
                  (     0          0         -1      )       (  0.0000000 )

 cart.    s( 2) = (  1.0000000  0.0000000  0.0000000 )    f =( -0.5000000 )
                  (  0.0000000 -1.0000000  0.0000000 )       (  0.0000000 )
                  (  0.0000000  0.0000000 -1.0000000 )       (  0.0000000 )

      isym =  3     inversion

 cryst.   s( 3) = (    -1          0          0      )
                  (     0         -1          0      )
                  (     0          0         -1      )

 cart.    s( 3) = ( -1.0000000  0.0000000  0.0000000 )
                  (  0.0000000 -1.0000000  0.0000000 )
                  (  0.0000000  0.0000000 -1.0000000 )

      isym =  4     inv. 180 deg rotation - cart. axis [1,0,0]

 cryst.   s( 4) = (    -1          0          0      )    f =(  0.5000000 )
                  (     0          1          0      )       (  0.0000000 )
                  (     0          0          1      )       (  0.0000000 )

 cart.    s( 4) = ( -1.0000000  0.0000000  0.0000000 )    f =(  0.5000000 )
                  (  0.0000000  1.0000000 -0.0000000 )       (  0.0000000 )
                  (  0.0000000  0.0000000  1.0000000 )       (  0.0000000 )

   Cartesian axes

     site n.     atom                  positions (alat units)
         1           Lu  tau(   1) = (   0.2500000   0.5674713   0.1923940  )
         2           Lu  tau(   2) = (   0.7500000   0.0807748   0.3621802  )
         3           P   tau(   3) = (   0.2500000   0.4931908   0.4935128  )
         4           P   tau(   4) = (   0.7500000   0.1550553   0.0610614  )
         5           P   tau(   5) = (   0.4061950   0.3185116   0.5310469  )
         6           P   tau(   6) = (   0.9061950   0.3297345   0.0235273  )
         7           P   tau(   7) = (   0.5938050   0.3297345   0.0235273  )
         8           P   tau(   8) = (   0.0938050   0.3185116   0.5310469  )
         9           P   tau(   9) = (   0.4718180   0.2210435   0.3295984  )
        10           P   tau(  10) = (   0.9718180   0.4272026   0.2249758  )
        11           P   tau(  11) = (   0.5281820   0.4272026   0.2249758  )
        12           P   tau(  12) = (   0.0281820   0.2210435   0.3295984  )

   Crystallographic axes

     site n.     atom                  positions (cryst. coord.)
         1           Lu  tau(   1) = (  0.2500000  0.9981760  0.3469220  )
         2           Lu  tau(   2) = (  0.7500000  0.0018240  0.6530780  )
         3           P   tau(   3) = (  0.2500000  0.7308170  0.8898950  )
         4           P   tau(   4) = (  0.7500000  0.2691830  0.1101050  )
         5           P   tau(   5) = (  0.4061950  0.3830230  0.9575760  )
         6           P   tau(   6) = (  0.9061950  0.6169770  0.0424240  )
         7           P   tau(   7) = (  0.5938050  0.6169770  0.0424240  )
         8           P   tau(   8) = (  0.0938050  0.3830230  0.9575760  )
         9           P   tau(   9) = (  0.4718180  0.2821280  0.5943270  )
        10           P   tau(  10) = (  0.9718180  0.7178720  0.4056730  )
        11           P   tau(  11) = (  0.5281820  0.7178720  0.4056730  )
        12           P   tau(  12) = (  0.0281820  0.2821280  0.5943270  )

     number of k points=    10
                       cart. coord. in units 2pi/alat
        k(    1) = (   0.0000000   0.0000000   0.0000000), wk =   0.0740741
        k(    2) = (   0.0000000   0.0000000   0.6010618), wk =   0.1481481
        k(    3) = (   0.0000000   0.6336750  -0.1396459), wk =   0.1481481
        k(    4) = (   0.0000000   0.6336750   0.4614159), wk =   0.1481481
        k(    5) = (   0.0000000   0.6336750  -0.7407077), wk =   0.1481481
        k(    6) = (   0.3333333   0.0000000   0.0000000), wk =   0.1481481
        k(    7) = (   0.3333333   0.0000000   0.6010618), wk =   0.2962963
        k(    8) = (   0.3333333   0.6336750  -0.1396459), wk =   0.2962963
        k(    9) = (   0.3333333   0.6336750   0.4614159), wk =   0.2962963
        k(   10) = (   0.3333333   0.6336750  -0.7407077), wk =   0.2962963

                       cryst. coord.
        k(    1) = (   0.0000000   0.0000000   0.0000000), wk =   0.0740741
        k(    2) = (   0.0000000   0.0000000   0.3333333), wk =   0.1481481
        k(    3) = (   0.0000000   0.3333333   0.0000000), wk =   0.1481481
        k(    4) = (   0.0000000   0.3333333   0.3333333), wk =   0.1481481
        k(    5) = (   0.0000000   0.3333333  -0.3333333), wk =   0.1481481
        k(    6) = (   0.3333333   0.0000000   0.0000000), wk =   0.1481481
        k(    7) = (   0.3333333   0.0000000   0.3333333), wk =   0.2962963
        k(    8) = (   0.3333333   0.3333333   0.0000000), wk =   0.2962963
        k(    9) = (   0.3333333   0.3333333   0.3333333), wk =   0.2962963
        k(   10) = (   0.3333333   0.3333333  -0.3333333), wk =   0.2962963

     Initial potential from superposition of free atoms

     starting charge      99.9909, renormalised to     100.0000
     Starting wfcs are  104 randomized atomic wfcs
     Checking if some PAW data can be deallocated...

     Self-consistent Calculation

     iteration #  1     ecut=    30.00 Ry     beta= 0.70
     Davidson diagonalization with overlap

     ethr =  1.00E-02,  avg # of iterations =  4.7

     Threshold (ethr) on eigenvalues was too large:
     Diagonalizing with lowered threshold

     Davidson diagonalization with overlap

[...]

     total energy              =   -2301.14886142 Ry
     estimated scf accuracy    <       0.30160538 Ry

[...]

     total energy              =   -2301.20998217 Ry
     estimated scf accuracy    <       0.00000167 Ry

     iteration #  8     ecut=    30.00 Ry     beta= 0.70
     Davidson diagonalization with overlap

     ethr =  1.67E-09,  avg # of iterations =  4.0

     End of self-consistent calculation

          k = 0.0000 0.0000 0.0000 (  4431 PWs)   bands (ev):

   -46.8112 -46.8112 -17.5537 -17.5527 -17.4181 -17.4177 -17.4000 -17.3909
    -5.5503  -4.6194  -3.5895  -1.9059  -1.1796  -0.8470  -0.3171   0.6806
     2.3799   2.7604   3.7909   3.8537   3.9692   4.3170   4.4995   4.5661
     4.5714   4.5915   4.5949   4.6131   4.6132   4.6252   4.6263   4.6330
     4.6340   4.6587   4.6600   4.6620   4.7898   5.2563   5.2819   5.3771
     5.5771   6.0474   6.6034   6.8351   7.2794   7.6497   7.8279   7.8319
     8.5811   8.6228   9.6237  10.7808  10.8104  10.9303  11.4966  11.6383
    12.0660  12.8313  12.8472  12.8989  13.1525  13.1643  13.3428  13.6651

     occupation numbers
     1.0000   1.0000   1.0000   1.0000   1.0000   1.0000   1.0000   1.0000
     1.0000   1.0000   1.0000   1.0000   1.0000   1.0000   1.0000   1.0000
     1.0000   1.0000   1.0000   1.0000   1.0000   1.0000   1.0000   1.0000
     1.0000   1.0000   1.0000   1.0000   1.0000   1.0000   1.0000   1.0000
     1.0000   1.0000   1.0000   1.0000   1.0000   1.0000   1.0000   1.0000
     1.0000   1.0000   1.0000   1.0000   1.0000   1.0000   1.0000   1.0000
     1.0000   1.0000   0.0000   0.0000   0.0000   0.0000   0.0000   0.0000
     0.0000   0.0000   0.0000   0.0000   0.0000   0.0000   0.0000   0.0000

[...]

          k = 0.3333 0.6337-0.7407 (  4427 PWs)   bands (ev):

   -46.8112 -46.8112 -17.5570 -17.5564 -17.4210 -17.4209 -17.3965 -17.3925
    -4.8758  -4.4728  -3.2950  -2.9428  -1.8152  -1.0407  -0.0877   0.0061
     1.6923   1.9219   3.7284   3.9551   4.1303   4.4313   4.5700   4.5802
     4.5871   4.5961   4.5981   4.5998   4.6078   4.6144   4.6232   4.6372
     4.6454   4.6531   4.6763   4.7108   4.9427   5.4217   5.8608   6.3935
     6.6261   6.7874   7.0724   7.3189   7.5054   7.6869   7.7380   8.1151
     8.3218   8.6790  10.8696  10.9783  11.0931  11.3558  11.6352  11.9288
    12.2853  12.4793  12.5547  12.8146  13.0227  13.2950  13.3207  13.5549

     occupation numbers
     1.0000   1.0000   1.0000   1.0000   1.0000   1.0000   1.0000   1.0000
     1.0000   1.0000   1.0000   1.0000   1.0000   1.0000   1.0000   1.0000
     1.0000   1.0000   1.0000   1.0000   1.0000   1.0000   1.0000   1.0000
     1.0000   1.0000   1.0000   1.0000   1.0000   1.0000   1.0000   1.0000
     1.0000   1.0000   1.0000   1.0000   1.0000   1.0000   1.0000   1.0000
     1.0000   1.0000   1.0000   1.0000   1.0000   1.0000   1.0000   1.0000
     1.0000   1.0000   0.0000   0.0000   0.0000   0.0000   0.0000   0.0000
     0.0000   0.0000   0.0000   0.0000   0.0000   0.0000   0.0000   0.0000

     highest occupied, lowest unoccupied level (ev):     8.9213    9.6237

!    total energy              =   -2301.20998279 Ry
     estimated scf accuracy    <       0.00000012 Ry

     The total energy is the sum of the following terms:
     one-electron contribution =   -1036.35919536 Ry
     hartree contribution      =     488.12953186 Ry
     xc contribution           =    -126.91473690 Ry
     ewald contribution        =    -641.76782453 Ry
     one-center paw contrib.   =    -984.29775786 Ry
      -> PAW hartree energy AE =     979.82842762 Ry
      -> PAW hartree energy PS =    -845.71461069 Ry
      -> PAW xc energy AE      =   -1198.58475903 Ry
      -> PAW xc energy PS      =      80.17318423 Ry
      -> total E_H with PAW    =     622.24334879 Ry
      -> total E_XC with PAW   =   -1245.32631170 Ry

     convergence has been achieved in   8 iterations

     Writing all to output data dir bands_nm/myprefix.save/

     General routines

     Parallel routines

     PAW routines

   This run was terminated on:   2:19:44  14Jul2023

   JOB DONE.