     Program PWSCF v.7.0 starts on 23Jun2023 at  7: 4:37

     K-points division:     npool     =       2
     R & G space division:  proc/nbgrp/npool/nimage =       4

     Reading input from espresso_12158.pwi
Warning: card &CELL ignored
Warning: card / ignored

     Current dimensions of program PWSCF are:
     Max number of different atomic species (ntypx) = 10
     Max number of k-points (npk) =  40000
     Max angular momentum in pseudopotentials (lmaxx) =  4
     Message from routine setup:
     using ibrav=0 with symmetry is DISCOURAGED, use correct ibrav instead

     Using Slab Decomposition

     bravais-lattice index     =            0
     lattice parameter (alat)  =      12.7044  a.u.
     unit-cell volume          =    2343.5888 (a.u.)^3
     number of atoms/cell      =           14
     number of atomic types    =            3
     number of electrons       =       144.00
     number of Kohn-Sham states=           90
     kinetic-energy cutoff     =      30.0000  Ry
     charge density cutoff     =     240.0000  Ry
     scf convergence threshold =      1.0E-06
     mixing beta               =       0.7000
     number of iterations used =            8  plain     mixing
     Exchange-correlation=  SLA  PW   PBX  PBC
                           (   1   4   3   4   0   0   0)

     celldm(1)=  12.704427  celldm(2)=   0.000000  celldm(3)=   0.000000
     celldm(4)=   0.000000  celldm(5)=   0.000000  celldm(6)=   0.000000

     crystal axes: (cart. coord. in units of alat)
               a(1) = (   1.000000   0.000000   0.000000 )
               a(2) = (   0.000000   0.995147   0.000000 )
               a(3) = (   0.000000   0.373255   1.148494 )

     reciprocal axes: (cart. coord. in units 2 pi/alat)
               b(1) = (  1.000000  0.000000  0.000000 )
               b(2) = (  0.000000  1.004876 -0.326580 )
               b(3) = (  0.000000  0.000000  0.870705 )

     PseudoPot. # 1 for Eu read from file:
     /home/pragov/projects/rrg-bengioy-ad/pragov/crystal_structure_design/SSSP/Eu.GGA-PBE-paw-v1.0.UPF
     MD5 check sum: acec5fd9176fb57ec8e299eae1ecaf48
     Pseudo is Projector augmented-wave + core cor, Zval = 17.0
     Generated using ATOMPAW code
     Shape of augmentation charge: BESSEL
     Using radial grid of 1109 points,  8 beta functions with:
                l(1) =   0
                l(2) =   0
                l(3) =   1
                l(4) =   1
                l(5) =   2
                l(6) =   2
                l(7) =   3
                l(8) =   3
     Q(r) pseudized with 0 coefficients

     PseudoPot. # 2 for Ge read from file:
     /home/pragov/projects/rrg-bengioy-ad/pragov/crystal_structure_design/SSSP/ge_pbe_v1.4.uspp.F.UPF
     MD5 check sum: 9c9eaa91e581c3f09632fb3098b2c6b2
     Pseudo is Ultrasoft + core correction, Zval = 14.0
     Generated by new atomic code, or converted to UPF format
     Using radial grid of  873 points,  6 beta functions with:
                l(1) =   0
                l(2) =   0
                l(3) =   1
                l(4) =   1
                l(5) =   2
                l(6) =   2
     Q(r) pseudized with  8 coefficients,  rinner =    1.400   1.400   1.400
                                                       1.400   1.400

     PseudoPot. # 3 for S  read from file:
     /home/pragov/projects/rrg-bengioy-ad/pragov/crystal_structure_design/SSSP/s_pbe_v1.4.uspp.F.UPF
     MD5 check sum: 88d86576ff6df21479756cfb9bdac1df
     Pseudo is Ultrasoft + core correction, Zval =  6.0
     Generated by new atomic code, or converted to UPF format
     Using radial grid of  907 points,  6 beta functions with:
                l(1) =   0
                l(2) =   0
                l(3) =   1
                l(4) =   1
                l(5) =   2
                l(6) =   2
     Q(r) pseudized with  8 coefficients,  rinner =    1.300   1.300   1.300
                                                       1.300   1.300

     atomic species   valence    mass     pseudopotential
        Eu            17.00   151.96400     Eu( 1.00)
        Ge            14.00    72.63000     Ge( 1.00)
        S              6.00    32.06000     S ( 1.00)

      4 Sym. Ops., with inversion, found ( 2 have fractional translation)

                                    s                        frac. trans.

      isym =  1     identity

 cryst.   s( 1) = (     1          0          0      )
                  (     0          1          0      )
                  (     0          0          1      )

 cart.    s( 1) = (  1.0000000  0.0000000  0.0000000 )
                  (  0.0000000  1.0000000  0.0000000 )
                  (  0.0000000  0.0000000  1.0000000 )

      isym =  2     180 deg rotation - cart. axis [1,0,0]

 cryst.   s( 2) = (     1          0          0      )    f =( -0.5000000 )
                  (     0         -1          0      )       ( -0.0000000 )
                  (     0          0         -1      )       ( -0.0000000 )

 cart.    s( 2) = (  1.0000000  0.0000000  0.0000000 )    f =( -0.5000000 )
                  (  0.0000000 -1.0000000 -0.0000000 )       ( -0.0000000 )
                  (  0.0000000  0.0000000 -1.0000000 )       ( -0.0000000 )

      isym =  3     inversion

 cryst.   s( 3) = (    -1          0          0      )
                  (     0         -1          0      )
                  (     0          0         -1      )

 cart.    s( 3) = ( -1.0000000  0.0000000  0.0000000 )
                  (  0.0000000 -1.0000000 -0.0000000 )
                  (  0.0000000  0.0000000 -1.0000000 )

      isym =  4     inv. 180 deg rotation - cart. axis [1,0,0]

 cryst.   s( 4) = (    -1          0          0      )    f =(  0.5000000 )
                  (     0          1          0      )       (  0.0000000 )
                  (     0          0          1      )       (  0.0000000 )

 cart.    s( 4) = ( -1.0000000  0.0000000  0.0000000 )    f =(  0.5000000 )
                  (  0.0000000  1.0000000  0.0000000 )       (  0.0000000 )
                  (  0.0000000  0.0000000  1.0000000 )       (  0.0000000 )

   Cartesian axes

     site n.     atom                  positions (alat units)
         1           Eu  tau(   1) = (   0.2500000   1.0713627   1.0877491  )
         2           Eu  tau(   2) = (   0.7500000   0.2970397   0.0607450  )
         3           Eu  tau(   3) = (   0.2500000   0.9221072   0.4971176  )
         4           Eu  tau(   4) = (   0.7500000   0.4462952   0.6513765  )
         5           Ge  tau(   5) = (   0.2500000   0.5695210   0.9180545  )
         6           Ge  tau(   6) = (   0.7500000   0.7988814   0.2304396  )
         7           S   tau(   7) = (   0.2500000   0.1218397   0.0933151  )
         8           S   tau(   8) = (   0.7500000   1.2465627   1.0551790  )
         9           S   tau(   9) = (   0.2500000   0.3056656   0.7176044  )
        10           S   tau(  10) = (   0.7500000   1.0627368   0.4308897  )
        11           S   tau(  11) = (   0.5045960   0.7697676   0.8494251  )
        12           S   tau(  12) = (   0.0045960   0.5986348   0.2990690  )
        13           S   tau(  13) = (   0.4954040   0.5986348   0.2990690  )
        14           S   tau(  14) = (   0.9954040   0.7697676   0.8494251  )

   Crystallographic axes

     site n.     atom                  positions (cryst. coord.)
         1           Eu  tau(   1) = (  0.2500000  0.7213500  0.9471090  )
         2           Eu  tau(   2) = (  0.7500000  0.2786500  0.0528910  )
         3           Eu  tau(   3) = (  0.2500000  0.7642550  0.4328430  )
         4           Eu  tau(   4) = (  0.7500000  0.2357450  0.5671570  )
         5           Ge  tau(   5) = (  0.2500000  0.2724800  0.7993550  )
         6           Ge  tau(   6) = (  0.7500000  0.7275200  0.2006450  )
         7           S   tau(   7) = (  0.2500000  0.0919590  0.0812500  )
         8           S   tau(   8) = (  0.7500000  0.9080410  0.9187500  )
         9           S   tau(   9) = (  0.2500000  0.0728010  0.6248220  )
        10           S   tau(  10) = (  0.7500000  0.9271990  0.3751780  )
        11           S   tau(  11) = (  0.5045960  0.4961160  0.7395990  )
        12           S   tau(  12) = (  0.0045960  0.5038840  0.2604010  )
        13           S   tau(  13) = (  0.4954040  0.5038840  0.2604010  )
        14           S   tau(  14) = (  0.9954040  0.4961160  0.7395990  )

     number of k points=    10
                       cart. coord. in units 2pi/alat
        k(    1) = (   0.0000000   0.0000000   0.0000000), wk =   0.0740741
        k(    2) = (   0.0000000   0.0000000   0.2902351), wk =   0.1481481
        k(    3) = (   0.0000000   0.3349587  -0.1088599), wk =   0.1481481
        k(    4) = (   0.0000000   0.3349587   0.1813752), wk =   0.1481481
        k(    5) = (   0.0000000   0.3349587  -0.3990951), wk =   0.1481481
        k(    6) = (   0.3333333   0.0000000   0.0000000), wk =   0.1481481
        k(    7) = (   0.3333333   0.0000000   0.2902351), wk =   0.2962963
        k(    8) = (   0.3333333   0.3349587  -0.1088599), wk =   0.2962963
        k(    9) = (   0.3333333   0.3349587   0.1813752), wk =   0.2962963
        k(   10) = (   0.3333333   0.3349587  -0.3990951), wk =   0.2962963

                       cryst. coord.
        k(    1) = (   0.0000000   0.0000000   0.0000000), wk =   0.0740741
        k(    2) = (   0.0000000   0.0000000   0.3333333), wk =   0.1481481
        k(    3) = (   0.0000000   0.3333333   0.0000000), wk =   0.1481481
        k(    4) = (   0.0000000   0.3333333   0.3333333), wk =   0.1481481
        k(    5) = (   0.0000000   0.3333333  -0.3333333), wk =   0.1481481
        k(    6) = (   0.3333333   0.0000000   0.0000000), wk =   0.1481481
        k(    7) = (   0.3333333   0.0000000   0.3333333), wk =   0.2962963
        k(    8) = (   0.3333333   0.3333333   0.0000000), wk =   0.2962963
        k(    9) = (   0.3333333   0.3333333   0.3333333), wk =   0.2962963
        k(   10) = (   0.3333333   0.3333333  -0.3333333), wk =   0.2962963

     Initial potential from superposition of free atoms

     starting charge     143.9791, renormalised to     144.0000
     Starting wfcs are  178 randomized atomic wfcs
     Checking if some PAW data can be deallocated...

     Self-consistent Calculation

     iteration #  1     ecut=    30.00 Ry     beta= 0.70
     Davidson diagonalization with overlap

     ethr =  1.00E-02,  avg # of iterations =  2.0

     total energy              =   -3117.79016780 Ry
     estimated scf accuracy    <      60.89033223 Ry

[...]

     total energy              =   -3189.43483874 Ry
     estimated scf accuracy    <       0.00478522 Ry

     iteration #238     ecut=    30.00 Ry     beta= 0.70
     Davidson diagonalization with overlap

     ethr =  7.47E-09,  avg # of iterations =  1.0

     End of self-consistent calculation

          k = 0.0000 0.0000 0.0000 (  6489 PWs)   bands (ev):

   -32.1385 -32.1373 -32.0511 -32.0485 -17.0328 -17.0325 -17.0322 -17.0301
   -17.0280 -17.0279 -16.9822 -16.9800 -16.9788 -16.9778 -11.2524 -11.2104
   -11.1789 -11.1729 -11.1278 -11.1228 -11.0898 -11.0577 -11.0301 -11.0149
   -10.9757 -10.9625  -6.1140  -5.7126  -4.3568  -4.1737  -4.1735  -4.1688
    -4.1458  -4.0592   0.1082   0.4217   2.9002   3.3197   3.4964   3.7298
     3.8785   4.1958   4.2371   4.8862   4.9074   5.1557   5.3546   5.4258
     5.7211   5.7597   6.0532   6.1017   6.3171   6.4977   6.5487   6.6056
     6.6303   7.1479   9.1256   9.1335   9.1716   9.2369   9.3322   9.3365
     9.3415   9.3596   9.3786   9.4045   9.4386   9.4493   9.4508   9.4629
     9.5131   9.5162   9.5398   9.5473   9.5717   9.5925   9.6370   9.6520
     9.6591   9.6773   9.6974   9.6995   9.7235   9.7304   9.7594   9.7977
    10.1840  10.6065

     occupation numbers
     1.0000   1.0000   1.0000   1.0000   1.0000   1.0000   1.0000   1.0000
     1.0000   1.0000   1.0000   1.0000   1.0000   1.0000   1.0000   1.0000
     1.0000   1.0000   1.0000   1.0000   1.0000   1.0000   1.0000   1.0000
     1.0000   1.0000   1.0000   1.0000   1.0000   1.0000   1.0000   1.0000
     1.0000   1.0000   1.0000   1.0000   1.0000   1.0000   1.0000   1.0000
     1.0000   1.0000   1.0000   1.0000   1.0000   1.0000   1.0000   1.0000
     1.0000   1.0000   1.0000   1.0000   1.0000   1.0000   1.0000   1.0000
     1.0000   1.0000   1.0000   1.0000   1.0000   1.0000   1.0000   1.0000
     1.0000   1.0000   1.0000   1.0000   1.0000   1.0000   1.0000   1.0000
     0.0000   0.0000   0.0000   0.0000   0.0000   0.0000   0.0000   0.0000
     0.0000   0.0000   0.0000   0.0000   0.0000   0.0000   0.0000   0.0000
     0.0000   0.0000

[...]

          k = 0.3333 0.3350-0.3991 (  6509 PWs)   bands (ev):

   -32.1380 -32.1376 -32.0505 -32.0493 -17.0335 -17.0323 -17.0313 -17.0312
   -17.0287 -17.0283 -16.9822 -16.9817 -16.9801 -16.9797 -11.1975 -11.1868
   -11.1727 -11.1678 -11.1288 -11.1223 -11.0938 -11.0805 -11.0261 -11.0234
   -11.0197 -11.0059  -5.7641  -5.7530  -4.4180  -4.3820  -4.3063  -4.2270
    -4.1199  -4.0946   0.5077   0.6374   3.3354   3.3757   3.4361   3.6598
     3.8194   4.1118   4.5274   4.8272   4.9535   5.1285   5.2039   5.4512
     5.5408   5.5884   5.8155   5.9245   6.0291   6.1033   6.1876   6.3278
     6.3690   6.5437   9.1557   9.1632   9.2203   9.2257   9.3237   9.3298
     9.3679   9.3896   9.4093   9.4207   9.4401   9.4554   9.4777   9.4817
     9.5022   9.5124   9.5228   9.5399   9.6063   9.6232   9.6498   9.6641
     9.6769   9.6853   9.6916   9.6957   9.7153   9.7334   9.9704  10.0700
    10.4780  10.8691

     occupation numbers
     1.0000   1.0000   1.0000   1.0000   1.0000   1.0000   1.0000   1.0000
     1.0000   1.0000   1.0000   1.0000   1.0000   1.0000   1.0000   1.0000
     1.0000   1.0000   1.0000   1.0000   1.0000   1.0000   1.0000   1.0000
     1.0000   1.0000   1.0000   1.0000   1.0000   1.0000   1.0000   1.0000
     1.0000   1.0000   1.0000   1.0000   1.0000   1.0000   1.0000   1.0000
     1.0000   1.0000   1.0000   1.0000   1.0000   1.0000   1.0000   1.0000
     1.0000   1.0000   1.0000   1.0000   1.0000   1.0000   1.0000   1.0000
     1.0000   1.0000   1.0000   1.0000   1.0000   1.0000   1.0000   1.0000
     1.0000   1.0000   1.0000   1.0000   1.0000   1.0000   1.0000   1.0000
     0.0000   0.0000   0.0000   0.0000   0.0000   0.0000   0.0000   0.0000
     0.0000   0.0000   0.0000   0.0000   0.0000   0.0000   0.0000   0.0000
     0.0000   0.0000

     highest occupied, lowest unoccupied level (ev):     9.4865    9.4697

!    total energy              =   -3189.43485568 Ry
     estimated scf accuracy    <       0.00000006 Ry

     The total energy is the sum of the following terms:
     one-electron contribution =    -722.86917356 Ry
     hartree contribution      =     454.95580821 Ry
     xc contribution           =    -265.16260315 Ry
     ewald contribution        =    -828.49470817 Ry
     one-center paw contrib.   =   -1827.86417900 Ry
      -> PAW hartree energy AE =     315.21499450 Ry
      -> PAW hartree energy PS =    -300.62894441 Ry
      -> PAW xc energy AE      =    -966.87448556 Ry
      -> PAW xc energy PS      =      38.32067557 Ry
      -> total E_H with PAW    =     469.54185829 Ry
      -> total E_XC with PAW   =   -1193.71641314 Ry

     convergence has been achieved in 238 iterations

     Writing all to output data dir calculations_bands/myprefix.save/

     General routines

     Parallel routines

     PAW routines

   This run was terminated on:   7:19:47  23Jun2023

   JOB DONE.