     Program PWSCF v.7.1 starts on 15Jul2023 at 14:10:38

     Reading input from espresso_25234.pwi
Warning: card &CELL ignored
Warning: card / ignored

     Current dimensions of program PWSCF are:
     Max number of different atomic species (ntypx) = 10
     Max number of k-points (npk) =  40000
     Max angular momentum in pseudopotentials (lmaxx) =  4
     file Cd.pbe-dn-rrkjus_psl.0.3.1.UPF: wavefunction(s)  4D renormalized
     Message from routine setup:
     the system is metallic, specify occupations

     K-points division:     npool     =       2
     R & G space division:  proc/nbgrp/npool/nimage =       4
     Subspace diagonalization in iterative solution of the eigenvalue problem:
     a serial algorithm will be used

     Using Slab Decomposition

     bravais-lattice index     =            0
     lattice parameter (alat)  =      32.3265  a.u.
     unit-cell volume          =    1716.9030 (a.u.)^3
     number of atoms/cell      =           10
     number of atomic types    =            3
     number of electrons       =        93.00 (up:  49.00, down:  44.00)
     number of Kohn-Sham states=           64
     kinetic-energy cutoff     =      30.0000  Ry
     charge density cutoff     =     240.0000  Ry
     scf convergence threshold =      1.0E-06
     mixing beta               =       0.7000
     number of iterations used =            8  plain     mixing
     Exchange-correlation=  SLA  PW   PBX  PBC
                           (   1   4   3   4   0   0   0)

     celldm(1)=  32.326478  celldm(2)=   0.000000  celldm(3)=   0.000000
     celldm(4)=   0.000000  celldm(5)=   0.000000  celldm(6)=   0.000000

     crystal axes: (cart. coord. in units of alat)
               a(1) = (   1.000000   0.000000   0.000000 )
               a(2) = (   0.970362   0.241654   0.000000 )
               a(3) = (   0.970362   0.119010   0.210318 )

     reciprocal axes: (cart. coord. in units 2 pi/alat)
               b(1) = (  1.000000 -4.015496 -2.341596 )
               b(2) = (  0.000000  4.138141 -2.341596 )
               b(3) = (  0.000000  0.000000  4.754712 )

     PseudoPot. # 1 for Mn read from file:
     /lustre07/scratch/pragov/crystal_structure_design/utils/SSSP/mn_pbe_v1.5.uspp.F.UPF
     MD5 check sum: 82ef2b46521d7a7d9e736dc3972e4928
     Pseudo is Ultrasoft + core correction, Zval = 15.0
     Generated by new atomic code, or converted to UPF format
     Using radial grid of  859 points,  6 beta functions with:
                l(1) =   0
                l(2) =   0
                l(3) =   1
                l(4) =   1
                l(5) =   2
                l(6) =   2
     Q(r) pseudized with  8 coefficients,  rinner =    0.950   0.950   0.950
                                                       0.950   0.950

     PseudoPot. # 2 for Cd read from file:
     /lustre07/scratch/pragov/crystal_structure_design/utils/SSSP/Cd.pbe-dn-rrkjus_psl.0.3.1.UPF
     MD5 check sum: 558e9f355611b531a870a69ef6ace9e2
     Pseudo is Ultrasoft + core correction, Zval = 12.0
     Generated using "atomic" code by A. Dal Corso  v.5.0.99 svn rev. 10869
     Using radial grid of 1239 points,  6 beta functions with:
                l(1) =   0
                l(2) =   0
                l(3) =   1
                l(4) =   1
                l(5) =   2
                l(6) =   2
     Q(r) pseudized with 0 coefficients

     PseudoPot. # 3 for S  read from file:
     /lustre07/scratch/pragov/crystal_structure_design/utils/SSSP/s_pbe_v1.4.uspp.F.UPF
     MD5 check sum: 88d86576ff6df21479756cfb9bdac1df
     Pseudo is Ultrasoft + core correction, Zval =  6.0
     Generated by new atomic code, or converted to UPF format
     Using radial grid of  907 points,  6 beta functions with:
                l(1) =   0
                l(2) =   0
                l(3) =   1
                l(4) =   1
                l(5) =   2
                l(6) =   2
     Q(r) pseudized with  8 coefficients,  rinner =    1.300   1.300   1.300
                                                       1.300   1.300

     atomic species   valence    mass     pseudopotential
        Mn            15.00    54.93804     Mn( 1.00)
        Cd            12.00   112.41400     Cd( 1.00)
        S              6.00    32.06000     S ( 1.00)

     Starting magnetic structure
     atomic species   magnetization
        Mn           0.000
        Cd           0.000
        S            0.000

     No symmetry found

                                    s                        frac. trans.

      isym =  1     identity

 cryst.   s( 1) = (     1          0          0      )
                  (     0          1          0      )
                  (     0          0          1      )

 cart.    s( 1) = (  1.0000000  0.0000000  0.0000000 )
                  (  0.0000000  1.0000000  0.0000000 )
                  (  0.0000000  0.0000000  1.0000000 )

   Cartesian axes

     site n.     atom                  positions (alat units)
         1           Mn  tau(   1) = (   1.1776015   0.1444265   0.0842209  )
         2           Cd  tau(   2) = (   0.0038906   0.0004772   0.0002783  )
         3           Cd  tau(   3) = (   1.7649907   0.2164667   0.1262304  )
         4           Cd  tau(   4) = (   0.5873774   0.0720387   0.0420086  )
         5           Cd  tau(   5) = (   2.3471218   0.2878620   0.1678638  )
         6           S   tau(   6) = (   2.7960529   0.3429210   0.1999709  )
         7           S   tau(   7) = (   1.6174545   0.1983722   0.1156787  )
         8           S   tau(   8) = (   0.4391120   0.0538547   0.0314048  )
         9           S   tau(   9) = (   2.1974478   0.2695052   0.1571593  )
        10           S   tau(  10) = (   1.0373936   0.1272308   0.0741934  )

   Crystallographic axes

     site n.     atom                  positions (cryst. coord.)
         1           Mn  tau(   1) = (  0.4004460  0.4004460  0.4004460  )
         2           Cd  tau(   2) = (  0.0013230  0.0013230  0.0013230  )
         3           Cd  tau(   3) = (  0.6001890  0.6001890  0.6001890  )
         4           Cd  tau(   4) = (  0.1997390  0.1997390  0.1997390  )
         5           Cd  tau(   5) = (  0.7981440  0.7981440  0.7981440  )
         6           S   tau(   6) = (  0.9508040  0.9508040  0.9508040  )
         7           S   tau(   7) = (  0.5500190  0.5500190  0.5500190  )
         8           S   tau(   8) = (  0.1493210  0.1493210  0.1493210  )
         9           S   tau(   9) = (  0.7472470  0.7472470  0.7472470  )
        10           S   tau(  10) = (  0.3527680  0.3527680  0.3527680  )

     number of k points=    14
                       cart. coord. in units 2pi/alat
        k(    1) = (   0.0000000   0.0000000   0.0000000), wk =   0.0370370
        k(    2) = (   0.0000000   0.0000000   1.5849039), wk =   0.0740741
        k(    3) = (   0.0000000   1.3793802  -0.7805322), wk =   0.0740741
        k(    4) = (   0.0000000   1.3793802   0.8043718), wk =   0.0740741
        k(    5) = (   0.0000000   1.3793802  -2.3654361), wk =   0.0740741
        k(    6) = (   0.3333333  -1.3384986  -0.7805322), wk =   0.0740741
        k(    7) = (   0.3333333  -1.3384986   0.8043718), wk =   0.0740741
        k(    8) = (   0.3333333  -1.3384986  -2.3654361), wk =   0.0740741
        k(    9) = (   0.3333333   0.0408816  -1.5610643), wk =   0.0740741
        k(   10) = (   0.3333333   0.0408816   0.0238396), wk =   0.0740741
        k(   11) = (   0.3333333   0.0408816  -3.1459683), wk =   0.0740741
        k(   12) = (   0.3333333  -2.7178788  -0.0000000), wk =   0.0740741
        k(   13) = (   0.3333333  -2.7178788   1.5849039), wk =   0.0740741
        k(   14) = (   0.3333333  -2.7178788  -1.5849039), wk =   0.0740741

                       cryst. coord.
        k(    1) = (   0.0000000   0.0000000   0.0000000), wk =   0.0370370
        k(    2) = (   0.0000000   0.0000000   0.3333333), wk =   0.0740741
        k(    3) = (   0.0000000   0.3333333   0.0000000), wk =   0.0740741
        k(    4) = (   0.0000000   0.3333333   0.3333333), wk =   0.0740741
        k(    5) = (   0.0000000   0.3333333  -0.3333333), wk =   0.0740741
        k(    6) = (   0.3333333   0.0000000  -0.0000000), wk =   0.0740741
        k(    7) = (   0.3333333   0.0000000   0.3333333), wk =   0.0740741
        k(    8) = (   0.3333333   0.0000000  -0.3333333), wk =   0.0740741
        k(    9) = (   0.3333333   0.3333333  -0.0000000), wk =   0.0740741
        k(   10) = (   0.3333333   0.3333333   0.3333333), wk =   0.0740741
        k(   11) = (   0.3333333   0.3333333  -0.3333333), wk =   0.0740741
        k(   12) = (   0.3333333  -0.3333333  -0.0000000), wk =   0.0740741
        k(   13) = (   0.3333333  -0.3333333   0.3333333), wk =   0.0740741
        k(   14) = (   0.3333333  -0.3333333  -0.3333333), wk =   0.0740741

     Check: negative core charge=   -0.000005
     Generating pointlists ...
     new r_m :   0.0584 (alat units)  1.8884 (a.u.) for type    1
     new r_m :   0.0615 (alat units)  1.9871 (a.u.) for type    2
     new r_m :   0.0584 (alat units)  1.8884 (a.u.) for type    3

     Initial potential from superposition of free atoms

     starting charge      92.4802, renormalised to      93.0000
     Starting wfcs are   69 randomized atomic wfcs

     Self-consistent Calculation

     iteration #  1     ecut=    30.00 Ry     beta= 0.70
     Davidson diagonalization with overlap

     ethr =  1.00E-02,  avg # of iterations =  6.7

     total energy              =    -764.07568674 Ry
     estimated scf accuracy    <      65.57699025 Ry

     total magnetization       =     5.00 Bohr mag/cell
     absolute magnetization    =     5.00 Bohr mag/cell

[...]

     c_bands:  3 eigenvalues not converged
     ethr =  1.00E-02,  avg # of iterations = 15.1

[...]

     negative rho (up, down):  1.488E-01 5.798E-01

[...]

     total energy              =    -820.96033790 Ry
     estimated scf accuracy    <       0.00000223 Ry

[...]

     iteration # 35     ecut=    30.00 Ry     beta= 0.70
     Davidson diagonalization with overlap

     ethr =  2.39E-09,  avg # of iterations =  4.3

     negative rho (up, down):  0.000E+00 2.383E-04

     Magnetic moment per site  (integrated on atomic sphere of radius R)
     atom   1 (R=0.058)  charge= 12.9064  magn=  4.1810
     atom   2 (R=0.061)  charge=  9.6741  magn=  0.0122
     atom   3 (R=0.061)  charge=  9.6820  magn=  0.0012
     atom   4 (R=0.061)  charge=  9.6818  magn=  0.0010
     atom   5 (R=0.061)  charge=  9.6753  magn=  0.0104
     atom   6 (R=0.058)  charge=  4.1376  magn=  0.0072
     atom   7 (R=0.058)  charge=  4.1430  magn=  0.0018
     atom   8 (R=0.058)  charge=  4.1343  magn=  0.0074
     atom   9 (R=0.058)  charge=  4.1498  magn=  0.0838
     atom  10 (R=0.058)  charge=  4.1496  magn=  0.0386

     End of self-consistent calculation

 ------ SPIN UP ------------

          k = 0.0000 0.0000 0.0000 (  4723 PWs)   bands (ev):

   -75.7355 -44.4424 -44.4424 -44.4359  -7.1648  -7.0459  -6.9778  -6.8057
    -6.6869  -2.5287  -2.5287  -2.5163  -2.4846  -2.4846  -2.4487  -2.4487
    -2.4242  -2.4242  -2.4002  -2.1482  -2.1243  -2.1243  -2.1137  -2.1137
    -2.0966  -2.0966  -2.0798  -2.0798  -1.9271   0.9165   1.2526   1.8449
     1.8453   2.0843   3.1040   3.1041   3.2115   3.9236   4.3701   4.3701
     4.5380   4.5380   4.7879   4.7879   4.9084   4.9085   5.4980   5.9033
     5.9040   6.1472   7.4703   7.5824   7.9597   8.3865  11.0259  11.2509
    11.5475  11.5475  11.5665  11.9229  11.9230  11.9409  11.9656  11.9659

     occupation numbers
     1.0000   1.0000   1.0000   1.0000   1.0000   1.0000   1.0000   1.0000
     1.0000   1.0000   1.0000   1.0000   1.0000   1.0000   1.0000   1.0000
     1.0000   1.0000   1.0000   1.0000   1.0000   1.0000   1.0000   1.0000
     1.0000   1.0000   1.0000   1.0000   1.0000   1.0000   1.0000   1.0000
     1.0000   1.0000   1.0000   1.0000   1.0000   1.0000   1.0000   1.0000
     1.0000   1.0000   1.0000   1.0000   1.0000   1.0000   1.0000   1.0000
     1.0000   0.0000   0.0000   0.0000   0.0000   0.0000   0.0000   0.0000
     0.0000   0.0000   0.0000   0.0000   0.0000   0.0000   0.0000   0.0000

[...]

 ------ SPIN DOWN ----------

[...]

          k = 0.3333-2.7179-1.5849 (  4788 PWs)   bands (ev):

   -70.8324 -39.6640 -39.6387 -39.6367  -6.8644  -6.7729  -6.6796  -6.6585
    -6.4032  -2.4465  -2.4348  -2.3943  -2.3709  -2.3515  -2.3119  -2.3119
    -2.2831  -2.2544  -2.1875  -2.1538  -2.1141  -2.1033  -2.0907  -2.0867
    -2.0680  -2.0444  -2.0316  -1.8740  -1.6797   1.2343   1.4209   1.6665
     1.9211   2.2614   2.5999   3.0607   3.2014   3.4067   3.5686   3.7150
     3.8329   4.1237   4.2618   4.3748   7.1338   7.4542   7.6020   7.8922
     8.1002   8.2132   8.8156   9.0473   9.2070   9.5106  10.0764  10.4096
    11.2224  11.4943  11.9217  12.1433  12.2639  12.5917  12.7116  12.7347

     occupation numbers
     1.0000   1.0000   1.0000   1.0000   1.0000   1.0000   1.0000   1.0000
     1.0000   1.0000   1.0000   1.0000   1.0000   1.0000   1.0000   1.0000
     1.0000   1.0000   1.0000   1.0000   1.0000   1.0000   1.0000   1.0000
     1.0000   1.0000   1.0000   1.0000   1.0000   1.0000   1.0000   1.0000
     1.0000   1.0000   1.0000   1.0000   1.0000   1.0000   1.0000   1.0000
     1.0000   1.0000   1.0000   1.0000   0.0000   0.0000   0.0000   0.0000
     0.0000   0.0000   0.0000   0.0000   0.0000   0.0000   0.0000   0.0000
     0.0000   0.0000   0.0000   0.0000   0.0000   0.0000   0.0000   0.0000

     highest occupied, lowest unoccupied level (ev):     5.9040    6.1472

!    total energy              =    -820.96033853 Ry
     estimated scf accuracy    <       0.00000044 Ry

     The total energy is the sum of the following terms:
     one-electron contribution =    -381.61877236 Ry
     hartree contribution      =     251.92642519 Ry
     xc contribution           =    -240.53179458 Ry
     ewald contribution        =    -450.73619679 Ry

     total magnetization       =     5.00 Bohr mag/cell
     absolute magnetization    =     5.01 Bohr mag/cell

     convergence has been achieved in  35 iterations

     Writing all to output data dir bands_nm/myprefix.save/

     General routines

     Parallel routines

   This run was terminated on:  14:17:43  15Jul2023

   JOB DONE.