     Program PWSCF v.7.1 starts on 15Jul2023 at 19: 0:28

     Reading input from espresso_10868.pwi
Warning: card &CELL ignored
Warning: card / ignored

     Current dimensions of program PWSCF are:
     Max number of different atomic species (ntypx) = 10
     Max number of k-points (npk) =  40000
     Max angular momentum in pseudopotentials (lmaxx) =  4
     file O.pbe-n-kjpaw_psl.0.1.UPF: wavefunction(s)  2P renormalized

     K-points division:     npool     =       2
     R & G space division:  proc/nbgrp/npool/nimage =       4
     Subspace diagonalization in iterative solution of the eigenvalue problem:
     one sub-group per band group will be used

     Using Slab Decomposition

     bravais-lattice index     =            0
     lattice parameter (alat)  =       9.4776  a.u.
     unit-cell volume          =    1442.7181 (a.u.)^3
     number of atoms/cell      =           18
     number of atomic types    =            2
     number of electrons       =       150.00
     number of Kohn-Sham states=          256
     kinetic-energy cutoff     =      30.0000  Ry
     charge density cutoff     =     240.0000  Ry
     scf convergence threshold =      1.0E-06
     mixing beta               =       0.7000
     number of iterations used =            8  plain     mixing
     Exchange-correlation= SLA  PW   PBX  PBC
                           (   1   4   3   4   0   0   0)

     celldm(1)=   9.477616  celldm(2)=   0.000000  celldm(3)=   0.000000
     celldm(4)=   0.000000  celldm(5)=   0.000000  celldm(6)=   0.000000

     crystal axes: (cart. coord. in units of alat)
               a(1) = (   1.000000   0.000000   0.000000 )
               a(2) = (  -0.038270   1.823962   0.000000 )
               a(3) = (  -0.369997  -0.049803   0.929113 )

     reciprocal axes: (cart. coord. in units 2 pi/alat)
               b(1) = (  1.000000  0.020982  0.399350 )
               b(2) = (  0.000000  0.548257  0.029388 )
               b(3) = (  0.000000  0.000000  1.076296 )

     PseudoPot. # 1 for V  read from file:
     /lustre07/scratch/pragov/crystal_structure_design/utils/SSSP/v_pbe_v1.4.uspp.F.UPF
     MD5 check sum: 22b79981416ebb76fdaf5b1b8640f6fb
     Pseudo is Ultrasoft + core correction, Zval = 13.0
     Generated by new atomic code, or converted to UPF format
     Using radial grid of  853 points,  6 beta functions with:
                l(1) =   0
                l(2) =   0
                l(3) =   1
                l(4) =   1
                l(5) =   2
                l(6) =   2
     Q(r) pseudized with  8 coefficients,  rinner =    1.100   1.100   1.100
                                                       1.100   1.100

     PseudoPot. # 2 for O  read from file:
     /lustre07/scratch/pragov/crystal_structure_design/utils/SSSP/O.pbe-n-kjpaw_psl.0.1.UPF
     MD5 check sum: 0234752ac141de4415c5fc33072bef88
     Pseudo is Projector augmented-wave + core cor, Zval =  6.0
     Generated using "atomic" code by A. Dal Corso  v.5.0.99 svn rev. 10869
     Shape of augmentation charge: BESSEL
     Using radial grid of 1095 points,  4 beta functions with:
                l(1) =   0
                l(2) =   0
                l(3) =   1
                l(4) =   1
     Q(r) pseudized with 0 coefficients

     atomic species   valence    mass     pseudopotential
        V             13.00    50.94150     V ( 1.00)
        O              6.00    15.99900     O ( 1.00)

     No symmetry found

                                    s                        frac. trans.

      isym =  1     identity

 cryst.   s( 1) = (     1          0          0      )
                  (     0          1          0      )
                  (     0          0          1      )

 cart.    s( 1) = (  1.0000000 -0.0000000 -0.0000000 )
                  (  0.0000000  1.0000000  0.0000000 )
                  (  0.0000000  0.0000000  1.0000000 )

   Cartesian axes

     site n.     atom                  positions (alat units)
         1           V   tau(   1) = (   0.3966725   0.4341477   0.0601433  )
         2           V   tau(   2) = (   0.6868166   1.3611713   0.5273699  )
         3           V   tau(   3) = (  -0.1004361   0.4524625   0.4150104  )
         4           V   tau(   4) = (   0.1813210   1.2996469   0.8626856  )
         5           V   tau(   5) = (   0.2946739   0.8867631   0.4647124  )
         6           V   tau(   6) = (   0.9557552   1.8225902   0.0067416  )
         7           O   tau(   7) = (   0.1735649   0.2026907   0.2873773  )
         8           O   tau(   8) = (   0.4827411   1.0743924   0.7307043  )
         9           O   tau(   9) = (   0.1254296   0.6997282   0.1861691  )
        10           O   tau(  10) = (   0.3846292   1.5696971   0.6642049  )
        11           O   tau(  11) = (  -0.1885632   0.2214167   0.7200854  )
        12           O   tau(  12) = (   0.4718019   1.1598851   0.2309737  )
        13           O   tau(  13) = (   0.7086554   0.2459666   0.0825535  )
        14           O   tau(  14) = (   0.0105290   1.1397758   0.5647202  )
        15           O   tau(  15) = (   0.1097396   0.6180016   0.6846807  )
        16           O   tau(  16) = (   0.7765110   1.5547261   0.2412738  )
        17           O   tau(  17) = (   0.5894198   0.6320095   0.3795573  )
        18           O   tau(  18) = (  -0.1465694   1.5263826   0.8419144  )

   Crystallographic axes

     site n.     atom                  positions (cryst. coord.)
         1           V   tau(   1) = (  0.4298000  0.2397920  0.0647320  )
         2           V   tau(   2) = (  0.9259820  0.7617700  0.5676060  )
         3           V   tau(   3) = (  0.0747920  0.2602620  0.4466740  )
         4           V   tau(   4) = (  0.5531040  0.7378930  0.9285050  )
         5           V   tau(   5) = (  0.4988630  0.4998310  0.5001680  )
         6           V   tau(   6) = (  0.9966890  0.9994460  0.0072560  )
         7           O   tau(   7) = (  0.2925820  0.1195720  0.3093030  )
         8           O   tau(   8) = (  0.7970910  0.6105170  0.7864540  )
         9           O   tau(   9) = (  0.2144580  0.3891020  0.2003730  )
        10           O   tau(  10) = (  0.6828150  0.8801170  0.7148810  )
        11           O   tau(  11) = (  0.1036490  0.1425550  0.7750250  )
        12           O   tau(  12) = (  0.5883780  0.6427030  0.2485960  )
        13           O   tau(  13) = (  0.7467840  0.1372790  0.0888520  )
        14           O   tau(  14) = (  0.2599650  0.6414860  0.6078060  )
        15           O   tau(  15) = (  0.3961340  0.3589450  0.7369190  )
        16           O   tau(  16) = (  0.9054850  0.8594800  0.2596820  )
        17           O   tau(  17) = (  0.7542570  0.3576580  0.4085160  )
        18           O   tau(  18) = (  0.2216760  0.8615920  0.9061490  )

     number of k points=    14
                       cart. coord. in units 2pi/alat
        k(    1) = (   0.0000000   0.0000000   0.0000000), wk =   0.0740741
        k(    2) = (   0.0000000   0.0000000   0.3587653), wk =   0.1481481
        k(    3) = (   0.0000000   0.1827523   0.0097959), wk =   0.1481481
        k(    4) = (   0.0000000   0.1827523   0.3685612), wk =   0.1481481
        k(    5) = (   0.0000000   0.1827523  -0.3489694), wk =   0.1481481
        k(    6) = (   0.3333333   0.0069940   0.1331168), wk =   0.1481481
        k(    7) = (   0.3333333   0.0069940   0.4918821), wk =   0.1481481
        k(    8) = (   0.3333333   0.0069940  -0.2256485), wk =   0.1481481
        k(    9) = (   0.3333333   0.1897463   0.1429128), wk =   0.1481481
        k(   10) = (   0.3333333   0.1897463   0.5016780), wk =   0.1481481
        k(   11) = (   0.3333333   0.1897463  -0.2158525), wk =   0.1481481
        k(   12) = (   0.3333333  -0.1757584   0.1233209), wk =   0.1481481
        k(   13) = (   0.3333333  -0.1757584   0.4820862), wk =   0.1481481
        k(   14) = (   0.3333333  -0.1757584  -0.2354444), wk =   0.1481481

                       cryst. coord.
        k(    1) = (   0.0000000   0.0000000   0.0000000), wk =   0.0740741
        k(    2) = (   0.0000000   0.0000000   0.3333333), wk =   0.1481481
        k(    3) = (   0.0000000   0.3333333   0.0000000), wk =   0.1481481
        k(    4) = (   0.0000000   0.3333333   0.3333333), wk =   0.1481481
        k(    5) = (   0.0000000   0.3333333  -0.3333333), wk =   0.1481481
        k(    6) = (   0.3333333  -0.0000000   0.0000000), wk =   0.1481481
        k(    7) = (   0.3333333  -0.0000000   0.3333333), wk =   0.1481481
        k(    8) = (   0.3333333  -0.0000000  -0.3333333), wk =   0.1481481
        k(    9) = (   0.3333333   0.3333333   0.0000000), wk =   0.1481481
        k(   10) = (   0.3333333   0.3333333   0.3333333), wk =   0.1481481
        k(   11) = (   0.3333333   0.3333333  -0.3333333), wk =   0.1481481
        k(   12) = (   0.3333333  -0.3333333   0.0000000), wk =   0.1481481
        k(   13) = (   0.3333333  -0.3333333   0.3333333), wk =   0.1481481
        k(   14) = (   0.3333333  -0.3333333  -0.3333333), wk =   0.1481481

     Check: negative core charge=   -0.000017

     Initial potential from superposition of free atoms

     starting charge     149.9926, renormalised to     150.0000

     negative rho (up, down):  2.351E-03 0.000E+00
     Starting wfcs are  108 randomized atomic wfcs +  148 random wfcs
     Checking if some PAW data can be deallocated...

     Self-consistent Calculation

     iteration #  1     ecut=    30.00 Ry     beta= 0.70
     Davidson diagonalization with overlap

     ethr =  1.00E-02,  avg # of iterations =  6.0

     negative rho (up, down):  9.560E-03 0.000E+00

     total energy              =   -1366.32432133 Ry
     estimated scf accuracy    <       7.48762891 Ry

[...]

     total energy              =   -1370.86387650 Ry
     estimated scf accuracy    <       0.00000139 Ry

     iteration # 33     ecut=    30.00 Ry     beta= 0.70
     Davidson diagonalization with overlap

     ethr =  9.26E-10,  avg # of iterations =  1.0

     negative rho (up, down):  5.085E-03 0.000E+00

     End of self-consistent calculation

          k = 0.0000 0.0000 0.0000 (  4005 PWs)   bands (ev):

   -57.4135 -57.3993 -57.3791 -57.3731 -57.3365 -57.2843 -31.4813 -31.4641
   -31.4336 -31.3344 -31.3170 -31.2790 -31.2178 -31.1845 -31.1640 -31.1349
   -31.1320 -31.1066 -31.1009 -31.0738 -31.0620 -31.0427 -30.9858 -30.9686
   -11.6099 -11.1157 -10.6945 -10.3981 -10.3449 -10.3173 -10.2185 -10.2098
   -10.1809 -10.0842  -9.9868  -9.9262   1.3295   1.6181   1.8731   1.8830
     2.0144   2.3473   2.4079   2.4630   2.5138   2.6017   2.6832   2.7437
     2.8124   3.1441   3.1655   3.3561   3.5334   3.6500   3.6693   3.8188
     3.8626   4.1330   4.1444   4.1704   4.3370   4.4814   5.0013   5.0599
     5.3799   5.4551   5.5665   5.5795   5.8022   6.0968   6.1555   6.2963
     8.2890   8.4454   8.4830   8.7111   8.7396   8.7769   8.8626   8.8919
     8.9198   9.0486   9.2313   9.2881   9.4041   9.4323   9.4884   9.6017
     9.6789  10.0688  10.5414  10.7970  10.8435  10.9688  11.3522  11.5196
    11.6772  11.7287  11.9268  12.2265  12.7186  12.8277  13.7581  15.8916
    15.9055  17.9523  19.1783  19.5934  19.7723  19.8994  20.0325  20.1994
    20.2956  20.5877  21.1295  21.6057  21.6398  21.8812  22.1044  22.2337
    22.2656  22.5984  22.7874  22.8972  23.1639  23.4249  23.6105  23.6933
    23.9060  24.3393  24.5492  25.0719  25.8585  25.9036  27.0639  27.2967
    27.6382  27.8834  28.1951  28.3322  28.5950  28.6417  28.7819  28.8143
    28.9995  29.5796  29.7174  30.0280  30.2250  30.3120  30.3473  30.6517
    30.7773  30.9226  30.9745  31.4299  31.7514  31.8026  32.1242  32.7590
    32.9263  33.1549  33.2549  33.3901  33.5825  33.7851  34.0871  34.5474
    34.8469  35.1476  35.4081  36.1485  36.5121  36.9213  37.0612  37.4810
    37.5178  37.6080  38.1191  38.4583  38.5638  38.7261  38.8280  39.0272
    39.1218  39.3012  39.5326  39.5844  39.8731  39.9727  40.1380  40.3543
    40.5044  40.6808  40.8906  41.2599  41.4119  41.5215  41.5978  41.8303
    42.0826  42.2592  42.4079  42.4842  42.5793  42.7751  42.8451  42.8983
    43.1050  43.2778  44.1677  44.4092  44.4675  44.7056  44.8201  44.9259
    45.0900  45.2812  45.3392  45.4425  45.9063  46.1669  46.2271  46.3012
    46.4436  46.6173  46.7957  47.0688  47.1082  47.5781  47.5867  47.7157
    47.9061  48.4487  48.6215  48.8548  49.0317  49.1691  49.3158  49.4259
    49.8791  50.0112  50.0728  50.4174  50.5180  50.7761  51.0502  51.0548
    51.3638  51.4230  51.7139  51.8015  51.9377  52.0217  52.0692  52.8311

     occupation numbers
     1.0000   1.0000   1.0000   1.0000   1.0000   1.0000   1.0000   1.0000
     1.0000   1.0000   1.0000   1.0000   1.0000   1.0000   1.0000   1.0000
     1.0000   1.0000   1.0000   1.0000   1.0000   1.0000   1.0000   1.0000
     1.0000   1.0000   1.0000   1.0000   1.0000   1.0000   1.0000   1.0000
     1.0000   1.0000   1.0000   1.0000   1.0000   1.0000   1.0000   1.0000
     1.0000   1.0000   1.0000   1.0000   1.0000   1.0000   1.0000   1.0000
     1.0000   1.0000   1.0000   1.0000   1.0000   1.0000   1.0000   1.0000
     1.0000   1.0000   1.0000   1.0000   1.0000   1.0000   1.0000   1.0000
     1.0000   1.0000   1.0000   1.0000   1.0000   1.0000   1.0000   1.0000
     1.0000   1.0000   1.0000   0.0000   0.0000   0.0000   0.0000   0.0000
     0.0000   0.0000   0.0000   0.0000   0.0000   0.0000   0.0000   0.0000
     0.0000   0.0000   0.0000   0.0000   0.0000   0.0000   0.0000   0.0000
     0.0000   0.0000   0.0000   0.0000   0.0000   0.0000   0.0000   0.0000
     0.0000   0.0000   0.0000   0.0000   0.0000   0.0000   0.0000   0.0000
     0.0000   0.0000   0.0000   0.0000   0.0000   0.0000   0.0000   0.0000
     0.0000   0.0000   0.0000   0.0000   0.0000   0.0000   0.0000   0.0000
     0.0000   0.0000   0.0000   0.0000   0.0000   0.0000   0.0000   0.0000
     0.0000   0.0000   0.0000   0.0000   0.0000   0.0000   0.0000   0.0000
     0.0000   0.0000   0.0000   0.0000   0.0000   0.0000   0.0000   0.0000
     0.0000   0.0000   0.0000   0.0000   0.0000   0.0000   0.0000   0.0000
     0.0000   0.0000   0.0000   0.0000   0.0000   0.0000   0.0000   0.0000
     0.0000   0.0000   0.0000   0.0000   0.0000   0.0000   0.0000   0.0000
     0.0000   0.0000   0.0000   0.0000   0.0000   0.0000   0.0000   0.0000
     0.0000   0.0000   0.0000   0.0000   0.0000   0.0000   0.0000   0.0000
     0.0000   0.0000   0.0000   0.0000   0.0000   0.0000   0.0000   0.0000
     0.0000   0.0000   0.0000   0.0000   0.0000   0.0000   0.0000   0.0000
     0.0000   0.0000   0.0000   0.0000   0.0000   0.0000   0.0000   0.0000
     0.0000   0.0000   0.0000   0.0000   0.0000   0.0000   0.0000   0.0000
     0.0000   0.0000   0.0000   0.0000   0.0000   0.0000   0.0000   0.0000
     0.0000   0.0000   0.0000   0.0000   0.0000   0.0000   0.0000   0.0000
     0.0000   0.0000   0.0000   0.0000   0.0000   0.0000   0.0000   0.0000
     0.0000   0.0000   0.0000   0.0000   0.0000   0.0000   0.0000   0.0000

[...]

          k = 0.3333-0.1758-0.2354 (  3997 PWs)   bands (ev):

   -57.4107 -57.3953 -57.3821 -57.3771 -57.3364 -57.2843 -31.4822 -31.4628
   -31.4333 -31.3579 -31.3298 -31.2600 -31.2004 -31.1809 -31.1602 -31.1408
   -31.1276 -31.1040 -31.0946 -31.0806 -31.0711 -31.0479 -30.9843 -30.9694
   -11.1766 -11.0720 -10.7041 -10.5576 -10.4234 -10.3710 -10.3273 -10.3018
   -10.1560 -10.1277 -10.0307  -9.9127   1.5518   1.7137   1.9058   1.9759
     2.1572   2.1835   2.3703   2.4139   2.5656   2.6312   2.7026   2.7956
     2.8650   2.9417   3.1610   3.2543   3.3574   3.6050   3.7919   3.9601
     4.0884   4.2363   4.3268   4.4703   4.6783   4.7598   4.9274   4.9883
     5.0913   5.2578   5.3359   5.5182   5.6353   5.6997   5.8408   5.8837
     8.2891   8.3624   8.5413   8.6112   8.7578   8.7878   8.8774   8.9110
     9.0063   9.0710   9.1673   9.1967   9.3369   9.3694   9.6903   9.7123
     9.9512  10.0702  10.5757  10.6758  10.7940  11.0732  11.3188  11.4753
    11.5994  11.7056  11.8645  12.0046  12.3718  12.7234  15.5239  16.1374
    17.6999  18.0625  18.2129  18.3789  18.7071  18.9045  19.4653  19.7295
    20.5677  20.8187  21.1714  21.3168  21.4025  21.8540  22.1049  22.3426
    22.6144  22.7016  23.2956  23.3869  23.6220  24.0874  24.2485  24.3460
    24.7246  24.8319  25.3652  25.4654  25.7445  25.9093  26.1710  26.5660
    26.9138  27.0577  27.7536  28.0790  28.1403  28.3953  28.4960  28.9131
    29.0545  29.1909  29.6927  29.8620  30.0165  30.2160  30.4986  30.7329
    30.9545  31.1282  31.3675  31.5151  31.7224  32.1329  32.1418  32.4363
    32.7193  32.8506  32.9619  33.2092  33.5368  33.7129  33.9392  34.4589
    34.7042  35.2306  35.6701  35.7565  36.3613  36.5566  36.9482  37.0441
    37.1800  37.5290  37.7895  38.0176  38.3807  38.6515  38.7413  38.9929
    39.2322  39.6294  39.7400  39.9713  40.3091  40.6031  40.7745  40.9267
    41.0560  41.1601  41.3827  41.5562  41.5867  41.7515  42.1493  42.2525
    42.6638  42.7463  43.0101  43.2016  43.5013  43.6260  43.7951  43.9222
    44.0149  44.1483  44.3366  44.5022  44.6964  44.8371  44.9398  45.1440
    45.3790  45.4683  45.5959  45.6365  45.8691  45.9621  46.0620  46.2525
    46.4920  46.7695  47.0176  47.1497  47.2920  47.4819  47.6224  47.8057
    47.9735  48.1797  48.3451  48.5962  48.7825  48.9646  49.0440  49.1865
    49.5462  49.6489  49.9054  50.1410  50.2158  50.3246  50.4369  50.6429
    50.7947  51.0313  51.0507  51.2120  51.3694  51.4666  51.5600  51.7107

     occupation numbers
     1.0000   1.0000   1.0000   1.0000   1.0000   1.0000   1.0000   1.0000
     1.0000   1.0000   1.0000   1.0000   1.0000   1.0000   1.0000   1.0000
     1.0000   1.0000   1.0000   1.0000   1.0000   1.0000   1.0000   1.0000
     1.0000   1.0000   1.0000   1.0000   1.0000   1.0000   1.0000   1.0000
     1.0000   1.0000   1.0000   1.0000   1.0000   1.0000   1.0000   1.0000
     1.0000   1.0000   1.0000   1.0000   1.0000   1.0000   1.0000   1.0000
     1.0000   1.0000   1.0000   1.0000   1.0000   1.0000   1.0000   1.0000
     1.0000   1.0000   1.0000   1.0000   1.0000   1.0000   1.0000   1.0000
     1.0000   1.0000   1.0000   1.0000   1.0000   1.0000   1.0000   1.0000
     1.0000   1.0000   1.0000   0.0000   0.0000   0.0000   0.0000   0.0000
     0.0000   0.0000   0.0000   0.0000   0.0000   0.0000   0.0000   0.0000
     0.0000   0.0000   0.0000   0.0000   0.0000   0.0000   0.0000   0.0000
     0.0000   0.0000   0.0000   0.0000   0.0000   0.0000   0.0000   0.0000
     0.0000   0.0000   0.0000   0.0000   0.0000   0.0000   0.0000   0.0000
     0.0000   0.0000   0.0000   0.0000   0.0000   0.0000   0.0000   0.0000
     0.0000   0.0000   0.0000   0.0000   0.0000   0.0000   0.0000   0.0000
     0.0000   0.0000   0.0000   0.0000   0.0000   0.0000   0.0000   0.0000
     0.0000   0.0000   0.0000   0.0000   0.0000   0.0000   0.0000   0.0000
     0.0000   0.0000   0.0000   0.0000   0.0000   0.0000   0.0000   0.0000
     0.0000   0.0000   0.0000   0.0000   0.0000   0.0000   0.0000   0.0000
     0.0000   0.0000   0.0000   0.0000   0.0000   0.0000   0.0000   0.0000
     0.0000   0.0000   0.0000   0.0000   0.0000   0.0000   0.0000   0.0000
     0.0000   0.0000   0.0000   0.0000   0.0000   0.0000   0.0000   0.0000
     0.0000   0.0000   0.0000   0.0000   0.0000   0.0000   0.0000   0.0000
     0.0000   0.0000   0.0000   0.0000   0.0000   0.0000   0.0000   0.0000
     0.0000   0.0000   0.0000   0.0000   0.0000   0.0000   0.0000   0.0000
     0.0000   0.0000   0.0000   0.0000   0.0000   0.0000   0.0000   0.0000
     0.0000   0.0000   0.0000   0.0000   0.0000   0.0000   0.0000   0.0000
     0.0000   0.0000   0.0000   0.0000   0.0000   0.0000   0.0000   0.0000
     0.0000   0.0000   0.0000   0.0000   0.0000   0.0000   0.0000   0.0000
     0.0000   0.0000   0.0000   0.0000   0.0000   0.0000   0.0000   0.0000
     0.0000   0.0000   0.0000   0.0000   0.0000   0.0000   0.0000   0.0000

     highest occupied, lowest unoccupied level (ev):     8.6522    8.5897

!    total energy              =   -1370.86387617 Ry
     estimated scf accuracy    <       0.00000039 Ry

     The total energy is the sum of the following terms:
     one-electron contribution =    -692.36215802 Ry
     hartree contribution      =     406.60955161 Ry
     xc contribution           =    -205.65041620 Ry
     ewald contribution        =    -765.14511787 Ry
     one-center paw contrib.   =    -114.31573568 Ry
      -> PAW hartree energy AE =       0.00000000 Ry
      -> PAW hartree energy PS =       0.00000000 Ry
      -> PAW xc energy AE      =       0.00000000 Ry
      -> PAW xc energy PS      =       0.00000000 Ry
      -> total E_H with PAW    =     406.60955161 Ry
      -> total E_XC with PAW   =    -205.65041620 Ry

     convergence has been achieved in  33 iterations

     Writing all to output data dir bands_nm/myprefix.save/

     General routines

     Parallel routines

     PAW routines

   This run was terminated on:  19: 2:53  15Jul2023

   JOB DONE.