     Program PWSCF v.7.1 starts on 15Jul2023 at 13:56:57

     Reading input from espresso_6747.pwi
Warning: card &CELL ignored
Warning: card / ignored

     Current dimensions of program PWSCF are:
     Max number of different atomic species (ntypx) = 10
     Max number of k-points (npk) =  40000
     Max angular momentum in pseudopotentials (lmaxx) =  4
     file Mg.pbe-n-kjpaw_psl.0.3.0.UPF: wavefunction(s)  3S renormalized
     Message from routine setup:
     the system is metallic, specify occupations
     Message from routine setup:
     using ibrav=0 with symmetry is DISCOURAGED, use correct ibrav instead

     K-points division:     npool     =       2
     R & G space division:  proc/nbgrp/npool/nimage =       4
     Subspace diagonalization in iterative solution of the eigenvalue problem:
     a serial algorithm will be used

     Using Slab Decomposition

     bravais-lattice index     =            0
     lattice parameter (alat)  =       8.5884  a.u.
     unit-cell volume          =    1782.0848 (a.u.)^3
     number of atoms/cell      =            8
     number of atomic types    =            3
     number of electrons       =        71.00 (up:  43.00, down:  28.00)
     number of Kohn-Sham states=           64
     kinetic-energy cutoff     =      30.0000  Ry
     charge density cutoff     =     240.0000  Ry
     scf convergence threshold =      1.0E-06
     mixing beta               =       0.7000
     number of iterations used =            8  plain     mixing
     Exchange-correlation= SLA  PW   PBE  PBE
                           (   1   4   3   4   0   0   0)

     celldm(1)=   8.588444  celldm(2)=   0.000000  celldm(3)=   0.000000
     celldm(4)=   0.000000  celldm(5)=   0.000000  celldm(6)=   0.000000

     crystal axes: (cart. coord. in units of alat)
               a(1) = (   1.000000   0.000000   0.000000 )
               a(2) = (   0.000000   1.000000   0.000000 )
               a(3) = (   0.000000   0.000000   2.813098 )

     reciprocal axes: (cart. coord. in units 2 pi/alat)
               b(1) = (  1.000000  0.000000  0.000000 )
               b(2) = (  0.000000  1.000000  0.000000 )
               b(3) = (  0.000000  0.000000  0.355480 )

     PseudoPot. # 1 for Mg read from file:
     /lustre07/scratch/pragov/crystal_structure_design/utils/SSSP/Mg.pbe-n-kjpaw_psl.0.3.0.UPF
     MD5 check sum: 24ecedc7f3e3cbe212e682f4413594e4
     Pseudo is Projector augmented-wave + core cor, Zval =  2.0
     Generated using "atomic" code by A. Dal Corso  v.5.0.99 svn rev. 10869
     Shape of augmentation charge: PSQ
     Using radial grid of 1129 points,  4 beta functions with:
                l(1) =   0
                l(2) =   0
                l(3) =   1
                l(4) =   1
     Q(r) pseudized with 0 coefficients

     PseudoPot. # 2 for Mn read from file:
     /lustre07/scratch/pragov/crystal_structure_design/utils/SSSP/mn_pbe_v1.5.uspp.F.UPF
     MD5 check sum: 82ef2b46521d7a7d9e736dc3972e4928
     Pseudo is Ultrasoft + core correction, Zval = 15.0
     Generated by new atomic code, or converted to UPF format
     Using radial grid of  859 points,  6 beta functions with:
                l(1) =   0
                l(2) =   0
                l(3) =   1
                l(4) =   1
                l(5) =   2
                l(6) =   2
     Q(r) pseudized with  8 coefficients,  rinner =    0.950   0.950   0.950
                                                       0.950   0.950

     PseudoPot. # 3 for Te read from file:
     /lustre07/scratch/pragov/crystal_structure_design/utils/SSSP/Te_pbe_v1.uspp.F.UPF
     MD5 check sum: c319670d6894cc26e93307826a071b75
     Pseudo is Ultrasoft + core correction, Zval =  6.0
     Generated by new atomic code, or converted to UPF format
     Using radial grid of  891 points,  5 beta functions with:
                l(1) =   0
                l(2) =   0
                l(3) =   1
                l(4) =   1
                l(5) =   2
     Q(r) pseudized with  6 coefficients,  rinner =    1.800   1.800   1.800
                                                       1.800   1.800

     atomic species   valence    mass     pseudopotential
        Mg             2.00    24.30500     Mg( 1.00)
        Mn            15.00    54.93804     Mn( 1.00)
        Te             6.00   127.60000     Te( 1.00)

     Starting magnetic structure
     atomic species   magnetization
        Mg           0.000
        Mn           0.000
        Te           0.000

      8 Sym. Ops. (no inversion) found

                                    s                        frac. trans.

      isym =  1     identity

 cryst.   s( 1) = (     1          0          0      )
                  (     0          1          0      )
                  (     0          0          1      )

 cart.    s( 1) = (  1.0000000  0.0000000  0.0000000 )
                  (  0.0000000  1.0000000  0.0000000 )
                  (  0.0000000  0.0000000  1.0000000 )

      isym =  2     180 deg rotation - cart. axis [0,0,1]

[...]

      isym =  4     180 deg rotation - cart. axis [1,-1,0]

[...]

      isym =  5     inv. 180 deg rotation - cart. axis [0,1,0]

[...]

      isym =  8     inv.  90 deg rotation - cart. axis [0,0,1]

 cryst.   s( 8) = (     0         -1          0      )
                  (     1          0          0      )
                  (     0          0         -1      )

 cart.    s( 8) = (  0.0000000  1.0000000  0.0000000 )
                  ( -1.0000000  0.0000000  0.0000000 )
                  (  0.0000000  0.0000000 -1.0000000 )

   Cartesian axes

     site n.     atom                  positions (alat units)
         1           Mg  tau(   1) = (   0.0000000   0.0000000   0.0000000  )
         2           Mn  tau(   2) = (   0.5000000   0.5000000   2.1091230  )
         3           Mn  tau(   3) = (   0.0000000   0.0000000   1.4065490  )
         4           Mn  tau(   4) = (   0.5000000   0.5000000   0.7039750  )
         5           Te  tau(   5) = (   0.0000000   0.5000000   1.7588445  )
         6           Te  tau(   6) = (   0.5000000   0.0000000   1.0542535  )
         7           Te  tau(   7) = (   0.0000000   0.5000000   0.3651682  )
         8           Te  tau(   8) = (   0.5000000   0.0000000   2.4479297  )

   Crystallographic axes

     site n.     atom                  positions (cryst. coord.)
         1           Mg  tau(   1) = (  0.0000000  0.0000000  0.0000000  )
         2           Mn  tau(   2) = (  0.5000000  0.5000000  0.7497510  )
         3           Mn  tau(   3) = (  0.0000000  0.0000000  0.5000000  )
         4           Mn  tau(   4) = (  0.5000000  0.5000000  0.2502490  )
         5           Te  tau(   5) = (  0.0000000  0.5000000  0.6252340  )
         6           Te  tau(   6) = (  0.5000000  0.0000000  0.3747660  )
         7           Te  tau(   7) = (  0.0000000  0.5000000  0.1298100  )
         8           Te  tau(   8) = (  0.5000000  0.0000000  0.8701900  )

     number of k points=     6
                       cart. coord. in units 2pi/alat
        k(    1) = (   0.0000000   0.0000000   0.0000000), wk =   0.0370370
        k(    2) = (   0.0000000   0.0000000   0.1184933), wk =   0.0740741
        k(    3) = (   0.0000000   0.3333333   0.0000000), wk =   0.1481481
        k(    4) = (   0.0000000   0.3333333   0.1184933), wk =   0.2962963
        k(    5) = (   0.3333333   0.3333333   0.0000000), wk =   0.1481481
        k(    6) = (   0.3333333   0.3333333   0.1184933), wk =   0.2962963

                       cryst. coord.
        k(    1) = (   0.0000000   0.0000000   0.0000000), wk =   0.0370370
        k(    2) = (   0.0000000   0.0000000   0.3333333), wk =   0.0740741
        k(    3) = (   0.0000000   0.3333333   0.0000000), wk =   0.1481481
        k(    4) = (   0.0000000   0.3333333   0.3333333), wk =   0.2962963
        k(    5) = (   0.3333333   0.3333333   0.0000000), wk =   0.1481481
        k(    6) = (   0.3333333   0.3333333   0.3333333), wk =   0.2962963

     Check: negative core charge=   -0.000008
     Generating pointlists ...
     new r_m :   0.2554 (alat units)  2.1935 (a.u.) for type    1
     new r_m :   0.2491 (alat units)  2.1397 (a.u.) for type    2
     new r_m :   0.2491 (alat units)  2.1397 (a.u.) for type    3

     Initial potential from superposition of free atoms

     starting charge      69.4980, renormalised to      71.0000
     Starting wfcs are   59 randomized atomic wfcs +    5 random wfcs
     Checking if some PAW data can be deallocated...

     Self-consistent Calculation

     iteration #  1     ecut=    30.00 Ry     beta= 0.70
     Davidson diagonalization with overlap

     ethr =  1.00E-02,  avg # of iterations =  6.7

     total energy              =    -771.46830038 Ry
     estimated scf accuracy    <       3.36710003 Ry

     total magnetization       =    15.00 Bohr mag/cell
     absolute magnetization    =    15.00 Bohr mag/cell

[...]

     negative rho (up, down):  0.000E+00 2.922E-04

[...]

     total energy              =    -773.31968201 Ry
     estimated scf accuracy    <       0.00000955 Ry

[...]

     iteration # 13     ecut=    30.00 Ry     beta= 0.70
     Davidson diagonalization with overlap

     ethr =  1.35E-08,  avg # of iterations =  1.9

     negative rho (up, down):  0.000E+00 7.861E-04

     Magnetic moment per site  (integrated on atomic sphere of radius R)
     atom   1 (R=0.255)  charge=  0.6799  magn=  0.0372
     atom   2 (R=0.249)  charge= 13.4077  magn=  4.3528
     atom   3 (R=0.249)  charge= 13.3874  magn=  4.3959
     atom   4 (R=0.249)  charge= 13.4077  magn=  4.3528
     atom   5 (R=0.249)  charge=  3.3202  magn=  0.0690
     atom   6 (R=0.249)  charge=  3.3202  magn=  0.0690
     atom   7 (R=0.249)  charge=  3.3386  magn=  0.0451
     atom   8 (R=0.249)  charge=  3.3386  magn=  0.0451

     End of self-consistent calculation

 ------ SPIN UP ------------

          k = 0.0000 0.0000 0.0000 (  4963 PWs)   bands (ev):

   -77.2406 -77.1708 -77.1707 -45.9449 -45.9435 -45.9435 -45.8877 -45.8876
   -45.8764 -45.8764 -45.8647 -45.8647  -6.5635  -6.2182  -6.1626  -5.7522
     0.2582   0.6558   0.7271   0.9995   0.9995   1.1124   1.1124   1.2830
     1.3023   1.3023   1.7061   1.7456   1.7467   1.8168   1.8344   2.0086
     2.7534   2.7534   2.7963   3.3099   3.5581   3.5581   4.0813   4.0813
     5.0335   5.0550   5.0550   6.0858   7.0371   7.6123   7.8322   7.8749
     8.1629   8.2297   9.2527   9.2527   9.2653  11.0873  11.0873  11.1336
    11.2070  11.2070  11.3227  12.9557  13.0974  13.4913  13.9704  13.9775

     occupation numbers
     1.0000   1.0000   1.0000   1.0000   1.0000   1.0000   1.0000   1.0000
     1.0000   1.0000   1.0000   1.0000   1.0000   1.0000   1.0000   1.0000
     1.0000   1.0000   1.0000   1.0000   1.0000   1.0000   1.0000   1.0000
     1.0000   1.0000   1.0000   1.0000   1.0000   1.0000   1.0000   1.0000
     1.0000   1.0000   1.0000   1.0000   1.0000   1.0000   1.0000   1.0000
     1.0000   1.0000   1.0000   0.0000   0.0000   0.0000   0.0000   0.0000
     0.0000   0.0000   0.0000   0.0000   0.0000   0.0000   0.0000   0.0000
     0.0000   0.0000   0.0000   0.0000   0.0000   0.0000   0.0000   0.0000

[...]

 ------ SPIN DOWN ----------

[...]

          k = 0.3333 0.3333 0.1185 (  4942 PWs)   bands (ev):

   -72.3497 -72.3217 -72.3215 -41.1610 -41.1560 -41.1550 -41.1389 -41.1363
   -41.1291 -41.1276 -41.1272 -41.1267  -5.8397  -5.7894  -5.6859  -5.6401
     1.1218   1.3194   1.3390   1.3977   1.7933   1.9463   2.3106   2.6237
     2.7152   2.7810   2.8286   2.8908   5.4110   5.4891   5.5845   5.6490
     5.7757   5.8212   5.9287   6.0034   6.0779   6.1828   6.2605   6.3016
     6.3307   6.5458   6.5590   8.4223   8.6265   8.7401   9.0588   9.5275
     9.9246  10.2476  10.4513  10.7934  11.5011  11.5968  11.9953  12.1846
    12.3408  12.7453  13.0180  13.1299  13.1611  13.4914  14.0275  14.0617

     occupation numbers
     1.0000   1.0000   1.0000   1.0000   1.0000   1.0000   1.0000   1.0000
     1.0000   1.0000   1.0000   1.0000   1.0000   1.0000   1.0000   1.0000
     1.0000   1.0000   1.0000   1.0000   1.0000   1.0000   1.0000   1.0000
     1.0000   1.0000   1.0000   1.0000   0.0000   0.0000   0.0000   0.0000
     0.0000   0.0000   0.0000   0.0000   0.0000   0.0000   0.0000   0.0000
     0.0000   0.0000   0.0000   0.0000   0.0000   0.0000   0.0000   0.0000
     0.0000   0.0000   0.0000   0.0000   0.0000   0.0000   0.0000   0.0000
     0.0000   0.0000   0.0000   0.0000   0.0000   0.0000   0.0000   0.0000

     highest occupied, lowest unoccupied level (ev):     5.0550    5.3850

!    total energy              =    -773.31968362 Ry
     estimated scf accuracy    <       0.00000008 Ry

     The total energy is the sum of the following terms:
     one-electron contribution =    -630.62392745 Ry
     hartree contribution      =     329.31484011 Ry
     xc contribution           =    -139.43981387 Ry
     ewald contribution        =    -301.28660258 Ry
     one-center paw contrib.   =     -31.28417982 Ry
      -> PAW hartree energy AE =       0.67342691 Ry
      -> PAW hartree energy PS =      -0.67184885 Ry
      -> PAW xc energy AE      =     -32.53598441 Ry
      -> PAW xc energy PS      =       1.25022653 Ry
      -> total E_H with PAW    =     329.31641817 Ry
      -> total E_XC with PAW   =    -170.72557176 Ry

     total magnetization       =    15.00 Bohr mag/cell
     absolute magnetization    =    15.00 Bohr mag/cell

     convergence has been achieved in  13 iterations

     Writing all to output data dir bands_nm/myprefix.save/

     General routines

     Parallel routines

     PAW routines

   This run was terminated on:  13:57:18  15Jul2023

   JOB DONE.