     Program PWSCF v.7.1 starts on 16Jul2023 at 13:13:56

     Reading input from espresso_26460.pwi
Warning: card &CELL ignored
Warning: card / ignored

     Current dimensions of program PWSCF are:
     Max number of different atomic species (ntypx) = 10
     Max number of k-points (npk) =  40000
     Max angular momentum in pseudopotentials (lmaxx) =  4
     Message from routine setup:
     using ibrav=0 with symmetry is DISCOURAGED, use correct ibrav instead

     K-points division:     npool     =       2
     R & G space division:  proc/nbgrp/npool/nimage =       4
     Subspace diagonalization in iterative solution of the eigenvalue problem:
     a serial algorithm will be used

     Using Slab Decomposition

     bravais-lattice index     =            0
     lattice parameter (alat)  =       6.0860  a.u.
     unit-cell volume          =    2204.1958 (a.u.)^3
     number of atoms/cell      =           12
     number of atomic types    =            4
     number of electrons       =       104.00
     number of Kohn-Sham states=           64
     kinetic-energy cutoff     =      30.0000  Ry
     charge density cutoff     =     240.0000  Ry
     scf convergence threshold =      1.0E-06
     mixing beta               =       0.7000
     number of iterations used =            8  plain     mixing
     Exchange-correlation=  SLA  PW   PBX  PBC
                           (   1   4   3   4   0   0   0)

     celldm(1)=   6.086006  celldm(2)=   0.000000  celldm(3)=   0.000000
     celldm(4)=   0.000000  celldm(5)=   0.000000  celldm(6)=   0.000000

     crystal axes: (cart. coord. in units of alat)
               a(1) = (   1.000000   0.000000   0.000000 )
               a(2) = (  -0.500000   0.866026   0.000000 )
               a(3) = (   0.000000   0.000000  11.290741 )

     reciprocal axes: (cart. coord. in units 2 pi/alat)
               b(1) = (  1.000000  0.577350  0.000000 )
               b(2) = (  0.000000  1.154700  0.000000 )
               b(3) = (  0.000000  0.000000  0.088568 )

     PseudoPot. # 1 for Mo read from file:
     /lustre07/scratch/pragov/crystal_structure_design/utils/SSSP/Mo_ONCV_PBE-1.0.oncvpsp.upf
     MD5 check sum: 1b5d28e075c9ccadda658a603575cd1f
     Pseudo is Norm-conserving, Zval = 14.0
     Generated using ONCVPSP code by D. R. Hamann
     Using radial grid of 1526 points,  6 beta functions with:
                l(1) =   0
                l(2) =   0
                l(3) =   1
                l(4) =   1
                l(5) =   2
                l(6) =   2

     PseudoPot. # 2 for W  read from file:
     /lustre07/scratch/pragov/crystal_structure_design/utils/SSSP/W_pbe_v1.2.uspp.F.UPF
     MD5 check sum: 9c083fa34c2a2ea0f02f1f893e16e1c8
     Pseudo is Ultrasoft + core correction, Zval = 14.0
     Generated by new atomic code, or converted to UPF format
     Using radial grid of  923 points,  8 beta functions with:
                l(1) =   0
                l(2) =   0
                l(3) =   0
                l(4) =   1
                l(5) =   1
                l(6) =   2
                l(7) =   2
                l(8) =   3
     Q(r) pseudized with  6 coefficients,  rinner =    1.350   1.350   1.350
                                                       1.350   1.350   1.350
                                                       1.350

     PseudoPot. # 3 for Se read from file:
     /lustre07/scratch/pragov/crystal_structure_design/utils/SSSP/Se_pbe_v1.uspp.F.UPF
     MD5 check sum: 1b3568f3a8ae88f9a2a0ad0698632c85
     Pseudo is Ultrasoft + core correction, Zval =  6.0
     Generated by new atomic code, or converted to UPF format
     Using radial grid of  877 points,  6 beta functions with:
                l(1) =   0
                l(2) =   0
                l(3) =   1
                l(4) =   1
                l(5) =   2
                l(6) =   2
     Q(r) pseudized with  8 coefficients,  rinner =    1.300   1.300   1.300
                                                       1.300   1.300

     PseudoPot. # 4 for S  read from file:
     /lustre07/scratch/pragov/crystal_structure_design/utils/SSSP/s_pbe_v1.4.uspp.F.UPF
     MD5 check sum: 88d86576ff6df21479756cfb9bdac1df
     Pseudo is Ultrasoft + core correction, Zval =  6.0
     Generated by new atomic code, or converted to UPF format
     Using radial grid of  907 points,  6 beta functions with:
                l(1) =   0
                l(2) =   0
                l(3) =   1
                l(4) =   1
                l(5) =   2
                l(6) =   2
     Q(r) pseudized with  8 coefficients,  rinner =    1.300   1.300   1.300
                                                       1.300   1.300

     atomic species   valence    mass     pseudopotential
        Mo            14.00    95.95000     Mo( 1.00)
        W             14.00   183.84000     W ( 1.00)
        Se             6.00    78.97100     Se( 1.00)
        S              6.00    32.06000     S ( 1.00)

      6 Sym. Ops. (no inversion) found

                                    s                        frac. trans.

      isym =  1     identity

 cryst.   s( 1) = (     1          0          0      )
                  (     0          1          0      )
                  (     0          0          1      )

 cart.    s( 1) = (  1.0000000  0.0000000  0.0000000 )
                  (  0.0000000  1.0000000  0.0000000 )
                  (  0.0000000  0.0000000  1.0000000 )

      isym =  2     120 deg rotation - cryst. axis [0,0,1]

[...]

      isym =  3     120 deg rotation - cryst. axis [0,0,-1]

[...]

      isym =  4     inv. 180 deg rotation - cart. axis [1,0,0]

[...]

      isym =  5     inv. 180 deg rotation - cryst. axis [0,1,0]

[...]

      isym =  6     inv. 180 deg rotation - cryst. axis [1,1,0]

 cryst.   s( 6) = (     0         -1          0      )
                  (    -1          0          0      )
                  (     0          0          1      )

 cart.    s( 6) = (  0.4999998 -0.8660255  0.0000000 )
                  ( -0.8660255 -0.4999998  0.0000000 )
                  (  0.0000000  0.0000000  1.0000000 )

   Cartesian axes

     site n.     atom                  positions (alat units)
         1           Mo  tau(   1) = (   0.0000000   0.0000000   1.0603700  )
         2           Mo  tau(   2) = (  -0.0000004   0.5773506   3.1817760  )
         3           Mo  tau(   3) = (  -0.0000004   0.5773506   7.4240801  )
         4           W   tau(   4) = (   0.0000000   0.0000000   5.3028998  )
         5           Se  tau(   5) = (   0.0000000   0.0000000   3.7126893  )
         6           Se  tau(   6) = (   0.0000000   0.0000000   2.6503773  )
         7           S   tau(   7) = (   0.0000000   0.0000000   7.9073916  )
         8           S   tau(   8) = (  -0.0000004   0.5773506   0.5771262  )
         9           S   tau(   9) = (  -0.0000004   0.5773506   4.8181770  )
        10           S   tau(  10) = (  -0.0000004   0.5773506   1.5435459  )
        11           S   tau(  11) = (  -0.0000004   0.5773506   5.7877694  )
        12           S   tau(  12) = (   0.0000000   0.0000000   6.9408928  )

   Crystallographic axes

     site n.     atom                  positions (cryst. coord.)
         1           Mo  tau(   1) = (  0.0000000  0.0000000  0.0939150  )
         2           Mo  tau(   2) = (  0.3333330  0.6666670  0.2818040  )
         3           Mo  tau(   3) = (  0.3333330  0.6666670  0.6575370  )
         4           W   tau(   4) = (  0.0000000  0.0000000  0.4696680  )
         5           Se  tau(   5) = (  0.0000000  0.0000000  0.3288260  )
         6           Se  tau(   6) = (  0.0000000  0.0000000  0.2347390  )
         7           S   tau(   7) = (  0.0000000  0.0000000  0.7003430  )
         8           S   tau(   8) = (  0.3333330  0.6666670  0.0511150  )
         9           S   tau(   9) = (  0.3333330  0.6666670  0.4267370  )
        10           S   tau(  10) = (  0.3333330  0.6666670  0.1367090  )
        11           S   tau(  11) = (  0.3333330  0.6666670  0.5126120  )
        12           S   tau(  12) = (  0.0000000  0.0000000  0.6147420  )

     number of k points=     7
                       cart. coord. in units 2pi/alat
        k(    1) = (   0.0000000   0.0000000   0.0000000), wk =   0.0740741
        k(    2) = (   0.0000000   0.0000000   0.0295227), wk =   0.1481481
        k(    3) = (   0.0000000   0.3849001   0.0000000), wk =   0.4444444
        k(    4) = (   0.0000000   0.3849001   0.0295227), wk =   0.4444444
        k(    5) = (   0.3333333   0.5773501   0.0000000), wk =   0.1481481
        k(    6) = (   0.3333333   0.5773501   0.0295227), wk =   0.2962963
        k(    7) = (   0.0000000  -0.3849001   0.0295227), wk =   0.4444444

                       cryst. coord.
        k(    1) = (   0.0000000   0.0000000   0.0000000), wk =   0.0740741
        k(    2) = (   0.0000000   0.0000000   0.3333333), wk =   0.1481481
        k(    3) = (   0.0000000   0.3333333   0.0000000), wk =   0.4444444
        k(    4) = (   0.0000000   0.3333333   0.3333333), wk =   0.4444444
        k(    5) = (   0.3333333   0.3333333   0.0000000), wk =   0.1481481
        k(    6) = (   0.3333333   0.3333333   0.3333333), wk =   0.2962963
        k(    7) = (   0.0000000  -0.3333333   0.3333333), wk =   0.4444444

     Check: negative core charge=   -0.000001

     Initial potential from superposition of free atoms

     starting charge     103.8963, renormalised to     104.0000

     negative rho (up, down):  6.195E-02 0.000E+00
     Starting wfcs are   75 randomized atomic wfcs

     Self-consistent Calculation

     iteration #  1     ecut=    30.00 Ry     beta= 0.70
     Davidson diagonalization with overlap

     ethr =  1.00E-02,  avg # of iterations =  2.6

     negative rho (up, down):  6.657E-02 0.000E+00

     total energy              =    -656.09454471 Ry
     estimated scf accuracy    <     162.77327251 Ry

[...]

     c_bands:  4 eigenvalues not converged
     c_bands:  4 eigenvalues not converged
     c_bands:  4 eigenvalues not converged
     c_bands:  5 eigenvalues not converged
     ethr =  1.00E-02,  avg # of iterations = 21.4

[...]

     total energy              =    -803.06934252 Ry
     estimated scf accuracy    <       0.00000132 Ry

     iteration # 34     ecut=    30.00 Ry     beta= 0.70
     Davidson diagonalization with overlap

     ethr =  1.27E-09,  avg # of iterations =  3.3

     negative rho (up, down):  6.170E-02 0.000E+00

     End of self-consistent calculation

          k = 0.0000 0.0000 0.0000 (  6119 PWs)   bands (ev):

   -68.8027 -55.8555 -55.8431 -54.9103 -33.0795 -32.8811 -32.8811 -30.0236
   -30.0108 -29.7781 -29.7781 -29.7663 -29.7663 -29.1701 -28.8151 -28.8151
    -9.4579  -9.0112  -9.0069  -8.7230  -7.8778  -7.7929  -7.7206  -7.6971
    -1.0634  -0.5415  -0.4958   0.1760   2.3355   2.3355   2.3837   2.3837
     2.3935   2.3935   2.7943   3.1148   3.4270   3.4270   3.4370   3.4370
     3.4453   3.5020   3.5020   3.9128   3.9128   3.9378   4.8812   4.8812
     4.9176   5.1047   5.3495   5.5634   7.6523   7.6523   7.6620   7.6620
     7.9176   7.9176   7.9273   7.9273   7.9865   7.9866   8.1710   8.1710

     occupation numbers
     1.0000   1.0000   1.0000   1.0000   1.0000   1.0000   1.0000   1.0000
     1.0000   1.0000   1.0000   1.0000   1.0000   1.0000   1.0000   1.0000
     1.0000   1.0000   1.0000   1.0000   1.0000   1.0000   1.0000   1.0000
     1.0000   1.0000   1.0000   1.0000   1.0000   1.0000   1.0000   1.0000
     1.0000   1.0000   1.0000   1.0000   1.0000   1.0000   1.0000   1.0000
     1.0000   1.0000   1.0000   1.0000   1.0000   1.0000   1.0000   1.0000
     1.0000   1.0000   1.0000   1.0000   0.0000   0.0000   0.0000   0.0000
     0.0000   0.0000   0.0000   0.0000   0.0000   0.0000   0.0000   0.0000

[...]

          k = 0.0000-0.3849 0.0295 (  6115 PWs)   bands (ev):

   -68.7922 -55.8319 -55.8195 -54.8866 -33.1010 -33.0394 -32.9328 -30.0269
   -30.0150 -29.9746 -29.9617 -29.8359 -29.8240 -29.1188 -29.0598 -28.8720
    -8.0685  -7.7828  -7.7764  -7.3717  -7.3241  -7.2318  -7.2231  -6.9771
    -0.4912  -0.1512  -0.1490   0.6552   0.7243   0.7908   0.9029   0.9198
     1.0985   1.1290   1.5087   1.8677   2.1092   2.1352   2.1441   3.2726
     3.3963   3.4455   3.4538   3.4923   3.5405   3.5492   3.8277   4.0733
     4.1128   4.1267   4.6808   5.0497   7.1701   7.1801   7.2954   7.3100
     7.6308   7.7193   7.8868   8.0000   8.2932   8.3383   8.7473   9.0668

     occupation numbers
     1.0000   1.0000   1.0000   1.0000   1.0000   1.0000   1.0000   1.0000
     1.0000   1.0000   1.0000   1.0000   1.0000   1.0000   1.0000   1.0000
     1.0000   1.0000   1.0000   1.0000   1.0000   1.0000   1.0000   1.0000
     1.0000   1.0000   1.0000   1.0000   1.0000   1.0000   1.0000   1.0000
     1.0000   1.0000   1.0000   1.0000   1.0000   1.0000   1.0000   1.0000
     1.0000   1.0000   1.0000   1.0000   1.0000   1.0000   1.0000   1.0000
     1.0000   1.0000   1.0000   1.0000   0.0000   0.0000   0.0000   0.0000
     0.0000   0.0000   0.0000   0.0000   0.0000   0.0000   0.0000   0.0000

     highest occupied, lowest unoccupied level (ev):     5.8629    6.5527

!    total energy              =    -803.06934250 Ry
     estimated scf accuracy    <       0.00000026 Ry

     The total energy is the sum of the following terms:
     one-electron contribution =   -3829.82021051 Ry
     hartree contribution      =    1938.04662823 Ry
     xc contribution           =    -198.37048941 Ry
     ewald contribution        =    1287.07472918 Ry

     convergence has been achieved in  34 iterations

     Writing all to output data dir bands_nm/myprefix.save/

     General routines

     Parallel routines

   This run was terminated on:  13:14:34  16Jul2023

   JOB DONE.