     Program PWSCF v.7.1 starts on 15Jul2023 at 18: 7:17

     Reading input from espresso_6160.pwi
Warning: card &CELL ignored
Warning: card / ignored

     Current dimensions of program PWSCF are:
     Max number of different atomic species (ntypx) = 10
     Max number of k-points (npk) =  40000
     Max angular momentum in pseudopotentials (lmaxx) =  4
     file O.pbe-n-kjpaw_psl.0.1.UPF: wavefunction(s)  2P renormalized
     Message from routine setup:
     using ibrav=0 with symmetry is DISCOURAGED, use correct ibrav instead

     K-points division:     npool     =       2
     R & G space division:  proc/nbgrp/npool/nimage =       4
     Subspace diagonalization in iterative solution of the eigenvalue problem:
     one sub-group per band group will be used

     Using Slab Decomposition

     bravais-lattice index     =            0
     lattice parameter (alat)  =      10.7247  a.u.
     unit-cell volume          =    1767.1335 (a.u.)^3
     number of atoms/cell      =           20
     number of atomic types    =            4
     number of electrons       =       180.00
     number of Kohn-Sham states=          256
     kinetic-energy cutoff     =      30.0000  Ry
     charge density cutoff     =     240.0000  Ry
     scf convergence threshold =      1.0E-06
     mixing beta               =       0.7000
     number of iterations used =            8  plain     mixing
     Exchange-correlation= SLA  PW   PBX  PBC
                           (   1   4   3   4   0   0   0)

     celldm(1)=  10.724731  celldm(2)=   0.000000  celldm(3)=   0.000000
     celldm(4)=   0.000000  celldm(5)=   0.000000  celldm(6)=   0.000000

     crystal axes: (cart. coord. in units of alat)
               a(1) = (   1.000000   0.000000   0.000000 )
               a(2) = (   0.000000   1.010789   0.000000 )
               a(3) = (   0.000000   1.013125   1.417261 )

     reciprocal axes: (cart. coord. in units 2 pi/alat)
               b(1) = (  1.000000  0.000000  0.000000 )
               b(2) = (  0.000000  0.989327 -0.707217 )
               b(3) = (  0.000000  0.000000  0.705586 )

     PseudoPot. # 1 for Sr read from file:
     /lustre07/scratch/pragov/crystal_structure_design/utils/SSSP/Sr_pbe_v1.uspp.F.UPF
     MD5 check sum: 6b418c05fbe9db5448babca5e47b7a5b
     Pseudo is Ultrasoft + core correction, Zval = 10.0
     Generated by new atomic code, or converted to UPF format
     Using radial grid of  883 points,  6 beta functions with:
                l(1) =   0
                l(2) =   0
                l(3) =   1
                l(4) =   1
                l(5) =   2
                l(6) =   2
     Q(r) pseudized with  6 coefficients,  rinner =    1.400   1.400   1.400
                                                       1.400   1.400

     PseudoPot. # 2 for Zn read from file:
     /lustre07/scratch/pragov/crystal_structure_design/utils/SSSP/Zn_pbe_v1.uspp.F.UPF
     MD5 check sum: df62231357ef9e81f77b2b3087fa5675
     Pseudo is Ultrasoft, Zval = 20.0
     Generated by new atomic code, or converted to UPF format
     Using radial grid of  943 points,  6 beta functions with:
                l(1) =   0
                l(2) =   0
                l(3) =   1
                l(4) =   1
                l(5) =   2
                l(6) =   2
     Q(r) pseudized with  8 coefficients,  rinner =    1.100   1.100   1.100
                                                       1.100   1.100

     PseudoPot. # 3 for W  read from file:
     /lustre07/scratch/pragov/crystal_structure_design/utils/SSSP/W_pbe_v1.2.uspp.F.UPF
     MD5 check sum: 9c083fa34c2a2ea0f02f1f893e16e1c8
     Pseudo is Ultrasoft + core correction, Zval = 14.0
     Generated by new atomic code, or converted to UPF format
     Using radial grid of  923 points,  8 beta functions with:
                l(1) =   0
                l(2) =   0
                l(3) =   0
                l(4) =   1
                l(5) =   1
                l(6) =   2
                l(7) =   2
                l(8) =   3
     Q(r) pseudized with  6 coefficients,  rinner =    1.350   1.350   1.350
                                                       1.350   1.350   1.350
                                                       1.350

     PseudoPot. # 4 for O  read from file:
     /lustre07/scratch/pragov/crystal_structure_design/utils/SSSP/O.pbe-n-kjpaw_psl.0.1.UPF
     MD5 check sum: 0234752ac141de4415c5fc33072bef88
     Pseudo is Projector augmented-wave + core cor, Zval =  6.0
     Generated using "atomic" code by A. Dal Corso  v.5.0.99 svn rev. 10869
     Shape of augmentation charge: BESSEL
     Using radial grid of 1095 points,  4 beta functions with:
                l(1) =   0
                l(2) =   0
                l(3) =   1
                l(4) =   1
     Q(r) pseudized with 0 coefficients

     atomic species   valence    mass     pseudopotential
        Sr            10.00    87.62000     Sr( 1.00)
        Zn            20.00    65.38000     Zn( 1.00)
        W             14.00   183.84000     W ( 1.00)
        O              6.00    15.99900     O ( 1.00)

      4 Sym. Ops., with inversion, found ( 2 have fractional translation)

                                    s                        frac. trans.

      isym =  1     identity

 cryst.   s( 1) = (     1          0          0      )
                  (     0          1          0      )
                  (     0          0          1      )

 cart.    s( 1) = (  1.0000000  0.0000000  0.0000000 )
                  (  0.0000000  1.0000000  0.0000000 )
                  (  0.0000000  0.0000000  1.0000000 )

      isym =  2     180 deg rotation - cart. axis [1,0,0]

 cryst.   s( 2) = (     1          0          0      )    f =( -0.5000000 )
                  (     0         -1          0      )       ( -0.0000000 )
                  (     0          0         -1      )       (  0.5000000 )

 cart.    s( 2) = (  1.0000000  0.0000000  0.0000000 )    f =( -0.5000000 )
                  (  0.0000000 -1.0000000  0.0000000 )       (  0.5065626 )
                  (  0.0000000  0.0000000 -1.0000000 )       (  0.7086306 )

      isym =  3     inversion

 cryst.   s( 3) = (    -1          0          0      )
                  (     0         -1          0      )
                  (     0          0         -1      )

 cart.    s( 3) = ( -1.0000000  0.0000000  0.0000000 )
                  (  0.0000000 -1.0000000  0.0000000 )
                  (  0.0000000  0.0000000 -1.0000000 )

      isym =  4     inv. 180 deg rotation - cart. axis [1,0,0]

 cryst.   s( 4) = (    -1          0          0      )    f =(  0.5000000 )
                  (     0          1          0      )       (  0.0000000 )
                  (     0          0          1      )       (  0.5000000 )

 cart.    s( 4) = ( -1.0000000  0.0000000  0.0000000 )    f =(  0.5000000 )
                  (  0.0000000  1.0000000  0.0000000 )       (  0.5065626 )
                  (  0.0000000  0.0000000  1.0000000 )       (  0.7086306 )

   Cartesian axes

     site n.     atom                  positions (alat units)
         1           Sr  tau(   1) = (   0.0128990   1.0147993   0.3543635  )
         2           Sr  tau(   2) = (   0.4871010   1.5213619   1.0629940  )
         3           Sr  tau(   3) = (   0.9871010   1.0091144   1.0628977  )
         4           Sr  tau(   4) = (   0.5128990   0.5025518   0.3542671  )
         5           Zn  tau(   5) = (   0.0000000   0.5065626   0.7086306  )
         6           Zn  tau(   6) = (   0.5000000   0.0000000   0.0000000  )
         7           W   tau(   7) = (   0.5000000   1.0119568   0.7086306  )
         8           W   tau(   8) = (   0.0000000   0.5053943   0.0000000  )
         9           O   tau(   9) = (   0.7595060   1.2340617   0.6664968  )
        10           O   tau(  10) = (   0.7404940   1.7406243   1.3751274  )
        11           O   tau(  11) = (   0.2404940   0.7898520   0.7507643  )
        12           O   tau(  12) = (   0.2595060   0.2832894   0.0421338  )
        13           O   tau(  13) = (   0.2793960   1.2727026   0.6661623  )
        14           O   tau(  14) = (   0.2206040   1.7792652   1.3747929  )
        15           O   tau(  15) = (   0.7206040   0.7512111   0.7510988  )
        16           O   tau(  16) = (   0.7793960   0.2446485   0.0424682  )
        17           O   tau(  17) = (   0.4947160   0.9535651   0.3698811  )
        18           O   tau(  18) = (   0.0052840   1.4601277   1.0785116  )
        19           O   tau(  19) = (   0.5052840   1.0703486   1.0473801  )
        20           O   tau(  20) = (   0.9947160   0.5637860   0.3387495  )

   Crystallographic axes

     site n.     atom                  positions (cryst. coord.)
         1           Sr  tau(   1) = (  0.0128990  0.7533560  0.2500340  )
         2           Sr  tau(   2) = (  0.4871010  0.7533560  0.7500340  )
         3           Sr  tau(   3) = (  0.9871010  0.2466440  0.7499660  )
         4           Sr  tau(   4) = (  0.5128990  0.2466440  0.2499660  )
         5           Zn  tau(   5) = (  0.0000000 -0.0000000  0.5000000  )
         6           Zn  tau(   6) = (  0.5000000  0.0000000  0.0000000  )
         7           W   tau(   7) = (  0.5000000  0.5000000  0.5000000  )
         8           W   tau(   8) = (  0.0000000  0.5000000  0.0000000  )
         9           O   tau(   9) = (  0.7595060  0.7495320  0.4702710  )
        10           O   tau(  10) = (  0.7404940  0.7495320  0.9702710  )
        11           O   tau(  11) = (  0.2404940  0.2504680  0.5297290  )
        12           O   tau(  12) = (  0.2595060  0.2504680  0.0297290  )
        13           O   tau(  13) = (  0.2793960  0.7879970  0.4700350  )
        14           O   tau(  14) = (  0.2206040  0.7879970  0.9700350  )
        15           O   tau(  15) = (  0.7206040  0.2120030  0.5299650  )
        16           O   tau(  16) = (  0.7793960  0.2120030  0.0299650  )
        17           O   tau(  17) = (  0.4947160  0.6818010  0.2609830  )
        18           O   tau(  18) = (  0.0052840  0.6818010  0.7609830  )
        19           O   tau(  19) = (  0.5052840  0.3181990  0.7390170  )
        20           O   tau(  20) = (  0.9947160  0.3181990  0.2390170  )

     number of k points=    10
                       cart. coord. in units 2pi/alat
        k(    1) = (   0.0000000   0.0000000   0.0000000), wk =   0.0740741
        k(    2) = (   0.0000000   0.0000000   0.2351954), wk =   0.1481481
        k(    3) = (   0.0000000   0.3297755  -0.2357391), wk =   0.1481481
        k(    4) = (   0.0000000   0.3297755  -0.0005437), wk =   0.1481481
        k(    5) = (   0.0000000   0.3297755  -0.4709345), wk =   0.1481481
        k(    6) = (   0.3333333   0.0000000   0.0000000), wk =   0.1481481
        k(    7) = (   0.3333333   0.0000000   0.2351954), wk =   0.2962963
        k(    8) = (   0.3333333   0.3297755  -0.2357391), wk =   0.2962963
        k(    9) = (   0.3333333   0.3297755  -0.0005437), wk =   0.2962963
        k(   10) = (   0.3333333   0.3297755  -0.4709345), wk =   0.2962963

                       cryst. coord.
        k(    1) = (   0.0000000   0.0000000   0.0000000), wk =   0.0740741
        k(    2) = (   0.0000000   0.0000000   0.3333333), wk =   0.1481481
        k(    3) = (   0.0000000   0.3333333   0.0000000), wk =   0.1481481
        k(    4) = (   0.0000000   0.3333333   0.3333333), wk =   0.1481481
        k(    5) = (   0.0000000   0.3333333  -0.3333333), wk =   0.1481481
        k(    6) = (   0.3333333   0.0000000   0.0000000), wk =   0.1481481
        k(    7) = (   0.3333333   0.0000000   0.3333333), wk =   0.2962963
        k(    8) = (   0.3333333   0.3333333   0.0000000), wk =   0.2962963
        k(    9) = (   0.3333333   0.3333333   0.3333333), wk =   0.2962963
        k(   10) = (   0.3333333   0.3333333  -0.3333333), wk =   0.2962963

     Check: negative core charge=   -0.000012

     Initial potential from superposition of free atoms

     starting charge     179.6644, renormalised to     180.0000

     negative rho (up, down):  3.780E-01 0.000E+00
     Starting wfcs are  152 randomized atomic wfcs +  104 random wfcs
     Checking if some PAW data can be deallocated...

     Self-consistent Calculation

     iteration #  1     ecut=    30.00 Ry     beta= 0.70
     Davidson diagonalization with overlap

     ethr =  1.00E-02,  avg # of iterations =  6.0

     negative rho (up, down):  3.749E-01 0.000E+00

     total energy              =   -2019.92169056 Ry
     estimated scf accuracy    <       5.84377924 Ry

[...]

     total energy              =   -2022.95175405 Ry
     estimated scf accuracy    <       0.00000247 Ry

     iteration # 10     ecut=    30.00 Ry     beta= 0.70
     Davidson diagonalization with overlap

     ethr =  1.37E-09,  avg # of iterations =  2.0

     negative rho (up, down):  3.855E-01 0.000E+00

     End of self-consistent calculation

          k = 0.0000 0.0000 0.0000 (  4889 PWs)   bands (ev):

  -113.8968-113.8944 -68.0462 -68.0391 -68.0344 -68.0316 -68.0304 -68.0227
   -65.2362 -65.2361 -29.4499 -29.4498 -29.4385 -29.4382 -29.4380 -29.4377
   -23.3938 -23.3774 -23.3646 -23.3521  -8.3878  -8.2927  -7.7334  -7.5623
    -7.4721  -7.4288  -7.4126  -7.3128  -7.0492  -6.9969  -6.9734  -6.9122
    -5.5489  -5.4902  -5.4202  -5.4084  -5.3367  -5.3227  -5.3052  -5.3031
    -5.2958  -5.0443  -4.9892  -4.9333   3.4144   3.6092   3.9175   3.9269
     3.9293   3.9829   4.3040   4.7011   4.7077   4.7159   4.9557   4.9595
     5.6086   5.7044   5.7230   5.8507   5.8591   5.8686   6.2706   6.3461
     6.3652   6.3880   6.4408   6.8747   6.8820   6.8940   6.8998   7.0718
     7.2281   7.2400   7.7573   7.9135   8.1281   8.2348   8.2771   8.3587
     8.4863   8.5223   8.6209   8.6682   8.7345   8.7749   8.9226   9.0134
     9.0572   9.0713  12.2557  12.4204  12.4624  12.5112  12.7070  13.1293
    14.1158  14.4659  15.1395  15.4523  15.8823  16.0403  16.1495  16.5783
    16.8195  17.0733  17.2207  17.3671  17.3824  17.5328  17.6470  17.7604
    18.2053  18.2643  18.3428  18.3691  18.4440  18.5748  18.5993  18.7458
    18.7498  19.2185  19.2351  19.3824  19.5461  20.0764  20.3820  20.5755
    20.6110  22.0856  22.3680  22.4510  22.4572  22.5881  22.7744  22.8404
    23.0787  23.2325  23.7863  24.1478  24.3170  24.6525  24.9551  24.9904
    25.1114  25.3180  25.8312  25.9967  27.0010  27.1831  27.3903  27.6894
    27.7124  28.0607  28.1632  28.6475  28.7672  28.8267  28.8820  28.9415
    29.1410  29.3107  29.7724  30.1919  30.2167  30.2835  31.0139  31.1915
    31.4536  31.5344  31.6348  31.6986  31.7816  31.9606  32.0746  32.4215
    32.6588  32.7222  32.9184  33.0156  33.2466  33.4930  33.4951  33.7071
    34.0252  34.3660  34.4770  34.4996  35.0117  35.2881  35.3015  35.5211
    35.6422  35.7286  35.7605  36.0567  36.2925  36.7828  36.9000  37.0807
    37.1052  37.1844  37.2972  37.4322  37.5098  37.6905  37.7455  38.1081
    38.3112  38.6221  38.6908  39.0467  39.7351  39.7622  39.7655  40.0428
    40.2990  40.4277  40.5165  40.5617  40.7895  40.9710  41.0325  41.3595
    41.3729  41.6265  41.7620  41.7953  41.8423  42.2150  42.3934  42.4023
    42.6504  42.8123  42.8917  42.9171  43.0682  43.3218  43.4887  43.8015
    44.0872  44.1588  44.1772  44.2903  44.5634  44.5750  44.7893  44.7937
    44.9958  45.2149  45.2855  45.6814  45.6898  45.8324  46.1848  46.2290

     occupation numbers
     1.0000   1.0000   1.0000   1.0000   1.0000   1.0000   1.0000   1.0000
     1.0000   1.0000   1.0000   1.0000   1.0000   1.0000   1.0000   1.0000
     1.0000   1.0000   1.0000   1.0000   1.0000   1.0000   1.0000   1.0000
     1.0000   1.0000   1.0000   1.0000   1.0000   1.0000   1.0000   1.0000
     1.0000   1.0000   1.0000   1.0000   1.0000   1.0000   1.0000   1.0000
     1.0000   1.0000   1.0000   1.0000   1.0000   1.0000   1.0000   1.0000
     1.0000   1.0000   1.0000   1.0000   1.0000   1.0000   1.0000   1.0000
     1.0000   1.0000   1.0000   1.0000   1.0000   1.0000   1.0000   1.0000
     1.0000   1.0000   1.0000   1.0000   1.0000   1.0000   1.0000   1.0000
     1.0000   1.0000   1.0000   1.0000   1.0000   1.0000   1.0000   1.0000
     1.0000   1.0000   1.0000   1.0000   1.0000   1.0000   1.0000   1.0000
     1.0000   1.0000   0.0000   0.0000   0.0000   0.0000   0.0000   0.0000
     0.0000   0.0000   0.0000   0.0000   0.0000   0.0000   0.0000   0.0000
     0.0000   0.0000   0.0000   0.0000   0.0000   0.0000   0.0000   0.0000
     0.0000   0.0000   0.0000   0.0000   0.0000   0.0000   0.0000   0.0000
     0.0000   0.0000   0.0000   0.0000   0.0000   0.0000   0.0000   0.0000
     0.0000   0.0000   0.0000   0.0000   0.0000   0.0000   0.0000   0.0000
     0.0000   0.0000   0.0000   0.0000   0.0000   0.0000   0.0000   0.0000
     0.0000   0.0000   0.0000   0.0000   0.0000   0.0000   0.0000   0.0000
     0.0000   0.0000   0.0000   0.0000   0.0000   0.0000   0.0000   0.0000
     0.0000   0.0000   0.0000   0.0000   0.0000   0.0000   0.0000   0.0000
     0.0000   0.0000   0.0000   0.0000   0.0000   0.0000   0.0000   0.0000
     0.0000   0.0000   0.0000   0.0000   0.0000   0.0000   0.0000   0.0000
     0.0000   0.0000   0.0000   0.0000   0.0000   0.0000   0.0000   0.0000
     0.0000   0.0000   0.0000   0.0000   0.0000   0.0000   0.0000   0.0000
     0.0000   0.0000   0.0000   0.0000   0.0000   0.0000   0.0000   0.0000
     0.0000   0.0000   0.0000   0.0000   0.0000   0.0000   0.0000   0.0000
     0.0000   0.0000   0.0000   0.0000   0.0000   0.0000   0.0000   0.0000
     0.0000   0.0000   0.0000   0.0000   0.0000   0.0000   0.0000   0.0000
     0.0000   0.0000   0.0000   0.0000   0.0000   0.0000   0.0000   0.0000
     0.0000   0.0000   0.0000   0.0000   0.0000   0.0000   0.0000   0.0000
     0.0000   0.0000   0.0000   0.0000   0.0000   0.0000   0.0000   0.0000

[...]

          k = 0.3333 0.3298-0.4709 (  4896 PWs)   bands (ev):

  -113.8961-113.8959 -68.0421 -68.0412 -68.0357 -68.0329 -68.0297 -68.0290
   -65.2362 -65.2362 -29.4500 -29.4500 -29.4386 -29.4385 -29.4380 -29.4378
   -23.3781 -23.3717 -23.3706 -23.3648  -8.2976  -8.2658  -7.8993  -7.8296
    -7.5703  -7.4729  -7.2429  -7.1885  -7.1623  -7.1403  -7.0634  -7.0371
    -5.3949  -5.3924  -5.3608  -5.3438  -5.2904  -5.2322  -5.1603  -5.1265
    -5.0696  -5.0519  -5.0158  -4.9822   3.7157   3.7475   4.1933   4.2325
     4.2602   4.2989   4.5621   4.6832   4.8349   4.9043   4.9228   4.9320
     5.1798   5.2341   5.2697   5.3954   5.4650   5.5075   5.6082   5.6564
     5.7776   5.8575   6.5996   6.8640   7.1221   7.1804   7.3514   7.4191
     7.5448   7.6635   7.7391   7.8233   7.8836   7.9526   7.9944   8.0179
     8.1338   8.2291   8.5805   8.6184   8.6768   8.7492   8.8539   8.8886
     8.9654   9.0670  12.4662  12.4772  12.7218  12.8073  12.8482  12.9142
    15.0088  15.0409  16.2573  16.4106  16.5673  16.7636  16.8308  16.9408
    17.0985  17.1528  17.2335  17.3266  17.4141  17.5848  17.7080  17.8417
    17.8546  18.0491  18.1451  18.2033  18.2438  18.3042  18.4134  18.4653
    18.6705  18.7606  19.3543  19.6410  20.0606  20.0732  20.3211  20.6931
    21.4924  21.5735  21.9469  22.2292  22.3649  22.7137  22.9510  23.3956
    23.4593  23.5607  23.9987  24.1200  24.3950  24.5585  24.7373  24.8201
    24.9919  25.0280  25.2097  25.5569  25.6941  25.9673  26.4473  26.9522
    27.0441  27.2295  27.3767  27.9910  28.0254  28.3820  28.7152  28.8097
    29.0396  29.3262  29.5616  29.9019  30.3364  30.4641  30.9226  31.0361
    31.3638  31.5054  31.5311  31.9195  32.0645  32.3114  32.3376  32.5264
    32.7127  32.9272  33.1919  33.3002  33.3922  33.5035  33.7414  33.8798
    34.1712  34.2911  34.3921  34.6202  34.6286  34.9252  35.0573  35.5185
    35.7553  35.8616  36.0291  36.2124  36.5028  36.8048  36.8315  37.0399
    37.2748  37.6169  37.8251  37.9158  38.0361  38.3024  38.3641  38.5538
    38.6932  39.0125  39.2954  39.3483  39.4606  39.6101  39.7457  39.8647
    40.2018  40.3753  40.6139  40.7059  40.9936  41.0697  41.2735  41.5214
    41.6130  41.8592  41.9464  42.1805  42.3925  42.5346  42.7633  42.8618
    42.9193  43.1024  43.2266  43.3781  43.4917  43.6408  43.7269  43.8055
    44.0122  44.1781  44.2459  44.3126  44.5459  44.8207  44.9933  45.0650
    45.2016  45.4033  45.5963  45.6653  45.6966  45.8380  46.1039  46.1427

     occupation numbers
     1.0000   1.0000   1.0000   1.0000   1.0000   1.0000   1.0000   1.0000
     1.0000   1.0000   1.0000   1.0000   1.0000   1.0000   1.0000   1.0000
     1.0000   1.0000   1.0000   1.0000   1.0000   1.0000   1.0000   1.0000
     1.0000   1.0000   1.0000   1.0000   1.0000   1.0000   1.0000   1.0000
     1.0000   1.0000   1.0000   1.0000   1.0000   1.0000   1.0000   1.0000
     1.0000   1.0000   1.0000   1.0000   1.0000   1.0000   1.0000   1.0000
     1.0000   1.0000   1.0000   1.0000   1.0000   1.0000   1.0000   1.0000
     1.0000   1.0000   1.0000   1.0000   1.0000   1.0000   1.0000   1.0000
     1.0000   1.0000   1.0000   1.0000   1.0000   1.0000   1.0000   1.0000
     1.0000   1.0000   1.0000   1.0000   1.0000   1.0000   1.0000   1.0000
     1.0000   1.0000   1.0000   1.0000   1.0000   1.0000   1.0000   1.0000
     1.0000   1.0000   0.0000   0.0000   0.0000   0.0000   0.0000   0.0000
     0.0000   0.0000   0.0000   0.0000   0.0000   0.0000   0.0000   0.0000
     0.0000   0.0000   0.0000   0.0000   0.0000   0.0000   0.0000   0.0000
     0.0000   0.0000   0.0000   0.0000   0.0000   0.0000   0.0000   0.0000
     0.0000   0.0000   0.0000   0.0000   0.0000   0.0000   0.0000   0.0000
     0.0000   0.0000   0.0000   0.0000   0.0000   0.0000   0.0000   0.0000
     0.0000   0.0000   0.0000   0.0000   0.0000   0.0000   0.0000   0.0000
     0.0000   0.0000   0.0000   0.0000   0.0000   0.0000   0.0000   0.0000
     0.0000   0.0000   0.0000   0.0000   0.0000   0.0000   0.0000   0.0000
     0.0000   0.0000   0.0000   0.0000   0.0000   0.0000   0.0000   0.0000
     0.0000   0.0000   0.0000   0.0000   0.0000   0.0000   0.0000   0.0000
     0.0000   0.0000   0.0000   0.0000   0.0000   0.0000   0.0000   0.0000
     0.0000   0.0000   0.0000   0.0000   0.0000   0.0000   0.0000   0.0000
     0.0000   0.0000   0.0000   0.0000   0.0000   0.0000   0.0000   0.0000
     0.0000   0.0000   0.0000   0.0000   0.0000   0.0000   0.0000   0.0000
     0.0000   0.0000   0.0000   0.0000   0.0000   0.0000   0.0000   0.0000
     0.0000   0.0000   0.0000   0.0000   0.0000   0.0000   0.0000   0.0000
     0.0000   0.0000   0.0000   0.0000   0.0000   0.0000   0.0000   0.0000
     0.0000   0.0000   0.0000   0.0000   0.0000   0.0000   0.0000   0.0000
     0.0000   0.0000   0.0000   0.0000   0.0000   0.0000   0.0000   0.0000
     0.0000   0.0000   0.0000   0.0000   0.0000   0.0000   0.0000   0.0000

     highest occupied, lowest unoccupied level (ev):     9.1624   12.2557

!    total energy              =   -2022.95175390 Ry
     estimated scf accuracy    <       0.00000073 Ry

     The total energy is the sum of the following terms:
     one-electron contribution =   -1126.75418585 Ry
     hartree contribution      =     657.33039653 Ry
     xc contribution           =    -329.63038834 Ry
     ewald contribution        =   -1109.62465932 Ry
     one-center paw contrib.   =    -114.27291692 Ry
      -> PAW hartree energy AE =       0.00000000 Ry
      -> PAW hartree energy PS =       0.00000000 Ry
      -> PAW xc energy AE      =       0.00000000 Ry
      -> PAW xc energy PS      =       0.00000000 Ry
      -> total E_H with PAW    =     657.33039653 Ry
      -> total E_XC with PAW   =    -329.63038834 Ry

     convergence has been achieved in  10 iterations

     Writing all to output data dir bands_nm/myprefix.save/

     General routines

     Parallel routines

     PAW routines

   This run was terminated on:  18: 8: 9  15Jul2023

   JOB DONE.