     Program PWSCF v.7.1 starts on 16Jul2023 at 13:19:28

     Reading input from espresso_15764.pwi
Warning: card &CELL ignored
Warning: card / ignored

     Current dimensions of program PWSCF are:
     Max number of different atomic species (ntypx) = 10
     Max number of k-points (npk) =  40000
     Max angular momentum in pseudopotentials (lmaxx) =  4
     Message from routine setup:
     using ibrav=0 with symmetry is DISCOURAGED, use correct ibrav instead

     K-points division:     npool     =       2
     R & G space division:  proc/nbgrp/npool/nimage =       4
     Subspace diagonalization in iterative solution of the eigenvalue problem:
     a serial algorithm will be used

     Using Slab Decomposition

     bravais-lattice index     =            0
     lattice parameter (alat)  =      13.9358  a.u.
     unit-cell volume          =    2265.3884 (a.u.)^3
     number of atoms/cell      =            8
     number of atomic types    =            2
     number of electrons       =        72.00
     number of Kohn-Sham states=           64
     kinetic-energy cutoff     =      30.0000  Ry
     charge density cutoff     =     240.0000  Ry
     scf convergence threshold =      1.0E-06
     mixing beta               =       0.7000
     number of iterations used =            8  plain     mixing
     Exchange-correlation=  SLA  PW   PBX  PBC
                           (   1   4   3   4   0   0   0)

     celldm(1)=  13.935757  celldm(2)=   0.000000  celldm(3)=   0.000000
     celldm(4)=   0.000000  celldm(5)=   0.000000  celldm(6)=   0.000000

     crystal axes: (cart. coord. in units of alat)
               a(1) = (   1.000000   0.000000   0.000000 )
               a(2) = (  -0.491960   0.870618   0.000000 )
               a(3) = (   0.173094   0.296627   0.961443 )

     reciprocal axes: (cart. coord. in units 2 pi/alat)
               b(1) = (  1.000000  0.565070 -0.354373 )
               b(2) = (  0.000000  1.148610 -0.354373 )
               b(3) = (  0.000000  0.000000  1.040103 )

     PseudoPot. # 1 for Bi read from file:
     /lustre07/scratch/pragov/crystal_structure_design/utils/SSSP/Bi_pbe_v1.uspp.F.UPF
     MD5 check sum: cceb9f28ec65b6d7ff33140f5b0b1758
     Pseudo is Ultrasoft + core correction, Zval = 15.0
     Generated by new atomic code, or converted to UPF format
     Using radial grid of  899 points,  6 beta functions with:
                l(1) =   0
                l(2) =   0
                l(3) =   1
                l(4) =   1
                l(5) =   2
                l(6) =   2
     Q(r) pseudized with  6 coefficients,  rinner =    1.000   1.000   1.000
                                                       1.000   1.000

     PseudoPot. # 2 for Br read from file:
     /lustre07/scratch/pragov/crystal_structure_design/utils/SSSP/br_pbe_v1.4.uspp.F.UPF
     MD5 check sum: d3ffb7b29f6225aa16fe06858fb2a80b
     Pseudo is Ultrasoft + core correction, Zval =  7.0
     Generated by new atomic code, or converted to UPF format
     Using radial grid of  879 points,  6 beta functions with:
                l(1) =   0
                l(2) =   0
                l(3) =   1
                l(4) =   1
                l(5) =   2
                l(6) =   2
     Q(r) pseudized with  8 coefficients,  rinner =    1.100   1.100   1.100
                                                       1.100   1.100

     atomic species   valence    mass     pseudopotential
        Bi            15.00   208.98040     Bi( 1.00)
        Br             7.00    79.90400     Br( 1.00)

      2 Sym. Ops., with inversion, found

                                    s                        frac. trans.

      isym =  1     identity

 cryst.   s( 1) = (     1          0          0      )
                  (     0          1          0      )
                  (     0          0          1      )

 cart.    s( 1) = (  1.0000000  0.0000000 -0.0000000 )
                  (  0.0000000  1.0000000  0.0000000 )
                  (  0.0000000  0.0000000  1.0000000 )

      isym =  2     inversion

 cryst.   s( 2) = (    -1          0          0      )
                  (     0         -1          0      )
                  (     0          0         -1      )

 cart.    s( 2) = ( -1.0000000  0.0000000  0.0000000 )
                  (  0.0000000 -1.0000000  0.0000000 )
                  (  0.0000000  0.0000000 -1.0000000 )

   Cartesian axes

     site n.     atom                  positions (alat units)
         1           Bi  tau(   1) = (   0.7479020   0.1471091   0.0000000  )
         2           Bi  tau(   2) = (  -0.2398622   0.7235085   0.0000000  )
         3           Br  tau(   3) = (   0.7970896   0.7357763   0.7257557  )
         4           Br  tau(   4) = (   0.4326899   0.1113120   0.2356871  )
         5           Br  tau(   5) = (   0.2484436   1.0559329   0.7257557  )
         6           Br  tau(   6) = (  -0.1159560   0.4314686   0.2356871  )
         7           Br  tau(   7) = (   0.2515949   0.4311531   0.7494928  )
         8           Br  tau(   8) = (   0.4295387   0.7360918   0.2119501  )

   Crystallographic axes

     site n.     atom                  positions (cryst. coord.)
         1           Bi  tau(   1) = (  0.8310290  0.1689710  0.0000000  )
         2           Bi  tau(   2) = (  0.1689710  0.8310290  0.0000000  )
         3           Br  tau(   3) = (  0.9556670  0.5879320  0.7548610  )
         4           Br  tau(   4) = (  0.4120680  0.0443330  0.2451390  )
         5           Br  tau(   5) = (  0.5879320  0.9556670  0.7548610  )
         6           Br  tau(   6) = (  0.0443330  0.4120680  0.2451390  )
         7           Br  tau(   7) = (  0.2296270  0.2296270  0.7795500  )
         8           Br  tau(   8) = (  0.7703730  0.7703730  0.2204500  )

     number of k points=    14
                       cart. coord. in units 2pi/alat
        k(    1) = (   0.0000000   0.0000000   0.0000000), wk =   0.0740741
        k(    2) = (   0.0000000   0.0000000   0.3467011), wk =   0.1481481
        k(    3) = (   0.0000000   0.3828699  -0.1181242), wk =   0.1481481
        k(    4) = (   0.0000000   0.3828699   0.2285770), wk =   0.1481481
        k(    5) = (   0.0000000   0.3828699  -0.4648253), wk =   0.1481481
        k(    6) = (   0.3333333   0.1883568  -0.1181242), wk =   0.1481481
        k(    7) = (   0.3333333   0.1883568   0.2285770), wk =   0.1481481
        k(    8) = (   0.3333333   0.1883568  -0.4648253), wk =   0.1481481
        k(    9) = (   0.3333333   0.5712267  -0.2362484), wk =   0.1481481
        k(   10) = (   0.3333333   0.5712267   0.1104528), wk =   0.1481481
        k(   11) = (   0.3333333   0.5712267  -0.5829495), wk =   0.1481481
        k(   12) = (   0.3333333  -0.1945132   0.0000000), wk =   0.1481481
        k(   13) = (   0.3333333  -0.1945132   0.3467011), wk =   0.1481481
        k(   14) = (   0.3333333  -0.1945132  -0.3467011), wk =   0.1481481

                       cryst. coord.
        k(    1) = (   0.0000000   0.0000000   0.0000000), wk =   0.0740741
        k(    2) = (   0.0000000   0.0000000   0.3333333), wk =   0.1481481
        k(    3) = (   0.0000000   0.3333333   0.0000000), wk =   0.1481481
        k(    4) = (   0.0000000   0.3333333   0.3333333), wk =   0.1481481
        k(    5) = (   0.0000000   0.3333333  -0.3333333), wk =   0.1481481
        k(    6) = (   0.3333333   0.0000000   0.0000000), wk =   0.1481481
        k(    7) = (   0.3333333   0.0000000   0.3333333), wk =   0.1481481
        k(    8) = (   0.3333333   0.0000000  -0.3333333), wk =   0.1481481
        k(    9) = (   0.3333333   0.3333333   0.0000000), wk =   0.1481481
        k(   10) = (   0.3333333   0.3333333   0.3333333), wk =   0.1481481
        k(   11) = (   0.3333333   0.3333333  -0.3333333), wk =   0.1481481
        k(   12) = (   0.3333333  -0.3333333   0.0000000), wk =   0.1481481
        k(   13) = (   0.3333333  -0.3333333   0.3333333), wk =   0.1481481
        k(   14) = (   0.3333333  -0.3333333  -0.3333333), wk =   0.1481481

     Check: negative core charge=   -0.000003

     Initial potential from superposition of free atoms

     starting charge      69.9998, renormalised to      72.0000

     negative rho (up, down):  8.527E-02 0.000E+00
     Starting wfcs are   42 randomized atomic wfcs +   22 random wfcs

     Self-consistent Calculation

     iteration #  1     ecut=    30.00 Ry     beta= 0.70
     Davidson diagonalization with overlap

     ethr =  1.00E-02,  avg # of iterations =  7.8

     Threshold (ethr) on eigenvalues was too large:
     Diagonalizing with lowered threshold

     Davidson diagonalization with overlap

[...]

     negative rho (up, down):  7.816E-02 0.000E+00

     total energy              =    -651.88631720 Ry
     estimated scf accuracy    <       0.48479988 Ry

[...]

     c_bands:  1 eigenvalues not converged
     ethr =  1.07E-06,  avg # of iterations = 11.6

[...]

     total energy              =    -652.07333981 Ry
     estimated scf accuracy    <       0.00002087 Ry

     iteration #  7     ecut=    30.00 Ry     beta= 0.70
     Davidson diagonalization with overlap

     ethr =  2.90E-08,  avg # of iterations =  2.0

     negative rho (up, down):  8.084E-02 0.000E+00

     End of self-consistent calculation

          k = 0.0000 0.0000 0.0000 (  6277 PWs)   bands (ev):

   -21.1453 -21.1431 -21.1396 -21.1383 -21.1305 -21.1303 -21.1271 -21.1261
   -21.1261 -21.1212 -12.8508 -12.1307 -12.0857 -12.0643 -11.9456 -11.9230
    -8.7712  -7.8350  -2.1375  -2.0112  -1.9589  -1.4245  -1.2216  -0.6009
    -0.2295   0.0500   0.0551   0.0693   0.1764   0.4509   0.5340   0.5540
     0.5866   0.6385   0.6926   0.8303   3.9952   4.4866   4.7368   5.0200
     5.1507   5.8888   7.2386   9.3440   9.4533   9.6473   9.7851   9.7983
     9.8047  10.0871  10.0958  10.4131  10.4986  10.7420  10.9459  11.1619
    11.3734  12.2031  12.5591  13.0700  13.0863  13.1480  13.2719  13.3451

     occupation numbers
     1.0000   1.0000   1.0000   1.0000   1.0000   1.0000   1.0000   1.0000
     1.0000   1.0000   1.0000   1.0000   1.0000   1.0000   1.0000   1.0000
     1.0000   1.0000   1.0000   1.0000   1.0000   1.0000   1.0000   1.0000
     1.0000   1.0000   1.0000   1.0000   1.0000   1.0000   1.0000   1.0000
     1.0000   1.0000   1.0000   1.0000   0.0000   0.0000   0.0000   0.0000
     0.0000   0.0000   0.0000   0.0000   0.0000   0.0000   0.0000   0.0000
     0.0000   0.0000   0.0000   0.0000   0.0000   0.0000   0.0000   0.0000
     0.0000   0.0000   0.0000   0.0000   0.0000   0.0000   0.0000   0.0000

[...]

          k = 0.3333-0.1945-0.3467 (  6287 PWs)   bands (ev):

   -21.1479 -21.1468 -21.1371 -21.1342 -21.1322 -21.1306 -21.1289 -21.1244
   -21.1241 -21.1216 -12.6797 -12.2857 -12.1388 -12.0915 -11.9643 -11.9163
    -8.5276  -7.9935  -2.1252  -1.9338  -1.6808  -1.3839  -1.2801  -0.7801
    -0.1500  -0.1132   0.0373   0.0530   0.1461   0.2859   0.3356   0.4501
     0.5613   0.5751   0.8937   0.9366   4.1658   4.6956   4.7480   5.0242
     5.1870   5.5719   8.3281   8.8591   8.9014   9.0595   9.1580   9.4552
     9.5297   9.8877  10.2074  10.4026  10.7562  10.9558  11.2427  11.6677
    11.7826  12.0308  12.4740  12.6193  12.9224  13.1821  13.3790  13.5735

     occupation numbers
     1.0000   1.0000   1.0000   1.0000   1.0000   1.0000   1.0000   1.0000
     1.0000   1.0000   1.0000   1.0000   1.0000   1.0000   1.0000   1.0000
     1.0000   1.0000   1.0000   1.0000   1.0000   1.0000   1.0000   1.0000
     1.0000   1.0000   1.0000   1.0000   1.0000   1.0000   1.0000   1.0000
     1.0000   1.0000   1.0000   1.0000   0.0000   0.0000   0.0000   0.0000
     0.0000   0.0000   0.0000   0.0000   0.0000   0.0000   0.0000   0.0000
     0.0000   0.0000   0.0000   0.0000   0.0000   0.0000   0.0000   0.0000
     0.0000   0.0000   0.0000   0.0000   0.0000   0.0000   0.0000   0.0000

     highest occupied, lowest unoccupied level (ev):     0.9807    3.8885

!    total energy              =    -652.07334430 Ry
     estimated scf accuracy    <       0.00000088 Ry

     The total energy is the sum of the following terms:
     one-electron contribution =    -280.93757604 Ry
     hartree contribution      =     167.23425608 Ry
     xc contribution           =    -285.85262772 Ry
     ewald contribution        =    -252.51739661 Ry

     convergence has been achieved in   7 iterations

     Writing all to output data dir bands_nm/myprefix.save/

     General routines

     Parallel routines

   This run was terminated on:  13:19:39  16Jul2023

   JOB DONE.