     Program PWSCF v.7.1 starts on 15Jul2023 at 22: 6:19

     Reading input from espresso_24928.pwi
Warning: card &CELL ignored
Warning: card / ignored

     Current dimensions of program PWSCF are:
     Max number of different atomic species (ntypx) = 10
     Max number of k-points (npk) =  40000
     Max angular momentum in pseudopotentials (lmaxx) =  4
     file O.pbe-n-kjpaw_psl.0.1.UPF: wavefunction(s)  2P renormalized
     Message from routine setup:
     using ibrav=0 with symmetry is DISCOURAGED, use correct ibrav instead

     K-points division:     npool     =       2
     R & G space division:  proc/nbgrp/npool/nimage =       4
     Subspace diagonalization in iterative solution of the eigenvalue problem:
     one sub-group per band group will be used

     Using Slab Decomposition

     bravais-lattice index     =            0
     lattice parameter (alat)  =      10.6403  a.u.
     unit-cell volume          =    1386.1418 (a.u.)^3
     number of atoms/cell      =           18
     number of atomic types    =            3
     number of electrons       =       190.00
     number of Kohn-Sham states=          256
     kinetic-energy cutoff     =      30.0000  Ry
     charge density cutoff     =     240.0000  Ry
     scf convergence threshold =      1.0E-06
     mixing beta               =       0.7000
     number of iterations used =            8  plain     mixing
     Exchange-correlation=  SLA  PW   PBX  PBC
                           (   1   4   3   4   0   0   0)

     celldm(1)=  10.640267  celldm(2)=   0.000000  celldm(3)=   0.000000
     celldm(4)=   0.000000  celldm(5)=   0.000000  celldm(6)=   0.000000

     crystal axes: (cart. coord. in units of alat)
               a(1) = (   1.000000   0.000000   0.000000 )
               a(2) = (   0.315889   0.948796   0.000000 )
               a(3) = (   0.407052   0.293497   1.212766 )

     reciprocal axes: (cart. coord. in units 2 pi/alat)
               b(1) = (  1.000000 -0.332937 -0.255067 )
               b(2) = (  0.000000  1.053967 -0.255067 )
               b(3) = (  0.000000  0.000000  0.824561 )

     PseudoPot. # 1 for Ni read from file:
     /lustre07/scratch/pragov/crystal_structure_design/utils/SSSP/ni_pbe_v1.4.uspp.F.UPF
     MD5 check sum: 1ee80287db30b12d2bc1f57a5b5d6409
     Pseudo is Ultrasoft + core correction, Zval = 18.0
     Generated by new atomic code, or converted to UPF format
     Using radial grid of  865 points,  6 beta functions with:
                l(1) =   0
                l(2) =   0
                l(3) =   1
                l(4) =   1
                l(5) =   2
                l(6) =   2
     Q(r) pseudized with 10 coefficients,  rinner =    0.980   0.980   0.980
                                                       0.980   0.980

     PseudoPot. # 2 for O  read from file:
     /lustre07/scratch/pragov/crystal_structure_design/utils/SSSP/O.pbe-n-kjpaw_psl.0.1.UPF
     MD5 check sum: 0234752ac141de4415c5fc33072bef88
     Pseudo is Projector augmented-wave + core cor, Zval =  6.0
     Generated using "atomic" code by A. Dal Corso  v.5.0.99 svn rev. 10869
     Shape of augmentation charge: BESSEL
     Using radial grid of 1095 points,  4 beta functions with:
                l(1) =   0
                l(2) =   0
                l(3) =   1
                l(4) =   1
     Q(r) pseudized with 0 coefficients

     PseudoPot. # 3 for F  read from file:
     /lustre07/scratch/pragov/crystal_structure_design/utils/SSSP/f_pbe_v1.4.uspp.F.UPF
     MD5 check sum: 4c38b6a325caf53ec0e86aed9459de46
     Pseudo is Ultrasoft, Zval =  7.0
     Generated by new atomic code, or converted to UPF format
     Using radial grid of  799 points,  4 beta functions with:
                l(1) =   0
                l(2) =   0
                l(3) =   1
                l(4) =   1
     Q(r) pseudized with  8 coefficients,  rinner =    0.950   0.950   0.950

     atomic species   valence    mass     pseudopotential
        Ni            18.00    58.69340     Ni( 1.00)
        O              6.00    15.99900     O ( 1.00)
        F              7.00    18.99840     F ( 1.00)

      2 Sym. Ops., with inversion, found

                                    s                        frac. trans.

      isym =  1     identity

 cryst.   s( 1) = (     1          0          0      )
                  (     0          1          0      )
                  (     0          0          1      )

 cart.    s( 1) = (  1.0000000  0.0000000  0.0000000 )
                  (  0.0000000  1.0000000  0.0000000 )
                  (  0.0000000  0.0000000  1.0000000 )

      isym =  2     inversion

 cryst.   s( 2) = (    -1          0          0      )
                  (     0         -1          0      )
                  (     0          0         -1      )

 cart.    s( 2) = ( -1.0000000  0.0000000  0.0000000 )
                  (  0.0000000 -1.0000000 -0.0000000 )
                  (  0.0000000  0.0000000 -1.0000000 )

   Cartesian axes

     site n.     atom                  positions (alat units)
         1           Ni  tau(   1) = (   1.2086895   0.8715019   1.0201780  )
         2           Ni  tau(   2) = (   1.0163468   0.7328170   0.4058196  )
         3           Ni  tau(   3) = (   0.7065947   0.5094763   0.8069469  )
         4           Ni  tau(   4) = (   0.5142520   0.3707913   0.1925885  )
         5           Ni  tau(   5) = (   0.2035262   0.1467486   0.6063832  )
         6           Ni  tau(   6) = (   0.0000000   0.0000000   0.0000000  )
         7           O   tau(   7) = (   0.7943659   0.2851948   0.0000000  )
         8           O   tau(   8) = (   0.5215233   0.6636013   0.0000000  )
         9           F   tau(   9) = (   1.2250272   0.4428960   0.4010631  )
        10           F   tau(  10) = (   0.9157507   0.2198982   0.8117034  )
        11           F   tau(  11) = (   0.6995606   0.5044044   1.1666389  )
        12           F   tau(  12) = (   0.9974832   0.7192157   0.7657517  )
        13           F   tau(  13) = (   1.3058041   0.9415244   0.3634261  )
        14           F   tau(  14) = (   1.0233810   0.7378888   0.0461276  )
        15           F   tau(  15) = (   0.7254584   0.5230775   0.4470148  )
        16           F   tau(  16) = (   0.4171375   0.3007688   0.8493404  )
        17           F   tau(  17) = (   0.8071908   1.0223950   0.4010631  )
        18           F   tau(  18) = (   0.4979143   0.7993973   0.8117034  )

   Crystallographic axes

     site n.     atom                  positions (cryst. coord.)
         1           Ni  tau(   1) = (  0.6583210  0.6583210  0.8411990  )
         2           Ni  tau(   2) = (  0.6688540  0.6688540  0.3346230  )
         3           Ni  tau(   3) = (  0.3311460  0.3311460  0.6653770  )
         4           Ni  tau(   4) = (  0.3416790  0.3416790  0.1588010  )
         5           Ni  tau(   5) = (  0.0000000  0.0000000  0.5000000  )
         6           Ni  tau(   6) = (  0.0000000  0.0000000  0.0000000  )
         7           O   tau(   7) = (  0.6994140  0.3005860  0.0000000  )
         8           O   tau(   8) = (  0.3005860  0.6994140  0.0000000  )
         9           F   tau(   9) = (  0.9752730  0.3645000  0.3307010  )
        10           F   tau(  10) = (  0.6355000  0.0247270  0.6692990  )
        11           F   tau(  11) = (  0.2340550  0.2340550  0.9619650  )
        12           F   tau(  12) = (  0.5627120  0.5627120  0.6314090  )
        13           F   tau(  13) = (  0.8996380  0.8996380  0.2996670  )
        14           F   tau(  14) = (  0.7659450  0.7659450  0.0380350  )
        15           F   tau(  15) = (  0.4372880  0.4372880  0.3685910  )
        16           F   tau(  16) = (  0.1003620  0.1003620  0.7003330  )
        17           F   tau(  17) = (  0.3645000  0.9752730  0.3307010  )
        18           F   tau(  18) = (  0.0247270  0.6355000  0.6692990  )

     number of k points=    14
                       cart. coord. in units 2pi/alat
        k(    1) = (   0.0000000   0.0000000   0.0000000), wk =   0.0740741
        k(    2) = (   0.0000000   0.0000000   0.2748537), wk =   0.1481481
        k(    3) = (   0.0000000   0.3513224  -0.0850222), wk =   0.1481481
        k(    4) = (   0.0000000   0.3513224   0.1898314), wk =   0.1481481
        k(    5) = (   0.0000000   0.3513224  -0.3598759), wk =   0.1481481
        k(    6) = (   0.3333333  -0.1109790  -0.0850222), wk =   0.1481481
        k(    7) = (   0.3333333  -0.1109790   0.1898314), wk =   0.1481481
        k(    8) = (   0.3333333  -0.1109790  -0.3598759), wk =   0.1481481
        k(    9) = (   0.3333333   0.2403435  -0.1700445), wk =   0.1481481
        k(   10) = (   0.3333333   0.2403435   0.1048092), wk =   0.1481481
        k(   11) = (   0.3333333   0.2403435  -0.4448982), wk =   0.1481481
        k(   12) = (   0.3333333  -0.4623014  -0.0000000), wk =   0.1481481
        k(   13) = (   0.3333333  -0.4623014   0.2748537), wk =   0.1481481
        k(   14) = (   0.3333333  -0.4623014  -0.2748537), wk =   0.1481481

                       cryst. coord.
        k(    1) = (   0.0000000   0.0000000   0.0000000), wk =   0.0740741
        k(    2) = (   0.0000000   0.0000000   0.3333333), wk =   0.1481481
        k(    3) = (   0.0000000   0.3333333   0.0000000), wk =   0.1481481
        k(    4) = (   0.0000000   0.3333333   0.3333333), wk =   0.1481481
        k(    5) = (   0.0000000   0.3333333  -0.3333333), wk =   0.1481481
        k(    6) = (   0.3333333   0.0000000   0.0000000), wk =   0.1481481
        k(    7) = (   0.3333333   0.0000000   0.3333333), wk =   0.1481481
        k(    8) = (   0.3333333   0.0000000  -0.3333333), wk =   0.1481481
        k(    9) = (   0.3333333   0.3333333   0.0000000), wk =   0.1481481
        k(   10) = (   0.3333333   0.3333333   0.3333333), wk =   0.1481481
        k(   11) = (   0.3333333   0.3333333  -0.3333333), wk =   0.1481481
        k(   12) = (   0.3333333  -0.3333333  -0.0000000), wk =   0.1481481
        k(   13) = (   0.3333333  -0.3333333   0.3333333), wk =   0.1481481
        k(   14) = (   0.3333333  -0.3333333  -0.3333333), wk =   0.1481481

     Check: negative core charge=   -0.000009

     Initial potential from superposition of free atoms

     starting charge     178.0000, renormalised to     190.0000
     Starting wfcs are  126 randomized atomic wfcs +  130 random wfcs
     Checking if some PAW data can be deallocated...

     Self-consistent Calculation

     iteration #  1     ecut=    30.00 Ry     beta= 0.70
     Davidson diagonalization with overlap

     ethr =  1.00E-02,  avg # of iterations =  6.0

     total energy              =   -2511.50498431 Ry
     estimated scf accuracy    <     161.65435952 Ry

[...]

     total energy              =   -2627.81746068 Ry
     estimated scf accuracy    <       0.00000249 Ry

     iteration # 32     ecut=    30.00 Ry     beta= 0.70
     Davidson diagonalization with overlap

     ethr =  1.31E-09,  avg # of iterations =  1.0

     End of self-consistent calculation

          k = 0.0000 0.0000 0.0000 (  3849 PWs)   bands (ev):

   -97.1319 -97.1310 -96.9764 -96.7768 -96.7753 -96.6587 -57.5595 -57.5509
   -57.5027 -57.5011 -57.5000 -57.2870 -57.2699 -57.2676 -57.2489 -57.2302
   -57.0923 -57.0858 -57.0802 -57.0796 -57.0675 -57.0065 -57.0060 -56.8283
   -17.2833 -16.9294 -16.8057 -16.7583 -16.6591 -16.6389 -16.6322 -16.6292
   -16.5944 -16.5577 -10.9099 -10.4251  -0.9650  -0.3991  -0.1319   0.0252
     0.0742   0.4269   0.5012   0.5819   0.6556   0.7263   0.9585   1.0301
     1.1019   1.1925   1.2502   1.3433   1.3787   1.4297   1.4367   1.5113
     1.7182   1.9101   2.0374   2.2064   2.5497   2.5796   2.6047   2.6082
     2.7922   2.8612   3.0310   3.3521   3.4778   3.8453   4.4137   4.5550
     5.0556   5.2596   5.2755   5.3125   5.3260   5.3376   5.3973   5.4708
     5.5654   5.5709   5.6001   5.6609   5.7604   5.7686   5.7880   5.9230
     6.0744   6.0899   6.1474   6.2449   6.6928   6.7345   6.7417   6.8275
     7.0034   7.0380   7.1320   7.1484   7.5007   7.7200  10.0901  14.0092
    14.2810  15.2880  15.3136  15.5440  15.6455  16.6103  16.7539  17.1027
    17.1031  17.1496  17.8842  18.3492  18.9245  19.1901  19.4838  19.5697
    19.6289  20.0781  20.6048  20.7904  20.8076  21.3056  21.4796  21.5332
    21.8292  22.0282  22.3160  22.3971  23.6754  23.7280  24.2090  24.2643
    24.8540  24.9017  24.9453  26.2916  27.6874  27.7995  27.8965  27.9417
    28.1304  28.1864  28.9548  29.1556  29.2840  29.6621  29.8153  29.9451
    30.1066  30.1136  30.2344  30.3429  31.0167  31.2329  31.5395  31.5891
    32.0108  32.0512  32.1073  32.3846  32.7063  33.0058  33.3172  33.3684
    33.6114  33.8596  35.0477  35.4247  35.5862  35.6898  35.8156  36.0045
    36.0143  36.2555  36.3443  36.6306  36.9274  37.2607  37.3215  37.9777
    38.2139  38.5797  38.5878  38.6842  38.7078  39.6686  39.9080  40.1742
    40.5717  40.8088  41.0860  41.1678  41.3995  41.4246  41.4397  41.5748
    41.5988  41.8441  42.0373  42.1558  42.7702  43.3098  43.3415  43.5148
    43.5739  43.6864  43.8610  43.9147  44.0215  44.0491  44.1116  44.2853
    44.3604  44.3905  44.5738  44.5889  44.6746  44.9204  45.0060  45.1566
    45.4444  46.3973  46.4414  46.6213  46.7028  47.4201  47.4257  47.4348
    47.5466  49.1308  49.2634  49.2687  49.4448  49.4956  49.8137  49.9090
    49.9203  50.0041  50.0117  50.3400  50.4355  50.6377  50.9195  51.1432
    51.2144  51.3792  51.5809  51.6187  51.8358  51.8375  52.3162  52.7090

     occupation numbers
     1.0000   1.0000   1.0000   1.0000   1.0000   1.0000   1.0000   1.0000
     1.0000   1.0000   1.0000   1.0000   1.0000   1.0000   1.0000   1.0000
     1.0000   1.0000   1.0000   1.0000   1.0000   1.0000   1.0000   1.0000
     1.0000   1.0000   1.0000   1.0000   1.0000   1.0000   1.0000   1.0000
     1.0000   1.0000   1.0000   1.0000   1.0000   1.0000   1.0000   1.0000
     1.0000   1.0000   1.0000   1.0000   1.0000   1.0000   1.0000   1.0000
     1.0000   1.0000   1.0000   1.0000   1.0000   1.0000   1.0000   1.0000
     1.0000   1.0000   1.0000   1.0000   1.0000   1.0000   1.0000   1.0000
     1.0000   1.0000   1.0000   1.0000   1.0000   1.0000   1.0000   1.0000
     1.0000   1.0000   1.0000   1.0000   1.0000   1.0000   1.0000   1.0000
     1.0000   1.0000   1.0000   1.0000   1.0000   1.0000   1.0000   1.0000
     1.0000   1.0000   1.0000   1.0000   1.0000   1.0000   1.0000   0.0000
     0.0000   0.0000   0.0000   0.0000   0.0000   0.0000   0.0000   0.0000
     0.0000   0.0000   0.0000   0.0000   0.0000   0.0000   0.0000   0.0000
     0.0000   0.0000   0.0000   0.0000   0.0000   0.0000   0.0000   0.0000
     0.0000   0.0000   0.0000   0.0000   0.0000   0.0000   0.0000   0.0000
     0.0000   0.0000   0.0000   0.0000   0.0000   0.0000   0.0000   0.0000
     0.0000   0.0000   0.0000   0.0000   0.0000   0.0000   0.0000   0.0000
     0.0000   0.0000   0.0000   0.0000   0.0000   0.0000   0.0000   0.0000
     0.0000   0.0000   0.0000   0.0000   0.0000   0.0000   0.0000   0.0000
     0.0000   0.0000   0.0000   0.0000   0.0000   0.0000   0.0000   0.0000
     0.0000   0.0000   0.0000   0.0000   0.0000   0.0000   0.0000   0.0000
     0.0000   0.0000   0.0000   0.0000   0.0000   0.0000   0.0000   0.0000
     0.0000   0.0000   0.0000   0.0000   0.0000   0.0000   0.0000   0.0000
     0.0000   0.0000   0.0000   0.0000   0.0000   0.0000   0.0000   0.0000
     0.0000   0.0000   0.0000   0.0000   0.0000   0.0000   0.0000   0.0000
     0.0000   0.0000   0.0000   0.0000   0.0000   0.0000   0.0000   0.0000
     0.0000   0.0000   0.0000   0.0000   0.0000   0.0000   0.0000   0.0000
     0.0000   0.0000   0.0000   0.0000   0.0000   0.0000   0.0000   0.0000
     0.0000   0.0000   0.0000   0.0000   0.0000   0.0000   0.0000   0.0000
     0.0000   0.0000   0.0000   0.0000   0.0000   0.0000   0.0000   0.0000
     0.0000   0.0000   0.0000   0.0000   0.0000   0.0000   0.0000   0.0000

[...]

          k = 0.3333-0.4623-0.2749 (  3844 PWs)   bands (ev):

   -97.1317 -97.1313 -96.9765 -96.7767 -96.7756 -96.6587 -57.5591 -57.5481
   -57.5060 -57.5029 -57.5002 -57.2847 -57.2704 -57.2674 -57.2436 -57.2323
   -57.0940 -57.0855 -57.0816 -57.0810 -57.0653 -57.0068 -57.0053 -56.8301
   -17.0135 -16.9697 -16.9179 -16.8516 -16.7859 -16.6478 -16.6208 -16.6100
   -16.5481 -16.5395 -10.8728 -10.4944  -0.3081  -0.1983  -0.0423   0.0460
     0.1247   0.3383   0.4888   0.7806   0.8040   0.8708   0.9421   0.9641
     1.0775   1.1789   1.2419   1.3329   1.3999   1.4783   1.5594   1.6615
     1.8070   1.8980   1.9510   2.1414   2.1853   2.2543   2.4158   2.5639
     2.6592   2.7235   2.8619   3.0160   3.0763   3.3071   4.1335   4.5088
     5.2627   5.3083   5.3607   5.3916   5.4276   5.4419   5.5098   5.5369
     5.5663   5.5873   5.6250   5.7294   5.7338   5.8790   5.8879   5.9169
     6.1013   6.2115   6.2936   6.3680   6.5240   6.5466   6.6464   6.7319
     6.8471   6.9058   7.0242   7.1111   7.2607   7.7763  12.8056  13.1384
    13.4988  14.1461  14.7088  15.8877  16.0867  16.5219  17.2540  17.4082
    17.5488  17.9692  18.4751  18.8965  19.2990  19.3946  19.6163  19.8672
    20.1348  20.3562  20.7070  21.0266  21.0633  21.1461  21.3401  21.5885
    21.7428  21.9110  22.3873  22.7276  22.7713  22.8121  23.0168  23.7508
    24.3070  24.5135  24.7506  25.8015  25.8469  25.8681  26.4495  26.8052
    28.0403  28.5658  28.6052  28.7160  29.0591  29.2577  29.4172  29.5530
    30.2025  30.5833  30.6919  31.1141  31.2682  31.3732  31.9102  32.0537
    32.3611  33.0715  33.3641  33.4391  33.9234  34.1046  34.2682  34.5634
    35.1313  35.2092  35.3302  35.6089  35.6893  35.9993  36.1254  36.1725
    36.3291  36.3826  36.6484  37.0996  37.1560  37.4114  37.6046  37.6824
    37.7930  38.2492  38.6121  38.8308  39.0828  39.1472  39.3705  39.4630
    39.5876  39.7898  40.2681  40.4158  40.9920  41.2842  41.6298  41.7629
    42.0425  42.1729  42.3126  42.4321  42.6594  42.7937  42.8398  42.9428
    43.0011  43.1377  43.2829  43.5594  43.7200  44.0059  44.0498  44.0710
    44.2924  44.6560  44.6814  44.9932  45.1762  45.2319  45.2504  45.4710
    45.6417  45.8740  46.7936  46.8835  46.9202  47.3742  47.5614  47.7113
    47.9619  48.0503  48.1246  48.4002  48.4701  48.9763  49.0985  49.1673
    49.2947  49.4085  49.5433  50.1065  50.1349  50.2939  50.3721  50.4024
    50.9024  51.0011  51.0359  51.2227  51.5317  51.7940  51.8968  52.1614

     occupation numbers
     1.0000   1.0000   1.0000   1.0000   1.0000   1.0000   1.0000   1.0000
     1.0000   1.0000   1.0000   1.0000   1.0000   1.0000   1.0000   1.0000
     1.0000   1.0000   1.0000   1.0000   1.0000   1.0000   1.0000   1.0000
     1.0000   1.0000   1.0000   1.0000   1.0000   1.0000   1.0000   1.0000
     1.0000   1.0000   1.0000   1.0000   1.0000   1.0000   1.0000   1.0000
     1.0000   1.0000   1.0000   1.0000   1.0000   1.0000   1.0000   1.0000
     1.0000   1.0000   1.0000   1.0000   1.0000   1.0000   1.0000   1.0000
     1.0000   1.0000   1.0000   1.0000   1.0000   1.0000   1.0000   1.0000
     1.0000   1.0000   1.0000   1.0000   1.0000   1.0000   1.0000   1.0000
     1.0000   1.0000   1.0000   1.0000   1.0000   1.0000   1.0000   1.0000
     1.0000   1.0000   1.0000   1.0000   1.0000   1.0000   1.0000   1.0000
     1.0000   1.0000   1.0000   1.0000   1.0000   1.0000   1.0000   0.0000
     0.0000   0.0000   0.0000   0.0000   0.0000   0.0000   0.0000   0.0000
     0.0000   0.0000   0.0000   0.0000   0.0000   0.0000   0.0000   0.0000
     0.0000   0.0000   0.0000   0.0000   0.0000   0.0000   0.0000   0.0000
     0.0000   0.0000   0.0000   0.0000   0.0000   0.0000   0.0000   0.0000
     0.0000   0.0000   0.0000   0.0000   0.0000   0.0000   0.0000   0.0000
     0.0000   0.0000   0.0000   0.0000   0.0000   0.0000   0.0000   0.0000
     0.0000   0.0000   0.0000   0.0000   0.0000   0.0000   0.0000   0.0000
     0.0000   0.0000   0.0000   0.0000   0.0000   0.0000   0.0000   0.0000
     0.0000   0.0000   0.0000   0.0000   0.0000   0.0000   0.0000   0.0000
     0.0000   0.0000   0.0000   0.0000   0.0000   0.0000   0.0000   0.0000
     0.0000   0.0000   0.0000   0.0000   0.0000   0.0000   0.0000   0.0000
     0.0000   0.0000   0.0000   0.0000   0.0000   0.0000   0.0000   0.0000
     0.0000   0.0000   0.0000   0.0000   0.0000   0.0000   0.0000   0.0000
     0.0000   0.0000   0.0000   0.0000   0.0000   0.0000   0.0000   0.0000
     0.0000   0.0000   0.0000   0.0000   0.0000   0.0000   0.0000   0.0000
     0.0000   0.0000   0.0000   0.0000   0.0000   0.0000   0.0000   0.0000
     0.0000   0.0000   0.0000   0.0000   0.0000   0.0000   0.0000   0.0000
     0.0000   0.0000   0.0000   0.0000   0.0000   0.0000   0.0000   0.0000
     0.0000   0.0000   0.0000   0.0000   0.0000   0.0000   0.0000   0.0000
     0.0000   0.0000   0.0000   0.0000   0.0000   0.0000   0.0000   0.0000

     highest occupied, lowest unoccupied level (ev):     6.7417    6.7308

!    total energy              =   -2627.81746024 Ry
     estimated scf accuracy    <       0.00000063 Ry

     The total energy is the sum of the following terms:
     one-electron contribution =   -1885.55874199 Ry
     hartree contribution      =    1027.41286630 Ry
     xc contribution           =    -320.09258101 Ry
     ewald contribution        =   -1430.51017123 Ry
     one-center paw contrib.   =     -19.06883231 Ry
      -> PAW hartree energy AE =       0.00000000 Ry
      -> PAW hartree energy PS =       0.00000000 Ry
      -> PAW xc energy AE      =       0.00000000 Ry
      -> PAW xc energy PS      =       0.00000000 Ry
      -> total E_H with PAW    =    1027.41286630 Ry
      -> total E_XC with PAW   =    -320.09258101 Ry

     convergence has been achieved in  32 iterations

     Writing all to output data dir bands_nm/myprefix.save/

     General routines

     Parallel routines

     PAW routines

   This run was terminated on:  22: 8:40  15Jul2023

   JOB DONE.