     Program PWSCF v.7.1 starts on 13Jul2023 at  3:17: 6

     Reading input from espresso_4876.pwi
Warning: card &CELL ignored
Warning: card / ignored

     Current dimensions of program PWSCF are:
     Max number of different atomic species (ntypx) = 10
     Max number of k-points (npk) =  40000
     Max angular momentum in pseudopotentials (lmaxx) =  4
     file O.pbe-n-kjpaw_psl.0.1.UPF: wavefunction(s)  2P renormalized

     K-points division:     npool     =       2
     R & G space division:  proc/nbgrp/npool/nimage =       8
     Subspace diagonalization in iterative solution of the eigenvalue problem:
     a serial algorithm will be used

     Using Slab Decomposition

     bravais-lattice index     =            0
     lattice parameter (alat)  =      16.0097  a.u.
     unit-cell volume          =     897.0448 (a.u.)^3
     number of atoms/cell      =           10
     number of atomic types    =            2
     number of electrons       =       112.00
     number of Kohn-Sham states=           64
     kinetic-energy cutoff     =      30.0000  Ry
     charge density cutoff     =     240.0000  Ry
     scf convergence threshold =      1.0E-06
     mixing beta               =       0.7000
     number of iterations used =            8  plain     mixing
     Exchange-correlation= SLA  PW   PBX  PBC
                           (   1   4   3   4   0   0   0)

     celldm(1)=  16.009716  celldm(2)=   0.000000  celldm(3)=   0.000000
     celldm(4)=   0.000000  celldm(5)=   0.000000  celldm(6)=   0.000000

     crystal axes: (cart. coord. in units of alat)
               a(1) = (   1.000000   0.000000   0.000000 )
               a(2) = (   0.601585   0.538077   0.000000 )
               a(3) = (   0.398415  -0.352801   0.406274 )

     reciprocal axes: (cart. coord. in units 2 pi/alat)
               b(1) = (  1.000000 -1.118028 -1.951531 )
               b(2) = (  0.000000  1.858470  1.613862 )
               b(3) = (  0.000000  0.000000  2.461394 )

     PseudoPot. # 1 for Ag read from file:
     /lustre07/scratch/pragov/crystal_structure_design/utils/SSSP/Ag_ONCV_PBE-1.0.oncvpsp.upf
     MD5 check sum: 94f47bd0669c641108e45594df92fabc
     Pseudo is Norm-conserving, Zval = 19.0
     Generated using ONCVPSP code by D. R. Hamann
     Using radial grid of 1398 points,  6 beta functions with:
                l(1) =   0
                l(2) =   0
                l(3) =   1
                l(4) =   1
                l(5) =   2
                l(6) =   2

     PseudoPot. # 2 for O  read from file:
     /lustre07/scratch/pragov/crystal_structure_design/utils/SSSP/O.pbe-n-kjpaw_psl.0.1.UPF
     MD5 check sum: 0234752ac141de4415c5fc33072bef88
     Pseudo is Projector augmented-wave + core cor, Zval =  6.0
     Generated using "atomic" code by A. Dal Corso  v.5.0.99 svn rev. 10869
     Shape of augmentation charge: BESSEL
     Using radial grid of 1095 points,  4 beta functions with:
                l(1) =   0
                l(2) =   0
                l(3) =   1
                l(4) =   1
     Q(r) pseudized with 0 coefficients

     atomic species   valence    mass     pseudopotential
        Ag            19.00   107.86820     Ag( 1.00)
        O              6.00    15.99900     O ( 1.00)

     No symmetry found

                                    s                        frac. trans.

      isym =  1     identity

 cryst.   s( 1) = (     1          0          0      )
                  (     0          1          0      )
                  (     0          0          1      )

 cart.    s( 1) = (  1.0000000  0.0000000  0.0000000 )
                  (  0.0000000  1.0000000  0.0000000 )
                  (  0.0000000  0.0000000  1.0000000 )

   Cartesian axes

     site n.     atom                  positions (alat units)
         1           Ag  tau(   1) = (   0.8490295  -0.1924509   0.3328813  )
         2           Ag  tau(   2) = (   1.1626360   0.0622613   0.3394146  )
         3           Ag  tau(   3) = (   0.8373640   0.2154513   0.2695542  )
         4           Ag  tau(   4) = (   1.1509705   0.3775255   0.0729505  )
         5           O   tau(   5) = (   0.9131317   0.3983265   0.1286828  )
         6           O   tau(   6) = (   1.3865154   0.3817640   0.0135440  )
         7           O   tau(   7) = (   0.6134836  -0.2400848   0.2971304  )
         8           O   tau(   8) = (   1.0000000   0.0769587   0.1687552  )
         9           O   tau(   9) = (   1.0868693  -0.1640090   0.3851289  )
        10           O   tau(  10) = (   1.5000000   0.1232778   0.2703236  )

   Crystallographic axes

     site n.     atom                  positions (cryst. coord.)
         1           Ag  tau(   1) = (  0.4145670  0.1795600  0.8193520  )
         2           Ag  tau(   2) = (  0.4306480  0.6634790  0.8354330  )
         3           Ag  tau(   3) = (  0.0704400  0.8354330  0.6634790  )
         4           Ag  tau(   4) = (  0.5865210  0.8193520  0.1795600  )
         5           O   tau(   5) = (  0.2166630  0.9479540  0.3167390  )
         6           O   tau(   6) = (  0.9332610  0.7313550  0.0333370  )
         7           O   tau(   7) = (  0.3020460  0.0333370  0.7313550  )
         8           O   tau(   8) = (  0.5846270  0.4153730  0.4153730  )
         9           O   tau(   9) = (  0.5186450  0.3167390  0.9479540  )
        10           O   tau(  10) = (  0.8346270  0.6653730  0.6653730  )

     number of k points=    14
                       cart. coord. in units 2pi/alat
        k(    1) = (   0.0000000   0.0000000   0.0000000), wk =   0.0740741
        k(    2) = (   0.0000000   0.0000000   0.8204647), wk =   0.1481481
        k(    3) = (   0.0000000   0.6194900   0.5379539), wk =   0.1481481
        k(    4) = (   0.0000000   0.6194900   1.3584186), wk =   0.1481481
        k(    5) = (   0.0000000   0.6194900  -0.2825108), wk =   0.1481481
        k(    6) = (   0.3333333  -0.3726761  -0.6505103), wk =   0.1481481
        k(    7) = (   0.3333333  -0.3726761   0.1699544), wk =   0.1481481
        k(    8) = (   0.3333333  -0.3726761  -1.4709750), wk =   0.1481481
        k(    9) = (   0.3333333   0.2468139  -0.1125564), wk =   0.1481481
        k(   10) = (   0.3333333   0.2468139   0.7079082), wk =   0.1481481
        k(   11) = (   0.3333333   0.2468139  -0.9330211), wk =   0.1481481
        k(   12) = (   0.3333333  -0.9921662  -1.1884642), wk =   0.1481481
        k(   13) = (   0.3333333  -0.9921662  -0.3679995), wk =   0.1481481
        k(   14) = (   0.3333333  -0.9921662  -2.0089289), wk =   0.1481481

                       cryst. coord.
        k(    1) = (   0.0000000   0.0000000   0.0000000), wk =   0.0740741
        k(    2) = (   0.0000000   0.0000000   0.3333333), wk =   0.1481481
        k(    3) = (   0.0000000   0.3333333   0.0000000), wk =   0.1481481
        k(    4) = (   0.0000000   0.3333333   0.3333333), wk =   0.1481481
        k(    5) = (   0.0000000   0.3333333  -0.3333333), wk =   0.1481481
        k(    6) = (   0.3333333   0.0000000   0.0000000), wk =   0.1481481
        k(    7) = (   0.3333333   0.0000000   0.3333333), wk =   0.1481481
        k(    8) = (   0.3333333   0.0000000  -0.3333333), wk =   0.1481481
        k(    9) = (   0.3333333   0.3333333   0.0000000), wk =   0.1481481
        k(   10) = (   0.3333333   0.3333333   0.3333333), wk =   0.1481481
        k(   11) = (   0.3333333   0.3333333  -0.3333333), wk =   0.1481481
        k(   12) = (   0.3333333  -0.3333333   0.0000000), wk =   0.1481481
        k(   13) = (   0.3333333  -0.3333333   0.3333333), wk =   0.1481481
        k(   14) = (   0.3333333  -0.3333333  -0.3333333), wk =   0.1481481

     Check: negative core charge=   -0.000014

     Initial potential from superposition of free atoms

     starting charge     111.9988, renormalised to     112.0000
     Starting wfcs are   64 randomized atomic wfcs
     Checking if some PAW data can be deallocated...

     Self-consistent Calculation

     iteration #  1     ecut=    30.00 Ry     beta= 0.70
     Davidson diagonalization with overlap

     ethr =  1.00E-02,  avg # of iterations =  2.6

     total energy              =   -1396.27162120 Ry
     estimated scf accuracy    <       1.51830863 Ry

[...]

     total energy              =   -1397.10321386 Ry
     estimated scf accuracy    <       0.00000180 Ry

     iteration # 14     ecut=    30.00 Ry     beta= 0.70
     Davidson diagonalization with overlap

     ethr =  1.60E-09,  avg # of iterations =  2.0

     End of self-consistent calculation

          k = 0.0000 0.0000 0.0000 (  2467 PWs)   bands (ev):

   -83.4766 -83.4759 -83.4749 -83.4747 -46.7312 -46.7297 -46.7118 -46.7112
   -46.6597 -46.6586 -46.6538 -46.6514 -46.0171 -46.0111 -46.0080 -46.0037
    -8.6918  -7.9506  -7.9410  -7.8205  -7.4777  -7.2781   2.9761   3.1195
     3.1241   3.6299   4.1217   4.1527   4.4814   4.5371   4.5723   4.8809
     5.2087   5.4343   5.5974   5.6381   5.7863   5.9022   5.9629   6.0572
     6.0578   6.3040   6.9243   7.1927   7.3850   7.5441   7.6112   7.7990
     8.0013   8.1149   8.3085   8.5237   8.7889   9.1144   9.2622   9.3483
    10.1770  10.9642  11.1237  11.3448  12.9770  16.9132  17.0110  17.4671

     occupation numbers
     1.0000   1.0000   1.0000   1.0000   1.0000   1.0000   1.0000   1.0000
     1.0000   1.0000   1.0000   1.0000   1.0000   1.0000   1.0000   1.0000
     1.0000   1.0000   1.0000   1.0000   1.0000   1.0000   1.0000   1.0000
     1.0000   1.0000   1.0000   1.0000   1.0000   1.0000   1.0000   1.0000
     1.0000   1.0000   1.0000   1.0000   1.0000   1.0000   1.0000   1.0000
     1.0000   1.0000   1.0000   1.0000   1.0000   1.0000   1.0000   1.0000
     1.0000   1.0000   1.0000   1.0000   1.0000   1.0000   1.0000   1.0000
     0.0000   0.0000   0.0000   0.0000   0.0000   0.0000   0.0000   0.0000

[...]

          k = 0.3333-0.9922-2.0089 (  2490 PWs)   bands (ev):

   -83.4761 -83.4758 -83.4753 -83.4750 -46.7332 -46.7293 -46.7161 -46.7148
   -46.6615 -46.6604 -46.6573 -46.6548 -46.0186 -46.0155 -46.0095 -46.0081
    -8.3891  -8.1737  -7.9555  -7.8895  -7.4341  -7.3711   3.1235   3.1903
     3.4495   3.7894   3.8979   4.0667   4.2735   4.4957   4.7779   4.9808
     5.1121   5.2022   5.3041   5.4877   5.6736   5.8326   5.9360   6.0482
     6.1647   6.1804   7.1393   7.4080   7.4768   7.5048   7.5630   7.7248
     7.9003   8.1017   8.2475   8.6048   8.8114   8.9426   9.2265   9.2893
    10.3049  10.5203  10.9789  11.1561  14.8298  16.1060  16.6223  17.0944

     occupation numbers
     1.0000   1.0000   1.0000   1.0000   1.0000   1.0000   1.0000   1.0000
     1.0000   1.0000   1.0000   1.0000   1.0000   1.0000   1.0000   1.0000
     1.0000   1.0000   1.0000   1.0000   1.0000   1.0000   1.0000   1.0000
     1.0000   1.0000   1.0000   1.0000   1.0000   1.0000   1.0000   1.0000
     1.0000   1.0000   1.0000   1.0000   1.0000   1.0000   1.0000   1.0000
     1.0000   1.0000   1.0000   1.0000   1.0000   1.0000   1.0000   1.0000
     1.0000   1.0000   1.0000   1.0000   1.0000   1.0000   1.0000   1.0000
     0.0000   0.0000   0.0000   0.0000   0.0000   0.0000   0.0000   0.0000

     highest occupied, lowest unoccupied level (ev):     9.4017    9.9374

!    total energy              =   -1397.10321406 Ry
     estimated scf accuracy    <       0.00000016 Ry

     The total energy is the sum of the following terms:
     one-electron contribution =    -658.13421316 Ry
     hartree contribution      =     373.54025788 Ry
     xc contribution           =    -151.40041974 Ry
     ewald contribution        =    -903.87452499 Ry
     one-center paw contrib.   =     -57.23431405 Ry
      -> PAW hartree energy AE =       0.00000000 Ry
      -> PAW hartree energy PS =       0.00000000 Ry
      -> PAW xc energy AE      =       0.00000000 Ry
      -> PAW xc energy PS      =       0.00000000 Ry
      -> total E_H with PAW    =     373.54025788 Ry
      -> total E_XC with PAW   =    -151.40041974 Ry

     convergence has been achieved in  14 iterations

     Writing all to output data dir bands_nm/myprefix.save/

     General routines

     Parallel routines

     PAW routines

   This run was terminated on:   3:17:16  13Jul2023

   JOB DONE.