     Program PWSCF v.7.1 starts on 17Jul2023 at  0:55: 5

     Reading input from espresso_3712.pwi
Warning: card &CELL ignored
Warning: card / ignored

     Current dimensions of program PWSCF are:
     Max number of different atomic species (ntypx) = 10
     Max number of k-points (npk) =  40000
     Max angular momentum in pseudopotentials (lmaxx) =  4
     file K.pbe-spn-kjpaw_psl.1.0.0.UPF: wavefunction(s)  3S renormalized
     file Gd.paw.z_18.atompaw.wentzcovitch.v1.2.upf: wavefunction(s)  6S 0P 5D 0D 4F 0F renormalized
     file O.pbe-n-kjpaw_psl.0.1.UPF: wavefunction(s)  2P renormalized
     Message from routine setup:
     the system is metallic, specify occupations
     Message from routine setup:
     using ibrav=0 with symmetry is DISCOURAGED, use correct ibrav instead

     K-points division:     npool     =       2
     R & G space division:  proc/nbgrp/npool/nimage =       4
     Subspace diagonalization in iterative solution of the eigenvalue problem:
     a serial algorithm will be used

     Using Slab Decomposition

     bravais-lattice index     =            0
     lattice parameter (alat)  =      11.2839  a.u.
     unit-cell volume          =    1015.9215 (a.u.)^3
     number of atoms/cell      =           10
     number of atomic types    =            5
     number of electrons       =        87.00 (up:  47.00, down:  40.00)
     number of Kohn-Sham states=           64
     kinetic-energy cutoff     =      30.0000  Ry
     charge density cutoff     =     240.0000  Ry
     scf convergence threshold =      1.0E-06
     mixing beta               =       0.7000
     number of iterations used =            8  plain     mixing
     Exchange-correlation= SLA  PW   PBX  PBC
                           (   1   4   3   4   0   0   0)

     celldm(1)=  11.283878  celldm(2)=   0.000000  celldm(3)=   0.000000
     celldm(4)=   0.000000  celldm(5)=   0.000000  celldm(6)=   0.000000

     crystal axes: (cart. coord. in units of alat)
               a(1) = (   1.000000   0.000000   0.000000 )
               a(2) = (   0.500000   0.866025   0.000000 )
               a(3) = (   0.500000   0.288675   0.816497 )

     reciprocal axes: (cart. coord. in units 2 pi/alat)
               b(1) = (  1.000000 -0.577350 -0.408248 )
               b(2) = (  0.000000  1.154701 -0.408248 )
               b(3) = (  0.000000  0.000000  1.224745 )

     PseudoPot. # 1 for K  read from file:
     /lustre03/project/6004852/pragov/crystal_structure_design/crystal-design/crystal_design/utils/SSSP/K.pbe-spn-kjpaw_psl.1.0.0.UPF
     MD5 check sum: 7d58810084cac21f60fbe77ea2b688fd
     Pseudo is Projector augmented-wave + core cor, Zval =  9.0
     Generated using "atomic" code by A. Dal Corso  v.5.1
     Shape of augmentation charge: PSQ
     Using radial grid of 1165 points,  6 beta functions with:
                l(1) =   0
                l(2) =   0
                l(3) =   1
                l(4) =   1
                l(5) =   2
                l(6) =   2
     Q(r) pseudized with 0 coefficients

     PseudoPot. # 2 for Sr read from file:
     /lustre03/project/6004852/pragov/crystal_structure_design/crystal-design/crystal_design/utils/SSSP/Sr_pbe_v1.uspp.F.UPF
     MD5 check sum: 6b418c05fbe9db5448babca5e47b7a5b
     Pseudo is Ultrasoft + core correction, Zval = 10.0
     Generated by new atomic code, or converted to UPF format
     Using radial grid of  883 points,  6 beta functions with:
                l(1) =   0
                l(2) =   0
                l(3) =   1
                l(4) =   1
                l(5) =   2
                l(6) =   2
     Q(r) pseudized with  6 coefficients,  rinner =    1.400   1.400   1.400
                                                       1.400   1.400

     PseudoPot. # 3 for Gd read from file:
     /lustre03/project/6004852/pragov/crystal_structure_design/crystal-design/crystal_design/utils/SSSP/Gd.paw.z_18.atompaw.wentzcovitch.v1.2.upf
     MD5 check sum: a44f32af2ba180e1a67c5cef9ff7f39b
     Pseudo is Projector augmented-wave + core cor, Zval = 18.0
     Generated using ATOMPAW code
     Shape of augmentation charge: BESSEL
     Using radial grid of 1110 points,  8 beta functions with:
                l(1) =   0
                l(2) =   0
                l(3) =   1
                l(4) =   1
                l(5) =   2
                l(6) =   2
                l(7) =   3
                l(8) =   3
     Q(r) pseudized with 0 coefficients

     PseudoPot. # 4 for W  read from file:
     /lustre03/project/6004852/pragov/crystal_structure_design/crystal-design/crystal_design/utils/SSSP/W_pbe_v1.2.uspp.F.UPF
     MD5 check sum: 9c083fa34c2a2ea0f02f1f893e16e1c8
     Pseudo is Ultrasoft + core correction, Zval = 14.0
     Generated by new atomic code, or converted to UPF format
     Using radial grid of  923 points,  8 beta functions with:
                l(1) =   0
                l(2) =   0
                l(3) =   0
                l(4) =   1
                l(5) =   1
                l(6) =   2
                l(7) =   2
                l(8) =   3
     Q(r) pseudized with  6 coefficients,  rinner =    1.350   1.350   1.350
                                                       1.350   1.350   1.350
                                                       1.350

     PseudoPot. # 5 for O  read from file:
     /lustre03/project/6004852/pragov/crystal_structure_design/crystal-design/crystal_design/utils/SSSP/O.pbe-n-kjpaw_psl.0.1.UPF
     MD5 check sum: 0234752ac141de4415c5fc33072bef88
     Pseudo is Projector augmented-wave + core cor, Zval =  6.0
     Generated using "atomic" code by A. Dal Corso  v.5.0.99 svn rev. 10869
     Shape of augmentation charge: BESSEL
     Using radial grid of 1095 points,  4 beta functions with:
                l(1) =   0
                l(2) =   0
                l(3) =   1
                l(4) =   1
     Q(r) pseudized with 0 coefficients

     atomic species   valence    mass     pseudopotential
        K              9.00    39.09830     K ( 1.00)
        Sr            10.00    87.62000     Sr( 1.00)
        Gd            18.00   157.25000     Gd( 1.00)
        W             14.00   183.84000     W ( 1.00)
        O              6.00    15.99900     O ( 1.00)

     Starting magnetic structure
     atomic species   magnetization
        K            0.000
        Sr           0.000
        Gd           0.000
        W            0.000
        O            0.000

      6 Sym. Ops. (no inversion) found

                                    s                        frac. trans.

      isym =  1     identity

 cryst.   s( 1) = (     1          0          0      )
                  (     0          1          0      )
                  (     0          0          1      )

 cart.    s( 1) = (  1.0000000  0.0000000  0.0000000 )
                  (  0.0000000  1.0000000  0.0000000 )
                  (  0.0000000  0.0000000  1.0000000 )

      isym =  2     120 deg rotation - cryst. axis [0,0,1]

[...]

      isym =  3     120 deg rotation - cryst. axis [0,0,-1]

[...]

      isym =  4     inv. 180 deg rotation - cart. axis [1,0,0]

[...]

      isym =  5     inv. 180 deg rotation - cryst. axis [0,1,0]

[...]

      isym =  6     inv. 180 deg rotation - cryst. axis [1,1,0]

 cryst.   s( 6) = (     1         -1          0      )
                  (     0         -1          0      )
                  (     0         -1          1      )

 cart.    s( 6) = (  0.5000000 -0.8660254 -0.0000000 )
                  ( -0.8660254 -0.5000000 -0.0000000 )
                  (  0.0000000  0.0000000  1.0000000 )

   Cartesian axes

     site n.     atom                  positions (alat units)
         1           K   tau(   1) = (   0.5000000   0.2886751   0.2041241  )
         2           Sr  tau(   2) = (   1.5000000   0.8660254   0.6123724  )
         3           Gd  tau(   3) = (   0.0000000   0.0000000   0.0000000  )
         4           W   tau(   4) = (   1.0000000   0.5773503   0.4082483  )
         5           O   tau(   5) = (   1.0000000   0.3102279   0.2193643  )
         6           O   tau(   6) = (   1.0000000   0.8444726   0.5971323  )
         7           O   tau(   7) = (   1.2313347   0.4437891   0.5971323  )
         8           O   tau(   8) = (   0.7686653   0.7109114   0.2193643  )
         9           O   tau(   9) = (   1.2313347   0.7109114   0.2193643  )
        10           O   tau(  10) = (   0.7686653   0.4437891   0.5971323  )

   Crystallographic axes

     site n.     atom                  positions (cryst. coord.)
         1           K   tau(   1) = (  0.2500000  0.2500000  0.2500000  )
         2           Sr  tau(   2) = (  0.7500000  0.7500000  0.7500000  )
         3           Gd  tau(   3) = (  0.0000000  0.0000000  0.0000000  )
         4           W   tau(   4) = (  0.5000000  0.5000000  0.5000000  )
         5           O   tau(   5) = (  0.7313347  0.2686653  0.2686653  )
         6           O   tau(   6) = (  0.2686653  0.7313347  0.7313347  )
         7           O   tau(   7) = (  0.7313347  0.2686653  0.7313347  )
         8           O   tau(   8) = (  0.2686653  0.7313347  0.2686653  )
         9           O   tau(   9) = (  0.7313347  0.7313347  0.2686653  )
        10           O   tau(  10) = (  0.2686653  0.2686653  0.7313347  )

     number of k points=     6
                       cart. coord. in units 2pi/alat
        k(    1) = (   0.0000000   0.0000000   0.0000000), wk =   0.0370370
        k(    2) = (   0.0000000   0.0000000   0.4082483), wk =   0.0740741
        k(    3) = (   0.0000000   0.3849002  -0.1360828), wk =   0.2222222
        k(    4) = (   0.0000000   0.3849002   0.2721655), wk =   0.2222222
        k(    5) = (   0.0000000   0.3849002  -0.5443311), wk =   0.2222222
        k(    6) = (   0.3333333  -0.5773503  -0.0000000), wk =   0.2222222

                       cryst. coord.
        k(    1) = (   0.0000000   0.0000000   0.0000000), wk =   0.0370370
        k(    2) = (   0.0000000   0.0000000   0.3333333), wk =   0.0740741
        k(    3) = (   0.0000000   0.3333333  -0.0000000), wk =   0.2222222
        k(    4) = (   0.0000000   0.3333333   0.3333333), wk =   0.2222222
        k(    5) = (   0.0000000   0.3333333  -0.3333333), wk =   0.2222222
        k(    6) = (   0.3333333  -0.3333333   0.0000000), wk =   0.2222222

     Check: negative core charge=   -0.000011
     Generating pointlists ...
     new r_m :   0.2065 (alat units)  2.3305 (a.u.) for type    1
     new r_m :   0.2065 (alat units)  2.3305 (a.u.) for type    2
     new r_m :   0.1567 (alat units)  1.7685 (a.u.) for type    3
     new r_m :   0.1350 (alat units)  1.5228 (a.u.) for type    4
     new r_m :   0.1350 (alat units)  1.5228 (a.u.) for type    5

     Initial potential from superposition of free atoms

     starting charge      86.8420, renormalised to      87.0000

     negative rho (up, down):  6.382E-02 6.382E-02
     Starting wfcs are   90 randomized atomic wfcs
     Checking if some PAW data can be deallocated...

     Self-consistent Calculation

     iteration #  1     ecut=    30.00 Ry     beta= 0.70
     Davidson diagonalization with overlap

     ethr =  1.00E-02,  avg # of iterations =  3.7

     negative rho (up, down):  6.223E-02 6.221E-02

     total energy              =   -1275.15994057 Ry
     estimated scf accuracy    <       4.60897084 Ry

     total magnetization       =     7.00 Bohr mag/cell
     absolute magnetization    =     7.00 Bohr mag/cell

[...]

     total energy              =   -1276.99752507 Ry
     estimated scf accuracy    <       0.00000460 Ry

[...]

     iteration # 14     ecut=    30.00 Ry     beta= 0.70
     Davidson diagonalization with overlap

     ethr =  5.29E-09,  avg # of iterations =  2.5

     negative rho (up, down):  6.387E-02 6.382E-02

     Magnetic moment per site  (integrated on atomic sphere of radius R)
     atom   1 (R=0.207)  charge=  7.7741  magn=  0.0006
     atom   2 (R=0.207)  charge=  7.8049  magn=  0.0010
     atom   3 (R=0.157)  charge= 13.7303  magn=  6.7601
     atom   4 (R=0.135)  charge=  8.4586  magn=  0.0082
     atom   5 (R=0.135)  charge=  5.3804  magn=  0.0024
     atom   6 (R=0.135)  charge=  5.3805  magn=  0.0024
     atom   7 (R=0.135)  charge=  5.3805  magn=  0.0024
     atom   8 (R=0.135)  charge=  5.3804  magn=  0.0024
     atom   9 (R=0.135)  charge=  5.3804  magn=  0.0024
     atom  10 (R=0.135)  charge=  5.3805  magn=  0.0024

     End of self-consistent calculation

 ------ SPIN UP ------------

          k = 0.0000 0.0000 0.0000 (  2741 PWs)   bands (ev):

   -66.2239 -33.8784 -30.4030 -30.4030 -30.4030 -25.6534 -19.5401 -11.7866
   -11.7866 -11.7866  -8.9165  -8.3446  -8.3446  -7.6525  -7.6525  -7.6524
    -7.2222  -7.2222  -7.2222  -3.1187  -3.1187  -3.1187   3.6852   3.6852
     3.9205   4.3869   4.3869   4.3869   6.2363   6.2363   6.2363   6.5789
     6.5789   6.5789   6.6475   6.6475   6.6475   6.8817   7.6283   7.6283
     7.6283   8.2344   8.2344   8.2344   8.2957   8.2957   8.2958  10.7399
    10.7399  10.7399  12.9024  13.9158  13.9158  14.4192  14.4192  14.4192
    15.4038  15.4038  15.6137  15.6137  15.6138  17.1894  18.4362  18.4372

     occupation numbers
     1.0000   1.0000   1.0000   1.0000   1.0000   1.0000   1.0000   1.0000
     1.0000   1.0000   1.0000   1.0000   1.0000   1.0000   1.0000   1.0000
     1.0000   1.0000   1.0000   1.0000   1.0000   1.0000   1.0000   1.0000
     1.0000   1.0000   1.0000   1.0000   1.0000   1.0000   1.0000   1.0000
     1.0000   1.0000   1.0000   1.0000   1.0000   1.0000   1.0000   1.0000
     1.0000   1.0000   1.0000   1.0000   1.0000   1.0000   1.0000   0.0000
     0.0000   0.0000   0.0000   0.0000   0.0000   0.0000   0.0000   0.0000
     0.0000   0.0000   0.0000   0.0000   0.0000   0.0000   0.0000   0.0000

[...]

 ------ SPIN DOWN ----------

[...]

          k = 0.3333-0.5774-0.0000 (  2838 PWs)   bands (ev):

   -66.2161 -30.8333 -30.3928 -30.3927 -30.3926 -25.6523 -19.5389 -10.2639
   -10.1660 -10.0898  -8.6289  -8.3685  -8.0398  -7.6311  -7.6159  -7.3844
    -7.1157  -7.0371  -6.7464  -3.0740  -3.0361  -3.0311   3.7737   4.2839
     4.3242   4.5461   4.5810   4.7069   5.8346   6.0183   6.0988   6.6089
     6.6577   6.9307   7.0305   7.2830   7.2951   7.5479   7.6161   7.9677
    11.3042  11.7294  11.7838  12.0526  12.2008  12.2353  12.3000  12.3780
    12.4244  12.4899  14.4840  14.9550  15.0144  15.1628  15.1746  15.3382
    16.0403  16.2355  16.3166  16.4551  16.8419  16.8551  17.4035  17.4049

     occupation numbers
     1.0000   1.0000   1.0000   1.0000   1.0000   1.0000   1.0000   1.0000
     1.0000   1.0000   1.0000   1.0000   1.0000   1.0000   1.0000   1.0000
     1.0000   1.0000   1.0000   1.0000   1.0000   1.0000   1.0000   1.0000
     1.0000   1.0000   1.0000   1.0000   1.0000   1.0000   1.0000   1.0000
     1.0000   1.0000   1.0000   1.0000   1.0000   1.0000   1.0000   1.0000
     0.0000   0.0000   0.0000   0.0000   0.0000   0.0000   0.0000   0.0000
     0.0000   0.0000   0.0000   0.0000   0.0000   0.0000   0.0000   0.0000
     0.0000   0.0000   0.0000   0.0000   0.0000   0.0000   0.0000   0.0000

     highest occupied, lowest unoccupied level (ev):     8.2989   10.7008

!    total energy              =   -1276.99752691 Ry
     estimated scf accuracy    <       0.00000022 Ry

     The total energy is the sum of the following terms:
     one-electron contribution =    -257.67082402 Ry
     hartree contribution      =     178.42496774 Ry
     xc contribution           =    -139.13668318 Ry
     ewald contribution        =    -480.46356735 Ry
     one-center paw contrib.   =    -578.15142009 Ry
      -> PAW hartree energy AE =      37.82802708 Ry
      -> PAW hartree energy PS =     -37.61759043 Ry
      -> PAW xc energy AE      =     -66.23461876 Ry
      -> PAW xc energy PS      =      10.60662369 Ry
      -> total E_H with PAW    =     178.63540438 Ry
      -> total E_XC with PAW   =    -194.76467824 Ry

     total magnetization       =     7.00 Bohr mag/cell
     absolute magnetization    =     7.01 Bohr mag/cell

     convergence has been achieved in  14 iterations

     Writing all to output data dir bands_nm_v2/myprefix.save/

     General routines

     Parallel routines

     PAW routines

   This run was terminated on:   0:55:38  17Jul2023

   JOB DONE.