     Program PWSCF v.7.1 starts on 15Jul2023 at 22:51:54

     Reading input from espresso_4514.pwi
Warning: card &CELL ignored
Warning: card / ignored

     Current dimensions of program PWSCF are:
     Max number of different atomic species (ntypx) = 10
     Max number of k-points (npk) =  40000
     Max angular momentum in pseudopotentials (lmaxx) =  4
     file Ga.pbe-dn-kjpaw_psl.1.0.0.UPF: wavefunction(s)  4S renormalized
     file O.pbe-n-kjpaw_psl.0.1.UPF: wavefunction(s)  2P renormalized

     K-points division:     npool     =       2
     R & G space division:  proc/nbgrp/npool/nimage =       4
     Subspace diagonalization in iterative solution of the eigenvalue problem:
     one sub-group per band group will be used

     Using Slab Decomposition

     bravais-lattice index     =            0
     lattice parameter (alat)  =      11.4569  a.u.
     unit-cell volume          =    1339.2998 (a.u.)^3
     number of atoms/cell      =           20
     number of atomic types    =            4
     number of electrons       =       134.00
     number of Kohn-Sham states=          256
     kinetic-energy cutoff     =      30.0000  Ry
     charge density cutoff     =     240.0000  Ry
     scf convergence threshold =      1.0E-06
     mixing beta               =       0.7000
     number of iterations used =            8  plain     mixing
     Exchange-correlation= SLA  PW   PBX  PBC
                           (   1   4   3   4   0   0   0)

     celldm(1)=  11.456868  celldm(2)=   0.000000  celldm(3)=   0.000000
     celldm(4)=   0.000000  celldm(5)=   0.000000  celldm(6)=   0.000000

     crystal axes: (cart. coord. in units of alat)
               a(1) = (   1.000000   0.000000   0.000000 )
               a(2) = (  -0.243549   0.969889   0.000000 )
               a(3) = (  -0.243549  -0.312268   0.918244 )

     reciprocal axes: (cart. coord. in units 2 pi/alat)
               b(1) = (  1.000000  0.251110  0.350629 )
               b(2) = (  0.000000  1.031046  0.350629 )
               b(3) = (  0.000000  0.000000  1.089035 )

     PseudoPot. # 1 for Y  read from file:
     /lustre07/scratch/pragov/crystal_structure_design/utils/SSSP/Y_pbe_v1.uspp.F.UPF
     MD5 check sum: 2cf71db95cafeb975fc457bd7f14888e
     Pseudo is Ultrasoft + core correction, Zval = 11.0
     Generated by new atomic code, or converted to UPF format
     Using radial grid of  885 points,  6 beta functions with:
                l(1) =   0
                l(2) =   0
                l(3) =   1
                l(4) =   1
                l(5) =   2
                l(6) =   2
     Q(r) pseudized with  6 coefficients,  rinner =    1.200   1.200   1.200
                                                       1.200   1.200

     PseudoPot. # 2 for Ga read from file:
     /lustre07/scratch/pragov/crystal_structure_design/utils/SSSP/Ga.pbe-dn-kjpaw_psl.1.0.0.UPF
     MD5 check sum: a27b4342b1af7e5f338de752e9ed7044
     Pseudo is Projector augmented-wave + core cor, Zval = 13.0
     Generated using "atomic" code by A. Dal Corso  v.5.1
     Shape of augmentation charge: PSQ
     Using radial grid of 1205 points,  6 beta functions with:
                l(1) =   0
                l(2) =   0
                l(3) =   1
                l(4) =   1
                l(5) =   2
                l(6) =   2
     Q(r) pseudized with 0 coefficients

     PseudoPot. # 3 for B  read from file:
     /lustre07/scratch/pragov/crystal_structure_design/utils/SSSP/b_pbe_v1.4.uspp.F.UPF
     MD5 check sum: cc6de2960df11db49a60e589f9ebb39b
     Pseudo is Ultrasoft + core correction, Zval =  3.0
     Generated by new atomic code, or converted to UPF format
     Using radial grid of  781 points,  4 beta functions with:
                l(1) =   0
                l(2) =   0
                l(3) =   1
                l(4) =   1
     Q(r) pseudized with  8 coefficients,  rinner =    1.100   1.100   1.100

     PseudoPot. # 4 for O  read from file:
     /lustre07/scratch/pragov/crystal_structure_design/utils/SSSP/O.pbe-n-kjpaw_psl.0.1.UPF
     MD5 check sum: 0234752ac141de4415c5fc33072bef88
     Pseudo is Projector augmented-wave + core cor, Zval =  6.0
     Generated using "atomic" code by A. Dal Corso  v.5.0.99 svn rev. 10869
     Shape of augmentation charge: BESSEL
     Using radial grid of 1095 points,  4 beta functions with:
                l(1) =   0
                l(2) =   0
                l(3) =   1
                l(4) =   1
     Q(r) pseudized with 0 coefficients

     atomic species   valence    mass     pseudopotential
        Y             11.00    88.90584     Y ( 1.00)
        Ga            13.00    69.72300     Ga( 1.00)
        B              3.00    10.81000     B ( 1.00)
        O              6.00    15.99900     O ( 1.00)

     No symmetry found

                                    s                        frac. trans.

      isym =  1     identity

 cryst.   s( 1) = (     1          0          0      )
                  (     0          1          0      )
                  (     0          0          1      )

 cart.    s( 1) = (  1.0000000 -0.0000000  0.0000000 )
                  (  0.0000000  1.0000000  0.0000000 )
                  (  0.0000000  0.0000000  1.0000000 )

   Cartesian axes

     site n.     atom                  positions (alat units)
         1           Y   tau(   1) = (   0.2564510   0.3288103   0.4591222  )
         2           Ga  tau(   2) = (  -0.3076254   0.7687537   0.4591222  )
         3           Ga  tau(   3) = (   0.8205273   0.4704557   0.0426047  )
         4           Ga  tau(   4) = (   0.2564510  -0.2527785   0.8756396  )
         5           B   tau(   5) = (   0.3181620   0.5317899   0.0000000  )
         6           B   tau(   6) = (   0.4382889  -0.1410515   0.4147710  )
         7           B   tau(   7) = (  -0.2435490   0.2668821   0.5034734  )
         8           B   tau(   8) = (   0.0000000   0.0000000   0.0000000  )
         9           O   tau(   9) = (   0.1349910   0.4676281   0.1191339  )
        10           O   tau(  10) = (   0.4206703   0.0339685   0.2701374  )
        11           O   tau(  11) = (   0.3779109   0.6953891   0.4371596  )
        12           O   tau(  12) = (  -0.0695082   0.1217277   0.4810847  )
        13           O   tau(  13) = (   0.0922317   0.4128040   0.7991104  )
        14           O   tau(  14) = (   0.5824101   0.2413443   0.6481069  )
        15           O   tau(  15) = (   0.8197637   0.1405727   0.0000000  )
        16           O   tau(  16) = (  -0.0633128  -0.2670088   0.7851567  )
        17           O   tau(  17) = (  -0.2435491   0.7840566   0.1330876  )
        18           O   tau(  18) = (   0.4972617   0.3921036   0.0000000  )
        19           O   tau(  19) = (   0.2591892  -0.1860252   0.5470193  )
        20           O   tau(  20) = (  -0.2435490   0.4515422   0.3712251  )

   Crystallographic axes

     site n.     atom                  positions (cryst. coord.)
         1           Y   tau(   1) = (  0.5000000  0.5000000  0.5000000  )
         2           Ga  tau(   2) = (  0.0463980  0.9536020  0.5000000  )
         3           Ga  tau(   3) = (  0.9536020  0.5000000  0.0463980  )
         4           Ga  tau(   4) = (  0.5000000  0.0463980  0.9536020  )
         5           B   tau(   5) = (  0.4517000  0.5483000  0.0000000  )
         6           B   tau(   6) = (  0.5483000 -0.0000000  0.4517000  )
         7           B   tau(   7) = ( -0.0000000  0.4517000  0.5483000  )
         8           B   tau(   8) = (  0.0000000  0.0000000  0.0000000  )
         9           O   tau(   9) = (  0.2941890  0.5239180  0.1297410  )
        10           O   tau(  10) = (  0.5239180  0.1297410  0.2941890  )
        11           O   tau(  11) = (  0.7058110  0.8702590  0.4760820  )
        12           O   tau(  12) = (  0.1297410  0.2941890  0.5239180  )
        13           O   tau(  13) = (  0.4760820  0.7058110  0.8702590  )
        14           O   tau(  14) = (  0.8702590  0.4760820  0.7058110  )
        15           O   tau(  15) = (  0.8550630  0.1449370  0.0000000  )
        16           O   tau(  16) = (  0.1449370  0.0000000  0.8550630  )
        17           O   tau(  17) = ( -0.0000000  0.8550630  0.1449370  )
        18           O   tau(  18) = (  0.5957230  0.4042770  0.0000000  )
        19           O   tau(  19) = (  0.4042770 -0.0000000  0.5957230  )
        20           O   tau(  20) = (  0.0000000  0.5957230  0.4042770  )

     number of k points=    14
                       cart. coord. in units 2pi/alat
        k(    1) = (   0.0000000   0.0000000   0.0000000), wk =   0.0740741
        k(    2) = (   0.0000000   0.0000000   0.3630116), wk =   0.1481481
        k(    3) = (   0.0000000   0.3436821   0.1168762), wk =   0.1481481
        k(    4) = (   0.0000000   0.3436821   0.4798878), wk =   0.1481481
        k(    5) = (   0.0000000   0.3436821  -0.2461354), wk =   0.1481481
        k(    6) = (   0.3333333   0.0837035   0.1168762), wk =   0.1481481
        k(    7) = (   0.3333333   0.0837035   0.4798878), wk =   0.1481481
        k(    8) = (   0.3333333   0.0837035  -0.2461354), wk =   0.1481481
        k(    9) = (   0.3333333   0.4273855   0.2337524), wk =   0.1481481
        k(   10) = (   0.3333333   0.4273855   0.5967640), wk =   0.1481481
        k(   11) = (   0.3333333   0.4273855  -0.1292592), wk =   0.1481481
        k(   12) = (   0.3333333  -0.2599786  -0.0000000), wk =   0.1481481
        k(   13) = (   0.3333333  -0.2599786   0.3630116), wk =   0.1481481
        k(   14) = (   0.3333333  -0.2599786  -0.3630116), wk =   0.1481481

                       cryst. coord.
        k(    1) = (   0.0000000   0.0000000   0.0000000), wk =   0.0740741
        k(    2) = (   0.0000000   0.0000000   0.3333333), wk =   0.1481481
        k(    3) = (   0.0000000   0.3333333  -0.0000000), wk =   0.1481481
        k(    4) = (   0.0000000   0.3333333   0.3333333), wk =   0.1481481
        k(    5) = (   0.0000000   0.3333333  -0.3333333), wk =   0.1481481
        k(    6) = (   0.3333333  -0.0000000   0.0000000), wk =   0.1481481
        k(    7) = (   0.3333333  -0.0000000   0.3333333), wk =   0.1481481
        k(    8) = (   0.3333333  -0.0000000  -0.3333333), wk =   0.1481481
        k(    9) = (   0.3333333   0.3333333   0.0000000), wk =   0.1481481
        k(   10) = (   0.3333333   0.3333333   0.3333333), wk =   0.1481481
        k(   11) = (   0.3333333   0.3333333  -0.3333333), wk =   0.1481481
        k(   12) = (   0.3333333  -0.3333333   0.0000000), wk =   0.1481481
        k(   13) = (   0.3333333  -0.3333333   0.3333333), wk =   0.1481481
        k(   14) = (   0.3333333  -0.3333333  -0.3333333), wk =   0.1481481

     Check: negative core charge=   -0.000013

     Initial potential from superposition of free atoms

     starting charge     133.9855, renormalised to     134.0000

     negative rho (up, down):  4.403E-02 0.000E+00
     Starting wfcs are  104 randomized atomic wfcs +  152 random wfcs
     Checking if some PAW data can be deallocated...

     Self-consistent Calculation

     iteration #  1     ecut=    30.00 Ry     beta= 0.70
     Davidson diagonalization with overlap

     ethr =  1.00E-02,  avg # of iterations =  7.0

     negative rho (up, down):  4.521E-02 0.000E+00

     total energy              =   -1445.94406081 Ry
     estimated scf accuracy    <       3.68875895 Ry

[...]

     total energy              =   -1447.44430515 Ry
     estimated scf accuracy    <       0.00000346 Ry

     iteration #  9     ecut=    30.00 Ry     beta= 0.70
     Davidson diagonalization with overlap

     ethr =  2.58E-09,  avg # of iterations =  1.0

     negative rho (up, down):  4.599E-02 0.000E+00

     End of self-consistent calculation

          k = 0.0000 0.0000 0.0000 (  3693 PWs)   bands (ev):

   -33.8262 -14.0934 -14.0934 -14.0069 -12.7743 -11.9440 -11.9440 -11.7149
   -10.7609 -10.7494 -10.7493 -10.6612 -10.6612 -10.5301 -10.5301 -10.4567
    -6.3514  -6.3513  -6.3337  -6.3335  -6.3296  -6.3177  -6.2947  -6.2945
    -6.2648  -6.2646  -6.2478  -6.2341  -6.2223  -6.2221  -6.1672  -1.2878
    -0.7125  -0.7125   1.4986   1.6561   1.6561   1.6989   1.6989   1.7726
     2.4530   2.4530   2.7684   2.8278   3.1998   3.1998   3.3875   3.4256
     3.4256   4.3165   4.3165   4.3280   4.8018   4.9935   4.9935   5.3457
     5.3589   5.3589   5.8527   5.8527   6.0365   6.0365   6.0783   6.5914
     6.6353   6.6825   6.6826  11.1562  12.5661  12.9245  12.9245  13.2243
    13.2243  13.8733  14.1018  14.1018  14.3303  15.3040  15.3040  15.5015
    16.8373  17.0335  17.0335  18.0810  18.0810  18.6853  18.6853  18.8576
    18.9550  19.0874  19.3319  19.3319  20.1884  21.0162  21.0162  22.0188
    22.1858  22.1858  22.2685  22.5997  22.5997  23.0091  23.2209  23.2209
    23.3974  23.3974  23.9861  23.9861  24.1283  24.4025  24.6322  24.6322
    25.4509  26.1249  26.3614  26.3614  26.8641  26.8641  27.1888  27.6866
    27.7036  27.7036  29.0460  29.0460  29.2576  29.2912  29.6683  30.0954
    30.0954  30.3037  30.4566  30.4566  31.2410  31.2410  31.2568  32.5147
    32.9541  32.9541  33.0065  34.0782  34.0782  34.1847  34.1848  34.3787
    35.1393  35.3125  35.3125  36.4779  36.4779  36.5733  36.7455  36.8271
    36.8271  37.7714  37.7714  37.8050  38.0549  38.0549  38.1363  38.3375
    38.5991  38.5991  39.3514  39.3514  39.6311  40.3417  40.3417  40.5382
    40.5382  40.6573  40.8426  41.4652  41.4652  42.2076  42.2157  42.3419
    42.3419  42.4728  42.4728  42.8957  42.8957  43.3759  44.0275  44.0475
    44.0475  44.4025  44.4025  44.5536  44.7074  45.1624  45.1624  45.3094
    45.5326  45.5326  45.6629  45.6629  46.0348  46.6310  47.0440  47.0440
    47.5277  47.5277  47.7895  48.1210  48.1210  48.3695  48.7648  48.7648
    48.8972  49.0803  49.0804  49.1525  49.7253  50.0834  50.0834  50.4117
    50.4117  50.6520  51.1734  51.1734  51.1995  51.3473  51.4211  51.4211
    51.4934  51.7104  51.7104  52.0704  52.8882  52.8882  53.1403  53.5152
    53.5223  53.5223  53.6335  54.2914  54.2914  54.3915  54.4785  54.4785
    55.1684  55.1684  55.5245  55.5246  55.5271  55.7067  56.6728  56.7016
    56.7016  57.2361  57.2361  57.2494  57.5531  57.5531  57.7479  57.8553

     occupation numbers
     1.0000   1.0000   1.0000   1.0000   1.0000   1.0000   1.0000   1.0000
     1.0000   1.0000   1.0000   1.0000   1.0000   1.0000   1.0000   1.0000
     1.0000   1.0000   1.0000   1.0000   1.0000   1.0000   1.0000   1.0000
     1.0000   1.0000   1.0000   1.0000   1.0000   1.0000   1.0000   1.0000
     1.0000   1.0000   1.0000   1.0000   1.0000   1.0000   1.0000   1.0000
     1.0000   1.0000   1.0000   1.0000   1.0000   1.0000   1.0000   1.0000
     1.0000   1.0000   1.0000   1.0000   1.0000   1.0000   1.0000   1.0000
     1.0000   1.0000   1.0000   1.0000   1.0000   1.0000   1.0000   1.0000
     1.0000   1.0000   1.0000   0.0000   0.0000   0.0000   0.0000   0.0000
     0.0000   0.0000   0.0000   0.0000   0.0000   0.0000   0.0000   0.0000
     0.0000   0.0000   0.0000   0.0000   0.0000   0.0000   0.0000   0.0000
     0.0000   0.0000   0.0000   0.0000   0.0000   0.0000   0.0000   0.0000
     0.0000   0.0000   0.0000   0.0000   0.0000   0.0000   0.0000   0.0000
     0.0000   0.0000   0.0000   0.0000   0.0000   0.0000   0.0000   0.0000
     0.0000   0.0000   0.0000   0.0000   0.0000   0.0000   0.0000   0.0000
     0.0000   0.0000   0.0000   0.0000   0.0000   0.0000   0.0000   0.0000
     0.0000   0.0000   0.0000   0.0000   0.0000   0.0000   0.0000   0.0000
     0.0000   0.0000   0.0000   0.0000   0.0000   0.0000   0.0000   0.0000
     0.0000   0.0000   0.0000   0.0000   0.0000   0.0000   0.0000   0.0000
     0.0000   0.0000   0.0000   0.0000   0.0000   0.0000   0.0000   0.0000
     0.0000   0.0000   0.0000   0.0000   0.0000   0.0000   0.0000   0.0000
     0.0000   0.0000   0.0000   0.0000   0.0000   0.0000   0.0000   0.0000
     0.0000   0.0000   0.0000   0.0000   0.0000   0.0000   0.0000   0.0000
     0.0000   0.0000   0.0000   0.0000   0.0000   0.0000   0.0000   0.0000
     0.0000   0.0000   0.0000   0.0000   0.0000   0.0000   0.0000   0.0000
     0.0000   0.0000   0.0000   0.0000   0.0000   0.0000   0.0000   0.0000
     0.0000   0.0000   0.0000   0.0000   0.0000   0.0000   0.0000   0.0000
     0.0000   0.0000   0.0000   0.0000   0.0000   0.0000   0.0000   0.0000
     0.0000   0.0000   0.0000   0.0000   0.0000   0.0000   0.0000   0.0000
     0.0000   0.0000   0.0000   0.0000   0.0000   0.0000   0.0000   0.0000
     0.0000   0.0000   0.0000   0.0000   0.0000   0.0000   0.0000   0.0000
     0.0000   0.0000   0.0000   0.0000   0.0000   0.0000   0.0000   0.0000

[...]

          k = 0.3333-0.2600-0.3630 (  3732 PWs)   bands (ev):

   -33.8261 -14.1518 -14.1357 -14.0505 -12.1984 -11.9226 -11.8146 -11.7155
   -11.2347 -11.1193 -10.8810 -10.6445 -10.6099 -10.5412 -10.5192 -10.4370
    -6.3908  -6.3435  -6.3271  -6.3183  -6.2988  -6.2870  -6.2783  -6.2657
    -6.2579  -6.2421  -6.2219  -6.2150  -6.0996  -6.0831  -6.0186  -0.5038
    -0.2936  -0.0699   0.3081   0.8266   0.9955   1.2444   1.3683   1.6844
     2.2191   2.4397   2.6360   2.8148   2.8403   2.9397   3.1229   3.6785
     3.9150   4.2552   4.5845   4.7980   4.8938   5.0684   5.1130   5.1874
     5.5355   5.7010   5.8440   5.9174   5.9892   6.0834   6.1500   6.3041
     6.5516   6.6353   6.9734  12.3594  12.4614  12.7356  12.9988  13.1857
    13.4135  13.9180  14.0697  14.5057  14.9334  15.3748  15.4596  15.5912
    15.9697  16.1778  17.0889  17.8479  18.0150  18.0395  18.2920  18.8950
    19.0454  19.4106  19.5885  19.7638  20.5126  21.0258  21.2347  21.4326
    21.5310  21.8017  22.0573  22.1260  22.7509  22.7605  23.0066  23.4165
    23.6729  23.9708  24.0408  24.1347  24.3541  24.4390  24.8555  25.0723
    25.4858  25.7075  26.2113  26.4145  26.7257  26.8655  27.3628  27.4418
    27.7850  27.8828  28.2539  28.4714  28.6530  29.1072  29.4711  29.5172
    30.0690  30.7236  30.9795  31.2413  31.8288  32.1471  32.3203  32.5367
    33.0115  33.1238  33.5808  33.7660  34.0333  34.1474  34.4992  34.5362
    34.9112  35.1378  35.2771  35.5160  35.9218  36.2149  36.4207  36.6058
    36.7190  36.9694  37.3204  37.4821  37.6864  37.8079  38.1104  38.5287
    38.6653  38.9226  38.9778  39.3976  39.7392  39.9780  40.0848  40.4082
    40.4906  40.6026  40.8904  41.1191  41.2812  41.4504  41.4950  41.6034
    41.7953  42.4311  42.5692  42.9891  43.0976  43.3198  43.5682  43.7550
    43.9188  44.2004  44.4241  44.6140  45.0042  45.2814  45.5911  45.8937
    46.0349  46.1100  46.3837  46.5331  46.7568  46.8481  47.0808  47.3378
    47.4174  47.6525  47.9093  48.2057  48.2839  48.6720  48.7530  48.8465
    49.0204  49.3962  49.5793  49.6584  49.9028  49.9578  50.5046  50.5885
    50.6953  50.8725  51.1751  51.3151  51.5885  51.6657  51.8581  52.0796
    52.2433  52.4191  52.4795  52.7611  52.8555  52.9418  53.1731  53.4787
    53.8335  53.9863  54.0892  54.2775  54.4771  54.6621  54.9393  55.0875
    55.1541  55.3653  55.6641  55.7413  56.0391  56.2401  56.4560  56.6913
    56.8699  56.9626  57.1289  57.2031  57.7293  57.8270  57.9656  58.0727

     occupation numbers
     1.0000   1.0000   1.0000   1.0000   1.0000   1.0000   1.0000   1.0000
     1.0000   1.0000   1.0000   1.0000   1.0000   1.0000   1.0000   1.0000
     1.0000   1.0000   1.0000   1.0000   1.0000   1.0000   1.0000   1.0000
     1.0000   1.0000   1.0000   1.0000   1.0000   1.0000   1.0000   1.0000
     1.0000   1.0000   1.0000   1.0000   1.0000   1.0000   1.0000   1.0000
     1.0000   1.0000   1.0000   1.0000   1.0000   1.0000   1.0000   1.0000
     1.0000   1.0000   1.0000   1.0000   1.0000   1.0000   1.0000   1.0000
     1.0000   1.0000   1.0000   1.0000   1.0000   1.0000   1.0000   1.0000
     1.0000   1.0000   1.0000   0.0000   0.0000   0.0000   0.0000   0.0000
     0.0000   0.0000   0.0000   0.0000   0.0000   0.0000   0.0000   0.0000
     0.0000   0.0000   0.0000   0.0000   0.0000   0.0000   0.0000   0.0000
     0.0000   0.0000   0.0000   0.0000   0.0000   0.0000   0.0000   0.0000
     0.0000   0.0000   0.0000   0.0000   0.0000   0.0000   0.0000   0.0000
     0.0000   0.0000   0.0000   0.0000   0.0000   0.0000   0.0000   0.0000
     0.0000   0.0000   0.0000   0.0000   0.0000   0.0000   0.0000   0.0000
     0.0000   0.0000   0.0000   0.0000   0.0000   0.0000   0.0000   0.0000
     0.0000   0.0000   0.0000   0.0000   0.0000   0.0000   0.0000   0.0000
     0.0000   0.0000   0.0000   0.0000   0.0000   0.0000   0.0000   0.0000
     0.0000   0.0000   0.0000   0.0000   0.0000   0.0000   0.0000   0.0000
     0.0000   0.0000   0.0000   0.0000   0.0000   0.0000   0.0000   0.0000
     0.0000   0.0000   0.0000   0.0000   0.0000   0.0000   0.0000   0.0000
     0.0000   0.0000   0.0000   0.0000   0.0000   0.0000   0.0000   0.0000
     0.0000   0.0000   0.0000   0.0000   0.0000   0.0000   0.0000   0.0000
     0.0000   0.0000   0.0000   0.0000   0.0000   0.0000   0.0000   0.0000
     0.0000   0.0000   0.0000   0.0000   0.0000   0.0000   0.0000   0.0000
     0.0000   0.0000   0.0000   0.0000   0.0000   0.0000   0.0000   0.0000
     0.0000   0.0000   0.0000   0.0000   0.0000   0.0000   0.0000   0.0000
     0.0000   0.0000   0.0000   0.0000   0.0000   0.0000   0.0000   0.0000
     0.0000   0.0000   0.0000   0.0000   0.0000   0.0000   0.0000   0.0000
     0.0000   0.0000   0.0000   0.0000   0.0000   0.0000   0.0000   0.0000
     0.0000   0.0000   0.0000   0.0000   0.0000   0.0000   0.0000   0.0000
     0.0000   0.0000   0.0000   0.0000   0.0000   0.0000   0.0000   0.0000

     highest occupied, lowest unoccupied level (ev):     7.0254   11.1562

!    total energy              =   -1447.44430593 Ry
     estimated scf accuracy    <       0.00000017 Ry

     The total energy is the sum of the following terms:
     one-electron contribution =    -435.68296828 Ry
     hartree contribution      =     321.45347066 Ry
     xc contribution           =    -238.85363306 Ry
     ewald contribution        =    -647.13642435 Ry
     one-center paw contrib.   =    -447.22475091 Ry
      -> PAW hartree energy AE =     274.80796050 Ry
      -> PAW hartree energy PS =    -270.61246323 Ry
      -> PAW xc energy AE      =    -301.24232268 Ry
      -> PAW xc energy PS      =      74.99632694 Ry
      -> total E_H with PAW    =     325.64896793 Ry
      -> total E_XC with PAW   =    -465.09962880 Ry

     convergence has been achieved in   9 iterations

     Writing all to output data dir bands_nm/myprefix.save/

     General routines

     Parallel routines

     PAW routines

   This run was terminated on:  22:53: 8  15Jul2023

   JOB DONE.