     Program PWSCF v.7.1 starts on 14Jul2023 at 17:18:10

     Reading input from espresso_11777.pwi
Warning: card &CELL ignored
Warning: card / ignored

     Current dimensions of program PWSCF are:
     Max number of different atomic species (ntypx) = 10
     Max number of k-points (npk) =  40000
     Max angular momentum in pseudopotentials (lmaxx) =  4
     file Cu.paw.z_11.ld1.psl.v1.0.0-low.upf: wavefunction(s)  4S 3D renormalized

     K-points division:     npool     =       2
     R & G space division:  proc/nbgrp/npool/nimage =       4
     Subspace diagonalization in iterative solution of the eigenvalue problem:
     a serial algorithm will be used

     Using Slab Decomposition

     bravais-lattice index     =            0
     lattice parameter (alat)  =      13.8162  a.u.
     unit-cell volume          =    2153.2837 (a.u.)^3
     number of atoms/cell      =           12
     number of atomic types    =            3
     number of electrons       =        88.00
     number of Kohn-Sham states=           64
     kinetic-energy cutoff     =      30.0000  Ry
     charge density cutoff     =     240.0000  Ry
     scf convergence threshold =      1.0E-06
     mixing beta               =       0.7000
     number of iterations used =            8  plain     mixing
     Exchange-correlation= SLA  PW   PBE  PBE
                           (   1   4   3   4   0   0   0)

     celldm(1)=  13.816229  celldm(2)=   0.000000  celldm(3)=   0.000000
     celldm(4)=   0.000000  celldm(5)=   0.000000  celldm(6)=   0.000000

     crystal axes: (cart. coord. in units of alat)
               a(1) = (   1.000000   0.000000   0.000000 )
               a(2) = (  -0.502074   0.864825   0.000000 )
               a(3) = (   0.163694   0.284313   0.944071 )

     reciprocal axes: (cart. coord. in units 2 pi/alat)
               b(1) = (  1.000000  0.580550 -0.348228 )
               b(2) = (  0.000000  1.156304 -0.348228 )
               b(3) = (  0.000000  0.000000  1.059243 )

     PseudoPot. # 1 for Cu read from file:
     /lustre07/scratch/pragov/crystal_structure_design/utils/SSSP/Cu.paw.z_11.ld1.psl.v1.0.0-low.upf
     MD5 check sum: 619f40885d92a09a85a8b37550532d0c
     Pseudo is Projector augmented-wave + core cor, Zval = 11.0
     Generated using &quot;atomic&quot; code by A. Dal Corso  v.6.3MaX
     Shape of augmentation charge: PSQ
     Using radial grid of 1199 points,  6 beta functions with:
                l(1) =   0
                l(2) =   0
                l(3) =   1
                l(4) =   1
                l(5) =   2
                l(6) =   2
     Q(r) pseudized with 0 coefficients

     PseudoPot. # 2 for Si read from file:
     /lustre07/scratch/pragov/crystal_structure_design/utils/SSSP/Si.pbe-n-rrkjus_psl.1.0.0.UPF
     MD5 check sum: 0b0bb1205258b0d07b9f9672cf965d36
     Pseudo is Ultrasoft + core correction, Zval =  4.0
     Generated using "atomic" code by A. Dal Corso  v.5.1
     Using radial grid of 1141 points,  6 beta functions with:
                l(1) =   0
                l(2) =   0
                l(3) =   1
                l(4) =   1
                l(5) =   2
                l(6) =   2
     Q(r) pseudized with 0 coefficients

     PseudoPot. # 3 for Te read from file:
     /lustre07/scratch/pragov/crystal_structure_design/utils/SSSP/Te_pbe_v1.uspp.F.UPF
     MD5 check sum: c319670d6894cc26e93307826a071b75
     Pseudo is Ultrasoft + core correction, Zval =  6.0
     Generated by new atomic code, or converted to UPF format
     Using radial grid of  891 points,  5 beta functions with:
                l(1) =   0
                l(2) =   0
                l(3) =   1
                l(4) =   1
                l(5) =   2
     Q(r) pseudized with  6 coefficients,  rinner =    1.800   1.800   1.800
                                                       1.800   1.800

     atomic species   valence    mass     pseudopotential
        Cu            11.00    63.54600     Cu( 1.00)
        Si             4.00    28.08500     Si( 1.00)
        Te             6.00   127.60000     Te( 1.00)

     No symmetry found

                                    s                        frac. trans.

      isym =  1     identity

 cryst.   s( 1) = (     1          0          0      )
                  (     0          1          0      )
                  (     0          0          1      )

 cart.    s( 1) = (  1.0000000  0.0000000  0.0000000 )
                  (  0.0000000  1.0000000 -0.0000000 )
                  (  0.0000000  0.0000000  1.0000000 )

   Cartesian axes

     site n.     atom                  positions (alat units)
         1           Cu  tau(   1) = (  -0.3309099   0.8584451   0.0036790  )
         2           Cu  tau(   2) = (   0.6736054   0.2923391   0.0008865  )
         3           Cu  tau(   3) = (   0.9903929   0.2869801   0.4757145  )
         4           Cu  tau(   4) = (  -0.0035303   0.8714828   0.4729219  )
         5           Si  tau(   5) = (   0.3346445   0.8694696   0.9321755  )
         6           Si  tau(   6) = (   0.5020755   0.5837902   0.4601401  )
         7           Te  tau(   7) = (   0.5015058   0.5685603   0.8255229  )
         8           Te  tau(   8) = (   1.0046510   0.2911157   0.8280407  )
         9           Te  tau(   9) = (  -0.3344919   0.8728522   0.3560053  )
        10           Te  tau(  10) = (   0.0041474   0.8603023   0.8238670  )
        11           Te  tau(  11) = (   0.1580650   0.5770174   0.3534875  )
        12           Te  tau(  12) = (   0.6600814   0.2933656   0.3518316  )

   Crystallographic axes

     site n.     atom                  positions (cryst. coord.)
         1           Cu  tau(   1) = (  0.1661790  0.9913420  0.0038970  )
         2           Cu  tau(   2) = (  0.8430140  0.3377240  0.0009390  )
         3           Cu  tau(   3) = (  0.9913420  0.1661790  0.5038970  )
         4           Cu  tau(   4) = (  0.3377240  0.8430140  0.5009390  )
         5           Si  tau(   5) = (  0.5148050  0.6807610  0.9874000  )
         6           Si  tau(   6) = (  0.6807610  0.5148050  0.4874000  )
         7           Te  tau(   7) = (  0.5441130  0.3699580  0.8744290  )
         8           Te  tau(   8) = (  0.8853110  0.0482710  0.8770960  )
         9           Te  tau(   9) = (  0.0482710  0.8853110  0.3770960  )
        10           Te  tau(  10) = (  0.2167020  0.7078770  0.8726750  )
        11           Te  tau(  11) = (  0.3699580  0.5441130  0.3744290  )
        12           Te  tau(  12) = (  0.7078770  0.2167020  0.3726750  )

     number of k points=    14
                       cart. coord. in units 2pi/alat
        k(    1) = (   0.0000000   0.0000000   0.0000000), wk =   0.0740741
        k(    2) = (   0.0000000   0.0000000   0.3530809), wk =   0.1481481
        k(    3) = (   0.0000000   0.3854345  -0.1160760), wk =   0.1481481
        k(    4) = (   0.0000000   0.3854345   0.2370048), wk =   0.1481481
        k(    5) = (   0.0000000   0.3854345  -0.4691569), wk =   0.1481481
        k(    6) = (   0.3333333   0.1935165  -0.1160760), wk =   0.1481481
        k(    7) = (   0.3333333   0.1935165   0.2370048), wk =   0.1481481
        k(    8) = (   0.3333333   0.1935165  -0.4691569), wk =   0.1481481
        k(    9) = (   0.3333333   0.5789511  -0.2321521), wk =   0.1481481
        k(   10) = (   0.3333333   0.5789511   0.1209288), wk =   0.1481481
        k(   11) = (   0.3333333   0.5789511  -0.5852329), wk =   0.1481481
        k(   12) = (   0.3333333  -0.1919180  -0.0000000), wk =   0.1481481
        k(   13) = (   0.3333333  -0.1919180   0.3530809), wk =   0.1481481
        k(   14) = (   0.3333333  -0.1919180  -0.3530809), wk =   0.1481481

                       cryst. coord.
        k(    1) = (   0.0000000   0.0000000   0.0000000), wk =   0.0740741
        k(    2) = (   0.0000000   0.0000000   0.3333333), wk =   0.1481481
        k(    3) = (   0.0000000   0.3333333  -0.0000000), wk =   0.1481481
        k(    4) = (   0.0000000   0.3333333   0.3333333), wk =   0.1481481
        k(    5) = (   0.0000000   0.3333333  -0.3333333), wk =   0.1481481
        k(    6) = (   0.3333333   0.0000000   0.0000000), wk =   0.1481481
        k(    7) = (   0.3333333   0.0000000   0.3333333), wk =   0.1481481
        k(    8) = (   0.3333333   0.0000000  -0.3333333), wk =   0.1481481
        k(    9) = (   0.3333333   0.3333333   0.0000000), wk =   0.1481481
        k(   10) = (   0.3333333   0.3333333   0.3333333), wk =   0.1481481
        k(   11) = (   0.3333333   0.3333333  -0.3333333), wk =   0.1481481
        k(   12) = (   0.3333333  -0.3333333  -0.0000000), wk =   0.1481481
        k(   13) = (   0.3333333  -0.3333333   0.3333333), wk =   0.1481481
        k(   14) = (   0.3333333  -0.3333333  -0.3333333), wk =   0.1481481

     Initial potential from superposition of free atoms

     starting charge      87.9967, renormalised to      88.0000
     Starting wfcs are   68 randomized atomic wfcs
     Checking if some PAW data can be deallocated...

     Self-consistent Calculation

     iteration #  1     ecut=    30.00 Ry     beta= 0.70
     Davidson diagonalization with overlap

     ethr =  1.00E-02,  avg # of iterations =  5.6

     Threshold (ethr) on eigenvalues was too large:
     Diagonalizing with lowered threshold

     Davidson diagonalization with overlap

[...]

     total energy              =   -1034.14287875 Ry
     estimated scf accuracy    <       0.19045892 Ry

[...]

     total energy              =   -1034.20176864 Ry
     estimated scf accuracy    <       0.00000199 Ry

     iteration # 11     ecut=    30.00 Ry     beta= 0.70
     Davidson diagonalization with overlap

     ethr =  2.27E-09,  avg # of iterations =  1.8

     End of self-consistent calculation

          k = 0.0000 0.0000 0.0000 (  5907 PWs)   bands (ev):

    -6.8644  -5.6968  -5.4979  -5.3035  -5.0646  -5.0410  -1.9813  -1.4286
     0.6944   1.2325   1.2653   1.3333   1.7150   1.9104   1.9895   2.5135
     2.7048   2.8399   2.9053   2.9154   2.9263   2.9751   3.0249   3.0589
     3.8062   3.8076   3.8326   3.8436   3.8495   3.8825   3.8959   3.9020
     3.9224   4.0381   4.1836   4.1906   4.2792   4.7260   4.9407   5.3081
     5.4625   6.2182   6.2465   6.3367   6.5206   6.8263   7.7616   8.0650
     8.4086   8.5543   9.2388   9.4070   9.6996   9.9130  10.2804  10.5653
    10.7990  11.0686  11.6308  12.0973  12.2403  12.4944  12.9859  13.0323

     occupation numbers
     1.0000   1.0000   1.0000   1.0000   1.0000   1.0000   1.0000   1.0000
     1.0000   1.0000   1.0000   1.0000   1.0000   1.0000   1.0000   1.0000
     1.0000   1.0000   1.0000   1.0000   1.0000   1.0000   1.0000   1.0000
     1.0000   1.0000   1.0000   1.0000   1.0000   1.0000   1.0000   1.0000
     1.0000   1.0000   1.0000   1.0000   1.0000   1.0000   1.0000   1.0000
     1.0000   1.0000   1.0000   1.0000   0.0000   0.0000   0.0000   0.0000
     0.0000   0.0000   0.0000   0.0000   0.0000   0.0000   0.0000   0.0000
     0.0000   0.0000   0.0000   0.0000   0.0000   0.0000   0.0000   0.0000

[...]

          k = 0.3333-0.1919-0.3531 (  5981 PWs)   bands (ev):

    -6.4708  -6.0094  -5.6262  -5.3821  -5.2210  -5.0893  -1.6680  -1.2893
     0.9190   1.1681   1.3275   1.8869   2.0056   2.0346   2.2311   2.3861
     2.4876   2.5727   2.8247   2.8659   2.9425   2.9601   2.9970   3.0444
     3.7297   3.7755   3.8026   3.8176   3.8366   3.8584   3.8757   3.8909
     4.1068   4.1916   4.2185   4.2971   4.4168   4.5865   4.7089   4.8239
     5.1820   5.2288   5.3424   5.5653   7.2599   7.4261   8.1874   8.3215
     8.5505   8.9245   9.2088   9.3911   9.7403  10.0885  10.4081  10.8227
    10.8643  10.9864  11.1437  11.3505  11.7049  12.0522  12.2269  12.3860

     occupation numbers
     1.0000   1.0000   1.0000   1.0000   1.0000   1.0000   1.0000   1.0000
     1.0000   1.0000   1.0000   1.0000   1.0000   1.0000   1.0000   1.0000
     1.0000   1.0000   1.0000   1.0000   1.0000   1.0000   1.0000   1.0000
     1.0000   1.0000   1.0000   1.0000   1.0000   1.0000   1.0000   1.0000
     1.0000   1.0000   1.0000   1.0000   1.0000   1.0000   1.0000   1.0000
     1.0000   1.0000   1.0000   1.0000   0.0000   0.0000   0.0000   0.0000
     0.0000   0.0000   0.0000   0.0000   0.0000   0.0000   0.0000   0.0000
     0.0000   0.0000   0.0000   0.0000   0.0000   0.0000   0.0000   0.0000

     highest occupied, lowest unoccupied level (ev):     6.3367    6.5206

!    total energy              =   -1034.20176886 Ry
     estimated scf accuracy    <       0.00000004 Ry

     The total energy is the sum of the following terms:
     one-electron contribution =    -293.64410465 Ry
     hartree contribution      =     223.41513859 Ry
     xc contribution           =    -277.39282191 Ry
     ewald contribution        =    -327.29392783 Ry
     one-center paw contrib.   =    -359.28605305 Ry
      -> PAW hartree energy AE =     197.10643524 Ry
      -> PAW hartree energy PS =    -195.64509234 Ry
      -> PAW xc energy AE      =    -269.95097810 Ry
      -> PAW xc energy PS      =      88.84660899 Ry
      -> total E_H with PAW    =     224.87648149 Ry
      -> total E_XC with PAW   =    -458.49719102 Ry

     convergence has been achieved in  11 iterations

     Writing all to output data dir bands_nm/myprefix.save/

     General routines

     Parallel routines

     PAW routines

   This run was terminated on:  17:18:41  14Jul2023

   JOB DONE.