     Program PWSCF v.7.1 starts on 15Jul2023 at 21:12:24

     Reading input from espresso_4869.pwi
Warning: card &CELL ignored
Warning: card / ignored

     Current dimensions of program PWSCF are:
     Max number of different atomic species (ntypx) = 10
     Max number of k-points (npk) =  40000
     Max angular momentum in pseudopotentials (lmaxx) =  4
     file O.pbe-n-kjpaw_psl.0.1.UPF: wavefunction(s)  2P renormalized
     Message from routine setup:
     using ibrav=0 with symmetry is DISCOURAGED, use correct ibrav instead

     K-points division:     npool     =       2
     R & G space division:  proc/nbgrp/npool/nimage =       4
     Subspace diagonalization in iterative solution of the eigenvalue problem:
     one sub-group per band group will be used

     Using Slab Decomposition

     bravais-lattice index     =            0
     lattice parameter (alat)  =       8.4996  a.u.
     unit-cell volume          =    2162.0572 (a.u.)^3
     number of atoms/cell      =           20
     number of atomic types    =            3
     number of electrons       =       136.00
     number of Kohn-Sham states=          256
     kinetic-energy cutoff     =      30.0000  Ry
     charge density cutoff     =     240.0000  Ry
     scf convergence threshold =      1.0E-06
     mixing beta               =       0.7000
     number of iterations used =            8  plain     mixing
     Exchange-correlation= SLA  PW   PBX  PBC
                           (   1   4   3   4   0   0   0)

     celldm(1)=   8.499606  celldm(2)=   0.000000  celldm(3)=   0.000000
     celldm(4)=   0.000000  celldm(5)=   0.000000  celldm(6)=   0.000000

     crystal axes: (cart. coord. in units of alat)
               a(1) = (   1.000000   0.000000   0.000000 )
               a(2) = (   0.000000   1.240807   0.000000 )
               a(3) = (   0.000000   0.000000   2.837699 )

     reciprocal axes: (cart. coord. in units 2 pi/alat)
               b(1) = (  1.000000  0.000000  0.000000 )
               b(2) = (  0.000000  0.805927  0.000000 )
               b(3) = (  0.000000  0.000000  0.352398 )

     PseudoPot. # 1 for Sr read from file:
     /lustre07/scratch/pragov/crystal_structure_design/utils/SSSP/Sr_pbe_v1.uspp.F.UPF
     MD5 check sum: 6b418c05fbe9db5448babca5e47b7a5b
     Pseudo is Ultrasoft + core correction, Zval = 10.0
     Generated by new atomic code, or converted to UPF format
     Using radial grid of  883 points,  6 beta functions with:
                l(1) =   0
                l(2) =   0
                l(3) =   1
                l(4) =   1
                l(5) =   2
                l(6) =   2
     Q(r) pseudized with  6 coefficients,  rinner =    1.400   1.400   1.400
                                                       1.400   1.400

     PseudoPot. # 2 for Se read from file:
     /lustre07/scratch/pragov/crystal_structure_design/utils/SSSP/Se_pbe_v1.uspp.F.UPF
     MD5 check sum: 1b3568f3a8ae88f9a2a0ad0698632c85
     Pseudo is Ultrasoft + core correction, Zval =  6.0
     Generated by new atomic code, or converted to UPF format
     Using radial grid of  877 points,  6 beta functions with:
                l(1) =   0
                l(2) =   0
                l(3) =   1
                l(4) =   1
                l(5) =   2
                l(6) =   2
     Q(r) pseudized with  8 coefficients,  rinner =    1.300   1.300   1.300
                                                       1.300   1.300

     PseudoPot. # 3 for O  read from file:
     /lustre07/scratch/pragov/crystal_structure_design/utils/SSSP/O.pbe-n-kjpaw_psl.0.1.UPF
     MD5 check sum: 0234752ac141de4415c5fc33072bef88
     Pseudo is Projector augmented-wave + core cor, Zval =  6.0
     Generated using "atomic" code by A. Dal Corso  v.5.0.99 svn rev. 10869
     Shape of augmentation charge: BESSEL
     Using radial grid of 1095 points,  4 beta functions with:
                l(1) =   0
                l(2) =   0
                l(3) =   1
                l(4) =   1
     Q(r) pseudized with 0 coefficients

     atomic species   valence    mass     pseudopotential
        Sr            10.00    87.62000     Sr( 1.00)
        Se             6.00    78.97100     Se( 1.00)
        O              6.00    15.99900     O ( 1.00)

      8 Sym. Ops., with inversion, found ( 6 have fractional translation)

                                    s                        frac. trans.

      isym =  1     identity

 cryst.   s( 1) = (     1          0          0      )
                  (     0          1          0      )
                  (     0          0          1      )

 cart.    s( 1) = (  1.0000000  0.0000000  0.0000000 )
                  (  0.0000000  1.0000000  0.0000000 )
                  (  0.0000000  0.0000000  1.0000000 )

      isym =  2     180 deg rotation - cart. axis [0,0,1]

 cryst.   s( 2) = (    -1          0          0      )    f =( -0.5000000 )
                  (     0         -1          0      )       (  0.5000000 )
                  (     0          0          1      )       ( -0.5000000 )

 cart.    s( 2) = ( -1.0000000  0.0000000  0.0000000 )    f =( -0.5000000 )
                  (  0.0000000 -1.0000000  0.0000000 )       (  0.6204037 )
                  (  0.0000000  0.0000000  1.0000000 )       ( -1.4188496 )

[...]

      isym =  4     180 deg rotation - cart. axis [1,0,0]

[...]

      isym =  5     inversion

 cryst.   s( 5) = (    -1          0          0      )
                  (     0         -1          0      )
                  (     0          0         -1      )

 cart.    s( 5) = ( -1.0000000  0.0000000  0.0000000 )
                  (  0.0000000 -1.0000000  0.0000000 )
                  (  0.0000000  0.0000000 -1.0000000 )

      isym =  6     inv. 180 deg rotation - cart. axis [0,0,1]

[...]

      isym =  8     inv. 180 deg rotation - cart. axis [1,0,0]

 cryst.   s( 8) = (    -1          0          0      )    f =( -0.5000000 )
                  (     0          1          0      )       (  0.0000000 )
                  (     0          0          1      )       ( -0.5000000 )

 cart.    s( 8) = ( -1.0000000  0.0000000  0.0000000 )    f =( -0.5000000 )
                  (  0.0000000  1.0000000  0.0000000 )       (  0.0000000 )
                  (  0.0000000  0.0000000  1.0000000 )       ( -1.4188496 )

   Cartesian axes

     site n.     atom                  positions (alat units)
         1           Sr  tau(   1) = (   0.5227760   0.3102018   1.8482843  )
         2           Sr  tau(   2) = (   0.9772240   0.3102018   0.4294347  )
         3           Sr  tau(   3) = (   0.4772240   0.9306055   0.9894149  )
         4           Sr  tau(   4) = (   0.0227760   0.9306055   2.4082645  )
         5           Se  tau(   5) = (   0.4969250   0.3102018   2.6139069  )
         6           Se  tau(   6) = (   0.9969250   0.9306055   1.6426419  )
         7           Se  tau(   7) = (   0.0030750   0.3102018   1.1950573  )
         8           Se  tau(   8) = (   0.5030750   0.9306055   0.2237923  )
         9           O   tau(   9) = (   0.9715320   0.0131947   0.9514891  )
        10           O   tau(  10) = (   0.9715320   0.6072089   0.9514891  )
        11           O   tau(  11) = (   0.1210810   0.3102018   2.6895004  )
        12           O   tau(  12) = (   0.3789190   0.3102018   1.2706508  )
        13           O   tau(  13) = (   0.0284680   1.2276126   1.8862102  )
        14           O   tau(  14) = (   0.5284680   0.6072089   2.3703387  )
        15           O   tau(  15) = (   0.6210810   0.9306055   1.5670485  )
        16           O   tau(  16) = (   0.5284680   0.0131947   2.3703387  )
        17           O   tau(  17) = (   0.8789190   0.9306055   0.1481988  )
        18           O   tau(  18) = (   0.0284680   0.6335984   1.8862102  )
        19           O   tau(  19) = (   0.4715320   1.2276126   0.4673606  )
        20           O   tau(  20) = (   0.4715320   0.6335984   0.4673606  )

   Crystallographic axes

     site n.     atom                  positions (cryst. coord.)
         1           Sr  tau(   1) = (  0.5227760  0.2500000  0.6513320  )
         2           Sr  tau(   2) = (  0.9772240  0.2500000  0.1513320  )
         3           Sr  tau(   3) = (  0.4772240  0.7500000  0.3486680  )
         4           Sr  tau(   4) = (  0.0227760  0.7500000  0.8486680  )
         5           Se  tau(   5) = (  0.4969250  0.2500000  0.9211360  )
         6           Se  tau(   6) = (  0.9969250  0.7500000  0.5788640  )
         7           Se  tau(   7) = (  0.0030750  0.2500000  0.4211360  )
         8           Se  tau(   8) = (  0.5030750  0.7500000  0.0788640  )
         9           O   tau(   9) = (  0.9715320  0.0106340  0.3353030  )
        10           O   tau(  10) = (  0.9715320  0.4893660  0.3353030  )
        11           O   tau(  11) = (  0.1210810  0.2500000  0.9477750  )
        12           O   tau(  12) = (  0.3789190  0.2500000  0.4477750  )
        13           O   tau(  13) = (  0.0284680  0.9893660  0.6646970  )
        14           O   tau(  14) = (  0.5284680  0.4893660  0.8353030  )
        15           O   tau(  15) = (  0.6210810  0.7500000  0.5522250  )
        16           O   tau(  16) = (  0.5284680  0.0106340  0.8353030  )
        17           O   tau(  17) = (  0.8789190  0.7500000  0.0522250  )
        18           O   tau(  18) = (  0.0284680  0.5106340  0.6646970  )
        19           O   tau(  19) = (  0.4715320  0.9893660  0.1646970  )
        20           O   tau(  20) = (  0.4715320  0.5106340  0.1646970  )

     number of k points=     8
                       cart. coord. in units 2pi/alat
        k(    1) = (   0.0000000   0.0000000   0.0000000), wk =   0.0740741
        k(    2) = (   0.0000000   0.0000000   0.1174661), wk =   0.1481481
        k(    3) = (   0.0000000   0.2686423   0.0000000), wk =   0.1481481
        k(    4) = (   0.0000000   0.2686423   0.1174661), wk =   0.2962963
        k(    5) = (   0.3333333   0.0000000   0.0000000), wk =   0.1481481
        k(    6) = (   0.3333333   0.0000000   0.1174661), wk =   0.2962963
        k(    7) = (   0.3333333   0.2686423   0.0000000), wk =   0.2962963
        k(    8) = (   0.3333333   0.2686423   0.1174661), wk =   0.5925926

                       cryst. coord.
        k(    1) = (   0.0000000   0.0000000   0.0000000), wk =   0.0740741
        k(    2) = (   0.0000000   0.0000000   0.3333333), wk =   0.1481481
        k(    3) = (   0.0000000   0.3333333   0.0000000), wk =   0.1481481
        k(    4) = (   0.0000000   0.3333333   0.3333333), wk =   0.2962963
        k(    5) = (   0.3333333   0.0000000   0.0000000), wk =   0.1481481
        k(    6) = (   0.3333333   0.0000000   0.3333333), wk =   0.2962963
        k(    7) = (   0.3333333   0.3333333   0.0000000), wk =   0.2962963
        k(    8) = (   0.3333333   0.3333333   0.3333333), wk =   0.5925926

     Check: negative core charge=   -0.000009

     Initial potential from superposition of free atoms

     starting charge     135.8651, renormalised to     136.0000

     negative rho (up, down):  2.580E-01 0.000E+00
     Starting wfcs are  116 randomized atomic wfcs +  140 random wfcs
     Checking if some PAW data can be deallocated...

     Self-consistent Calculation

     iteration #  1     ecut=    30.00 Ry     beta= 0.70
     Davidson diagonalization with overlap

     ethr =  1.00E-02,  avg # of iterations =  7.0

     negative rho (up, down):  2.629E-01 0.000E+00

     total energy              =    -952.58741077 Ry
     estimated scf accuracy    <       5.43703265 Ry

[...]

     total energy              =    -955.31109543 Ry
     estimated scf accuracy    <       0.00000700 Ry

     iteration #  8     ecut=    30.00 Ry     beta= 0.70
     Davidson diagonalization with overlap

     ethr =  5.15E-09,  avg # of iterations =  3.1

     negative rho (up, down):  2.704E-01 0.000E+00

     End of self-consistent calculation

          k = 0.0000 0.0000 0.0000 (  6007 PWs)   bands (ev):

   -27.1117 -27.1098 -27.1000 -27.0983 -14.4457 -14.4429 -14.3248 -14.2623
   -11.9834 -11.9456 -11.8157 -11.7190 -11.6978 -11.6797 -11.6722 -11.6454
    -9.1625  -9.1454  -9.1316  -9.0835  -9.0646  -9.0567  -9.0549  -9.0454
    -8.9982  -8.9974  -8.8927  -8.8832  -4.5257  -4.3811  -4.3216  -4.2470
     0.1023   0.1526   0.1563   0.2079   0.2326   0.2487   0.4405   0.5992
     0.9115   1.2267   1.4786   1.5341   3.1325   3.2193   3.3123   3.3801
     3.6079   3.6595   3.7106   3.7110   3.9572   4.1372   4.1908   4.2206
     4.2364   4.3490   4.6228   4.7158   4.7260   4.7897   4.8140   4.8702
     4.8832   4.9012   4.9496   5.0822   9.7229   9.9677  10.5278  10.7507
    10.8302  10.8921  11.8375  12.0987  12.1257  12.2640  12.2849  12.4451
    12.6894  12.7151  12.8085  12.8679  13.1818  13.3158  13.6991  13.7074
    13.7408  13.8193  13.8202  13.9011  14.0602  14.4518  14.6060  14.6189
    14.7354  14.9164  15.0628  15.0680  15.0808  15.1763  15.9093  15.9313
    16.5593  16.9323  16.9814  17.0897  17.1092  17.4647  17.6782  17.9950
    18.1312  18.1981  18.2761  18.8270  18.9260  19.3323  19.5292  19.6230
    19.7595  19.8680  20.1124  20.4959  21.1145  21.2733  21.5289  21.6576
    21.8204  22.1400  22.2478  22.2491  22.5346  23.3611  23.4170  23.4410
    23.4532  23.5354  24.0742  24.0922  24.3794  24.4576  24.6731  24.8756
    25.0060  25.1083  25.1872  25.2659  25.4451  25.8109  26.0170  26.0730
    26.1926  26.5212  26.8176  26.8557  27.1953  27.2953  27.4952  27.6553
    27.8034  27.8860  28.1878  28.2596  28.4238  28.4979  28.8071  28.8210
    28.8818  29.0134  29.2892  29.3757  29.4976  29.9346  30.1493  30.1807
    30.2291  30.3963  30.4582  30.7093  30.8716  30.9302  30.9499  31.3200
    31.4937  31.8616  32.0374  32.0449  32.2867  32.4741  32.5448  32.6561
    32.6682  32.7217  32.8949  33.1992  33.3474  33.6436  33.6871  33.7320
    34.0736  34.1428  34.3390  34.3763  34.7052  34.7669  35.2688  35.4317
    35.6662  35.6847  35.7045  35.7244  35.7386  35.7576  35.8221  35.8282
    35.9344  36.0737  36.1457  36.1724  36.1895  36.1980  36.2317  36.3639
    36.3813  36.4084  36.4581  36.5323  36.5530  36.5563  36.5793  36.5878
    36.6324  36.6396  36.6439  36.6717  36.7234  36.7558  36.8159  36.8628
    36.9710  37.0598  37.1761  37.4349  37.4847  37.7449  37.7690  37.7696
    37.8232  38.3197  38.3474  38.5253  38.6726  38.6755  38.9819  39.2611

     occupation numbers
     1.0000   1.0000   1.0000   1.0000   1.0000   1.0000   1.0000   1.0000
     1.0000   1.0000   1.0000   1.0000   1.0000   1.0000   1.0000   1.0000
     1.0000   1.0000   1.0000   1.0000   1.0000   1.0000   1.0000   1.0000
     1.0000   1.0000   1.0000   1.0000   1.0000   1.0000   1.0000   1.0000
     1.0000   1.0000   1.0000   1.0000   1.0000   1.0000   1.0000   1.0000
     1.0000   1.0000   1.0000   1.0000   1.0000   1.0000   1.0000   1.0000
     1.0000   1.0000   1.0000   1.0000   1.0000   1.0000   1.0000   1.0000
     1.0000   1.0000   1.0000   1.0000   1.0000   1.0000   1.0000   1.0000
     1.0000   1.0000   1.0000   1.0000   0.0000   0.0000   0.0000   0.0000
     0.0000   0.0000   0.0000   0.0000   0.0000   0.0000   0.0000   0.0000
     0.0000   0.0000   0.0000   0.0000   0.0000   0.0000   0.0000   0.0000
     0.0000   0.0000   0.0000   0.0000   0.0000   0.0000   0.0000   0.0000
     0.0000   0.0000   0.0000   0.0000   0.0000   0.0000   0.0000   0.0000
     0.0000   0.0000   0.0000   0.0000   0.0000   0.0000   0.0000   0.0000
     0.0000   0.0000   0.0000   0.0000   0.0000   0.0000   0.0000   0.0000
     0.0000   0.0000   0.0000   0.0000   0.0000   0.0000   0.0000   0.0000
     0.0000   0.0000   0.0000   0.0000   0.0000   0.0000   0.0000   0.0000
     0.0000   0.0000   0.0000   0.0000   0.0000   0.0000   0.0000   0.0000
     0.0000   0.0000   0.0000   0.0000   0.0000   0.0000   0.0000   0.0000
     0.0000   0.0000   0.0000   0.0000   0.0000   0.0000   0.0000   0.0000
     0.0000   0.0000   0.0000   0.0000   0.0000   0.0000   0.0000   0.0000
     0.0000   0.0000   0.0000   0.0000   0.0000   0.0000   0.0000   0.0000
     0.0000   0.0000   0.0000   0.0000   0.0000   0.0000   0.0000   0.0000
     0.0000   0.0000   0.0000   0.0000   0.0000   0.0000   0.0000   0.0000
     0.0000   0.0000   0.0000   0.0000   0.0000   0.0000   0.0000   0.0000
     0.0000   0.0000   0.0000   0.0000   0.0000   0.0000   0.0000   0.0000
     0.0000   0.0000   0.0000   0.0000   0.0000   0.0000   0.0000   0.0000
     0.0000   0.0000   0.0000   0.0000   0.0000   0.0000   0.0000   0.0000
     0.0000   0.0000   0.0000   0.0000   0.0000   0.0000   0.0000   0.0000
     0.0000   0.0000   0.0000   0.0000   0.0000   0.0000   0.0000   0.0000
     0.0000   0.0000   0.0000   0.0000   0.0000   0.0000   0.0000   0.0000
     0.0000   0.0000   0.0000   0.0000   0.0000   0.0000   0.0000   0.0000

[...]

          k = 0.3333 0.2686 0.1175 (  5998 PWs)   bands (ev):

   -27.1030 -27.1026 -27.1000 -27.0996 -14.3279 -14.3249 -14.2595 -14.2471
   -12.0082 -11.9957 -11.9442 -11.9127 -11.7889 -11.7779 -11.7331 -11.7186
    -9.1428  -9.1388  -9.1281  -9.1177  -9.0928  -9.0878  -9.0541  -9.0498
    -8.9406  -8.9326  -8.8979  -8.8886  -4.7083  -4.6765  -4.5861  -4.5791
     0.2702   0.3301   0.5023   0.5120   0.7668   0.8288   1.0140   1.0259
     1.3886   1.3982   1.7200   1.7460   2.9862   3.0141   3.1875   3.2006
     3.4717   3.5330   3.6124   3.7157   3.9795   3.9974   4.1833   4.2038
     4.3612   4.4018   4.4199   4.5011   4.6708   4.7287   4.8241   4.8514
     5.2642   5.2971   5.3233   5.3431   9.6093   9.6680  10.3377  10.3877
    10.9431  10.9702  11.3313  11.3558  11.4265  11.4873  11.6127  11.6597
    12.6891  12.7536  13.0500  13.1648  13.4775  13.4849  13.5216  13.5755
    13.7571  13.8318  13.8566  13.9151  14.0852  14.2193  14.3146  14.4068
    14.7841  14.8403  14.9219  15.0233  15.1543  15.2301  15.7160  15.8686
    16.2499  16.2951  16.6038  16.8557  17.5889  17.8640  17.9673  18.1750
    18.5953  18.6312  18.7257  18.8114  19.5259  19.5549  19.6717  19.7762
    20.2949  20.5307  20.7614  20.8326  21.0214  21.1353  21.2021  21.4795
    21.8978  22.1308  22.1967  22.3421  22.3914  22.5442  22.8996  22.9978
    23.1317  23.3444  23.7605  23.9596  24.0442  24.2600  24.3593  24.5807
    24.8221  24.9764  25.3245  25.3928  25.6524  25.8556  26.0192  26.0767
    26.3475  26.4734  26.8585  26.9567  27.1421  27.3027  27.3917  27.4351
    27.6382  27.9204  28.0254  28.3080  28.3876  28.5690  28.7202  28.7410
    28.9653  29.0296  29.2243  29.4638  29.4932  29.7007  29.9929  30.1100
    30.2761  30.2996  30.6574  31.0609  31.0885  31.2694  31.4866  31.6909
    31.7593  31.8322  31.9117  32.0201  32.0785  32.2148  32.2829  32.6120
    32.6782  33.0301  33.1355  33.3171  33.3581  33.5565  33.7093  33.7851
    34.1631  34.2164  34.3149  34.4231  34.5408  34.8180  34.9124  34.9842
    35.0241  35.1859  35.3057  35.5129  35.6609  35.9219  35.9824  35.9957
    36.0520  36.0718  36.1531  36.1771  36.2166  36.2672  36.2947  36.3301
    36.4366  36.4744  36.5116  36.5319  36.5432  36.6185  36.6644  36.7066
    36.7157  36.7768  36.8519  36.8694  36.8986  36.9610  36.9961  37.0093
    37.0370  37.0485  37.1341  37.2067  37.2961  37.4125  37.7043  37.7556
    37.9952  38.1026  38.2381  38.3728  38.4524  38.6015  38.7740  38.9435

     occupation numbers
     1.0000   1.0000   1.0000   1.0000   1.0000   1.0000   1.0000   1.0000
     1.0000   1.0000   1.0000   1.0000   1.0000   1.0000   1.0000   1.0000
     1.0000   1.0000   1.0000   1.0000   1.0000   1.0000   1.0000   1.0000
     1.0000   1.0000   1.0000   1.0000   1.0000   1.0000   1.0000   1.0000
     1.0000   1.0000   1.0000   1.0000   1.0000   1.0000   1.0000   1.0000
     1.0000   1.0000   1.0000   1.0000   1.0000   1.0000   1.0000   1.0000
     1.0000   1.0000   1.0000   1.0000   1.0000   1.0000   1.0000   1.0000
     1.0000   1.0000   1.0000   1.0000   1.0000   1.0000   1.0000   1.0000
     1.0000   1.0000   1.0000   1.0000   0.0000   0.0000   0.0000   0.0000
     0.0000   0.0000   0.0000   0.0000   0.0000   0.0000   0.0000   0.0000
     0.0000   0.0000   0.0000   0.0000   0.0000   0.0000   0.0000   0.0000
     0.0000   0.0000   0.0000   0.0000   0.0000   0.0000   0.0000   0.0000
     0.0000   0.0000   0.0000   0.0000   0.0000   0.0000   0.0000   0.0000
     0.0000   0.0000   0.0000   0.0000   0.0000   0.0000   0.0000   0.0000
     0.0000   0.0000   0.0000   0.0000   0.0000   0.0000   0.0000   0.0000
     0.0000   0.0000   0.0000   0.0000   0.0000   0.0000   0.0000   0.0000
     0.0000   0.0000   0.0000   0.0000   0.0000   0.0000   0.0000   0.0000
     0.0000   0.0000   0.0000   0.0000   0.0000   0.0000   0.0000   0.0000
     0.0000   0.0000   0.0000   0.0000   0.0000   0.0000   0.0000   0.0000
     0.0000   0.0000   0.0000   0.0000   0.0000   0.0000   0.0000   0.0000
     0.0000   0.0000   0.0000   0.0000   0.0000   0.0000   0.0000   0.0000
     0.0000   0.0000   0.0000   0.0000   0.0000   0.0000   0.0000   0.0000
     0.0000   0.0000   0.0000   0.0000   0.0000   0.0000   0.0000   0.0000
     0.0000   0.0000   0.0000   0.0000   0.0000   0.0000   0.0000   0.0000
     0.0000   0.0000   0.0000   0.0000   0.0000   0.0000   0.0000   0.0000
     0.0000   0.0000   0.0000   0.0000   0.0000   0.0000   0.0000   0.0000
     0.0000   0.0000   0.0000   0.0000   0.0000   0.0000   0.0000   0.0000
     0.0000   0.0000   0.0000   0.0000   0.0000   0.0000   0.0000   0.0000
     0.0000   0.0000   0.0000   0.0000   0.0000   0.0000   0.0000   0.0000
     0.0000   0.0000   0.0000   0.0000   0.0000   0.0000   0.0000   0.0000
     0.0000   0.0000   0.0000   0.0000   0.0000   0.0000   0.0000   0.0000
     0.0000   0.0000   0.0000   0.0000   0.0000   0.0000   0.0000   0.0000

     highest occupied, lowest unoccupied level (ev):     5.3431    9.4516

!    total energy              =    -955.31109794 Ry
     estimated scf accuracy    <       0.00000074 Ry

     The total energy is the sum of the following terms:
     one-electron contribution =    -191.59682789 Ry
     hartree contribution      =     169.18577770 Ry
     xc contribution           =    -281.45997330 Ry
     ewald contribution        =    -537.06991598 Ry
     one-center paw contrib.   =    -114.37015847 Ry
      -> PAW hartree energy AE =       0.00000000 Ry
      -> PAW hartree energy PS =       0.00000000 Ry
      -> PAW xc energy AE      =       0.00000000 Ry
      -> PAW xc energy PS      =       0.00000000 Ry
      -> total E_H with PAW    =     169.18577770 Ry
      -> total E_XC with PAW   =    -281.45997330 Ry

     convergence has been achieved in   8 iterations

     Writing all to output data dir bands_nm/myprefix.save/

     General routines

     Parallel routines

     PAW routines

   This run was terminated on:  21:13: 8  15Jul2023

   JOB DONE.