     Program PWSCF v.7.1 starts on 15Jul2023 at 21:52:26

     Reading input from espresso_19646.pwi
Warning: card &CELL ignored
Warning: card / ignored

     Current dimensions of program PWSCF are:
     Max number of different atomic species (ntypx) = 10
     Max number of k-points (npk) =  40000
     Max angular momentum in pseudopotentials (lmaxx) =  4
     Message from routine setup:
     using ibrav=0 with symmetry is DISCOURAGED, use correct ibrav instead

     K-points division:     npool     =       2
     R & G space division:  proc/nbgrp/npool/nimage =       4
     Subspace diagonalization in iterative solution of the eigenvalue problem:
     one sub-group per band group will be used

     Using Slab Decomposition

     bravais-lattice index     =            0
     lattice parameter (alat)  =      13.1072  a.u.
     unit-cell volume          =    2792.2599 (a.u.)^3
     number of atoms/cell      =           16
     number of atomic types    =            3
     number of electrons       =       172.00
     number of Kohn-Sham states=          256
     kinetic-energy cutoff     =      30.0000  Ry
     charge density cutoff     =     240.0000  Ry
     scf convergence threshold =      1.0E-06
     mixing beta               =       0.7000
     number of iterations used =            8  plain     mixing
     Exchange-correlation= SLA  PW   PBE  PBE
                           (   1   4   3   4   0   0   0)

     celldm(1)=  13.107184  celldm(2)=   0.000000  celldm(3)=   0.000000
     celldm(4)=   0.000000  celldm(5)=   0.000000  celldm(6)=   0.000000

     crystal axes: (cart. coord. in units of alat)
               a(1) = (   1.000000   0.000000   0.000000 )
               a(2) = (   0.000000   1.046816   0.000000 )
               a(3) = (   0.000000   0.000000   1.184561 )

     reciprocal axes: (cart. coord. in units 2 pi/alat)
               b(1) = (  1.000000  0.000000  0.000000 )
               b(2) = (  0.000000  0.955278  0.000000 )
               b(3) = (  0.000000  0.000000  0.844195 )

     PseudoPot. # 1 for Ag read from file:
     /lustre07/scratch/pragov/crystal_structure_design/utils/SSSP/Ag_ONCV_PBE-1.0.oncvpsp.upf
     MD5 check sum: 94f47bd0669c641108e45594df92fabc
     Pseudo is Norm-conserving, Zval = 19.0
     Generated using ONCVPSP code by D. R. Hamann
     Using radial grid of 1398 points,  6 beta functions with:
                l(1) =   0
                l(2) =   0
                l(3) =   1
                l(4) =   1
                l(5) =   2
                l(6) =   2

     PseudoPot. # 2 for P  read from file:
     /lustre07/scratch/pragov/crystal_structure_design/utils/SSSP/P.pbe-n-rrkjus_psl.1.0.0.UPF
     MD5 check sum: 8b930f418f0a4573dca56cd030ffe088
     Pseudo is Ultrasoft + core correction, Zval =  5.0
     Generated using "atomic" code by A. Dal Corso  v.5.1
     Using radial grid of 1147 points,  6 beta functions with:
                l(1) =   0
                l(2) =   0
                l(3) =   1
                l(4) =   1
                l(5) =   2
                l(6) =   2
     Q(r) pseudized with 0 coefficients

     PseudoPot. # 3 for Se read from file:
     /lustre07/scratch/pragov/crystal_structure_design/utils/SSSP/Se_pbe_v1.uspp.F.UPF
     MD5 check sum: 1b3568f3a8ae88f9a2a0ad0698632c85
     Pseudo is Ultrasoft + core correction, Zval =  6.0
     Generated by new atomic code, or converted to UPF format
     Using radial grid of  877 points,  6 beta functions with:
                l(1) =   0
                l(2) =   0
                l(3) =   1
                l(4) =   1
                l(5) =   2
                l(6) =   2
     Q(r) pseudized with  8 coefficients,  rinner =    1.300   1.300   1.300
                                                       1.300   1.300

     atomic species   valence    mass     pseudopotential
        Ag            19.00   107.86820     Ag( 1.00)
        P              5.00    30.97376     P ( 1.00)
        Se             6.00    78.97100     Se( 1.00)

      4 Sym. Ops. (no inversion) found ( 2 have fractional translation)

                                    s                        frac. trans.

      isym =  1     identity

 cryst.   s( 1) = (     1          0          0      )
                  (     0          1          0      )
                  (     0          0          1      )

 cart.    s( 1) = (  1.0000000  0.0000000  0.0000000 )
                  (  0.0000000  1.0000000  0.0000000 )
                  (  0.0000000  0.0000000  1.0000000 )

      isym =  2     180 deg rotation - cart. axis [1,0,0]

 cryst.   s( 2) = (     1          0          0      )    f =( -0.5000000 )
                  (     0         -1          0      )       (  0.0000000 )
                  (     0          0         -1      )       (  0.5000000 )

 cart.    s( 2) = (  1.0000000  0.0000000  0.0000000 )    f =( -0.5000000 )
                  (  0.0000000 -1.0000000  0.0000000 )       (  0.0000000 )
                  (  0.0000000  0.0000000 -1.0000000 )       (  0.5922803 )

      isym =  3     inv. 180 deg rotation - cart. axis [0,0,1]

 cryst.   s( 3) = (     1          0          0      )
                  (     0          1          0      )
                  (     0          0         -1      )

 cart.    s( 3) = (  1.0000000  0.0000000  0.0000000 )
                  (  0.0000000  1.0000000  0.0000000 )
                  (  0.0000000  0.0000000 -1.0000000 )

      isym =  4     inv. 180 deg rotation - cart. axis [0,1,0]

 cryst.   s( 4) = (     1          0          0      )    f =( -0.5000000 )
                  (     0         -1          0      )       (  0.0000000 )
                  (     0          0          1      )       (  0.5000000 )

 cart.    s( 4) = (  1.0000000  0.0000000  0.0000000 )    f =( -0.5000000 )
                  (  0.0000000 -1.0000000  0.0000000 )       (  0.0000000 )
                  (  0.0000000  0.0000000  1.0000000 )       (  0.5922803 )

   Cartesian axes

     site n.     atom                  positions (alat units)
         1           Ag  tau(   1) = (   0.0141320   0.8502439   0.8748241  )
         2           Ag  tau(   2) = (   0.5141320   0.1965722   0.9020169  )
         3           Ag  tau(   3) = (   0.5141320   0.1965722   0.2825438  )
         4           Ag  tau(   4) = (   0.0141320   0.8502439   0.3097366  )
         5           Ag  tau(   5) = (   0.9838490   0.3726948   0.0000000  )
         6           Ag  tau(   6) = (   0.4838490   0.6741213   0.5922803  )
         7           P   tau(   7) = (   0.9957730   0.3320678   0.5922803  )
         8           P   tau(   8) = (   0.4957730   0.7147482   0.0000000  )
         9           Se  tau(   9) = (   0.8922660   0.1728806   0.3247272  )
        10           Se  tau(  10) = (   0.3922660   0.8739354   0.2675532  )
        11           Se  tau(  11) = (   0.3727430   0.4137111   0.0000000  )
        12           Se  tau(  12) = (   0.8727430   0.6331049   0.5922803  )
        13           Se  tau(  13) = (   0.3922660   0.8739354   0.9170075  )
        14           Se  tau(  14) = (   0.8922660   0.1728806   0.8598335  )
        15           Se  tau(  15) = (   0.3209310   0.3250437   0.5922803  )
        16           Se  tau(  16) = (   0.8209310   0.7217723   0.0000000  )

   Crystallographic axes

     site n.     atom                  positions (cryst. coord.)
         1           Ag  tau(   1) = (  0.0141320  0.8122190  0.7385220  )
         2           Ag  tau(   2) = (  0.5141320  0.1877810  0.7614780  )
         3           Ag  tau(   3) = (  0.5141320  0.1877810  0.2385220  )
         4           Ag  tau(   4) = (  0.0141320  0.8122190  0.2614780  )
         5           Ag  tau(   5) = (  0.9838490  0.3560270  0.0000000  )
         6           Ag  tau(   6) = (  0.4838490  0.6439730  0.5000000  )
         7           P   tau(   7) = (  0.9957730  0.3172170  0.5000000  )
         8           P   tau(   8) = (  0.4957730  0.6827830  0.0000000  )
         9           Se  tau(   9) = (  0.8922660  0.1651490  0.2741330  )
        10           Se  tau(  10) = (  0.3922660  0.8348510  0.2258670  )
        11           Se  tau(  11) = (  0.3727430  0.3952090  0.0000000  )
        12           Se  tau(  12) = (  0.8727430  0.6047910  0.5000000  )
        13           Se  tau(  13) = (  0.3922660  0.8348510  0.7741330  )
        14           Se  tau(  14) = (  0.8922660  0.1651490  0.7258670  )
        15           Se  tau(  15) = (  0.3209310  0.3105070  0.5000000  )
        16           Se  tau(  16) = (  0.8209310  0.6894930  0.0000000  )

     number of k points=     8
                       cart. coord. in units 2pi/alat
        k(    1) = (   0.0000000   0.0000000   0.0000000), wk =   0.0740741
        k(    2) = (   0.0000000   0.0000000   0.2813983), wk =   0.1481481
        k(    3) = (   0.0000000   0.3184259   0.0000000), wk =   0.1481481
        k(    4) = (   0.0000000   0.3184259   0.2813983), wk =   0.2962963
        k(    5) = (   0.3333333   0.0000000   0.0000000), wk =   0.1481481
        k(    6) = (   0.3333333   0.0000000   0.2813983), wk =   0.2962963
        k(    7) = (   0.3333333   0.3184259   0.0000000), wk =   0.2962963
        k(    8) = (   0.3333333   0.3184259   0.2813983), wk =   0.5925926

                       cryst. coord.
        k(    1) = (   0.0000000   0.0000000   0.0000000), wk =   0.0740741
        k(    2) = (   0.0000000   0.0000000   0.3333333), wk =   0.1481481
        k(    3) = (   0.0000000   0.3333333   0.0000000), wk =   0.1481481
        k(    4) = (   0.0000000   0.3333333   0.3333333), wk =   0.2962963
        k(    5) = (   0.3333333   0.0000000   0.0000000), wk =   0.1481481
        k(    6) = (   0.3333333   0.0000000   0.3333333), wk =   0.2962963
        k(    7) = (   0.3333333   0.3333333   0.0000000), wk =   0.2962963
        k(    8) = (   0.3333333   0.3333333   0.3333333), wk =   0.5925926

     Initial potential from superposition of free atoms

     starting charge     171.9974, renormalised to     172.0000
     Starting wfcs are  100 randomized atomic wfcs +  156 random wfcs

     Self-consistent Calculation

     iteration #  1     ecut=    30.00 Ry     beta= 0.70
     Davidson diagonalization with overlap

     ethr =  1.00E-02,  avg # of iterations =  7.5

     Threshold (ethr) on eigenvalues was too large:
     Diagonalizing with lowered threshold

     Davidson diagonalization with overlap

[...]

     total energy              =   -2099.28301848 Ry
     estimated scf accuracy    <       0.79592799 Ry

[...]

     total energy              =   -2099.56588144 Ry
     estimated scf accuracy    <       0.00000126 Ry

     iteration #  9     ecut=    30.00 Ry     beta= 0.70
     Davidson diagonalization with overlap

     ethr =  7.30E-10,  avg # of iterations =  2.0

     End of self-consistent calculation

          k = 0.0000 0.0000 0.0000 (  7791 PWs)   bands (ev):

   -85.4432 -85.4432 -85.4432 -85.4432 -85.4086 -85.4086 -48.5032 -48.5029
   -48.5028 -48.5018 -48.5014 -48.5013 -48.5009 -48.5009 -48.4762 -48.4757
   -48.4708 -48.4699 -48.4689 -48.4680 -48.4501 -48.4479 -48.4391 -48.4379
    -8.2159  -8.0782  -6.2546  -6.2451  -6.1701  -6.1565  -6.1358  -6.0749
    -2.8705  -2.5371   0.9972   1.2223   1.2649   1.3808   1.4928   1.5177
     2.4210   2.4537   2.4668   2.5188   2.5656   2.5798   2.5980   2.6293
     2.7362   2.7884   2.8446   2.8516   2.9448   2.9570   3.0199   3.0916
     3.2289   3.3541   3.3581   3.3660   3.3725   3.3794   3.4007   3.4074
     3.5200   3.6786   3.6843   3.7604   3.7905   3.8033   3.9305   4.1142
     4.1344   4.3947   4.6389   4.7587   4.8554   5.2102   5.2708   5.6683
     5.9119   6.2047   6.4338   6.4354   6.6439   6.7452   6.8933   8.0391
     8.5597   8.9525   9.0220   9.2342   9.6727   9.9202   9.9482  10.9743
    10.9849  11.3958  11.4393  11.5159  11.5409  12.2659  12.5296  13.0632
    13.1698  13.3134  13.4176  13.7281  13.7848  13.9033  14.0672  14.3176
    14.3226  14.4266  14.5003  14.8022  15.4568  15.5754  15.5798  15.6602
    15.9911  16.4791  16.5046  16.6209  16.8842  16.8949  16.9707  17.0593
    17.1765  17.3759  17.5370  17.7968  17.9042  18.0704  18.1337  18.5496
    18.6711  18.7538  18.7840  18.9260  19.5435  19.7150  19.8255  20.0294
    20.1059  20.2036  20.5626  20.5685  20.6690  20.7646  21.1260  21.3336
    21.4181  21.5598  21.7391  21.8041  22.0338  22.1932  22.2276  22.6397
    22.6690  22.6877  23.0132  23.0985  23.2322  23.3777  23.3862  23.4036
    23.6432  23.8144  24.2271  24.2513  24.3229  24.8142  25.0007  25.0699
    25.1219  25.2526  25.2627  25.7439  25.7532  25.8656  25.9167  26.1139
    26.2283  26.3354  26.4469  26.4880  26.6880  26.9779  27.1193  27.1460
    27.3256  27.5633  27.6578  27.7594  27.8235  27.9389  27.9837  27.9957
    28.0490  28.0893  28.4630  28.6315  28.7175  28.9771  29.1935  29.2845
    29.4104  29.7115  29.8717  29.9647  30.0235  30.1278  30.2171  30.3820
    30.4087  30.6142  30.6863  30.8663  31.0712  31.1418  31.2553  31.2671
    31.3283  31.7001  31.7583  31.9711  32.0037  32.0521  32.1830  32.1860
    32.1988  32.4594  32.5531  32.5550  32.7878  32.8661  32.8717  33.1239
    33.1767  33.1874  33.2700  33.2809  33.6891  33.8586  33.9132  34.0397
    34.0819  34.1327  34.4106  34.5410  34.6942  34.7942  34.8306  35.0747

     occupation numbers
     1.0000   1.0000   1.0000   1.0000   1.0000   1.0000   1.0000   1.0000
     1.0000   1.0000   1.0000   1.0000   1.0000   1.0000   1.0000   1.0000
     1.0000   1.0000   1.0000   1.0000   1.0000   1.0000   1.0000   1.0000
     1.0000   1.0000   1.0000   1.0000   1.0000   1.0000   1.0000   1.0000
     1.0000   1.0000   1.0000   1.0000   1.0000   1.0000   1.0000   1.0000
     1.0000   1.0000   1.0000   1.0000   1.0000   1.0000   1.0000   1.0000
     1.0000   1.0000   1.0000   1.0000   1.0000   1.0000   1.0000   1.0000
     1.0000   1.0000   1.0000   1.0000   1.0000   1.0000   1.0000   1.0000
     1.0000   1.0000   1.0000   1.0000   1.0000   1.0000   1.0000   1.0000
     1.0000   1.0000   1.0000   1.0000   1.0000   1.0000   1.0000   1.0000
     1.0000   1.0000   1.0000   1.0000   1.0000   1.0000   0.0000   0.0000
     0.0000   0.0000   0.0000   0.0000   0.0000   0.0000   0.0000   0.0000
     0.0000   0.0000   0.0000   0.0000   0.0000   0.0000   0.0000   0.0000
     0.0000   0.0000   0.0000   0.0000   0.0000   0.0000   0.0000   0.0000
     0.0000   0.0000   0.0000   0.0000   0.0000   0.0000   0.0000   0.0000
     0.0000   0.0000   0.0000   0.0000   0.0000   0.0000   0.0000   0.0000
     0.0000   0.0000   0.0000   0.0000   0.0000   0.0000   0.0000   0.0000
     0.0000   0.0000   0.0000   0.0000   0.0000   0.0000   0.0000   0.0000
     0.0000   0.0000   0.0000   0.0000   0.0000   0.0000   0.0000   0.0000
     0.0000   0.0000   0.0000   0.0000   0.0000   0.0000   0.0000   0.0000
     0.0000   0.0000   0.0000   0.0000   0.0000   0.0000   0.0000   0.0000
     0.0000   0.0000   0.0000   0.0000   0.0000   0.0000   0.0000   0.0000
     0.0000   0.0000   0.0000   0.0000   0.0000   0.0000   0.0000   0.0000
     0.0000   0.0000   0.0000   0.0000   0.0000   0.0000   0.0000   0.0000
     0.0000   0.0000   0.0000   0.0000   0.0000   0.0000   0.0000   0.0000
     0.0000   0.0000   0.0000   0.0000   0.0000   0.0000   0.0000   0.0000
     0.0000   0.0000   0.0000   0.0000   0.0000   0.0000   0.0000   0.0000
     0.0000   0.0000   0.0000   0.0000   0.0000   0.0000   0.0000   0.0000
     0.0000   0.0000   0.0000   0.0000   0.0000   0.0000   0.0000   0.0000
     0.0000   0.0000   0.0000   0.0000   0.0000   0.0000   0.0000   0.0000
     0.0000   0.0000   0.0000   0.0000   0.0000   0.0000   0.0000   0.0000
     0.0000   0.0000   0.0000   0.0000   0.0000   0.0000   0.0000   0.0000

[...]

          k = 0.3333 0.3184 0.2814 (  7749 PWs)   bands (ev):

   -85.4432 -85.4432 -85.4432 -85.4432 -85.4086 -85.4086 -48.5023 -48.5018
   -48.5011 -48.5005 -48.5001 -48.4994 -48.4988 -48.4978 -48.4760 -48.4755
   -48.4697 -48.4697 -48.4688 -48.4686 -48.4478 -48.4470 -48.4372 -48.4362
    -8.1191  -8.0987  -6.2832  -6.2520  -6.2310  -6.1809  -6.1548  -6.1357
    -2.6252  -2.5802   1.1994   1.2184   1.3098   1.3280   1.4095   1.4534
     2.3516   2.3949   2.4865   2.5123   2.5902   2.6087   2.6404   2.6668
     2.7207   2.7285   2.7810   2.8250   2.8330   2.8934   3.0378   3.0660
     3.2306   3.2717   3.3603   3.3833   3.3926   3.4143   3.4471   3.4594
     3.4718   3.5269   3.5845   3.6151   3.8380   3.9255   4.1635   4.3090
     4.4380   4.4881   4.7724   4.8488   5.1954   5.3095   5.4075   5.5555
     5.7243   5.7499   5.9569   6.1140   6.2710   6.3190   8.0822   8.2413
     8.9720   9.0857   9.3754   9.4371   9.5867   9.7775  10.5945  11.0764
    11.1411  11.2200  11.4360  11.5869  11.8823  12.1425  12.3620  12.4730
    12.6381  12.8328  13.0087  13.3163  13.4264  13.6886  13.8430  14.0378
    14.2685  14.5049  14.6349  14.6927  14.9025  15.1253  15.4250  15.5199
    15.7364  16.2292  16.3074  16.5849  16.7747  17.0234  17.1410  17.2601
    17.3516  17.5670  17.7280  17.8668  18.2057  18.3119  18.4809  18.7551
    18.9555  19.1591  19.4442  19.5667  19.7592  19.8459  20.0582  20.1746
    20.3522  20.4282  20.6852  20.8517  20.8988  21.0414  21.1877  21.3453
    21.5718  21.6963  21.7922  22.1052  22.1478  22.3008  22.4155  22.6033
    22.7019  22.8965  23.0255  23.1819  23.3890  23.5196  23.5711  23.7385
    23.8425  23.9871  24.1834  24.2728  24.3441  24.5214  24.6786  24.7972
    24.9148  25.0405  25.1947  25.3368  25.4668  25.6334  25.7129  25.8565
    26.0640  26.2698  26.3112  26.4468  26.5882  26.7021  26.7591  26.9540
    27.0710  27.3456  27.3953  27.5033  27.5873  27.7567  27.9221  28.1062
    28.1441  28.3857  28.4519  28.5064  28.6074  28.7956  28.9809  29.0910
    29.2479  29.4109  29.4623  29.6657  29.7963  29.9031  30.0226  30.2514
    30.3934  30.4582  30.5828  30.7179  30.8223  30.9003  30.9657  31.1143
    31.3212  31.4217  31.5103  31.6308  31.7130  31.7348  31.9419  31.9718
    32.2186  32.3258  32.3672  32.5145  32.7352  32.8541  32.9278  33.0724
    33.2463  33.4348  33.5464  33.6310  33.8555  33.9645  34.0442  34.1899
    34.3508  34.4256  34.4927  34.5749  34.7677  34.9308  34.9450  35.0631

     occupation numbers
     1.0000   1.0000   1.0000   1.0000   1.0000   1.0000   1.0000   1.0000
     1.0000   1.0000   1.0000   1.0000   1.0000   1.0000   1.0000   1.0000
     1.0000   1.0000   1.0000   1.0000   1.0000   1.0000   1.0000   1.0000
     1.0000   1.0000   1.0000   1.0000   1.0000   1.0000   1.0000   1.0000
     1.0000   1.0000   1.0000   1.0000   1.0000   1.0000   1.0000   1.0000
     1.0000   1.0000   1.0000   1.0000   1.0000   1.0000   1.0000   1.0000
     1.0000   1.0000   1.0000   1.0000   1.0000   1.0000   1.0000   1.0000
     1.0000   1.0000   1.0000   1.0000   1.0000   1.0000   1.0000   1.0000
     1.0000   1.0000   1.0000   1.0000   1.0000   1.0000   1.0000   1.0000
     1.0000   1.0000   1.0000   1.0000   1.0000   1.0000   1.0000   1.0000
     1.0000   1.0000   1.0000   1.0000   1.0000   1.0000   0.0000   0.0000
     0.0000   0.0000   0.0000   0.0000   0.0000   0.0000   0.0000   0.0000
     0.0000   0.0000   0.0000   0.0000   0.0000   0.0000   0.0000   0.0000
     0.0000   0.0000   0.0000   0.0000   0.0000   0.0000   0.0000   0.0000
     0.0000   0.0000   0.0000   0.0000   0.0000   0.0000   0.0000   0.0000
     0.0000   0.0000   0.0000   0.0000   0.0000   0.0000   0.0000   0.0000
     0.0000   0.0000   0.0000   0.0000   0.0000   0.0000   0.0000   0.0000
     0.0000   0.0000   0.0000   0.0000   0.0000   0.0000   0.0000   0.0000
     0.0000   0.0000   0.0000   0.0000   0.0000   0.0000   0.0000   0.0000
     0.0000   0.0000   0.0000   0.0000   0.0000   0.0000   0.0000   0.0000
     0.0000   0.0000   0.0000   0.0000   0.0000   0.0000   0.0000   0.0000
     0.0000   0.0000   0.0000   0.0000   0.0000   0.0000   0.0000   0.0000
     0.0000   0.0000   0.0000   0.0000   0.0000   0.0000   0.0000   0.0000
     0.0000   0.0000   0.0000   0.0000   0.0000   0.0000   0.0000   0.0000
     0.0000   0.0000   0.0000   0.0000   0.0000   0.0000   0.0000   0.0000
     0.0000   0.0000   0.0000   0.0000   0.0000   0.0000   0.0000   0.0000
     0.0000   0.0000   0.0000   0.0000   0.0000   0.0000   0.0000   0.0000
     0.0000   0.0000   0.0000   0.0000   0.0000   0.0000   0.0000   0.0000
     0.0000   0.0000   0.0000   0.0000   0.0000   0.0000   0.0000   0.0000
     0.0000   0.0000   0.0000   0.0000   0.0000   0.0000   0.0000   0.0000
     0.0000   0.0000   0.0000   0.0000   0.0000   0.0000   0.0000   0.0000
     0.0000   0.0000   0.0000   0.0000   0.0000   0.0000   0.0000   0.0000

     highest occupied, lowest unoccupied level (ev):     6.7452    6.8933

!    total energy              =   -2099.56588164 Ry
     estimated scf accuracy    <       0.00000020 Ry

     The total energy is the sum of the following terms:
     one-electron contribution =   -1279.01874776 Ry
     hartree contribution      =     682.32158826 Ry
     xc contribution           =    -408.51055374 Ry
     ewald contribution        =   -1094.35816839 Ry

     convergence has been achieved in   9 iterations

     Writing all to output data dir bands_nm/myprefix.save/

     General routines

     Parallel routines

   This run was terminated on:  21:53:25  15Jul2023

   JOB DONE.