     Program PWSCF v.7.1 starts on 13Jul2023 at  7:43:40

     Reading input from espresso_3209.pwi
Warning: card &CELL ignored
Warning: card / ignored

     Current dimensions of program PWSCF are:
     Max number of different atomic species (ntypx) = 10
     Max number of k-points (npk) =  40000
     Max angular momentum in pseudopotentials (lmaxx) =  4
     file O.pbe-n-kjpaw_psl.0.1.UPF: wavefunction(s)  2P renormalized
     Message from routine setup:
     using ibrav=0 with symmetry is DISCOURAGED, use correct ibrav instead

     K-points division:     npool     =       2
     R & G space division:  proc/nbgrp/npool/nimage =       8
     Subspace diagonalization in iterative solution of the eigenvalue problem:
     a serial algorithm will be used

     Using Slab Decomposition

     bravais-lattice index     =            0
     lattice parameter (alat)  =       6.8975  a.u.
     unit-cell volume          =    1073.2260 (a.u.)^3
     number of atoms/cell      =           10
     number of atomic types    =            3
     number of electrons       =       102.00
     number of Kohn-Sham states=           64
     kinetic-energy cutoff     =      30.0000  Ry
     charge density cutoff     =     240.0000  Ry
     scf convergence threshold =      1.0E-06
     mixing beta               =       0.7000
     number of iterations used =            8  plain     mixing
     Exchange-correlation= SLA  PW   PBX  PBC
                           (   1   4   3   4   0   0   0)

     celldm(1)=   6.897508  celldm(2)=   0.000000  celldm(3)=   0.000000
     celldm(4)=   0.000000  celldm(5)=   0.000000  celldm(6)=   0.000000

     crystal axes: (cart. coord. in units of alat)
               a(1) = (   1.000000   0.000000   0.000000 )
               a(2) = (  -0.068168   1.387969   0.000000 )
               a(3) = (  -0.483310  -0.139339   2.356323 )

     reciprocal axes: (cart. coord. in units 2 pi/alat)
               b(1) = (  1.000000  0.049114  0.208016 )
               b(2) = (  0.000000  0.720477  0.042605 )
               b(3) = (  0.000000  0.000000  0.424390 )

     PseudoPot. # 1 for V  read from file:
     /lustre07/scratch/pragov/crystal_structure_design/utils/SSSP/v_pbe_v1.4.uspp.F.UPF
     MD5 check sum: 22b79981416ebb76fdaf5b1b8640f6fb
     Pseudo is Ultrasoft + core correction, Zval = 13.0
     Generated by new atomic code, or converted to UPF format
     Using radial grid of  853 points,  6 beta functions with:
                l(1) =   0
                l(2) =   0
                l(3) =   1
                l(4) =   1
                l(5) =   2
                l(6) =   2
     Q(r) pseudized with  8 coefficients,  rinner =    1.100   1.100   1.100
                                                       1.100   1.100

     PseudoPot. # 2 for Hg read from file:
     /lustre07/scratch/pragov/crystal_structure_design/utils/SSSP/Hg_ONCV_PBE-1.0.oncvpsp.upf
     MD5 check sum: dd5a8773074bfcf4280086d4d95875c4
     Pseudo is Norm-conserving, Zval = 20.0
     Generated using ONCVPSP code by D. R. Hamann
     Using radial grid of 1262 points,  8 beta functions with:
                l(1) =   0
                l(2) =   0
                l(3) =   1
                l(4) =   1
                l(5) =   2
                l(6) =   2
                l(7) =   3
                l(8) =   3

     PseudoPot. # 3 for O  read from file:
     /lustre07/scratch/pragov/crystal_structure_design/utils/SSSP/O.pbe-n-kjpaw_psl.0.1.UPF
     MD5 check sum: 0234752ac141de4415c5fc33072bef88
     Pseudo is Projector augmented-wave + core cor, Zval =  6.0
     Generated using "atomic" code by A. Dal Corso  v.5.0.99 svn rev. 10869
     Shape of augmentation charge: BESSEL
     Using radial grid of 1095 points,  4 beta functions with:
                l(1) =   0
                l(2) =   0
                l(3) =   1
                l(4) =   1
     Q(r) pseudized with 0 coefficients

     atomic species   valence    mass     pseudopotential
        V             13.00    50.94150     V ( 1.00)
        Hg            20.00   200.59200     Hg( 1.00)
        O              6.00    15.99900     O ( 1.00)

      2 Sym. Ops., with inversion, found

                                    s                        frac. trans.

      isym =  1     identity

 cryst.   s( 1) = (     1          0          0      )
                  (     0          1          0      )
                  (     0          0          1      )

 cart.    s( 1) = (  1.0000000  0.0000000  0.0000000 )
                  (  0.0000000  1.0000000  0.0000000 )
                  (  0.0000000  0.0000000  1.0000000 )

      isym =  2     inversion

 cryst.   s( 2) = (    -1          0          0      )
                  (     0         -1          0      )
                  (     0          0         -1      )

 cart.    s( 2) = ( -1.0000000  0.0000000  0.0000000 )
                  (  0.0000000 -1.0000000  0.0000000 )
                  (  0.0000000  0.0000000 -1.0000000 )

   Cartesian axes

     site n.     atom                  positions (alat units)
         1           V   tau(   1) = (   0.2310666   0.4189874   2.0339306  )
         2           V   tau(   2) = (   0.2174554   0.8296427   0.3223921  )
         3           Hg  tau(   3) = (  -0.0700678   0.1884482   1.0003909  )
         4           Hg  tau(   4) = (   0.5185898   1.0601820   1.3559317  )
         5           O   tau(   5) = (   0.2369117   0.5990055   1.5873862  )
         6           O   tau(   6) = (   0.2116103   0.6496246   0.7689364  )
         7           O   tau(   7) = (   0.2318969  -0.0265812   1.9773882  )
         8           O   tau(   8) = (   0.2166251   1.2752114   0.3789344  )
         9           O   tau(   9) = (  -0.2681672   0.5382948   2.1470812  )
        10           O   tau(  10) = (   0.7166892   0.7103353   0.2092414  )

   Crystallographic axes

     site n.     atom                  positions (cryst. coord.)
         1           V   tau(   1) = (  0.6747350  0.3885260  0.8631800  )
         2           V   tau(   2) = (  0.3252650  0.6114740  0.1368200  )
         3           Hg  tau(   3) = (  0.1472850  0.1783940  0.4245560  )
         4           Hg  tau(   4) = (  0.8527150  0.8216060  0.5754440  )
         5           O   tau(   5) = (  0.5965330  0.4992000  0.6736710  )
         6           O   tau(   6) = (  0.4034670  0.5008000  0.3263290  )
         7           O   tau(   7) = (  0.6419200  0.0650950  0.8391840  )
         8           O   tau(   8) = (  0.3580800  0.9349050  0.1608160  )
         9           O   tau(   9) = (  0.2048980  0.4793050  0.9112000  )
        10           O   tau(  10) = (  0.7951020  0.5206950  0.0888000  )

     number of k points=    14
                       cart. coord. in units 2pi/alat
        k(    1) = (   0.0000000   0.0000000   0.0000000), wk =   0.0740741
        k(    2) = (   0.0000000   0.0000000   0.1414634), wk =   0.1481481
        k(    3) = (   0.0000000   0.2401590   0.0142016), wk =   0.1481481
        k(    4) = (   0.0000000   0.2401590   0.1556650), wk =   0.1481481
        k(    5) = (   0.0000000   0.2401590  -0.1272618), wk =   0.1481481
        k(    6) = (   0.3333333   0.0163713   0.0693387), wk =   0.1481481
        k(    7) = (   0.3333333   0.0163713   0.2108021), wk =   0.1481481
        k(    8) = (   0.3333333   0.0163713  -0.0721247), wk =   0.1481481
        k(    9) = (   0.3333333   0.2565303   0.0835403), wk =   0.1481481
        k(   10) = (   0.3333333   0.2565303   0.2250037), wk =   0.1481481
        k(   11) = (   0.3333333   0.2565303  -0.0579231), wk =   0.1481481
        k(   12) = (   0.3333333  -0.2237878   0.0551371), wk =   0.1481481
        k(   13) = (   0.3333333  -0.2237878   0.1966005), wk =   0.1481481
        k(   14) = (   0.3333333  -0.2237878  -0.0863263), wk =   0.1481481

                       cryst. coord.
        k(    1) = (   0.0000000   0.0000000   0.0000000), wk =   0.0740741
        k(    2) = (   0.0000000   0.0000000   0.3333333), wk =   0.1481481
        k(    3) = (   0.0000000   0.3333333   0.0000000), wk =   0.1481481
        k(    4) = (   0.0000000   0.3333333   0.3333333), wk =   0.1481481
        k(    5) = (   0.0000000   0.3333333  -0.3333333), wk =   0.1481481
        k(    6) = (   0.3333333   0.0000000   0.0000000), wk =   0.1481481
        k(    7) = (   0.3333333   0.0000000   0.3333333), wk =   0.1481481
        k(    8) = (   0.3333333   0.0000000  -0.3333333), wk =   0.1481481
        k(    9) = (   0.3333333   0.3333333   0.0000000), wk =   0.1481481
        k(   10) = (   0.3333333   0.3333333   0.3333333), wk =   0.1481481
        k(   11) = (   0.3333333   0.3333333  -0.3333333), wk =   0.1481481
        k(   12) = (   0.3333333  -0.3333333   0.0000000), wk =   0.1481481
        k(   13) = (   0.3333333  -0.3333333   0.3333333), wk =   0.1481481
        k(   14) = (   0.3333333  -0.3333333  -0.3333333), wk =   0.1481481

     Check: negative core charge=   -0.000013

     Initial potential from superposition of free atoms

     starting charge     101.9974, renormalised to     102.0000

     negative rho (up, down):  1.227E-03 0.000E+00
     Starting wfcs are   64 randomized atomic wfcs
     Checking if some PAW data can be deallocated...

     Self-consistent Calculation

     iteration #  1     ecut=    30.00 Ry     beta= 0.70
     Davidson diagonalization with overlap

     ethr =  1.00E-02,  avg # of iterations =  6.7

     negative rho (up, down):  5.764E-03 0.000E+00

     total energy              =   -1157.39941756 Ry
     estimated scf accuracy    <       4.29179927 Ry

[...]

     total energy              =   -1160.01131016 Ry
     estimated scf accuracy    <       0.00001768 Ry

     iteration # 11     ecut=    30.00 Ry     beta= 0.70
     Davidson diagonalization with overlap

     ethr =  1.73E-08,  avg # of iterations =  2.1

     negative rho (up, down):  2.968E-03 0.000E+00

     End of self-consistent calculation

          k = 0.0000 0.0000 0.0000 (  2965 PWs)   bands (ev):

  -108.2013-108.1954 -58.0866 -58.0765 -56.2289 -56.1004 -56.0195 -56.0138
   -55.9577 -55.9514 -32.0423 -32.0031 -31.9723 -31.9264 -31.9181 -31.8814
   -11.6879 -10.5965 -10.5570 -10.4425  -9.9761  -9.9118  -0.4823   0.3101
     0.6416   0.9022   1.0936   1.1411   1.4101   1.5047   1.5159   1.5577
     1.5706   1.7722   2.1652   2.9090   3.4158   3.5459   3.6030   3.7823
     3.8031   4.0675   4.2913   4.3368   4.4438   4.6484   4.6958   4.8844
     5.0551   5.4543   5.5070   8.4757   8.7734   9.3845   9.5714   9.9905
    10.0430  10.2532  10.6346  10.8438  11.1575  11.3177  12.5992  12.6322

     occupation numbers
     1.0000   1.0000   1.0000   1.0000   1.0000   1.0000   1.0000   1.0000
     1.0000   1.0000   1.0000   1.0000   1.0000   1.0000   1.0000   1.0000
     1.0000   1.0000   1.0000   1.0000   1.0000   1.0000   1.0000   1.0000
     1.0000   1.0000   1.0000   1.0000   1.0000   1.0000   1.0000   1.0000
     1.0000   1.0000   1.0000   1.0000   1.0000   1.0000   1.0000   1.0000
     1.0000   1.0000   1.0000   1.0000   1.0000   1.0000   1.0000   1.0000
     1.0000   1.0000   1.0000   0.0000   0.0000   0.0000   0.0000   0.0000
     0.0000   0.0000   0.0000   0.0000   0.0000   0.0000   0.0000   0.0000

[...]

          k = 0.3333-0.2238-0.0863 (  2967 PWs)   bands (ev):

  -108.2012-108.1954 -58.0830 -58.0779 -56.2265 -56.0993 -56.0328 -56.0175
   -55.9595 -55.9431 -32.0333 -32.0074 -31.9765 -31.9697 -31.9167 -31.9006
   -11.1530 -10.5479 -10.4796 -10.4043  -9.9539  -9.9095  -0.5210   0.5066
     0.6636   0.9758   1.0472   1.0845   1.2563   1.2943   1.5237   1.5984
     1.6308   2.0682   2.3502   2.5980   2.7144   3.0854   3.3471   3.4422
     3.5595   3.7937   3.9640   4.1858   4.4896   4.8795   5.1252   5.3761
     5.5497   5.6981   5.7412   8.2797   8.6348   9.0912   9.3106   9.5282
     9.9894  10.2804  10.6773  11.0618  11.3796  11.5796  11.8922  12.2047

     occupation numbers
     1.0000   1.0000   1.0000   1.0000   1.0000   1.0000   1.0000   1.0000
     1.0000   1.0000   1.0000   1.0000   1.0000   1.0000   1.0000   1.0000
     1.0000   1.0000   1.0000   1.0000   1.0000   1.0000   1.0000   1.0000
     1.0000   1.0000   1.0000   1.0000   1.0000   1.0000   1.0000   1.0000
     1.0000   1.0000   1.0000   1.0000   1.0000   1.0000   1.0000   1.0000
     1.0000   1.0000   1.0000   1.0000   1.0000   1.0000   1.0000   1.0000
     1.0000   1.0000   1.0000   0.0000   0.0000   0.0000   0.0000   0.0000
     0.0000   0.0000   0.0000   0.0000   0.0000   0.0000   0.0000   0.0000

     highest occupied, lowest unoccupied level (ev):     5.9018    8.2618

!    total energy              =   -1160.01131197 Ry
     estimated scf accuracy    <       0.00000097 Ry

     The total energy is the sum of the following terms:
     one-electron contribution =    -663.60393175 Ry
     hartree contribution      =     356.56648156 Ry
     xc contribution           =    -137.94207783 Ry
     ewald contribution        =    -657.84181093 Ry
     one-center paw contrib.   =     -57.18997303 Ry
      -> PAW hartree energy AE =       0.00000000 Ry
      -> PAW hartree energy PS =       0.00000000 Ry
      -> PAW xc energy AE      =       0.00000000 Ry
      -> PAW xc energy PS      =       0.00000000 Ry
      -> total E_H with PAW    =     356.56648156 Ry
      -> total E_XC with PAW   =    -137.94207783 Ry

     convergence has been achieved in  11 iterations

     Writing all to output data dir bands_nm/myprefix.save/

     General routines

     Parallel routines

     PAW routines

   This run was terminated on:   7:43:54  13Jul2023

   JOB DONE.