     Program PWSCF v.7.1 starts on 16Jul2023 at 15: 6: 6

     Reading input from espresso_3649.pwi
Warning: card &CELL ignored
Warning: card / ignored

     Current dimensions of program PWSCF are:
     Max number of different atomic species (ntypx) = 10
     Max number of k-points (npk) =  40000
     Max angular momentum in pseudopotentials (lmaxx) =  4
     file Gd.paw.z_18.atompaw.wentzcovitch.v1.2.upf: wavefunction(s)  6S 0P 5D 0D 4F 0F renormalized
     file O.pbe-n-kjpaw_psl.0.1.UPF: wavefunction(s)  2P renormalized
     Message from routine setup:
     using ibrav=0 with symmetry is DISCOURAGED, use correct ibrav instead

     K-points division:     npool     =       2
     R & G space division:  proc/nbgrp/npool/nimage =       4
     Subspace diagonalization in iterative solution of the eigenvalue problem:
     a serial algorithm will be used

     Using Slab Decomposition

     bravais-lattice index     =            0
     lattice parameter (alat)  =      19.7799  a.u.
     unit-cell volume          =     924.8458 (a.u.)^3
     number of atoms/cell      =            8
     number of atomic types    =            4
     number of electrons       =        98.00
     number of Kohn-Sham states=           64
     kinetic-energy cutoff     =      30.0000  Ry
     charge density cutoff     =     240.0000  Ry
     scf convergence threshold =      1.0E-06
     mixing beta               =       0.7000
     number of iterations used =            8  plain     mixing
     Exchange-correlation= SLA  PW   PBX  PBC
                           (   1   4   3   4   0   0   0)

     celldm(1)=  19.779947  celldm(2)=   0.000000  celldm(3)=   0.000000
     celldm(4)=   0.000000  celldm(5)=   0.000000  celldm(6)=   0.000000

     crystal axes: (cart. coord. in units of alat)
               a(1) = (   1.000000   0.000000   0.000000 )
               a(2) = (   0.929317   0.369283   0.000000 )
               a(3) = (   0.929317   0.177877   0.323620 )

     reciprocal axes: (cart. coord. in units 2 pi/alat)
               b(1) = (  1.000000 -2.516545 -1.488420 )
               b(2) = (  0.000000  2.707951 -1.488420 )
               b(3) = (  0.000000  0.000000  3.090047 )

     PseudoPot. # 1 for Gd read from file:
     /lustre07/scratch/pragov/crystal_structure_design/utils/SSSP/Gd.paw.z_18.atompaw.wentzcovitch.v1.2.upf
     MD5 check sum: a44f32af2ba180e1a67c5cef9ff7f39b
     Pseudo is Projector augmented-wave + core cor, Zval = 18.0
     Generated using ATOMPAW code
     Shape of augmentation charge: BESSEL
     Using radial grid of 1110 points,  8 beta functions with:
                l(1) =   0
                l(2) =   0
                l(3) =   1
                l(4) =   1
                l(5) =   2
                l(6) =   2
                l(7) =   3
                l(8) =   3
     Q(r) pseudized with 0 coefficients

     PseudoPot. # 2 for Zn read from file:
     /lustre07/scratch/pragov/crystal_structure_design/utils/SSSP/Zn_pbe_v1.uspp.F.UPF
     MD5 check sum: df62231357ef9e81f77b2b3087fa5675
     Pseudo is Ultrasoft, Zval = 20.0
     Generated by new atomic code, or converted to UPF format
     Using radial grid of  943 points,  6 beta functions with:
                l(1) =   0
                l(2) =   0
                l(3) =   1
                l(4) =   1
                l(5) =   2
                l(6) =   2
     Q(r) pseudized with  8 coefficients,  rinner =    1.100   1.100   1.100
                                                       1.100   1.100

     PseudoPot. # 3 for P  read from file:
     /lustre07/scratch/pragov/crystal_structure_design/utils/SSSP/P.pbe-n-rrkjus_psl.1.0.0.UPF
     MD5 check sum: 8b930f418f0a4573dca56cd030ffe088
     Pseudo is Ultrasoft + core correction, Zval =  5.0
     Generated using "atomic" code by A. Dal Corso  v.5.1
     Using radial grid of 1147 points,  6 beta functions with:
                l(1) =   0
                l(2) =   0
                l(3) =   1
                l(4) =   1
                l(5) =   2
                l(6) =   2
     Q(r) pseudized with 0 coefficients

     PseudoPot. # 4 for O  read from file:
     /lustre07/scratch/pragov/crystal_structure_design/utils/SSSP/O.pbe-n-kjpaw_psl.0.1.UPF
     MD5 check sum: 0234752ac141de4415c5fc33072bef88
     Pseudo is Projector augmented-wave + core cor, Zval =  6.0
     Generated using "atomic" code by A. Dal Corso  v.5.0.99 svn rev. 10869
     Shape of augmentation charge: BESSEL
     Using radial grid of 1095 points,  4 beta functions with:
                l(1) =   0
                l(2) =   0
                l(3) =   1
                l(4) =   1
     Q(r) pseudized with 0 coefficients

     atomic species   valence    mass     pseudopotential
        Gd            18.00   157.25000     Gd( 1.00)
        Zn            20.00    65.38000     Zn( 1.00)
        P              5.00    30.97376     P ( 1.00)
        O              6.00    15.99900     O ( 1.00)

      2 Sym. Ops., with inversion, found

                                    s                        frac. trans.

      isym =  1     identity

 cryst.   s( 1) = (     1          0          0      )
                  (     0          1          0      )
                  (     0          0          1      )

 cart.    s( 1) = (  1.0000000  0.0000000 -0.0000000 )
                  (  0.0000000  1.0000000  0.0000000 )
                  (  0.0000000  0.0000000  1.0000000 )

      isym =  2     inversion

 cryst.   s( 2) = (    -1          0          0      )
                  (     0         -1          0      )
                  (     0          0         -1      )

 cart.    s( 2) = ( -1.0000000  0.0000000  0.0000000 )
                  (  0.0000000 -1.0000000  0.0000000 )
                  (  0.0000000  0.0000000 -1.0000000 )

   Cartesian axes

     site n.     atom                  positions (alat units)
         1           Gd  tau(   1) = (   1.7712611   0.3390300   0.2005205  )
         2           Gd  tau(   2) = (   1.0873730   0.2081297   0.1230991  )
         3           Zn  tau(   3) = (   0.5610870   0.1073954   0.0635194  )
         4           Zn  tau(   4) = (   2.2975471   0.4397643   0.2601002  )
         5           P   tau(   5) = (   2.5370835   0.4856130   0.2872176  )
         6           P   tau(   6) = (   0.3215506   0.0615467   0.0364020  )
         7           O   tau(   7) = (   0.8727181   0.1670435   0.0987985  )
         8           O   tau(   8) = (   1.9859160   0.3801162   0.2248211  )

   Crystallographic axes

     site n.     atom                  positions (cryst. coord.)
         1           Gd  tau(   1) = (  0.6196180  0.6196180  0.6196180  )
         2           Gd  tau(   2) = (  0.3803820  0.3803820  0.3803820  )
         3           Zn  tau(   3) = (  0.1962780  0.1962780  0.1962780  )
         4           Zn  tau(   4) = (  0.8037220  0.8037220  0.8037220  )
         5           P   tau(   5) = (  0.8875160  0.8875160  0.8875160  )
         6           P   tau(   6) = (  0.1124840  0.1124840  0.1124840  )
         7           O   tau(   7) = (  0.3052920  0.3052920  0.3052920  )
         8           O   tau(   8) = (  0.6947080  0.6947080  0.6947080  )

     number of k points=    14
                       cart. coord. in units 2pi/alat
        k(    1) = (   0.0000000   0.0000000   0.0000000), wk =   0.0740741
        k(    2) = (   0.0000000   0.0000000   1.0300158), wk =   0.1481481
        k(    3) = (   0.0000000   0.9026504  -0.4961400), wk =   0.1481481
        k(    4) = (   0.0000000   0.9026504   0.5338759), wk =   0.1481481
        k(    5) = (   0.0000000   0.9026504  -1.5261558), wk =   0.1481481
        k(    6) = (   0.3333333  -0.8388484  -0.4961400), wk =   0.1481481
        k(    7) = (   0.3333333  -0.8388484   0.5338759), wk =   0.1481481
        k(    8) = (   0.3333333  -0.8388484  -1.5261558), wk =   0.1481481
        k(    9) = (   0.3333333   0.0638020  -0.9922799), wk =   0.1481481
        k(   10) = (   0.3333333   0.0638020   0.0377359), wk =   0.1481481
        k(   11) = (   0.3333333   0.0638020  -2.0222957), wk =   0.1481481
        k(   12) = (   0.3333333  -1.7414989   0.0000000), wk =   0.1481481
        k(   13) = (   0.3333333  -1.7414989   1.0300158), wk =   0.1481481
        k(   14) = (   0.3333333  -1.7414989  -1.0300158), wk =   0.1481481

                       cryst. coord.
        k(    1) = (   0.0000000   0.0000000   0.0000000), wk =   0.0740741
        k(    2) = (   0.0000000   0.0000000   0.3333333), wk =   0.1481481
        k(    3) = (   0.0000000   0.3333333   0.0000000), wk =   0.1481481
        k(    4) = (   0.0000000   0.3333333   0.3333333), wk =   0.1481481
        k(    5) = (   0.0000000   0.3333333  -0.3333333), wk =   0.1481481
        k(    6) = (   0.3333333   0.0000000   0.0000000), wk =   0.1481481
        k(    7) = (   0.3333333   0.0000000   0.3333333), wk =   0.1481481
        k(    8) = (   0.3333333   0.0000000  -0.3333333), wk =   0.1481481
        k(    9) = (   0.3333333   0.3333333   0.0000000), wk =   0.1481481
        k(   10) = (   0.3333333   0.3333333   0.3333333), wk =   0.1481481
        k(   11) = (   0.3333333   0.3333333  -0.3333333), wk =   0.1481481
        k(   12) = (   0.3333333  -0.3333333  -0.0000000), wk =   0.1481481
        k(   13) = (   0.3333333  -0.3333333   0.3333333), wk =   0.1481481
        k(   14) = (   0.3333333  -0.3333333  -0.3333333), wk =   0.1481481

     Check: negative core charge=   -0.000005

     Initial potential from superposition of free atoms

     starting charge      97.9891, renormalised to      98.0000
     Starting wfcs are  106 randomized atomic wfcs
     Checking if some PAW data can be deallocated...

     Self-consistent Calculation

     iteration #  1     ecut=    30.00 Ry     beta= 0.70
     Davidson diagonalization with overlap

     ethr =  1.00E-02,  avg # of iterations =  2.6

     total energy              =   -2374.06821361 Ry
     estimated scf accuracy    <      27.83527142 Ry

[...]

     total energy              =   -2401.90951831 Ry
     estimated scf accuracy    <       0.00000367 Ry

     iteration # 98     ecut=    30.00 Ry     beta= 0.70
     Davidson diagonalization with overlap

     ethr =  2.51E-09,  avg # of iterations =  1.0

     End of self-consistent calculation

          k = 0.0000 0.0000 0.0000 (  2601 PWs)   bands (ev):

  -115.1202-115.1192 -69.2230 -69.2208 -69.2175 -69.2147 -69.2147 -69.2123
   -30.6994 -30.6581  -9.6148  -8.5944  -8.5500  -8.5406  -8.4586  -8.4500
    -6.4170  -5.9157  -0.4799   0.4331   3.6507   3.6540   3.7418   3.7447
     3.8999   3.9882   3.9920   4.1451   4.2598   4.2620   6.3685   7.1079
     7.1124   7.3582   7.5688   7.5722   8.1300  10.2636  10.3725  10.4031
    10.7750  10.8582  11.0505  11.1185  11.1480  11.1871  11.2462  11.2982
    11.3384  11.3602  11.4985  11.5046  11.5799  11.5807  11.7350  11.8267
    12.9607  13.6943  13.9799  14.8097  14.8150  15.1180  15.1222  16.3388

     occupation numbers
     1.0000   1.0000   1.0000   1.0000   1.0000   1.0000   1.0000   1.0000
     1.0000   1.0000   1.0000   1.0000   1.0000   1.0000   1.0000   1.0000
     1.0000   1.0000   1.0000   1.0000   1.0000   1.0000   1.0000   1.0000
     1.0000   1.0000   1.0000   1.0000   1.0000   1.0000   1.0000   1.0000
     1.0000   1.0000   1.0000   1.0000   1.0000   1.0000   1.0000   1.0000
     1.0000   1.0000   1.0000   1.0000   1.0000   1.0000   1.0000   1.0000
     1.0000   0.0000   0.0000   0.0000   0.0000   0.0000   0.0000   0.0000
     0.0000   0.0000   0.0000   0.0000   0.0000   0.0000   0.0000   0.0000

[...]

          k = 0.3333-1.7415-1.0300 (  2570 PWs)   bands (ev):

  -115.1195-115.1185 -69.2184 -69.2176 -69.2141 -69.2123 -69.2116 -69.2104
   -30.6741 -30.6502  -9.7588  -9.4515  -8.6934  -8.6381  -8.5446  -8.5140
    -5.6429  -5.4113   0.2727   0.9038   3.6793   3.7892   3.8071   3.8502
     3.9422   3.9682   4.0331   4.1462   4.2552   4.3439   6.4707   6.5433
     6.9360   7.4253   7.5565   7.6740   8.0961   8.2875   9.1432   9.1823
     9.8854  10.1370  11.0629  11.0677  11.1376  11.1717  11.1822  11.2370
    11.2828  11.3338  11.3932  11.4421  11.4827  11.4900  11.5610  11.6321
    13.3201  14.1309  14.3434  14.7498  15.6347  15.6396  16.4428  16.8960

     occupation numbers
     1.0000   1.0000   1.0000   1.0000   1.0000   1.0000   1.0000   1.0000
     1.0000   1.0000   1.0000   1.0000   1.0000   1.0000   1.0000   1.0000
     1.0000   1.0000   1.0000   1.0000   1.0000   1.0000   1.0000   1.0000
     1.0000   1.0000   1.0000   1.0000   1.0000   1.0000   1.0000   1.0000
     1.0000   1.0000   1.0000   1.0000   1.0000   1.0000   1.0000   1.0000
     1.0000   1.0000   1.0000   1.0000   1.0000   1.0000   1.0000   1.0000
     1.0000   0.0000   0.0000   0.0000   0.0000   0.0000   0.0000   0.0000
     0.0000   0.0000   0.0000   0.0000   0.0000   0.0000   0.0000   0.0000

     highest occupied, lowest unoccupied level (ev):    11.3384   11.2605

!    total energy              =   -2401.90951956 Ry
     estimated scf accuracy    <       0.00000064 Ry

     The total energy is the sum of the following terms:
     one-electron contribution =   -1091.72666029 Ry
     hartree contribution      =     599.34793173 Ry
     xc contribution           =    -153.36655015 Ry
     ewald contribution        =    -804.69378185 Ry
     one-center paw contrib.   =    -951.47045901 Ry
      -> PAW hartree energy AE =     183.21546238 Ry
      -> PAW hartree energy PS =    -174.10910227 Ry
      -> PAW xc energy AE      =    -496.71133086 Ry
      -> PAW xc energy PS      =      21.39506560 Ry
      -> total E_H with PAW    =     608.45429185 Ry
      -> total E_XC with PAW   =    -628.68281541 Ry

     convergence has been achieved in  98 iterations

     Writing all to output data dir bands_nm/myprefix.save/

     General routines

     Parallel routines

     PAW routines

   This run was terminated on:  15: 9:40  16Jul2023

   JOB DONE.