     Program PWSCF v.7.1 starts on 16Jul2023 at 20:55:51

     Reading input from espresso_26261.pwi
Warning: card &CELL ignored
Warning: card / ignored

     Current dimensions of program PWSCF are:
     Max number of different atomic species (ntypx) = 10
     Max number of k-points (npk) =  40000
     Max angular momentum in pseudopotentials (lmaxx) =  4
     file K.pbe-spn-kjpaw_psl.1.0.0.UPF: wavefunction(s)  3S renormalized

     K-points division:     npool     =       2
     R & G space division:  proc/nbgrp/npool/nimage =       4
     Subspace diagonalization in iterative solution of the eigenvalue problem:
     one sub-group per band group will be used

     Using Slab Decomposition

     bravais-lattice index     =            0
     lattice parameter (alat)  =      14.4372  a.u.
     unit-cell volume          =    2078.8409 (a.u.)^3
     number of atoms/cell      =           18
     number of atomic types    =            3
     number of electrons       =       160.00
     number of Kohn-Sham states=          256
     kinetic-energy cutoff     =      30.0000  Ry
     charge density cutoff     =     240.0000  Ry
     scf convergence threshold =      1.0E-06
     mixing beta               =       0.7000
     number of iterations used =            8  plain     mixing
     Exchange-correlation=  SLA  PW   PBX  PBC
                           (   1   4   3   4   0   0   0)

     celldm(1)=  14.437215  celldm(2)=   0.000000  celldm(3)=   0.000000
     celldm(4)=   0.000000  celldm(5)=   0.000000  celldm(6)=   0.000000

     crystal axes: (cart. coord. in units of alat)
               a(1) = (   1.000000   0.000000   0.000000 )
               a(2) = (  -0.648967   0.760817   0.000000 )
               a(3) = (  -0.175517  -0.380408   0.908011 )

     reciprocal axes: (cart. coord. in units 2 pi/alat)
               b(1) = (  1.000000  0.852987  0.550654 )
               b(2) = (  0.000000  1.314377  0.550654 )
               b(3) = (  0.000000  0.000000  1.101309 )

     PseudoPot. # 1 for K  read from file:
     /lustre07/scratch/pragov/crystal_structure_design/utils/SSSP/K.pbe-spn-kjpaw_psl.1.0.0.UPF
     MD5 check sum: 7d58810084cac21f60fbe77ea2b688fd
     Pseudo is Projector augmented-wave + core cor, Zval =  9.0
     Generated using "atomic" code by A. Dal Corso  v.5.1
     Shape of augmentation charge: PSQ
     Using radial grid of 1165 points,  6 beta functions with:
                l(1) =   0
                l(2) =   0
                l(3) =   1
                l(4) =   1
                l(5) =   2
                l(6) =   2
     Q(r) pseudized with 0 coefficients

     PseudoPot. # 2 for Sb read from file:
     /lustre07/scratch/pragov/crystal_structure_design/utils/SSSP/sb_pbe_v1.4.uspp.F.UPF
     MD5 check sum: 9bc50dfb53373b713f5709b9110fe27f
     Pseudo is Ultrasoft + core correction, Zval = 15.0
     Generated by new atomic code, or converted to UPF format
     Using radial grid of  891 points,  6 beta functions with:
                l(1) =   0
                l(2) =   0
                l(3) =   1
                l(4) =   1
                l(5) =   2
                l(6) =   2
     Q(r) pseudized with  8 coefficients,  rinner =    1.350   1.350   1.350
                                                       1.350   1.350

     PseudoPot. # 3 for F  read from file:
     /lustre07/scratch/pragov/crystal_structure_design/utils/SSSP/f_pbe_v1.4.uspp.F.UPF
     MD5 check sum: 4c38b6a325caf53ec0e86aed9459de46
     Pseudo is Ultrasoft, Zval =  7.0
     Generated by new atomic code, or converted to UPF format
     Using radial grid of  799 points,  4 beta functions with:
                l(1) =   0
                l(2) =   0
                l(3) =   1
                l(4) =   1
     Q(r) pseudized with  8 coefficients,  rinner =    0.950   0.950   0.950

     atomic species   valence    mass     pseudopotential
        K              9.00    39.09830     K ( 1.00)
        Sb            15.00   121.76000     Sb( 1.00)
        F              7.00    18.99840     F ( 1.00)

     No symmetry found

                                    s                        frac. trans.

      isym =  1     identity

 cryst.   s( 1) = (     1          0          0      )
                  (     0          1          0      )
                  (     0          0          1      )

 cart.    s( 1) = (  1.0000000  0.0000000  0.0000000 )
                  (  0.0000000  1.0000000  0.0000000 )
                  (  0.0000000  0.0000000  1.0000000 )

   Cartesian axes

     site n.     atom                  positions (alat units)
         1           K   tau(   1) = (   0.1755166   0.3804083   0.0000000  )
         2           Sb  tau(   2) = (  -0.2300858   0.1092681   0.2869414  )
         3           Sb  tau(   3) = (  -0.3896037   0.6380403   0.2546979  )
         4           Sb  tau(   4) = (   0.5627550  -0.2627583   0.6533128  )
         5           Sb  tau(   5) = (   0.4079676   0.2762666   0.6210693  )
         6           F   tau(   6) = (   0.3793136   0.5321110   0.3017528  )
         7           F   tau(   7) = (   0.1805161  -0.3290209   0.7865161  )
         8           F   tau(   8) = (  -0.1919576   0.3042251   0.1214946  )
         9           F   tau(   9) = (  -0.0168406   0.2535022   0.6062579  )
        10           F   tau(  10) = (  -0.1811882  -0.2279856   0.7031653  )
        11           F   tau(  11) = (  -0.3244834   0.3804083   0.4540054  )
        12           F   tau(  12) = (  -0.0210702   0.5642924   0.4087955  )
        13           F   tau(  13) = (   0.5112605   0.1323186   0.2555405  )
        14           F   tau(  14) = (  -0.4066375   0.0944375   0.6524702  )
        15           F   tau(  15) = (   0.2674803  -0.0302318   0.4992152  )
        16           F   tau(  16) = (   0.1196455   0.0946022   0.2048454  )
        17           F   tau(  17) = (   0.3045301   0.1710769   0.8390046  )
        18           F   tau(  18) = (   0.1080441   0.7231239   0.0690061  )

   Crystallographic axes

     site n.     atom                  positions (cryst. coord.)
         1           K   tau(   1) = (  0.5000000  0.5000000  0.0000000  )
         2           Sb  tau(   2) = (  0.0211240  0.3016250  0.3160110  )
         3           Sb  tau(   3) = (  0.2948870  0.9788760  0.2805010  )
         4           Sb  tau(   4) = (  0.6983750  0.0143860  0.7194990  )
         5           Sb  tau(   5) = (  0.9856140  0.7051130  0.6839890  )
         6           F   tau(   6) = (  0.9993590  0.8655560  0.3323230  )
         7           F   tau(   7) = (  0.3329640  0.0006410  0.8661970  )
         8           F   tau(   8) = (  0.1344440  0.4667680  0.1338030  )
         9           F   tau(   9) = (  0.5332320  0.6670360  0.6676770  )
        10           F   tau(  10) = (  0.0115440  0.0875420  0.7744020  )
        11           F   tau(  11) = (  0.2500000  0.7500000  0.5000000  )
        12           F   tau(  12) = (  0.6853690  0.9667980  0.4502100  )
        13           F   tau(  13) = (  0.7648410  0.3146310  0.2814290  )
        14           F   tau(  14) = (  0.0332020  0.4834120  0.7185710  )
        15           F   tau(  15) = (  0.5165880  0.2351590  0.5497900  )
        16           F   tau(  16) = (  0.3131390  0.2371420  0.2255980  )
        17           F   tau(  17) = (  0.9124580  0.6868610  0.9240030  )
        18           F   tau(  18) = (  0.7628580  0.9884560  0.0759970  )

     number of k points=    14
                       cart. coord. in units 2pi/alat
        k(    1) = (   0.0000000   0.0000000   0.0000000), wk =   0.0740741
        k(    2) = (   0.0000000   0.0000000   0.3671029), wk =   0.1481481
        k(    3) = (   0.0000000   0.4381257   0.1835514), wk =   0.1481481
        k(    4) = (   0.0000000   0.4381257   0.5506543), wk =   0.1481481
        k(    5) = (   0.3333333   0.2843291   0.1835514), wk =   0.1481481
        k(    6) = (   0.3333333   0.2843291   0.5506543), wk =   0.1481481
        k(    7) = (   0.3333333   0.7224548   0.3671029), wk =   0.1481481
        k(    8) = (   0.3333333   0.7224548  -0.0000000), wk =   0.1481481
        k(    9) = (   0.3333333  -0.1537966   0.0000000), wk =   0.1481481
        k(   10) = (   0.3333333  -0.1537966   0.3671029), wk =   0.1481481
        k(   11) = (   0.0000000  -0.4381257   0.1835514), wk =   0.1481481
        k(   12) = (  -0.3333333  -0.2843291   0.1835514), wk =   0.1481481
        k(   13) = (  -0.3333333  -0.7224548   0.3671029), wk =   0.1481481
        k(   14) = (  -0.3333333   0.1537966   0.3671029), wk =   0.1481481

                       cryst. coord.
        k(    1) = (   0.0000000   0.0000000   0.0000000), wk =   0.0740741
        k(    2) = (   0.0000000   0.0000000   0.3333333), wk =   0.1481481
        k(    3) = (   0.0000000   0.3333333   0.0000000), wk =   0.1481481
        k(    4) = (   0.0000000   0.3333333   0.3333333), wk =   0.1481481
        k(    5) = (   0.3333333   0.0000000   0.0000000), wk =   0.1481481
        k(    6) = (   0.3333333   0.0000000   0.3333333), wk =   0.1481481
        k(    7) = (   0.3333333   0.3333333   0.0000000), wk =   0.1481481
        k(    8) = (   0.3333333   0.3333333  -0.3333333), wk =   0.1481481
        k(    9) = (   0.3333333  -0.3333333   0.0000000), wk =   0.1481481
        k(   10) = (   0.3333333  -0.3333333   0.3333333), wk =   0.1481481
        k(   11) = (   0.0000000  -0.3333333   0.3333333), wk =   0.1481481
        k(   12) = (  -0.3333333   0.0000000   0.3333333), wk =   0.1481481
        k(   13) = (  -0.3333333  -0.3333333   0.6666667), wk =   0.1481481
        k(   14) = (  -0.3333333   0.3333333   0.3333333), wk =   0.1481481

     Check: negative core charge=   -0.000005

     Initial potential from superposition of free atoms

     starting charge     155.9811, renormalised to     160.0000
     Starting wfcs are   96 randomized atomic wfcs +  160 random wfcs
     Checking if some PAW data can be deallocated...

     Self-consistent Calculation

     iteration #  1     ecut=    30.00 Ry     beta= 0.70
     Davidson diagonalization with overlap

     ethr =  1.00E-02,  avg # of iterations =  7.0

     Threshold (ethr) on eigenvalues was too large:
     Diagonalizing with lowered threshold

     Davidson diagonalization with overlap

[...]

     total energy              =   -1485.02962159 Ry
     estimated scf accuracy    <       1.57329155 Ry

[...]

     total energy              =   -1485.61644673 Ry
     estimated scf accuracy    <       0.00000204 Ry

     iteration #  9     ecut=    30.00 Ry     beta= 0.70
     Davidson diagonalization with overlap

     ethr =  1.27E-09,  avg # of iterations =  1.0

     End of self-consistent calculation

          k = 0.0000 0.0000 0.0000 (  5791 PWs)   bands (ev):

   -25.1712 -25.1666 -25.1666 -25.1659 -25.1635 -25.1606 -25.1594 -25.1594
   -25.0355 -25.0333 -25.0301 -25.0301 -25.0155 -25.0153 -25.0152 -25.0125
   -24.9397 -24.9390 -24.9390 -24.9378 -23.9274 -19.2840 -19.0282 -19.0282
   -18.9459 -18.5644 -18.4130 -18.4129 -18.3726 -18.3719 -18.3444 -18.3266
   -18.3266 -18.0425  -7.4435  -7.4435  -7.4019  -5.2678  -4.8459  -4.8459
    -4.1639  -1.6447  -1.4454  -1.4018  -1.4018  -1.2365  -1.2277  -1.2277
    -1.0242  -0.7886  -0.7766  -0.7766  -0.7276  -0.2129  -0.1764  -0.0526
    -0.0526   0.1245   0.2862   0.3712   0.3712   0.3729   0.5112   0.5112
     0.6153   0.6252   0.7152   0.7152   0.7659   0.8277   0.9051   0.9051
     0.9502   1.0266   1.0862   1.0924   1.0924   2.3856   2.3856   2.7392
     7.8601   8.3089   8.6618   8.6618   8.6912   8.9243   8.9243   8.9960
     9.4373   9.6500   9.6500  10.2861  11.2394  12.9709  13.2576  13.2577
    13.5811  13.7559  14.0546  14.0546  14.9235  15.2833  15.5055  15.5055
    15.6608  15.7704  15.9874  16.2272  16.2272  16.4257  16.8980  17.1986
    17.2503  17.4093  17.4093  17.9080  18.1098  18.1098  18.4020  18.7133
    18.7134  19.3308  19.4003  19.9022  19.9863  19.9863  20.0634  20.6164
    21.1084  21.1720  21.1720  21.2449  22.0281  22.4249  22.4675  22.4675
    22.5953  22.8084  22.8084  23.0262  23.0262  23.1166  24.0268  24.2227
    24.5304  24.5304  24.6495  24.6571  25.0621  25.0621  25.2783  25.2783
    25.2888  25.4029  25.8432  26.0678  26.3405  26.3405  26.6423  26.6985
    27.0072  27.0072  27.1540  27.4381  27.6811  27.6811  27.8978  28.2856
    28.3621  28.9925  28.9925  29.0861  29.1590  29.4821  29.8478  29.9140
    29.9140  30.0515  30.0976  30.0976  30.4778  30.4778  30.6560  31.0685
    31.0685  31.2126  31.2335  31.4689  31.8666  31.8667  31.9609  32.3396
    32.3396  32.5062  32.5352  32.6461  32.7990  32.9488  32.9489  33.3080
    33.3402  33.5860  33.5860  33.6185  34.1734  34.1734  34.4233  34.4707
    34.8886  34.8886  35.4091  35.5246  35.7902  35.7902  35.9733  36.0843
    36.0980  36.0980  36.1366  36.5208  36.6019  36.7829  36.7829  37.1421
    37.6279  37.6859  37.6859  37.8483  37.8483  37.9253  38.1422  38.2046
    38.2046  38.2147  38.5401  38.7299  38.7299  38.8902  39.1265  39.3736
    39.3736  39.5981  39.7502  39.8098  39.8098  40.0124  40.2952  40.4152
    40.4152  40.6506  40.8091  40.9746  41.1281  41.1281  41.3570  41.4491

     occupation numbers
     1.0000   1.0000   1.0000   1.0000   1.0000   1.0000   1.0000   1.0000
     1.0000   1.0000   1.0000   1.0000   1.0000   1.0000   1.0000   1.0000
     1.0000   1.0000   1.0000   1.0000   1.0000   1.0000   1.0000   1.0000
     1.0000   1.0000   1.0000   1.0000   1.0000   1.0000   1.0000   1.0000
     1.0000   1.0000   1.0000   1.0000   1.0000   1.0000   1.0000   1.0000
     1.0000   1.0000   1.0000   1.0000   1.0000   1.0000   1.0000   1.0000
     1.0000   1.0000   1.0000   1.0000   1.0000   1.0000   1.0000   1.0000
     1.0000   1.0000   1.0000   1.0000   1.0000   1.0000   1.0000   1.0000
     1.0000   1.0000   1.0000   1.0000   1.0000   1.0000   1.0000   1.0000
     1.0000   1.0000   1.0000   1.0000   1.0000   1.0000   1.0000   1.0000
     0.0000   0.0000   0.0000   0.0000   0.0000   0.0000   0.0000   0.0000
     0.0000   0.0000   0.0000   0.0000   0.0000   0.0000   0.0000   0.0000
     0.0000   0.0000   0.0000   0.0000   0.0000   0.0000   0.0000   0.0000
     0.0000   0.0000   0.0000   0.0000   0.0000   0.0000   0.0000   0.0000
     0.0000   0.0000   0.0000   0.0000   0.0000   0.0000   0.0000   0.0000
     0.0000   0.0000   0.0000   0.0000   0.0000   0.0000   0.0000   0.0000
     0.0000   0.0000   0.0000   0.0000   0.0000   0.0000   0.0000   0.0000
     0.0000   0.0000   0.0000   0.0000   0.0000   0.0000   0.0000   0.0000
     0.0000   0.0000   0.0000   0.0000   0.0000   0.0000   0.0000   0.0000
     0.0000   0.0000   0.0000   0.0000   0.0000   0.0000   0.0000   0.0000
     0.0000   0.0000   0.0000   0.0000   0.0000   0.0000   0.0000   0.0000
     0.0000   0.0000   0.0000   0.0000   0.0000   0.0000   0.0000   0.0000
     0.0000   0.0000   0.0000   0.0000   0.0000   0.0000   0.0000   0.0000
     0.0000   0.0000   0.0000   0.0000   0.0000   0.0000   0.0000   0.0000
     0.0000   0.0000   0.0000   0.0000   0.0000   0.0000   0.0000   0.0000
     0.0000   0.0000   0.0000   0.0000   0.0000   0.0000   0.0000   0.0000
     0.0000   0.0000   0.0000   0.0000   0.0000   0.0000   0.0000   0.0000
     0.0000   0.0000   0.0000   0.0000   0.0000   0.0000   0.0000   0.0000
     0.0000   0.0000   0.0000   0.0000   0.0000   0.0000   0.0000   0.0000
     0.0000   0.0000   0.0000   0.0000   0.0000   0.0000   0.0000   0.0000
     0.0000   0.0000   0.0000   0.0000   0.0000   0.0000   0.0000   0.0000
     0.0000   0.0000   0.0000   0.0000   0.0000   0.0000   0.0000   0.0000

[...]

          k = 0.0000-0.4381 0.1836 (  5769 PWs)   bands (ev):

[...]

          k =-0.3333-0.2843 0.1836 (  5769 PWs)   bands (ev):

[...]

          k =-0.3333 0.1538 0.3671 (  5760 PWs)   bands (ev):

   -25.1715 -25.1685 -25.1653 -25.1644 -25.1595 -25.1548 -25.1542 -25.1532
   -25.0328 -25.0314 -25.0286 -25.0284 -25.0139 -25.0123 -25.0109 -25.0101
   -24.9429 -24.9396 -24.9364 -24.9341 -23.9274 -19.2054 -19.0759 -19.0526
   -19.0007 -18.4824 -18.4626 -18.4445 -18.4131 -18.3773 -18.3114 -18.3022
   -18.2774 -18.0525  -7.4445  -7.4440  -7.4014  -5.0447  -4.8346  -4.8082
    -4.4127  -1.7719  -1.7369  -1.5564  -1.4799  -1.4292  -1.1474  -1.0738
    -1.0691  -0.8383  -0.6726  -0.5814  -0.4352  -0.2412  -0.2224  -0.1320
     0.0358   0.1714   0.2664   0.2816   0.3122   0.3822   0.4356   0.5439
     0.5719   0.6756   0.6995   0.7325   0.7719   0.8478   0.9182   0.9503
     0.9631   1.0104   1.0616   1.0741   1.8824   2.2860   2.4080   2.6043
     7.7111   8.0466   8.2536   8.3844   8.5657   8.8253   8.9994   9.2041
     9.5498   9.6153   9.8101  10.3625  12.1599  12.6566  12.9780  13.4217
    13.6752  13.8520  14.0912  14.1262  14.8882  14.9740  15.1420  15.2439
    15.7530  15.9864  16.1109  16.2916  16.4211  16.6567  16.8063  17.2638
    17.3590  17.4380  17.5780  17.8606  18.0103  18.2208  18.4920  18.6314
    19.2496  19.3227  19.5503  19.7448  19.8774  20.2080  20.3194  20.4479
    20.6030  20.9175  20.9479  21.3939  21.7953  22.0544  22.2683  22.4259
    22.6123  22.7005  22.8828  23.2341  23.4487  23.5139  23.8502  23.8553
    24.1475  24.2215  24.4324  24.5352  24.7338  24.9419  25.0510  25.2538
    25.5663  25.6025  25.7238  25.9512  25.9954  26.2311  26.2903  26.6891
    26.7801  26.9046  27.1253  27.3033  27.6300  27.7304  28.0384  28.1084
    28.4420  28.5114  28.7691  28.8644  29.0000  29.2262  29.6696  29.7470
    29.8335  30.1053  30.3350  30.5451  30.6636  30.9283  30.9768  31.3223
    31.4104  31.5873  32.0304  32.1108  32.3250  32.4028  32.4779  32.6904
    32.8063  32.8267  33.0353  33.4601  33.5144  33.5965  33.6621  33.9212
    33.9844  34.0903  34.1878  34.2899  34.6109  34.7099  34.8902  35.0158
    35.1258  35.2830  35.3744  35.6163  35.7410  35.8164  35.9835  36.0021
    36.0456  36.0654  36.1150  36.1606  36.2412  36.3726  36.5225  36.5838
    36.7816  36.8656  37.0188  37.1749  37.3738  37.4173  37.6066  37.7650
    37.9287  37.9542  37.9988  38.2519  38.5337  38.6295  38.7231  38.7513
    38.9057  39.0959  39.2135  39.2633  39.3338  39.5419  39.5490  39.8410
    39.9776  40.0487  40.2712  40.4696  40.6414  40.7053  40.9549  41.0841

     occupation numbers
     1.0000   1.0000   1.0000   1.0000   1.0000   1.0000   1.0000   1.0000
     1.0000   1.0000   1.0000   1.0000   1.0000   1.0000   1.0000   1.0000
     1.0000   1.0000   1.0000   1.0000   1.0000   1.0000   1.0000   1.0000
     1.0000   1.0000   1.0000   1.0000   1.0000   1.0000   1.0000   1.0000
     1.0000   1.0000   1.0000   1.0000   1.0000   1.0000   1.0000   1.0000
     1.0000   1.0000   1.0000   1.0000   1.0000   1.0000   1.0000   1.0000
     1.0000   1.0000   1.0000   1.0000   1.0000   1.0000   1.0000   1.0000
     1.0000   1.0000   1.0000   1.0000   1.0000   1.0000   1.0000   1.0000
     1.0000   1.0000   1.0000   1.0000   1.0000   1.0000   1.0000   1.0000
     1.0000   1.0000   1.0000   1.0000   1.0000   1.0000   1.0000   1.0000
     0.0000   0.0000   0.0000   0.0000   0.0000   0.0000   0.0000   0.0000
     0.0000   0.0000   0.0000   0.0000   0.0000   0.0000   0.0000   0.0000
     0.0000   0.0000   0.0000   0.0000   0.0000   0.0000   0.0000   0.0000
     0.0000   0.0000   0.0000   0.0000   0.0000   0.0000   0.0000   0.0000
     0.0000   0.0000   0.0000   0.0000   0.0000   0.0000   0.0000   0.0000
     0.0000   0.0000   0.0000   0.0000   0.0000   0.0000   0.0000   0.0000
     0.0000   0.0000   0.0000   0.0000   0.0000   0.0000   0.0000   0.0000
     0.0000   0.0000   0.0000   0.0000   0.0000   0.0000   0.0000   0.0000
     0.0000   0.0000   0.0000   0.0000   0.0000   0.0000   0.0000   0.0000
     0.0000   0.0000   0.0000   0.0000   0.0000   0.0000   0.0000   0.0000
     0.0000   0.0000   0.0000   0.0000   0.0000   0.0000   0.0000   0.0000
     0.0000   0.0000   0.0000   0.0000   0.0000   0.0000   0.0000   0.0000
     0.0000   0.0000   0.0000   0.0000   0.0000   0.0000   0.0000   0.0000
     0.0000   0.0000   0.0000   0.0000   0.0000   0.0000   0.0000   0.0000
     0.0000   0.0000   0.0000   0.0000   0.0000   0.0000   0.0000   0.0000
     0.0000   0.0000   0.0000   0.0000   0.0000   0.0000   0.0000   0.0000
     0.0000   0.0000   0.0000   0.0000   0.0000   0.0000   0.0000   0.0000
     0.0000   0.0000   0.0000   0.0000   0.0000   0.0000   0.0000   0.0000
     0.0000   0.0000   0.0000   0.0000   0.0000   0.0000   0.0000   0.0000
     0.0000   0.0000   0.0000   0.0000   0.0000   0.0000   0.0000   0.0000
     0.0000   0.0000   0.0000   0.0000   0.0000   0.0000   0.0000   0.0000
     0.0000   0.0000   0.0000   0.0000   0.0000   0.0000   0.0000   0.0000

     highest occupied, lowest unoccupied level (ev):     2.7392    7.4848

!    total energy              =   -1485.61644711 Ry
     estimated scf accuracy    <       0.00000008 Ry

     The total energy is the sum of the following terms:
     one-electron contribution =    -823.09503816 Ry
     hartree contribution      =     496.12447655 Ry
     xc contribution           =    -309.08055412 Ry
     ewald contribution        =    -794.14802892 Ry
     one-center paw contrib.   =     -55.41730246 Ry
      -> PAW hartree energy AE =      37.67363840 Ry
      -> PAW hartree energy PS =     -37.46340206 Ry
      -> PAW xc energy AE      =     -66.21607289 Ry
      -> PAW xc energy PS      =      10.58853409 Ry
      -> total E_H with PAW    =     496.33471290 Ry
      -> total E_XC with PAW   =    -364.70809292 Ry

     convergence has been achieved in   9 iterations

     Writing all to output data dir bands_nm/myprefix.save/

     General routines

     Parallel routines

     PAW routines

   This run was terminated on:  20:57:50  16Jul2023

   JOB DONE.