     Program PWSCF v.7.1 starts on 16Jul2023 at 15:28: 9

     Reading input from espresso_27067.pwi
Warning: card &CELL ignored
Warning: card / ignored

     Current dimensions of program PWSCF are:
     Max number of different atomic species (ntypx) = 10
     Max number of k-points (npk) =  40000
     Max angular momentum in pseudopotentials (lmaxx) =  4
     file Ga.pbe-dn-kjpaw_psl.1.0.0.UPF: wavefunction(s)  4S renormalized
     Message from routine setup:
     using ibrav=0 with symmetry is DISCOURAGED, use correct ibrav instead

     K-points division:     npool     =       2
     R & G space division:  proc/nbgrp/npool/nimage =       4
     Subspace diagonalization in iterative solution of the eigenvalue problem:
     a serial algorithm will be used

     Using Slab Decomposition

     bravais-lattice index     =            0
     lattice parameter (alat)  =      14.4742  a.u.
     unit-cell volume          =    1713.3997 (a.u.)^3
     number of atoms/cell      =            8
     number of atomic types    =            3
     number of electrons       =        88.00
     number of Kohn-Sham states=           64
     kinetic-energy cutoff     =      30.0000  Ry
     charge density cutoff     =     240.0000  Ry
     scf convergence threshold =      1.0E-06
     mixing beta               =       0.7000
     number of iterations used =            8  plain     mixing
     Exchange-correlation= SLA  PW   PBE  PBE
                           (   1   4   3   4   0   0   0)

     celldm(1)=  14.474189  celldm(2)=   0.000000  celldm(3)=   0.000000
     celldm(4)=   0.000000  celldm(5)=   0.000000  celldm(6)=   0.000000

     crystal axes: (cart. coord. in units of alat)
               a(1) = (   1.000000   0.000000   0.000000 )
               a(2) = (   0.298849   0.954300   0.000000 )
               a(3) = (  -0.649424  -0.477150   0.592094 )

     reciprocal axes: (cart. coord. in units 2 pi/alat)
               b(1) = (  1.000000 -0.313160  0.844460 )
               b(2) = (  0.000000  1.047888  0.844460 )
               b(3) = (  0.000000  0.000000  1.688920 )

     PseudoPot. # 1 for Ga read from file:
     /lustre07/scratch/pragov/crystal_structure_design/utils/SSSP/Ga.pbe-dn-kjpaw_psl.1.0.0.UPF
     MD5 check sum: a27b4342b1af7e5f338de752e9ed7044
     Pseudo is Projector augmented-wave + core cor, Zval = 13.0
     Generated using "atomic" code by A. Dal Corso  v.5.1
     Shape of augmentation charge: PSQ
     Using radial grid of 1205 points,  6 beta functions with:
                l(1) =   0
                l(2) =   0
                l(3) =   1
                l(4) =   1
                l(5) =   2
                l(6) =   2
     Q(r) pseudized with 0 coefficients

     PseudoPot. # 2 for Ag read from file:
     /lustre07/scratch/pragov/crystal_structure_design/utils/SSSP/Ag_ONCV_PBE-1.0.oncvpsp.upf
     MD5 check sum: 94f47bd0669c641108e45594df92fabc
     Pseudo is Norm-conserving, Zval = 19.0
     Generated using ONCVPSP code by D. R. Hamann
     Using radial grid of 1398 points,  6 beta functions with:
                l(1) =   0
                l(2) =   0
                l(3) =   1
                l(4) =   1
                l(5) =   2
                l(6) =   2

     PseudoPot. # 3 for Te read from file:
     /lustre07/scratch/pragov/crystal_structure_design/utils/SSSP/Te_pbe_v1.uspp.F.UPF
     MD5 check sum: c319670d6894cc26e93307826a071b75
     Pseudo is Ultrasoft + core correction, Zval =  6.0
     Generated by new atomic code, or converted to UPF format
     Using radial grid of  891 points,  5 beta functions with:
                l(1) =   0
                l(2) =   0
                l(3) =   1
                l(4) =   1
                l(5) =   2
     Q(r) pseudized with  6 coefficients,  rinner =    1.800   1.800   1.800
                                                       1.800   1.800

     atomic species   valence    mass     pseudopotential
        Ga            13.00    69.72300     Ga( 1.00)
        Ag            19.00   107.86820     Ag( 1.00)
        Te             6.00   127.60000     Te( 1.00)

      2 Sym. Ops. (no inversion) found ( 1 have fractional translation)

                                    s                        frac. trans.

      isym =  1     identity

 cryst.   s( 1) = (     1          0          0      )
                  (     0          1          0      )
                  (     0          0          1      )

 cart.    s( 1) = (  1.0000000  0.0000000  0.0000000 )
                  (  0.0000000  1.0000000  0.0000000 )
                  (  0.0000000  0.0000000  1.0000000 )

      isym =  2     inv. 180 deg rotation - cart. axis [0,0,1]

 cryst.   s( 2) = (     1          0          0      )    f =(  0.2500000 )
                  (     0          1          0      )       ( -0.2500000 )
                  (    -1         -1         -1      )       ( -0.5000000 )

 cart.    s( 2) = (  1.0000000  0.0000000 -0.0000000 )    f =(  0.5000000 )
                  (  0.0000000  1.0000000 -0.0000000 )       ( -0.0000000 )
                  (  0.0000000  0.0000000 -1.0000000 )       ( -0.2960471 )

   Cartesian axes

     site n.     atom                  positions (alat units)
         1           Ga  tau(   1) = (   0.6494244   0.4771502   0.0000000  )
         2           Ga  tau(   2) = (   0.1494244   0.4771502   0.2960471  )
         3           Ag  tau(   3) = (   0.0000000   0.0000000   0.0000000  )
         4           Ag  tau(   4) = (   0.5000000   0.0000000   0.2960471  )
         5           Te  tau(   5) = (  -0.1564643  -0.1273065   0.3059978  )
         6           Te  tau(   6) = (   0.9811766   0.3658817   0.0099507  )
         7           Te  tau(   7) = (  -0.0070399   0.3498437   0.5821435  )
         8           Te  tau(   8) = (   0.4811766   0.3658817   0.2860964  )

   Crystallographic axes

     site n.     atom                  positions (cryst. coord.)
         1           Ga  tau(   1) = (  0.5000000  0.5000000  0.0000000  )
         2           Ga  tau(   2) = (  0.2500000  0.7500000  0.5000000  )
         3           Ag  tau(   3) = (  0.0000000  0.0000000  0.0000000  )
         4           Ag  tau(   4) = (  0.7500000  0.2500000  0.5000000  )
         5           Te  tau(   5) = (  0.1418060  0.1250000  0.5168060  )
         6           Te  tau(   6) = (  0.8750000  0.3918060  0.0168060  )
         7           Te  tau(   7) = (  0.3750000  0.8581940  0.9831940  )
         8           Te  tau(   8) = (  0.6081940  0.6250000  0.4831940  )

     number of k points=    10
                       cart. coord. in units 2pi/alat
        k(    1) = (   0.0000000   0.0000000   0.0000000), wk =   0.0740741
        k(    2) = (   0.0000000   0.0000000   0.5629735), wk =   0.1481481
        k(    3) = (   0.0000000   0.3492960   0.2814867), wk =   0.2962963
        k(    4) = (   0.0000000   0.3492960   0.8444602), wk =   0.1481481
        k(    5) = (   0.3333333  -0.1043867   0.2814867), wk =   0.2962963
        k(    6) = (   0.3333333  -0.1043867   0.8444602), wk =   0.1481481
        k(    7) = (   0.3333333   0.2449093   0.5629735), wk =   0.2962963
        k(    8) = (   0.3333333   0.2449093  -0.0000000), wk =   0.1481481
        k(    9) = (   0.3333333  -0.4536827  -0.0000000), wk =   0.1481481
        k(   10) = (   0.3333333  -0.4536827   0.5629735), wk =   0.2962963

                       cryst. coord.
        k(    1) = (   0.0000000   0.0000000   0.0000000), wk =   0.0740741
        k(    2) = (   0.0000000   0.0000000   0.3333333), wk =   0.1481481
        k(    3) = (   0.0000000   0.3333333  -0.0000000), wk =   0.2962963
        k(    4) = (   0.0000000   0.3333333   0.3333333), wk =   0.1481481
        k(    5) = (   0.3333333   0.0000000  -0.0000000), wk =   0.2962963
        k(    6) = (   0.3333333   0.0000000   0.3333333), wk =   0.1481481
        k(    7) = (   0.3333333   0.3333333  -0.0000000), wk =   0.2962963
        k(    8) = (   0.3333333   0.3333333  -0.3333333), wk =   0.1481481
        k(    9) = (   0.3333333  -0.3333333  -0.0000000), wk =   0.1481481
        k(   10) = (   0.3333333  -0.3333333   0.3333333), wk =   0.2962963

     Initial potential from superposition of free atoms

     starting charge      87.9926, renormalised to      88.0000
     Starting wfcs are   54 randomized atomic wfcs +   10 random wfcs
     Checking if some PAW data can be deallocated...

     Self-consistent Calculation

     iteration #  1     ecut=    30.00 Ry     beta= 0.70
     Davidson diagonalization with overlap

     ethr =  1.00E-02,  avg # of iterations =  6.8

     Threshold (ethr) on eigenvalues was too large:
     Diagonalizing with lowered threshold

     Davidson diagonalization with overlap

[...]

     total energy              =   -1235.99770746 Ry
     estimated scf accuracy    <       0.31475063 Ry

[...]

     c_bands:  1 eigenvalues not converged
     ethr =  1.86E-05,  avg # of iterations =  8.2

[...]

     c_bands:  1 eigenvalues not converged
     ethr =  6.11E-07,  avg # of iterations =  8.0

[...]

     total energy              =   -1236.12539151 Ry
     estimated scf accuracy    <       0.00000174 Ry

     iteration #  8     ecut=    30.00 Ry     beta= 0.70
     Davidson diagonalization with overlap

     ethr =  1.98E-09,  avg # of iterations =  4.1

     End of self-consistent calculation

          k = 0.0000 0.0000 0.0000 (  4813 PWs)   bands (ev):

   -86.4951 -86.4951 -49.5462 -49.5443 -49.5386 -49.5386 -49.5380 -49.5380
    -9.2620  -9.2606  -9.2606  -9.2327  -9.2251  -9.2251  -9.1982  -9.1947
    -9.1919  -9.1867  -6.0059  -4.7507  -4.7507  -4.7255  -1.0477   0.5804
     1.5894   1.6517   1.8046   1.8046   1.9393   2.0397   2.0623   2.0623
     2.2884   2.3515   2.7097   2.7274   2.7274   3.2939   3.6951   4.1088
     4.1088   5.8607   5.8607   6.0074   6.1017   7.8817   8.0900   9.2546
     9.2546   9.5862   9.7197  10.1287  10.7386  10.7386  11.8555  11.8555
    11.9762  12.6541  13.7716  14.7617  14.7781  14.7782  15.1811  15.3077

     occupation numbers
     1.0000   1.0000   1.0000   1.0000   1.0000   1.0000   1.0000   1.0000
     1.0000   1.0000   1.0000   1.0000   1.0000   1.0000   1.0000   1.0000
     1.0000   1.0000   1.0000   1.0000   1.0000   1.0000   1.0000   1.0000
     1.0000   1.0000   1.0000   1.0000   1.0000   1.0000   1.0000   1.0000
     1.0000   1.0000   1.0000   1.0000   1.0000   1.0000   1.0000   1.0000
     1.0000   1.0000   1.0000   1.0000   0.0000   0.0000   0.0000   0.0000
     0.0000   0.0000   0.0000   0.0000   0.0000   0.0000   0.0000   0.0000
     0.0000   0.0000   0.0000   0.0000   0.0000   0.0000   0.0000   0.0000

[...]

          k = 0.3333-0.4537 0.5630 (  4750 PWs)   bands (ev):

   -86.4951 -86.4951 -49.5425 -49.5418 -49.5364 -49.5357 -49.5348 -49.5329
    -9.2624  -9.2609  -9.2500  -9.2422  -9.2268  -9.2230  -9.1967  -9.1957
    -9.1884  -9.1878  -5.4734  -5.3046  -4.9474  -4.7475  -0.3724   0.0304
     1.6426   1.6892   1.7135   1.8882   1.9568   2.0201   2.1071   2.2994
     2.2997   2.4453   2.7800   2.8170   3.2727   3.5110   3.6379   3.9825
     4.2790   4.5007   5.1643   5.4441   7.4730   7.7558   8.4260   9.0235
     9.6975   9.8582  10.1009  10.2748  10.8977  10.9636  11.3553  11.8003
    12.6910  12.7361  13.2528  13.3075  13.3239  13.8030  13.9858  15.4919

     occupation numbers
     1.0000   1.0000   1.0000   1.0000   1.0000   1.0000   1.0000   1.0000
     1.0000   1.0000   1.0000   1.0000   1.0000   1.0000   1.0000   1.0000
     1.0000   1.0000   1.0000   1.0000   1.0000   1.0000   1.0000   1.0000
     1.0000   1.0000   1.0000   1.0000   1.0000   1.0000   1.0000   1.0000
     1.0000   1.0000   1.0000   1.0000   1.0000   1.0000   1.0000   1.0000
     1.0000   1.0000   1.0000   1.0000   0.0000   0.0000   0.0000   0.0000
     0.0000   0.0000   0.0000   0.0000   0.0000   0.0000   0.0000   0.0000
     0.0000   0.0000   0.0000   0.0000   0.0000   0.0000   0.0000   0.0000

     highest occupied, lowest unoccupied level (ev):     6.0074    6.1017

!    total energy              =   -1236.12539217 Ry
     estimated scf accuracy    <       0.00000004 Ry

     The total energy is the sum of the following terms:
     one-electron contribution =    -713.21893629 Ry
     hartree contribution      =     394.41271546 Ry
     xc contribution           =    -187.97753914 Ry
     ewald contribution        =    -507.49592544 Ry
     one-center paw contrib.   =    -221.84570676 Ry
      -> PAW hartree energy AE =     139.55318513 Ry
      -> PAW hartree energy PS =    -137.32767019 Ry
      -> PAW xc energy AE      =    -150.71745347 Ry
      -> PAW xc energy PS      =      37.56908516 Ry
      -> total E_H with PAW    =     396.63823039 Ry
      -> total E_XC with PAW   =    -301.12590745 Ry

     convergence has been achieved in   8 iterations

     Writing all to output data dir bands_nm/myprefix.save/

     General routines

     Parallel routines

     PAW routines

   This run was terminated on:  15:28:23  16Jul2023

   JOB DONE.