     Program PWSCF v.7.1 starts on 12Jul2023 at 20:10:47

     Reading input from espresso_23216.pwi
Warning: card &CELL ignored
Warning: card / ignored

     Current dimensions of program PWSCF are:
     Max number of different atomic species (ntypx) = 10
     Max number of k-points (npk) =  40000
     Max angular momentum in pseudopotentials (lmaxx) =  4
     file Cd.pbe-dn-rrkjus_psl.0.3.1.UPF: wavefunction(s)  4D renormalized
     Message from routine setup:
     using ibrav=0 with symmetry is DISCOURAGED, use correct ibrav instead

     K-points division:     npool     =       2
     R & G space division:  proc/nbgrp/npool/nimage =       8
     Subspace diagonalization in iterative solution of the eigenvalue problem:
     a serial algorithm will be used

     Using Slab Decomposition

     bravais-lattice index     =            0
     lattice parameter (alat)  =      13.5370  a.u.
     unit-cell volume          =    1425.3430 (a.u.)^3
     number of atoms/cell      =            8
     number of atomic types    =            3
     number of electrons       =        72.00
     number of Kohn-Sham states=           64
     kinetic-energy cutoff     =      30.0000  Ry
     charge density cutoff     =     240.0000  Ry
     scf convergence threshold =      1.0E-06
     mixing beta               =       0.7000
     number of iterations used =            8  plain     mixing
     Exchange-correlation= PBE
                           (   1   4   3   4   0   0   0)

     celldm(1)=  13.536958  celldm(2)=   0.000000  celldm(3)=   0.000000
     celldm(4)=   0.000000  celldm(5)=   0.000000  celldm(6)=   0.000000

     crystal axes: (cart. coord. in units of alat)
               a(1) = (   1.000000   0.000000   0.000000 )
               a(2) = (   0.282453   0.959281   0.000000 )
               a(3) = (  -0.641226  -0.479641   0.598977 )

     reciprocal axes: (cart. coord. in units 2 pi/alat)
               b(1) = (  1.000000 -0.294442  0.834756 )
               b(2) = (  0.000000  1.042447  0.834756 )
               b(3) = (  0.000000  0.000000  1.669513 )

     PseudoPot. # 1 for Cd read from file:
     /lustre07/scratch/pragov/crystal_structure_design/utils/SSSP/Cd.pbe-dn-rrkjus_psl.0.3.1.UPF
     MD5 check sum: 558e9f355611b531a870a69ef6ace9e2
     Pseudo is Ultrasoft + core correction, Zval = 12.0
     Generated using "atomic" code by A. Dal Corso  v.5.0.99 svn rev. 10869
     Using radial grid of 1239 points,  6 beta functions with:
                l(1) =   0
                l(2) =   0
                l(3) =   1
                l(4) =   1
                l(5) =   2
                l(6) =   2
     Q(r) pseudized with 0 coefficients

     PseudoPot. # 2 for Ge read from file:
     /lustre07/scratch/pragov/crystal_structure_design/utils/SSSP/ge_pbe_v1.4.uspp.F.UPF
     MD5 check sum: 9c9eaa91e581c3f09632fb3098b2c6b2
     Pseudo is Ultrasoft + core correction, Zval = 14.0
     Generated by new atomic code, or converted to UPF format
     Using radial grid of  873 points,  6 beta functions with:
                l(1) =   0
                l(2) =   0
                l(3) =   1
                l(4) =   1
                l(5) =   2
                l(6) =   2
     Q(r) pseudized with  8 coefficients,  rinner =    1.400   1.400   1.400
                                                       1.400   1.400

     PseudoPot. # 3 for As read from file:
     /lustre07/scratch/pragov/crystal_structure_design/utils/SSSP/As.pbe-n-rrkjus_psl.0.2.UPF
     MD5 check sum: 767315de957beeeb34f87d97bf945c8f
     Pseudo is Ultrasoft + core correction, Zval =  5.0
     Generated using "atomic" code by A. Dal Corso  v.5.0.99 svn rev. 10869
     Using radial grid of 1209 points,  4 beta functions with:
                l(1) =   0
                l(2) =   0
                l(3) =   1
                l(4) =   1
     Q(r) pseudized with 0 coefficients

     atomic species   valence    mass     pseudopotential
        Cd            12.00   112.41400     Cd( 1.00)
        Ge            14.00    72.63000     Ge( 1.00)
        As             5.00    74.92159     As( 1.00)

      2 Sym. Ops. (no inversion) found ( 1 have fractional translation)

                                    s                        frac. trans.

      isym =  1     identity

 cryst.   s( 1) = (     1          0          0      )
                  (     0          1          0      )
                  (     0          0          1      )

 cart.    s( 1) = (  1.0000000  0.0000000  0.0000000 )
                  (  0.0000000  1.0000000  0.0000000 )
                  (  0.0000000  0.0000000  1.0000000 )

      isym =  2     inv. 180 deg rotation - cart. axis [0,0,1]

 cryst.   s( 2) = (     1          0          0      )    f =(  0.2500000 )
                  (     0          1          0      )       ( -0.2500000 )
                  (    -1         -1         -1      )       (  0.5000000 )

 cart.    s( 2) = (  1.0000000  0.0000000 -0.0000000 )    f =( -0.1412264 )
                  (  0.0000000  1.0000000 -0.0000000 )       ( -0.4796406 )
                  (  0.0000000  0.0000000 -1.0000000 )       (  0.2994886 )

   Cartesian axes

     site n.     atom                  positions (alat units)
         1           Cd  tau(   1) = (   0.1412264   0.4796406   0.2994886  )
         2           Cd  tau(   2) = (   0.6412264   0.4796406   0.0000000  )
         3           Ge  tau(   3) = (   0.5000000   0.0000000   0.2994886  )
         4           Ge  tau(   4) = (   0.0000000   0.0000000   0.0000000  )
         5           As  tau(   5) = (   0.6701747   0.1067176   0.0164749  )
         6           As  tau(   6) = (   0.1701747   0.1067176   0.2830137  )
         7           As  tau(   7) = (  -0.3495615   0.1331027   0.5825022  )
         8           As  tau(   8) = (   0.7916650   0.6127433   0.3159634  )

   Crystallographic axes

     site n.     atom                  positions (cryst. coord.)
         1           Cd  tau(   1) = (  0.2500000  0.7500000  0.5000000  )
         2           Cd  tau(   2) = (  0.5000000  0.5000000  0.0000000  )
         3           Ge  tau(   3) = (  0.7500000  0.2500000  0.5000000  )
         4           Ge  tau(   4) = (  0.0000000  0.0000000  0.0000000  )
         5           As  tau(   5) = (  0.6525050  0.1250000  0.0275050  )
         6           As  tau(   6) = (  0.3750000  0.3474950  0.4724950  )
         7           As  tau(   7) = (  0.0974950  0.6250000  0.9724950  )
         8           As  tau(   8) = (  0.8750000  0.9025050  0.5275050  )

     number of k points=    10
                       cart. coord. in units 2pi/alat
        k(    1) = (   0.0000000   0.0000000   0.0000000), wk =   0.0740741
        k(    2) = (   0.0000000   0.0000000   0.5565043), wk =   0.1481481
        k(    3) = (   0.0000000   0.3474824   0.2782521), wk =   0.2962963
        k(    4) = (   0.0000000   0.3474824   0.8347564), wk =   0.1481481
        k(    5) = (   0.3333333  -0.0981474   0.2782521), wk =   0.2962963
        k(    6) = (   0.3333333  -0.0981474   0.8347564), wk =   0.1481481
        k(    7) = (   0.3333333   0.2493350   0.5565043), wk =   0.2962963
        k(    8) = (   0.3333333   0.2493350  -0.0000000), wk =   0.1481481
        k(    9) = (   0.3333333  -0.4456298  -0.0000000), wk =   0.1481481
        k(   10) = (   0.3333333  -0.4456298   0.5565043), wk =   0.2962963

                       cryst. coord.
        k(    1) = (   0.0000000   0.0000000   0.0000000), wk =   0.0740741
        k(    2) = (   0.0000000   0.0000000   0.3333333), wk =   0.1481481
        k(    3) = (   0.0000000   0.3333333   0.0000000), wk =   0.2962963
        k(    4) = (   0.0000000   0.3333333   0.3333333), wk =   0.1481481
        k(    5) = (   0.3333333   0.0000000   0.0000000), wk =   0.2962963
        k(    6) = (   0.3333333   0.0000000   0.3333333), wk =   0.1481481
        k(    7) = (   0.3333333   0.3333333   0.0000000), wk =   0.2962963
        k(    8) = (   0.3333333   0.3333333  -0.3333333), wk =   0.1481481
        k(    9) = (   0.3333333  -0.3333333   0.0000000), wk =   0.1481481
        k(   10) = (   0.3333333  -0.3333333   0.3333333), wk =   0.2962963

     Initial potential from superposition of free atoms

     starting charge      71.9875, renormalised to      72.0000
     Starting wfcs are   52 randomized atomic wfcs +   12 random wfcs

     Self-consistent Calculation

     iteration #  1     ecut=    30.00 Ry     beta= 0.70
     Davidson diagonalization with overlap

     ethr =  1.00E-02,  avg # of iterations =  6.0

     Threshold (ethr) on eigenvalues was too large:
     Diagonalizing with lowered threshold

     Davidson diagonalization with overlap

[...]

     total energy              =    -744.47812402 Ry
     estimated scf accuracy    <       0.20576884 Ry

[...]

     total energy              =    -744.54016729 Ry
     estimated scf accuracy    <       0.00000294 Ry

     iteration #  7     ecut=    30.00 Ry     beta= 0.70
     Davidson diagonalization with overlap

     ethr =  4.08E-09,  avg # of iterations =  2.7

     End of self-consistent calculation

          k = 0.0000 0.0000 0.0000 (  3943 PWs)   bands (ev):

   -18.9801 -18.9801 -18.9801 -18.9769 -18.9761 -18.9761 -18.9595 -18.9583
   -18.9559 -18.9513  -6.6157  -4.6331  -4.6331  -4.6164  -3.0842  -2.2707
    -2.2438  -2.2438  -2.1417  -2.1103  -2.0950  -2.0731  -1.8861  -1.8861
    -1.8580  -0.5682   2.0223   2.1647   2.1647   2.5133   2.9793   3.9115
     3.9115   5.4935   5.7932   5.7932   6.0157   7.3246   7.6235   8.7913
     8.7913   9.2270   9.7090  10.2710  10.7540  10.7540  11.8013  11.8013
    11.9591  13.0158  14.1010  14.5617  15.0696  15.0696  15.2030  15.8075
    15.8226  16.0683  16.2539  16.2539  16.9538  16.9538  17.9443  17.9443

     occupation numbers
     1.0000   1.0000   1.0000   1.0000   1.0000   1.0000   1.0000   1.0000
     1.0000   1.0000   1.0000   1.0000   1.0000   1.0000   1.0000   1.0000
     1.0000   1.0000   1.0000   1.0000   1.0000   1.0000   1.0000   1.0000
     1.0000   1.0000   1.0000   1.0000   1.0000   1.0000   1.0000   1.0000
     1.0000   1.0000   1.0000   1.0000   0.0000   0.0000   0.0000   0.0000
     0.0000   0.0000   0.0000   0.0000   0.0000   0.0000   0.0000   0.0000
     0.0000   0.0000   0.0000   0.0000   0.0000   0.0000   0.0000   0.0000
     0.0000   0.0000   0.0000   0.0000   0.0000   0.0000   0.0000   0.0000

[...]

          k = 0.3333-0.4456 0.5565 (  3962 PWs)   bands (ev):

   -18.9815 -18.9801 -18.9797 -18.9778 -18.9770 -18.9756 -18.9605 -18.9584
   -18.9567 -18.9560  -5.9767  -5.6564  -4.8327  -4.6356  -2.4947  -2.4763
    -2.2443  -2.2034  -2.1984  -2.1373  -2.1324  -2.0726  -2.0558  -1.9057
    -1.3682  -0.3227   2.0419   2.0447   2.4785   3.0584   3.0715   3.4820
     3.9342   4.3254   4.9228   5.4295   7.3182   7.7640   7.9639   8.5451
     9.3597   9.4556  10.0027  10.1280  10.8066  10.9455  11.2029  11.6020
    12.6016  12.7262  13.3425  13.4104  13.4159  13.9842  14.2636  15.8352
    15.9702  16.4038  16.7689  16.8224  16.9591  17.6592  18.1726  18.2272

     occupation numbers
     1.0000   1.0000   1.0000   1.0000   1.0000   1.0000   1.0000   1.0000
     1.0000   1.0000   1.0000   1.0000   1.0000   1.0000   1.0000   1.0000
     1.0000   1.0000   1.0000   1.0000   1.0000   1.0000   1.0000   1.0000
     1.0000   1.0000   1.0000   1.0000   1.0000   1.0000   1.0000   1.0000
     1.0000   1.0000   1.0000   1.0000   0.0000   0.0000   0.0000   0.0000
     0.0000   0.0000   0.0000   0.0000   0.0000   0.0000   0.0000   0.0000
     0.0000   0.0000   0.0000   0.0000   0.0000   0.0000   0.0000   0.0000
     0.0000   0.0000   0.0000   0.0000   0.0000   0.0000   0.0000   0.0000

     highest occupied, lowest unoccupied level (ev):     5.7932    6.0157

!    total energy              =    -744.54016821 Ry
     estimated scf accuracy    <       0.00000010 Ry

     The total energy is the sum of the following terms:
     one-electron contribution =    -415.05014595 Ry
     hartree contribution      =     262.30191020 Ry
     xc contribution           =    -238.98559167 Ry
     ewald contribution        =    -352.80634079 Ry

     convergence has been achieved in   7 iterations

     Writing all to output data dir bands_nm/myprefix.save/

     General routines

     Parallel routines

   This run was terminated on:  20:11: 3  12Jul2023

   JOB DONE.