     Program PWSCF v.7.0 starts on  4Jun2023 at 15:54:29

     K-points division:     npool     =       2
     R & G space division:  proc/nbgrp/npool/nimage =       4

     Reading input from espresso_5005.pwi
Warning: card &CELL ignored
Warning: card / ignored

     Current dimensions of program PWSCF are:
     Max number of different atomic species (ntypx) = 10
     Max number of k-points (npk) =  40000
     Max angular momentum in pseudopotentials (lmaxx) =  4
     file Al.pbe-n-kjpaw_psl.1.0.0.UPF: wavefunction(s)  3S 3P renormalized
     file O.pbe-n-kjpaw_psl.0.1.UPF: wavefunction(s)  2P renormalized
     Message from routine setup:
     using ibrav=0 with symmetry is DISCOURAGED, use correct ibrav instead

     Using Slab Decomposition

     bravais-lattice index     =            0
     lattice parameter (alat)  =      11.0989  a.u.
     unit-cell volume          =     966.7779 (a.u.)^3
     number of atoms/cell      =           14
     number of atomic types    =            3
     number of electrons       =        90.00
     number of Kohn-Sham states=           64
     kinetic-energy cutoff     =      30.0000  Ry
     charge density cutoff     =     240.0000  Ry
     scf convergence threshold =      1.0E-06
     mixing beta               =       0.7000
     number of iterations used =            8  plain     mixing
     Exchange-correlation= SLA  PW   PBX  PBC
                           (   1   4   3   4   0   0   0)

     celldm(1)=  11.098884  celldm(2)=   0.000000  celldm(3)=   0.000000
     celldm(4)=   0.000000  celldm(5)=   0.000000  celldm(6)=   0.000000

     crystal axes: (cart. coord. in units of alat)
               a(1) = (   1.000000   0.000000   0.000000 )
               a(2) = (   0.000000   1.000000   0.000000 )
               a(3) = (  -0.500000   0.500000   0.707113 )

     reciprocal axes: (cart. coord. in units 2 pi/alat)
               b(1) = (  1.000000  0.000000  0.707100 )
               b(2) = (  0.000000  1.000000 -0.707101 )
               b(3) = (  0.000000  0.000000  1.414201 )

     PseudoPot. # 1 for Mn read from file:
     /home/pragov/projects/rrg-bengioy-ad/pragov/crystal_structure_design/SSSP/mn_pbe_v1.5.uspp.F.UPF
     MD5 check sum: 82ef2b46521d7a7d9e736dc3972e4928
     Pseudo is Ultrasoft + core correction, Zval = 15.0
     Generated by new atomic code, or converted to UPF format
     Using radial grid of  859 points,  6 beta functions with:
                l(1) =   0
                l(2) =   0
                l(3) =   1
                l(4) =   1
                l(5) =   2
                l(6) =   2
     Q(r) pseudized with  8 coefficients,  rinner =    0.950   0.950   0.950
                                                       0.950   0.950

     PseudoPot. # 2 for Al read from file:
     /home/pragov/projects/rrg-bengioy-ad/pragov/crystal_structure_design/SSSP/Al.pbe-n-kjpaw_psl.1.0.0.UPF
     MD5 check sum: cfc449ca30b5f3223ec38ddd88ac046d
     Pseudo is Projector augmented-wave + core cor, Zval =  3.0
     Generated using "atomic" code by A. Dal Corso  v.5.1
     Shape of augmentation charge: PSQ
     Using radial grid of 1135 points,  6 beta functions with:
                l(1) =   0
                l(2) =   0
                l(3) =   1
                l(4) =   1
                l(5) =   2
                l(6) =   2
     Q(r) pseudized with 0 coefficients

     PseudoPot. # 3 for O  read from file:
     /home/pragov/projects/rrg-bengioy-ad/pragov/crystal_structure_design/SSSP/O.pbe-n-kjpaw_psl.0.1.UPF
     MD5 check sum: 0234752ac141de4415c5fc33072bef88
     Pseudo is Projector augmented-wave + core cor, Zval =  6.0
     Generated using "atomic" code by A. Dal Corso  v.5.0.99 svn rev. 10869
     Shape of augmentation charge: BESSEL
     Using radial grid of 1095 points,  4 beta functions with:
                l(1) =   0
                l(2) =   0
                l(3) =   1
                l(4) =   1
     Q(r) pseudized with 0 coefficients

     atomic species   valence    mass     pseudopotential
        Mn            15.00    54.93804     Mn( 1.00)
        Al             3.00    26.98154     Al( 1.00)
        O              6.00    15.99900     O ( 1.00)

     16 Sym. Ops., with inversion, found ( 8 have fractional translation)

                                    s                        frac. trans.

      isym =  1     identity

 cryst.   s( 1) = (     1          0          0      )
                  (     0          1          0      )
                  (     0          0          1      )

 cart.    s( 1) = (  1.0000000  0.0000000 -0.0000000 )
                  (  0.0000000  1.0000000  0.0000000 )
                  (  0.0000000  0.0000000  1.0000000 )

      isym =  2     180 deg rotation - cart. axis [0,0,1]

[...]

 cryst.   s( 3) = (    -1          0          0      )    f =(  0.2500000 )
                  (     0          1          0      )       (  0.2500000 )
                  (     0          1         -1      )       (  0.5000000 )

 cart.    s( 3) = ( -1.0000000  0.0000000  0.0000000 )    f =(  0.0000001 )
                  (  0.0000000  1.0000000  0.0000000 )       (  0.4999999 )
                  (  0.0000000  0.0000000 -1.0000000 )       (  0.3535565 )

[...]

 cryst.   s( 6) = (     0         -1          0      )
                  (    -1          0          0      )
                  (    -1          1         -1      )

 cart.    s( 6) = (  0.0000000 -1.0000001 -0.0000002 )
                  ( -0.9999999  0.0000000  0.0000002 )
                  (  0.0000000  0.0000000 -1.0000000 )

[...]

      isym =  8      90 deg rotation - cart. axis [0,0,1]

[...]

      isym =  9     inversion

 cryst.   s( 9) = (    -1          0          0      )    f =(  0.2500000 )
                  (     0         -1          0      )       (  0.2500000 )
                  (     0          0         -1      )       (  0.5000000 )

 cart.    s( 9) = ( -1.0000000  0.0000000  0.0000000 )    f =(  0.0000001 )
                  (  0.0000000 -1.0000000 -0.0000000 )       (  0.4999999 )
                  (  0.0000000  0.0000000 -1.0000000 )       (  0.3535565 )

      isym = 10     inv. 180 deg rotation - cart. axis [0,0,1]

 cryst.   s(10) = (     1          0          0      )    f =(  0.2500000 )
                  (     0          1          0      )       (  0.2500000 )
                  (    -1          1         -1      )       (  0.5000000 )

 cart.    s(10) = (  1.0000000  0.0000000 -0.0000003 )    f =(  0.0000001 )
                  (  0.0000000  1.0000000  0.0000000 )       (  0.4999999 )
                  (  0.0000000  0.0000000 -1.0000000 )       (  0.3535565 )

[...]

 cryst.   s(11) = (     1          0          0      )
                  (     0         -1          0      )
                  (     0         -1          1      )

 cart.    s(11) = (  1.0000000  0.0000000 -0.0000000 )
                  (  0.0000000 -1.0000000 -0.0000000 )
                  (  0.0000000  0.0000000  1.0000000 )

[...]

 cryst.   s(14) = (     0          1          0      )    f =(  0.2500000 )
                  (     1          0          0      )       (  0.2500000 )
                  (     1         -1          1      )       (  0.5000000 )

 cart.    s(14) = (  0.0000000  1.0000001  0.0000002 )    f =(  0.0000001 )
                  (  0.9999999  0.0000000 -0.0000002 )       (  0.4999999 )
                  (  0.0000000  0.0000000  1.0000000 )       (  0.3535565 )

[...]

      isym = 16     inv.  90 deg rotation - cart. axis [0,0,1]

 cryst.   s(16) = (     0         -1          0      )
                  (     1          0          0      )
                  (     0          1         -1      )

 cart.    s(16) = (  0.0000000  1.0000001 -0.0000002 )
                  ( -0.9999999  0.0000000  0.0000002 )
                  (  0.0000000  0.0000000 -1.0000000 )

   Cartesian axes

     site n.     atom                  positions (alat units)
         1           Mn  tau(   1) = (   0.5000001   0.9999999   0.3535565  )
         2           Mn  tau(   2) = (   0.0000000   0.0000000   0.0000000  )
         3           Al  tau(   3) = (   0.2500000   0.4999999   0.1767782  )
         4           Al  tau(   4) = (   0.7500000   0.4999999   0.1767782  )
         5           Al  tau(   5) = (   0.0000001   0.7499999   0.5303347  )
         6           Al  tau(   6) = (   0.0000001   1.2499998   0.5303347  )
         7           O   tau(   7) = (  -0.0000010   0.2834030   0.2004015  )
         8           O   tau(   8) = (   0.5000010   0.2834020   0.1531550  )
         9           O   tau(   9) = (   0.2165981   0.4999989   0.5067115  )
        10           O   tau(  10) = (  -0.2165969   0.4999989   0.5067115  )
        11           O   tau(  11) = (   0.5000010   0.7165969   0.1531550  )
        12           O   tau(  12) = (  -0.0000010   0.7165979   0.2004015  )
        13           O   tau(  13) = (   0.2165971   1.0000009   0.5539579  )
        14           O   tau(  14) = (  -0.2165979   1.0000009   0.5539579  )

   Crystallographic axes

     site n.     atom                  positions (cryst. coord.)
         1           Mn  tau(   1) = (  0.7500000  0.7500000  0.5000000  )
         2           Mn  tau(   2) = (  0.0000000  0.0000000  0.0000000  )
         3           Al  tau(   3) = (  0.3750000  0.3750000  0.2500000  )
         4           Al  tau(   4) = (  0.8750000  0.3750000  0.2500000  )
         5           Al  tau(   5) = (  0.3750000  0.3750000  0.7500000  )
         6           Al  tau(   6) = (  0.3750000  0.8750000  0.7500000  )
         7           O   tau(   7) = (  0.1417030  0.1416990  0.2834080  )
         8           O   tau(   8) = (  0.6082970  0.1751060  0.2165920  )
         9           O   tau(   9) = (  0.5748940  0.1417030  0.7165920  )
        10           O   tau(  10) = (  0.1416990  0.1417030  0.7165920  )
        11           O   tau(  11) = (  0.6082970  0.6083010  0.2165920  )
        12           O   tau(  12) = (  0.1417030  0.5748940  0.2834080  )
        13           O   tau(  13) = (  0.6083010  0.6082970  0.7834080  )
        14           O   tau(  14) = (  0.1751060  0.6082970  0.7834080  )

     number of k points=     6
                       cart. coord. in units 2pi/alat
        k(    1) = (   0.0000000   0.0000000   0.0000000), wk =   0.0740741
        k(    2) = (   0.0000000   0.0000000   0.4714004), wk =   0.1481481
        k(    3) = (   0.0000000   0.3333334  -0.2357002), wk =   0.5925926
        k(    4) = (   0.0000000   0.3333334  -0.7071006), wk =   0.2962963
        k(    5) = (   0.3333333   0.3333334  -0.0000001), wk =   0.2962963
        k(    6) = (   0.3333333   0.3333334   0.4714004), wk =   0.5925926

                       cryst. coord.
        k(    1) = (   0.0000000   0.0000000   0.0000000), wk =   0.0740741
        k(    2) = (   0.0000000   0.0000000   0.3333333), wk =   0.1481481
        k(    3) = (   0.0000000   0.3333333  -0.0000000), wk =   0.5925926
        k(    4) = (   0.0000000   0.3333333  -0.3333333), wk =   0.2962963
        k(    5) = (   0.3333333   0.3333333  -0.0000000), wk =   0.2962963
        k(    6) = (   0.3333333   0.3333333   0.3333333), wk =   0.5925926

     Check: negative core charge=   -0.000018

     Initial potential from superposition of free atoms

     starting charge      88.9907, renormalised to      90.0000
     Starting wfcs are   74 randomized atomic wfcs
     Checking if some PAW data can be deallocated...

     Self-consistent Calculation

     iteration #  1     ecut=    30.00 Ry     beta= 0.70
     Davidson diagonalization with overlap

     ethr =  1.00E-02,  avg # of iterations =  5.0

     total energy              =    -913.07037973 Ry
     estimated scf accuracy    <       2.28679336 Ry

[...]

     total energy              =    -914.20297391 Ry
     estimated scf accuracy    <       0.00000163 Ry

     iteration # 20     ecut=    30.00 Ry     beta= 0.70
     Davidson diagonalization with overlap

     ethr =  1.81E-09,  avg # of iterations =  1.0

     End of self-consistent calculation

          k = 0.0000 0.0000 0.0000 (  2733 PWs)   bands (ev):

   -68.7093 -68.7089 -37.4924 -37.4921 -37.4921 -37.4891 -37.4887 -37.4887
   -11.5701 -10.3340  -9.6835  -9.6835  -9.6834  -9.3969  -9.3969  -9.3968
     1.4815   1.4816   1.4816   1.5853   2.1332   2.1332   2.2081   4.5904
     4.5905   4.5905   5.3040   5.3040   5.3041   5.4450   5.4450   5.5232
     5.5232   5.5233   6.1067   6.1067   6.1067   6.2299   6.2299   6.2300
    10.1295  10.1297  10.2085  10.2088  10.4959  10.4959  10.4960  11.3206
    11.3378  11.3378  11.3380  15.3902  15.3903  15.3903  16.0334  16.0334
    16.0335  17.0180  17.2415  18.5483  18.5485  18.9404  18.9404  18.9405

     occupation numbers
     1.0000   1.0000   1.0000   1.0000   1.0000   1.0000   1.0000   1.0000
     1.0000   1.0000   1.0000   1.0000   1.0000   1.0000   1.0000   1.0000
     1.0000   1.0000   1.0000   1.0000   1.0000   1.0000   1.0000   1.0000
     1.0000   1.0000   1.0000   1.0000   1.0000   1.0000   1.0000   1.0000
     1.0000   1.0000   1.0000   1.0000   1.0000   1.0000   1.0000   1.0000
     1.0000   1.0000   1.0000   1.0000   1.0000   0.0000   0.0000   0.0000
     0.0000   0.0000   0.0000   0.0000   0.0000   0.0000   0.0000   0.0000
     0.0000   0.0000   0.0000   0.0000   0.0000   0.0000   0.0000   0.0000

[...]

          k = 0.3333 0.3333 0.4714 (  2662 PWs)   bands (ev):

   -68.7080 -68.7080 -37.4855 -37.4849 -37.4834 -37.4806 -37.4796 -37.4792
   -11.0765 -10.7911  -9.9148  -9.6734  -9.6329  -9.4384  -9.4257  -9.3775
     2.0746   2.2465   2.3436   2.3986   2.7903   3.0272   3.1005   3.1800
     3.7620   3.8082   3.8637   4.1763   4.8577   5.2867   5.3834   5.4410
     5.4987   5.6610   5.6664   5.7710   5.7849   6.0193   6.1491   6.2762
    10.1790  10.2267  10.2986  10.3484  10.4302  10.6169  10.6448  10.8401
    10.9236  11.2466  14.3618  14.9861  15.1058  16.8158  16.8163  17.6378
    17.9554  18.2112  18.3201  18.5406  18.6148  19.2938  19.3994  19.8503

     occupation numbers
     1.0000   1.0000   1.0000   1.0000   1.0000   1.0000   1.0000   1.0000
     1.0000   1.0000   1.0000   1.0000   1.0000   1.0000   1.0000   1.0000
     1.0000   1.0000   1.0000   1.0000   1.0000   1.0000   1.0000   1.0000
     1.0000   1.0000   1.0000   1.0000   1.0000   1.0000   1.0000   1.0000
     1.0000   1.0000   1.0000   1.0000   1.0000   1.0000   1.0000   1.0000
     1.0000   1.0000   1.0000   1.0000   1.0000   0.0000   0.0000   0.0000
     0.0000   0.0000   0.0000   0.0000   0.0000   0.0000   0.0000   0.0000
     0.0000   0.0000   0.0000   0.0000   0.0000   0.0000   0.0000   0.0000

     highest occupied, lowest unoccupied level (ev):    10.4959   10.4959

!    total energy              =    -914.20297390 Ry
     estimated scf accuracy    <       0.00000005 Ry

     The total energy is the sum of the following terms:
     one-electron contribution =    -341.07884299 Ry
     hartree contribution      =     223.41560633 Ry
     xc contribution           =    -123.81032901 Ry
     ewald contribution        =    -458.01062147 Ry
     one-center paw contrib.   =    -214.71878676 Ry
      -> PAW hartree energy AE =       0.00000000 Ry
      -> PAW hartree energy PS =       0.00000000 Ry
      -> PAW xc energy AE      =       0.00000000 Ry
      -> PAW xc energy PS      =       0.00000000 Ry
      -> total E_H with PAW    =     223.41560633 Ry
      -> total E_XC with PAW   =    -123.81032901 Ry

     convergence has been achieved in  20 iterations

     Writing all to output data dir calculations_bands/myprefix.save/

     General routines

     Parallel routines

     PAW routines

   This run was terminated on:  15:56: 3   4Jun2023

   JOB DONE.