     Program PWSCF v.7.1 starts on 15Jul2023 at 22: 0:42

     Reading input from espresso_10763.pwi
Warning: card &CELL ignored
Warning: card / ignored

     Current dimensions of program PWSCF are:
     Max number of different atomic species (ntypx) = 10
     Max number of k-points (npk) =  40000
     Max angular momentum in pseudopotentials (lmaxx) =  4
     file O.pbe-n-kjpaw_psl.0.1.UPF: wavefunction(s)  2P renormalized

     K-points division:     npool     =       2
     R & G space division:  proc/nbgrp/npool/nimage =       4
     Subspace diagonalization in iterative solution of the eigenvalue problem:
     one sub-group per band group will be used

     Using Slab Decomposition

     bravais-lattice index     =            0
     lattice parameter (alat)  =      12.2807  a.u.
     unit-cell volume          =    1422.7791 (a.u.)^3
     number of atoms/cell      =           20
     number of atomic types    =            4
     number of electrons       =       178.00
     number of Kohn-Sham states=          256
     kinetic-energy cutoff     =      30.0000  Ry
     charge density cutoff     =     240.0000  Ry
     scf convergence threshold =      1.0E-06
     mixing beta               =       0.7000
     number of iterations used =            8  plain     mixing
     Exchange-correlation= SLA  PW   PBX  PBC
                           (   1   4   3   4   0   0   0)

     celldm(1)=  12.280741  celldm(2)=   0.000000  celldm(3)=   0.000000
     celldm(4)=   0.000000  celldm(5)=   0.000000  celldm(6)=   0.000000

     crystal axes: (cart. coord. in units of alat)
               a(1) = (   1.000000   0.000000   0.000000 )
               a(2) = (  -0.334265   0.942393   0.000000 )
               a(3) = (   0.331362   0.469043   0.815139 )

     reciprocal axes: (cart. coord. in units 2 pi/alat)
               b(1) = (  1.000000  0.354698 -0.610608 )
               b(2) = (  0.000000  1.061129 -0.610589 )
               b(3) = (  0.000000  0.000000  1.226784 )

     PseudoPot. # 1 for Na read from file:
     /lustre07/scratch/pragov/crystal_structure_design/utils/SSSP/na_pbe_v1.5.uspp.F.UPF
     MD5 check sum: 44600605ef58000f06b90626533354dc
     Pseudo is Ultrasoft, Zval =  9.0
     Generated by new atomic code, or converted to UPF format
     Using radial grid of  819 points,  5 beta functions with:
                l(1) =   0
                l(2) =   0
                l(3) =   1
                l(4) =   1
                l(5) =   2
     Q(r) pseudized with  8 coefficients,  rinner =    1.250   1.250   1.250
                                                       1.250   1.250

     PseudoPot. # 2 for Mn read from file:
     /lustre07/scratch/pragov/crystal_structure_design/utils/SSSP/mn_pbe_v1.5.uspp.F.UPF
     MD5 check sum: 82ef2b46521d7a7d9e736dc3972e4928
     Pseudo is Ultrasoft + core correction, Zval = 15.0
     Generated by new atomic code, or converted to UPF format
     Using radial grid of  859 points,  6 beta functions with:
                l(1) =   0
                l(2) =   0
                l(3) =   1
                l(4) =   1
                l(5) =   2
                l(6) =   2
     Q(r) pseudized with  8 coefficients,  rinner =    0.950   0.950   0.950
                                                       0.950   0.950

     PseudoPot. # 3 for V  read from file:
     /lustre07/scratch/pragov/crystal_structure_design/utils/SSSP/v_pbe_v1.4.uspp.F.UPF
     MD5 check sum: 22b79981416ebb76fdaf5b1b8640f6fb
     Pseudo is Ultrasoft + core correction, Zval = 13.0
     Generated by new atomic code, or converted to UPF format
     Using radial grid of  853 points,  6 beta functions with:
                l(1) =   0
                l(2) =   0
                l(3) =   1
                l(4) =   1
                l(5) =   2
                l(6) =   2
     Q(r) pseudized with  8 coefficients,  rinner =    1.100   1.100   1.100
                                                       1.100   1.100

     PseudoPot. # 4 for O  read from file:
     /lustre07/scratch/pragov/crystal_structure_design/utils/SSSP/O.pbe-n-kjpaw_psl.0.1.UPF
     MD5 check sum: 0234752ac141de4415c5fc33072bef88
     Pseudo is Projector augmented-wave + core cor, Zval =  6.0
     Generated using "atomic" code by A. Dal Corso  v.5.0.99 svn rev. 10869
     Shape of augmentation charge: BESSEL
     Using radial grid of 1095 points,  4 beta functions with:
                l(1) =   0
                l(2) =   0
                l(3) =   1
                l(4) =   1
     Q(r) pseudized with 0 coefficients

     atomic species   valence    mass     pseudopotential
        Na             9.00    22.98977     Na( 1.00)
        Mn            15.00    54.93804     Mn( 1.00)
        V             13.00    50.94150     V ( 1.00)
        O              6.00    15.99900     O ( 1.00)

     No symmetry found

                                    s                        frac. trans.

      isym =  1     identity

 cryst.   s( 1) = (     1          0          0      )
                  (     0          1          0      )
                  (     0          0          1      )

 cart.    s( 1) = (  1.0000000  0.0000000 -0.0000000 )
                  (  0.0000000  1.0000000  0.0000000 )
                  (  0.0000000  0.0000000  1.0000000 )

   Cartesian axes

     site n.     atom                  positions (alat units)
         1           Na  tau(   1) = (   0.0000876   0.0000263   0.0000440  )
         2           Mn  tau(   2) = (   0.6650049   0.2349137   0.4066624  )
         3           Mn  tau(   3) = (   0.3331881   0.4715313   0.0000448  )
         4           Mn  tau(   4) = (   0.9976405   0.7044652   0.4077196  )
         5           V   tau(   5) = (   0.1643697   0.9402641   0.8149901  )
         6           V   tau(   6) = (   0.4983941   0.7058406   0.4077400  )
         7           V   tau(   7) = (   0.1656937   0.9423044   0.0000970  )
         8           V   tau(   8) = (   0.8314328   1.1767739   0.4076300  )
         9           O   tau(   9) = (   0.0652772   1.0905071   0.5661012  )
        10           O   tau(  10) = (   0.6698757   0.5120557   0.5790847  )
        11           O   tau(  11) = (   0.3274954   0.8993069   0.2358826  )
        12           O   tau(  12) = (   0.9318948   0.3210946   0.2491441  )
        13           O   tau(  13) = (   0.6718313   1.2176511   0.6527424  )
        14           O   tau(  14) = (   0.5932409   0.5708455   0.1698220  )
        15           O   tau(  15) = (   0.4042552   0.8406262   0.6455838  )
        16           O   tau(  16) = (   0.3255554   0.1941342   0.1623782  )
        17           O   tau(  17) = (   0.2574229   0.5153431   0.4126952  )
        18           O   tau(  18) = (   1.0059302   0.7122446   0.7338667  )
        19           O   tau(  19) = (  -0.0087273   0.6992070   0.0815058  )
        20           O   tau(  20) = (   0.7397436   0.8961843   0.4025174  )

   Crystallographic axes

     site n.     atom                  positions (cryst. coord.)
         1           Na  tau(   1) = (  0.0000700  0.0000010  0.0000540  )
         2           Mn  tau(   2) = (  0.5000170  0.0009700  0.4988870  )
         3           Mn  tau(   3) = (  0.5004120  0.5003280  0.0000550  )
         4           Mn  tau(   4) = (  0.9985560  0.4985790  0.5001840  )
         5           V   tau(   5) = (  0.0002400  0.5001170  0.9998170  )
         6           V   tau(   6) = (  0.4997850  0.5000260  0.5002090  )
         7           V   tau(   7) = (  0.4998680  0.9998470  0.0001190  )
         8           V   tau(   8) = (  0.9999300  0.9998140  0.5000740  )
         9           O   tau(   9) = (  0.1064120  0.8115130  0.6944840  )
        10           O   tau(  10) = (  0.4979070  0.1897740  0.7104120  )
        11           O   tau(  11) = (  0.5024460  0.8102530  0.2893770  )
        12           O   tau(  12) = (  0.8936570  0.1885980  0.3056460  )
        13           O   tau(  13) = (  0.7051600  0.8935270  0.8007740  )
        14           O   tau(  14) = (  0.6920240  0.5020490  0.2083350  )
        15           O   tau(  15) = (  0.3082250  0.4978260  0.7919920  )
        16           O   tau(  16) = (  0.2952650  0.1068550  0.1992030  )
        17           O   tau(  17) = (  0.1882190  0.2948580  0.5062880  )
        18           O   tau(  18) = (  0.8104570  0.3076920  0.9002960  )
        19           O   tau(  19) = (  0.1895120  0.6921820  0.0999900  )
        20           O   tau(  20) = (  0.8118380  0.7051940  0.4938020  )

     number of k points=    14
                       cart. coord. in units 2pi/alat
        k(    1) = (   0.0000000   0.0000000   0.0000000), wk =   0.0740741
        k(    2) = (   0.0000000   0.0000000   0.4089281), wk =   0.1481481
        k(    3) = (   0.0000000   0.3537096  -0.2035298), wk =   0.1481481
        k(    4) = (   0.0000000   0.3537096   0.2053983), wk =   0.1481481
        k(    5) = (   0.0000000   0.3537096  -0.6124578), wk =   0.1481481
        k(    6) = (   0.3333333   0.1182327  -0.2035360), wk =   0.1481481
        k(    7) = (   0.3333333   0.1182327   0.2053920), wk =   0.1481481
        k(    8) = (   0.3333333   0.1182327  -0.6124641), wk =   0.1481481
        k(    9) = (   0.3333333   0.4719422  -0.4070658), wk =   0.1481481
        k(   10) = (   0.3333333   0.4719422   0.0018623), wk =   0.1481481
        k(   11) = (   0.3333333   0.4719422  -0.8159938), wk =   0.1481481
        k(   12) = (   0.3333333  -0.2354769  -0.0000063), wk =   0.1481481
        k(   13) = (   0.3333333  -0.2354769   0.4089218), wk =   0.1481481
        k(   14) = (   0.3333333  -0.2354769  -0.4089343), wk =   0.1481481

                       cryst. coord.
        k(    1) = (   0.0000000   0.0000000   0.0000000), wk =   0.0740741
        k(    2) = (   0.0000000   0.0000000   0.3333333), wk =   0.1481481
        k(    3) = (   0.0000000   0.3333333   0.0000000), wk =   0.1481481
        k(    4) = (   0.0000000   0.3333333   0.3333333), wk =   0.1481481
        k(    5) = (   0.0000000   0.3333333  -0.3333333), wk =   0.1481481
        k(    6) = (   0.3333333   0.0000000  -0.0000000), wk =   0.1481481
        k(    7) = (   0.3333333   0.0000000   0.3333333), wk =   0.1481481
        k(    8) = (   0.3333333   0.0000000  -0.3333333), wk =   0.1481481
        k(    9) = (   0.3333333   0.3333333   0.0000000), wk =   0.1481481
        k(   10) = (   0.3333333   0.3333333   0.3333333), wk =   0.1481481
        k(   11) = (   0.3333333   0.3333333  -0.3333333), wk =   0.1481481
        k(   12) = (   0.3333333  -0.3333333  -0.0000000), wk =   0.1481481
        k(   13) = (   0.3333333  -0.3333333   0.3333333), wk =   0.1481481
        k(   14) = (   0.3333333  -0.3333333  -0.3333333), wk =   0.1481481

     Check: negative core charge=   -0.000025

     Initial potential from superposition of free atoms

     starting charge     176.4885, renormalised to     178.0000

     negative rho (up, down):  4.886E-03 0.000E+00
     Starting wfcs are  132 randomized atomic wfcs +  124 random wfcs
     Checking if some PAW data can be deallocated...

     Self-consistent Calculation

     iteration #  1     ecut=    30.00 Ry     beta= 0.70
     Davidson diagonalization with overlap

     ethr =  1.00E-02,  avg # of iterations =  6.1

     negative rho (up, down):  8.858E-03 0.000E+00

     total energy              =   -1802.04687954 Ry
     estimated scf accuracy    <      10.68486211 Ry

[...]

     total energy              =   -1809.05154730 Ry
     estimated scf accuracy    <       0.00000531 Ry

     iteration #128     ecut=    30.00 Ry     beta= 0.70
     Davidson diagonalization with overlap

     ethr =  1.02E-09,  avg # of iterations =  1.0

     negative rho (up, down):  6.555E-03 0.000E+00

     End of self-consistent calculation

          k = 0.0000 0.0000 0.0000 (  3997 PWs)   bands (ev):

   -68.4045 -68.4033 -68.4028 -55.0355 -54.9835 -54.9817 -54.9813 -40.6204
   -37.1987 -37.1974 -37.1935 -37.1709 -37.1652 -37.1645 -37.0817 -37.0809
   -37.0789 -28.8999 -28.8994 -28.8902 -28.8893 -28.8886 -28.8191 -28.7846
   -28.7791 -28.7785 -28.7272 -28.7269 -28.7190 -12.5410 -12.5408 -12.5367
    -9.1731  -8.1749  -8.1555  -8.1544  -7.9794  -7.9787  -7.7532  -7.7338
    -7.7327  -7.6440  -7.6432  -7.5995   3.6261   3.6264   4.0261   4.0355
     4.0380   4.1684   4.4488   4.5081   4.5086   5.2741   5.4000   5.4003
     5.5481   5.5490   5.7271   6.5439   6.5699   6.5929   6.5943   6.6813
     6.6823   6.7597   6.7623   6.7896   6.8660   6.8675   6.9661   7.1078
     7.4557   7.4599   7.8487   7.8514   7.8558   8.3206   8.3219   8.3351
     9.9151   9.9879   9.9887  10.5162  10.5166  10.5847  10.6218  10.6466
    10.6473  10.8660  10.8668  10.8897  11.0040  11.0047  11.0277  11.0510
    11.2683  11.2713  11.7293  11.7310  11.8783  11.8792  11.9492  12.5048
    12.5332  12.5788  12.5805  12.7697  12.7706  13.6367  13.8823  13.8845
    14.6816  15.6721  15.6736  15.7914  18.2354  18.2992  18.3061  18.6007
    18.6045  19.2061  19.9761  19.9820  19.9957  22.8860  22.8900  22.9817
    23.4887  23.4916  23.5394  23.5405  23.6755  23.7116  23.7216  23.8026
    24.3803  25.6258  25.8330  25.9257  25.9312  25.9540  25.9689  25.9729
    26.6915  26.6953  26.7685  26.7732  27.2181  27.2247  27.4013  27.4035
    27.4262  27.7134  29.1212  29.1309  29.1349  29.5298  29.7907  29.7951
    29.8202  32.3532  32.3569  32.3762  33.0578  33.5924  33.8510  33.8569
    33.9767  33.9849  34.5547  34.5611  34.5633  35.5586  35.8272  35.8325
    36.4476  36.4529  36.5836  36.6754  36.6872  36.7671  36.7691  36.9018
    37.7680  37.7948  37.7996  37.8058  38.7812  39.0320  39.2545  39.2603
    39.3692  39.4579  39.4621  39.7176  39.8864  39.8944  40.3179  40.3234
    40.3268  40.5737  41.3659  41.6014  41.6041  42.0101  42.0210  42.1603
    42.8210  42.8554  43.3559  43.3614  43.5875  43.5977  44.0034  44.0062
    44.0544  44.1148  44.2939  44.2989  44.3132  44.3185  45.4451  45.4579
    45.4898  46.0762  46.0800  46.2587  46.5019  46.5473  46.5601  46.9135
    46.9186  47.2797  47.2963  47.7289  48.2564  48.3133  48.7468  48.7523
    49.0116  49.0252  49.0598  49.1355  49.4283  49.4348  49.6298  49.7259
    49.7339  49.7374  50.4153  50.4208  51.2013  51.2061  51.2790  51.3128

     occupation numbers
     1.0000   1.0000   1.0000   1.0000   1.0000   1.0000   1.0000   1.0000
     1.0000   1.0000   1.0000   1.0000   1.0000   1.0000   1.0000   1.0000
     1.0000   1.0000   1.0000   1.0000   1.0000   1.0000   1.0000   1.0000
     1.0000   1.0000   1.0000   1.0000   1.0000   1.0000   1.0000   1.0000
     1.0000   1.0000   1.0000   1.0000   1.0000   1.0000   1.0000   1.0000
     1.0000   1.0000   1.0000   1.0000   1.0000   1.0000   1.0000   1.0000
     1.0000   1.0000   1.0000   1.0000   1.0000   1.0000   1.0000   1.0000
     1.0000   1.0000   1.0000   1.0000   1.0000   1.0000   1.0000   1.0000
     1.0000   1.0000   1.0000   1.0000   1.0000   1.0000   1.0000   1.0000
     1.0000   1.0000   1.0000   1.0000   1.0000   1.0000   1.0000   1.0000
     1.0000   1.0000   1.0000   1.0000   1.0000   1.0000   1.0000   1.0000
     1.0000   0.0000   0.0000   0.0000   0.0000   0.0000   0.0000   0.0000
     0.0000   0.0000   0.0000   0.0000   0.0000   0.0000   0.0000   0.0000
     0.0000   0.0000   0.0000   0.0000   0.0000   0.0000   0.0000   0.0000
     0.0000   0.0000   0.0000   0.0000   0.0000   0.0000   0.0000   0.0000
     0.0000   0.0000   0.0000   0.0000   0.0000   0.0000   0.0000   0.0000
     0.0000   0.0000   0.0000   0.0000   0.0000   0.0000   0.0000   0.0000
     0.0000   0.0000   0.0000   0.0000   0.0000   0.0000   0.0000   0.0000
     0.0000   0.0000   0.0000   0.0000   0.0000   0.0000   0.0000   0.0000
     0.0000   0.0000   0.0000   0.0000   0.0000   0.0000   0.0000   0.0000
     0.0000   0.0000   0.0000   0.0000   0.0000   0.0000   0.0000   0.0000
     0.0000   0.0000   0.0000   0.0000   0.0000   0.0000   0.0000   0.0000
     0.0000   0.0000   0.0000   0.0000   0.0000   0.0000   0.0000   0.0000
     0.0000   0.0000   0.0000   0.0000   0.0000   0.0000   0.0000   0.0000
     0.0000   0.0000   0.0000   0.0000   0.0000   0.0000   0.0000   0.0000
     0.0000   0.0000   0.0000   0.0000   0.0000   0.0000   0.0000   0.0000
     0.0000   0.0000   0.0000   0.0000   0.0000   0.0000   0.0000   0.0000
     0.0000   0.0000   0.0000   0.0000   0.0000   0.0000   0.0000   0.0000
     0.0000   0.0000   0.0000   0.0000   0.0000   0.0000   0.0000   0.0000
     0.0000   0.0000   0.0000   0.0000   0.0000   0.0000   0.0000   0.0000
     0.0000   0.0000   0.0000   0.0000   0.0000   0.0000   0.0000   0.0000
     0.0000   0.0000   0.0000   0.0000   0.0000   0.0000   0.0000   0.0000

[...]

          k = 0.3333-0.2355-0.4089 (  3936 PWs)   bands (ev):

   -68.4039 -68.4027 -68.4023 -55.0352 -54.9825 -54.9819 -54.9811 -40.6198
   -37.1935 -37.1921 -37.1897 -37.1650 -37.1619 -37.1614 -37.0776 -37.0772
   -37.0739 -28.8971 -28.8947 -28.8938 -28.8875 -28.8854 -28.8149 -28.7854
   -28.7831 -28.7739 -28.7255 -28.7233 -28.7218 -12.5405 -12.5399 -12.5361
    -8.7553  -8.4723  -8.4541  -7.9932  -7.9346  -7.9012  -7.8121  -7.7638
    -7.7387  -7.7136  -7.6214  -7.6158   4.1278   4.1635   4.2147   4.3031
     4.3664   4.5410   4.5856   4.6347   4.8261   5.0008   5.0493   5.2763
     5.3374   5.5760   5.7537   5.7855   5.9064   5.9684   6.1747   6.2681
     6.3865   6.4813   6.6390   6.6969   6.8992   7.0250   7.1724   7.2331
     7.3507   7.5407   7.8919   7.9912   8.0377   8.0827   8.1615   8.3496
    10.2324  10.4866  10.6066  10.6484  10.6612  10.6761  10.7294  10.8028
    10.8146  10.8710  10.8837  10.9363  10.9810  11.1440  11.1754  11.2568
    11.2837  11.4175  11.5454  11.5939  11.8254  11.9409  12.0229  12.1853
    12.4569  12.4690  12.6294  12.8756  13.1465  13.1680  13.7734  14.4592
    14.5377  15.2426  15.6954  16.5128  17.5383  17.8567  18.0669  18.3764
    18.4935  19.4652  20.1915  20.3747  20.4713  22.1692  22.3129  22.4538
    22.6979  23.1272  23.2592  23.9071  24.2793  24.4817  24.5058  24.5716
    24.7729  25.1178  25.2177  25.4148  25.4679  25.6095  25.7771  26.2248
    26.3347  26.8613  27.0704  27.6729  28.1891  28.2995  28.4287  28.4820
    28.6155  28.6966  28.8663  29.0616  29.4703  29.9719  30.1718  30.2489
    30.4408  30.7064  31.0767  31.4097  32.0120  32.1305  32.3109  32.4705
    32.8187  33.0584  33.7954  33.9003  34.8791  34.9963  35.1491  35.4849
    35.5895  35.6883  36.0182  36.4012  36.5913  37.2896  37.3667  37.4632
    37.5789  37.6611  37.9046  37.9598  38.1830  38.8994  39.1743  39.2183
    39.5103  39.9602  40.0313  40.1767  40.2645  40.4154  40.7056  40.9408
    41.0684  41.2423  41.5041  41.6149  41.6683  42.0962  42.2417  42.6730
    42.8000  42.9315  42.9753  43.2552  43.5470  44.0071  44.0451  44.3344
    44.6061  44.9067  45.2007  45.5405  45.6913  45.8231  45.9233  45.9989
    46.1873  46.3922  46.5042  46.6539  47.1126  47.2698  47.4685  47.5706
    47.7419  47.9322  48.1049  48.2589  48.3302  48.4719  48.5965  48.6794
    48.9306  48.9713  49.1315  49.2735  49.5080  49.5725  49.7718  49.9148
    50.1494  50.2899  50.4358  50.5202  50.6287  50.6416  50.7215  50.8771

     occupation numbers
     1.0000   1.0000   1.0000   1.0000   1.0000   1.0000   1.0000   1.0000
     1.0000   1.0000   1.0000   1.0000   1.0000   1.0000   1.0000   1.0000
     1.0000   1.0000   1.0000   1.0000   1.0000   1.0000   1.0000   1.0000
     1.0000   1.0000   1.0000   1.0000   1.0000   1.0000   1.0000   1.0000
     1.0000   1.0000   1.0000   1.0000   1.0000   1.0000   1.0000   1.0000
     1.0000   1.0000   1.0000   1.0000   1.0000   1.0000   1.0000   1.0000
     1.0000   1.0000   1.0000   1.0000   1.0000   1.0000   1.0000   1.0000
     1.0000   1.0000   1.0000   1.0000   1.0000   1.0000   1.0000   1.0000
     1.0000   1.0000   1.0000   1.0000   1.0000   1.0000   1.0000   1.0000
     1.0000   1.0000   1.0000   1.0000   1.0000   1.0000   1.0000   1.0000
     1.0000   1.0000   1.0000   1.0000   1.0000   1.0000   1.0000   1.0000
     1.0000   0.0000   0.0000   0.0000   0.0000   0.0000   0.0000   0.0000
     0.0000   0.0000   0.0000   0.0000   0.0000   0.0000   0.0000   0.0000
     0.0000   0.0000   0.0000   0.0000   0.0000   0.0000   0.0000   0.0000
     0.0000   0.0000   0.0000   0.0000   0.0000   0.0000   0.0000   0.0000
     0.0000   0.0000   0.0000   0.0000   0.0000   0.0000   0.0000   0.0000
     0.0000   0.0000   0.0000   0.0000   0.0000   0.0000   0.0000   0.0000
     0.0000   0.0000   0.0000   0.0000   0.0000   0.0000   0.0000   0.0000
     0.0000   0.0000   0.0000   0.0000   0.0000   0.0000   0.0000   0.0000
     0.0000   0.0000   0.0000   0.0000   0.0000   0.0000   0.0000   0.0000
     0.0000   0.0000   0.0000   0.0000   0.0000   0.0000   0.0000   0.0000
     0.0000   0.0000   0.0000   0.0000   0.0000   0.0000   0.0000   0.0000
     0.0000   0.0000   0.0000   0.0000   0.0000   0.0000   0.0000   0.0000
     0.0000   0.0000   0.0000   0.0000   0.0000   0.0000   0.0000   0.0000
     0.0000   0.0000   0.0000   0.0000   0.0000   0.0000   0.0000   0.0000
     0.0000   0.0000   0.0000   0.0000   0.0000   0.0000   0.0000   0.0000
     0.0000   0.0000   0.0000   0.0000   0.0000   0.0000   0.0000   0.0000
     0.0000   0.0000   0.0000   0.0000   0.0000   0.0000   0.0000   0.0000
     0.0000   0.0000   0.0000   0.0000   0.0000   0.0000   0.0000   0.0000
     0.0000   0.0000   0.0000   0.0000   0.0000   0.0000   0.0000   0.0000
     0.0000   0.0000   0.0000   0.0000   0.0000   0.0000   0.0000   0.0000
     0.0000   0.0000   0.0000   0.0000   0.0000   0.0000   0.0000   0.0000

     highest occupied, lowest unoccupied level (ev):    10.8334   10.8612

!    total energy              =   -1809.05154692 Ry
     estimated scf accuracy    <       0.00000052 Ry

     The total energy is the sum of the following terms:
     one-electron contribution =    -726.59673316 Ry
     hartree contribution      =     449.44202899 Ry
     xc contribution           =    -260.17397447 Ry
     ewald contribution        =   -1157.41014731 Ry
     one-center paw contrib.   =    -114.31272097 Ry
      -> PAW hartree energy AE =       0.00000000 Ry
      -> PAW hartree energy PS =       0.00000000 Ry
      -> PAW xc energy AE      =       0.00000000 Ry
      -> PAW xc energy PS      =       0.00000000 Ry
      -> total E_H with PAW    =     449.44202899 Ry
      -> total E_XC with PAW   =    -260.17397447 Ry

     convergence has been achieved in 128 iterations

     Writing all to output data dir bands_nm/myprefix.save/

     General routines

     Parallel routines

     PAW routines

   This run was terminated on:  22:11:20  15Jul2023

   JOB DONE.