     Program PWSCF v.7.1 starts on 14Jul2023 at  2:47:44

     Reading input from espresso_17640.pwi
Warning: card &CELL ignored
Warning: card / ignored

     Current dimensions of program PWSCF are:
     Max number of different atomic species (ntypx) = 10
     Max number of k-points (npk) =  40000
     Max angular momentum in pseudopotentials (lmaxx) =  4
     file In.pbe-dn-rrkjus_psl.0.2.2.UPF: wavefunction(s)  5S renormalized

     K-points division:     npool     =       2
     R & G space division:  proc/nbgrp/npool/nimage =       4
     Subspace diagonalization in iterative solution of the eigenvalue problem:
     a serial algorithm will be used

     Using Slab Decomposition

     bravais-lattice index     =            0
     lattice parameter (alat)  =      14.8267  a.u.
     unit-cell volume          =    1841.1374 (a.u.)^3
     number of atoms/cell      =            7
     number of atomic types    =            4
     number of electrons       =        70.00
     number of Kohn-Sham states=           64
     kinetic-energy cutoff     =      30.0000  Ry
     charge density cutoff     =     240.0000  Ry
     scf convergence threshold =      1.0E-06
     mixing beta               =       0.7000
     number of iterations used =            8  plain     mixing
     Exchange-correlation= SLA  PW   PBX  PBC
                           (   1   4   3   4   0   0   0)

     celldm(1)=  14.826718  celldm(2)=   0.000000  celldm(3)=   0.000000
     celldm(4)=   0.000000  celldm(5)=   0.000000  celldm(6)=   0.000000

     crystal axes: (cart. coord. in units of alat)
               a(1) = (   1.000000   0.000000   0.000000 )
               a(2) = (   0.832347   0.554255   0.000000 )
               a(3) = (   0.143743   0.043480   1.019158 )

     reciprocal axes: (cart. coord. in units 2 pi/alat)
               b(1) = (  1.000000 -1.501740 -0.076973 )
               b(2) = (  0.000000  1.804223 -0.076973 )
               b(3) = (  0.000000  0.000000  0.981202 )

     PseudoPot. # 1 for In read from file:
     /lustre07/scratch/pragov/crystal_structure_design/utils/SSSP/In.pbe-dn-rrkjus_psl.0.2.2.UPF
     MD5 check sum: 25e7c42c3b55b68f4bf926be2e7201a4
     Pseudo is Ultrasoft + core correction, Zval = 13.0
     Generated using "atomic" code by A. Dal Corso  v.5.0.99 svn rev. 10869
     Using radial grid of 1241 points,  6 beta functions with:
                l(1) =   0
                l(2) =   0
                l(3) =   1
                l(4) =   1
                l(5) =   2
                l(6) =   2
     Q(r) pseudized with 0 coefficients

     PseudoPot. # 2 for Ag read from file:
     /lustre07/scratch/pragov/crystal_structure_design/utils/SSSP/Ag_ONCV_PBE-1.0.oncvpsp.upf
     MD5 check sum: 94f47bd0669c641108e45594df92fabc
     Pseudo is Norm-conserving, Zval = 19.0
     Generated using ONCVPSP code by D. R. Hamann
     Using radial grid of 1398 points,  6 beta functions with:
                l(1) =   0
                l(2) =   0
                l(3) =   1
                l(4) =   1
                l(5) =   2
                l(6) =   2

     PseudoPot. # 3 for Te read from file:
     /lustre07/scratch/pragov/crystal_structure_design/utils/SSSP/Te_pbe_v1.uspp.F.UPF
     MD5 check sum: c319670d6894cc26e93307826a071b75
     Pseudo is Ultrasoft + core correction, Zval =  6.0
     Generated by new atomic code, or converted to UPF format
     Using radial grid of  891 points,  5 beta functions with:
                l(1) =   0
                l(2) =   0
                l(3) =   1
                l(4) =   1
                l(5) =   2
     Q(r) pseudized with  6 coefficients,  rinner =    1.800   1.800   1.800
                                                       1.800   1.800

     PseudoPot. # 4 for I  read from file:
     /lustre07/scratch/pragov/crystal_structure_design/utils/SSSP/I.pbe-n-kjpaw_psl.0.2.UPF
     MD5 check sum: d4ef18d9c8f18dc85e5843bca1e50dc0
     Pseudo is Projector augmented-wave + core cor, Zval =  7.0
     Generated using "atomic" code by A. Dal Corso  v.5.0.99 svn rev. 10869
     Shape of augmentation charge: PSQ
     Using radial grid of 1247 points,  4 beta functions with:
                l(1) =   0
                l(2) =   0
                l(3) =   1
                l(4) =   1
     Q(r) pseudized with 0 coefficients

     atomic species   valence    mass     pseudopotential
        In            13.00   114.81800     In( 1.00)
        Ag            19.00   107.86820     Ag( 1.00)
        Te             6.00   127.60000     Te( 1.00)
        I              7.00   126.90447     I ( 1.00)

     No symmetry found

                                    s                        frac. trans.

      isym =  1     identity

 cryst.   s( 1) = (     1          0          0      )
                  (     0          1          0      )
                  (     0          0          1      )

 cart.    s( 1) = (  1.0000000  0.0000000  0.0000000 )
                  (  0.0000000  1.0000000  0.0000000 )
                  (  0.0000000  0.0000000  1.0000000 )

   Cartesian axes

     site n.     atom                  positions (alat units)
         1           In  tau(   1) = (   1.1480813   0.3472759   0.8281940  )
         2           In  tau(   2) = (   1.4948797   0.4521768   0.0640214  )
         3           Ag  tau(   3) = (   0.6451369   0.1951434   0.5631651  )
         4           Te  tau(   4) = (   0.0131716   0.0039842   0.0198562  )
         5           Te  tau(   5) = (   0.4793689   0.1450013   0.2528785  )
         6           Te  tau(   6) = (   1.4854185   0.4493149   0.7562099  )
         7           I   tau(   7) = (   0.9967924   0.3015135   0.5094494  )

   Crystallographic axes

     site n.     atom                  positions (cryst. coord.)
         1           In  tau(   1) = (  0.5628150  0.5628150  0.8126260  )
         2           In  tau(   2) = (  0.8109000  0.8109000  0.0628180  )
         3           Ag  tau(   3) = (  0.3087340  0.3087340  0.5525790  )
         4           Te  tau(   4) = (  0.0056600  0.0056600  0.0194830  )
         5           Te  tau(   5) = (  0.2421500  0.2421500  0.2481250  )
         6           Te  tau(   6) = (  0.7524570  0.7524570  0.7419950  )
         7           I   tau(   7) = (  0.5047840  0.5047840  0.4998730  )

     number of k points=    14
                       cart. coord. in units 2pi/alat
        k(    1) = (   0.0000000   0.0000000   0.0000000), wk =   0.0740741
        k(    2) = (   0.0000000   0.0000000   0.3270675), wk =   0.1481481
        k(    3) = (   0.0000000   0.6014078  -0.0256576), wk =   0.1481481
        k(    4) = (   0.0000000   0.6014078   0.3014099), wk =   0.1481481
        k(    5) = (   0.0000000   0.6014078  -0.3527250), wk =   0.1481481
        k(    6) = (   0.3333333  -0.5005799  -0.0256576), wk =   0.1481481
        k(    7) = (   0.3333333  -0.5005799   0.3014099), wk =   0.1481481
        k(    8) = (   0.3333333  -0.5005799  -0.3527250), wk =   0.1481481
        k(    9) = (   0.3333333   0.1008279  -0.0513151), wk =   0.1481481
        k(   10) = (   0.3333333   0.1008279   0.2757524), wk =   0.1481481
        k(   11) = (   0.3333333   0.1008279  -0.3783826), wk =   0.1481481
        k(   12) = (   0.3333333  -1.1019877   0.0000000), wk =   0.1481481
        k(   13) = (   0.3333333  -1.1019877   0.3270675), wk =   0.1481481
        k(   14) = (   0.3333333  -1.1019877  -0.3270675), wk =   0.1481481

                       cryst. coord.
        k(    1) = (   0.0000000   0.0000000   0.0000000), wk =   0.0740741
        k(    2) = (   0.0000000   0.0000000   0.3333333), wk =   0.1481481
        k(    3) = (   0.0000000   0.3333333   0.0000000), wk =   0.1481481
        k(    4) = (   0.0000000   0.3333333   0.3333333), wk =   0.1481481
        k(    5) = (   0.0000000   0.3333333  -0.3333333), wk =   0.1481481
        k(    6) = (   0.3333333   0.0000000  -0.0000000), wk =   0.1481481
        k(    7) = (   0.3333333   0.0000000   0.3333333), wk =   0.1481481
        k(    8) = (   0.3333333   0.0000000  -0.3333333), wk =   0.1481481
        k(    9) = (   0.3333333   0.3333333  -0.0000000), wk =   0.1481481
        k(   10) = (   0.3333333   0.3333333   0.3333333), wk =   0.1481481
        k(   11) = (   0.3333333   0.3333333  -0.3333333), wk =   0.1481481
        k(   12) = (   0.3333333  -0.3333333  -0.0000000), wk =   0.1481481
        k(   13) = (   0.3333333  -0.3333333   0.3333333), wk =   0.1481481
        k(   14) = (   0.3333333  -0.3333333  -0.3333333), wk =   0.1481481

     Initial potential from superposition of free atoms

     starting charge      69.9915, renormalised to      70.0000
     Starting wfcs are   44 randomized atomic wfcs +   20 random wfcs
     Checking if some PAW data can be deallocated...

     Self-consistent Calculation

     iteration #  1     ecut=    30.00 Ry     beta= 0.70
     Davidson diagonalization with overlap

     ethr =  1.00E-02,  avg # of iterations =  7.8

     Threshold (ethr) on eigenvalues was too large:
     Diagonalizing with lowered threshold

     Davidson diagonalization with overlap

[...]

     total energy              =   -1035.21567561 Ry
     estimated scf accuracy    <       0.25886482 Ry

[...]

     total energy              =   -1035.32339617 Ry
     estimated scf accuracy    <       0.00000102 Ry

     iteration #  9     ecut=    30.00 Ry     beta= 0.70
     Davidson diagonalization with overlap

     ethr =  1.46E-09,  avg # of iterations =  4.0

     End of self-consistent calculation

          k = 0.0000 0.0000 0.0000 (  5105 PWs)   bands (ev):

   -87.6808 -50.7396 -50.7289 -50.7012 -10.3723 -10.3307 -10.2854 -10.2433
   -10.2182 -10.0370 -10.0246  -9.9922  -9.9473  -9.9208  -7.9036  -6.7746
    -6.1337  -5.9217  -1.1425  -0.2826   0.5127   0.5555   0.6884   0.8620
     1.0773   1.2744   1.8238   2.4565   2.4940   2.9126   3.0451   3.3032
     4.0737   4.3426   4.5400   4.9780   5.4452   7.2394   7.7283   8.2918
     8.4693   8.4909   8.9932   9.2207   9.7821  10.4062  10.4772  11.1194
    11.3335  11.8550  12.3022  12.4610  13.0214  13.2168  13.6183  13.8631
    13.9361  14.3730  14.5072  14.6015  14.9239  15.1101  15.2883  15.3993

     occupation numbers
     1.0000   1.0000   1.0000   1.0000   1.0000   1.0000   1.0000   1.0000
     1.0000   1.0000   1.0000   1.0000   1.0000   1.0000   1.0000   1.0000
     1.0000   1.0000   1.0000   1.0000   1.0000   1.0000   1.0000   1.0000
     1.0000   1.0000   1.0000   1.0000   1.0000   1.0000   1.0000   1.0000
     1.0000   1.0000   1.0000   0.0000   0.0000   0.0000   0.0000   0.0000
     0.0000   0.0000   0.0000   0.0000   0.0000   0.0000   0.0000   0.0000
     0.0000   0.0000   0.0000   0.0000   0.0000   0.0000   0.0000   0.0000
     0.0000   0.0000   0.0000   0.0000   0.0000   0.0000   0.0000   0.0000

[...]

          k = 0.3333-1.1020-0.3271 (  5104 PWs)   bands (ev):

   -87.6808 -50.7395 -50.7287 -50.7023 -10.3687 -10.3395 -10.2919 -10.2390
   -10.2242 -10.0468 -10.0234  -9.9929  -9.9379  -9.9270  -7.7974  -6.2522
    -6.2036  -5.7558  -1.1469  -0.8721   0.5304   0.6364   0.7781   0.9297
     1.0507   1.2071   1.6537   1.9042   2.1031   2.3810   2.6978   2.9038
     3.0436   3.3748   3.7499   5.9263   6.2198   7.2264   7.5240   7.9431
     8.5992   8.9650   9.2888   9.9722  10.2318  10.7412  10.9667  11.5383
    11.6733  11.9398  12.1866  12.4163  12.9839  13.0581  13.6939  14.3752
    14.4785  14.9107  14.9597  15.1934  15.4494  15.5215  15.6449  16.0428

     occupation numbers
     1.0000   1.0000   1.0000   1.0000   1.0000   1.0000   1.0000   1.0000
     1.0000   1.0000   1.0000   1.0000   1.0000   1.0000   1.0000   1.0000
     1.0000   1.0000   1.0000   1.0000   1.0000   1.0000   1.0000   1.0000
     1.0000   1.0000   1.0000   1.0000   1.0000   1.0000   1.0000   1.0000
     1.0000   1.0000   1.0000   0.0000   0.0000   0.0000   0.0000   0.0000
     0.0000   0.0000   0.0000   0.0000   0.0000   0.0000   0.0000   0.0000
     0.0000   0.0000   0.0000   0.0000   0.0000   0.0000   0.0000   0.0000
     0.0000   0.0000   0.0000   0.0000   0.0000   0.0000   0.0000   0.0000

     highest occupied, lowest unoccupied level (ev):     4.5400    4.9780

!    total energy              =   -1035.32339646 Ry
     estimated scf accuracy    <       0.00000023 Ry

     The total energy is the sum of the following terms:
     one-electron contribution =    -437.01210200 Ry
     hartree contribution      =     248.62619610 Ry
     xc contribution           =    -207.31347842 Ry
     ewald contribution        =    -319.09982576 Ry
     one-center paw contrib.   =    -320.52418638 Ry
      -> PAW hartree energy AE =       0.00000000 Ry
      -> PAW hartree energy PS =       0.00000000 Ry
      -> PAW xc energy AE      =       0.00000000 Ry
      -> PAW xc energy PS      =       0.00000000 Ry
      -> total E_H with PAW    =     248.62619610 Ry
      -> total E_XC with PAW   =    -207.31347842 Ry

     convergence has been achieved in   9 iterations

     Writing all to output data dir bands_nm/myprefix.save/

     General routines

     Parallel routines

     PAW routines

   This run was terminated on:   2:47:57  14Jul2023

   JOB DONE.