     Program PWSCF v.7.1 starts on 16Jul2023 at 18: 8:41

     Reading input from espresso_25744.pwi
Warning: card &CELL ignored
Warning: card / ignored

     Current dimensions of program PWSCF are:
     Max number of different atomic species (ntypx) = 10
     Max number of k-points (npk) =  40000
     Max angular momentum in pseudopotentials (lmaxx) =  4
     file O.pbe-n-kjpaw_psl.0.1.UPF: wavefunction(s)  2P renormalized

     K-points division:     npool     =       2
     R & G space division:  proc/nbgrp/npool/nimage =       4
     Subspace diagonalization in iterative solution of the eigenvalue problem:
     one sub-group per band group will be used

     Using Slab Decomposition

     bravais-lattice index     =            0
     lattice parameter (alat)  =       8.7535  a.u.
     unit-cell volume          =    1317.4323 (a.u.)^3
     number of atoms/cell      =           16
     number of atomic types    =            3
     number of electrons       =       134.00
     number of Kohn-Sham states=          256
     kinetic-energy cutoff     =      30.0000  Ry
     charge density cutoff     =     240.0000  Ry
     scf convergence threshold =      1.0E-06
     mixing beta               =       0.7000
     number of iterations used =            8  plain     mixing
     Exchange-correlation=  SLA  PW   PBX  PBC
                           (   1   4   3   4   0   0   0)

     celldm(1)=   8.753503  celldm(2)=   0.000000  celldm(3)=   0.000000
     celldm(4)=   0.000000  celldm(5)=   0.000000  celldm(6)=   0.000000

     crystal axes: (cart. coord. in units of alat)
               a(1) = (   1.000000   0.000000   0.000000 )
               a(2) = (   0.029782   1.820910   0.000000 )
               a(3) = (  -0.005131   0.001843   1.078684 )

     reciprocal axes: (cart. coord. in units 2 pi/alat)
               b(1) = (  1.000000 -0.016356  0.004785 )
               b(2) = (  0.000000  0.549176 -0.000939 )
               b(3) = (  0.000000  0.000000  0.927056 )

     PseudoPot. # 1 for V  read from file:
     /lustre07/scratch/pragov/crystal_structure_design/utils/SSSP/v_pbe_v1.4.uspp.F.UPF
     MD5 check sum: 22b79981416ebb76fdaf5b1b8640f6fb
     Pseudo is Ultrasoft + core correction, Zval = 13.0
     Generated by new atomic code, or converted to UPF format
     Using radial grid of  853 points,  6 beta functions with:
                l(1) =   0
                l(2) =   0
                l(3) =   1
                l(4) =   1
                l(5) =   2
                l(6) =   2
     Q(r) pseudized with  8 coefficients,  rinner =    1.100   1.100   1.100
                                                       1.100   1.100

     PseudoPot. # 2 for O  read from file:
     /lustre07/scratch/pragov/crystal_structure_design/utils/SSSP/O.pbe-n-kjpaw_psl.0.1.UPF
     MD5 check sum: 0234752ac141de4415c5fc33072bef88
     Pseudo is Projector augmented-wave + core cor, Zval =  6.0
     Generated using "atomic" code by A. Dal Corso  v.5.0.99 svn rev. 10869
     Shape of augmentation charge: BESSEL
     Using radial grid of 1095 points,  4 beta functions with:
                l(1) =   0
                l(2) =   0
                l(3) =   1
                l(4) =   1
     Q(r) pseudized with 0 coefficients

     PseudoPot. # 3 for F  read from file:
     /lustre07/scratch/pragov/crystal_structure_design/utils/SSSP/f_pbe_v1.4.uspp.F.UPF
     MD5 check sum: 4c38b6a325caf53ec0e86aed9459de46
     Pseudo is Ultrasoft, Zval =  7.0
     Generated by new atomic code, or converted to UPF format
     Using radial grid of  799 points,  4 beta functions with:
                l(1) =   0
                l(2) =   0
                l(3) =   1
                l(4) =   1
     Q(r) pseudized with  8 coefficients,  rinner =    0.950   0.950   0.950

     atomic species   valence    mass     pseudopotential
        V             13.00    50.94150     V ( 1.00)
        O              6.00    15.99900     O ( 1.00)
        F              7.00    18.99840     F ( 1.00)

     No symmetry found

                                    s                        frac. trans.

      isym =  1     identity

 cryst.   s( 1) = (     1          0          0      )
                  (     0          1          0      )
                  (     0          0          1      )

 cart.    s( 1) = (  1.0000000  0.0000000 -0.0000000 )
                  (  0.0000000  1.0000000  0.0000000 )
                  (  0.0000000  0.0000000  1.0000000 )

   Cartesian axes

     site n.     atom                  positions (alat units)
         1           V   tau(   1) = (   0.9835793   0.3346304   0.5306262  )
         2           V   tau(   2) = (   0.5124936   0.6072498   0.0128353  )
         3           V   tau(   3) = (   0.9948859   1.2480726   1.0682778  )
         4           V   tau(   4) = (   0.5232744   1.5186602   0.5464160  )
         5           O   tau(   5) = (   0.7757419   1.4797316   0.8941631  )
         6           O   tau(   6) = (   0.7667023   0.5687818   0.3552128  )
         7           F   tau(   7) = (   0.2646068   1.2328623   0.7303779  )
         8           F   tau(   8) = (   0.2550372   0.3204943   0.1936885  )
         9           F   tau(   9) = (   0.2584901   0.5810044   0.7295603  )
        10           F   tau(  10) = (   0.2739621   1.4973972   0.1872379  )
        11           F   tau(  11) = (   0.2612977   0.9238819   0.1394102  )
        12           F   tau(  12) = (   0.2398982   0.0077743   0.6834444  )
        13           F   tau(  13) = (   0.7683904   0.9069718   0.9314932  )
        14           F   tau(  14) = (   0.7852856   1.8176152   0.3897479  )
        15           F   tau(  15) = (   0.7762915   1.2296405   0.3528289  )
        16           F   tau(  16) = (   0.7566131   0.3205914   0.8887719  )

   Crystallographic axes

     site n.     atom                  positions (cryst. coord.)
         1           V   tau(   1) = (  0.9806450  0.1832730  0.4919200  )
         2           V   tau(   2) = (  0.5026230  0.3334750  0.0118990  )
         3           V   tau(   3) = (  0.9795840  0.6844090  0.9903530  )
         4           V   tau(   4) = (  0.5010500  0.8334990  0.5065580  )
         5           O   tau(   5) = (  0.7558180  0.8117940  0.8289390  )
         6           O   tau(   6) = (  0.7590990  0.3120280  0.3293020  )
         7           F   tau(   7) = (  0.2479370  0.6763730  0.6771010  )
         8           F   tau(   8) = (  0.2507220  0.1758260  0.1795600  )
         9           F   tau(   9) = (  0.2524780  0.3183890  0.6763430  )
        10           F   tau(  10) = (  0.2503670  0.8221590  0.1735800  )
        11           F   tau(  11) = (  0.2468540  0.5072430  0.1292410  )
        12           F   tau(  12) = (  0.2430410  0.0036280  0.6335910  )
        13           F   tau(  13) = (  0.7580130  0.4972130  0.8635460  )
        14           F   tau(  14) = (  0.7574220  0.9978250  0.3613180  )
        15           F   tau(  15) = (  0.7578680  0.6749580  0.3270920  )
        16           F   tau(  16) = (  0.7556220  0.1752270  0.8239410  )

     number of k points=    14
                       cart. coord. in units 2pi/alat
        k(    1) = (   0.0000000   0.0000000   0.0000000), wk =   0.0740741
        k(    2) = (   0.0000000   0.0000000   0.3090186), wk =   0.1481481
        k(    3) = (   0.0000000   0.1830587  -0.0003128), wk =   0.1481481
        k(    4) = (   0.0000000   0.1830587   0.3087057), wk =   0.1481481
        k(    5) = (   0.0000000   0.1830587  -0.3093314), wk =   0.1481481
        k(    6) = (   0.3333333  -0.0054519   0.0015948), wk =   0.1481481
        k(    7) = (   0.3333333  -0.0054519   0.3106134), wk =   0.1481481
        k(    8) = (   0.3333333  -0.0054519  -0.3074237), wk =   0.1481481
        k(    9) = (   0.3333333   0.1776068   0.0012820), wk =   0.1481481
        k(   10) = (   0.3333333   0.1776068   0.3103006), wk =   0.1481481
        k(   11) = (   0.3333333   0.1776068  -0.3077366), wk =   0.1481481
        k(   12) = (   0.3333333  -0.1885106   0.0019077), wk =   0.1481481
        k(   13) = (   0.3333333  -0.1885106   0.3109262), wk =   0.1481481
        k(   14) = (   0.3333333  -0.1885106  -0.3071109), wk =   0.1481481

                       cryst. coord.
        k(    1) = (   0.0000000   0.0000000   0.0000000), wk =   0.0740741
        k(    2) = (   0.0000000   0.0000000   0.3333333), wk =   0.1481481
        k(    3) = (   0.0000000   0.3333333   0.0000000), wk =   0.1481481
        k(    4) = (   0.0000000   0.3333333   0.3333333), wk =   0.1481481
        k(    5) = (   0.0000000   0.3333333  -0.3333333), wk =   0.1481481
        k(    6) = (   0.3333333   0.0000000   0.0000000), wk =   0.1481481
        k(    7) = (   0.3333333   0.0000000   0.3333333), wk =   0.1481481
        k(    8) = (   0.3333333   0.0000000  -0.3333333), wk =   0.1481481
        k(    9) = (   0.3333333   0.3333333   0.0000000), wk =   0.1481481
        k(   10) = (   0.3333333   0.3333333   0.3333333), wk =   0.1481481
        k(   11) = (   0.3333333   0.3333333  -0.3333333), wk =   0.1481481
        k(   12) = (   0.3333333  -0.3333333   0.0000000), wk =   0.1481481
        k(   13) = (   0.3333333  -0.3333333   0.3333333), wk =   0.1481481
        k(   14) = (   0.3333333  -0.3333333  -0.3333333), wk =   0.1481481

     Check: negative core charge=   -0.000008

     Initial potential from superposition of free atoms

     starting charge     133.9951, renormalised to     134.0000

     negative rho (up, down):  8.174E-04 0.000E+00
     Starting wfcs are   88 randomized atomic wfcs +  168 random wfcs
     Checking if some PAW data can be deallocated...

     Self-consistent Calculation

     iteration #  1     ecut=    30.00 Ry     beta= 0.70
     Davidson diagonalization with overlap

     ethr =  1.00E-02,  avg # of iterations =  7.0

     negative rho (up, down):  4.223E-03 0.000E+00

     total energy              =   -1148.75854384 Ry
     estimated scf accuracy    <       3.38196276 Ry

[...]

     total energy              =   -1150.70310052 Ry
     estimated scf accuracy    <       0.00002513 Ry

     iteration # 22     ecut=    30.00 Ry     beta= 0.70
     Davidson diagonalization with overlap

     ethr =  1.88E-08,  avg # of iterations =  1.0

     negative rho (up, down):  2.505E-03 0.000E+00

     End of self-consistent calculation

          k = 0.0000 0.0000 0.0000 (  3659 PWs)   bands (ev):

   -59.5279 -59.5233 -59.3917 -59.3913 -33.6141 -33.5912 -33.3150 -33.3090
   -33.3059 -33.2922 -33.2786 -33.2664 -33.2432 -33.2412 -33.0614 -33.0593
   -18.2832 -18.0229 -17.8336 -17.7199 -17.7002 -17.6702 -17.6393 -17.6030
   -17.5124 -17.4892 -12.3451 -12.3205  -1.2534  -1.0372  -0.9221  -0.8757
    -0.7426  -0.6550  -0.6338  -0.4669  -0.4071  -0.2995  -0.2188  -0.1163
     0.2981   0.4609   0.5042   0.5936   0.6805   0.6839   0.7977   0.8778
     0.9612   1.0432   1.0752   1.1527   1.3996   1.6765   1.6807   1.8327
     1.9555   1.9966   2.0848   2.1807   2.6178   2.6555   2.8494   2.9461
     6.1600   6.1873   6.4631   6.5265   6.5906   6.6392   6.7098   6.8201
     7.3170   7.3299   7.5487   7.6465   7.8519   8.1344   8.2227   8.2880
     9.0172   9.1552   9.7663   9.8775  11.2442  13.9650  14.1208  16.5759
    16.6752  17.7475  18.0078  18.1587  18.5029  18.5847  18.7699  18.9160
    19.1003  19.1816  19.3760  19.7013  19.9473  20.3019  21.0985  21.3504
    21.5723  21.7313  22.0727  22.2185  22.2547  22.4321  22.9417  22.9875
    23.2323  23.5347  23.7776  24.3697  24.9080  25.7704  26.5229  26.8599
    27.0917  27.2368  27.9820  28.0703  28.5789  28.9464  29.0127  29.1490
    29.2561  29.4407  29.5225  29.7765  30.4366  30.6675  30.8073  30.9319
    31.4095  31.4645  31.7631  31.7815  32.6353  32.8959  32.9351  33.2014
    33.6339  33.8235  34.6278  34.7447  34.9053  34.9916  35.3000  35.7174
    36.0467  36.1272  36.2029  36.6005  36.9598  37.0095  37.0962  37.1481
    37.2407  37.3389  38.2639  38.6826  38.7873  39.0903  39.3374  39.3901
    39.5562  39.7761  40.0162  40.2538  40.4574  40.7545  40.9518  41.6500
    41.9888  42.0950  42.1358  42.2092  42.3116  42.5100  42.6141  42.7627
    42.8683  42.8926  43.1353  43.2439  43.2951  43.5392  43.6302  43.6500
    43.8074  43.9318  44.0952  44.2087  44.4675  44.8129  44.8682  45.0379
    45.1406  45.2265  45.4756  45.6995  46.1367  46.2719  46.3838  46.5930
    46.6740  46.8708  46.9835  47.5157  47.7995  48.1230  48.2898  48.3858
    48.4899  48.9107  49.2314  49.6147  50.0173  50.2322  50.7112  51.1335
    51.2909  51.5415  51.6318  51.8501  51.9273  52.0822  52.2660  52.3148
    52.7439  53.3441  53.5890  53.9721  54.0902  54.1070  54.4341  54.5000
    54.5877  54.8404  55.5730  55.7479  55.8039  56.0896  56.2105  56.2826
    56.4000  56.4540  56.6942  56.8034  56.9941  57.2056  57.3299  57.7344

     occupation numbers
     1.0000   1.0000   1.0000   1.0000   1.0000   1.0000   1.0000   1.0000
     1.0000   1.0000   1.0000   1.0000   1.0000   1.0000   1.0000   1.0000
     1.0000   1.0000   1.0000   1.0000   1.0000   1.0000   1.0000   1.0000
     1.0000   1.0000   1.0000   1.0000   1.0000   1.0000   1.0000   1.0000
     1.0000   1.0000   1.0000   1.0000   1.0000   1.0000   1.0000   1.0000
     1.0000   1.0000   1.0000   1.0000   1.0000   1.0000   1.0000   1.0000
     1.0000   1.0000   1.0000   1.0000   1.0000   1.0000   1.0000   1.0000
     1.0000   1.0000   1.0000   1.0000   1.0000   1.0000   1.0000   1.0000
     1.0000   1.0000   1.0000   0.0000   0.0000   0.0000   0.0000   0.0000
     0.0000   0.0000   0.0000   0.0000   0.0000   0.0000   0.0000   0.0000
     0.0000   0.0000   0.0000   0.0000   0.0000   0.0000   0.0000   0.0000
     0.0000   0.0000   0.0000   0.0000   0.0000   0.0000   0.0000   0.0000
     0.0000   0.0000   0.0000   0.0000   0.0000   0.0000   0.0000   0.0000
     0.0000   0.0000   0.0000   0.0000   0.0000   0.0000   0.0000   0.0000
     0.0000   0.0000   0.0000   0.0000   0.0000   0.0000   0.0000   0.0000
     0.0000   0.0000   0.0000   0.0000   0.0000   0.0000   0.0000   0.0000
     0.0000   0.0000   0.0000   0.0000   0.0000   0.0000   0.0000   0.0000
     0.0000   0.0000   0.0000   0.0000   0.0000   0.0000   0.0000   0.0000
     0.0000   0.0000   0.0000   0.0000   0.0000   0.0000   0.0000   0.0000
     0.0000   0.0000   0.0000   0.0000   0.0000   0.0000   0.0000   0.0000
     0.0000   0.0000   0.0000   0.0000   0.0000   0.0000   0.0000   0.0000
     0.0000   0.0000   0.0000   0.0000   0.0000   0.0000   0.0000   0.0000
     0.0000   0.0000   0.0000   0.0000   0.0000   0.0000   0.0000   0.0000
     0.0000   0.0000   0.0000   0.0000   0.0000   0.0000   0.0000   0.0000
     0.0000   0.0000   0.0000   0.0000   0.0000   0.0000   0.0000   0.0000
     0.0000   0.0000   0.0000   0.0000   0.0000   0.0000   0.0000   0.0000
     0.0000   0.0000   0.0000   0.0000   0.0000   0.0000   0.0000   0.0000
     0.0000   0.0000   0.0000   0.0000   0.0000   0.0000   0.0000   0.0000
     0.0000   0.0000   0.0000   0.0000   0.0000   0.0000   0.0000   0.0000
     0.0000   0.0000   0.0000   0.0000   0.0000   0.0000   0.0000   0.0000
     0.0000   0.0000   0.0000   0.0000   0.0000   0.0000   0.0000   0.0000
     0.0000   0.0000   0.0000   0.0000   0.0000   0.0000   0.0000   0.0000

[...]

          k = 0.3333-0.1885-0.3071 (  3660 PWs)   bands (ev):

   -59.5279 -59.5233 -59.3917 -59.3914 -33.6145 -33.5916 -33.3132 -33.3082
   -33.3063 -33.2986 -33.2702 -33.2648 -33.2462 -33.2451 -33.0626 -33.0605
   -17.9972 -17.9875 -17.8705 -17.8130 -17.7566 -17.7198 -17.6502 -17.6356
   -17.5360 -17.5079 -12.3527 -12.3386  -1.1727  -1.1369  -0.9698  -0.9493
    -0.7574  -0.7417  -0.4693  -0.3866  -0.2825  -0.2046  -0.0844  -0.0214
     0.1173   0.2660   0.4805   0.5335   0.6495   0.7439   0.8911   1.0605
     1.1830   1.2100   1.2896   1.3893   1.4699   1.5513   1.6125   1.6222
     1.7387   1.7908   1.9304   2.0430   2.4738   2.5454   2.7413   2.8755
     6.3420   6.3780   6.4342   6.5539   6.5769   6.6895   6.7832   6.8100
     7.2683   7.4341   7.4479   7.5280   7.9118   7.9794   8.4183   8.5150
     8.8309   9.0234   9.4290   9.8897  13.5537  14.2348  15.4976  15.7473
    16.0293  16.3346  16.6832  17.0830  17.4475  17.6307  18.2869  18.3714
    19.0200  19.2415  19.8343  19.9549  20.7554  20.8563  21.0380  21.4642
    21.6298  21.6700  22.4646  22.9025  22.9637  23.1929  23.4394  23.4833
    24.1873  24.2382  24.5651  24.7108  25.0998  25.1788  25.5193  25.6155
    26.6463  27.0207  27.0846  27.2885  28.0160  28.2022  28.2658  28.5850
    28.8458  29.4913  29.5645  29.8207  30.4140  30.4729  30.6296  30.7147
    30.9941  31.9674  32.4101  32.5736  32.6140  32.8969  32.9970  33.3524
    33.5865  33.9688  34.6682  34.9307  35.2777  35.5709  35.7278  35.9218
    36.0505  36.4136  36.4746  37.0520  37.2802  37.4976  37.5452  37.6130
    38.0295  38.0616  38.6158  38.6626  39.0134  39.1681  39.2673  39.4995
    39.6079  39.8226  40.0067  40.3497  40.3788  40.5291  40.7565  41.1150
    41.2453  41.5871  41.7480  42.0610  42.1762  42.2727  42.6543  42.6820
    43.0152  43.0702  43.2241  43.2734  43.4606  43.5748  43.7942  43.9371
    44.0063  44.1632  44.2364  44.4192  44.7240  44.8525  45.2197  45.5955
    45.8084  45.8727  46.1193  46.2867  46.5280  46.6165  46.8833  47.1506
    47.4485  47.5564  47.7092  48.0099  48.1172  48.2477  48.4469  48.8221
    48.9178  49.1613  49.2983  49.7477  49.8449  50.2354  50.4701  50.7321
    50.9780  51.1559  51.5071  51.5930  51.6464  52.0244  52.2010  52.3536
    52.6333  52.7279  53.2395  53.2851  53.3894  53.6099  53.6758  53.8079
    54.0788  54.1448  54.3988  54.4779  54.6795  54.7845  55.0100  55.1398
    55.6078  56.0532  56.1840  56.3797  56.5296  56.6515  56.8983  56.9431

     occupation numbers
     1.0000   1.0000   1.0000   1.0000   1.0000   1.0000   1.0000   1.0000
     1.0000   1.0000   1.0000   1.0000   1.0000   1.0000   1.0000   1.0000
     1.0000   1.0000   1.0000   1.0000   1.0000   1.0000   1.0000   1.0000
     1.0000   1.0000   1.0000   1.0000   1.0000   1.0000   1.0000   1.0000
     1.0000   1.0000   1.0000   1.0000   1.0000   1.0000   1.0000   1.0000
     1.0000   1.0000   1.0000   1.0000   1.0000   1.0000   1.0000   1.0000
     1.0000   1.0000   1.0000   1.0000   1.0000   1.0000   1.0000   1.0000
     1.0000   1.0000   1.0000   1.0000   1.0000   1.0000   1.0000   1.0000
     1.0000   1.0000   1.0000   0.0000   0.0000   0.0000   0.0000   0.0000
     0.0000   0.0000   0.0000   0.0000   0.0000   0.0000   0.0000   0.0000
     0.0000   0.0000   0.0000   0.0000   0.0000   0.0000   0.0000   0.0000
     0.0000   0.0000   0.0000   0.0000   0.0000   0.0000   0.0000   0.0000
     0.0000   0.0000   0.0000   0.0000   0.0000   0.0000   0.0000   0.0000
     0.0000   0.0000   0.0000   0.0000   0.0000   0.0000   0.0000   0.0000
     0.0000   0.0000   0.0000   0.0000   0.0000   0.0000   0.0000   0.0000
     0.0000   0.0000   0.0000   0.0000   0.0000   0.0000   0.0000   0.0000
     0.0000   0.0000   0.0000   0.0000   0.0000   0.0000   0.0000   0.0000
     0.0000   0.0000   0.0000   0.0000   0.0000   0.0000   0.0000   0.0000
     0.0000   0.0000   0.0000   0.0000   0.0000   0.0000   0.0000   0.0000
     0.0000   0.0000   0.0000   0.0000   0.0000   0.0000   0.0000   0.0000
     0.0000   0.0000   0.0000   0.0000   0.0000   0.0000   0.0000   0.0000
     0.0000   0.0000   0.0000   0.0000   0.0000   0.0000   0.0000   0.0000
     0.0000   0.0000   0.0000   0.0000   0.0000   0.0000   0.0000   0.0000
     0.0000   0.0000   0.0000   0.0000   0.0000   0.0000   0.0000   0.0000
     0.0000   0.0000   0.0000   0.0000   0.0000   0.0000   0.0000   0.0000
     0.0000   0.0000   0.0000   0.0000   0.0000   0.0000   0.0000   0.0000
     0.0000   0.0000   0.0000   0.0000   0.0000   0.0000   0.0000   0.0000
     0.0000   0.0000   0.0000   0.0000   0.0000   0.0000   0.0000   0.0000
     0.0000   0.0000   0.0000   0.0000   0.0000   0.0000   0.0000   0.0000
     0.0000   0.0000   0.0000   0.0000   0.0000   0.0000   0.0000   0.0000
     0.0000   0.0000   0.0000   0.0000   0.0000   0.0000   0.0000   0.0000
     0.0000   0.0000   0.0000   0.0000   0.0000   0.0000   0.0000   0.0000

     highest occupied, lowest unoccupied level (ev):     6.5191    6.4183

!    total energy              =   -1150.70310071 Ry
     estimated scf accuracy    <       0.00000044 Ry

     The total energy is the sum of the following terms:
     one-electron contribution =    -614.44924700 Ry
     hartree contribution      =     364.28486378 Ry
     xc contribution           =    -185.96191971 Ry
     ewald contribution        =    -695.51299485 Ry
     one-center paw contrib.   =     -19.06380293 Ry
      -> PAW hartree energy AE =       0.00000000 Ry
      -> PAW hartree energy PS =       0.00000000 Ry
      -> PAW xc energy AE      =       0.00000000 Ry
      -> PAW xc energy PS      =       0.00000000 Ry
      -> total E_H with PAW    =     364.28486378 Ry
      -> total E_XC with PAW   =    -185.96191971 Ry

     convergence has been achieved in  22 iterations

     Writing all to output data dir bands_nm/myprefix.save/

     General routines

     Parallel routines

     PAW routines

   This run was terminated on:  18:10:22  16Jul2023

   JOB DONE.