     Program PWSCF v.7.1 starts on 12Jul2023 at 17:13:34

     Reading input from espresso_23053.pwi
Warning: card &CELL ignored
Warning: card / ignored

     Current dimensions of program PWSCF are:
     Max number of different atomic species (ntypx) = 10
     Max number of k-points (npk) =  40000
     Max angular momentum in pseudopotentials (lmaxx) =  4
     file Ba.pbe-spn-kjpaw_psl.1.0.0.UPF: wavefunction(s)  5S 6S renormalized
     Message from routine setup:
     using ibrav=0 with symmetry is DISCOURAGED, use correct ibrav instead

     K-points division:     npool     =       2
     R & G space division:  proc/nbgrp/npool/nimage =       8
     Subspace diagonalization in iterative solution of the eigenvalue problem:
     a serial algorithm will be used

     Using Slab Decomposition

     bravais-lattice index     =            0
     lattice parameter (alat)  =      13.6015  a.u.
     unit-cell volume          =     738.7924 (a.u.)^3
     number of atoms/cell      =            5
     number of atomic types    =            3
     number of electrons       =        60.00
     number of Kohn-Sham states=           64
     kinetic-energy cutoff     =      30.0000  Ry
     charge density cutoff     =     240.0000  Ry
     scf convergence threshold =      1.0E-06
     mixing beta               =       0.7000
     number of iterations used =            8  plain     mixing
     Exchange-correlation= SLA  PW   PBE  PBE
                           (   1   4   3   4   0   0   0)

     celldm(1)=  13.601459  celldm(2)=   0.000000  celldm(3)=   0.000000
     celldm(4)=   0.000000  celldm(5)=   0.000000  celldm(6)=   0.000000

     crystal axes: (cart. coord. in units of alat)
               a(1) = (   1.000000   0.000000   0.000000 )
               a(2) = (   0.679612   0.733572   0.000000 )
               a(3) = (  -0.839806  -0.366786   0.400243 )

     reciprocal axes: (cart. coord. in units 2 pi/alat)
               b(1) = (  1.000000 -0.926442  1.249243 )
               b(2) = (  0.000000  1.363193  1.249243 )
               b(3) = (  0.000000  0.000000  2.498485 )

     PseudoPot. # 1 for Ba read from file:
     /lustre07/scratch/pragov/crystal_structure_design/utils/SSSP/Ba.pbe-spn-kjpaw_psl.1.0.0.UPF
     MD5 check sum: c432291d3e53af55f19d5e8866385beb
     Pseudo is Projector augmented-wave + core cor, Zval = 10.0
     Generated using "atomic" code by A. Dal Corso  v.5.1
     Shape of augmentation charge: PSQ
     Using radial grid of 1251 points,  7 beta functions with:
                l(1) =   0
                l(2) =   0
                l(3) =   0
                l(4) =   1
                l(5) =   1
                l(6) =   2
                l(7) =   2
     Q(r) pseudized with 0 coefficients

     PseudoPot. # 2 for Cu read from file:
     /lustre07/scratch/pragov/crystal_structure_design/utils/SSSP/Cu_pbe_v1.2.uspp.F.UPF
     MD5 check sum: 6e991ff952a84172a2a52a1c1e996048
     Pseudo is Ultrasoft + core correction, Zval = 19.0
     Generated by new atomic code, or converted to UPF format
     Using radial grid of  867 points,  6 beta functions with:
                l(1) =   0
                l(2) =   0
                l(3) =   1
                l(4) =   1
                l(5) =   2
                l(6) =   2
     Q(r) pseudized with  8 coefficients,  rinner =    1.150   1.150   1.150
                                                       1.150   1.150

     PseudoPot. # 3 for Se read from file:
     /lustre07/scratch/pragov/crystal_structure_design/utils/SSSP/Se_pbe_v1.uspp.F.UPF
     MD5 check sum: 1b3568f3a8ae88f9a2a0ad0698632c85
     Pseudo is Ultrasoft + core correction, Zval =  6.0
     Generated by new atomic code, or converted to UPF format
     Using radial grid of  877 points,  6 beta functions with:
                l(1) =   0
                l(2) =   0
                l(3) =   1
                l(4) =   1
                l(5) =   2
                l(6) =   2
     Q(r) pseudized with  8 coefficients,  rinner =    1.300   1.300   1.300
                                                       1.300   1.300

     atomic species   valence    mass     pseudopotential
        Ba            10.00   137.32700     Ba( 1.00)
        Cu            19.00    63.54600     Cu( 1.00)
        Se             6.00    78.97100     Se( 1.00)

      4 Sym. Ops., with inversion, found

                                    s                        frac. trans.

      isym =  1     identity

 cryst.   s( 1) = (     1          0          0      )
                  (     0          1          0      )
                  (     0          0          1      )

 cart.    s( 1) = (  1.0000000  0.0000000  0.0000000 )
                  (  0.0000000  1.0000000  0.0000000 )
                  (  0.0000000  0.0000000  1.0000000 )

      isym =  2     180 deg rotation - cart. axis [0,0,1]

[...]

      isym =  3     inversion

[...]

      isym =  4     inv. 180 deg rotation - cart. axis [0,0,1]

 cryst.   s( 4) = (     1          0          0      )
                  (     0          1          0      )
                  (    -1         -1         -1      )

 cart.    s( 4) = (  1.0000000  0.0000000  0.0000000 )
                  (  0.0000000  1.0000000  0.0000000 )
                  (  0.0000000  0.0000000 -1.0000000 )

   Cartesian axes

     site n.     atom                  positions (alat units)
         1           Ba  tau(   1) = (   0.0000000   0.0000000   0.0000000  )
         2           Cu  tau(   2) = (   0.5000000   0.0000000   0.2001213  )
         3           Cu  tau(   3) = (   0.3398059   0.3667860   0.2001213  )
         4           Se  tau(   4) = (   1.0701395   0.4673843   0.0000000  )
         5           Se  tau(   5) = (   0.6094724   0.2661876   0.0000000  )

   Crystallographic axes

     site n.     atom                  positions (cryst. coord.)
         1           Ba  tau(   1) = (  0.0000000  0.0000000  0.0000000  )
         2           Cu  tau(   2) = (  0.7500000  0.2500000  0.5000000  )
         3           Cu  tau(   3) = (  0.2500000  0.7500000  0.5000000  )
         4           Se  tau(   4) = (  0.6371350  0.6371350  0.0000000  )
         5           Se  tau(   5) = (  0.3628650  0.3628650  0.0000000  )

     number of k points=    10
                       cart. coord. in units 2pi/alat
        k(    1) = (   0.0000000   0.0000000   0.0000000), wk =   0.0740741
        k(    2) = (   0.0000000   0.0000000   0.8328284), wk =   0.1481481
        k(    3) = (   0.0000000   0.4543976   0.4164142), wk =   0.2962963
        k(    4) = (   0.0000000   0.4543976   1.2492426), wk =   0.1481481
        k(    5) = (   0.3333333  -0.3088140   0.4164142), wk =   0.2962963
        k(    6) = (   0.3333333  -0.3088140   1.2492426), wk =   0.1481481
        k(    7) = (   0.3333333   0.1455836   0.8328284), wk =   0.2962963
        k(    8) = (   0.3333333   0.1455836   0.0000000), wk =   0.1481481
        k(    9) = (   0.3333333  -0.7632116   0.0000000), wk =   0.1481481
        k(   10) = (   0.3333333  -0.7632116   0.8328284), wk =   0.2962963

                       cryst. coord.
        k(    1) = (   0.0000000   0.0000000   0.0000000), wk =   0.0740741
        k(    2) = (   0.0000000   0.0000000   0.3333333), wk =   0.1481481
        k(    3) = (   0.0000000   0.3333333  -0.0000000), wk =   0.2962963
        k(    4) = (   0.0000000   0.3333333   0.3333333), wk =   0.1481481
        k(    5) = (   0.3333333   0.0000000   0.0000000), wk =   0.2962963
        k(    6) = (   0.3333333   0.0000000   0.3333333), wk =   0.1481481
        k(    7) = (   0.3333333   0.3333333   0.0000000), wk =   0.2962963
        k(    8) = (   0.3333333   0.3333333  -0.3333333), wk =   0.1481481
        k(    9) = (   0.3333333  -0.3333333   0.0000000), wk =   0.1481481
        k(   10) = (   0.3333333  -0.3333333   0.3333333), wk =   0.2962963

     Initial potential from superposition of free atoms

     starting charge      57.9829, renormalised to      60.0000
     Starting wfcs are   39 randomized atomic wfcs +   25 random wfcs
     Checking if some PAW data can be deallocated...

     Self-consistent Calculation

     iteration #  1     ecut=    30.00 Ry     beta= 0.70
     Davidson diagonalization with overlap

     ethr =  1.00E-02,  avg # of iterations =  6.1

     total energy              =   -1330.35335200 Ry
     estimated scf accuracy    <       1.40053438 Ry

[...]

     total energy              =   -1331.11255572 Ry
     estimated scf accuracy    <       0.00000118 Ry

     iteration # 10     ecut=    30.00 Ry     beta= 0.70
     Davidson diagonalization with overlap

     ethr =  1.97E-09,  avg # of iterations =  2.0

     End of self-consistent calculation

          k = 0.0000 0.0000 0.0000 (  2041 PWs)   bands (ev):

  -101.8490-101.8438 -59.2579 -59.2537 -59.2386 -59.2386 -59.2358 -59.2358
   -18.2306  -4.0278  -3.7138  -3.2275  -3.2275  -2.2184   4.2399   6.3672
     6.3672   6.3816   6.6972   6.6972   7.2574   7.8919   8.0424   8.3940
     8.5040   8.5040   8.8051   9.9976   9.9976  10.0754  10.4458  10.9079
    12.9710  13.2145  13.2898  14.7302  14.7302  14.7591  16.7988  16.9258
    16.9258  17.4599  18.8701  18.8701  20.2486  20.5440  20.5440  20.5842
    20.5980  20.7738  22.1655  26.2216  26.8220  27.6998  27.6998  28.1292
    28.2246  28.2246  28.4947  29.4760  29.4760  29.5369  29.5891  29.8562

     occupation numbers
     1.0000   1.0000   1.0000   1.0000   1.0000   1.0000   1.0000   1.0000
     1.0000   1.0000   1.0000   1.0000   1.0000   1.0000   1.0000   1.0000
     1.0000   1.0000   1.0000   1.0000   1.0000   1.0000   1.0000   1.0000
     1.0000   1.0000   1.0000   1.0000   1.0000   1.0000   0.0000   0.0000
     0.0000   0.0000   0.0000   0.0000   0.0000   0.0000   0.0000   0.0000
     0.0000   0.0000   0.0000   0.0000   0.0000   0.0000   0.0000   0.0000
     0.0000   0.0000   0.0000   0.0000   0.0000   0.0000   0.0000   0.0000
     0.0000   0.0000   0.0000   0.0000   0.0000   0.0000   0.0000   0.0000

[...]

          k = 0.3333-0.7632 0.8328 (  2059 PWs)   bands (ev):

  -101.8477-101.8464 -59.2580 -59.2544 -59.2418 -59.2414 -59.2374 -59.2345
   -18.1952  -4.2104  -3.8152  -3.1685  -2.8061  -2.4386   4.8889   5.0598
     6.2366   6.4364   6.4370   6.5474   7.5483   7.8278   8.0738   8.0749
     8.1449   8.1596   8.9951   9.0890   9.5247   9.8945  10.9466  11.8841
    12.5540  13.4282  13.7235  13.7896  15.8202  16.7653  17.3072  17.3241
    17.7355  18.8979  18.9356  19.2919  19.4107  19.7652  19.7938  20.8440
    21.9301  22.4205  24.1781  24.8835  25.6100  25.8385  26.0945  26.8456
    27.0036  28.8608  28.8639  29.3580  29.4011  29.5757  29.6420  30.4372

     occupation numbers
     1.0000   1.0000   1.0000   1.0000   1.0000   1.0000   1.0000   1.0000
     1.0000   1.0000   1.0000   1.0000   1.0000   1.0000   1.0000   1.0000
     1.0000   1.0000   1.0000   1.0000   1.0000   1.0000   1.0000   1.0000
     1.0000   1.0000   1.0000   1.0000   1.0000   1.0000   0.0000   0.0000
     0.0000   0.0000   0.0000   0.0000   0.0000   0.0000   0.0000   0.0000
     0.0000   0.0000   0.0000   0.0000   0.0000   0.0000   0.0000   0.0000
     0.0000   0.0000   0.0000   0.0000   0.0000   0.0000   0.0000   0.0000
     0.0000   0.0000   0.0000   0.0000   0.0000   0.0000   0.0000   0.0000

     highest occupied, lowest unoccupied level (ev):    10.0754   10.4458

!    total energy              =   -1331.11255569 Ry
     estimated scf accuracy    <       0.00000043 Ry

     The total energy is the sum of the following terms:
     one-electron contribution =    -899.48838955 Ry
     hartree contribution      =     477.87689810 Ry
     xc contribution           =    -157.56992358 Ry
     ewald contribution        =    -376.97876500 Ry
     one-center paw contrib.   =    -374.95237567 Ry
      -> PAW hartree energy AE =      28.66419892 Ry
      -> PAW hartree energy PS =     -28.55499705 Ry
      -> PAW xc energy AE      =    -394.21417374 Ry
      -> PAW xc energy PS      =      19.15259620 Ry
      -> total E_H with PAW    =     477.98609997 Ry
      -> total E_XC with PAW   =    -532.63150112 Ry

     convergence has been achieved in  10 iterations

     Writing all to output data dir bands_nm/myprefix.save/

     General routines

     Parallel routines

     PAW routines

   This run was terminated on:  17:13:41  12Jul2023

   JOB DONE.