     Program PWSCF v.7.0 starts on  6Jun2023 at 21:10:24

     K-points division:     npool     =       2
     R & G space division:  proc/nbgrp/npool/nimage =       4

     Reading input from espresso_401.pwi
Warning: card &CELL ignored
Warning: card / ignored

     Current dimensions of program PWSCF are:
     Max number of different atomic species (ntypx) = 10
     Max number of k-points (npk) =  40000
     Max angular momentum in pseudopotentials (lmaxx) =  4
     file O.pbe-n-kjpaw_psl.0.1.UPF: wavefunction(s)  2P renormalized

     Using Slab Decomposition

     bravais-lattice index     =            0
     lattice parameter (alat)  =       9.9366  a.u.
     unit-cell volume          =     988.0917 (a.u.)^3
     number of atoms/cell      =           11
     number of atomic types    =            3
     number of electrons       =       104.00
     number of Kohn-Sham states=           64
     kinetic-energy cutoff     =      30.0000  Ry
     charge density cutoff     =     240.0000  Ry
     scf convergence threshold =      1.0E-06
     mixing beta               =       0.7000
     number of iterations used =            8  plain     mixing
     Exchange-correlation= SLA  PW   PBX  PBC
                           (   1   4   3   4   0   0   0)

     celldm(1)=   9.936565  celldm(2)=   0.000000  celldm(3)=   0.000000
     celldm(4)=   0.000000  celldm(5)=   0.000000  celldm(6)=   0.000000

     crystal axes: (cart. coord. in units of alat)
               a(1) = (   1.000000   0.000000   0.000000 )
               a(2) = (   0.005216   1.022792   0.000000 )
               a(3) = (   0.429790   0.000836   0.984694 )

     reciprocal axes: (cart. coord. in units 2 pi/alat)
               b(1) = (  1.000000 -0.005100 -0.436466 )
               b(2) = (  0.000000  0.977716 -0.000830 )
               b(3) = (  0.000000  0.000000  1.015544 )

     PseudoPot. # 1 for Cu read from file:
     /home/pragov/projects/rrg-bengioy-ad/pragov/crystal_structure_design/SSSP/Cu_pbe_v1.2.uspp.F.UPF
     MD5 check sum: 6e991ff952a84172a2a52a1c1e996048
     Pseudo is Ultrasoft + core correction, Zval = 19.0
     Generated by new atomic code, or converted to UPF format
     Using radial grid of  867 points,  6 beta functions with:
                l(1) =   0
                l(2) =   0
                l(3) =   1
                l(4) =   1
                l(5) =   2
                l(6) =   2
     Q(r) pseudized with  8 coefficients,  rinner =    1.150   1.150   1.150
                                                       1.150   1.150

     PseudoPot. # 2 for As read from file:
     /home/pragov/projects/rrg-bengioy-ad/pragov/crystal_structure_design/SSSP/As.pbe-n-rrkjus_psl.0.2.UPF
     MD5 check sum: 767315de957beeeb34f87d97bf945c8f
     Pseudo is Ultrasoft + core correction, Zval =  5.0
     Generated using "atomic" code by A. Dal Corso  v.5.0.99 svn rev. 10869
     Using radial grid of 1209 points,  4 beta functions with:
                l(1) =   0
                l(2) =   0
                l(3) =   1
                l(4) =   1
     Q(r) pseudized with 0 coefficients

     PseudoPot. # 3 for O  read from file:
     /home/pragov/projects/rrg-bengioy-ad/pragov/crystal_structure_design/SSSP/O.pbe-n-kjpaw_psl.0.1.UPF
     MD5 check sum: 0234752ac141de4415c5fc33072bef88
     Pseudo is Projector augmented-wave + core cor, Zval =  6.0
     Generated using "atomic" code by A. Dal Corso  v.5.0.99 svn rev. 10869
     Shape of augmentation charge: BESSEL
     Using radial grid of 1095 points,  4 beta functions with:
                l(1) =   0
                l(2) =   0
                l(3) =   1
                l(4) =   1
     Q(r) pseudized with 0 coefficients

     atomic species   valence    mass     pseudopotential
        Cu            19.00    63.54600     Cu( 1.00)
        As             5.00    74.92159     As( 1.00)
        O              6.00    15.99900     O ( 1.00)

     No symmetry found

                                    s                        frac. trans.

      isym =  1     identity

 cryst.   s( 1) = (     1          0          0      )
                  (     0          1          0      )
                  (     0          0          1      )

 cart.    s( 1) = (  1.0000000  0.0000000  0.0000000 )
                  (  0.0000000  1.0000000  0.0000000 )
                  (  0.0000000  0.0000000  1.0000000 )

   Cartesian axes

     site n.     atom                  positions (alat units)
         1           Cu  tau(   1) = (   0.5335559   0.9668377   0.3840621  )
         2           Cu  tau(   2) = (   0.6388929   0.4515822   0.6215870  )
         3           Cu  tau(   3) = (   0.4228544   0.4499688   0.1286552  )
         4           As  tau(   4) = (   0.0058430   1.0003223   0.0004342  )
         5           O   tau(   5) = (   0.3927433   0.8540444   0.6949122  )
         6           O   tau(   6) = (   0.1703377   0.8278706   0.2125678  )
         7           O   tau(   7) = (   0.3985336   0.2749659   0.4366093  )
         8           O   tau(   8) = (   0.5984878   0.2692106   0.9254409  )
         9           O   tau(   9) = (   0.6652553   0.6413241   0.3202598  )
        10           O   tau(  10) = (   0.8926915   0.5990264   0.8029794  )
        11           O   tau(  11) = (   0.7100087   0.0877244   0.1103024  )

   Crystallographic axes

     site n.     atom                  positions (cryst. coord.)
         1           Cu  tau(   1) = (  0.3609950  0.9449740  0.3900320  )
         2           Cu  tau(   2) = (  0.3652880  0.4410030  0.6312490  )
         3           Cu  tau(   3) = (  0.3644060  0.4398350  0.1306550  )
         4           As  tau(   4) = (  0.0005520  0.9780310  0.0004410  )
         5           O   tau(   5) = (  0.0850820  0.8344360  0.7057140  )
         6           O   tau(   6) = (  0.0733370  0.8092460  0.2158720  )
         7           O   tau(   7) = (  0.2065660  0.2684760  0.4433960  )
         8           O   tau(   8) = (  0.1931910  0.2624430  0.9398260  )
         9           O   tau(   9) = (  0.5222020  0.6267670  0.3252380  )
        10           O   tau(  10) = (  0.5391630  0.5850110  0.8154610  )
        11           O   tau(  11) = (  0.6614180  0.0856780  0.1120170  )

     number of k points=    14
                       cart. coord. in units 2pi/alat
        k(    1) = (   0.0000000   0.0000000   0.0000000), wk =   0.0740741
        k(    2) = (   0.0000000   0.0000000   0.3385147), wk =   0.1481481
        k(    3) = (   0.0000000   0.3259054  -0.0002768), wk =   0.1481481
        k(    4) = (   0.0000000   0.3259054   0.3382379), wk =   0.1481481
        k(    5) = (   0.0000000   0.3259054  -0.3387915), wk =   0.1481481
        k(    6) = (   0.3333333  -0.0016999  -0.1454888), wk =   0.1481481
        k(    7) = (   0.3333333  -0.0016999   0.1930259), wk =   0.1481481
        k(    8) = (   0.3333333  -0.0016999  -0.4840035), wk =   0.1481481
        k(    9) = (   0.3333333   0.3242055  -0.1457656), wk =   0.1481481
        k(   10) = (   0.3333333   0.3242055   0.1927491), wk =   0.1481481
        k(   11) = (   0.3333333   0.3242055  -0.4842803), wk =   0.1481481
        k(   12) = (   0.3333333  -0.3276054  -0.1452120), wk =   0.1481481
        k(   13) = (   0.3333333  -0.3276054   0.1933027), wk =   0.1481481
        k(   14) = (   0.3333333  -0.3276054  -0.4837267), wk =   0.1481481

                       cryst. coord.
        k(    1) = (   0.0000000   0.0000000   0.0000000), wk =   0.0740741
        k(    2) = (   0.0000000   0.0000000   0.3333333), wk =   0.1481481
        k(    3) = (   0.0000000   0.3333333  -0.0000000), wk =   0.1481481
        k(    4) = (   0.0000000   0.3333333   0.3333333), wk =   0.1481481
        k(    5) = (   0.0000000   0.3333333  -0.3333333), wk =   0.1481481
        k(    6) = (   0.3333333  -0.0000000   0.0000000), wk =   0.1481481
        k(    7) = (   0.3333333  -0.0000000   0.3333333), wk =   0.1481481
        k(    8) = (   0.3333333  -0.0000000  -0.3333333), wk =   0.1481481
        k(    9) = (   0.3333333   0.3333333   0.0000000), wk =   0.1481481
        k(   10) = (   0.3333333   0.3333333   0.3333333), wk =   0.1481481
        k(   11) = (   0.3333333   0.3333333  -0.3333333), wk =   0.1481481
        k(   12) = (   0.3333333  -0.3333333  -0.0000000), wk =   0.1481481
        k(   13) = (   0.3333333  -0.3333333   0.3333333), wk =   0.1481481
        k(   14) = (   0.3333333  -0.3333333  -0.3333333), wk =   0.1481481

     Check: negative core charge=   -0.000012

     Initial potential from superposition of free atoms

     starting charge     100.9997, renormalised to     104.0000
     Starting wfcs are   71 randomized atomic wfcs
     Checking if some PAW data can be deallocated...

     Self-consistent Calculation

     iteration #  1     ecut=    30.00 Ry     beta= 0.70
     Davidson diagonalization with overlap

     ethr =  1.00E-02,  avg # of iterations =  3.1

     total energy              =   -1517.47237982 Ry
     estimated scf accuracy    <       4.09344536 Ry

[...]

     total energy              =   -1519.98607047 Ry
     estimated scf accuracy    <       0.00002592 Ry

     iteration # 15     ecut=    30.00 Ry     beta= 0.70
     Davidson diagonalization with overlap

     ethr =  8.08E-09,  avg # of iterations =  2.0

     End of self-consistent calculation

          k = 0.0000 0.0000 0.0000 (  2753 PWs)   bands (ev):

  -108.5280-108.3036-108.3026 -66.2521 -66.0960 -66.0825 -66.0654 -65.8190
   -65.8106 -65.2562 -65.0131 -64.9921 -15.3949 -13.8093 -13.7474 -13.2862
   -13.0684 -12.8026 -12.2380  -4.8815  -2.0654  -1.3741  -1.2134  -0.9465
    -0.7701  -0.5185   0.0396   0.1752   0.4643   0.5856   0.9953   1.3350
     1.4942   1.8190   2.0332   2.0883   2.1594   2.2336   2.2824   2.3659
     2.4489   2.5508   2.7326   2.9877   3.1573   3.3274   3.3682   3.6233
     4.0600   4.2615   4.3706   4.6469   5.2738   5.4623   6.1959   8.1001
    10.7663  11.6912  12.5386  12.9423  13.3698  14.6573  14.8684  15.1779

     occupation numbers
     1.0000   1.0000   1.0000   1.0000   1.0000   1.0000   1.0000   1.0000
     1.0000   1.0000   1.0000   1.0000   1.0000   1.0000   1.0000   1.0000
     1.0000   1.0000   1.0000   1.0000   1.0000   1.0000   1.0000   1.0000
     1.0000   1.0000   1.0000   1.0000   1.0000   1.0000   1.0000   1.0000
     1.0000   1.0000   1.0000   1.0000   1.0000   1.0000   1.0000   1.0000
     1.0000   1.0000   1.0000   1.0000   1.0000   1.0000   1.0000   1.0000
     1.0000   1.0000   1.0000   1.0000   0.0000   0.0000   0.0000   0.0000
     0.0000   0.0000   0.0000   0.0000   0.0000   0.0000   0.0000   0.0000

[...]

          k = 0.3333-0.3276-0.4837 (  2736 PWs)   bands (ev):

  -108.5274-108.3030-108.3020 -66.2501 -66.0954 -66.0818 -66.0666 -65.8180
   -65.8096 -65.2540 -65.0105 -64.9898 -15.1782 -14.0323 -13.6489 -13.4589
   -13.0506 -12.8693 -12.2448  -4.5068  -1.7923  -1.4439  -1.1162  -0.8788
    -0.6976  -0.4017  -0.1262   0.1029   0.5387   0.7151   0.9800   1.1182
     1.2726   1.6358   1.6929   1.7534   1.9531   2.0691   2.3102   2.3876
     2.5868   2.7880   2.9632   3.1299   3.2374   3.3298   3.5464   3.7345
     3.9706   4.0812   4.3280   4.6187   5.1674   5.3949   5.8073   9.4494
    11.3104  11.7874  12.2177  12.7212  13.4235  13.8872  14.3032  15.1946

     occupation numbers
     1.0000   1.0000   1.0000   1.0000   1.0000   1.0000   1.0000   1.0000
     1.0000   1.0000   1.0000   1.0000   1.0000   1.0000   1.0000   1.0000
     1.0000   1.0000   1.0000   1.0000   1.0000   1.0000   1.0000   1.0000
     1.0000   1.0000   1.0000   1.0000   1.0000   1.0000   1.0000   1.0000
     1.0000   1.0000   1.0000   1.0000   1.0000   1.0000   1.0000   1.0000
     1.0000   1.0000   1.0000   1.0000   1.0000   1.0000   1.0000   1.0000
     1.0000   1.0000   1.0000   1.0000   0.0000   0.0000   0.0000   0.0000
     0.0000   0.0000   0.0000   0.0000   0.0000   0.0000   0.0000   0.0000

     highest occupied, lowest unoccupied level (ev):     4.7036    4.9203

!    total energy              =   -1519.98607309 Ry
     estimated scf accuracy    <       0.00000081 Ry

     The total energy is the sum of the following terms:
     one-electron contribution =   -1427.84084213 Ry
     hartree contribution      =     753.47512401 Ry
     xc contribution           =    -176.69929831 Ry
     ewald contribution        =    -602.18830511 Ry
     one-center paw contrib.   =     -66.73275156 Ry
      -> PAW hartree energy AE =       0.00000000 Ry
      -> PAW hartree energy PS =       0.00000000 Ry
      -> PAW xc energy AE      =       0.00000000 Ry
      -> PAW xc energy PS      =       0.00000000 Ry
      -> total E_H with PAW    =     753.47512401 Ry
      -> total E_XC with PAW   =    -176.69929831 Ry

     convergence has been achieved in  15 iterations

     Writing all to output data dir calculations_bands/myprefix.save/

     General routines

     Parallel routines

     PAW routines

   This run was terminated on:  21:10:41   6Jun2023

   JOB DONE.