     Program PWSCF v.7.0 starts on  4Jun2023 at 14: 6:58

     K-points division:     npool     =       2
     R & G space division:  proc/nbgrp/npool/nimage =       4

     Reading input from espresso_2157.pwi
Warning: card &CELL ignored
Warning: card / ignored

     Current dimensions of program PWSCF are:
     Max number of different atomic species (ntypx) = 10
     Max number of k-points (npk) =  40000
     Max angular momentum in pseudopotentials (lmaxx) =  4
     file O.pbe-n-kjpaw_psl.0.1.UPF: wavefunction(s)  2P renormalized
     Message from routine setup:
     using ibrav=0 with symmetry is DISCOURAGED, use correct ibrav instead

     Using Slab Decomposition

     bravais-lattice index     =            0
     lattice parameter (alat)  =       9.4979  a.u.
     unit-cell volume          =    1188.1959 (a.u.)^3
     number of atoms/cell      =           14
     number of atomic types    =            3
     number of electrons       =       118.00
     number of Kohn-Sham states=           64
     kinetic-energy cutoff     =      30.0000  Ry
     charge density cutoff     =     240.0000  Ry
     scf convergence threshold =      1.0E-06
     mixing beta               =       0.7000
     number of iterations used =            8  plain     mixing
     Exchange-correlation= SLA  PW   PBX  PBC
                           (   1   4   3   4   0   0   0)

     celldm(1)=   9.497923  celldm(2)=   0.000000  celldm(3)=   0.000000
     celldm(4)=   0.000000  celldm(5)=   0.000000  celldm(6)=   0.000000

     crystal axes: (cart. coord. in units of alat)
               a(1) = (   1.000000   0.000000   0.000000 )
               a(2) = (   0.000032   1.210278   0.000000 )
               a(3) = (  -0.298475  -0.605105   1.145821 )

     reciprocal axes: (cart. coord. in units 2 pi/alat)
               b(1) = (  1.000000 -0.000027  0.260476 )
               b(2) = (  0.000000  0.826256  0.436343 )
               b(3) = (  0.000000  0.000000  0.872736 )

     PseudoPot. # 1 for Na read from file:
     /home/pragov/projects/rrg-bengioy-ad/pragov/crystal_structure_design/SSSP/na_pbe_v1.5.uspp.F.UPF
     MD5 check sum: 44600605ef58000f06b90626533354dc
     Pseudo is Ultrasoft, Zval =  9.0
     Generated by new atomic code, or converted to UPF format
     Using radial grid of  819 points,  5 beta functions with:
                l(1) =   0
                l(2) =   0
                l(3) =   1
                l(4) =   1
                l(5) =   2
     Q(r) pseudized with  8 coefficients,  rinner =    1.250   1.250   1.250
                                                       1.250   1.250

     PseudoPot. # 2 for V  read from file:
     /home/pragov/projects/rrg-bengioy-ad/pragov/crystal_structure_design/SSSP/v_pbe_v1.4.uspp.F.UPF
     MD5 check sum: 22b79981416ebb76fdaf5b1b8640f6fb
     Pseudo is Ultrasoft + core correction, Zval = 13.0
     Generated by new atomic code, or converted to UPF format
     Using radial grid of  853 points,  6 beta functions with:
                l(1) =   0
                l(2) =   0
                l(3) =   1
                l(4) =   1
                l(5) =   2
                l(6) =   2
     Q(r) pseudized with  8 coefficients,  rinner =    1.100   1.100   1.100
                                                       1.100   1.100

     PseudoPot. # 3 for O  read from file:
     /home/pragov/projects/rrg-bengioy-ad/pragov/crystal_structure_design/SSSP/O.pbe-n-kjpaw_psl.0.1.UPF
     MD5 check sum: 0234752ac141de4415c5fc33072bef88
     Pseudo is Projector augmented-wave + core cor, Zval =  6.0
     Generated using "atomic" code by A. Dal Corso  v.5.0.99 svn rev. 10869
     Shape of augmentation charge: BESSEL
     Using radial grid of 1095 points,  4 beta functions with:
                l(1) =   0
                l(2) =   0
                l(3) =   1
                l(4) =   1
     Q(r) pseudized with 0 coefficients

     atomic species   valence    mass     pseudopotential
        Na             9.00    22.98977     Na( 1.00)
        V             13.00    50.94150     V ( 1.00)
        O              6.00    15.99900     O ( 1.00)

      2 Sym. Ops., with inversion, found

                                    s                        frac. trans.

      isym =  1     identity

 cryst.   s( 1) = (     1          0          0      )
                  (     0          1          0      )
                  (     0          0          1      )

 cart.    s( 1) = (  1.0000000  0.0000000 -0.0000000 )
                  (  0.0000000  1.0000000  0.0000000 )
                  (  0.0000000  0.0000000  1.0000000 )

      isym =  2     inversion

 cryst.   s( 2) = (    -1          0          0      )
                  (     0         -1          0      )
                  (     0          0         -1      )

 cart.    s( 2) = ( -1.0000000 -0.0000000  0.0000000 )
                  (  0.0000000 -1.0000000 -0.0000000 )
                  (  0.0000000  0.0000000 -1.0000000 )

   Cartesian axes

     site n.     atom                  positions (alat units)
         1           Na  tau(   1) = (   0.7500216   0.8459669   0.0000034  )
         2           Na  tau(   2) = (  -0.0484644  -0.2407939   1.1458192  )
         3           V   tau(   3) = (   0.0867235   0.1604731   0.5805293  )
         4           V   tau(   4) = (   0.1148820   0.7656124   0.5652750  )
         5           V   tau(   5) = (   0.6148307   0.4447011   0.5652933  )
         6           V   tau(   6) = (   0.5866778  -0.1604382   0.5805453  )
         7           O   tau(   7) = (  -0.0650263   0.4603575   0.3520387  )
         8           O   tau(   8) = (   0.2665990  -0.1447774   0.7937907  )
         9           O   tau(   9) = (   0.7665908   0.1448162   0.7937827  )
        10           O   tau(  10) = (   0.4349525   0.7499522   0.3520307  )
        11           O   tau(  11) = (   0.2743069   0.4597849   0.7688485  )
        12           O   tau(  12) = (  -0.0727751  -0.1453709   0.3769730  )
        13           O   tau(  13) = (   0.4272446   0.1453876   0.3769730  )
        14           O   tau(  14) = (   0.7743387   0.7505445   0.7688485  )

   Crystallographic axes

     site n.     atom                  positions (cryst. coord.)
         1           Na  tau(   1) = (  0.7500000  0.6989870  0.0000030  )
         2           Na  tau(   2) = (  0.2500000  0.3010130  0.9999980  )
         3           V   tau(   3) = (  0.2379330  0.3859020  0.5066490  )
         4           V   tau(   4) = (  0.2621020  0.8792460  0.4933360  )
         5           V   tau(   5) = (  0.7620640  0.6140990  0.4933520  )
         6           V   tau(   6) = (  0.7379000  0.1207540  0.5066630  )
         7           O   tau(   7) = (  0.0266590  0.5339830  0.3072370  )
         8           O   tau(   8) = (  0.4733660  0.2267420  0.6927700  )
         9           O   tau(   9) = (  0.9733480  0.4660170  0.6927630  )
        10           O   tau(  10) = (  0.5266280  0.7732590  0.3072300  )
        11           O   tau(  11) = (  0.4745610  0.7153820  0.6710020  )
        12           O   tau(  12) = (  0.0254210  0.0443760  0.3289980  )
        13           O   tau(  13) = (  0.5254330  0.2846170  0.3289980  )
        14           O   tau(  14) = (  0.9745850  0.9556240  0.6710020  )

     number of k points=    14
                       cart. coord. in units 2pi/alat
        k(    1) = (   0.0000000   0.0000000   0.0000000), wk =   0.0740741
        k(    2) = (   0.0000000   0.0000000   0.2909121), wk =   0.1481481
        k(    3) = (   0.0000000   0.2754188   0.1454478), wk =   0.1481481
        k(    4) = (   0.0000000   0.2754188   0.4363599), wk =   0.1481481
        k(    5) = (   0.0000000   0.2754188  -0.1454644), wk =   0.1481481
        k(    6) = (   0.3333333  -0.0000089   0.0868252), wk =   0.1481481
        k(    7) = (   0.3333333  -0.0000089   0.3777373), wk =   0.1481481
        k(    8) = (   0.3333333  -0.0000089  -0.2040869), wk =   0.1481481
        k(    9) = (   0.3333333   0.2754099   0.2322730), wk =   0.1481481
        k(   10) = (   0.3333333   0.2754099   0.5231851), wk =   0.1481481
        k(   11) = (   0.3333333   0.2754099  -0.0586391), wk =   0.1481481
        k(   12) = (   0.3333333  -0.2754276  -0.0586225), wk =   0.1481481
        k(   13) = (   0.3333333  -0.2754276   0.2322896), wk =   0.1481481
        k(   14) = (   0.3333333  -0.2754276  -0.3495346), wk =   0.1481481

                       cryst. coord.
        k(    1) = (   0.0000000   0.0000000   0.0000000), wk =   0.0740741
        k(    2) = (   0.0000000   0.0000000   0.3333333), wk =   0.1481481
        k(    3) = (   0.0000000   0.3333333   0.0000000), wk =   0.1481481
        k(    4) = (   0.0000000   0.3333333   0.3333333), wk =   0.1481481
        k(    5) = (   0.0000000   0.3333333  -0.3333333), wk =   0.1481481
        k(    6) = (   0.3333333  -0.0000000  -0.0000000), wk =   0.1481481
        k(    7) = (   0.3333333  -0.0000000   0.3333333), wk =   0.1481481
        k(    8) = (   0.3333333  -0.0000000  -0.3333333), wk =   0.1481481
        k(    9) = (   0.3333333   0.3333333   0.0000000), wk =   0.1481481
        k(   10) = (   0.3333333   0.3333333   0.3333333), wk =   0.1481481
        k(   11) = (   0.3333333   0.3333333  -0.3333333), wk =   0.1481481
        k(   12) = (   0.3333333  -0.3333333  -0.0000000), wk =   0.1481481
        k(   13) = (   0.3333333  -0.3333333   0.3333333), wk =   0.1481481
        k(   14) = (   0.3333333  -0.3333333  -0.3333333), wk =   0.1481481

     Check: negative core charge=   -0.000015

     Initial potential from superposition of free atoms

     starting charge     117.9825, renormalised to     118.0000

     negative rho (up, down):  1.851E-03 0.000E+00
     Starting wfcs are   82 randomized atomic wfcs
     Checking if some PAW data can be deallocated...

     Self-consistent Calculation

     iteration #  1     ecut=    30.00 Ry     beta= 0.70
     Davidson diagonalization with overlap

     ethr =  1.00E-02,  avg # of iterations =  2.0

     negative rho (up, down):  4.589E-03 0.000E+00

     total energy              =   -1102.21373450 Ry
     estimated scf accuracy    <       4.43452540 Ry

[...]

     total energy              =   -1104.85210564 Ry
     estimated scf accuracy    <       0.00000251 Ry

     iteration # 15     ecut=    30.00 Ry     beta= 0.70
     Davidson diagonalization with overlap

     ethr =  2.12E-09,  avg # of iterations =  6.4

     negative rho (up, down):  3.404E-03 0.000E+00

     End of self-consistent calculation

          k = 0.0000 0.0000 0.0000 (  3271 PWs)   bands (ev):

   -57.4099 -57.3780 -57.3663 -57.3621 -43.4050 -43.4028 -31.5252 -31.4734
   -31.4112 -31.3679 -31.3459 -31.2884 -31.1919 -31.1225 -31.0194 -30.9599
   -30.9444 -30.9225 -15.3429 -15.3399 -15.3263 -15.3242 -15.3161 -15.3093
   -11.8300 -10.8329 -10.8078 -10.7164 -10.6041 -10.5907 -10.4135 -10.3905
     1.1890   1.6260   2.0333   2.0402   2.0785   2.1996   2.5514   2.7092
     2.8694   3.0087   3.0989   3.2417   3.5165   3.6492   3.6619   3.6796
     3.8440   4.3287   4.6055   4.7833   4.8663   4.9899   5.4276   5.5078
     7.7831   7.8881   7.9767   8.4233   8.4410   8.5934   8.6694   8.8137

     occupation numbers
     1.0000   1.0000   1.0000   1.0000   1.0000   1.0000   1.0000   1.0000
     1.0000   1.0000   1.0000   1.0000   1.0000   1.0000   1.0000   1.0000
     1.0000   1.0000   1.0000   1.0000   1.0000   1.0000   1.0000   1.0000
     1.0000   1.0000   1.0000   1.0000   1.0000   1.0000   1.0000   1.0000
     1.0000   1.0000   1.0000   1.0000   1.0000   1.0000   1.0000   1.0000
     1.0000   1.0000   1.0000   1.0000   1.0000   1.0000   1.0000   1.0000
     1.0000   1.0000   1.0000   1.0000   1.0000   1.0000   1.0000   1.0000
     1.0000   1.0000   1.0000   0.0000   0.0000   0.0000   0.0000   0.0000

[...]

          k = 0.3333-0.2754-0.3495 (  3302 PWs)   bands (ev):

   -57.3945 -57.3849 -57.3699 -57.3677 -43.4048 -43.4037 -31.4908 -31.4744
   -31.4103 -31.3683 -31.3375 -31.3047 -31.1800 -31.1739 -30.9864 -30.9627
   -30.9561 -30.9415 -15.3459 -15.3443 -15.3261 -15.3245 -15.3173 -15.3150
   -11.3297 -11.0428 -10.8166 -10.7510 -10.6400 -10.6092 -10.5405 -10.5128
     1.6944   1.7926   2.0084   2.0205   2.2150   2.3122   2.4651   2.5579
     2.8834   3.1035   3.1526   3.2478   3.3297   3.5097   3.5916   3.7918
     3.8181   3.8896   4.5878   4.6234   4.6589   4.9036   5.1238   5.2213
     8.0144   8.1097   8.2409   8.3693   8.4741   8.6623   8.7538   8.7729

     occupation numbers
     1.0000   1.0000   1.0000   1.0000   1.0000   1.0000   1.0000   1.0000
     1.0000   1.0000   1.0000   1.0000   1.0000   1.0000   1.0000   1.0000
     1.0000   1.0000   1.0000   1.0000   1.0000   1.0000   1.0000   1.0000
     1.0000   1.0000   1.0000   1.0000   1.0000   1.0000   1.0000   1.0000
     1.0000   1.0000   1.0000   1.0000   1.0000   1.0000   1.0000   1.0000
     1.0000   1.0000   1.0000   1.0000   1.0000   1.0000   1.0000   1.0000
     1.0000   1.0000   1.0000   1.0000   1.0000   1.0000   1.0000   1.0000
     1.0000   1.0000   1.0000   0.0000   0.0000   0.0000   0.0000   0.0000

     highest occupied, lowest unoccupied level (ev):     8.2503    8.0918

!    total energy              =   -1104.85210605 Ry
     estimated scf accuracy    <       0.00000053 Ry

     The total energy is the sum of the following terms:
     one-electron contribution =    -691.53137946 Ry
     hartree contribution      =     391.51831534 Ry
     xc contribution           =    -166.28632750 Ry
     ewald contribution        =    -562.35207147 Ry
     one-center paw contrib.   =     -76.20064296 Ry
      -> PAW hartree energy AE =       0.00000000 Ry
      -> PAW hartree energy PS =       0.00000000 Ry
      -> PAW xc energy AE      =       0.00000000 Ry
      -> PAW xc energy PS      =       0.00000000 Ry
      -> total E_H with PAW    =     391.51831534 Ry
      -> total E_XC with PAW   =    -166.28632750 Ry

     convergence has been achieved in  15 iterations

     Writing all to output data dir calculations_bands/myprefix.save/

     General routines

     Parallel routines

     PAW routines

   This run was terminated on:  14: 7:17   4Jun2023

   JOB DONE.