     Program PWSCF v.7.0 starts on  4Jun2023 at 21: 5:18

     K-points division:     npool     =       2
     R & G space division:  proc/nbgrp/npool/nimage =       4

     Reading input from espresso_10127.pwi
Warning: card &CELL ignored
Warning: card / ignored

     Current dimensions of program PWSCF are:
     Max number of different atomic species (ntypx) = 10
     Max number of k-points (npk) =  40000
     Max angular momentum in pseudopotentials (lmaxx) =  4
     file O.pbe-n-kjpaw_psl.0.1.UPF: wavefunction(s)  2P renormalized
     Message from routine setup:
     using ibrav=0 with symmetry is DISCOURAGED, use correct ibrav instead

     Using Slab Decomposition

     bravais-lattice index     =            0
     lattice parameter (alat)  =       9.4083  a.u.
     unit-cell volume          =    1632.0821 (a.u.)^3
     number of atoms/cell      =           16
     number of atomic types    =            3
     number of electrons       =       120.00
     number of Kohn-Sham states=           64
     kinetic-energy cutoff     =      30.0000  Ry
     charge density cutoff     =     240.0000  Ry
     scf convergence threshold =      1.0E-06
     mixing beta               =       0.7000
     number of iterations used =            8  plain     mixing
     Exchange-correlation= SLA  PW   PBX  PBC
                           (   1   4   3   4   0   0   0)

     celldm(1)=   9.408329  celldm(2)=   0.000000  celldm(3)=   0.000000
     celldm(4)=   0.000000  celldm(5)=   0.000000  celldm(6)=   0.000000

     crystal axes: (cart. coord. in units of alat)
               a(1) = (   1.000000   0.000000   0.000000 )
               a(2) = (  -0.000016   1.051820   0.000000 )
               a(3) = (  -0.509304  -0.525976   1.863216 )

     reciprocal axes: (cart. coord. in units 2 pi/alat)
               b(1) = (  1.000000  0.000015  0.273351 )
               b(2) = (  0.000000  0.950733  0.268387 )
               b(3) = (  0.000000  0.000000  0.536707 )

     PseudoPot. # 1 for Li read from file:
     /home/pragov/projects/rrg-bengioy-ad/pragov/crystal_structure_design/SSSP/li_pbe_v1.4.uspp.F.UPF
     MD5 check sum: e912e257baa3777c20ea3d68f190483c
     Pseudo is Ultrasoft, Zval =  3.0
     Generated by new atomic code, or converted to UPF format
     Using radial grid of  751 points,  5 beta functions with:
                l(1) =   0
                l(2) =   0
                l(3) =   0
                l(4) =   1
                l(5) =   1
     Q(r) pseudized with 10 coefficients,  rinner =    1.150   1.150   1.150

     PseudoPot. # 2 for Bi read from file:
     /home/pragov/projects/rrg-bengioy-ad/pragov/crystal_structure_design/SSSP/Bi_pbe_v1.uspp.F.UPF
     MD5 check sum: cceb9f28ec65b6d7ff33140f5b0b1758
     Pseudo is Ultrasoft + core correction, Zval = 15.0
     Generated by new atomic code, or converted to UPF format
     Using radial grid of  899 points,  6 beta functions with:
                l(1) =   0
                l(2) =   0
                l(3) =   1
                l(4) =   1
                l(5) =   2
                l(6) =   2
     Q(r) pseudized with  6 coefficients,  rinner =    1.000   1.000   1.000
                                                       1.000   1.000

     PseudoPot. # 3 for O  read from file:
     /home/pragov/projects/rrg-bengioy-ad/pragov/crystal_structure_design/SSSP/O.pbe-n-kjpaw_psl.0.1.UPF
     MD5 check sum: 0234752ac141de4415c5fc33072bef88
     Pseudo is Projector augmented-wave + core cor, Zval =  6.0
     Generated using "atomic" code by A. Dal Corso  v.5.0.99 svn rev. 10869
     Shape of augmentation charge: BESSEL
     Using radial grid of 1095 points,  4 beta functions with:
                l(1) =   0
                l(2) =   0
                l(3) =   1
                l(4) =   1
     Q(r) pseudized with 0 coefficients

     atomic species   valence    mass     pseudopotential
        Li             3.00     6.94000     Li( 1.00)
        Bi            15.00   208.98040     Bi( 1.00)
        O              6.00    15.99900     O ( 1.00)

      2 Sym. Ops., with inversion, found

                                    s                        frac. trans.

      isym =  1     identity

 cryst.   s( 1) = (     1          0          0      )
                  (     0          1          0      )
                  (     0          0          1      )

 cart.    s( 1) = (  1.0000000  0.0000000 -0.0000000 )
                  (  0.0000000  1.0000000 -0.0000000 )
                  (  0.0000000  0.0000000  1.0000000 )

      isym =  2     inversion

 cryst.   s( 2) = (    -1          0          0      )
                  (     0         -1          0      )
                  (     0          0         -1      )

 cart.    s( 2) = ( -1.0000000 -0.0000000  0.0000000 )
                  (  0.0000000 -1.0000000  0.0000000 )
                  (  0.0000000  0.0000000 -1.0000000 )

   Cartesian axes

     site n.     atom                  positions (alat units)
         1           Li  tau(   1) = (   0.7451090   0.0005798   0.9303240  )
         2           Li  tau(   2) = (   0.2455749   0.5264901   0.9328971  )
         3           Li  tau(   3) = (  -0.2544286   0.5252642   0.9328915  )
         4           Li  tau(   4) = (   0.2451056  -0.0006461   0.9303184  )
         5           Bi  tau(   5) = (  -0.0072322   0.2524716   0.3383506  )
         6           Bi  tau(   6) = (   0.4979127   0.2733724   1.5248649  )
         7           Bi  tau(   7) = (  -0.0020738  -0.2734735   1.5248705  )
         8           Bi  tau(   8) = (   0.4927542   0.7993175   0.3383450  )
         9           O   tau(   9) = (  -0.0038515   0.2634925   0.7559755  )
        10           O   tau(  10) = (   0.4945320   0.2623515   1.1072400  )
        11           O   tau(  11) = (  -0.0054588  -0.2624272   1.1072456  )
        12           O   tau(  12) = (   0.4961392   0.7882712   0.7559699  )
        13           O   tau(  13) = (   0.0565154   0.8744034   0.3043656  )
        14           O   tau(  14) = (   0.4341650  -0.3485594   1.5588499  )
        15           O   tau(  15) = (  -0.0658528   0.3484580   1.5588443  )
        16           O   tau(  16) = (   0.5565332   0.1773860   0.3043712  )

   Crystallographic axes

     site n.     atom                  positions (cryst. coord.)
         1           Li  tau(   1) = (  0.9994140  0.2502380  0.4993110  )
         2           Li  tau(   2) = (  0.5005910  0.7509290  0.5006920  )
         3           Li  tau(   3) = (  0.0005860  0.7497620  0.5006890  )
         4           Li  tau(   4) = (  0.4994090  0.2490710  0.4993080  )
         5           Bi  tau(   5) = (  0.0852600  0.3308420  0.1815950  )
         6           Bi  tau(   6) = (  0.9147400  0.6691580  0.8184050  )
         7           Bi  tau(   7) = (  0.4147470  0.1492550  0.8184080  )
         8           Bi  tau(   8) = (  0.5852530  0.8507450  0.1815920  )
         9           O   tau(   9) = (  0.2027990  0.4534050  0.4057370  )
        10           O   tau(  10) = (  0.7972010  0.5465950  0.5942630  )
        11           O   tau(  11) = (  0.2972040  0.0476720  0.5942660  )
        12           O   tau(  12) = (  0.7027960  0.9523280  0.4057340  )
        13           O   tau(  13) = (  0.1397270  0.9130120  0.1633550  )
        14           O   tau(  14) = (  0.8602730  0.0869880  0.8366450  )
        15           O   tau(  15) = (  0.3602640  0.7496640  0.8366420  )
        16           O   tau(  16) = (  0.6397360  0.2503360  0.1633580  )

     number of k points=    14
                       cart. coord. in units 2pi/alat
        k(    1) = (   0.0000000   0.0000000   0.0000000), wk =   0.0740741
        k(    2) = (   0.0000000   0.0000000   0.1789022), wk =   0.1481481
        k(    3) = (   0.0000000   0.3169110   0.0894623), wk =   0.1481481
        k(    4) = (   0.0000000   0.3169110   0.2683645), wk =   0.1481481
        k(    5) = (   0.0000000   0.3169110  -0.0894399), wk =   0.1481481
        k(    6) = (   0.3333333   0.0000049   0.0911170), wk =   0.1481481
        k(    7) = (   0.3333333   0.0000049   0.2700192), wk =   0.1481481
        k(    8) = (   0.3333333   0.0000049  -0.0877852), wk =   0.1481481
        k(    9) = (   0.3333333   0.3169160   0.1805793), wk =   0.1481481
        k(   10) = (   0.3333333   0.3169160   0.3594815), wk =   0.1481481
        k(   11) = (   0.3333333   0.3169160   0.0016771), wk =   0.1481481
        k(   12) = (   0.3333333  -0.3169061   0.0016547), wk =   0.1481481
        k(   13) = (   0.3333333  -0.3169061   0.1805569), wk =   0.1481481
        k(   14) = (   0.3333333  -0.3169061  -0.1772475), wk =   0.1481481

                       cryst. coord.
        k(    1) = (   0.0000000   0.0000000   0.0000000), wk =   0.0740741
        k(    2) = (   0.0000000   0.0000000   0.3333333), wk =   0.1481481
        k(    3) = (   0.0000000   0.3333333   0.0000000), wk =   0.1481481
        k(    4) = (   0.0000000   0.3333333   0.3333333), wk =   0.1481481
        k(    5) = (   0.0000000   0.3333333  -0.3333333), wk =   0.1481481
        k(    6) = (   0.3333333   0.0000000  -0.0000000), wk =   0.1481481
        k(    7) = (   0.3333333   0.0000000   0.3333333), wk =   0.1481481
        k(    8) = (   0.3333333   0.0000000  -0.3333333), wk =   0.1481481
        k(    9) = (   0.3333333   0.3333333  -0.0000000), wk =   0.1481481
        k(   10) = (   0.3333333   0.3333333   0.3333333), wk =   0.1481481
        k(   11) = (   0.3333333   0.3333333  -0.3333333), wk =   0.1481481
        k(   12) = (   0.3333333  -0.3333333  -0.0000000), wk =   0.1481481
        k(   13) = (   0.3333333  -0.3333333   0.3333333), wk =   0.1481481
        k(   14) = (   0.3333333  -0.3333333  -0.3333333), wk =   0.1481481

     Check: negative core charge=   -0.000011

     Initial potential from superposition of free atoms

     starting charge     114.1969, renormalised to     120.0000

     negative rho (up, down):  1.741E-01 0.000E+00
     Starting wfcs are   88 randomized atomic wfcs
     Checking if some PAW data can be deallocated...

     Self-consistent Calculation

     iteration #  1     ecut=    30.00 Ry     beta= 0.70
     Davidson diagonalization with overlap

     ethr =  1.00E-02,  avg # of iterations =  2.0

     negative rho (up, down):  1.542E-01 0.000E+00

     total energy              =   -1130.05303454 Ry
     estimated scf accuracy    <       4.87143470 Ry

[...]

     c_bands:  1 eigenvalues not converged
     c_bands:  1 eigenvalues not converged
     ethr =  1.62E-05,  avg # of iterations = 14.1

[...]

     c_bands:  1 eigenvalues not converged
     c_bands:  1 eigenvalues not converged
     ethr =  1.45E-06,  avg # of iterations =  9.9

[...]

     total energy              =   -1132.41069571 Ry
     estimated scf accuracy    <       0.00000959 Ry

     iteration # 13     ecut=    30.00 Ry     beta= 0.70
     Davidson diagonalization with overlap

     ethr =  7.99E-09,  avg # of iterations =  2.0

     negative rho (up, down):  1.670E-01 0.000E+00

     End of self-consistent calculation

          k = 0.0000 0.0000 0.0000 (  4519 PWs)   bands (ev):

   -36.3573 -36.3176 -36.2973 -36.2641 -15.8496 -15.8490 -15.7355 -15.7215
   -15.6235 -15.6218 -15.5753 -15.5712 -15.5296 -15.5263 -15.4693 -15.4572
   -15.4557 -15.4551 -15.4513 -15.4387 -15.4274 -15.4148 -15.4061 -15.3995
   -11.4668 -11.2689  -9.8468  -9.8037  -9.7971  -9.7872  -9.6857  -9.4096
    -2.5054  -2.4745  -1.8873  -1.7087   1.7076   1.7373   2.0120   2.0309
     2.5090   3.6582   3.6857   3.7340   3.8474   4.0652   4.2559   4.5927
     4.6874   4.7412   4.7775   4.9253   5.0477   5.2323   5.2368   5.4154
     5.4672   5.5165   5.8535   5.8894  10.4465  10.6954  11.1789  11.2396

     occupation numbers
     1.0000   1.0000   1.0000   1.0000   1.0000   1.0000   1.0000   1.0000
     1.0000   1.0000   1.0000   1.0000   1.0000   1.0000   1.0000   1.0000
     1.0000   1.0000   1.0000   1.0000   1.0000   1.0000   1.0000   1.0000
     1.0000   1.0000   1.0000   1.0000   1.0000   1.0000   1.0000   1.0000
     1.0000   1.0000   1.0000   1.0000   1.0000   1.0000   1.0000   1.0000
     1.0000   1.0000   1.0000   1.0000   1.0000   1.0000   1.0000   1.0000
     1.0000   1.0000   1.0000   1.0000   1.0000   1.0000   1.0000   1.0000
     1.0000   1.0000   1.0000   1.0000   0.0000   0.0000   0.0000   0.0000

[...]

          k = 0.3333-0.3169-0.1772 (  4519 PWs)   bands (ev):

   -36.3330 -36.3136 -36.3039 -36.2861 -15.7653 -15.7566 -15.7162 -15.7026
   -15.6175 -15.6099 -15.5767 -15.5744 -15.5403 -15.5380 -15.5033 -15.5024
   -15.4616 -15.4569 -15.4544 -15.4502 -15.4175 -15.4129 -15.4095 -15.4064
   -11.0691 -10.9410 -10.3613 -10.2930  -9.7586  -9.7291  -9.6483  -9.5718
    -3.2411  -3.0467  -2.5678  -2.4000   2.7348   2.8333   2.9690   3.4152
     3.4632   3.6846   3.7921   4.0192   4.1540   4.2079   4.4991   4.6805
     4.8503   4.8924   4.9939   5.1208   5.2270   5.3261   5.4152   5.4787
     5.6669   5.8755   5.9656   6.0214   8.7709   8.8796   9.7626   9.9603

     occupation numbers
     1.0000   1.0000   1.0000   1.0000   1.0000   1.0000   1.0000   1.0000
     1.0000   1.0000   1.0000   1.0000   1.0000   1.0000   1.0000   1.0000
     1.0000   1.0000   1.0000   1.0000   1.0000   1.0000   1.0000   1.0000
     1.0000   1.0000   1.0000   1.0000   1.0000   1.0000   1.0000   1.0000
     1.0000   1.0000   1.0000   1.0000   1.0000   1.0000   1.0000   1.0000
     1.0000   1.0000   1.0000   1.0000   1.0000   1.0000   1.0000   1.0000
     1.0000   1.0000   1.0000   1.0000   1.0000   1.0000   1.0000   1.0000
     1.0000   1.0000   1.0000   1.0000   0.0000   0.0000   0.0000   0.0000

     highest occupied, lowest unoccupied level (ev):     6.0320    8.7686

!    total energy              =   -1132.41069722 Ry
     estimated scf accuracy    <       0.00000045 Ry

     The total energy is the sum of the following terms:
     one-electron contribution =    -350.24009826 Ry
     hartree contribution      =     241.61047889 Ry
     xc contribution           =    -331.98561807 Ry
     ewald contribution        =    -615.56506570 Ry
     one-center paw contrib.   =     -76.23039409 Ry
      -> PAW hartree energy AE =       0.00000000 Ry
      -> PAW hartree energy PS =       0.00000000 Ry
      -> PAW xc energy AE      =       0.00000000 Ry
      -> PAW xc energy PS      =       0.00000000 Ry
      -> total E_H with PAW    =     241.61047889 Ry
      -> total E_XC with PAW   =    -331.98561807 Ry

     convergence has been achieved in  13 iterations

     Writing all to output data dir calculations_bands/myprefix.save/

     General routines

     Parallel routines

     PAW routines

   This run was terminated on:  21: 6:31   4Jun2023

   JOB DONE.