     Program PWSCF v.7.1 starts on 13Jul2023 at  6:50:24

     Reading input from espresso_15680.pwi
Warning: card &CELL ignored
Warning: card / ignored

     Current dimensions of program PWSCF are:
     Max number of different atomic species (ntypx) = 10
     Max number of k-points (npk) =  40000
     Max angular momentum in pseudopotentials (lmaxx) =  4
     file Nb.pbe-spn-kjpaw_psl.0.3.0.UPF: wavefunction(s)  4S 4P renormalized
     Message from routine setup:
     using ibrav=0 with symmetry is DISCOURAGED, use correct ibrav instead

     K-points division:     npool     =       2
     R & G space division:  proc/nbgrp/npool/nimage =       8
     Subspace diagonalization in iterative solution of the eigenvalue problem:
     a serial algorithm will be used

     Using Slab Decomposition

     bravais-lattice index     =            0
     lattice parameter (alat)  =      11.0697  a.u.
     unit-cell volume          =    1351.8015 (a.u.)^3
     number of atoms/cell      =            8
     number of atomic types    =            4
     number of electrons       =        94.00
     number of Kohn-Sham states=           64
     kinetic-energy cutoff     =      30.0000  Ry
     charge density cutoff     =     240.0000  Ry
     scf convergence threshold =      1.0E-06
     mixing beta               =       0.7000
     number of iterations used =            8  plain     mixing
     Exchange-correlation= SLA  PW   PBE  PBE
                           (   1   4   3   4   0   0   0)

     celldm(1)=  11.069727  celldm(2)=   0.000000  celldm(3)=   0.000000
     celldm(4)=   0.000000  celldm(5)=   0.000000  celldm(6)=   0.000000

     crystal axes: (cart. coord. in units of alat)
               a(1) = (   1.000000   0.000000   0.000000 )
               a(2) = (  -0.019001   0.999819   0.000000 )
               a(3) = (   0.000000   0.000000   0.996737 )

     reciprocal axes: (cart. coord. in units 2 pi/alat)
               b(1) = (  1.000000  0.019005  0.000000 )
               b(2) = (  0.000000  1.000181  0.000000 )
               b(3) = (  0.000000  0.000000  1.003274 )

     PseudoPot. # 1 for Nb read from file:
     /lustre07/scratch/pragov/crystal_structure_design/utils/SSSP/Nb.pbe-spn-kjpaw_psl.0.3.0.UPF
     MD5 check sum: 411d72ad547312f8017e2943ceca08cc
     Pseudo is Projector augmented-wave + core cor, Zval = 13.0
     Generated using "atomic" code by A. Dal Corso  v.5.0.99 svn rev. 10869
     Shape of augmentation charge: PSQ
     Using radial grid of 1227 points,  6 beta functions with:
                l(1) =   0
                l(2) =   0
                l(3) =   1
                l(4) =   1
                l(5) =   2
                l(6) =   2
     Q(r) pseudized with 0 coefficients

     PseudoPot. # 2 for Cu read from file:
     /lustre07/scratch/pragov/crystal_structure_design/utils/SSSP/Cu_pbe_v1.2.uspp.F.UPF
     MD5 check sum: 6e991ff952a84172a2a52a1c1e996048
     Pseudo is Ultrasoft + core correction, Zval = 19.0
     Generated by new atomic code, or converted to UPF format
     Using radial grid of  867 points,  6 beta functions with:
                l(1) =   0
                l(2) =   0
                l(3) =   1
                l(4) =   1
                l(5) =   2
                l(6) =   2
     Q(r) pseudized with  8 coefficients,  rinner =    1.150   1.150   1.150
                                                       1.150   1.150

     PseudoPot. # 3 for Te read from file:
     /lustre07/scratch/pragov/crystal_structure_design/utils/SSSP/Te_pbe_v1.uspp.F.UPF
     MD5 check sum: c319670d6894cc26e93307826a071b75
     Pseudo is Ultrasoft + core correction, Zval =  6.0
     Generated by new atomic code, or converted to UPF format
     Using radial grid of  891 points,  5 beta functions with:
                l(1) =   0
                l(2) =   0
                l(3) =   1
                l(4) =   1
                l(5) =   2
     Q(r) pseudized with  6 coefficients,  rinner =    1.800   1.800   1.800
                                                       1.800   1.800

     PseudoPot. # 4 for Se read from file:
     /lustre07/scratch/pragov/crystal_structure_design/utils/SSSP/Se_pbe_v1.uspp.F.UPF
     MD5 check sum: 1b3568f3a8ae88f9a2a0ad0698632c85
     Pseudo is Ultrasoft + core correction, Zval =  6.0
     Generated by new atomic code, or converted to UPF format
     Using radial grid of  877 points,  6 beta functions with:
                l(1) =   0
                l(2) =   0
                l(3) =   1
                l(4) =   1
                l(5) =   2
                l(6) =   2
     Q(r) pseudized with  8 coefficients,  rinner =    1.300   1.300   1.300
                                                       1.300   1.300

     atomic species   valence    mass     pseudopotential
        Nb            13.00    92.90637     Nb( 1.00)
        Cu            19.00    63.54600     Cu( 1.00)
        Te             6.00   127.60000     Te( 1.00)
        Se             6.00    78.97100     Se( 1.00)

      2 Sym. Ops. (no inversion) found

                                    s                        frac. trans.

      isym =  1     identity

 cryst.   s( 1) = (     1          0          0      )
                  (     0          1          0      )
                  (     0          0          1      )

 cart.    s( 1) = (  1.0000000  0.0000000  0.0000000 )
                  (  0.0000000  1.0000000  0.0000000 )
                  (  0.0000000  0.0000000  1.0000000 )

      isym =  2     180 deg rotation - cart. axis [0,0,1]

 cryst.   s( 2) = (    -1          0          0      )
                  (     0         -1          0      )
                  (     0          0          1      )

 cart.    s( 2) = ( -1.0000000 -0.0000000  0.0000000 )
                  (  0.0000000 -1.0000000  0.0000000 )
                  (  0.0000000  0.0000000  1.0000000 )

   Cartesian axes

     site n.     atom                  positions (alat units)
         1           Nb  tau(   1) = (   0.0000000   0.0000000   0.9935713  )
         2           Cu  tau(   2) = (  -0.0095007   0.4999097   0.9836398  )
         3           Cu  tau(   3) = (   0.5000000   0.0000000   0.9836398  )
         4           Cu  tau(   4) = (   0.0000000   0.0000000   0.5036881  )
         5           Te  tau(   5) = (   0.7204739   0.7342964   0.2588087  )
         6           Te  tau(   6) = (   0.2605248   0.2655231   0.2588087  )
         7           Se  tau(   7) = (   0.7541486   0.2412234   0.7499479  )
         8           Se  tau(   8) = (   0.2268501   0.7585960   0.7499479  )

   Crystallographic axes

     site n.     atom                  positions (cryst. coord.)
         1           Nb  tau(   1) = (  0.0000000  0.0000000  0.9968240  )
         2           Cu  tau(   2) = (  0.0000000  0.5000000  0.9868600  )
         3           Cu  tau(   3) = (  0.5000000  0.0000000  0.9868600  )
         4           Cu  tau(   4) = (  0.0000000  0.0000000  0.5053370  )
         5           Te  tau(   5) = (  0.7344290  0.7344290  0.2596560  )
         6           Te  tau(   6) = (  0.2655710  0.2655710  0.2596560  )
         7           Se  tau(   7) = (  0.7587330  0.2412670  0.7524030  )
         8           Se  tau(   8) = (  0.2412670  0.7587330  0.7524030  )

     number of k points=    10
                       cart. coord. in units 2pi/alat
        k(    1) = (   0.0000000   0.0000000   0.0000000), wk =   0.0740741
        k(    2) = (   0.0000000   0.0000000   0.3344246), wk =   0.1481481
        k(    3) = (   0.0000000   0.3333935   0.0000000), wk =   0.1481481
        k(    4) = (   0.0000000   0.3333935   0.3344246), wk =   0.2962963
        k(    5) = (   0.3333333   0.0063349   0.0000000), wk =   0.1481481
        k(    6) = (   0.3333333   0.0063349   0.3344246), wk =   0.2962963
        k(    7) = (   0.3333333   0.3397284   0.0000000), wk =   0.1481481
        k(    8) = (   0.3333333   0.3397284   0.3344246), wk =   0.2962963
        k(    9) = (   0.3333333  -0.3270586   0.0000000), wk =   0.1481481
        k(   10) = (   0.3333333  -0.3270586   0.3344246), wk =   0.2962963

                       cryst. coord.
        k(    1) = (   0.0000000   0.0000000   0.0000000), wk =   0.0740741
        k(    2) = (   0.0000000   0.0000000   0.3333333), wk =   0.1481481
        k(    3) = (   0.0000000   0.3333333   0.0000000), wk =   0.1481481
        k(    4) = (   0.0000000   0.3333333   0.3333333), wk =   0.2962963
        k(    5) = (   0.3333333   0.0000000   0.0000000), wk =   0.1481481
        k(    6) = (   0.3333333   0.0000000   0.3333333), wk =   0.2962963
        k(    7) = (   0.3333333   0.3333333   0.0000000), wk =   0.1481481
        k(    8) = (   0.3333333   0.3333333   0.3333333), wk =   0.2962963
        k(    9) = (   0.3333333  -0.3333333   0.0000000), wk =   0.1481481
        k(   10) = (   0.3333333  -0.3333333   0.3333333), wk =   0.2962963

     Check: negative core charge=   -0.000003

     Initial potential from superposition of free atoms

     starting charge      90.9973, renormalised to      94.0000
     Starting wfcs are   65 randomized atomic wfcs
     Checking if some PAW data can be deallocated...

     Self-consistent Calculation

     iteration #  1     ecut=    30.00 Ry     beta= 0.70
     Davidson diagonalization with overlap

     ethr =  1.00E-02,  avg # of iterations =  5.7

     total energy              =   -1684.50786351 Ry
     estimated scf accuracy    <       2.45898411 Ry

[...]

     total energy              =   -1685.82746351 Ry
     estimated scf accuracy    <       0.00000244 Ry

     iteration # 12     ecut=    30.00 Ry     beta= 0.70
     Davidson diagonalization with overlap

     ethr =  2.60E-09,  avg # of iterations =  2.0

     End of self-consistent calculation

          k = 0.0000 0.0000 0.0000 (  3783 PWs)   bands (ev):

  -105.1365-105.1169-105.1128 -62.5556 -62.5362 -62.5322 -62.5072 -62.4864
   -62.4783 -62.4768 -62.4743 -62.4724 -48.2550 -24.3898 -24.3702 -24.3517
    -6.2327  -5.6846  -4.1268  -3.5379   1.6914   1.7016   2.4120   3.3403
     3.4079   3.5197   3.9767   4.0253   4.1572   4.2878   4.3401   4.3504
     4.3558   4.4630   4.8922   4.8971   4.9374   4.9786   5.1149   5.3269
     5.3463   5.4780   5.5894   5.6931   6.5828   6.6077   6.7185   8.4042
     8.4290   8.6152   8.6841   8.8038   9.1818  11.4251  11.4762  12.0729
    12.1121  12.3434  12.3534  13.0707  13.2328  13.2572  16.9468  17.2993

     occupation numbers
     1.0000   1.0000   1.0000   1.0000   1.0000   1.0000   1.0000   1.0000
     1.0000   1.0000   1.0000   1.0000   1.0000   1.0000   1.0000   1.0000
     1.0000   1.0000   1.0000   1.0000   1.0000   1.0000   1.0000   1.0000
     1.0000   1.0000   1.0000   1.0000   1.0000   1.0000   1.0000   1.0000
     1.0000   1.0000   1.0000   1.0000   1.0000   1.0000   1.0000   1.0000
     1.0000   1.0000   1.0000   1.0000   1.0000   1.0000   1.0000   0.0000
     0.0000   0.0000   0.0000   0.0000   0.0000   0.0000   0.0000   0.0000
     0.0000   0.0000   0.0000   0.0000   0.0000   0.0000   0.0000   0.0000

[...]

          k = 0.3333-0.3271 0.3344 (  3747 PWs)   bands (ev):

  -105.1354-105.1158-105.1118 -62.5537 -62.5342 -62.5303 -62.5048 -62.4848
   -62.4764 -62.4745 -62.4725 -62.4706 -48.2547 -24.3905 -24.3710 -24.3523
    -5.9908  -5.8126  -4.0210  -3.8018   2.1069   2.1584   2.4911   2.8096
     3.4133   3.4905   3.6348   3.7457   3.8458   3.9767   4.0506   4.3108
     4.6708   4.6804   4.8265   4.8375   4.8415   4.8809   5.1243   5.2131
     5.3983   5.4099   5.5367   5.5494   6.4952   6.5344   6.6974   8.5877
     8.6972   8.9142   9.3898   9.4485  10.2159  11.2065  11.7151  12.0415
    13.1782  13.2964  13.9047  14.1055  14.1136  14.3506  14.8620  15.3432

     occupation numbers
     1.0000   1.0000   1.0000   1.0000   1.0000   1.0000   1.0000   1.0000
     1.0000   1.0000   1.0000   1.0000   1.0000   1.0000   1.0000   1.0000
     1.0000   1.0000   1.0000   1.0000   1.0000   1.0000   1.0000   1.0000
     1.0000   1.0000   1.0000   1.0000   1.0000   1.0000   1.0000   1.0000
     1.0000   1.0000   1.0000   1.0000   1.0000   1.0000   1.0000   1.0000
     1.0000   1.0000   1.0000   1.0000   1.0000   1.0000   1.0000   0.0000
     0.0000   0.0000   0.0000   0.0000   0.0000   0.0000   0.0000   0.0000
     0.0000   0.0000   0.0000   0.0000   0.0000   0.0000   0.0000   0.0000

     highest occupied, lowest unoccupied level (ev):     6.7185    8.1319

!    total energy              =   -1685.82746355 Ry
     estimated scf accuracy    <       0.00000063 Ry

     The total energy is the sum of the following terms:
     one-electron contribution =   -1408.00619846 Ry
     hartree contribution      =     735.81386093 Ry
     xc contribution           =    -233.58903082 Ry
     ewald contribution        =    -571.56199312 Ry
     one-center paw contrib.   =    -208.48410208 Ry
      -> PAW hartree energy AE =      68.69231572 Ry
      -> PAW hartree energy PS =     -68.32328130 Ry
      -> PAW xc energy AE      =    -235.87817170 Ry
      -> PAW xc energy PS      =      27.02503520 Ry
      -> total E_H with PAW    =     736.18289535 Ry
      -> total E_XC with PAW   =    -442.44216732 Ry

     convergence has been achieved in  12 iterations

     Writing all to output data dir bands_nm/myprefix.save/

     General routines

     Parallel routines

     PAW routines

   This run was terminated on:   6:58:53  13Jul2023

   JOB DONE.