     Program PWSCF v.7.1 starts on 16Jul2023 at 15:23:19

     Reading input from espresso_3474.pwi
Warning: card &CELL ignored
Warning: card / ignored

     Current dimensions of program PWSCF are:
     Max number of different atomic species (ntypx) = 10
     Max number of k-points (npk) =  40000
     Max angular momentum in pseudopotentials (lmaxx) =  4
     file Sm.paw.z_16.atompaw.wentzcovitch.v1.2.upf: wavefunction(s)  6S 0P 5D 0D 4F 0F renormalized
     file O.pbe-n-kjpaw_psl.0.1.UPF: wavefunction(s)  2P renormalized
     Message from routine setup:
     using ibrav=0 with symmetry is DISCOURAGED, use correct ibrav instead

     K-points division:     npool     =       2
     R & G space division:  proc/nbgrp/npool/nimage =       4
     Subspace diagonalization in iterative solution of the eigenvalue problem:
     a serial algorithm will be used

     Using Slab Decomposition

     bravais-lattice index     =            0
     lattice parameter (alat)  =      13.0786  a.u.
     unit-cell volume          =     589.4281 (a.u.)^3
     number of atoms/cell      =            6
     number of atomic types    =            3
     number of electrons       =        58.00
     number of Kohn-Sham states=           64
     kinetic-energy cutoff     =      30.0000  Ry
     charge density cutoff     =     240.0000  Ry
     scf convergence threshold =      1.0E-06
     mixing beta               =       0.7000
     number of iterations used =            8  plain     mixing
     Exchange-correlation=  SLA  PW   PBX  PBC
                           (   1   4   3   4   0   0   0)

     celldm(1)=  13.078604  celldm(2)=   0.000000  celldm(3)=   0.000000
     celldm(4)=   0.000000  celldm(5)=   0.000000  celldm(6)=   0.000000

     crystal axes: (cart. coord. in units of alat)
               a(1) = (   1.000000   0.000000   0.000000 )
               a(2) = (   0.838994   0.544141   0.000000 )
               a(3) = (   0.838994   0.248250   0.484212 )

     reciprocal axes: (cart. coord. in units 2 pi/alat)
               b(1) = (  1.000000 -1.541869 -0.942200 )
               b(2) = (  0.000000  1.837759 -0.942200 )
               b(3) = (  0.000000  0.000000  2.065212 )

     PseudoPot. # 1 for Sm read from file:
     /lustre07/scratch/pragov/crystal_structure_design/utils/SSSP/Sm.paw.z_16.atompaw.wentzcovitch.v1.2.upf
     MD5 check sum: d38221e44bcfc3c784cbdb498a69732f
     Pseudo is Projector augmented-wave + core cor, Zval = 16.0
     Generated using ATOMPAW code
     Shape of augmentation charge: BESSEL
     Using radial grid of 1107 points,  8 beta functions with:
                l(1) =   0
                l(2) =   0
                l(3) =   1
                l(4) =   1
                l(5) =   2
                l(6) =   2
                l(7) =   3
                l(8) =   3
     Q(r) pseudized with 0 coefficients

     PseudoPot. # 2 for O  read from file:
     /lustre07/scratch/pragov/crystal_structure_design/utils/SSSP/O.pbe-n-kjpaw_psl.0.1.UPF
     MD5 check sum: 0234752ac141de4415c5fc33072bef88
     Pseudo is Projector augmented-wave + core cor, Zval =  6.0
     Generated using "atomic" code by A. Dal Corso  v.5.0.99 svn rev. 10869
     Shape of augmentation charge: BESSEL
     Using radial grid of 1095 points,  4 beta functions with:
                l(1) =   0
                l(2) =   0
                l(3) =   1
                l(4) =   1
     Q(r) pseudized with 0 coefficients

     PseudoPot. # 3 for F  read from file:
     /lustre07/scratch/pragov/crystal_structure_design/utils/SSSP/f_pbe_v1.4.uspp.F.UPF
     MD5 check sum: 4c38b6a325caf53ec0e86aed9459de46
     Pseudo is Ultrasoft, Zval =  7.0
     Generated by new atomic code, or converted to UPF format
     Using radial grid of  799 points,  4 beta functions with:
                l(1) =   0
                l(2) =   0
                l(3) =   1
                l(4) =   1
     Q(r) pseudized with  8 coefficients,  rinner =    0.950   0.950   0.950

     atomic species   valence    mass     pseudopotential
        Sm            16.00   150.36000     Sm( 1.00)
        O              6.00    15.99900     O ( 1.00)
        F              7.00    18.99840     F ( 1.00)

      2 Sym. Ops., with inversion, found

                                    s                        frac. trans.

      isym =  1     identity

 cryst.   s( 1) = (     1          0          0      )
                  (     0          1          0      )
                  (     0          0          1      )

 cart.    s( 1) = (  1.0000000  0.0000000  0.0000000 )
                  (  0.0000000  1.0000000  0.0000000 )
                  (  0.0000000  0.0000000  1.0000000 )

      isym =  2     inversion

 cryst.   s( 2) = (    -1          0          0      )
                  (     0         -1          0      )
                  (     0          0         -1      )

 cart.    s( 2) = ( -1.0000000 -0.0000000  0.0000000 )
                  (  0.0000000 -1.0000000 -0.0000000 )
                  (  0.0000000  0.0000000 -1.0000000 )

   Cartesian axes

     site n.     atom                  positions (alat units)
         1           Sm  tau(   1) = (   2.0318509   0.6012054   0.3673826  )
         2           Sm  tau(   2) = (   0.6461368   0.1911858   0.1168292  )
         3           O   tau(   3) = (   2.3511902   0.6956949   0.4251229  )
         4           O   tau(   4) = (   0.3267975   0.0966963   0.0590889  )
         5           F   tau(   5) = (   0.9913053   0.2933179   0.1792397  )
         6           F   tau(   6) = (   1.6866823   0.4990733   0.3049721  )

   Crystallographic axes

     site n.     atom                  positions (cryst. coord.)
         1           Sm  tau(   1) = (  0.7587230  0.7587230  0.7587230  )
         2           Sm  tau(   2) = (  0.2412770  0.2412770  0.2412770  )
         3           O   tau(   3) = (  0.8779690  0.8779690  0.8779690  )
         4           O   tau(   4) = (  0.1220310  0.1220310  0.1220310  )
         5           F   tau(   5) = (  0.3701680  0.3701680  0.3701680  )
         6           F   tau(   6) = (  0.6298320  0.6298320  0.6298320  )

     number of k points=    14
                       cart. coord. in units 2pi/alat
        k(    1) = (   0.0000000   0.0000000   0.0000000), wk =   0.0740741
        k(    2) = (   0.0000000   0.0000000   0.6884040), wk =   0.1481481
        k(    3) = (   0.0000000   0.6125865  -0.3140667), wk =   0.1481481
        k(    4) = (   0.0000000   0.6125865   0.3743373), wk =   0.1481481
        k(    5) = (   0.0000000   0.6125865  -1.0024707), wk =   0.1481481
        k(    6) = (   0.3333333  -0.5139563  -0.3140667), wk =   0.1481481
        k(    7) = (   0.3333333  -0.5139563   0.3743373), wk =   0.1481481
        k(    8) = (   0.3333333  -0.5139563  -1.0024707), wk =   0.1481481
        k(    9) = (   0.3333333   0.0986302  -0.6281334), wk =   0.1481481
        k(   10) = (   0.3333333   0.0986302   0.0602706), wk =   0.1481481
        k(   11) = (   0.3333333   0.0986302  -1.3165373), wk =   0.1481481
        k(   12) = (   0.3333333  -1.1265428  -0.0000000), wk =   0.1481481
        k(   13) = (   0.3333333  -1.1265428   0.6884040), wk =   0.1481481
        k(   14) = (   0.3333333  -1.1265428  -0.6884040), wk =   0.1481481

                       cryst. coord.
        k(    1) = (   0.0000000   0.0000000   0.0000000), wk =   0.0740741
        k(    2) = (   0.0000000   0.0000000   0.3333333), wk =   0.1481481
        k(    3) = (   0.0000000   0.3333333   0.0000000), wk =   0.1481481
        k(    4) = (   0.0000000   0.3333333   0.3333333), wk =   0.1481481
        k(    5) = (   0.0000000   0.3333333  -0.3333333), wk =   0.1481481
        k(    6) = (   0.3333333   0.0000000   0.0000000), wk =   0.1481481
        k(    7) = (   0.3333333   0.0000000   0.3333333), wk =   0.1481481
        k(    8) = (   0.3333333   0.0000000  -0.3333333), wk =   0.1481481
        k(    9) = (   0.3333333   0.3333333   0.0000000), wk =   0.1481481
        k(   10) = (   0.3333333   0.3333333   0.3333333), wk =   0.1481481
        k(   11) = (   0.3333333   0.3333333  -0.3333333), wk =   0.1481481
        k(   12) = (   0.3333333  -0.3333333  -0.0000000), wk =   0.1481481
        k(   13) = (   0.3333333  -0.3333333   0.3333333), wk =   0.1481481
        k(   14) = (   0.3333333  -0.3333333  -0.3333333), wk =   0.1481481

     Check: negative core charge=   -0.000008

     Initial potential from superposition of free atoms

     starting charge      57.9888, renormalised to      58.0000
     Starting wfcs are   80 randomized atomic wfcs
     Checking if some PAW data can be deallocated...

     Self-consistent Calculation

     iteration #  1     ecut=    30.00 Ry     beta= 0.70
     Davidson diagonalization with overlap

     ethr =  1.00E-02,  avg # of iterations =  7.6

     total energy              =   -1388.34056393 Ry
     estimated scf accuracy    <       1.36867309 Ry

[...]

     total energy              =   -1389.30980649 Ry
     estimated scf accuracy    <       0.00000133 Ry

     iteration #134     ecut=    30.00 Ry     beta= 0.70
     Davidson diagonalization with overlap

     ethr =  1.86E-09,  avg # of iterations =  1.0

     End of self-consistent calculation

          k = 0.0000 0.0000 0.0000 (  1665 PWs)   bands (ev):

   -28.1775 -28.1079 -13.1640 -12.5661  -8.9092  -7.6809  -7.6718  -7.6001
    -7.5552  -7.5457  -6.5406  -5.4352   4.7877   4.9078   4.9086   5.6525
     5.6528   5.8354   7.4034   7.5061   7.5081   7.8234   7.8280   8.4654
    11.0938  11.1091  11.1690  11.1917  11.2067  11.2117  11.3238  11.3499
    11.3693  11.4542  11.4744  11.4782  11.5726  11.7739  14.4819  15.6492
    15.6581  16.2460  16.2557  16.9832  17.0938  19.2763  19.2788  19.8388
    19.8411  20.4481  21.4277  24.2332  24.2462  24.3270  27.5843  27.5865
    28.2167  29.9929  30.1493  30.1542  31.7356  31.7473  32.9624  32.9732

     occupation numbers
     1.0000   1.0000   1.0000   1.0000   1.0000   1.0000   1.0000   1.0000
     1.0000   1.0000   1.0000   1.0000   1.0000   1.0000   1.0000   1.0000
     1.0000   1.0000   1.0000   1.0000   1.0000   1.0000   1.0000   1.0000
     1.0000   1.0000   1.0000   1.0000   1.0000   0.0000   0.0000   0.0000
     0.0000   0.0000   0.0000   0.0000   0.0000   0.0000   0.0000   0.0000
     0.0000   0.0000   0.0000   0.0000   0.0000   0.0000   0.0000   0.0000
     0.0000   0.0000   0.0000   0.0000   0.0000   0.0000   0.0000   0.0000
     0.0000   0.0000   0.0000   0.0000   0.0000   0.0000   0.0000   0.0000

[...]

          k = 0.3333-1.1265-0.6884 (  1631 PWs)   bands (ev):

   -28.1249 -28.0999 -13.1069 -12.7792  -9.2247  -8.7700  -7.7877  -7.7811
    -7.6497  -7.4815  -5.3693  -5.0325   4.8959   5.1653   5.1943   5.8191
     5.8899   6.0646   7.1961   7.4623   7.5230   7.9368   8.2713   8.4518
    11.0749  11.0970  11.1319  11.1373  11.2150  11.2422  11.2970  11.3117
    11.3512  11.3858  11.4766  11.5533  11.5724  11.6977  14.9709  15.6781
    15.9749  16.9107  17.0769  17.5914  18.1379  18.5261  18.9362  19.0718
    19.0900  19.6747  22.1246  24.3782  24.6603  24.8591  25.6895  27.2622
    28.1409  28.4025  28.4823  30.0925  30.1400  30.5496  31.4520  32.8623

     occupation numbers
     1.0000   1.0000   1.0000   1.0000   1.0000   1.0000   1.0000   1.0000
     1.0000   1.0000   1.0000   1.0000   1.0000   1.0000   1.0000   1.0000
     1.0000   1.0000   1.0000   1.0000   1.0000   1.0000   1.0000   1.0000
     1.0000   1.0000   1.0000   1.0000   1.0000   0.0000   0.0000   0.0000
     0.0000   0.0000   0.0000   0.0000   0.0000   0.0000   0.0000   0.0000
     0.0000   0.0000   0.0000   0.0000   0.0000   0.0000   0.0000   0.0000
     0.0000   0.0000   0.0000   0.0000   0.0000   0.0000   0.0000   0.0000
     0.0000   0.0000   0.0000   0.0000   0.0000   0.0000   0.0000   0.0000

     highest occupied, lowest unoccupied level (ev):    11.2150   11.1907

!    total energy              =   -1389.30980673 Ry
     estimated scf accuracy    <       0.00000092 Ry

     The total energy is the sum of the following terms:
     one-electron contribution =    -147.49085353 Ry
     hartree contribution      =     122.57438727 Ry
     xc contribution           =     -69.80707981 Ry
     ewald contribution        =    -376.55730760 Ry
     one-center paw contrib.   =    -918.02895306 Ry
      -> PAW hartree energy AE =     126.47625505 Ry
      -> PAW hartree energy PS =    -123.36698858 Ry
      -> PAW xc energy AE      =    -469.35358121 Ry
      -> PAW xc energy PS      =      16.75428694 Ry
      -> total E_H with PAW    =     125.68365373 Ry
      -> total E_XC with PAW   =    -522.40637408 Ry

     convergence has been achieved in 134 iterations

     Writing all to output data dir bands_nm/myprefix.save/

     General routines

     Parallel routines

     PAW routines

   This run was terminated on:  15:25:19  16Jul2023

   JOB DONE.