     Program PWSCF v.7.0 starts on  4Jun2023 at 15:49:58

     K-points division:     npool     =       2
     R & G space division:  proc/nbgrp/npool/nimage =       4

     Reading input from espresso_2455.pwi
Warning: card &CELL ignored
Warning: card / ignored

     Current dimensions of program PWSCF are:
     Max number of different atomic species (ntypx) = 10
     Max number of k-points (npk) =  40000
     Max angular momentum in pseudopotentials (lmaxx) =  4
     file O.pbe-n-kjpaw_psl.0.1.UPF: wavefunction(s)  2P renormalized

     Using Slab Decomposition

     bravais-lattice index     =            0
     lattice parameter (alat)  =      11.2249  a.u.
     unit-cell volume          =    1237.6996 (a.u.)^3
     number of atoms/cell      =           16
     number of atomic types    =            4
     number of electrons       =       124.00
     number of Kohn-Sham states=           64
     kinetic-energy cutoff     =      30.0000  Ry
     charge density cutoff     =     240.0000  Ry
     scf convergence threshold =      1.0E-06
     mixing beta               =       0.7000
     number of iterations used =            8  plain     mixing
     Exchange-correlation=  SLA  PW   PBX  PBC
                           (   1   4   3   4   0   0   0)

     celldm(1)=  11.224876  celldm(2)=   0.000000  celldm(3)=   0.000000
     celldm(4)=   0.000000  celldm(5)=   0.000000  celldm(6)=   0.000000

     crystal axes: (cart. coord. in units of alat)
               a(1) = (   1.000000   0.000000   0.000000 )
               a(2) = (   0.625039   0.780594   0.000000 )
               a(3) = (   0.389933   0.187306   1.121103 )

     reciprocal axes: (cart. coord. in units 2 pi/alat)
               b(1) = (  1.000000 -0.800722 -0.214033 )
               b(2) = (  0.000000  1.281076 -0.214033 )
               b(3) = (  0.000000  0.000000  0.891979 )

     PseudoPot. # 1 for Li read from file:
     /home/pragov/projects/rrg-bengioy-ad/pragov/crystal_structure_design/SSSP/li_pbe_v1.4.uspp.F.UPF
     MD5 check sum: e912e257baa3777c20ea3d68f190483c
     Pseudo is Ultrasoft, Zval =  3.0
     Generated by new atomic code, or converted to UPF format
     Using radial grid of  751 points,  5 beta functions with:
                l(1) =   0
                l(2) =   0
                l(3) =   0
                l(4) =   1
                l(5) =   1
     Q(r) pseudized with 10 coefficients,  rinner =    1.150   1.150   1.150

     PseudoPot. # 2 for V  read from file:
     /home/pragov/projects/rrg-bengioy-ad/pragov/crystal_structure_design/SSSP/v_pbe_v1.4.uspp.F.UPF
     MD5 check sum: 22b79981416ebb76fdaf5b1b8640f6fb
     Pseudo is Ultrasoft + core correction, Zval = 13.0
     Generated by new atomic code, or converted to UPF format
     Using radial grid of  853 points,  6 beta functions with:
                l(1) =   0
                l(2) =   0
                l(3) =   1
                l(4) =   1
                l(5) =   2
                l(6) =   2
     Q(r) pseudized with  8 coefficients,  rinner =    1.100   1.100   1.100
                                                       1.100   1.100

     PseudoPot. # 3 for O  read from file:
     /home/pragov/projects/rrg-bengioy-ad/pragov/crystal_structure_design/SSSP/O.pbe-n-kjpaw_psl.0.1.UPF
     MD5 check sum: 0234752ac141de4415c5fc33072bef88
     Pseudo is Projector augmented-wave + core cor, Zval =  6.0
     Generated using "atomic" code by A. Dal Corso  v.5.0.99 svn rev. 10869
     Shape of augmentation charge: BESSEL
     Using radial grid of 1095 points,  4 beta functions with:
                l(1) =   0
                l(2) =   0
                l(3) =   1
                l(4) =   1
     Q(r) pseudized with 0 coefficients

     PseudoPot. # 4 for F  read from file:
     /home/pragov/projects/rrg-bengioy-ad/pragov/crystal_structure_design/SSSP/f_pbe_v1.4.uspp.F.UPF
     MD5 check sum: 4c38b6a325caf53ec0e86aed9459de46
     Pseudo is Ultrasoft, Zval =  7.0
     Generated by new atomic code, or converted to UPF format
     Using radial grid of  799 points,  4 beta functions with:
                l(1) =   0
                l(2) =   0
                l(3) =   1
                l(4) =   1
     Q(r) pseudized with  8 coefficients,  rinner =    0.950   0.950   0.950

     atomic species   valence    mass     pseudopotential
        Li             3.00     6.94000     Li( 1.00)
        V             13.00    50.94150     V ( 1.00)
        O              6.00    15.99900     O ( 1.00)
        F              7.00    18.99840     F ( 1.00)

     No symmetry found

                                    s                        frac. trans.

      isym =  1     identity

 cryst.   s( 1) = (     1          0          0      )
                  (     0          1          0      )
                  (     0          0          1      )

 cart.    s( 1) = (  1.0000000 -0.0000000  0.0000000 )
                  (  0.0000000  1.0000000  0.0000000 )
                  (  0.0000000  0.0000000  1.0000000 )

   Cartesian axes

     site n.     atom                  positions (alat units)
         1           Li  tau(   1) = (   1.1982105   0.4663582   1.1000283  )
         2           Li  tau(   2) = (   0.9179978   0.5501710   0.5394769  )
         3           V   tau(   3) = (   1.6452372   0.8015395   0.9839000  )
         4           V   tau(   4) = (   1.4590472   0.6896161   0.4233486  )
         5           V   tau(   5) = (   0.5606206   0.2761361   0.7035850  )
         6           V   tau(   6) = (   0.3709933   0.1713684   0.1430337  )
         7           O   tau(   7) = (   1.6239830   0.6118947   0.7138599  )
         8           O   tau(   8) = (   1.2977269   0.7915605   0.1533086  )
         9           O   tau(   9) = (   0.7403279   0.1991893   0.9662796  )
        10           O   tau(  10) = (   0.4232531   0.3597415   0.4057282  )
        11           F   tau(  11) = (   0.7902459   0.7149037   0.2915529  )
        12           F   tau(  12) = (   0.8603211   0.2412545   0.5207018  )
        13           F   tau(  13) = (   0.9210220   0.6144209   1.0812532  )
        14           F   tau(  14) = (   1.0961356   0.3645251   0.0516526  )
        15           F   tau(  15) = (   1.1646395   0.7214473   0.6122040  )
        16           F   tau(  16) = (   1.2469500   0.2636716   0.8521042  )

   Crystallographic axes

     site n.     atom                  positions (cryst. coord.)
         1           Li  tau(   1) = (  0.5893450  0.3619980  0.9812020  )
         2           Li  tau(   2) = (  0.3619980  0.5893450  0.4812020  )
         3           V   tau(   3) = (  0.7928400  0.8162460  0.8776180  )
         4           V   tau(   4) = (  0.8162460  0.7928400  0.3776180  )
         5           V   tau(   5) = (  0.1889220  0.2031610  0.6275830  )
         6           V   tau(   6) = (  0.2031610  0.1889220  0.1275830  )
         7           O   tau(   7) = (  0.9812360  0.6310940  0.6367480  )
         8           O   tau(   8) = (  0.6310940  0.9812360  0.1367480  )
         9           O   tau(   9) = (  0.3740170  0.0483610  0.8619010  )
        10           O   tau(  10) = (  0.0483610  0.3740170  0.3619010  )
        11           F   tau(  11) = (  0.1554050  0.8534440  0.2600590  )
        12           F   tau(  12) = (  0.5556960  0.1976180  0.4644550  )
        13           F   tau(  13) = (  0.1976180  0.5556960  0.9644550  )
        14           F   tau(  14) = (  0.7931970  0.4559290  0.0460730  )
        15           F   tau(  15) = (  0.4559290  0.7931970  0.5460730  )
        16           F   tau(  16) = (  0.8534440  0.1554050  0.7600590  )

     number of k points=    14
                       cart. coord. in units 2pi/alat
        k(    1) = (   0.0000000   0.0000000   0.0000000), wk =   0.0740741
        k(    2) = (   0.0000000   0.0000000   0.2973263), wk =   0.1481481
        k(    3) = (   0.0000000   0.4270253  -0.0713443), wk =   0.1481481
        k(    4) = (   0.0000000   0.4270253   0.2259820), wk =   0.1481481
        k(    5) = (   0.0000000   0.4270253  -0.3686706), wk =   0.1481481
        k(    6) = (   0.3333333  -0.2669073  -0.0713443), wk =   0.1481481
        k(    7) = (   0.3333333  -0.2669073   0.2259820), wk =   0.1481481
        k(    8) = (   0.3333333  -0.2669073  -0.3686706), wk =   0.1481481
        k(    9) = (   0.3333333   0.1601180  -0.1426886), wk =   0.1481481
        k(   10) = (   0.3333333   0.1601180   0.1546377), wk =   0.1481481
        k(   11) = (   0.3333333   0.1601180  -0.4400149), wk =   0.1481481
        k(   12) = (   0.3333333  -0.6939326  -0.0000000), wk =   0.1481481
        k(   13) = (   0.3333333  -0.6939326   0.2973263), wk =   0.1481481
        k(   14) = (   0.3333333  -0.6939326  -0.2973263), wk =   0.1481481

                       cryst. coord.
        k(    1) = (   0.0000000   0.0000000   0.0000000), wk =   0.0740741
        k(    2) = (   0.0000000   0.0000000   0.3333333), wk =   0.1481481
        k(    3) = (   0.0000000   0.3333333  -0.0000000), wk =   0.1481481
        k(    4) = (   0.0000000   0.3333333   0.3333333), wk =   0.1481481
        k(    5) = (   0.0000000   0.3333333  -0.3333333), wk =   0.1481481
        k(    6) = (   0.3333333   0.0000000   0.0000000), wk =   0.1481481
        k(    7) = (   0.3333333   0.0000000   0.3333333), wk =   0.1481481
        k(    8) = (   0.3333333   0.0000000  -0.3333333), wk =   0.1481481
        k(    9) = (   0.3333333   0.3333333  -0.0000000), wk =   0.1481481
        k(   10) = (   0.3333333   0.3333333   0.3333333), wk =   0.1481481
        k(   11) = (   0.3333333   0.3333333  -0.3333333), wk =   0.1481481
        k(   12) = (   0.3333333  -0.3333333   0.0000000), wk =   0.1481481
        k(   13) = (   0.3333333  -0.3333333   0.3333333), wk =   0.1481481
        k(   14) = (   0.3333333  -0.3333333  -0.3333333), wk =   0.1481481

     Check: negative core charge=   -0.000011

     Initial potential from superposition of free atoms

     starting charge     123.0936, renormalised to     124.0000

     negative rho (up, down):  2.182E-03 0.000E+00
     Starting wfcs are   90 randomized atomic wfcs
     Checking if some PAW data can be deallocated...

     Self-consistent Calculation

     iteration #  1     ecut=    30.00 Ry     beta= 0.70
     Davidson diagonalization with overlap

     ethr =  1.00E-02,  avg # of iterations =  2.0

     negative rho (up, down):  5.890E-03 0.000E+00

     total energy              =   -1066.61124361 Ry
     estimated scf accuracy    <       3.25665373 Ry

[...]

     c_bands:  2 eigenvalues not converged
     ethr =  6.45E-04,  avg # of iterations =  8.1

[...]

     c_bands:  1 eigenvalues not converged
     ethr =  8.84E-08,  avg # of iterations = 14.4

[...]

     total energy              =   -1068.52761532 Ry
     estimated scf accuracy    <       0.00000136 Ry

     iteration # 62     ecut=    30.00 Ry     beta= 0.70
     Davidson diagonalization with overlap

     ethr =  1.09E-09,  avg # of iterations =  2.0

     negative rho (up, down):  3.864E-03 0.000E+00

     End of self-consistent calculation

          k = 0.0000 0.0000 0.0000 (  3463 PWs)   bands (ev):

   -57.3375 -57.3333 -57.3233 -57.3231 -37.7349 -37.7348 -31.2986 -31.2705
   -31.2609 -31.2435 -31.2071 -31.1816 -31.1750 -31.1647 -31.1111 -31.0935
   -31.0739 -31.0723 -17.1092 -16.9636 -16.8637 -16.8108 -16.7582 -16.7112
   -11.5616 -11.1093 -11.0127 -10.8902   0.1856   0.4293   0.4808   0.5267
     0.6258   0.6972   0.7845   0.9880   1.1866   1.1936   1.2639   1.3208
     1.5966   1.5995   1.7393   1.8866   2.0678   2.0897   2.3766   2.4735
     2.5625   2.9614   3.2171   3.2930   3.3417   3.7279   4.0318   4.2298
     4.2555   4.3058   7.9008   7.9633   8.0604   8.1214   8.1363   8.2163

     occupation numbers
     1.0000   1.0000   1.0000   1.0000   1.0000   1.0000   1.0000   1.0000
     1.0000   1.0000   1.0000   1.0000   1.0000   1.0000   1.0000   1.0000
     1.0000   1.0000   1.0000   1.0000   1.0000   1.0000   1.0000   1.0000
     1.0000   1.0000   1.0000   1.0000   1.0000   1.0000   1.0000   1.0000
     1.0000   1.0000   1.0000   1.0000   1.0000   1.0000   1.0000   1.0000
     1.0000   1.0000   1.0000   1.0000   1.0000   1.0000   1.0000   1.0000
     1.0000   1.0000   1.0000   1.0000   1.0000   1.0000   1.0000   1.0000
     1.0000   1.0000   1.0000   1.0000   1.0000   1.0000   0.0000   0.0000

[...]

          k = 0.3333-0.6939-0.2973 (  3441 PWs)   bands (ev):

   -57.3335 -57.3323 -57.3257 -57.3251 -37.7346 -37.7344 -31.2826 -31.2800
   -31.2642 -31.2536 -31.1903 -31.1868 -31.1708 -31.1652 -31.1021 -31.0950
   -31.0817 -31.0736 -17.0165 -16.9969 -16.8612 -16.8529 -16.7469 -16.7283
   -11.4013 -11.2585 -11.0195 -10.9379   0.2201   0.3180   0.5252   0.5960
     0.7793   0.8813   0.9123   1.0067   1.0658   1.1150   1.3727   1.4120
     1.6177   1.7994   1.8805   1.9184   1.9544   2.0141   2.2521   2.3199
     2.6279   2.8529   3.2177   3.3314   3.4696   3.6531   3.7410   3.9076
     4.0258   4.1649   7.9494   8.0370   8.0819   8.1254   8.2907   8.3396

     occupation numbers
     1.0000   1.0000   1.0000   1.0000   1.0000   1.0000   1.0000   1.0000
     1.0000   1.0000   1.0000   1.0000   1.0000   1.0000   1.0000   1.0000
     1.0000   1.0000   1.0000   1.0000   1.0000   1.0000   1.0000   1.0000
     1.0000   1.0000   1.0000   1.0000   1.0000   1.0000   1.0000   1.0000
     1.0000   1.0000   1.0000   1.0000   1.0000   1.0000   1.0000   1.0000
     1.0000   1.0000   1.0000   1.0000   1.0000   1.0000   1.0000   1.0000
     1.0000   1.0000   1.0000   1.0000   1.0000   1.0000   1.0000   1.0000
     1.0000   1.0000   1.0000   1.0000   1.0000   1.0000   0.0000   0.0000

     highest occupied, lowest unoccupied level (ev):     8.2133    8.1363

!    total energy              =   -1068.52761505 Ry
     estimated scf accuracy    <       0.00000030 Ry

     The total energy is the sum of the following terms:
     one-electron contribution =    -549.66151837 Ry
     hartree contribution      =     326.39268400 Ry
     xc contribution           =    -170.93380559 Ry
     ewald contribution        =    -636.23371955 Ry
     one-center paw contrib.   =     -38.09125554 Ry
      -> PAW hartree energy AE =       0.00000000 Ry
      -> PAW hartree energy PS =       0.00000000 Ry
      -> PAW xc energy AE      =       0.00000000 Ry
      -> PAW xc energy PS      =       0.00000000 Ry
      -> total E_H with PAW    =     326.39268400 Ry
      -> total E_XC with PAW   =    -170.93380559 Ry

     convergence has been achieved in  62 iterations

     Writing all to output data dir calculations_bands/myprefix.save/

     General routines

     Parallel routines

     PAW routines

   This run was terminated on:  15:50:54   4Jun2023

   JOB DONE.