     Program PWSCF v.7.1 starts on 17Jul2023 at  1:36:32

     Reading input from espresso_9985.pwi
Warning: card &CELL ignored
Warning: card / ignored

     Current dimensions of program PWSCF are:
     Max number of different atomic species (ntypx) = 10
     Max number of k-points (npk) =  40000
     Max angular momentum in pseudopotentials (lmaxx) =  4
     file Ba.pbe-spn-kjpaw_psl.1.0.0.UPF: wavefunction(s)  5S 6S renormalized
     Message from routine setup:
     using ibrav=0 with symmetry is DISCOURAGED, use correct ibrav instead

     K-points division:     npool     =       2
     R & G space division:  proc/nbgrp/npool/nimage =       4
     Subspace diagonalization in iterative solution of the eigenvalue problem:
     one sub-group per band group will be used

     Using Slab Decomposition

     bravais-lattice index     =            0
     lattice parameter (alat)  =      17.4549  a.u.
     unit-cell volume          =    3450.0039 (a.u.)^3
     number of atoms/cell      =           18
     number of atomic types    =            3
     number of electrons       =       144.00
     number of Kohn-Sham states=          256
     kinetic-energy cutoff     =      30.0000  Ry
     charge density cutoff     =     240.0000  Ry
     scf convergence threshold =      1.0E-06
     mixing beta               =       0.7000
     number of iterations used =            8  plain     mixing
     Exchange-correlation=  SLA  PW   PBX  PBC
                           (   1   4   3   4   0   0   0)

     celldm(1)=  17.454930  celldm(2)=   0.000000  celldm(3)=   0.000000
     celldm(4)=   0.000000  celldm(5)=   0.000000  celldm(6)=   0.000000

     crystal axes: (cart. coord. in units of alat)
               a(1) = (   1.000000   0.000000   0.000000 )
               a(2) = (   0.141177   0.989984   0.000000 )
               a(3) = (  -0.570588  -0.494992   0.655295 )

     reciprocal axes: (cart. coord. in units 2 pi/alat)
               b(1) = (  1.000000 -0.142605  0.763015 )
               b(2) = (  0.000000  1.010117  0.763015 )
               b(3) = (  0.000000  0.000000  1.526030 )

     PseudoPot. # 1 for Ba read from file:
     /lustre07/scratch/pragov/crystal_structure_design/utils/SSSP/Ba.pbe-spn-kjpaw_psl.1.0.0.UPF
     MD5 check sum: c432291d3e53af55f19d5e8866385beb
     Pseudo is Projector augmented-wave + core cor, Zval = 10.0
     Generated using "atomic" code by A. Dal Corso  v.5.1
     Shape of augmentation charge: PSQ
     Using radial grid of 1251 points,  7 beta functions with:
                l(1) =   0
                l(2) =   0
                l(3) =   0
                l(4) =   1
                l(5) =   1
                l(6) =   2
                l(7) =   2
     Q(r) pseudized with 0 coefficients

     PseudoPot. # 2 for Ti read from file:
     /lustre07/scratch/pragov/crystal_structure_design/utils/SSSP/ti_pbe_v1.4.uspp.F.UPF
     MD5 check sum: 88a00a6731bd790ddea75d31a80cb452
     Pseudo is Ultrasoft + core correction, Zval = 12.0
     Generated by new atomic code, or converted to UPF format
     Using radial grid of  851 points,  6 beta functions with:
                l(1) =   0
                l(2) =   0
                l(3) =   1
                l(4) =   1
                l(5) =   2
                l(6) =   2
     Q(r) pseudized with  6 coefficients,  rinner =    1.000   1.000   1.000
                                                       1.000   1.000

     PseudoPot. # 3 for S  read from file:
     /lustre07/scratch/pragov/crystal_structure_design/utils/SSSP/s_pbe_v1.4.uspp.F.UPF
     MD5 check sum: 88d86576ff6df21479756cfb9bdac1df
     Pseudo is Ultrasoft + core correction, Zval =  6.0
     Generated by new atomic code, or converted to UPF format
     Using radial grid of  907 points,  6 beta functions with:
                l(1) =   0
                l(2) =   0
                l(3) =   1
                l(4) =   1
                l(5) =   2
                l(6) =   2
     Q(r) pseudized with  8 coefficients,  rinner =    1.300   1.300   1.300
                                                       1.300   1.300

     atomic species   valence    mass     pseudopotential
        Ba            10.00   137.32700     Ba( 1.00)
        Ti            12.00    47.86700     Ti( 1.00)
        S              6.00    32.06000     S ( 1.00)

      4 Sym. Ops., with inversion, found ( 2 have fractional translation)

                                    s                        frac. trans.

      isym =  1     identity

 cryst.   s( 1) = (     1          0          0      )
                  (     0          1          0      )
                  (     0          0          1      )

 cart.    s( 1) = (  1.0000000  0.0000000 -0.0000000 )
                  (  0.0000000  1.0000000  0.0000000 )
                  (  0.0000000  0.0000000  1.0000000 )

      isym =  2     180 deg rotation - cart. axis [0,0,1]

 cryst.   s( 2) = (    -1          0          0      )    f =( -0.4999990 )
                  (     0         -1          0      )       ( -0.4999990 )
                  (     1          1          1      )       (  0.0000000 )

 cart.    s( 2) = ( -1.0000000  0.0000000  0.0000000 )    f =( -0.5705873 )
                  (  0.0000000 -1.0000000  0.0000000 )       ( -0.4949912 )
                  (  0.0000000  0.0000000  1.0000000 )       (  0.0000000 )

      isym =  3     inversion

 cryst.   s( 3) = (    -1          0          0      )
                  (     0         -1          0      )
                  (     0          0         -1      )

 cart.    s( 3) = ( -1.0000000  0.0000000  0.0000000 )
                  (  0.0000000 -1.0000000  0.0000000 )
                  (  0.0000000  0.0000000 -1.0000000 )

      isym =  4     inv. 180 deg rotation - cart. axis [0,0,1]

 cryst.   s( 4) = (     1          0          0      )    f =( -0.4999990 )
                  (     0          1          0      )       ( -0.4999990 )
                  (    -1         -1         -1      )       (  0.0000000 )

 cart.    s( 4) = (  1.0000000  0.0000000 -0.0000000 )    f =( -0.5705873 )
                  (  0.0000000  1.0000000 -0.0000000 )       ( -0.4949912 )
                  (  0.0000000  0.0000000 -1.0000000 )       (  0.0000000 )

   Cartesian axes

     site n.     atom                  positions (alat units)
         1           Ba  tau(   1) = (   0.2147052  -0.2474966   0.5417855  )
         2           Ba  tau(   2) = (  -0.0743827   0.0857425   0.3276475  )
         3           Ba  tau(   3) = (   0.6449711   0.4092496   0.3276475  )
         4           Ba  tau(   4) = (   0.3558832   0.7424888   0.1135095  )
         5           Ba  tau(   5) = (   0.2852942   0.2474961   0.0000000  )
         6           Ba  tau(   6) = (   0.8558826   0.7424883   0.0000000  )
         7           Ti  tau(   7) = (   0.5000000   0.0000000   0.3276475  )
         8           Ti  tau(   8) = (   0.0705884   0.4949922   0.3276475  )
         9           S   tau(   9) = (  -0.0409103   0.3982658   0.1339253  )
        10           S   tau(  10) = (   0.6114987   0.0967264   0.1339253  )
        11           S   tau(  11) = (   0.6114987   0.0967264   0.5213698  )
        12           S   tau(  12) = (   0.3090323   0.4453861   0.3276475  )
        13           S   tau(  13) = (   0.0551419   0.7380512   0.3276475  )
        14           S   tau(  14) = (   0.2615561   0.0496061   0.3276475  )
        15           S   tau(  15) = (   0.5154465  -0.2430590   0.3276475  )
        16           S   tau(  16) = (  -0.0409103   0.3982658   0.5213698  )
        17           S   tau(  17) = (   0.5705884   0.4949922   0.0000000  )
        18           S   tau(  18) = (   0.0000000   0.0000000   0.0000000  )

   Crystallographic axes

     site n.     atom                  positions (cryst. coord.)
         1           Ba  tau(   1) = (  0.6633900  0.1633900  0.8267810  )
         2           Ba  tau(   2) = (  0.1633900  0.3366100  0.5000000  )
         3           Ba  tau(   3) = (  0.8366100  0.6633900  0.5000000  )
         4           Ba  tau(   4) = (  0.3366100  0.8366100  0.1732190  )
         5           Ba  tau(   5) = (  0.2500000  0.2500000  0.0000000  )
         6           Ba  tau(   6) = (  0.7500000  0.7500000  0.0000000  )
         7           Ti  tau(   7) = (  0.7500000  0.2500000  0.5000000  )
         8           Ti  tau(   8) = (  0.2500000  0.7500000  0.5000000  )
         9           S   tau(   9) = (  0.0044820  0.5044820  0.2043740  )
        10           S   tau(  10) = (  0.6998920  0.1998920  0.2043740  )
        11           S   tau(  11) = (  0.9955180  0.4955180  0.7956260  )
        12           S   tau(  12) = (  0.4955180  0.6998920  0.5000000  )
        13           S   tau(  13) = (  0.1998920  0.9955180  0.5000000  )
        14           S   tau(  14) = (  0.5044820  0.3001080  0.5000000  )
        15           S   tau(  15) = (  0.8001080  0.0044820  0.5000000  )
        16           S   tau(  16) = (  0.3001080  0.8001080  0.7956260  )
        17           S   tau(  17) = (  0.5000000  0.5000000  0.0000000  )
        18           S   tau(  18) = (  0.0000000  0.0000000  0.0000000  )

     number of k points=    10
                       cart. coord. in units 2pi/alat
        k(    1) = (   0.0000000   0.0000000   0.0000000), wk =   0.0740741
        k(    2) = (   0.0000000   0.0000000   0.5086767), wk =   0.1481481
        k(    3) = (   0.0000000   0.3367056   0.2543384), wk =   0.2962963
        k(    4) = (   0.0000000   0.3367056   0.7630151), wk =   0.1481481
        k(    5) = (   0.3333333  -0.0475350   0.2543384), wk =   0.2962963
        k(    6) = (   0.3333333  -0.0475350   0.7630151), wk =   0.1481481
        k(    7) = (   0.3333333   0.2891706   0.5086767), wk =   0.2962963
        k(    8) = (   0.3333333   0.2891706  -0.0000000), wk =   0.1481481
        k(    9) = (   0.3333333  -0.3842407   0.0000000), wk =   0.1481481
        k(   10) = (   0.3333333  -0.3842407   0.5086767), wk =   0.2962963

                       cryst. coord.
        k(    1) = (   0.0000000   0.0000000   0.0000000), wk =   0.0740741
        k(    2) = (   0.0000000   0.0000000   0.3333333), wk =   0.1481481
        k(    3) = (   0.0000000   0.3333333   0.0000000), wk =   0.2962963
        k(    4) = (   0.0000000   0.3333333   0.3333333), wk =   0.1481481
        k(    5) = (   0.3333333   0.0000000  -0.0000000), wk =   0.2962963
        k(    6) = (   0.3333333   0.0000000   0.3333333), wk =   0.1481481
        k(    7) = (   0.3333333   0.3333333  -0.0000000), wk =   0.2962963
        k(    8) = (   0.3333333   0.3333333  -0.3333333), wk =   0.1481481
        k(    9) = (   0.3333333  -0.3333333  -0.0000000), wk =   0.1481481
        k(   10) = (   0.3333333  -0.3333333   0.3333333), wk =   0.2962963

     Check: negative core charge=   -0.000002

     Initial potential from superposition of free atoms

     starting charge     141.8975, renormalised to     144.0000

     negative rho (up, down):  3.115E-03 0.000E+00
     Starting wfcs are   90 randomized atomic wfcs +  166 random wfcs
     Checking if some PAW data can be deallocated...

     Self-consistent Calculation

     iteration #  1     ecut=    30.00 Ry     beta= 0.70
     Davidson diagonalization with overlap

     ethr =  1.00E-02,  avg # of iterations =  7.0

     negative rho (up, down):  2.079E-01 0.000E+00

     total energy              =   -3085.67503359 Ry
     estimated scf accuracy    <      17.27053116 Ry

[...]

     total energy              =   -3099.07087418 Ry
     estimated scf accuracy    <       0.00000462 Ry

     iteration # 15     ecut=    30.00 Ry     beta= 0.70
     Davidson diagonalization with overlap

     ethr =  3.21E-09,  avg # of iterations =  1.0

     negative rho (up, down):  1.510E-03 0.000E+00

     End of self-consistent calculation

          k = 0.0000 0.0000 0.0000 (  9503 PWs)   bands (ev):

   -50.2007 -50.2006 -26.4967 -26.4967 -26.4967 -26.4966 -26.4943 -26.4943
   -20.6286 -20.6277 -20.0957 -20.0674 -20.0494 -20.0493  -6.2145  -6.1122
    -6.0560  -6.0559  -5.9554  -5.9058  -5.9057  -5.6363  -5.6362  -5.5965
    -5.5797  -5.4582  -5.4374  -5.4372  -5.4372  -5.3440  -5.1368  -5.1368
    -5.0740  -5.0702  -4.4505  -4.4502  -4.2988  -4.2984  -4.2442  -4.0236
    -3.4400  -2.8243   3.3331   3.4706   3.5067   3.5378   3.7952   3.8572
     3.8572   4.1063   4.1530   4.1530   4.1545   4.3540   4.3804   4.3807
     4.4070   4.4070   4.4152   4.8699   5.2864   5.2865   5.3512   5.4058
     5.5297   5.5301   5.7455   5.7736   5.7736   6.3013   6.3014   6.3107
     8.2385   8.4311   8.6724   8.7331   8.8306   8.8654   8.8654   8.9991
     8.9992   9.2516   9.9040  10.1538  10.3101  10.3677  10.7346  10.7827
    10.7827  10.9682  11.1109  11.1110  11.6630  11.6819  11.8043  11.8290
    11.8681  11.8683  12.2798  12.4869  12.5009  12.5316  12.5316  12.6190
    12.7408  12.7408  12.9214  12.9421  13.1495  13.1496  13.1839  13.2775
    13.3939  14.0009  14.0009  14.0489  14.1076  14.1077  14.1311  14.4985
    14.4986  14.8695  14.8695  15.0063  15.0987  15.2905  15.2905  15.4675
    15.6278  15.6827  15.8451  15.9062  16.1197  16.3974  16.3976  16.4225
    16.4274  16.4274  16.6962  16.7129  16.7129  16.8751  17.1651  17.1651
    17.6220  17.9068  18.2776  18.2777  18.4143  18.4803  18.5403  18.6302
    18.6305  18.7255  18.8529  18.9789  19.0427  19.0428  19.4697  19.7902
    19.7903  19.8797  19.9444  19.9668  20.1816  20.1816  20.6557  20.8715
    20.9438  21.1250  21.1573  21.1573  21.2380  21.2582  21.2765  21.2766
    21.6570  21.6812  21.6813  21.6883  21.9216  21.9687  22.1836  22.1837
    22.3834  22.5754  22.8581  22.8582  22.9348  23.0869  23.0870  23.3721
    23.4286  23.4287  23.7031  23.7033  23.7349  23.8073  23.8074  23.8786
    24.0114  24.0911  24.2220  24.3317  24.3368  24.4384  24.4384  24.7572
    24.7697  24.8398  24.8400  24.9127  25.0263  25.0994  25.0995  25.4244
    25.4761  25.7788  25.7789  25.8438  25.8438  26.0326  26.2322  26.2322
    26.5506  26.5507  26.6416  26.7554  26.7722  26.9247  27.0823  27.2535
    27.2535  27.3365  27.3694  27.3695  27.4559  27.4687  27.5095  27.8102
    27.9811  28.1153  28.1154  28.3121  28.3121  28.3948  28.5279  28.5280
    28.7310  29.0660  29.1439  29.2222  29.2327  29.3921  29.5469  29.6802

     occupation numbers
     1.0000   1.0000   1.0000   1.0000   1.0000   1.0000   1.0000   1.0000
     1.0000   1.0000   1.0000   1.0000   1.0000   1.0000   1.0000   1.0000
     1.0000   1.0000   1.0000   1.0000   1.0000   1.0000   1.0000   1.0000
     1.0000   1.0000   1.0000   1.0000   1.0000   1.0000   1.0000   1.0000
     1.0000   1.0000   1.0000   1.0000   1.0000   1.0000   1.0000   1.0000
     1.0000   1.0000   1.0000   1.0000   1.0000   1.0000   1.0000   1.0000
     1.0000   1.0000   1.0000   1.0000   1.0000   1.0000   1.0000   1.0000
     1.0000   1.0000   1.0000   1.0000   1.0000   1.0000   1.0000   1.0000
     1.0000   1.0000   1.0000   1.0000   1.0000   1.0000   1.0000   1.0000
     0.0000   0.0000   0.0000   0.0000   0.0000   0.0000   0.0000   0.0000
     0.0000   0.0000   0.0000   0.0000   0.0000   0.0000   0.0000   0.0000
     0.0000   0.0000   0.0000   0.0000   0.0000   0.0000   0.0000   0.0000
     0.0000   0.0000   0.0000   0.0000   0.0000   0.0000   0.0000   0.0000
     0.0000   0.0000   0.0000   0.0000   0.0000   0.0000   0.0000   0.0000
     0.0000   0.0000   0.0000   0.0000   0.0000   0.0000   0.0000   0.0000
     0.0000   0.0000   0.0000   0.0000   0.0000   0.0000   0.0000   0.0000
     0.0000   0.0000   0.0000   0.0000   0.0000   0.0000   0.0000   0.0000
     0.0000   0.0000   0.0000   0.0000   0.0000   0.0000   0.0000   0.0000
     0.0000   0.0000   0.0000   0.0000   0.0000   0.0000   0.0000   0.0000
     0.0000   0.0000   0.0000   0.0000   0.0000   0.0000   0.0000   0.0000
     0.0000   0.0000   0.0000   0.0000   0.0000   0.0000   0.0000   0.0000
     0.0000   0.0000   0.0000   0.0000   0.0000   0.0000   0.0000   0.0000
     0.0000   0.0000   0.0000   0.0000   0.0000   0.0000   0.0000   0.0000
     0.0000   0.0000   0.0000   0.0000   0.0000   0.0000   0.0000   0.0000
     0.0000   0.0000   0.0000   0.0000   0.0000   0.0000   0.0000   0.0000
     0.0000   0.0000   0.0000   0.0000   0.0000   0.0000   0.0000   0.0000
     0.0000   0.0000   0.0000   0.0000   0.0000   0.0000   0.0000   0.0000
     0.0000   0.0000   0.0000   0.0000   0.0000   0.0000   0.0000   0.0000
     0.0000   0.0000   0.0000   0.0000   0.0000   0.0000   0.0000   0.0000
     0.0000   0.0000   0.0000   0.0000   0.0000   0.0000   0.0000   0.0000
     0.0000   0.0000   0.0000   0.0000   0.0000   0.0000   0.0000   0.0000
     0.0000   0.0000   0.0000   0.0000   0.0000   0.0000   0.0000   0.0000

[...]

          k = 0.3333-0.3842 0.5087 (  9582 PWs)   bands (ev):

   -50.2008 -50.2007 -26.4967 -26.4967 -26.4967 -26.4967 -26.4943 -26.4942
   -20.6282 -20.6279 -20.0895 -20.0759 -20.0486 -20.0480  -6.2096  -6.1862
    -6.1347  -6.0214  -5.9008  -5.8984  -5.8275  -5.7444  -5.7250  -5.6697
    -5.6167  -5.4999  -5.4120  -5.3897  -5.3733  -5.3205  -5.1712  -5.1338
    -4.7481  -4.5962  -4.5650  -4.5371  -4.3929  -4.3447  -4.3138  -4.3060
    -3.1960  -3.0282   3.2518   3.4249   3.7461   3.7567   3.7919   3.9527
     3.9903   4.0159   4.1070   4.1482   4.1941   4.3196   4.3246   4.3725
     4.4353   4.4623   4.5713   4.6351   4.8581   4.9786   5.0660   5.1030
     5.5870   5.7542   5.8995   5.9125   6.0114   6.2487   6.3100   6.5394
     8.2722   8.4295   8.6026   8.6074   8.7471   8.9960   9.1823   9.2734
     9.2953   9.3136  10.0294  10.2947  10.6145  10.7424  10.9466  10.9467
    11.1190  11.1604  11.1737  11.2507  11.3130  11.3495  11.5116  11.5549
    11.6339  11.7483  11.8115  11.8304  12.2006  12.2540  12.2807  12.4307
    12.6054  12.6067  12.6372  12.7076  12.7144  12.7661  12.9272  13.0323
    13.2604  13.3486  13.3947  13.8849  14.0626  14.2732  14.5241  14.5931
    14.8782  14.9413  14.9887  15.0286  15.2716  15.3339  15.9482  15.9788
    15.9794  16.0368  16.1911  16.3516  16.3563  16.4253  16.4412  16.7904
    16.8117  16.9268  17.0066  17.0307  17.2453  17.2950  17.5572  17.6012
    17.6135  17.9431  18.1603  18.2441  18.3793  18.5583  18.5608  18.5661
    18.6267  18.8028  18.8083  18.9838  18.9885  19.1537  19.3629  19.4945
    19.5170  19.5292  19.7493  19.8884  19.9208  20.3192  20.4351  20.6726
    20.7207  20.7361  20.8880  21.0830  21.1763  21.2166  21.2556  21.3245
    21.5220  21.6547  21.6564  21.6782  21.7246  21.9261  22.0992  22.2567
    22.3681  22.4942  22.5117  22.6312  22.6970  22.8677  22.9242  22.9348
    23.3060  23.3801  23.3971  23.5121  23.7387  23.7542  23.8641  23.8794
    23.9617  24.2050  24.2519  24.4518  24.4581  24.5578  24.5923  24.6464
    24.8082  24.9131  24.9316  25.0197  25.2183  25.2422  25.2863  25.4443
    25.4724  25.7809  25.8913  25.9353  26.0446  26.1175  26.2101  26.2732
    26.2898  26.3817  26.7005  26.7637  26.7825  26.8286  26.9345  26.9635
    27.1153  27.2680  27.2761  27.2856  27.3952  27.5948  27.6387  27.7029
    27.8431  27.9116  27.9834  27.9910  28.0225  28.5296  28.5852  28.6029
    28.8160  28.8459  28.9463  29.0479  29.2478  29.3567  29.4866  29.5151

     occupation numbers
     1.0000   1.0000   1.0000   1.0000   1.0000   1.0000   1.0000   1.0000
     1.0000   1.0000   1.0000   1.0000   1.0000   1.0000   1.0000   1.0000
     1.0000   1.0000   1.0000   1.0000   1.0000   1.0000   1.0000   1.0000
     1.0000   1.0000   1.0000   1.0000   1.0000   1.0000   1.0000   1.0000
     1.0000   1.0000   1.0000   1.0000   1.0000   1.0000   1.0000   1.0000
     1.0000   1.0000   1.0000   1.0000   1.0000   1.0000   1.0000   1.0000
     1.0000   1.0000   1.0000   1.0000   1.0000   1.0000   1.0000   1.0000
     1.0000   1.0000   1.0000   1.0000   1.0000   1.0000   1.0000   1.0000
     1.0000   1.0000   1.0000   1.0000   1.0000   1.0000   1.0000   1.0000
     0.0000   0.0000   0.0000   0.0000   0.0000   0.0000   0.0000   0.0000
     0.0000   0.0000   0.0000   0.0000   0.0000   0.0000   0.0000   0.0000
     0.0000   0.0000   0.0000   0.0000   0.0000   0.0000   0.0000   0.0000
     0.0000   0.0000   0.0000   0.0000   0.0000   0.0000   0.0000   0.0000
     0.0000   0.0000   0.0000   0.0000   0.0000   0.0000   0.0000   0.0000
     0.0000   0.0000   0.0000   0.0000   0.0000   0.0000   0.0000   0.0000
     0.0000   0.0000   0.0000   0.0000   0.0000   0.0000   0.0000   0.0000
     0.0000   0.0000   0.0000   0.0000   0.0000   0.0000   0.0000   0.0000
     0.0000   0.0000   0.0000   0.0000   0.0000   0.0000   0.0000   0.0000
     0.0000   0.0000   0.0000   0.0000   0.0000   0.0000   0.0000   0.0000
     0.0000   0.0000   0.0000   0.0000   0.0000   0.0000   0.0000   0.0000
     0.0000   0.0000   0.0000   0.0000   0.0000   0.0000   0.0000   0.0000
     0.0000   0.0000   0.0000   0.0000   0.0000   0.0000   0.0000   0.0000
     0.0000   0.0000   0.0000   0.0000   0.0000   0.0000   0.0000   0.0000
     0.0000   0.0000   0.0000   0.0000   0.0000   0.0000   0.0000   0.0000
     0.0000   0.0000   0.0000   0.0000   0.0000   0.0000   0.0000   0.0000
     0.0000   0.0000   0.0000   0.0000   0.0000   0.0000   0.0000   0.0000
     0.0000   0.0000   0.0000   0.0000   0.0000   0.0000   0.0000   0.0000
     0.0000   0.0000   0.0000   0.0000   0.0000   0.0000   0.0000   0.0000
     0.0000   0.0000   0.0000   0.0000   0.0000   0.0000   0.0000   0.0000
     0.0000   0.0000   0.0000   0.0000   0.0000   0.0000   0.0000   0.0000
     0.0000   0.0000   0.0000   0.0000   0.0000   0.0000   0.0000   0.0000
     0.0000   0.0000   0.0000   0.0000   0.0000   0.0000   0.0000   0.0000

     highest occupied, lowest unoccupied level (ev):     6.5394    8.1646

!    total energy              =   -3099.07087421 Ry
     estimated scf accuracy    <       0.00000036 Ry

     The total energy is the sum of the following terms:
     one-electron contribution =    -192.69036950 Ry
     hartree contribution      =     155.91615250 Ry
     xc contribution           =    -242.53195071 Ry
     ewald contribution        =    -570.04791579 Ry
     one-center paw contrib.   =   -2249.71679071 Ry
      -> PAW hartree energy AE =      86.04815897 Ry
      -> PAW hartree energy PS =     -85.71604088 Ry
      -> PAW xc energy AE      =   -1182.66469838 Ry
      -> PAW xc energy PS      =      57.46911557 Ry
      -> total E_H with PAW    =     156.24827058 Ry
      -> total E_XC with PAW   =   -1367.72753351 Ry

     convergence has been achieved in  15 iterations

     Writing all to output data dir bands_nm/myprefix.save/

     General routines

     Parallel routines

     PAW routines

   This run was terminated on:   1:39:10  17Jul2023

   JOB DONE.