     Program PWSCF v.7.1 starts on 17Jul2023 at  0:13:15

     Reading input from espresso_25934.pwi
Warning: card &CELL ignored
Warning: card / ignored

     Current dimensions of program PWSCF are:
     Max number of different atomic species (ntypx) = 10
     Max number of k-points (npk) =  40000
     Max angular momentum in pseudopotentials (lmaxx) =  4
     file Ga.pbe-dn-kjpaw_psl.1.0.0.UPF: wavefunction(s)  4S renormalized
     file Fe.pbe-spn-kjpaw_psl.0.2.1.UPF: wavefunction(s)  3D renormalized
     file O.pbe-n-kjpaw_psl.0.1.UPF: wavefunction(s)  2P renormalized
     Message from routine setup:
     using ibrav=0 with symmetry is DISCOURAGED, use correct ibrav instead

     K-points division:     npool     =       2
     R & G space division:  proc/nbgrp/npool/nimage =       4
     Subspace diagonalization in iterative solution of the eigenvalue problem:
     one sub-group per band group will be used

     Using Slab Decomposition

     bravais-lattice index     =            0
     lattice parameter (alat)  =      11.3642  a.u.
     unit-cell volume          =    1027.1733 (a.u.)^3
     number of atoms/cell      =           14
     number of atomic types    =            3
     number of electrons       =       138.00
     number of Kohn-Sham states=          256
     kinetic-energy cutoff     =      30.0000  Ry
     charge density cutoff     =     240.0000  Ry
     scf convergence threshold =      1.0E-06
     mixing beta               =       0.7000
     number of iterations used =            8  plain     mixing
     Exchange-correlation= SLA  PW   PBX  PBC
                           (   1   4   3   4   0   0   0)

     celldm(1)=  11.364199  celldm(2)=   0.000000  celldm(3)=   0.000000
     celldm(4)=   0.000000  celldm(5)=   0.000000  celldm(6)=   0.000000

     crystal axes: (cart. coord. in units of alat)
               a(1) = (   1.000000   0.000000   0.000000 )
               a(2) = (   0.019872   0.999803   0.000000 )
               a(3) = (  -0.506076  -0.503839   0.700024 )

     reciprocal axes: (cart. coord. in units 2 pi/alat)
               b(1) = (  1.000000 -0.019876  0.708635 )
               b(2) = (  0.000000  1.000198  0.719887 )
               b(3) = (  0.000000  0.000000  1.428522 )

     PseudoPot. # 1 for Ga read from file:
     /lustre07/scratch/pragov/crystal_structure_design/utils/SSSP/Ga.pbe-dn-kjpaw_psl.1.0.0.UPF
     MD5 check sum: a27b4342b1af7e5f338de752e9ed7044
     Pseudo is Projector augmented-wave + core cor, Zval = 13.0
     Generated using "atomic" code by A. Dal Corso  v.5.1
     Shape of augmentation charge: PSQ
     Using radial grid of 1205 points,  6 beta functions with:
                l(1) =   0
                l(2) =   0
                l(3) =   1
                l(4) =   1
                l(5) =   2
                l(6) =   2
     Q(r) pseudized with 0 coefficients

     PseudoPot. # 2 for Fe read from file:
     /lustre07/scratch/pragov/crystal_structure_design/utils/SSSP/Fe.pbe-spn-kjpaw_psl.0.2.1.UPF
     MD5 check sum: e86618425769142926afa95317d90200
     Pseudo is Projector augmented-wave + core cor, Zval = 16.0
     Generated using "atomic" code by A. Dal Corso  v.5.0.99 svn rev. 10869
     Shape of augmentation charge: PSQ
     Using radial grid of 1191 points,  6 beta functions with:
                l(1) =   0
                l(2) =   0
                l(3) =   1
                l(4) =   1
                l(5) =   2
                l(6) =   2
     Q(r) pseudized with 0 coefficients

     PseudoPot. # 3 for O  read from file:
     /lustre07/scratch/pragov/crystal_structure_design/utils/SSSP/O.pbe-n-kjpaw_psl.0.1.UPF
     MD5 check sum: 0234752ac141de4415c5fc33072bef88
     Pseudo is Projector augmented-wave + core cor, Zval =  6.0
     Generated using "atomic" code by A. Dal Corso  v.5.0.99 svn rev. 10869
     Shape of augmentation charge: BESSEL
     Using radial grid of 1095 points,  4 beta functions with:
                l(1) =   0
                l(2) =   0
                l(3) =   1
                l(4) =   1
     Q(r) pseudized with 0 coefficients

     atomic species   valence    mass     pseudopotential
        Ga            13.00    69.72300     Ga( 1.00)
        Fe            16.00    55.84500     Fe( 1.00)
        O              6.00    15.99900     O ( 1.00)

      2 Sym. Ops., with inversion, found

                                    s                        frac. trans.

      isym =  1     identity

 cryst.   s( 1) = (     1          0          0      )
                  (     0          1          0      )
                  (     0          0          1      )

 cart.    s( 1) = (  1.0000000  0.0000000  0.0000000 )
                  (  0.0000000  1.0000000  0.0000000 )
                  (  0.0000000  0.0000000  1.0000000 )

      isym =  2     inversion

 cryst.   s( 2) = (    -1          0          0      )
                  (     0         -1          0      )
                  (     0          0         -1      )

 cart.    s( 2) = ( -1.0000000  0.0000000 -0.0000000 )
                  (  0.0000000 -1.0000000 -0.0000000 )
                  (  0.0000000  0.0000000 -1.0000000 )

   Cartesian axes

     site n.     atom                  positions (alat units)
         1           Ga  tau(   1) = (   0.5099359   0.4999013   0.0000000  )
         2           Ga  tau(   2) = (  -0.2431020   0.2479818   0.3500120  )
         3           Fe  tau(   3) = (   0.0099359   0.4999013   0.0000000  )
         4           Fe  tau(   4) = (  -0.2530379  -0.2519195   0.3500120  )
         5           Fe  tau(   5) = (   0.2588660   0.0067611   0.1750060  )
         6           Fe  tau(   6) = (   0.2549300   0.4892026   0.5250181  )
         7           O   tau(   7) = (  -0.0072166   0.4887442   0.3432680  )
         8           O   tau(   8) = (   0.7553392   0.7309557   0.0067440  )
         9           O   tau(   9) = (   0.5199323   0.4873325   0.3366920  )
        10           O   tau(  10) = (   0.7445314   0.2582261   0.0133201  )
        11           O   tau(  11) = (   0.5210126   0.0072194   0.3567561  )
        12           O   tau(  12) = (  -0.2415432  -0.2349921   0.6932801  )
        13           O   tau(  13) = (  -0.0061363   0.0086311   0.3633321  )
        14           O   tau(  14) = (  -0.2307353   0.2377376   0.6867040  )

   Crystallographic axes

     site n.     atom                  positions (cryst. coord.)
         1           Ga  tau(   1) = (  0.5000000  0.5000000  0.0000000  )
         2           Ga  tau(   2) = (  0.0000000  0.5000000  0.5000000  )
         3           Fe  tau(   3) = (  0.0000000  0.5000000  0.0000000  )
         4           Fe  tau(   4) = (  0.0000000 -0.0000000  0.5000000  )
         5           Fe  tau(   5) = (  0.3827470  0.1327470  0.2500000  )
         6           Fe  tau(   6) = (  0.6172530  0.8672530  0.7500000  )
         7           O   tau(   7) = (  0.2263210  0.7359550  0.4903660  )
         8           O   tau(   8) = (  0.7455900  0.7359550  0.0096340  )
         9           O   tau(   9) = (  0.7488380  0.7298090  0.4809720  )
        10           O   tau(  10) = (  0.7488380  0.2678660  0.0190280  )
        11           O   tau(  11) = (  0.7736790  0.2640450  0.5096340  )
        12           O   tau(  12) = (  0.2544100  0.2640450  0.9903660  )
        13           O   tau(  13) = (  0.2511620  0.2701910  0.5190280  )
        14           O   tau(  14) = (  0.2511620  0.7321340  0.9809720  )

     number of k points=    14
                       cart. coord. in units 2pi/alat
        k(    1) = (   0.0000000   0.0000000   0.0000000), wk =   0.0740741
        k(    2) = (   0.0000000   0.0000000   0.4761741), wk =   0.1481481
        k(    3) = (   0.0000000   0.3333992   0.2399624), wk =   0.1481481
        k(    4) = (   0.0000000   0.3333992   0.7161365), wk =   0.1481481
        k(    5) = (   0.0000000   0.3333992  -0.2362117), wk =   0.1481481
        k(    6) = (   0.3333333  -0.0066252   0.2362117), wk =   0.1481481
        k(    7) = (   0.3333333  -0.0066252   0.7123858), wk =   0.1481481
        k(    8) = (   0.3333333  -0.0066252  -0.2399624), wk =   0.1481481
        k(    9) = (   0.3333333   0.3267739   0.4761741), wk =   0.1481481
        k(   10) = (   0.3333333   0.3267739   0.9523482), wk =   0.1481481
        k(   11) = (   0.3333333   0.3267739  -0.0000000), wk =   0.1481481
        k(   12) = (   0.3333333  -0.3400244  -0.0037507), wk =   0.1481481
        k(   13) = (   0.3333333  -0.3400244   0.4724234), wk =   0.1481481
        k(   14) = (   0.3333333  -0.3400244  -0.4799248), wk =   0.1481481

                       cryst. coord.
        k(    1) = (   0.0000000   0.0000000   0.0000000), wk =   0.0740741
        k(    2) = (   0.0000000   0.0000000   0.3333333), wk =   0.1481481
        k(    3) = (   0.0000000   0.3333333   0.0000000), wk =   0.1481481
        k(    4) = (   0.0000000   0.3333333   0.3333333), wk =   0.1481481
        k(    5) = (   0.0000000   0.3333333  -0.3333333), wk =   0.1481481
        k(    6) = (   0.3333333   0.0000000   0.0000000), wk =   0.1481481
        k(    7) = (   0.3333333   0.0000000   0.3333333), wk =   0.1481481
        k(    8) = (   0.3333333   0.0000000  -0.3333333), wk =   0.1481481
        k(    9) = (   0.3333333   0.3333333   0.0000000), wk =   0.1481481
        k(   10) = (   0.3333333   0.3333333   0.3333333), wk =   0.1481481
        k(   11) = (   0.3333333   0.3333333  -0.3333333), wk =   0.1481481
        k(   12) = (   0.3333333  -0.3333333   0.0000000), wk =   0.1481481
        k(   13) = (   0.3333333  -0.3333333   0.3333333), wk =   0.1481481
        k(   14) = (   0.3333333  -0.3333333  -0.3333333), wk =   0.1481481

     Check: negative core charge=   -0.000151

     Initial potential from superposition of free atoms

     starting charge     137.9923, renormalised to     138.0000
     Starting wfcs are  102 randomized atomic wfcs +  154 random wfcs
     Checking if some PAW data can be deallocated...

     Self-consistent Calculation

     iteration #  1     ecut=    30.00 Ry     beta= 0.70
     Davidson diagonalization with overlap

     ethr =  1.00E-02,  avg # of iterations =  7.1

     total energy              =   -2202.17541268 Ry
     estimated scf accuracy    <       3.61946369 Ry

[...]

     negative rho (up, down):  1.321E-03 0.000E+00

[...]

     negative rho (up, down):  1.701E-04 0.000E+00

[...]

     total energy              =   -2204.31149378 Ry
     estimated scf accuracy    <       0.00000308 Ry

     iteration # 21     ecut=    30.00 Ry     beta= 0.70
     Davidson diagonalization with overlap

     ethr =  2.23E-09,  avg # of iterations =  1.2

     End of self-consistent calculation

          k = 0.0000 0.0000 0.0000 (  2807 PWs)   bands (ev):

   -77.0048 -77.0039 -76.4108 -76.4095 -42.6887 -42.6779 -42.6243 -42.6146
   -42.5030 -42.5026 -42.0472 -42.0276 -42.0141 -42.0136 -41.9317 -41.9112
    -9.7137  -8.5032  -8.3912  -8.3803  -8.3623  -8.3207  -8.2978  -8.2757
    -4.6030  -4.5911  -4.5421  -4.4839  -4.4424  -4.4397  -4.4096  -4.3124
    -4.1641  -3.9019   2.3225   2.4590   3.6527   4.0361   4.0508   4.0706
     4.3979   5.6365   5.6549   5.9052   5.9497   5.9867   6.1626   6.3178
     6.5598   6.8729   6.9797   7.1005   7.1982   7.3003   7.4172   7.6243
     7.7758   7.8386   9.1138   9.1974   9.4981   9.6418   9.6942   9.8503
     9.9124   9.9709  10.2786  10.4322  10.7551  10.7703  11.0031  11.2634
    11.2768  11.3067  11.9960  12.1873  12.3652  12.3936  12.4995  14.7943
    16.5415  16.8362  17.2109  17.4986  17.6637  18.9828  19.5821  19.7987
    21.2234  21.3381  21.6341  21.9002  22.1683  22.4244  23.0357  23.2114
    23.4850  24.0711  24.5589  25.4024  25.4601  26.5307  28.0247  28.2379
    28.7073  28.9310  29.2309  29.5079  29.6842  29.7178  29.8985  30.1351
    30.1813  30.3201  30.5626  30.6919  31.5204  34.1950  34.6162  35.0431
    35.5227  35.9012  35.9538  36.4076  36.6282  36.6815  37.0508  37.2886
    37.3257  37.4667  37.4749  37.6611  37.8819  38.2082  38.3858  38.4273
    38.6612  38.8733  39.2589  39.3097  40.2257  40.2417  40.3257  40.3808
    40.5438  41.5510  41.8055  42.0664  42.0802  42.3443  43.0376  43.5188
    43.6323  43.7886  43.9384  44.3072  44.3136  44.3697  44.7855  46.7932
    47.5469  47.5896  48.0903  48.2010  48.9334  49.7706  49.8154  50.0845
    50.2175  50.5378  50.8320  50.9531  51.1227  51.1300  51.3137  51.5840
    51.6080  51.6833  51.6859  51.9987  52.5204  52.6856  52.6876  52.9106
    53.1016  53.3806  53.5280  53.9477  53.9650  54.0329  54.0627  54.1017
    54.6028  54.6038  54.7032  54.7958  55.0737  55.1600  55.7973  56.0065
    56.2922  56.3461  56.5138  56.6527  56.6566  56.6663  57.1803  57.2244
    57.3351  57.4470  58.1375  58.2011  58.5350  59.3855  59.8946  59.9108
    60.3039  61.0747  61.0909  61.1155  61.4672  61.6558  62.1629  62.2787
    62.3827  62.4333  63.8747  64.0417  64.5480  64.6383  64.7154  65.7195
    65.9705  66.1237  66.4168  66.5794  67.0132  67.1284  67.6036  67.6437
    67.8051  67.8573  68.1083  68.1676  68.4165  68.5515  68.7477  68.8286
    68.8515  68.9985  69.2225  69.3121  70.1448  70.1620  70.3436  70.4526

     occupation numbers
     1.0000   1.0000   1.0000   1.0000   1.0000   1.0000   1.0000   1.0000
     1.0000   1.0000   1.0000   1.0000   1.0000   1.0000   1.0000   1.0000
     1.0000   1.0000   1.0000   1.0000   1.0000   1.0000   1.0000   1.0000
     1.0000   1.0000   1.0000   1.0000   1.0000   1.0000   1.0000   1.0000
     1.0000   1.0000   1.0000   1.0000   1.0000   1.0000   1.0000   1.0000
     1.0000   1.0000   1.0000   1.0000   1.0000   1.0000   1.0000   1.0000
     1.0000   1.0000   1.0000   1.0000   1.0000   1.0000   1.0000   1.0000
     1.0000   1.0000   1.0000   1.0000   1.0000   1.0000   1.0000   1.0000
     1.0000   1.0000   1.0000   1.0000   1.0000   0.0000   0.0000   0.0000
     0.0000   0.0000   0.0000   0.0000   0.0000   0.0000   0.0000   0.0000
     0.0000   0.0000   0.0000   0.0000   0.0000   0.0000   0.0000   0.0000
     0.0000   0.0000   0.0000   0.0000   0.0000   0.0000   0.0000   0.0000
     0.0000   0.0000   0.0000   0.0000   0.0000   0.0000   0.0000   0.0000
     0.0000   0.0000   0.0000   0.0000   0.0000   0.0000   0.0000   0.0000
     0.0000   0.0000   0.0000   0.0000   0.0000   0.0000   0.0000   0.0000
     0.0000   0.0000   0.0000   0.0000   0.0000   0.0000   0.0000   0.0000
     0.0000   0.0000   0.0000   0.0000   0.0000   0.0000   0.0000   0.0000
     0.0000   0.0000   0.0000   0.0000   0.0000   0.0000   0.0000   0.0000
     0.0000   0.0000   0.0000   0.0000   0.0000   0.0000   0.0000   0.0000
     0.0000   0.0000   0.0000   0.0000   0.0000   0.0000   0.0000   0.0000
     0.0000   0.0000   0.0000   0.0000   0.0000   0.0000   0.0000   0.0000
     0.0000   0.0000   0.0000   0.0000   0.0000   0.0000   0.0000   0.0000
     0.0000   0.0000   0.0000   0.0000   0.0000   0.0000   0.0000   0.0000
     0.0000   0.0000   0.0000   0.0000   0.0000   0.0000   0.0000   0.0000
     0.0000   0.0000   0.0000   0.0000   0.0000   0.0000   0.0000   0.0000
     0.0000   0.0000   0.0000   0.0000   0.0000   0.0000   0.0000   0.0000
     0.0000   0.0000   0.0000   0.0000   0.0000   0.0000   0.0000   0.0000
     0.0000   0.0000   0.0000   0.0000   0.0000   0.0000   0.0000   0.0000
     0.0000   0.0000   0.0000   0.0000   0.0000   0.0000   0.0000   0.0000
     0.0000   0.0000   0.0000   0.0000   0.0000   0.0000   0.0000   0.0000
     0.0000   0.0000   0.0000   0.0000   0.0000   0.0000   0.0000   0.0000
     0.0000   0.0000   0.0000   0.0000   0.0000   0.0000   0.0000   0.0000

[...]

          k = 0.3333-0.3400-0.4799 (  2848 PWs)   bands (ev):

   -77.0100 -77.0058 -76.4170 -76.4094 -42.6879 -42.6838 -42.6580 -42.6365
   -42.5207 -42.5036 -42.0666 -42.0465 -42.0326 -42.0304 -41.9270 -41.9262
    -9.3172  -8.7038  -8.5823  -8.5121  -8.4357  -8.3658  -8.2552  -8.2092
    -4.5976  -4.5909  -4.5420  -4.4763  -4.4511  -4.4424  -4.4153  -4.3122
    -4.1866  -3.9188   2.7815   3.1072   3.7585   4.4001   4.5678   4.8581
     5.0764   5.1031   5.2222   5.3048   5.7127   5.7133   5.7699   5.9883
     6.4031   6.4270   6.6303   6.8715   6.8745   6.9677   7.1282   7.4073
     7.5699   8.0296   9.4042   9.4213   9.6026   9.6126   9.6582   9.8887
     9.9474  10.1383  10.2033  10.3097  10.3956  10.7163  10.7694  10.9634
    10.9977  11.0561  11.8268  11.8530  12.2937  12.4406  14.6254  15.6131
    15.7730  17.1040  18.6193  19.0009  19.3686  19.5470  19.7423  20.1102
    21.0622  21.0954  21.1121  22.1360  22.5004  22.7286  22.7312  22.8351
    23.0629  23.2926  23.7713  24.6243  24.9654  25.0770  25.6506  26.4266
    27.0978  27.3161  29.2084  29.2508  29.2720  29.7313  30.4426  30.9400
    31.3478  31.5412  31.5824  32.2489  32.6737  32.8089  34.0404  34.2289
    34.3349  35.2599  35.5649  35.7010  35.9659  35.9870  36.5941  36.8427
    37.9693  38.1987  38.4663  38.5247  38.5402  39.3333  39.6330  39.7749
    40.1619  40.1895  40.5151  40.5960  40.7651  40.9638  41.1444  41.4565
    41.9875  42.1592  42.3285  42.4116  42.4779  42.8867  42.9949  43.1184
    43.2223  43.4967  44.3910  44.5125  44.7115  44.9475  45.2676  45.4619
    45.5387  46.2211  46.4549  46.5037  47.1736  47.4789  47.7862  48.2237
    48.7185  48.8438  49.6467  49.8422  50.1755  50.3349  50.5373  50.7412
    51.1638  51.4296  51.6007  51.7836  52.0860  52.1272  52.2104  52.2143
    52.5986  52.9918  53.0061  53.3985  53.9174  54.1570  54.5694  54.9300
    55.0775  55.8164  55.8168  56.0145  56.0679  56.1109  56.6833  56.6941
    56.8807  56.9044  57.1293  57.2757  57.3190  57.9124  57.9265  58.1456
    58.6006  59.0349  59.1883  59.5340  59.5809  59.9202  60.3807  60.8177
    60.8953  61.0799  61.3693  61.5001  61.6235  61.7697  62.0466  62.2544
    62.6781  63.1458  63.3352  63.5345  64.4001  64.5613  65.1009  65.1473
    65.1879  65.2367  65.6397  65.8096  66.0427  66.2212  66.4604  66.7720
    66.9527  67.1058  67.4921  67.8037  67.9069  68.1393  68.5783  68.7222
    68.7394  68.8686  68.9313  69.1112  69.5661  69.9638  70.2204  70.2718

     occupation numbers
     1.0000   1.0000   1.0000   1.0000   1.0000   1.0000   1.0000   1.0000
     1.0000   1.0000   1.0000   1.0000   1.0000   1.0000   1.0000   1.0000
     1.0000   1.0000   1.0000   1.0000   1.0000   1.0000   1.0000   1.0000
     1.0000   1.0000   1.0000   1.0000   1.0000   1.0000   1.0000   1.0000
     1.0000   1.0000   1.0000   1.0000   1.0000   1.0000   1.0000   1.0000
     1.0000   1.0000   1.0000   1.0000   1.0000   1.0000   1.0000   1.0000
     1.0000   1.0000   1.0000   1.0000   1.0000   1.0000   1.0000   1.0000
     1.0000   1.0000   1.0000   1.0000   1.0000   1.0000   1.0000   1.0000
     1.0000   1.0000   1.0000   1.0000   1.0000   0.0000   0.0000   0.0000
     0.0000   0.0000   0.0000   0.0000   0.0000   0.0000   0.0000   0.0000
     0.0000   0.0000   0.0000   0.0000   0.0000   0.0000   0.0000   0.0000
     0.0000   0.0000   0.0000   0.0000   0.0000   0.0000   0.0000   0.0000
     0.0000   0.0000   0.0000   0.0000   0.0000   0.0000   0.0000   0.0000
     0.0000   0.0000   0.0000   0.0000   0.0000   0.0000   0.0000   0.0000
     0.0000   0.0000   0.0000   0.0000   0.0000   0.0000   0.0000   0.0000
     0.0000   0.0000   0.0000   0.0000   0.0000   0.0000   0.0000   0.0000
     0.0000   0.0000   0.0000   0.0000   0.0000   0.0000   0.0000   0.0000
     0.0000   0.0000   0.0000   0.0000   0.0000   0.0000   0.0000   0.0000
     0.0000   0.0000   0.0000   0.0000   0.0000   0.0000   0.0000   0.0000
     0.0000   0.0000   0.0000   0.0000   0.0000   0.0000   0.0000   0.0000
     0.0000   0.0000   0.0000   0.0000   0.0000   0.0000   0.0000   0.0000
     0.0000   0.0000   0.0000   0.0000   0.0000   0.0000   0.0000   0.0000
     0.0000   0.0000   0.0000   0.0000   0.0000   0.0000   0.0000   0.0000
     0.0000   0.0000   0.0000   0.0000   0.0000   0.0000   0.0000   0.0000
     0.0000   0.0000   0.0000   0.0000   0.0000   0.0000   0.0000   0.0000
     0.0000   0.0000   0.0000   0.0000   0.0000   0.0000   0.0000   0.0000
     0.0000   0.0000   0.0000   0.0000   0.0000   0.0000   0.0000   0.0000
     0.0000   0.0000   0.0000   0.0000   0.0000   0.0000   0.0000   0.0000
     0.0000   0.0000   0.0000   0.0000   0.0000   0.0000   0.0000   0.0000
     0.0000   0.0000   0.0000   0.0000   0.0000   0.0000   0.0000   0.0000
     0.0000   0.0000   0.0000   0.0000   0.0000   0.0000   0.0000   0.0000
     0.0000   0.0000   0.0000   0.0000   0.0000   0.0000   0.0000   0.0000

     highest occupied, lowest unoccupied level (ev):    10.7551   10.6613

!    total energy              =   -2204.31149382 Ry
     total all-electron energy =    -19160.602096 Ry
     estimated scf accuracy    <       0.00000076 Ry

     The total energy is the sum of the following terms:
     one-electron contribution =    -847.62826496 Ry
     hartree contribution      =     515.59550594 Ry
     xc contribution           =    -274.31704165 Ry
     ewald contribution        =    -995.41948892 Ry
     one-center paw contrib.   =    -602.54220422 Ry
      -> PAW hartree energy AE =     277.01576760 Ry
      -> PAW hartree energy PS =    -272.79760256 Ry
      -> PAW xc energy AE      =    -301.38680467 Ry
      -> PAW xc energy PS      =      75.12978188 Ry
      -> total E_H with PAW    =     519.81367099 Ry
      -> total E_XC with PAW   =    -500.57406445 Ry

     convergence has been achieved in  21 iterations

     Writing all to output data dir bands_nm/myprefix.save/

     General routines

     Parallel routines

     PAW routines

   This run was terminated on:   0:14:50  17Jul2023

   JOB DONE.