     Program PWSCF v.7.0 starts on 23Jun2023 at  5:13:25

     K-points division:     npool     =       2
     R & G space division:  proc/nbgrp/npool/nimage =       4

     Reading input from espresso_9011.pwi
Warning: card &CELL ignored
Warning: card / ignored

     Current dimensions of program PWSCF are:
     Max number of different atomic species (ntypx) = 10
     Max number of k-points (npk) =  40000
     Max angular momentum in pseudopotentials (lmaxx) =  4
     Message from routine setup:
     using ibrav=0 with symmetry is DISCOURAGED, use correct ibrav instead

     Using Slab Decomposition

     bravais-lattice index     =            0
     lattice parameter (alat)  =      14.9533  a.u.
     unit-cell volume          =    3771.1215 (a.u.)^3
     number of atoms/cell      =           20
     number of atomic types    =            3
     number of electrons       =       132.00
     number of Kohn-Sham states=           90
     kinetic-energy cutoff     =      30.0000  Ry
     charge density cutoff     =     240.0000  Ry
     scf convergence threshold =      1.0E-06
     mixing beta               =       0.7000
     number of iterations used =            8  plain     mixing
     Exchange-correlation= SLA  PW   PBE  PBE
                           (   1   4   3   4   0   0   0)

     celldm(1)=  14.953308  celldm(2)=   0.000000  celldm(3)=   0.000000
     celldm(4)=   0.000000  celldm(5)=   0.000000  celldm(6)=   0.000000

     crystal axes: (cart. coord. in units of alat)
               a(1) = (   1.000000   0.000000   0.000000 )
               a(2) = (   0.000000   0.901083   0.000000 )
               a(3) = (   0.000000   0.861052   1.251681 )

     reciprocal axes: (cart. coord. in units 2 pi/alat)
               b(1) = (  1.000000  0.000000  0.000000 )
               b(2) = (  0.000000  1.109775 -0.763432 )
               b(3) = (  0.000000  0.000000  0.798925 )

     PseudoPot. # 1 for Sr read from file:
     /home/pragov/projects/rrg-bengioy-ad/pragov/crystal_structure_design/SSSP/Sr_pbe_v1.uspp.F.UPF
     MD5 check sum: 6b418c05fbe9db5448babca5e47b7a5b
     Pseudo is Ultrasoft + core correction, Zval = 10.0
     Generated by new atomic code, or converted to UPF format
     Using radial grid of  883 points,  6 beta functions with:
                l(1) =   0
                l(2) =   0
                l(3) =   1
                l(4) =   1
                l(5) =   2
                l(6) =   2
     Q(r) pseudized with  6 coefficients,  rinner =    1.400   1.400   1.400
                                                       1.400   1.400

     PseudoPot. # 2 for P  read from file:
     /home/pragov/projects/rrg-bengioy-ad/pragov/crystal_structure_design/SSSP/P.pbe-n-rrkjus_psl.1.0.0.UPF
     MD5 check sum: 8b930f418f0a4573dca56cd030ffe088
     Pseudo is Ultrasoft + core correction, Zval =  5.0
     Generated using "atomic" code by A. Dal Corso  v.5.1
     Using radial grid of 1147 points,  6 beta functions with:
                l(1) =   0
                l(2) =   0
                l(3) =   1
                l(4) =   1
                l(5) =   2
                l(6) =   2
     Q(r) pseudized with 0 coefficients

     PseudoPot. # 3 for Se read from file:
     /home/pragov/projects/rrg-bengioy-ad/pragov/crystal_structure_design/SSSP/Se_pbe_v1.uspp.F.UPF
     MD5 check sum: 1b3568f3a8ae88f9a2a0ad0698632c85
     Pseudo is Ultrasoft + core correction, Zval =  6.0
     Generated by new atomic code, or converted to UPF format
     Using radial grid of  877 points,  6 beta functions with:
                l(1) =   0
                l(2) =   0
                l(3) =   1
                l(4) =   1
                l(5) =   2
                l(6) =   2
     Q(r) pseudized with  8 coefficients,  rinner =    1.300   1.300   1.300
                                                       1.300   1.300

     atomic species   valence    mass     pseudopotential
        Sr            10.00    87.62000     Sr( 1.00)
        P              5.00    30.97376     P ( 1.00)
        Se             6.00    78.97100     Se( 1.00)

      4 Sym. Ops., with inversion, found ( 2 have fractional translation)

                                    s                        frac. trans.

      isym =  1     identity

 cryst.   s( 1) = (     1          0          0      )
                  (     0          1          0      )
                  (     0          0          1      )

 cart.    s( 1) = (  1.0000000  0.0000000  0.0000000 )
                  (  0.0000000  1.0000000 -0.0000000 )
                  (  0.0000000  0.0000000  1.0000000 )

      isym =  2     180 deg rotation - cart. axis [1,0,0]

 cryst.   s( 2) = (     1          0          0      )    f =(  0.5000000 )
                  (     0         -1          0      )       (  0.0000000 )
                  (     0          0         -1      )       (  0.5000000 )

 cart.    s( 2) = (  1.0000000  0.0000000  0.0000000 )    f =(  0.5000000 )
                  (  0.0000000 -1.0000000  0.0000000 )       (  0.4305258 )
                  (  0.0000000  0.0000000 -1.0000000 )       (  0.6258407 )

      isym =  3     inversion

 cryst.   s( 3) = (    -1          0          0      )
                  (     0         -1          0      )
                  (     0          0         -1      )

 cart.    s( 3) = ( -1.0000000  0.0000000  0.0000000 )
                  (  0.0000000 -1.0000000  0.0000000 )
                  (  0.0000000  0.0000000 -1.0000000 )

      isym =  4     inv. 180 deg rotation - cart. axis [1,0,0]

 cryst.   s( 4) = (    -1          0          0      )    f =(  0.5000000 )
                  (     0          1          0      )       ( -0.0000000 )
                  (     0          0          1      )       ( -0.5000000 )

 cart.    s( 4) = ( -1.0000000  0.0000000  0.0000000 )    f =(  0.5000000 )
                  (  0.0000000  1.0000000 -0.0000000 )       ( -0.4305258 )
                  (  0.0000000  0.0000000  1.0000000 )       ( -0.6258407 )

   Cartesian axes

     site n.     atom                  positions (alat units)
         1           Sr  tau(   1) = (   0.8903880   1.2900803   0.9373253  )
         2           Sr  tau(   2) = (   0.3903880   0.9025804   0.9401967  )
         3           Sr  tau(   3) = (   0.1096120   0.4720545   0.3143560  )
         4           Sr  tau(   4) = (   0.6096120   0.8595545   0.3114847  )
         5           P   tau(   5) = (   0.8942640   0.8260233   0.7055077  )
         6           P   tau(   6) = (   0.3942640   1.3666374   1.1720143  )
         7           P   tau(   7) = (   0.1057360   0.9361116   0.5461737  )
         8           P   tau(   8) = (   0.6057360   0.3954975   0.0796670  )
         9           Se  tau(   9) = (   0.4986500   0.3480418   0.3322563  )
        10           Se  tau(  10) = (   0.9986500   0.9835672   0.2935844  )
        11           Se  tau(  11) = (   0.5013500   1.4140931   0.9194250  )
        12           Se  tau(  12) = (   0.0013500   0.7785676   0.9580970  )
        13           Se  tau(  13) = (   0.6995420   1.0275416   1.1998843  )
        14           Se  tau(  14) = (   0.1995420   1.1651191   0.6776378  )
        15           Se  tau(  15) = (   0.3004580   0.7345932   0.0517971  )
        16           Se  tau(  16) = (   0.8004580   0.5970158   0.5740436  )
        17           Se  tau(  17) = (   0.8020890   0.5939023   0.0693031  )
        18           Se  tau(  18) = (   0.3020890   0.7377067   0.5565376  )
        19           Se  tau(  19) = (   0.1979110   1.1682325   1.1823783  )
        20           Se  tau(  20) = (   0.6979110   1.0244282   0.6951438  )

   Crystallographic axes

     site n.     atom                  positions (cryst. coord.)
         1           Sr  tau(   1) = (  0.8903880  0.7161150  0.7488530  )
         2           Sr  tau(   2) = (  0.3903880  0.2838850  0.7511470  )
         3           Sr  tau(   3) = (  0.1096120  0.2838850  0.2511470  )
         4           Sr  tau(   4) = (  0.6096120  0.7161150  0.2488530  )
         5           P   tau(   5) = (  0.8942640  0.3780930  0.5636480  )
         6           P   tau(   6) = (  0.3942640  0.6219070  0.9363520  )
         7           P   tau(   7) = (  0.1057360  0.6219070  0.4363520  )
         8           P   tau(   8) = (  0.6057360  0.3780930  0.0636480  )
         9           Se  tau(   9) = (  0.4986500  0.1325930  0.2654480  )
        10           Se  tau(  10) = (  0.9986500  0.8674070  0.2345520  )
        11           Se  tau(  11) = (  0.5013500  0.8674070  0.7345520  )
        12           Se  tau(  12) = (  0.0013500  0.1325930  0.7654480  )
        13           Se  tau(  13) = (  0.6995420  0.2243100  0.9586180  )
        14           Se  tau(  14) = (  0.1995420  0.7756900  0.5413820  )
        15           Se  tau(  15) = (  0.3004580  0.7756900  0.0413820  )
        16           Se  tau(  16) = (  0.8004580  0.2243100  0.4586180  )
        17           Se  tau(  17) = (  0.8020890  0.6061900  0.0553680  )
        18           Se  tau(  18) = (  0.3020890  0.3938100  0.4446320  )
        19           Se  tau(  19) = (  0.1979110  0.3938100  0.9446320  )
        20           Se  tau(  20) = (  0.6979110  0.6061900  0.5553680  )

     number of k points=    10
                       cart. coord. in units 2pi/alat
        k(    1) = (   0.0000000   0.0000000   0.0000000), wk =   0.0740741
        k(    2) = (   0.0000000   0.0000000   0.2663085), wk =   0.1481481
        k(    3) = (   0.0000000   0.3699252  -0.2544775), wk =   0.1481481
        k(    4) = (   0.0000000   0.3699252   0.0118310), wk =   0.1481481
        k(    5) = (   0.0000000   0.3699252  -0.5207859), wk =   0.1481481
        k(    6) = (   0.3333333   0.0000000   0.0000000), wk =   0.1481481
        k(    7) = (   0.3333333   0.0000000   0.2663085), wk =   0.2962963
        k(    8) = (   0.3333333   0.3699252  -0.2544775), wk =   0.2962963
        k(    9) = (   0.3333333   0.3699252   0.0118310), wk =   0.2962963
        k(   10) = (   0.3333333   0.3699252  -0.5207859), wk =   0.2962963

                       cryst. coord.
        k(    1) = (   0.0000000   0.0000000   0.0000000), wk =   0.0740741
        k(    2) = (   0.0000000   0.0000000   0.3333333), wk =   0.1481481
        k(    3) = (   0.0000000   0.3333333   0.0000000), wk =   0.1481481
        k(    4) = (   0.0000000   0.3333333   0.3333333), wk =   0.1481481
        k(    5) = (   0.0000000   0.3333333  -0.3333333), wk =   0.1481481
        k(    6) = (   0.3333333   0.0000000   0.0000000), wk =   0.1481481
        k(    7) = (   0.3333333   0.0000000   0.3333333), wk =   0.2962963
        k(    8) = (   0.3333333   0.3333333   0.0000000), wk =   0.2962963
        k(    9) = (   0.3333333   0.3333333   0.3333333), wk =   0.2962963
        k(   10) = (   0.3333333   0.3333333  -0.3333333), wk =   0.2962963

     Check: negative core charge=   -0.000001

     Initial potential from superposition of free atoms

     starting charge     131.8639, renormalised to     132.0000

     negative rho (up, down):  2.552E-01 0.000E+00
     Starting wfcs are  116 randomized atomic wfcs

     Self-consistent Calculation

     iteration #  1     ecut=    30.00 Ry     beta= 0.70
     Davidson diagonalization with overlap

     ethr =  1.00E-02,  avg # of iterations =  3.0

     Threshold (ethr) on eigenvalues was too large:
     Diagonalizing with lowered threshold

     Davidson diagonalization with overlap

[...]

     negative rho (up, down):  2.603E-01 0.000E+00

     total energy              =    -861.22568540 Ry
     estimated scf accuracy    <       0.61778873 Ry

[...]

     c_bands:  1 eigenvalues not converged
     ethr =  1.29E-06,  avg # of iterations = 15.6

[...]

     total energy              =    -861.40944630 Ry
     estimated scf accuracy    <       0.00000162 Ry

     iteration #  8     ecut=    30.00 Ry     beta= 0.70
     Davidson diagonalization with overlap

     ethr =  1.23E-09,  avg # of iterations =  3.2

     negative rho (up, down):  2.662E-01 0.000E+00

     End of self-consistent calculation

          k = 0.0000 0.0000 0.0000 ( 10477 PWs)   bands (ev):

   -29.5515 -29.5512 -29.5507 -29.5505 -11.6218 -11.6075 -11.6023 -11.5940
   -11.5937 -11.5726 -11.5642 -11.5620 -11.5603 -11.5505 -11.5451 -11.5445
    -9.7517  -9.5665  -8.6659  -8.6420  -7.2481  -7.1895  -7.1581  -7.1454
    -7.1117  -6.9862  -6.9474  -6.8927  -4.8259  -4.2696  -2.8102  -2.6879
    -0.0581   0.1288   0.2212   0.2989   0.3321   0.5193   0.6514   1.0360
     1.4235   1.4512   2.1043   2.5373   2.6571   2.6992   3.3521   3.3574
     3.3838   3.4012   3.5118   3.5944   3.6166   3.6531   3.7739   4.0247
     4.1224   4.1498   4.2427   4.3029   4.3279   4.3709   4.3740   4.4303
     4.5242   4.6191   7.1535   7.2184   7.4877   7.6843   7.9245   8.1257
     8.1756   8.5776   8.6364   8.6665   8.7068   8.9912   9.0073   9.5642
     9.6013   9.6362   9.7676   9.7992   9.9174  10.1148  10.1620  10.2701
    10.3247  10.3305

     occupation numbers
     1.0000   1.0000   1.0000   1.0000   1.0000   1.0000   1.0000   1.0000
     1.0000   1.0000   1.0000   1.0000   1.0000   1.0000   1.0000   1.0000
     1.0000   1.0000   1.0000   1.0000   1.0000   1.0000   1.0000   1.0000
     1.0000   1.0000   1.0000   1.0000   1.0000   1.0000   1.0000   1.0000
     1.0000   1.0000   1.0000   1.0000   1.0000   1.0000   1.0000   1.0000
     1.0000   1.0000   1.0000   1.0000   1.0000   1.0000   1.0000   1.0000
     1.0000   1.0000   1.0000   1.0000   1.0000   1.0000   1.0000   1.0000
     1.0000   1.0000   1.0000   1.0000   1.0000   1.0000   1.0000   1.0000
     1.0000   1.0000   0.0000   0.0000   0.0000   0.0000   0.0000   0.0000
     0.0000   0.0000   0.0000   0.0000   0.0000   0.0000   0.0000   0.0000
     0.0000   0.0000   0.0000   0.0000   0.0000   0.0000   0.0000   0.0000
     0.0000   0.0000

[...]

          k = 0.3333 0.3699-0.5208 ( 10478 PWs)   bands (ev):

   -29.5512 -29.5511 -29.5508 -29.5508 -11.6223 -11.6190 -11.6024 -11.6002
   -11.5793 -11.5732 -11.5715 -11.5657 -11.5638 -11.5556 -11.5492 -11.5466
    -9.6199  -9.5985  -8.6581  -8.6406  -7.3121  -7.2809  -7.1999  -7.1394
    -7.0449  -7.0216  -6.9750  -6.9464  -4.4426  -4.3726  -2.7451  -2.7196
    -0.0363   0.0242   0.2379   0.2806   0.3969   0.4766   0.9958   1.0439
     1.1044   1.1307   2.4424   2.5874   2.8051   2.9505   3.0043   3.0838
     3.1931   3.2106   3.3610   3.5706   3.6699   3.7307   3.8213   3.8337
     3.9466   4.0401   4.1345   4.2665   4.2840   4.3466   4.4024   4.5257
     4.6708   4.7539   7.0973   7.3270   7.7207   7.8199   7.9921   8.2149
     8.2944   8.3969   8.5188   8.8072   9.0082   9.0741   9.1926   9.3687
     9.4716   9.7097   9.7537   9.9219   9.9504  10.0628  10.1970  10.2543
    10.4101  10.4928

     occupation numbers
     1.0000   1.0000   1.0000   1.0000   1.0000   1.0000   1.0000   1.0000
     1.0000   1.0000   1.0000   1.0000   1.0000   1.0000   1.0000   1.0000
     1.0000   1.0000   1.0000   1.0000   1.0000   1.0000   1.0000   1.0000
     1.0000   1.0000   1.0000   1.0000   1.0000   1.0000   1.0000   1.0000
     1.0000   1.0000   1.0000   1.0000   1.0000   1.0000   1.0000   1.0000
     1.0000   1.0000   1.0000   1.0000   1.0000   1.0000   1.0000   1.0000
     1.0000   1.0000   1.0000   1.0000   1.0000   1.0000   1.0000   1.0000
     1.0000   1.0000   1.0000   1.0000   1.0000   1.0000   1.0000   1.0000
     1.0000   1.0000   0.0000   0.0000   0.0000   0.0000   0.0000   0.0000
     0.0000   0.0000   0.0000   0.0000   0.0000   0.0000   0.0000   0.0000
     0.0000   0.0000   0.0000   0.0000   0.0000   0.0000   0.0000   0.0000
     0.0000   0.0000

     highest occupied, lowest unoccupied level (ev):     4.8241    7.0817

!    total energy              =    -861.40944686 Ry
     estimated scf accuracy    <       0.00000018 Ry

     The total energy is the sum of the following terms:
     one-electron contribution =     -72.96452595 Ry
     hartree contribution      =      87.71485267 Ry
     xc contribution           =    -447.26760221 Ry
     ewald contribution        =    -428.89217137 Ry

     convergence has been achieved in   8 iterations

     Writing all to output data dir calculations_bands/myprefix.save/

     General routines

     Parallel routines

   This run was terminated on:   5:13:58  23Jun2023

   JOB DONE.