     Program PWSCF v.7.1 starts on 14Jul2023 at 18:38:22

     Reading input from espresso_21979.pwi
Warning: card &CELL ignored
Warning: card / ignored

     Current dimensions of program PWSCF are:
     Max number of different atomic species (ntypx) = 10
     Max number of k-points (npk) =  40000
     Max angular momentum in pseudopotentials (lmaxx) =  4
     Message from routine setup:
     using ibrav=0 with symmetry is DISCOURAGED, use correct ibrav instead

     K-points division:     npool     =       2
     R & G space division:  proc/nbgrp/npool/nimage =       4
     Subspace diagonalization in iterative solution of the eigenvalue problem:
     a serial algorithm will be used

     Using Slab Decomposition

     bravais-lattice index     =            0
     lattice parameter (alat)  =      17.6043  a.u.
     unit-cell volume          =    1090.8975 (a.u.)^3
     number of atoms/cell      =            8
     number of atomic types    =            3
     number of electrons       =        88.00
     number of Kohn-Sham states=           64
     kinetic-energy cutoff     =      30.0000  Ry
     charge density cutoff     =     240.0000  Ry
     scf convergence threshold =      1.0E-06
     mixing beta               =       0.7000
     number of iterations used =            8  plain     mixing
     Exchange-correlation= PBE
                           (   1   4   3   4   0   0   0)

     celldm(1)=  17.604346  celldm(2)=   0.000000  celldm(3)=   0.000000
     celldm(4)=   0.000000  celldm(5)=   0.000000  celldm(6)=   0.000000

     crystal axes: (cart. coord. in units of alat)
               a(1) = (   1.000000   0.000000   0.000000 )
               a(2) = (  -0.927006   0.375047   0.000000 )
               a(3) = (   0.000000   0.000000   0.533137 )

     reciprocal axes: (cart. coord. in units 2 pi/alat)
               b(1) = (  1.000000  2.471709  0.000000 )
               b(2) = (  0.000000  2.666335  0.000000 )
               b(3) = (  0.000000  0.000000  1.875690 )

     PseudoPot. # 1 for Ca read from file:
     /lustre07/scratch/pragov/crystal_structure_design/utils/SSSP/Ca_pbe_v1.uspp.F.UPF
     MD5 check sum: 403a4c14b9e4d4dfdc3024c9a3812218
     Pseudo is Ultrasoft + core correction, Zval = 10.0
     Generated by new atomic code, or converted to UPF format
     Using radial grid of  845 points,  6 beta functions with:
                l(1) =   0
                l(2) =   0
                l(3) =   1
                l(4) =   1
                l(5) =   2
                l(6) =   2
     Q(r) pseudized with  8 coefficients,  rinner =    1.500   1.500   1.500
                                                       1.500   1.500

     PseudoPot. # 2 for Au read from file:
     /lustre07/scratch/pragov/crystal_structure_design/utils/SSSP/Au_ONCV_PBE-1.0.oncvpsp.upf
     MD5 check sum: d14007822ba0e19f0206237467fc06c2
     Pseudo is Norm-conserving, Zval = 19.0
     Generated using ONCVPSP code by D. R. Hamann
     Using radial grid of 1278 points,  8 beta functions with:
                l(1) =   0
                l(2) =   0
                l(3) =   1
                l(4) =   1
                l(5) =   2
                l(6) =   2
                l(7) =   3
                l(8) =   3

     PseudoPot. # 3 for N  read from file:
     /lustre07/scratch/pragov/crystal_structure_design/utils/SSSP/N.pbe-n-radius_5.UPF
     MD5 check sum: 16739722b17309cd8fe442a2ace49922
     Pseudo is Ultrasoft + core correction, Zval =  5.0
     Generated using "atomic" code by A. Dal Corso  v.5.1
     Using radial grid of 1085 points,  4 beta functions with:
                l(1) =   0
                l(2) =   0
                l(3) =   1
                l(4) =   1
     Q(r) pseudized with 0 coefficients

     atomic species   valence    mass     pseudopotential
        Ca            10.00    40.07800     Ca( 1.00)
        Au            19.00   196.96657     Au( 1.00)
        N              5.00    14.00700     N ( 1.00)

      4 Sym. Ops., with inversion, found ( 2 have fractional translation)

                                    s                        frac. trans.

      isym =  1     identity

 cryst.   s( 1) = (     1          0          0      )
                  (     0          1          0      )
                  (     0          0          1      )

 cart.    s( 1) = (  1.0000000  0.0000000  0.0000000 )
                  (  0.0000000  1.0000000  0.0000000 )
                  (  0.0000000  0.0000000  1.0000000 )

      isym =  2     180 deg rotation - cart. axis [0,0,1]

 cryst.   s( 2) = (    -1          0          0      )    f =( -0.0000000 )
                  (     0         -1          0      )       (  0.0000000 )
                  (     0          0          1      )       (  0.5000000 )

 cart.    s( 2) = ( -1.0000000 -0.0000000  0.0000000 )    f =( -0.0000000 )
                  (  0.0000000 -1.0000000  0.0000000 )       (  0.0000000 )
                  (  0.0000000  0.0000000  1.0000000 )       (  0.2665686 )

      isym =  3     inversion

 cryst.   s( 3) = (    -1          0          0      )
                  (     0         -1          0      )
                  (     0          0         -1      )

 cart.    s( 3) = ( -1.0000000 -0.0000000  0.0000000 )
                  (  0.0000000 -1.0000000  0.0000000 )
                  (  0.0000000  0.0000000 -1.0000000 )

      isym =  4     inv. 180 deg rotation - cart. axis [0,0,1]

 cryst.   s( 4) = (     1          0          0      )    f =(  0.0000000 )
                  (     0          1          0      )       (  0.0000000 )
                  (     0          0         -1      )       (  0.5000000 )

 cart.    s( 4) = (  1.0000000  0.0000000  0.0000000 )    f =(  0.0000000 )
                  (  0.0000000  1.0000000  0.0000000 )       (  0.0000000 )
                  (  0.0000000  0.0000000 -1.0000000 )       (  0.2665686 )

   Cartesian axes

     site n.     atom                  positions (alat units)
         1           Ca  tau(   1) = (   0.2382854   0.1482499   0.1332843  )
         2           Ca  tau(   2) = (  -0.1652913   0.2267967   0.3998529  )
         3           Ca  tau(   3) = (   0.5830210   0.0811552   0.1332843  )
         4           Ca  tau(   4) = (  -0.5100269   0.2938914   0.3998529  )
         5           Au  tau(   5) = (  -0.8478022   0.3596314   0.3998529  )
         6           Au  tau(   6) = (   0.9207962   0.0154152   0.1332843  )
         7           N   tau(   7) = (   0.6270280   0.0725903   0.3998529  )
         8           N   tau(   8) = (  -0.5540340   0.3024563   0.1332843  )

   Crystallographic axes

     site n.     atom                  positions (cryst. coord.)
         1           Ca  tau(   1) = (  0.6047160  0.3952840  0.2500000  )
         2           Ca  tau(   2) = (  0.3952840  0.6047160  0.7500000  )
         3           Ca  tau(   3) = (  0.7836130  0.2163870  0.2500000  )
         4           Ca  tau(   4) = (  0.2163870  0.7836130  0.7500000  )
         5           Au  tau(   5) = (  0.0411020  0.9588980  0.7500000  )
         6           Au  tau(   6) = (  0.9588980  0.0411020  0.2500000  )
         7           N   tau(   7) = (  0.8064500  0.1935500  0.7500000  )
         8           N   tau(   8) = (  0.1935500  0.8064500  0.2500000  )

     number of k points=    10
                       cart. coord. in units 2pi/alat
        k(    1) = (   0.0000000   0.0000000   0.0000000), wk =   0.0740741
        k(    2) = (   0.0000000   0.0000000   0.6252299), wk =   0.1481481
        k(    3) = (   0.0000000   0.8887785   0.0000000), wk =   0.1481481
        k(    4) = (   0.0000000   0.8887785   0.6252299), wk =   0.2962963
        k(    5) = (   0.3333333   0.8239029   0.0000000), wk =   0.1481481
        k(    6) = (   0.3333333   0.8239029   0.6252299), wk =   0.2962963
        k(    7) = (   0.3333333   1.7126814   0.0000000), wk =   0.1481481
        k(    8) = (   0.3333333   1.7126814   0.6252299), wk =   0.2962963
        k(    9) = (   0.3333333  -0.0648755   0.0000000), wk =   0.1481481
        k(   10) = (   0.3333333  -0.0648755   0.6252299), wk =   0.2962963

                       cryst. coord.
        k(    1) = (   0.0000000   0.0000000   0.0000000), wk =   0.0740741
        k(    2) = (   0.0000000   0.0000000   0.3333333), wk =   0.1481481
        k(    3) = (   0.0000000   0.3333333   0.0000000), wk =   0.1481481
        k(    4) = (   0.0000000   0.3333333   0.3333333), wk =   0.2962963
        k(    5) = (   0.3333333   0.0000000   0.0000000), wk =   0.1481481
        k(    6) = (   0.3333333   0.0000000   0.3333333), wk =   0.2962963
        k(    7) = (   0.3333333   0.3333333   0.0000000), wk =   0.1481481
        k(    8) = (   0.3333333   0.3333333   0.3333333), wk =   0.2962963
        k(    9) = (   0.3333333  -0.3333333   0.0000000), wk =   0.1481481
        k(   10) = (   0.3333333  -0.3333333   0.3333333), wk =   0.2962963

     Check: negative core charge=   -0.000002

     Initial potential from superposition of free atoms

     starting charge      87.9780, renormalised to      88.0000
     Starting wfcs are   68 randomized atomic wfcs

     Self-consistent Calculation

     iteration #  1     ecut=    30.00 Ry     beta= 0.70
     Davidson diagonalization with overlap

     ethr =  1.00E-02,  avg # of iterations =  3.5

     total energy              =    -888.06368031 Ry
     estimated scf accuracy    <       2.70960562 Ry

[...]

     total energy              =    -889.61916375 Ry
     estimated scf accuracy    <       0.00000253 Ry

     iteration # 12     ecut=    30.00 Ry     beta= 0.70
     Davidson diagonalization with overlap

     ethr =  2.87E-09,  avg # of iterations =  3.7

     End of self-consistent calculation

          k = 0.0000 0.0000 0.0000 (  3039 PWs)   bands (ev):

   -96.2952 -96.2917 -47.3384 -47.3292 -47.3114 -47.3095 -47.3013 -47.2691
   -30.1091 -30.1076 -29.4275 -29.3422 -11.2889 -11.2792 -11.2131 -11.1970
   -10.9821 -10.9785 -10.6210 -10.5340 -10.5094 -10.4925 -10.3415 -10.1992
    -1.8211  -1.5311   3.7524   5.1985   5.3292   5.3360   5.6228   5.8535
     6.1659   6.3739   6.4123   6.4736   6.7998   7.0175   8.3779   8.8508
     9.0657   9.2529   9.2645   9.3034  10.6632  10.9347  11.9548  13.7377
    13.7696  14.2167  14.2488  14.3581  14.5826  14.9166  15.2413  15.3993
    15.4428  15.4435  15.6129  15.7179  15.7413  15.8442  15.9751  16.9620

     occupation numbers
     1.0000   1.0000   1.0000   1.0000   1.0000   1.0000   1.0000   1.0000
     1.0000   1.0000   1.0000   1.0000   1.0000   1.0000   1.0000   1.0000
     1.0000   1.0000   1.0000   1.0000   1.0000   1.0000   1.0000   1.0000
     1.0000   1.0000   1.0000   1.0000   1.0000   1.0000   1.0000   1.0000
     1.0000   1.0000   1.0000   1.0000   1.0000   1.0000   1.0000   1.0000
     1.0000   1.0000   1.0000   1.0000   0.0000   0.0000   0.0000   0.0000
     0.0000   0.0000   0.0000   0.0000   0.0000   0.0000   0.0000   0.0000
     0.0000   0.0000   0.0000   0.0000   0.0000   0.0000   0.0000   0.0000

[...]

          k = 0.3333-0.0649 0.6252 (  3023 PWs)   bands (ev):

   -96.2943 -96.2925 -47.3392 -47.3322 -47.3083 -47.3026 -47.2969 -47.2786
   -30.1082 -30.1078 -29.4062 -29.3635 -11.2922 -11.2910 -11.2291 -11.2034
   -10.9803 -10.9786 -10.6391 -10.5808 -10.4687 -10.3866 -10.3846 -10.2597
    -1.5780  -1.4421   4.3267   4.9369   5.3036   5.4530   5.7894   5.8136
     5.8971   6.0354   6.5181   6.7539   6.8241   7.3814   7.7813   8.2675
     8.4963   8.9270   9.1684   9.2029  10.1726  10.9770  12.4145  13.2526
    13.6681  13.8572  14.2929  14.4335  14.5299  14.6585  15.0492  15.3813
    15.4361  15.6760  15.7861  16.0561  16.1303  16.7774  16.8078  16.9676

     occupation numbers
     1.0000   1.0000   1.0000   1.0000   1.0000   1.0000   1.0000   1.0000
     1.0000   1.0000   1.0000   1.0000   1.0000   1.0000   1.0000   1.0000
     1.0000   1.0000   1.0000   1.0000   1.0000   1.0000   1.0000   1.0000
     1.0000   1.0000   1.0000   1.0000   1.0000   1.0000   1.0000   1.0000
     1.0000   1.0000   1.0000   1.0000   1.0000   1.0000   1.0000   1.0000
     1.0000   1.0000   1.0000   1.0000   0.0000   0.0000   0.0000   0.0000
     0.0000   0.0000   0.0000   0.0000   0.0000   0.0000   0.0000   0.0000
     0.0000   0.0000   0.0000   0.0000   0.0000   0.0000   0.0000   0.0000

     highest occupied, lowest unoccupied level (ev):     9.5902   10.1726

!    total energy              =    -889.61916428 Ry
     estimated scf accuracy    <       0.00000018 Ry

     The total energy is the sum of the following terms:
     one-electron contribution =    -441.14919997 Ry
     hartree contribution      =     243.44683829 Ry
     xc contribution           =    -109.28170736 Ry
     ewald contribution        =    -582.63509524 Ry

     convergence has been achieved in  12 iterations

     Writing all to output data dir bands_nm/myprefix.save/

     General routines

     Parallel routines

   This run was terminated on:  18:38:38  14Jul2023

   JOB DONE.