     Program PWSCF v.7.1 starts on 13Jul2023 at  8:13:43

     Reading input from espresso_3275.pwi
Warning: card &CELL ignored
Warning: card / ignored

     Current dimensions of program PWSCF are:
     Max number of different atomic species (ntypx) = 10
     Max number of k-points (npk) =  40000
     Max angular momentum in pseudopotentials (lmaxx) =  4
     Message from routine setup:
     using ibrav=0 with symmetry is DISCOURAGED, use correct ibrav instead

     K-points division:     npool     =       2
     R & G space division:  proc/nbgrp/npool/nimage =       8
     Subspace diagonalization in iterative solution of the eigenvalue problem:
     a serial algorithm will be used

     Using Slab Decomposition

     bravais-lattice index     =            0
     lattice parameter (alat)  =       8.9981  a.u.
     unit-cell volume          =     957.0961 (a.u.)^3
     number of atoms/cell      =           16
     number of atomic types    =            3
     number of electrons       =        28.00
     number of Kohn-Sham states=           64
     kinetic-energy cutoff     =      30.0000  Ry
     charge density cutoff     =     240.0000  Ry
     scf convergence threshold =      1.0E-06
     mixing beta               =       0.7000
     number of iterations used =            8  plain     mixing
     Exchange-correlation= PBE
                           (   1   4   3   4   0   0   0)

     celldm(1)=   8.998062  celldm(2)=   0.000000  celldm(3)=   0.000000
     celldm(4)=   0.000000  celldm(5)=   0.000000  celldm(6)=   0.000000

     crystal axes: (cart. coord. in units of alat)
               a(1) = (   1.000000   0.000000   0.000000 )
               a(2) = (  -0.188900   0.981996   0.000000 )
               a(3) = (   0.000000   0.000000   1.337823 )

     reciprocal axes: (cart. coord. in units 2 pi/alat)
               b(1) = (  1.000000  0.192363  0.000000 )
               b(2) = (  0.000000  1.018334  0.000000 )
               b(3) = (  0.000000  0.000000  0.747483 )

     PseudoPot. # 1 for B  read from file:
     /lustre07/scratch/pragov/crystal_structure_design/utils/SSSP/b_pbe_v1.4.uspp.F.UPF
     MD5 check sum: cc6de2960df11db49a60e589f9ebb39b
     Pseudo is Ultrasoft + core correction, Zval =  3.0
     Generated by new atomic code, or converted to UPF format
     Using radial grid of  781 points,  4 beta functions with:
                l(1) =   0
                l(2) =   0
                l(3) =   1
                l(4) =   1
     Q(r) pseudized with  8 coefficients,  rinner =    1.100   1.100   1.100

     PseudoPot. # 2 for H  read from file:
     /lustre07/scratch/pragov/crystal_structure_design/utils/SSSP/H.pbe-rrkjus_psl.1.0.0.UPF
     MD5 check sum: f52b6d4d1c606e5624b1dc7b2218f220
     Pseudo is Ultrasoft, Zval =  1.0
     Generated using "atomic" code by A. Dal Corso  v.5.1
     Using radial grid of  929 points,  2 beta functions with:
                l(1) =   0
                l(2) =   0
     Q(r) pseudized with 0 coefficients

     PseudoPot. # 3 for N  read from file:
     /lustre07/scratch/pragov/crystal_structure_design/utils/SSSP/N.pbe-n-radius_5.UPF
     MD5 check sum: 16739722b17309cd8fe442a2ace49922
     Pseudo is Ultrasoft + core correction, Zval =  5.0
     Generated using "atomic" code by A. Dal Corso  v.5.1
     Using radial grid of 1085 points,  4 beta functions with:
                l(1) =   0
                l(2) =   0
                l(3) =   1
                l(4) =   1
     Q(r) pseudized with 0 coefficients

     atomic species   valence    mass     pseudopotential
        B              3.00    10.81000     B ( 1.00)
        H              1.00     1.00800     H ( 1.00)
        N              5.00    14.00700     N ( 1.00)

      2 Sym. Ops. (no inversion) found ( 1 have fractional translation)

                                    s                        frac. trans.

      isym =  1     identity

 cryst.   s( 1) = (     1          0          0      )
                  (     0          1          0      )
                  (     0          0          1      )

 cart.    s( 1) = (  1.0000000  0.0000000  0.0000000 )
                  (  0.0000000  1.0000000  0.0000000 )
                  (  0.0000000  0.0000000  1.0000000 )

      isym =  2     180 deg rotation - cart. axis [0,0,1]

 cryst.   s( 2) = (    -1          0          0      )    f =( -0.0000000 )
                  (     0         -1          0      )       (  0.0000000 )
                  (     0          0          1      )       (  0.5000000 )

 cart.    s( 2) = ( -1.0000000 -0.0000000  0.0000000 )    f =( -0.0000000 )
                  (  0.0000000 -1.0000000  0.0000000 )       (  0.0000000 )
                  (  0.0000000  0.0000000  1.0000000 )       (  0.6689116 )

   Cartesian axes

     site n.     atom                  positions (alat units)
         1           B   tau(   1) = (   0.0092242   0.8183515   0.9249000  )
         2           B   tau(   2) = (   0.8018757   0.1636448   0.2559885  )
         3           H   tau(   3) = (   0.2884210   0.8137725   1.2967426  )
         4           H   tau(   4) = (   0.0664611   0.5450463   1.2967426  )
         5           H   tau(   5) = (   0.5226789   0.1682238   0.6278310  )
         6           H   tau(   6) = (   0.7446388   0.4369501   0.6278310  )
         7           H   tau(   7) = (  -0.0436843   0.8620523   0.0405120  )
         8           H   tau(   8) = (   0.8547842   0.1199440   0.7094235  )
         9           H   tau(   9) = (   0.1665953   0.6883676   0.7702891  )
        10           H   tau(  10) = (   0.6445046   0.2936287   0.1013776  )
        11           H   tau(  11) = (   0.2201806   0.0907001   0.8898170  )
        12           H   tau(  12) = (   0.7636249   0.7486465   0.8898170  )
        13           H   tau(  13) = (   0.5909193   0.8912962   0.2209054  )
        14           H   tau(  14) = (   0.0474751   0.2333498   0.2209054  )
        15           N   tau(  15) = (   0.0877106   0.7535241   1.2438558  )
        16           N   tau(  16) = (   0.7233893   0.2284722   0.5749442  )

   Crystallographic axes

     site n.     atom                  positions (cryst. coord.)
         1           B   tau(   1) = (  0.1666450  0.8333550  0.6913470  )
         2           B   tau(   2) = (  0.8333550  0.1666450  0.1913470  )
         3           H   tau(   3) = (  0.4449610  0.8286920  0.9692930  )
         4           H   tau(   4) = (  0.1713080  0.5550390  0.9692930  )
         5           H   tau(   5) = (  0.5550390  0.1713080  0.4692930  )
         6           H   tau(   6) = (  0.8286920  0.4449610  0.4692930  )
         7           H   tau(   7) = (  0.1221430  0.8778570  0.0302820  )
         8           H   tau(   8) = (  0.8778570  0.1221430  0.5302820  )
         9           H   tau(   9) = (  0.2990120  0.7009880  0.5757780  )
        10           H   tau(  10) = (  0.7009880  0.2990120  0.0757780  )
        11           H   tau(  11) = (  0.2376280  0.0923630  0.6651230  )
        12           H   tau(  12) = (  0.9076370  0.7623720  0.6651230  )
        13           H   tau(  13) = (  0.7623720  0.9076370  0.1651230  )
        14           H   tau(  14) = (  0.0923630  0.2376280  0.1651230  )
        15           N   tau(  15) = (  0.2326610  0.7673390  0.9297610  )
        16           N   tau(  16) = (  0.7673390  0.2326610  0.4297610  )

     number of k points=    10
                       cart. coord. in units 2pi/alat
        k(    1) = (   0.0000000   0.0000000   0.0000000), wk =   0.0740741
        k(    2) = (   0.0000000   0.0000000   0.2491610), wk =   0.1481481
        k(    3) = (   0.0000000   0.3394446   0.0000000), wk =   0.1481481
        k(    4) = (   0.0000000   0.3394446   0.2491610), wk =   0.2962963
        k(    5) = (   0.3333333   0.0641211   0.0000000), wk =   0.1481481
        k(    6) = (   0.3333333   0.0641211   0.2491610), wk =   0.2962963
        k(    7) = (   0.3333333   0.4035657   0.0000000), wk =   0.1481481
        k(    8) = (   0.3333333   0.4035657   0.2491610), wk =   0.2962963
        k(    9) = (   0.3333333  -0.2753235   0.0000000), wk =   0.1481481
        k(   10) = (   0.3333333  -0.2753235   0.2491610), wk =   0.2962963

                       cryst. coord.
        k(    1) = (   0.0000000   0.0000000   0.0000000), wk =   0.0740741
        k(    2) = (   0.0000000   0.0000000   0.3333333), wk =   0.1481481
        k(    3) = (   0.0000000   0.3333333   0.0000000), wk =   0.1481481
        k(    4) = (   0.0000000   0.3333333   0.3333333), wk =   0.2962963
        k(    5) = (   0.3333333   0.0000000   0.0000000), wk =   0.1481481
        k(    6) = (   0.3333333   0.0000000   0.3333333), wk =   0.2962963
        k(    7) = (   0.3333333   0.3333333   0.0000000), wk =   0.1481481
        k(    8) = (   0.3333333   0.3333333   0.3333333), wk =   0.2962963
        k(    9) = (   0.3333333  -0.3333333   0.0000000), wk =   0.1481481
        k(   10) = (   0.3333333  -0.3333333   0.3333333), wk =   0.2962963

     Check: negative core charge=   -0.000002

     Initial potential from superposition of free atoms

     starting charge      27.9993, renormalised to      28.0000
     Starting wfcs are   28 randomized atomic wfcs +   36 random wfcs

     Self-consistent Calculation

     iteration #  1     ecut=    30.00 Ry     beta= 0.70
     Davidson diagonalization with overlap

     ethr =  1.00E-02,  avg # of iterations =  7.1

     total energy              =     -67.03745953 Ry
     estimated scf accuracy    <       1.56459545 Ry

[...]

     total energy              =     -67.44416177 Ry
     estimated scf accuracy    <       0.00005522 Ry

     iteration #  6     ecut=    30.00 Ry     beta= 0.70
     Davidson diagonalization with overlap

     ethr =  1.97E-07,  avg # of iterations =  3.1

     End of self-consistent calculation

          k = 0.0000 0.0000 0.0000 (  2653 PWs)   bands (ev):

   -18.8130 -18.7151  -9.0998  -8.6973  -8.6738  -8.3791  -8.2837  -8.1404
    -5.7850  -4.4889  -3.4286  -3.0312  -2.4616  -2.4443   3.8855   4.0247
     5.2171   5.6972   6.0553   6.8142   6.9375   7.4106   7.8668   8.9252
     9.0031   9.3940  10.2510  10.8542  10.9577  11.0868  11.5762  12.3477
    12.4121  13.3124  14.6762  14.8120  14.8948  15.0886  15.7787  16.3684
    16.4284  16.6136  17.5713  17.7886  18.2036  19.0475  19.6913  19.7379
    19.8548  19.8820  20.1697  21.1382  21.5713  21.6475  22.2199  22.9526
    22.9717  23.3206  23.4358  24.1432  24.2863  24.5861  25.7706  26.2470

     occupation numbers
     1.0000   1.0000   1.0000   1.0000   1.0000   1.0000   1.0000   1.0000
     1.0000   1.0000   1.0000   1.0000   1.0000   1.0000   0.0000   0.0000
     0.0000   0.0000   0.0000   0.0000   0.0000   0.0000   0.0000   0.0000
     0.0000   0.0000   0.0000   0.0000   0.0000   0.0000   0.0000   0.0000
     0.0000   0.0000   0.0000   0.0000   0.0000   0.0000   0.0000   0.0000
     0.0000   0.0000   0.0000   0.0000   0.0000   0.0000   0.0000   0.0000
     0.0000   0.0000   0.0000   0.0000   0.0000   0.0000   0.0000   0.0000
     0.0000   0.0000   0.0000   0.0000   0.0000   0.0000   0.0000   0.0000

[...]

          k = 0.3333-0.2753 0.2492 (  2649 PWs)   bands (ev):

   -18.7559 -18.7304  -9.1459  -8.9542  -8.7458  -8.5344  -8.2061  -8.0978
    -5.0543  -4.7638  -3.1913  -3.1814  -2.9396  -2.8229   4.3117   4.6669
     5.2951   6.1573   6.5145   6.9962   7.7079   8.0951   8.5163   8.7155
     8.9734   8.9800  10.3389  10.7092  10.9333  11.2939  11.9952  12.1399
    12.4700  13.0522  13.3556  13.6025  14.0323  14.6423  15.4495  15.7417
    16.1636  16.7705  17.0315  17.4106  18.0901  18.6231  19.1015  19.6907
    19.8629  20.0691  20.9777  21.1721  21.4225  21.5059  21.9448  22.8274
    22.9109  23.5685  23.8377  23.8975  24.5620  24.9355  25.0677  25.5650

     occupation numbers
     1.0000   1.0000   1.0000   1.0000   1.0000   1.0000   1.0000   1.0000
     1.0000   1.0000   1.0000   1.0000   1.0000   1.0000   0.0000   0.0000
     0.0000   0.0000   0.0000   0.0000   0.0000   0.0000   0.0000   0.0000
     0.0000   0.0000   0.0000   0.0000   0.0000   0.0000   0.0000   0.0000
     0.0000   0.0000   0.0000   0.0000   0.0000   0.0000   0.0000   0.0000
     0.0000   0.0000   0.0000   0.0000   0.0000   0.0000   0.0000   0.0000
     0.0000   0.0000   0.0000   0.0000   0.0000   0.0000   0.0000   0.0000
     0.0000   0.0000   0.0000   0.0000   0.0000   0.0000   0.0000   0.0000

     highest occupied, lowest unoccupied level (ev):    -2.4443    3.6286

!    total energy              =     -67.44417049 Ry
     estimated scf accuracy    <       0.00000093 Ry

     The total energy is the sum of the following terms:
     one-electron contribution =     -49.63694491 Ry
     hartree contribution      =      31.80198269 Ry
     xc contribution           =     -25.43803341 Ry
     ewald contribution        =     -24.17117485 Ry

     convergence has been achieved in   6 iterations

     Writing all to output data dir bands_nm/myprefix.save/

     General routines

     Parallel routines

   This run was terminated on:   8:13:49  13Jul2023

   JOB DONE.