     Program PWSCF v.7.0 starts on  5Jun2023 at  1: 2: 8

     K-points division:     npool     =       2
     R & G space division:  proc/nbgrp/npool/nimage =       4

     Reading input from espresso_8098.pwi
Warning: card &CELL ignored
Warning: card / ignored

     Current dimensions of program PWSCF are:
     Max number of different atomic species (ntypx) = 10
     Max number of k-points (npk) =  40000
     Max angular momentum in pseudopotentials (lmaxx) =  4
     file Ba.pbe-spn-kjpaw_psl.1.0.0.UPF: wavefunction(s)  5S 6S renormalized
     file O.pbe-n-kjpaw_psl.0.1.UPF: wavefunction(s)  2P renormalized
     Message from routine setup:
     using ibrav=0 with symmetry is DISCOURAGED, use correct ibrav instead

     Using Slab Decomposition

     bravais-lattice index     =            0
     lattice parameter (alat)  =       8.0006  a.u.
     unit-cell volume          =     990.4150 (a.u.)^3
     number of atoms/cell      =           10
     number of atomic types    =            4
     number of electrons       =        80.00
     number of Kohn-Sham states=           64
     kinetic-energy cutoff     =      30.0000  Ry
     charge density cutoff     =     240.0000  Ry
     scf convergence threshold =      1.0E-06
     mixing beta               =       0.7000
     number of iterations used =            8  plain     mixing
     Exchange-correlation= SLA  PW   PBX  PBC
                           (   1   4   3   4   0   0   0)

     celldm(1)=   8.000589  celldm(2)=   0.000000  celldm(3)=   0.000000
     celldm(4)=   0.000000  celldm(5)=   0.000000  celldm(6)=   0.000000

     crystal axes: (cart. coord. in units of alat)
               a(1) = (   1.000000   0.000000   0.000000 )
               a(2) = (   0.000000   1.390746   0.000000 )
               a(3) = (   0.000000  -0.019871   1.390604 )

     reciprocal axes: (cart. coord. in units 2 pi/alat)
               b(1) = (  1.000000  0.000000  0.000000 )
               b(2) = (  0.000000  0.719039  0.010275 )
               b(3) = (  0.000000  0.000000  0.719112 )

     PseudoPot. # 1 for Ba read from file:
     /home/pragov/projects/rrg-bengioy-ad/pragov/crystal_structure_design/SSSP/Ba.pbe-spn-kjpaw_psl.1.0.0.UPF
     MD5 check sum: c432291d3e53af55f19d5e8866385beb
     Pseudo is Projector augmented-wave + core cor, Zval = 10.0
     Generated using "atomic" code by A. Dal Corso  v.5.1
     Shape of augmentation charge: PSQ
     Using radial grid of 1251 points,  7 beta functions with:
                l(1) =   0
                l(2) =   0
                l(3) =   0
                l(4) =   1
                l(5) =   1
                l(6) =   2
                l(7) =   2
     Q(r) pseudized with 0 coefficients

     PseudoPot. # 2 for Ca read from file:
     /home/pragov/projects/rrg-bengioy-ad/pragov/crystal_structure_design/SSSP/Ca_pbe_v1.uspp.F.UPF
     MD5 check sum: 403a4c14b9e4d4dfdc3024c9a3812218
     Pseudo is Ultrasoft + core correction, Zval = 10.0
     Generated by new atomic code, or converted to UPF format
     Using radial grid of  845 points,  6 beta functions with:
                l(1) =   0
                l(2) =   0
                l(3) =   1
                l(4) =   1
                l(5) =   2
                l(6) =   2
     Q(r) pseudized with  8 coefficients,  rinner =    1.500   1.500   1.500
                                                       1.500   1.500

     PseudoPot. # 3 for Zr read from file:
     /home/pragov/projects/rrg-bengioy-ad/pragov/crystal_structure_design/SSSP/Zr_pbe_v1.uspp.F.UPF
     MD5 check sum: 5db81b1e868ab7776c4564c113de050b
     Pseudo is Ultrasoft + core correction, Zval = 12.0
     Generated by new atomic code, or converted to UPF format
     Using radial grid of  887 points,  6 beta functions with:
                l(1) =   0
                l(2) =   0
                l(3) =   1
                l(4) =   1
                l(5) =   2
                l(6) =   2
     Q(r) pseudized with  6 coefficients,  rinner =    1.200   1.200   1.200
                                                       1.200   1.200

     PseudoPot. # 4 for O  read from file:
     /home/pragov/projects/rrg-bengioy-ad/pragov/crystal_structure_design/SSSP/O.pbe-n-kjpaw_psl.0.1.UPF
     MD5 check sum: 0234752ac141de4415c5fc33072bef88
     Pseudo is Projector augmented-wave + core cor, Zval =  6.0
     Generated using "atomic" code by A. Dal Corso  v.5.0.99 svn rev. 10869
     Shape of augmentation charge: BESSEL
     Using radial grid of 1095 points,  4 beta functions with:
                l(1) =   0
                l(2) =   0
                l(3) =   1
                l(4) =   1
     Q(r) pseudized with 0 coefficients

     atomic species   valence    mass     pseudopotential
        Ba            10.00   137.32700     Ba( 1.00)
        Ca            10.00    40.07800     Ca( 1.00)
        Zr            12.00    91.22400     Zr( 1.00)
        O              6.00    15.99900     O ( 1.00)

      4 Sym. Ops., with inversion, found

                                    s                        frac. trans.

      isym =  1     identity

 cryst.   s( 1) = (     1          0          0      )
                  (     0          1          0      )
                  (     0          0          1      )

 cart.    s( 1) = (  1.0000000  0.0000000  0.0000000 )
                  (  0.0000000  1.0000000  0.0000000 )
                  (  0.0000000  0.0000000  1.0000000 )

      isym =  2     180 deg rotation - cart. axis [1,0,0]

[...]

      isym =  3     inversion

[...]

      isym =  4     inv. 180 deg rotation - cart. axis [1,0,0]

 cryst.   s( 4) = (    -1          0          0      )
                  (     0          1          0      )
                  (     0          0          1      )

 cart.    s( 4) = ( -1.0000000  0.0000000  0.0000000 )
                  (  0.0000000  1.0000000  0.0000000 )
                  (  0.0000000  0.0000000  1.0000000 )

   Cartesian axes

     site n.     atom                  positions (alat units)
         1           Ba  tau(   1) = (   0.5000000   0.6854374   0.6953021  )
         2           Ca  tau(   2) = (   0.5000000   0.0000000   0.0000000  )
         3           Zr  tau(   3) = (   0.0000000  -0.0099356   0.6953021  )
         4           Zr  tau(   4) = (   0.0000000   0.6953730   0.0000000  )
         5           O   tau(   5) = (   0.5000000  -0.0099356   0.6953021  )
         6           O   tau(   6) = (   0.5000000   0.6953730   0.0000000  )
         7           O   tau(   7) = (   0.0000000   0.3966295   0.9800125  )
         8           O   tau(   8) = (   0.0000000   0.9742453   0.4105916  )
         9           O   tau(   9) = (   0.0000000   1.1068506   1.1227802  )
        10           O   tau(  10) = (   0.0000000   0.2640242   0.2678240  )

   Crystallographic axes

     site n.     atom                  positions (cryst. coord.)
         1           Ba  tau(   1) = (  0.5000000  0.5000000  0.5000000  )
         2           Ca  tau(   2) = (  0.5000000  0.0000000  0.0000000  )
         3           Zr  tau(   3) = (  0.0000000  0.0000000  0.5000000  )
         4           Zr  tau(   4) = (  0.0000000  0.5000000  0.0000000  )
         5           O   tau(   5) = (  0.5000000  0.0000000  0.5000000  )
         6           O   tau(   6) = (  0.5000000  0.5000000  0.0000000  )
         7           O   tau(   7) = (  0.0000000  0.2952613  0.7047387  )
         8           O   tau(   8) = (  0.0000000  0.7047387  0.2952613  )
         9           O   tau(   9) = (  0.0000000  0.8074046  0.8074046  )
        10           O   tau(  10) = (  0.0000000  0.1925954  0.1925954  )

     number of k points=    10
                       cart. coord. in units 2pi/alat
        k(    1) = (   0.0000000   0.0000000   0.0000000), wk =   0.0740741
        k(    2) = (   0.0000000   0.0000000   0.2397040), wk =   0.1481481
        k(    3) = (   0.0000000   0.2396795   0.0034249), wk =   0.1481481
        k(    4) = (   0.0000000   0.2396795   0.2431289), wk =   0.1481481
        k(    5) = (   0.0000000   0.2396795  -0.2362790), wk =   0.1481481
        k(    6) = (   0.3333333   0.0000000   0.0000000), wk =   0.1481481
        k(    7) = (   0.3333333   0.0000000   0.2397040), wk =   0.2962963
        k(    8) = (   0.3333333   0.2396795   0.0034249), wk =   0.2962963
        k(    9) = (   0.3333333   0.2396795   0.2431289), wk =   0.2962963
        k(   10) = (   0.3333333   0.2396795  -0.2362790), wk =   0.2962963

                       cryst. coord.
        k(    1) = (   0.0000000   0.0000000   0.0000000), wk =   0.0740741
        k(    2) = (   0.0000000   0.0000000   0.3333333), wk =   0.1481481
        k(    3) = (   0.0000000   0.3333333   0.0000000), wk =   0.1481481
        k(    4) = (   0.0000000   0.3333333   0.3333333), wk =   0.1481481
        k(    5) = (   0.0000000   0.3333333  -0.3333333), wk =   0.1481481
        k(    6) = (   0.3333333   0.0000000   0.0000000), wk =   0.1481481
        k(    7) = (   0.3333333   0.0000000   0.3333333), wk =   0.2962963
        k(    8) = (   0.3333333   0.3333333   0.0000000), wk =   0.2962963
        k(    9) = (   0.3333333   0.3333333   0.3333333), wk =   0.2962963
        k(   10) = (   0.3333333   0.3333333  -0.3333333), wk =   0.2962963

     Check: negative core charge=   -0.000012

     Initial potential from superposition of free atoms

     starting charge      79.9732, renormalised to      80.0000

     negative rho (up, down):  1.187E-01 0.000E+00
     Starting wfcs are   65 randomized atomic wfcs
     Checking if some PAW data can be deallocated...

     Self-consistent Calculation

     iteration #  1     ecut=    30.00 Ry     beta= 0.70
     Davidson diagonalization with overlap

     ethr =  1.00E-02,  avg # of iterations =  5.6

     negative rho (up, down):  1.236E-01 0.000E+00

     total energy              =    -959.11829480 Ry
     estimated scf accuracy    <       2.79963578 Ry

[...]

     total energy              =    -960.53701952 Ry
     estimated scf accuracy    <       0.00000127 Ry

     iteration # 10     ecut=    30.00 Ry     beta= 0.70
     Davidson diagonalization with overlap

     ethr =  1.59E-09,  avg # of iterations =  2.0

     negative rho (up, down):  1.276E-01 0.000E+00

     End of self-consistent calculation

          k = 0.0000 0.0000 0.0000 (  2729 PWs)   bands (ev):

   -38.4725 -38.4660 -30.7698 -16.8280 -16.7443 -16.5987 -16.5864 -16.5818
   -16.5518 -16.1894 -11.8120 -11.7415 -11.6375  -7.7110  -7.5406  -7.4370
    -7.3130  -6.6397  -6.4654  -1.6079  -1.3488  -1.2459   5.0916   5.1021
     5.4792   6.3698   6.6594   6.8038   7.1534   7.2605   7.5681   7.7283
     7.9179   7.9972   8.0334   8.0826   8.2338   8.5118   8.5523   8.6282
    11.8748  11.9512  12.3325  13.2838  13.3873  14.0442  14.2091  14.3584
    14.5679  14.5680  15.4865  15.8611  15.9752  16.1408  16.2753  16.6053
    17.1285  17.3178  17.5077  18.3570  18.6582  18.7337  19.7846  20.0481

     occupation numbers
     1.0000   1.0000   1.0000   1.0000   1.0000   1.0000   1.0000   1.0000
     1.0000   1.0000   1.0000   1.0000   1.0000   1.0000   1.0000   1.0000
     1.0000   1.0000   1.0000   1.0000   1.0000   1.0000   1.0000   1.0000
     1.0000   1.0000   1.0000   1.0000   1.0000   1.0000   1.0000   1.0000
     1.0000   1.0000   1.0000   1.0000   1.0000   1.0000   1.0000   1.0000
     0.0000   0.0000   0.0000   0.0000   0.0000   0.0000   0.0000   0.0000
     0.0000   0.0000   0.0000   0.0000   0.0000   0.0000   0.0000   0.0000
     0.0000   0.0000   0.0000   0.0000   0.0000   0.0000   0.0000   0.0000

[...]

          k = 0.3333 0.2397-0.2363 (  2758 PWs)   bands (ev):

   -38.4683 -38.4661 -30.7684 -16.8430 -16.7671 -16.7560 -16.6987 -16.6057
   -16.5611 -16.1199 -11.8147 -11.7343 -11.6910  -7.6140  -7.1311  -6.8720
    -6.8586  -6.7320  -6.6444  -1.4466  -1.3784  -1.3105   5.0832   5.3103
     5.6554   5.6977   5.7097   5.8256   6.3609   6.3812   6.7652   7.0559
     7.4080   7.5324   7.7070   7.9452   8.0549   8.0761   8.3909   8.5598
    13.5399  13.7598  13.9307  14.0158  14.2762  14.6276  14.7298  14.9921
    15.1380  15.2094  15.3012  16.0939  16.1953  16.2690  16.9061  17.2581
    17.5435  17.7695  17.9875  18.5329  18.8570  18.9629  19.6960  19.9985

     occupation numbers
     1.0000   1.0000   1.0000   1.0000   1.0000   1.0000   1.0000   1.0000
     1.0000   1.0000   1.0000   1.0000   1.0000   1.0000   1.0000   1.0000
     1.0000   1.0000   1.0000   1.0000   1.0000   1.0000   1.0000   1.0000
     1.0000   1.0000   1.0000   1.0000   1.0000   1.0000   1.0000   1.0000
     1.0000   1.0000   1.0000   1.0000   1.0000   1.0000   1.0000   1.0000
     0.0000   0.0000   0.0000   0.0000   0.0000   0.0000   0.0000   0.0000
     0.0000   0.0000   0.0000   0.0000   0.0000   0.0000   0.0000   0.0000
     0.0000   0.0000   0.0000   0.0000   0.0000   0.0000   0.0000   0.0000

     highest occupied, lowest unoccupied level (ev):     8.6282   11.8748

!    total energy              =    -960.53701975 Ry
     estimated scf accuracy    <       0.00000002 Ry

     The total energy is the sum of the following terms:
     one-electron contribution =    -123.35774512 Ry
     hartree contribution      =     106.28817285 Ry
     xc contribution           =    -112.69135069 Ry
     ewald contribution        =    -398.68670993 Ry
     one-center paw contrib.   =    -432.08938686 Ry
      -> PAW hartree energy AE =      28.91206632 Ry
      -> PAW hartree energy PS =     -28.79976412 Ry
      -> PAW xc energy AE      =    -394.26373405 Ry
      -> PAW xc energy PS      =      19.19160795 Ry
      -> total E_H with PAW    =     106.40047504 Ry
      -> total E_XC with PAW   =    -487.76347679 Ry

     convergence has been achieved in  10 iterations

     Writing all to output data dir calculations_bands/myprefix.save/

     General routines

     Parallel routines

     PAW routines

   This run was terminated on:   1: 5:51   5Jun2023

   JOB DONE.