     Program PWSCF v.7.1 starts on 15Jul2023 at 19: 1:31

     Reading input from espresso_7099.pwi
Warning: card &CELL ignored
Warning: card / ignored

     Current dimensions of program PWSCF are:
     Max number of different atomic species (ntypx) = 10
     Max number of k-points (npk) =  40000
     Max angular momentum in pseudopotentials (lmaxx) =  4
     file Lu.paw.z_25.atompaw.wentzcovitch.v1.2.upf: wavefunction(s)  6S 0P 5D 0D 0F renormalized
     file Cd.pbe-dn-rrkjus_psl.0.3.1.UPF: wavefunction(s)  4D renormalized
     Message from routine setup:
     using ibrav=0 with symmetry is DISCOURAGED, use correct ibrav instead

     K-points division:     npool     =       2
     R & G space division:  proc/nbgrp/npool/nimage =       4
     Subspace diagonalization in iterative solution of the eigenvalue problem:
     one sub-group per band group will be used

     Using Slab Decomposition

     bravais-lattice index     =            0
     lattice parameter (alat)  =      14.8625  a.u.
     unit-cell volume          =    2321.4674 (a.u.)^3
     number of atoms/cell      =           14
     number of atomic types    =            3
     number of electrons       =       172.00
     number of Kohn-Sham states=          256
     kinetic-energy cutoff     =      30.0000  Ry
     charge density cutoff     =     240.0000  Ry
     scf convergence threshold =      1.0E-06
     mixing beta               =       0.7000
     number of iterations used =            8  plain     mixing
     Exchange-correlation=  SLA  PW   PBX  PBC
                           (   1   4   3   4   0   0   0)

     celldm(1)=  14.862523  celldm(2)=   0.000000  celldm(3)=   0.000000
     celldm(4)=   0.000000  celldm(5)=   0.000000  celldm(6)=   0.000000

     crystal axes: (cart. coord. in units of alat)
               a(1) = (   1.000000   0.000000   0.000000 )
               a(2) = (   0.500000   0.866025   0.000000 )
               a(3) = (   0.500000   0.288675   0.816497 )

     reciprocal axes: (cart. coord. in units 2 pi/alat)
               b(1) = (  1.000000 -0.577350 -0.408248 )
               b(2) = (  0.000000  1.154701 -0.408248 )
               b(3) = (  0.000000  0.000000  1.224745 )

     PseudoPot. # 1 for Lu read from file:
     /lustre07/scratch/pragov/crystal_structure_design/utils/SSSP/Lu.paw.z_25.atompaw.wentzcovitch.v1.2.upf
     MD5 check sum: a517b3205eadf2aa79773283867f4cbe
     Pseudo is Projector augmented-wave + core cor, Zval = 25.0
     Generated using ATOMPAW code
     Shape of augmentation charge: BESSEL
     Using radial grid of 1118 points,  8 beta functions with:
                l(1) =   0
                l(2) =   0
                l(3) =   1
                l(4) =   1
                l(5) =   2
                l(6) =   2
                l(7) =   3
                l(8) =   3
     Q(r) pseudized with 0 coefficients

     PseudoPot. # 2 for Cd read from file:
     /lustre07/scratch/pragov/crystal_structure_design/utils/SSSP/Cd.pbe-dn-rrkjus_psl.0.3.1.UPF
     MD5 check sum: 558e9f355611b531a870a69ef6ace9e2
     Pseudo is Ultrasoft + core correction, Zval = 12.0
     Generated using "atomic" code by A. Dal Corso  v.5.0.99 svn rev. 10869
     Using radial grid of 1239 points,  6 beta functions with:
                l(1) =   0
                l(2) =   0
                l(3) =   1
                l(4) =   1
                l(5) =   2
                l(6) =   2
     Q(r) pseudized with 0 coefficients

     PseudoPot. # 3 for S  read from file:
     /lustre07/scratch/pragov/crystal_structure_design/utils/SSSP/s_pbe_v1.4.uspp.F.UPF
     MD5 check sum: 88d86576ff6df21479756cfb9bdac1df
     Pseudo is Ultrasoft + core correction, Zval =  6.0
     Generated by new atomic code, or converted to UPF format
     Using radial grid of  907 points,  6 beta functions with:
                l(1) =   0
                l(2) =   0
                l(3) =   1
                l(4) =   1
                l(5) =   2
                l(6) =   2
     Q(r) pseudized with  8 coefficients,  rinner =    1.300   1.300   1.300
                                                       1.300   1.300

     atomic species   valence    mass     pseudopotential
        Lu            25.00   174.96680     Lu( 1.00)
        Cd            12.00   112.41400     Cd( 1.00)
        S              6.00    32.06000     S ( 1.00)

     12 Sym. Ops., with inversion, found ( 6 have fractional translation)

                                    s                        frac. trans.

      isym =  1     identity

 cryst.   s( 1) = (     1          0          0      )
                  (     0          1          0      )
                  (     0          0          1      )

 cart.    s( 1) = (  1.0000000  0.0000000  0.0000000 )
                  (  0.0000000  1.0000000  0.0000000 )
                  (  0.0000000  0.0000000  1.0000000 )

      isym =  2     180 deg rotation - cart. axis [1,0,0]

 cryst.   s( 2) = (     1          0          0      )    f =( -0.2500000 )
                  (     1         -1          0      )       ( -0.2500000 )
                  (     1          0         -1      )       ( -0.2500000 )

 cart.    s( 2) = (  1.0000000  0.0000000  0.0000000 )    f =( -0.5000000 )
                  (  0.0000000 -1.0000000  0.0000000 )       ( -0.2886751 )
                  (  0.0000000  0.0000000 -1.0000000 )       ( -0.2041241 )

      isym =  3     120 deg rotation - cryst. axis [0,0,1]

[...]

      isym =  6     180 deg rotation - cryst. axis [1,1,0]

[...]

      isym =  7     inversion

[...]

      isym =  8     inv. 180 deg rotation - cart. axis [1,0,0]

 cryst.   s( 8) = (    -1          0          0      )
                  (    -1          1          0      )
                  (    -1          0          1      )

 cart.    s( 8) = ( -1.0000000  0.0000000  0.0000000 )
                  (  0.0000000  1.0000000  0.0000000 )
                  (  0.0000000  0.0000000  1.0000000 )

      isym =  9     inv. 120 deg rotation - cryst. axis [0,0,1]

 cryst.   s( 9) = (     1         -1          0      )    f =( -0.2500000 )
                  (     1          0          0      )       ( -0.2500000 )
                  (     1          0         -1      )       ( -0.2500000 )

 cart.    s( 9) = (  0.5000000  0.8660254  0.0000000 )    f =( -0.5000000 )
                  ( -0.8660254  0.5000000  0.0000000 )       ( -0.2886751 )
                  (  0.0000000  0.0000000 -1.0000000 )       ( -0.2041241 )

[...]

 cryst.   s(10) = (     0          1          0      )    f =( -0.2500000 )
                  (    -1          1          0      )       ( -0.2500000 )
                  (     0          1         -1      )       ( -0.2500000 )

 cart.    s(10) = (  0.5000000 -0.8660254 -0.0000000 )    f =( -0.5000000 )
                  (  0.8660254  0.5000000  0.0000000 )       ( -0.2886751 )
                  (  0.0000000  0.0000000 -1.0000000 )       ( -0.2041241 )

[...]

 cryst.   s(11) = (     0          1          0      )
                  (     1          0          0      )
                  (     0          0          1      )

 cart.    s(11) = (  0.5000000  0.8660254  0.0000000 )
                  (  0.8660254 -0.5000000 -0.0000000 )
                  (  0.0000000  0.0000000  1.0000000 )

      isym = 12     inv. 180 deg rotation - cryst. axis [1,1,0]

 cryst.   s(12) = (     1         -1          0      )
                  (     0         -1          0      )
                  (     0         -1          1      )

 cart.    s(12) = (  0.5000000 -0.8660254 -0.0000000 )
                  ( -0.8660254 -0.5000000 -0.0000000 )
                  (  0.0000000  0.0000000  1.0000000 )

   Cartesian axes

     site n.     atom                  positions (alat units)
         1           Lu  tau(   1) = (   0.5000000   0.2886751   0.5103104  )
         2           Lu  tau(   2) = (   0.5000000   0.5773503   0.1020621  )
         3           Lu  tau(   3) = (   0.7500000   0.1443376   0.1020621  )
         4           Lu  tau(   4) = (   0.2500000   0.1443376   0.1020621  )
         5           Cd  tau(   5) = (   1.5000000   0.8660254   0.6123724  )
         6           Cd  tau(   6) = (   1.0000000   0.5773503   0.4082483  )
         7           S   tau(   7) = (   1.4999995   0.5572230   0.7215503  )
         8           S   tau(   8) = (   1.0000005   0.5773506   0.7357826  )
         9           S   tau(   9) = (   0.7325700   0.4229495   0.2990705  )
        10           S   tau(  10) = (   1.2674310   0.4229495   0.2990705  )
        11           S   tau(  11) = (   1.7674300   1.0204262   0.7215503  )
        12           S   tau(  12) = (   1.2325690   1.0204262   0.7215503  )
        13           S   tau(  13) = (   1.0000005   0.8861527   0.2990705  )
        14           S   tau(  14) = (   1.4999995   0.8660251   0.2848381  )

   Crystallographic axes

     site n.     atom                  positions (cryst. coord.)
         1           Lu  tau(   1) = (  0.1250000  0.1250000  0.6250000  )
         2           Lu  tau(   2) = (  0.1250000  0.6250000  0.1250000  )
         3           Lu  tau(   3) = (  0.6250000  0.1250000  0.1250000  )
         4           Lu  tau(   4) = (  0.1250000  0.1250000  0.1250000  )
         5           Cd  tau(   5) = (  0.7500000  0.7500000  0.7500000  )
         6           Cd  tau(   6) = (  0.5000000  0.5000000  0.5000000  )
         7           S   tau(   7) = (  0.8837150  0.3488540  0.8837150  )
         8           S   tau(   8) = (  0.3662850  0.3662850  0.9011460  )
         9           S   tau(   9) = (  0.3662850  0.3662850  0.3662850  )
        10           S   tau(  10) = (  0.9011460  0.3662850  0.3662850  )
        11           S   tau(  11) = (  0.8837150  0.8837150  0.8837150  )
        12           S   tau(  12) = (  0.3488540  0.8837150  0.8837150  )
        13           S   tau(  13) = (  0.3662850  0.9011460  0.3662850  )
        14           S   tau(  14) = (  0.8837150  0.8837150  0.3488540  )

     number of k points=     6
                       cart. coord. in units 2pi/alat
        k(    1) = (   0.0000000   0.0000000   0.0000000), wk =   0.0740741
        k(    2) = (   0.0000000   0.0000000   0.4082483), wk =   0.1481481
        k(    3) = (   0.0000000   0.3849002  -0.1360828), wk =   0.4444444
        k(    4) = (   0.0000000   0.3849002   0.2721655), wk =   0.4444444
        k(    5) = (   0.0000000   0.3849002  -0.5443311), wk =   0.4444444
        k(    6) = (   0.3333333  -0.5773503  -0.0000000), wk =   0.4444444

                       cryst. coord.
        k(    1) = (   0.0000000   0.0000000   0.0000000), wk =   0.0740741
        k(    2) = (   0.0000000   0.0000000   0.3333333), wk =   0.1481481
        k(    3) = (   0.0000000   0.3333333   0.0000000), wk =   0.4444444
        k(    4) = (   0.0000000   0.3333333   0.3333333), wk =   0.4444444
        k(    5) = (   0.0000000   0.3333333  -0.3333333), wk =   0.4444444
        k(    6) = (   0.3333333  -0.3333333  -0.0000000), wk =   0.4444444

     Check: negative core charge=   -0.000001

     Initial potential from superposition of free atoms

     starting charge     171.9749, renormalised to     172.0000
     Starting wfcs are  178 randomized atomic wfcs +   78 random wfcs
     Checking if some PAW data can be deallocated...

     Self-consistent Calculation

     iteration #  1     ecut=    30.00 Ry     beta= 0.70
     Davidson diagonalization with overlap

     ethr =  1.00E-02,  avg # of iterations =  7.2

     Threshold (ethr) on eigenvalues was too large:
     Diagonalizing with lowered threshold

     Davidson diagonalization with overlap

[...]

     total energy              =   -4759.22311334 Ry
     estimated scf accuracy    <       0.86302110 Ry

[...]

     total energy              =   -4759.52091559 Ry
     estimated scf accuracy    <       0.00000698 Ry

     iteration #  7     ecut=    30.00 Ry     beta= 0.70
     Davidson diagonalization with overlap

     ethr =  4.06E-09,  avg # of iterations =  3.8

     End of self-consistent calculation

          k = 0.0000 0.0000 0.0000 (  6375 PWs)   bands (ev):

   -47.7153 -47.7120 -47.7119 -47.7118 -18.5239 -18.4379 -18.4379 -18.4379
   -18.3919 -18.3919 -18.3527 -18.3527 -18.3526 -18.3492 -18.3491 -18.3491
    -4.7751  -3.9416  -3.9416  -3.9416  -3.8043  -3.7410  -3.7410  -3.7410
     0.0725   0.0725   0.0725   0.0992   0.0992   0.1281   0.1281   0.1281
     0.1370   0.1370   2.4535   3.3550   3.5971   3.5971   3.5971   3.7040
     3.7040   3.7040   3.7072   3.7072   3.7072   3.7128   3.7128   3.7128
     3.7389   3.7411   3.7411   3.7597   3.7597   3.7639   3.7639   3.7640
     3.7711   3.7711   3.7711   3.7724   3.7725   3.7725   3.7770   3.7770
     3.7770   3.7777   3.7794   5.0300   5.0300   5.5290   5.5290   5.8790
     5.8790   5.8790   5.9847   5.9847   5.9847   5.9992   5.9992   5.9992
     6.5646   6.5646   6.5646   7.4038   7.4038   7.4038   8.5128   9.8387
     9.8387  10.1840  10.8408  11.0900  11.0900  11.0900  11.9871  11.9871
    11.9871  12.9393  12.9393  12.9393  13.1715  13.1716  13.1716  13.2398
    13.2398  13.2398  13.8314  13.8314  14.5590  14.5590  14.5590  15.0874
    15.0874  15.0875  15.5450  15.5451  15.5451  15.9073  16.1985  16.1985
    16.6973  16.6973  16.6973  17.2133  17.2134  17.2134  17.3299  18.3191
    18.5173  18.5173  18.7114  18.7114  19.1024  19.2160  19.2160  19.2160
    20.2282  20.2282  20.2282  20.2512  20.2512  20.2512  21.0279  21.0279
    21.0279  21.2441  21.2441  21.2441  21.3249  21.3249  21.8517  21.8517
    21.8518  22.7531  22.7531  22.7531  22.7849  22.9187  22.9187  22.9187
    23.4134  23.4134  23.4134  23.6993  23.6993  24.0917  24.0994  24.0994
    24.0994  24.7038  24.7038  24.7038  25.2246  25.2246  25.2247  26.2359
    26.2359  26.7044  26.9703  26.9703  27.4376  27.5534  27.5534  27.5534
    27.6531  27.6531  27.6532  28.6107  28.6107  28.6108  29.0206  29.0206
    29.0206  29.0409  29.0409  29.0409  29.7545  30.1489  30.1489  30.2244
    30.2244  30.2614  30.7124  30.7124  30.7125  31.5032  31.5032  31.5032
    31.8368  31.8368  31.8368  31.8885  32.7824  32.7824  32.7824  32.9280
    33.3182  33.3182  33.3182  33.9447  33.9447  34.4319  34.4320  34.4320
    34.5783  34.5783  34.5976  34.5976  34.5976  34.6977  34.6977  34.6977
    34.9903  34.9903  34.9903  35.4215  35.4215  35.4216  35.5577  35.5578
    35.5578  36.6334  36.6335  36.6335  36.6336  36.8890  36.8890  36.8890
    36.9718  36.9719  36.9720  37.1614  37.1614  37.1615  37.8880  37.8968

     occupation numbers
     1.0000   1.0000   1.0000   1.0000   1.0000   1.0000   1.0000   1.0000
     1.0000   1.0000   1.0000   1.0000   1.0000   1.0000   1.0000   1.0000
     1.0000   1.0000   1.0000   1.0000   1.0000   1.0000   1.0000   1.0000
     1.0000   1.0000   1.0000   1.0000   1.0000   1.0000   1.0000   1.0000
     1.0000   1.0000   1.0000   1.0000   1.0000   1.0000   1.0000   1.0000
     1.0000   1.0000   1.0000   1.0000   1.0000   1.0000   1.0000   1.0000
     1.0000   1.0000   1.0000   1.0000   1.0000   1.0000   1.0000   1.0000
     1.0000   1.0000   1.0000   1.0000   1.0000   1.0000   1.0000   1.0000
     1.0000   1.0000   1.0000   1.0000   1.0000   1.0000   1.0000   1.0000
     1.0000   1.0000   1.0000   1.0000   1.0000   1.0000   1.0000   1.0000
     1.0000   1.0000   1.0000   1.0000   1.0000   1.0000   0.0000   0.0000
     0.0000   0.0000   0.0000   0.0000   0.0000   0.0000   0.0000   0.0000
     0.0000   0.0000   0.0000   0.0000   0.0000   0.0000   0.0000   0.0000
     0.0000   0.0000   0.0000   0.0000   0.0000   0.0000   0.0000   0.0000
     0.0000   0.0000   0.0000   0.0000   0.0000   0.0000   0.0000   0.0000
     0.0000   0.0000   0.0000   0.0000   0.0000   0.0000   0.0000   0.0000
     0.0000   0.0000   0.0000   0.0000   0.0000   0.0000   0.0000   0.0000
     0.0000   0.0000   0.0000   0.0000   0.0000   0.0000   0.0000   0.0000
     0.0000   0.0000   0.0000   0.0000   0.0000   0.0000   0.0000   0.0000
     0.0000   0.0000   0.0000   0.0000   0.0000   0.0000   0.0000   0.0000
     0.0000   0.0000   0.0000   0.0000   0.0000   0.0000   0.0000   0.0000
     0.0000   0.0000   0.0000   0.0000   0.0000   0.0000   0.0000   0.0000
     0.0000   0.0000   0.0000   0.0000   0.0000   0.0000   0.0000   0.0000
     0.0000   0.0000   0.0000   0.0000   0.0000   0.0000   0.0000   0.0000
     0.0000   0.0000   0.0000   0.0000   0.0000   0.0000   0.0000   0.0000
     0.0000   0.0000   0.0000   0.0000   0.0000   0.0000   0.0000   0.0000
     0.0000   0.0000   0.0000   0.0000   0.0000   0.0000   0.0000   0.0000
     0.0000   0.0000   0.0000   0.0000   0.0000   0.0000   0.0000   0.0000
     0.0000   0.0000   0.0000   0.0000   0.0000   0.0000   0.0000   0.0000
     0.0000   0.0000   0.0000   0.0000   0.0000   0.0000   0.0000   0.0000
     0.0000   0.0000   0.0000   0.0000   0.0000   0.0000   0.0000   0.0000
     0.0000   0.0000   0.0000   0.0000   0.0000   0.0000   0.0000   0.0000

[...]

          k = 0.3333-0.5774-0.0000 (  6459 PWs)   bands (ev):

   -47.7140 -47.7132 -47.7120 -47.7118 -18.4776 -18.4456 -18.4118 -18.4103
   -18.4013 -18.3912 -18.3756 -18.3720 -18.3665 -18.3650 -18.3627 -18.3506
    -4.3767  -4.1813  -4.0028  -3.9175  -3.8950  -3.7916  -3.7861  -3.7629
    -0.0092   0.0373   0.0678   0.0927   0.0954   0.1047   0.1105   0.1106
     0.1185   0.1198   3.3901   3.4521   3.6769   3.6811   3.6955   3.7005
     3.7116   3.7160   3.7204   3.7314   3.7333   3.7370   3.7394   3.7405
     3.7432   3.7450   3.7518   3.7528   3.7547   3.7583   3.7597   3.7643
     3.7645   3.7647   3.7693   3.7707   3.7732   3.7736   3.8511   3.8728
     4.1995   4.3804   4.5697   4.7501   4.7797   5.0512   5.1018   5.1998
     5.2955   5.5676   5.6601   5.6906   5.7211   5.7455   6.0030   6.0916
     6.2542   6.3725   6.4824   6.5257   6.6897   6.9481  10.3868  10.5295
    10.5504  11.0883  11.2623  11.3834  11.4667  11.7050  12.2053  12.2412
    12.3891  12.5147  12.6082  12.6302  12.7943  13.1180  13.1502  13.5120
    13.6399  13.6429  14.0773  14.3057  14.4502  14.7906  14.8671  15.0025
    15.0581  15.2540  15.4770  15.5201  15.6028  15.6071  15.7275  15.8557
    15.9516  16.2317  16.4195  16.9172  17.0355  17.1135  17.2780  17.8327
    18.0092  18.0227  18.1654  18.4397  18.6569  18.6924  18.8904  18.9538
    19.0842  19.3176  19.3390  19.8129  19.8780  19.9484  20.2390  20.5904
    20.9060  21.1609  21.4982  21.5950  21.7457  22.0244  22.2709  22.3184
    22.3950  22.4765  22.9172  22.9736  22.9957  23.1908  23.2360  23.3094
    24.1287  24.2078  24.4034  24.5871  24.7866  24.7990  24.9580  24.9766
    25.0981  25.3396  25.5223  25.5424  25.7701  25.9974  26.1093  26.2061
    26.3982  26.5267  26.5721  26.6255  26.6431  26.6950  27.4028  27.4892
    27.6329  27.8042  27.9278  27.9393  28.0469  28.4653  28.6769  28.7329
    28.8214  29.0176  29.2917  29.4003  29.9075  30.0474  30.0692  30.3099
    30.3426  30.5697  30.6962  30.8683  30.9343  31.0246  31.2172  31.2853
    31.3282  31.4496  31.5040  31.7819  31.8461  31.9198  32.1361  32.2329
    32.2477  32.3906  32.5368  32.8496  33.0132  33.3117  33.3914  33.5899
    33.6221  33.7169  33.8122  34.2066  34.2636  34.4192  34.4893  34.6225
    34.6379  34.8074  35.1793  35.2421  35.3305  35.5107  35.5109  35.6190
    35.8961  35.9158  35.9975  36.1259  36.3722  36.7371  36.8898  37.1410
    37.1779  37.2874  37.4336  37.4582  37.8118  37.8839  38.1430  38.2916

     occupation numbers
     1.0000   1.0000   1.0000   1.0000   1.0000   1.0000   1.0000   1.0000
     1.0000   1.0000   1.0000   1.0000   1.0000   1.0000   1.0000   1.0000
     1.0000   1.0000   1.0000   1.0000   1.0000   1.0000   1.0000   1.0000
     1.0000   1.0000   1.0000   1.0000   1.0000   1.0000   1.0000   1.0000
     1.0000   1.0000   1.0000   1.0000   1.0000   1.0000   1.0000   1.0000
     1.0000   1.0000   1.0000   1.0000   1.0000   1.0000   1.0000   1.0000
     1.0000   1.0000   1.0000   1.0000   1.0000   1.0000   1.0000   1.0000
     1.0000   1.0000   1.0000   1.0000   1.0000   1.0000   1.0000   1.0000
     1.0000   1.0000   1.0000   1.0000   1.0000   1.0000   1.0000   1.0000
     1.0000   1.0000   1.0000   1.0000   1.0000   1.0000   1.0000   1.0000
     1.0000   1.0000   1.0000   1.0000   1.0000   1.0000   0.0000   0.0000
     0.0000   0.0000   0.0000   0.0000   0.0000   0.0000   0.0000   0.0000
     0.0000   0.0000   0.0000   0.0000   0.0000   0.0000   0.0000   0.0000
     0.0000   0.0000   0.0000   0.0000   0.0000   0.0000   0.0000   0.0000
     0.0000   0.0000   0.0000   0.0000   0.0000   0.0000   0.0000   0.0000
     0.0000   0.0000   0.0000   0.0000   0.0000   0.0000   0.0000   0.0000
     0.0000   0.0000   0.0000   0.0000   0.0000   0.0000   0.0000   0.0000
     0.0000   0.0000   0.0000   0.0000   0.0000   0.0000   0.0000   0.0000
     0.0000   0.0000   0.0000   0.0000   0.0000   0.0000   0.0000   0.0000
     0.0000   0.0000   0.0000   0.0000   0.0000   0.0000   0.0000   0.0000
     0.0000   0.0000   0.0000   0.0000   0.0000   0.0000   0.0000   0.0000
     0.0000   0.0000   0.0000   0.0000   0.0000   0.0000   0.0000   0.0000
     0.0000   0.0000   0.0000   0.0000   0.0000   0.0000   0.0000   0.0000
     0.0000   0.0000   0.0000   0.0000   0.0000   0.0000   0.0000   0.0000
     0.0000   0.0000   0.0000   0.0000   0.0000   0.0000   0.0000   0.0000
     0.0000   0.0000   0.0000   0.0000   0.0000   0.0000   0.0000   0.0000
     0.0000   0.0000   0.0000   0.0000   0.0000   0.0000   0.0000   0.0000
     0.0000   0.0000   0.0000   0.0000   0.0000   0.0000   0.0000   0.0000
     0.0000   0.0000   0.0000   0.0000   0.0000   0.0000   0.0000   0.0000
     0.0000   0.0000   0.0000   0.0000   0.0000   0.0000   0.0000   0.0000
     0.0000   0.0000   0.0000   0.0000   0.0000   0.0000   0.0000   0.0000
     0.0000   0.0000   0.0000   0.0000   0.0000   0.0000   0.0000   0.0000

     highest occupied, lowest unoccupied level (ev):     7.4038    8.5128

!    total energy              =   -4759.52092219 Ry
     estimated scf accuracy    <       0.00000039 Ry

     The total energy is the sum of the following terms:
     one-electron contribution =   -2276.66065337 Ry
     hartree contribution      =    1070.60108661 Ry
     xc contribution           =    -319.85753391 Ry
     ewald contribution        =   -1265.01192988 Ry
     one-center paw contrib.   =   -1968.59189164 Ry
      -> PAW hartree energy AE =     980.09330446 Ry
      -> PAW hartree energy PS =    -845.96920814 Ry
      -> PAW xc energy AE      =   -1198.61669124 Ry
      -> PAW xc energy PS      =      80.19662131 Ry
      -> total E_H with PAW    =    1204.72518294 Ry
      -> total E_XC with PAW   =   -1438.27760383 Ry

     convergence has been achieved in   7 iterations

     Writing all to output data dir bands_nm/myprefix.save/

     General routines

     Parallel routines

     PAW routines

   This run was terminated on:  19: 2:12  15Jul2023

   JOB DONE.