     Program PWSCF v.7.0 starts on  6Jun2023 at 20: 9:21

     K-points division:     npool     =       2
     R & G space division:  proc/nbgrp/npool/nimage =       4

     Reading input from espresso_21032.pwi
Warning: card &CELL ignored
Warning: card / ignored

     Current dimensions of program PWSCF are:
     Max number of different atomic species (ntypx) = 10
     Max number of k-points (npk) =  40000
     Max angular momentum in pseudopotentials (lmaxx) =  4
     file O.pbe-n-kjpaw_psl.0.1.UPF: wavefunction(s)  2P renormalized
     Message from routine setup:
     using ibrav=0 with symmetry is DISCOURAGED, use correct ibrav instead

     Using Slab Decomposition

     bravais-lattice index     =            0
     lattice parameter (alat)  =      11.9892  a.u.
     unit-cell volume          =     810.9250 (a.u.)^3
     number of atoms/cell      =            8
     number of atomic types    =            3
     number of electrons       =        74.00
     number of Kohn-Sham states=           64
     kinetic-energy cutoff     =      30.0000  Ry
     charge density cutoff     =     240.0000  Ry
     scf convergence threshold =      1.0E-06
     mixing beta               =       0.7000
     number of iterations used =            8  plain     mixing
     Exchange-correlation= SLA  PW   PBX  PBC
                           (   1   4   3   4   0   0   0)

     celldm(1)=  11.989191  celldm(2)=   0.000000  celldm(3)=   0.000000
     celldm(4)=   0.000000  celldm(5)=   0.000000  celldm(6)=   0.000000

     crystal axes: (cart. coord. in units of alat)
               a(1) = (   1.000000   0.000000   0.000000 )
               a(2) = (   0.446738   0.894665   0.000000 )
               a(3) = (  -0.723369  -0.447333   0.525957 )

     reciprocal axes: (cart. coord. in units 2 pi/alat)
               b(1) = (  1.000000 -0.499335  0.950647 )
               b(2) = (  0.000000  1.117737  0.950647 )
               b(3) = (  0.000000  0.000000  1.901295 )

     PseudoPot. # 1 for Na read from file:
     /home/pragov/projects/rrg-bengioy-ad/pragov/crystal_structure_design/SSSP/na_pbe_v1.5.uspp.F.UPF
     MD5 check sum: 44600605ef58000f06b90626533354dc
     Pseudo is Ultrasoft, Zval =  9.0
     Generated by new atomic code, or converted to UPF format
     Using radial grid of  819 points,  5 beta functions with:
                l(1) =   0
                l(2) =   0
                l(3) =   1
                l(4) =   1
                l(5) =   2
     Q(r) pseudized with  8 coefficients,  rinner =    1.250   1.250   1.250
                                                       1.250   1.250

     PseudoPot. # 2 for Sm read from file:
     /home/pragov/projects/rrg-bengioy-ad/pragov/crystal_structure_design/SSSP/Sm.GGA-PBE-paw-v1.0.UPF
     MD5 check sum: 886f70968969f895acf876f5617e0641
     Pseudo is Projector augmented-wave + core cor, Zval = 16.0
     Generated using ATOMPAW code
     Shape of augmentation charge: BESSEL
     Using radial grid of 1107 points,  8 beta functions with:
                l(1) =   0
                l(2) =   0
                l(3) =   1
                l(4) =   1
                l(5) =   2
                l(6) =   2
                l(7) =   3
                l(8) =   3
     Q(r) pseudized with 0 coefficients

     PseudoPot. # 3 for O  read from file:
     /home/pragov/projects/rrg-bengioy-ad/pragov/crystal_structure_design/SSSP/O.pbe-n-kjpaw_psl.0.1.UPF
     MD5 check sum: 0234752ac141de4415c5fc33072bef88
     Pseudo is Projector augmented-wave + core cor, Zval =  6.0
     Generated using "atomic" code by A. Dal Corso  v.5.0.99 svn rev. 10869
     Shape of augmentation charge: BESSEL
     Using radial grid of 1095 points,  4 beta functions with:
                l(1) =   0
                l(2) =   0
                l(3) =   1
                l(4) =   1
     Q(r) pseudized with 0 coefficients

     atomic species   valence    mass     pseudopotential
        Na             9.00    22.98977     Na( 1.00)
        Sm            16.00   150.36000     Sm( 1.00)
        O              6.00    15.99900     O ( 1.00)

      4 Sym. Ops., with inversion, found ( 2 have fractional translation)

                                    s                        frac. trans.

      isym =  1     identity

 cryst.   s( 1) = (     1          0          0      )
                  (     0          1          0      )
                  (     0          0          1      )

 cart.    s( 1) = (  1.0000000 -0.0000000  0.0000000 )
                  (  0.0000000  1.0000000 -0.0000000 )
                  (  0.0000000  0.0000000  1.0000000 )

      isym =  2     180 deg rotation - cart. axis [0,0,1]

 cryst.   s( 2) = (    -1          0          0      )
                  (     0         -1          0      )
                  (     1          1          1      )

 cart.    s( 2) = ( -1.0000000  0.0000000  0.0000000 )
                  (  0.0000000 -1.0000000  0.0000000 )
                  (  0.0000000  0.0000000  1.0000000 )

      isym =  3     inversion

 cryst.   s( 3) = (    -1          0          0      )    f =(  0.2500000 )
                  (     0         -1          0      )       ( -0.2500000 )
                  (     0          0         -1      )       (  0.5000000 )

 cart.    s( 3) = ( -1.0000000  0.0000000 -0.0000000 )    f =( -0.2233688 )
                  (  0.0000000 -1.0000000  0.0000000 )       ( -0.4473325 )
                  (  0.0000000  0.0000000 -1.0000000 )       (  0.2629787 )

      isym =  4     inv. 180 deg rotation - cart. axis [0,0,1]

 cryst.   s( 4) = (     1          0          0      )    f =(  0.2500000 )
                  (     0          1          0      )       ( -0.2500000 )
                  (    -1         -1         -1      )       (  0.5000000 )

 cart.    s( 4) = (  1.0000000 -0.0000000 -0.0000000 )    f =( -0.2233688 )
                  (  0.0000000  1.0000000 -0.0000000 )       ( -0.4473325 )
                  (  0.0000000  0.0000000 -1.0000000 )       (  0.2629787 )

   Cartesian axes

     site n.     atom                  positions (alat units)
         1           Na  tau(   1) = (   0.7233688   0.4473325   0.0000000  )
         2           Na  tau(   2) = (   0.2233688   0.4473325   0.2629787  )
         3           Sm  tau(   3) = (   0.0000000   0.0000000   0.0000000  )
         4           Sm  tau(   4) = (   0.5000000   0.0000000   0.2629787  )
         5           O   tau(   5) = (   0.3181217   0.1967270   0.0000000  )
         6           O   tau(   6) = (   0.1818783  -0.1967270   0.2629787  )
         7           O   tau(   7) = (   0.8181217   0.1967270   0.2629787  )
         8           O   tau(   8) = (   1.1286159   0.6979380   0.0000000  )

   Crystallographic axes

     site n.     atom                  positions (cryst. coord.)
         1           Na  tau(   1) = (  0.5000000  0.5000000  0.0000000  )
         2           Na  tau(   2) = (  0.2500000  0.7500000  0.5000000  )
         3           Sm  tau(   3) = (  0.0000000  0.0000000  0.0000000  )
         4           Sm  tau(   4) = (  0.7500000  0.2500000  0.5000000  )
         5           O   tau(   5) = (  0.2198890  0.2198890  0.0000000  )
         6           O   tau(   6) = (  0.5301110  0.0301110  0.5000000  )
         7           O   tau(   7) = (  0.9698890  0.4698890  0.5000000  )
         8           O   tau(   8) = (  0.7801110  0.7801110  0.0000000  )

     number of k points=    10
                       cart. coord. in units 2pi/alat
        k(    1) = (   0.0000000   0.0000000   0.0000000), wk =   0.0740741
        k(    2) = (   0.0000000   0.0000000   0.6337649), wk =   0.1481481
        k(    3) = (   0.0000000   0.3725789   0.3168824), wk =   0.2962963
        k(    4) = (   0.0000000   0.3725789   0.9506473), wk =   0.1481481
        k(    5) = (   0.3333333  -0.1664450   0.3168824), wk =   0.2962963
        k(    6) = (   0.3333333  -0.1664450   0.9506473), wk =   0.1481481
        k(    7) = (   0.3333333   0.2061339   0.6337649), wk =   0.2962963
        k(    8) = (   0.3333333   0.2061339  -0.0000000), wk =   0.1481481
        k(    9) = (   0.3333333  -0.5390239   0.0000000), wk =   0.1481481
        k(   10) = (   0.3333333  -0.5390239   0.6337649), wk =   0.2962963

                       cryst. coord.
        k(    1) = (   0.0000000   0.0000000   0.0000000), wk =   0.0740741
        k(    2) = (   0.0000000   0.0000000   0.3333333), wk =   0.1481481
        k(    3) = (   0.0000000   0.3333333  -0.0000000), wk =   0.2962963
        k(    4) = (   0.0000000   0.3333333   0.3333333), wk =   0.1481481
        k(    5) = (   0.3333333  -0.0000000   0.0000000), wk =   0.2962963
        k(    6) = (   0.3333333  -0.0000000   0.3333333), wk =   0.1481481
        k(    7) = (   0.3333333   0.3333333   0.0000000), wk =   0.2962963
        k(    8) = (   0.3333333   0.3333333  -0.3333333), wk =   0.1481481
        k(    9) = (   0.3333333  -0.3333333   0.0000000), wk =   0.1481481
        k(   10) = (   0.3333333  -0.3333333   0.3333333), wk =   0.2962963

     Check: negative core charge=   -0.000011

     Initial potential from superposition of free atoms

     starting charge      73.9762, renormalised to      74.0000
     Starting wfcs are   90 randomized atomic wfcs
     Checking if some PAW data can be deallocated...

     Self-consistent Calculation

     iteration #  1     ecut=    30.00 Ry     beta= 0.70
     Davidson diagonalization with overlap

     ethr =  1.00E-02,  avg # of iterations =  6.8

     total energy              =   -1564.64186500 Ry
     estimated scf accuracy    <       2.00730717 Ry

[...]

     total energy              =   -1565.95352174 Ry
     estimated scf accuracy    <       0.00000226 Ry

     iteration # 84     ecut=    30.00 Ry     beta= 0.70
     Davidson diagonalization with overlap

     ethr =  2.81E-09,  avg # of iterations =  1.0

     End of self-consistent calculation

          k = 0.0000 0.0000 0.0000 (  2257 PWs)   bands (ev):

   -42.0518 -42.0489 -29.4771 -29.3767 -14.0453 -14.0130 -13.9607 -13.9606
   -13.9565 -13.9564 -10.4037  -9.4023  -9.3182  -9.3173  -9.1276  -9.1267
    -8.2615  -8.1955  -7.3927  -6.9830   5.6281   6.3229   6.3672   6.3674
     6.3863   6.3866   6.4239   6.8519   6.8525   6.9402   7.1906   7.1918
     9.8404   9.8448   9.8545   9.8549   9.8556   9.9754   9.9903  10.1530
    10.1607  10.1700  10.3385  10.4934  10.5048  10.5152  11.3245  12.1625
    13.9734  13.9743  14.2214  14.4399  14.4411  15.4323  16.2414  16.6435
    16.7755  17.6147  18.3192  18.3192  18.5975  21.0055  21.6293  21.6646

     occupation numbers
     1.0000   1.0000   1.0000   1.0000   1.0000   1.0000   1.0000   1.0000
     1.0000   1.0000   1.0000   1.0000   1.0000   1.0000   1.0000   1.0000
     1.0000   1.0000   1.0000   1.0000   1.0000   1.0000   1.0000   1.0000
     1.0000   1.0000   1.0000   1.0000   1.0000   1.0000   1.0000   1.0000
     1.0000   1.0000   1.0000   1.0000   1.0000   0.0000   0.0000   0.0000
     0.0000   0.0000   0.0000   0.0000   0.0000   0.0000   0.0000   0.0000
     0.0000   0.0000   0.0000   0.0000   0.0000   0.0000   0.0000   0.0000
     0.0000   0.0000   0.0000   0.0000   0.0000   0.0000   0.0000   0.0000

[...]

          k = 0.3333-0.5390 0.6338 (  2242 PWs)   bands (ev):

   -42.0504 -42.0496 -29.4373 -29.4122 -14.0282 -14.0237 -13.9759 -13.9660
   -13.9659 -13.9510 -10.4741 -10.3798  -9.6324  -9.3657  -9.1811  -9.0718
    -7.8530  -7.5213  -6.6798  -6.5274   5.1735   5.7647   5.8775   5.9322
     6.0872   6.2610   6.4173   6.5425   6.6734   6.8477   6.8928   7.2008
     9.7811   9.7999   9.8782   9.8847   9.8861  10.0083  10.0136  10.0251
    10.1595  10.1972  10.2351  10.2736  10.3426  10.4397  12.9813  13.1304
    13.6915  13.7984  14.0065  14.1276  15.2488  15.7416  15.9254  17.1683
    17.6361  18.5276  18.6774  19.2054  19.5705  20.0705  20.2540  22.1386

     occupation numbers
     1.0000   1.0000   1.0000   1.0000   1.0000   1.0000   1.0000   1.0000
     1.0000   1.0000   1.0000   1.0000   1.0000   1.0000   1.0000   1.0000
     1.0000   1.0000   1.0000   1.0000   1.0000   1.0000   1.0000   1.0000
     1.0000   1.0000   1.0000   1.0000   1.0000   1.0000   1.0000   1.0000
     1.0000   1.0000   1.0000   1.0000   1.0000   0.0000   0.0000   0.0000
     0.0000   0.0000   0.0000   0.0000   0.0000   0.0000   0.0000   0.0000
     0.0000   0.0000   0.0000   0.0000   0.0000   0.0000   0.0000   0.0000
     0.0000   0.0000   0.0000   0.0000   0.0000   0.0000   0.0000   0.0000

     highest occupied, lowest unoccupied level (ev):     9.9630    9.8868

!    total energy              =   -1565.95352172 Ry
     estimated scf accuracy    <       0.00000080 Ry

     The total energy is the sum of the following terms:
     one-electron contribution =    -263.90312074 Ry
     hartree contribution      =     183.88590024 Ry
     xc contribution           =     -94.85352622 Ry
     ewald contribution        =    -453.44788623 Ry
     one-center paw contrib.   =    -937.63488878 Ry
      -> PAW hartree energy AE =       0.00000000 Ry
      -> PAW hartree energy PS =       0.00000000 Ry
      -> PAW xc energy AE      =       0.00000000 Ry
      -> PAW xc energy PS      =       0.00000000 Ry
      -> total E_H with PAW    =     183.88590024 Ry
      -> total E_XC with PAW   =     -94.85352622 Ry

     convergence has been achieved in  84 iterations

     Writing all to output data dir calculations_bands/myprefix.save/

     General routines

     Parallel routines

     PAW routines

   This run was terminated on:  20:11:12   6Jun2023

   JOB DONE.