     Program PWSCF v.7.1 starts on 13Jul2023 at  8:35:45

     Reading input from espresso_25585.pwi
Warning: card &CELL ignored
Warning: card / ignored

     Current dimensions of program PWSCF are:
     Max number of different atomic species (ntypx) = 10
     Max number of k-points (npk) =  40000
     Max angular momentum in pseudopotentials (lmaxx) =  4
     file Ba.pbe-spn-kjpaw_psl.1.0.0.UPF: wavefunction(s)  5S 6S renormalized
     file C.pbe-n-kjpaw_psl.1.0.0.UPF: wavefunction(s)  2S 2P renormalized
     file O.pbe-n-kjpaw_psl.0.1.UPF: wavefunction(s)  2P renormalized
     Message from routine setup:
     using ibrav=0 with symmetry is DISCOURAGED, use correct ibrav instead

     K-points division:     npool     =       2
     R & G space division:  proc/nbgrp/npool/nimage =       8
     Subspace diagonalization in iterative solution of the eigenvalue problem:
     a serial algorithm will be used

     Using Slab Decomposition

     bravais-lattice index     =            0
     lattice parameter (alat)  =       8.4776  a.u.
     unit-cell volume          =    1168.5703 (a.u.)^3
     number of atoms/cell      =           10
     number of atomic types    =            3
     number of electrons       =        64.00
     number of Kohn-Sham states=           64
     kinetic-energy cutoff     =      30.0000  Ry
     charge density cutoff     =     240.0000  Ry
     scf convergence threshold =      1.0E-06
     mixing beta               =       0.7000
     number of iterations used =            8  plain     mixing
     Exchange-correlation= SLA  PW   PBX  PBC
                           (   1   4   3   4   0   0   0)

     celldm(1)=   8.477604  celldm(2)=   0.000000  celldm(3)=   0.000000
     celldm(4)=   0.000000  celldm(5)=   0.000000  celldm(6)=   0.000000

     crystal axes: (cart. coord. in units of alat)
               a(1) = (   1.000000   0.000000   0.000000 )
               a(2) = (   0.000000   1.218566   0.000000 )
               a(3) = (   0.000000   0.000000   1.573933 )

     reciprocal axes: (cart. coord. in units 2 pi/alat)
               b(1) = (  1.000000  0.000000  0.000000 )
               b(2) = (  0.000000  0.820637  0.000000 )
               b(3) = (  0.000000  0.000000  0.635351 )

     PseudoPot. # 1 for Ba read from file:
     /lustre07/scratch/pragov/crystal_structure_design/utils/SSSP/Ba.pbe-spn-kjpaw_psl.1.0.0.UPF
     MD5 check sum: c432291d3e53af55f19d5e8866385beb
     Pseudo is Projector augmented-wave + core cor, Zval = 10.0
     Generated using "atomic" code by A. Dal Corso  v.5.1
     Shape of augmentation charge: PSQ
     Using radial grid of 1251 points,  7 beta functions with:
                l(1) =   0
                l(2) =   0
                l(3) =   0
                l(4) =   1
                l(5) =   1
                l(6) =   2
                l(7) =   2
     Q(r) pseudized with 0 coefficients

     PseudoPot. # 2 for C  read from file:
     /lustre07/scratch/pragov/crystal_structure_design/utils/SSSP/C.pbe-n-kjpaw_psl.1.0.0.UPF
     MD5 check sum: 5d2aebdfa2cae82b50a7e79e9516da0f
     Pseudo is Projector augmented-wave + core cor, Zval =  4.0
     Generated using "atomic" code by A. Dal Corso  v.5.1
     Shape of augmentation charge: PSQ
     Using radial grid of 1073 points,  4 beta functions with:
                l(1) =   0
                l(2) =   0
                l(3) =   1
                l(4) =   1
     Q(r) pseudized with 0 coefficients

     PseudoPot. # 3 for O  read from file:
     /lustre07/scratch/pragov/crystal_structure_design/utils/SSSP/O.pbe-n-kjpaw_psl.0.1.UPF
     MD5 check sum: 0234752ac141de4415c5fc33072bef88
     Pseudo is Projector augmented-wave + core cor, Zval =  6.0
     Generated using "atomic" code by A. Dal Corso  v.5.0.99 svn rev. 10869
     Shape of augmentation charge: BESSEL
     Using radial grid of 1095 points,  4 beta functions with:
                l(1) =   0
                l(2) =   0
                l(3) =   1
                l(4) =   1
     Q(r) pseudized with 0 coefficients

     atomic species   valence    mass     pseudopotential
        Ba            10.00   137.32700     Ba( 1.00)
        C              4.00    12.01100     C ( 1.00)
        O              6.00    15.99900     O ( 1.00)

      4 Sym. Ops. (no inversion) found ( 2 have fractional translation)

                                    s                        frac. trans.

      isym =  1     identity

 cryst.   s( 1) = (     1          0          0      )
                  (     0          1          0      )
                  (     0          0          1      )

 cart.    s( 1) = (  1.0000000  0.0000000  0.0000000 )
                  (  0.0000000  1.0000000  0.0000000 )
                  (  0.0000000  0.0000000  1.0000000 )

      isym =  2     180 deg rotation - cart. axis [0,1,0]

 cryst.   s( 2) = (    -1          0          0      )
                  (     0          1          0      )
                  (     0          0         -1      )

 cart.    s( 2) = ( -1.0000000  0.0000000  0.0000000 )
                  (  0.0000000  1.0000000  0.0000000 )
                  (  0.0000000  0.0000000 -1.0000000 )

      isym =  3     inv. 180 deg rotation - cart. axis [0,0,1]

 cryst.   s( 3) = (     1          0          0      )    f =(  0.5000000 )
                  (     0          1          0      )       ( -0.5000000 )
                  (     0          0         -1      )       (  0.5000000 )

 cart.    s( 3) = (  1.0000000  0.0000000  0.0000000 )    f =(  0.5000000 )
                  (  0.0000000  1.0000000  0.0000000 )       ( -0.6092831 )
                  (  0.0000000  0.0000000 -1.0000000 )       (  0.7869666 )

      isym =  4     inv. 180 deg rotation - cart. axis [1,0,0]

 cryst.   s( 4) = (    -1          0          0      )    f =(  0.5000000 )
                  (     0          1          0      )       ( -0.5000000 )
                  (     0          0          1      )       (  0.5000000 )

 cart.    s( 4) = ( -1.0000000  0.0000000  0.0000000 )    f =(  0.5000000 )
                  (  0.0000000  1.0000000  0.0000000 )       ( -0.6092831 )
                  (  0.0000000  0.0000000  1.0000000 )       (  0.7869666 )

   Cartesian axes

     site n.     atom                  positions (alat units)
         1           Ba  tau(   1) = (   0.5000000   0.0131617   0.7869666  )
         2           Ba  tau(   2) = (   0.0000000   0.6224449   0.0000000  )
         3           C   tau(   3) = (   0.5000000   0.0000756   0.0000000  )
         4           C   tau(   4) = (   0.0000000   0.6093587   0.7869666  )
         5           O   tau(   5) = (   0.5000000   0.2899115   0.0000000  )
         6           O   tau(   6) = (   0.8647010   0.4523659   0.5764609  )
         7           O   tau(   7) = (   0.0000000   0.8991946   0.7869666  )
         8           O   tau(   8) = (   0.6352990   1.0616490   1.3634274  )
         9           O   tau(   9) = (   0.1352990   0.4523659   0.9974723  )
        10           O   tau(  10) = (   0.3647010   1.0616490   0.2105057  )

   Crystallographic axes

     site n.     atom                  positions (cryst. coord.)
         1           Ba  tau(   1) = (  0.5000000  0.0108010  0.5000000  )
         2           Ba  tau(   2) = (  0.0000000  0.5108010  0.0000000  )
         3           C   tau(   3) = (  0.5000000  0.0000620  0.0000000  )
         4           C   tau(   4) = (  0.0000000  0.5000620  0.5000000  )
         5           O   tau(   5) = (  0.5000000  0.2379120  0.0000000  )
         6           O   tau(   6) = (  0.8647010  0.3712280  0.3662550  )
         7           O   tau(   7) = (  0.0000000  0.7379120  0.5000000  )
         8           O   tau(   8) = (  0.6352990  0.8712280  0.8662550  )
         9           O   tau(   9) = (  0.1352990  0.3712280  0.6337450  )
        10           O   tau(  10) = (  0.3647010  0.8712280  0.1337450  )

     number of k points=     8
                       cart. coord. in units 2pi/alat
        k(    1) = (   0.0000000   0.0000000   0.0000000), wk =   0.0740741
        k(    2) = (   0.0000000   0.0000000   0.2117837), wk =   0.1481481
        k(    3) = (   0.0000000   0.2735455   0.0000000), wk =   0.1481481
        k(    4) = (   0.0000000   0.2735455   0.2117837), wk =   0.2962963
        k(    5) = (   0.3333333   0.0000000   0.0000000), wk =   0.1481481
        k(    6) = (   0.3333333   0.0000000   0.2117837), wk =   0.2962963
        k(    7) = (   0.3333333   0.2735455   0.0000000), wk =   0.2962963
        k(    8) = (   0.3333333   0.2735455   0.2117837), wk =   0.5925926

                       cryst. coord.
        k(    1) = (   0.0000000   0.0000000   0.0000000), wk =   0.0740741
        k(    2) = (   0.0000000   0.0000000   0.3333333), wk =   0.1481481
        k(    3) = (   0.0000000   0.3333333   0.0000000), wk =   0.1481481
        k(    4) = (   0.0000000   0.3333333   0.3333333), wk =   0.2962963
        k(    5) = (   0.3333333   0.0000000   0.0000000), wk =   0.1481481
        k(    6) = (   0.3333333   0.0000000   0.3333333), wk =   0.2962963
        k(    7) = (   0.3333333   0.3333333   0.0000000), wk =   0.2962963
        k(    8) = (   0.3333333   0.3333333   0.3333333), wk =   0.5925926

     Check: negative core charge=   -0.000014

     Initial potential from superposition of free atoms

     starting charge      63.9659, renormalised to      64.0000
     Starting wfcs are   42 randomized atomic wfcs +   22 random wfcs
     Checking if some PAW data can be deallocated...

     Self-consistent Calculation

     iteration #  1     ecut=    30.00 Ry     beta= 0.70
     Davidson diagonalization with overlap

     ethr =  1.00E-02,  avg # of iterations =  6.0

     negative rho (up, down):  2.085E-02 0.000E+00

     total energy              =   -1158.96471102 Ry
     estimated scf accuracy    <       1.63938548 Ry

[...]

     negative rho (up, down):  1.296E-03 0.000E+00

[...]

     total energy              =   -1159.61797058 Ry
     estimated scf accuracy    <       0.00000587 Ry

     iteration # 12     ecut=    30.00 Ry     beta= 0.70
     Davidson diagonalization with overlap

     ethr =  9.17E-09,  avg # of iterations =  1.0

     End of self-consistent calculation

          k = 0.0000 0.0000 0.0000 (  3243 PWs)   bands (ev):

   -21.1450 -21.1008 -16.9502 -16.9352 -14.3045 -14.2301 -13.8198 -13.7532
    -6.3867  -6.3782  -6.2961  -6.2879  -6.2132  -6.1954  -3.2587  -3.0972
    -1.3941  -1.3445  -1.3236  -1.0290  -0.6981  -0.6897   2.4301   2.5615
     2.6636   2.6759   2.6910   2.7204   2.9566   3.1518   4.2790   4.5500
     8.6135   9.1346   9.4791   9.6890  10.4787  10.6423  10.8836  11.4483
    11.6289  12.1739  12.7510  12.7873  13.3875  13.6605  13.7007  14.9285
    15.2467  15.5492  16.7302  17.0629  17.9944  18.2409  18.9026  19.1307
    19.3984  19.7983  19.9698  20.1833  20.2117  20.3037  20.5821  20.7415

     occupation numbers
     1.0000   1.0000   1.0000   1.0000   1.0000   1.0000   1.0000   1.0000
     1.0000   1.0000   1.0000   1.0000   1.0000   1.0000   1.0000   1.0000
     1.0000   1.0000   1.0000   1.0000   1.0000   1.0000   1.0000   1.0000
     1.0000   1.0000   1.0000   1.0000   1.0000   1.0000   1.0000   1.0000
     0.0000   0.0000   0.0000   0.0000   0.0000   0.0000   0.0000   0.0000
     0.0000   0.0000   0.0000   0.0000   0.0000   0.0000   0.0000   0.0000
     0.0000   0.0000   0.0000   0.0000   0.0000   0.0000   0.0000   0.0000
     0.0000   0.0000   0.0000   0.0000   0.0000   0.0000   0.0000   0.0000

[...]

          k = 0.3333 0.2735 0.2118 (  3249 PWs)   bands (ev):

   -21.1001 -21.0904 -16.9921 -16.9694 -14.2968 -14.2544 -13.7803 -13.7407
    -6.5372  -6.4861  -6.4393  -6.4116  -6.3154  -6.3004  -2.9386  -2.8312
    -1.2813  -1.2055  -1.1455  -1.0076  -0.9229  -0.7451   2.3311   2.3987
     2.5194   2.6927   2.8229   2.9206   3.0860   3.1824   4.2571   4.3013
     9.4244   9.6768  10.1455  10.2478  10.6654  10.8844  11.2277  11.4363
    11.7186  11.9148  12.5668  12.8035  13.3010  13.5735  14.1168  14.5873
    15.0705  15.4946  16.1416  16.3419  16.9326  17.4508  18.1729  18.4636
    18.8857  19.2027  19.4825  19.6353  19.9055  20.0487  20.4343  20.7290

     occupation numbers
     1.0000   1.0000   1.0000   1.0000   1.0000   1.0000   1.0000   1.0000
     1.0000   1.0000   1.0000   1.0000   1.0000   1.0000   1.0000   1.0000
     1.0000   1.0000   1.0000   1.0000   1.0000   1.0000   1.0000   1.0000
     1.0000   1.0000   1.0000   1.0000   1.0000   1.0000   1.0000   1.0000
     0.0000   0.0000   0.0000   0.0000   0.0000   0.0000   0.0000   0.0000
     0.0000   0.0000   0.0000   0.0000   0.0000   0.0000   0.0000   0.0000
     0.0000   0.0000   0.0000   0.0000   0.0000   0.0000   0.0000   0.0000
     0.0000   0.0000   0.0000   0.0000   0.0000   0.0000   0.0000   0.0000

     highest occupied, lowest unoccupied level (ev):     4.5500    8.6135

!    total energy              =   -1159.61797062 Ry
     total all-electron energy =    -33598.413758 Ry
     estimated scf accuracy    <       0.00000064 Ry

     The total energy is the sum of the following terms:
     one-electron contribution =    -135.59079064 Ry
     hartree contribution      =     102.13003646 Ry
     xc contribution           =     -94.53024749 Ry
     ewald contribution        =    -212.26482161 Ry
     one-center paw contrib.   =    -819.36214735 Ry
      -> PAW hartree energy AE =      28.63878333 Ry
      -> PAW hartree energy PS =     -28.52535283 Ry
      -> PAW xc energy AE      =    -394.22071939 Ry
      -> PAW xc energy PS      =      19.15112604 Ry
      -> total E_H with PAW    =     102.24346696 Ry
      -> total E_XC with PAW   =    -469.59984084 Ry

     convergence has been achieved in  12 iterations

     Writing all to output data dir bands_nm/myprefix.save/

     General routines

     Parallel routines

     PAW routines

   This run was terminated on:   8:35:56  13Jul2023

   JOB DONE.