     Program PWSCF v.7.1 starts on 17Jul2023 at  0:47:32

     Reading input from espresso_3565.pwi
Warning: card &CELL ignored
Warning: card / ignored

     Current dimensions of program PWSCF are:
     Max number of different atomic species (ntypx) = 10
     Max number of k-points (npk) =  40000
     Max angular momentum in pseudopotentials (lmaxx) =  4
     file K.pbe-spn-kjpaw_psl.1.0.0.UPF: wavefunction(s)  3S renormalized
     file Fe.pbe-spn-kjpaw_psl.0.2.1.UPF: wavefunction(s)  3D renormalized
     Message from routine setup:
     the system is metallic, specify occupations
     Message from routine setup:
     using ibrav=0 with symmetry is DISCOURAGED, use correct ibrav instead

     K-points division:     npool     =       2
     R & G space division:  proc/nbgrp/npool/nimage =       4
     Subspace diagonalization in iterative solution of the eigenvalue problem:
     a serial algorithm will be used

     Using Slab Decomposition

     bravais-lattice index     =            0
     lattice parameter (alat)  =      12.0661  a.u.
     unit-cell volume          =    1242.1908 (a.u.)^3
     number of atoms/cell      =           10
     number of atomic types    =            4
     number of electrons       =        85.00 (up:  45.00, down:  40.00)
     number of Kohn-Sham states=           64
     kinetic-energy cutoff     =      30.0000  Ry
     charge density cutoff     =     240.0000  Ry
     scf convergence threshold =      1.0E-06
     mixing beta               =       0.7000
     number of iterations used =            8  plain     mixing
     Exchange-correlation=  SLA  PW   PBX  PBC
                           (   1   4   3   4   0   0   0)

     celldm(1)=  12.066124  celldm(2)=   0.000000  celldm(3)=   0.000000
     celldm(4)=   0.000000  celldm(5)=   0.000000  celldm(6)=   0.000000

     crystal axes: (cart. coord. in units of alat)
               a(1) = (   1.000000   0.000000   0.000000 )
               a(2) = (   0.500000   0.866025   0.000000 )
               a(3) = (   0.500000   0.288675   0.816497 )

     reciprocal axes: (cart. coord. in units 2 pi/alat)
               b(1) = (  1.000000 -0.577350 -0.408248 )
               b(2) = (  0.000000  1.154701 -0.408248 )
               b(3) = (  0.000000  0.000000  1.224745 )

     PseudoPot. # 1 for K  read from file:
     /lustre03/project/6004852/pragov/crystal_structure_design/crystal-design/crystal_design/utils/SSSP/K.pbe-spn-kjpaw_psl.1.0.0.UPF
     MD5 check sum: 7d58810084cac21f60fbe77ea2b688fd
     Pseudo is Projector augmented-wave + core cor, Zval =  9.0
     Generated using "atomic" code by A. Dal Corso  v.5.1
     Shape of augmentation charge: PSQ
     Using radial grid of 1165 points,  6 beta functions with:
                l(1) =   0
                l(2) =   0
                l(3) =   1
                l(4) =   1
                l(5) =   2
                l(6) =   2
     Q(r) pseudized with 0 coefficients

     PseudoPot. # 2 for Rb read from file:
     /lustre03/project/6004852/pragov/crystal_structure_design/crystal-design/crystal_design/utils/SSSP/Rb_ONCV_PBE-1.0.oncvpsp.upf
     MD5 check sum: 55a5172d6bfbce6759a58e35d43f6aa9
     Pseudo is Norm-conserving, Zval =  9.0
     Generated using ONCVPSP code by D. R. Hamann
     Using radial grid of 2308 points,  6 beta functions with:
                l(1) =   0
                l(2) =   0
                l(3) =   1
                l(4) =   1
                l(5) =   2
                l(6) =   2

     PseudoPot. # 3 for Fe read from file:
     /lustre03/project/6004852/pragov/crystal_structure_design/crystal-design/crystal_design/utils/SSSP/Fe.pbe-spn-kjpaw_psl.0.2.1.UPF
     MD5 check sum: e86618425769142926afa95317d90200
     Pseudo is Projector augmented-wave + core cor, Zval = 16.0
     Generated using "atomic" code by A. Dal Corso  v.5.0.99 svn rev. 10869
     Shape of augmentation charge: PSQ
     Using radial grid of 1191 points,  6 beta functions with:
                l(1) =   0
                l(2) =   0
                l(3) =   1
                l(4) =   1
                l(5) =   2
                l(6) =   2
     Q(r) pseudized with 0 coefficients

     PseudoPot. # 4 for F  read from file:
     /lustre03/project/6004852/pragov/crystal_structure_design/crystal-design/crystal_design/utils/SSSP/f_pbe_v1.4.uspp.F.UPF
     MD5 check sum: 4c38b6a325caf53ec0e86aed9459de46
     Pseudo is Ultrasoft, Zval =  7.0
     Generated by new atomic code, or converted to UPF format
     Using radial grid of  799 points,  4 beta functions with:
                l(1) =   0
                l(2) =   0
                l(3) =   1
                l(4) =   1
     Q(r) pseudized with  8 coefficients,  rinner =    0.950   0.950   0.950

     atomic species   valence    mass     pseudopotential
        K              9.00    39.09830     K ( 1.00)
        Rb             9.00    85.46780     Rb( 1.00)
        Fe            16.00    55.84500     Fe( 1.00)
        F              7.00    18.99840     F ( 1.00)

     Starting magnetic structure
     atomic species   magnetization
        K            0.000
        Rb           0.000
        Fe           0.000
        F            0.000

     12 Sym. Ops., with inversion, found

                                    s                        frac. trans.

      isym =  1     identity

 cryst.   s( 1) = (     1          0          0      )
                  (     0          1          0      )
                  (     0          0          1      )

 cart.    s( 1) = (  1.0000000  0.0000000  0.0000000 )
                  (  0.0000000  1.0000000  0.0000000 )
                  (  0.0000000  0.0000000  1.0000000 )

      isym =  2     180 deg rotation - cart. axis [1,0,0]

[...]

      isym =  3     120 deg rotation - cryst. axis [0,0,1]

[...]

      isym =  6     180 deg rotation - cryst. axis [1,1,0]

[...]

      isym =  7     inversion

[...]

      isym =  8     inv. 180 deg rotation - cart. axis [1,0,0]

[...]

      isym =  9     inv. 120 deg rotation - cryst. axis [0,0,1]

 cryst.   s( 9) = (     1         -1          0      )
                  (     1          0          0      )
                  (     1          0         -1      )

 cart.    s( 9) = (  0.5000000  0.8660254 -0.0000000 )
                  ( -0.8660254  0.5000000 -0.0000000 )
                  (  0.0000000  0.0000000 -1.0000000 )

[...]

 cryst.   s(10) = (     0          1          0      )
                  (    -1          1          0      )
                  (     0          1         -1      )

 cart.    s(10) = (  0.5000000 -0.8660254  0.0000000 )
                  (  0.8660254  0.5000000 -0.0000000 )
                  (  0.0000000  0.0000000 -1.0000000 )

[...]

      isym = 12     inv. 180 deg rotation - cryst. axis [1,1,0]

 cryst.   s(12) = (     1         -1          0      )
                  (     0         -1          0      )
                  (     0         -1          1      )

 cart.    s(12) = (  0.5000000 -0.8660254  0.0000000 )
                  ( -0.8660254 -0.5000000  0.0000000 )
                  (  0.0000000  0.0000000  1.0000000 )

   Cartesian axes

     site n.     atom                  positions (alat units)
         1           K   tau(   1) = (   1.0000000   0.5773503   0.4082483  )
         2           Rb  tau(   2) = (   1.5000000   0.8660254   0.6123724  )
         3           Rb  tau(   3) = (   0.5000000   0.2886751   0.2041241  )
         4           Fe  tau(   4) = (   0.0000000   0.0000000   0.0000000  )
         5           F   tau(   5) = (   1.2825020   0.4142477   0.6389102  )
         6           F   tau(   6) = (   0.7174980   0.4142477   0.6389102  )
         7           F   tau(   7) = (   1.2825020   0.7404529   0.1775864  )
         8           F   tau(   8) = (   1.0000000   0.2511451   0.1775864  )
         9           F   tau(   9) = (   0.7174980   0.7404529   0.1775864  )
        10           F   tau(  10) = (   1.0000000   0.9035555   0.6389102  )

   Crystallographic axes

     site n.     atom                  positions (cryst. coord.)
         1           K   tau(   1) = (  0.5000000  0.5000000  0.5000000  )
         2           Rb  tau(   2) = (  0.7500000  0.7500000  0.7500000  )
         3           Rb  tau(   3) = (  0.2500000  0.2500000  0.2500000  )
         4           Fe  tau(   4) = (  0.0000000  0.0000000  0.0000000  )
         5           F   tau(   5) = (  0.7825020  0.2174980  0.7825020  )
         6           F   tau(   6) = (  0.2174980  0.2174980  0.7825020  )
         7           F   tau(   7) = (  0.7825020  0.7825020  0.2174980  )
         8           F   tau(   8) = (  0.7825020  0.2174980  0.2174980  )
         9           F   tau(   9) = (  0.2174980  0.7825020  0.2174980  )
        10           F   tau(  10) = (  0.2174980  0.7825020  0.7825020  )

     number of k points=     6
                       cart. coord. in units 2pi/alat
        k(    1) = (   0.0000000   0.0000000   0.0000000), wk =   0.0370370
        k(    2) = (   0.0000000   0.0000000   0.4082483), wk =   0.0740741
        k(    3) = (   0.0000000   0.3849002  -0.1360828), wk =   0.2222222
        k(    4) = (   0.0000000   0.3849002   0.2721655), wk =   0.2222222
        k(    5) = (   0.0000000   0.3849002  -0.5443311), wk =   0.2222222
        k(    6) = (   0.3333333  -0.5773503   0.0000000), wk =   0.2222222

                       cryst. coord.
        k(    1) = (   0.0000000   0.0000000   0.0000000), wk =   0.0370370
        k(    2) = (   0.0000000   0.0000000   0.3333333), wk =   0.0740741
        k(    3) = (   0.0000000   0.3333333   0.0000000), wk =   0.2222222
        k(    4) = (   0.0000000   0.3333333   0.3333333), wk =   0.2222222
        k(    5) = (   0.0000000   0.3333333  -0.3333333), wk =   0.2222222
        k(    6) = (   0.3333333  -0.3333333  -0.0000000), wk =   0.2222222

     Check: negative core charge=   -0.000052
     Generating pointlists ...
     new r_m :   0.1648 (alat units)  1.9885 (a.u.) for type    1
     new r_m :   0.2071 (alat units)  2.4991 (a.u.) for type    2
     new r_m :   0.1269 (alat units)  1.5310 (a.u.) for type    3
     new r_m :   0.1269 (alat units)  1.5310 (a.u.) for type    4

     Initial potential from superposition of free atoms

     starting charge      84.9312, renormalised to      85.0000
     Starting wfcs are   55 randomized atomic wfcs +    9 random wfcs
     Checking if some PAW data can be deallocated...

     Self-consistent Calculation

     iteration #  1     ecut=    30.00 Ry     beta= 0.70
     Davidson diagonalization with overlap

     ethr =  1.00E-02,  avg # of iterations =  6.3

     negative rho (up, down):  0.000E+00 6.760E-04

     total energy              =    -831.49096674 Ry
     estimated scf accuracy    <       2.25788603 Ry

     total magnetization       =     5.00 Bohr mag/cell
     absolute magnetization    =     5.01 Bohr mag/cell

[...]

     total energy              =    -832.36826328 Ry
     estimated scf accuracy    <       0.00000228 Ry

[...]

     iteration # 11     ecut=    30.00 Ry     beta= 0.70
     Davidson diagonalization with overlap

     ethr =  1.86E-09,  avg # of iterations =  1.9

     negative rho (up, down):  0.000E+00 9.502E-04

     Magnetic moment per site  (integrated on atomic sphere of radius R)
     atom   1 (R=0.165)  charge=  7.3127  magn=  0.0078
     atom   2 (R=0.207)  charge=  7.5432  magn=  0.0003
     atom   3 (R=0.207)  charge=  7.5432  magn=  0.0003
     atom   4 (R=0.127)  charge= 12.9936  magn=  3.8519
     atom   5 (R=0.127)  charge=  6.4247  magn=  0.1338
     atom   6 (R=0.127)  charge=  6.4247  magn=  0.1338
     atom   7 (R=0.127)  charge=  6.4247  magn=  0.1338
     atom   8 (R=0.127)  charge=  6.4247  magn=  0.1338
     atom   9 (R=0.127)  charge=  6.4247  magn=  0.1338
     atom  10 (R=0.127)  charge=  6.4247  magn=  0.1338

     End of self-consistent calculation

 ------ SPIN UP ------------

          k = 0.0000 0.0000 0.0000 (  3479 PWs)   bands (ev):

   -87.6270 -53.1042 -53.1042 -53.1042 -24.0291 -21.6193 -21.5917 -18.3887
   -18.0524 -18.0524 -18.0524 -18.0223 -18.0223  -7.5956  -7.5956  -7.5956
    -5.8154  -5.8154  -5.8154  -5.6566  -5.6566  -5.6566  -2.1756  -2.1756
    -1.5112  -1.4070  -1.4070  -1.4070  -0.0987  -0.0987  -0.0987   0.8591
     0.8591   0.8591   0.9964   0.9964   0.9964   1.1681   1.1681   1.1681
     1.3212   1.3212   1.3212   2.7326   2.7326   7.7955  10.4949  10.4949
    11.1922  11.1922  11.1922  11.9360  11.9360  11.9360  13.3757  13.8264
    13.8264  13.8264  14.5246  14.5246  14.8365  15.4408  15.4408  16.1364

     occupation numbers
     1.0000   1.0000   1.0000   1.0000   1.0000   1.0000   1.0000   1.0000
     1.0000   1.0000   1.0000   1.0000   1.0000   1.0000   1.0000   1.0000
     1.0000   1.0000   1.0000   1.0000   1.0000   1.0000   1.0000   1.0000
     1.0000   1.0000   1.0000   1.0000   1.0000   1.0000   1.0000   1.0000
     1.0000   1.0000   1.0000   1.0000   1.0000   1.0000   1.0000   1.0000
     1.0000   1.0000   1.0000   1.0000   1.0000   0.0000   0.0000   0.0000
     0.0000   0.0000   0.0000   0.0000   0.0000   0.0000   0.0000   0.0000
     0.0000   0.0000   0.0000   0.0000   0.0000   0.0000   0.0000   0.0000

[...]

 ------ SPIN DOWN ----------

[...]

          k = 0.3333-0.5774 0.0000 (  3468 PWs)   bands (ev):

   -82.6761 -48.3289 -48.3219 -48.3195 -24.0177 -21.6025 -21.6025 -18.1558
   -17.7944 -17.7876 -17.7818 -17.7626 -17.7591  -7.5852  -7.5805  -7.5723
    -5.7427  -5.7241  -5.7054  -5.6822  -5.6485  -5.6216  -0.9222  -0.5918
    -0.4525  -0.1860  -0.1108  -0.0167   0.0196   0.1035   0.1680   0.9492
     0.9651   1.0165   1.0499   1.0799   1.1426   1.3706   1.3841   1.4653
     4.5568   4.5842   4.5933   5.5832   5.6793  10.1279  10.4185  11.0193
    11.2773  11.4925  11.9885  12.0655  12.1778  12.3156  12.4583  12.7829
    13.2967  14.0357  14.2104  14.7659  14.8124  14.9969  15.2956  15.4840

     occupation numbers
     1.0000   1.0000   1.0000   1.0000   1.0000   1.0000   1.0000   1.0000
     1.0000   1.0000   1.0000   1.0000   1.0000   1.0000   1.0000   1.0000
     1.0000   1.0000   1.0000   1.0000   1.0000   1.0000   1.0000   1.0000
     1.0000   1.0000   1.0000   1.0000   1.0000   1.0000   1.0000   1.0000
     1.0000   1.0000   1.0000   1.0000   1.0000   1.0000   1.0000   1.0000
     0.0000   0.0000   0.0000   0.0000   0.0000   0.0000   0.0000   0.0000
     0.0000   0.0000   0.0000   0.0000   0.0000   0.0000   0.0000   0.0000
     0.0000   0.0000   0.0000   0.0000   0.0000   0.0000   0.0000   0.0000

     highest occupied, lowest unoccupied level (ev):     2.8353    4.5252

!    total energy              =    -832.36826388 Ry
     estimated scf accuracy    <       0.00000002 Ry

     The total energy is the sum of the following terms:
     one-electron contribution =    -488.52412209 Ry
     hartree contribution      =     281.60670870 Ry
     xc contribution           =    -117.39961865 Ry
     ewald contribution        =    -376.55603076 Ry
     one-center paw contrib.   =    -131.49520107 Ry
      -> PAW hartree energy AE =      37.99998354 Ry
      -> PAW hartree energy PS =     -37.78890783 Ry
      -> PAW xc energy AE      =     -66.25931964 Ry
      -> PAW xc energy PS      =      10.62907943 Ry
      -> total E_H with PAW    =     281.81778441 Ry
      -> total E_XC with PAW   =    -173.02985887 Ry

     total magnetization       =     5.00 Bohr mag/cell
     absolute magnetization    =     5.07 Bohr mag/cell

     convergence has been achieved in  11 iterations

     Writing all to output data dir bands_nm_v2/myprefix.save/

     General routines

     Parallel routines

     PAW routines

   This run was terminated on:   0:47:50  17Jul2023

   JOB DONE.