     Program PWSCF v.7.1 starts on 15Jul2023 at 21:19: 5

     Reading input from espresso_18713.pwi
Warning: card &CELL ignored
Warning: card / ignored

     Current dimensions of program PWSCF are:
     Max number of different atomic species (ntypx) = 10
     Max number of k-points (npk) =  40000
     Max angular momentum in pseudopotentials (lmaxx) =  4
     Message from routine setup:
     using ibrav=0 with symmetry is DISCOURAGED, use correct ibrav instead

     K-points division:     npool     =       2
     R & G space division:  proc/nbgrp/npool/nimage =       4
     Subspace diagonalization in iterative solution of the eigenvalue problem:
     one sub-group per band group will be used

     Using Slab Decomposition

     bravais-lattice index     =            0
     lattice parameter (alat)  =      25.9592  a.u.
     unit-cell volume          =    4097.1376 (a.u.)^3
     number of atoms/cell      =           20
     number of atomic types    =            2
     number of electrons       =       160.00
     number of Kohn-Sham states=          256
     kinetic-energy cutoff     =      30.0000  Ry
     charge density cutoff     =     240.0000  Ry
     scf convergence threshold =      1.0E-06
     mixing beta               =       0.7000
     number of iterations used =            8  plain     mixing
     Exchange-correlation= SLA  PW   PBE  PBE
                           (   1   4   3   4   0   0   0)

     celldm(1)=  25.959182  celldm(2)=   0.000000  celldm(3)=   0.000000
     celldm(4)=   0.000000  celldm(5)=   0.000000  celldm(6)=   0.000000

     crystal axes: (cart. coord. in units of alat)
               a(1) = (   1.000000   0.000000   0.000000 )
               a(2) = (   0.817111   0.491129   0.000000 )
               a(3) = (   0.182889  -0.117430   0.476883 )

     reciprocal axes: (cart. coord. in units 2 pi/alat)
               b(1) = (  1.000000 -1.663742 -0.793196 )
               b(2) = (  0.000000  2.036126  0.501385 )
               b(3) = (  0.000000  0.000000  2.096949 )

     PseudoPot. # 1 for Sc read from file:
     /lustre07/scratch/pragov/crystal_structure_design/utils/SSSP/Sc_ONCV_PBE-1.0.oncvpsp.upf
     MD5 check sum: e21af8023abb52e52cb7cd3133e4a229
     Pseudo is Norm-conserving, Zval = 11.0
     Generated using ONCVPSP code by D. R. Hamann
     Using radial grid of 1662 points,  6 beta functions with:
                l(1) =   0
                l(2) =   0
                l(3) =   1
                l(4) =   1
                l(5) =   2
                l(6) =   2

     PseudoPot. # 2 for Te read from file:
     /lustre07/scratch/pragov/crystal_structure_design/utils/SSSP/Te_pbe_v1.uspp.F.UPF
     MD5 check sum: c319670d6894cc26e93307826a071b75
     Pseudo is Ultrasoft + core correction, Zval =  6.0
     Generated by new atomic code, or converted to UPF format
     Using radial grid of  891 points,  5 beta functions with:
                l(1) =   0
                l(2) =   0
                l(3) =   1
                l(4) =   1
                l(5) =   2
     Q(r) pseudized with  6 coefficients,  rinner =    1.800   1.800   1.800
                                                       1.800   1.800

     atomic species   valence    mass     pseudopotential
        Sc            11.00    44.95591     Sc( 1.00)
        Te             6.00   127.60000     Te( 1.00)

      2 Sym. Ops., with inversion, found ( 1 have fractional translation)

                                    s                        frac. trans.

      isym =  1     identity

 cryst.   s( 1) = (     1          0          0      )
                  (     0          1          0      )
                  (     0          0          1      )

 cart.    s( 1) = (  1.0000000  0.0000000  0.0000000 )
                  (  0.0000000  1.0000000 -0.0000000 )
                  (  0.0000000  0.0000000  1.0000000 )

      isym =  2     inversion

 cryst.   s( 2) = (    -1          0          0      )    f =( -0.2500000 )
                  (     0         -1          0      )       ( -0.2500000 )
                  (     0          0         -1      )       ( -0.2500000 )

 cart.    s( 2) = ( -1.0000000  0.0000000  0.0000000 )    f =( -0.5000000 )
                  (  0.0000000 -1.0000000  0.0000000 )       ( -0.0934247 )
                  (  0.0000000  0.0000000 -1.0000000 )       ( -0.1192208 )

   Cartesian axes

     site n.     atom                  positions (alat units)
         1           Sc  tau(   1) = (   0.6340863   0.1433563   0.0800930  )
         2           Sc  tau(   2) = (   0.3659137   0.0434931   0.1583486  )
         3           Sc  tau(   3) = (   1.6830250   0.4411972   0.0391278  )
         4           Sc  tau(   4) = (   0.3169750  -0.0674983   0.4377555  )
         5           Sc  tau(   5) = (   0.0921421  -0.0584551   0.2382380  )
         6           Sc  tau(   6) = (   0.9078579   0.2453045   0.0002036  )
         7           Sc  tau(   7) = (   0.5907465   0.0344499   0.3578661  )
         8           Sc  tau(   8) = (   1.4092535   0.3392490   0.1190172  )
         9           Te  tau(   9) = (   1.5000000   0.1877530   0.2395948  )
        10           Te  tau(  10) = (   1.5000000   0.3727952   0.4757302  )
        11           Te  tau(  11) = (   1.0000000   0.2793705   0.3565094  )
        12           Te  tau(  12) = (   1.0000000   0.0943283   0.1203739  )
        13           Te  tau(  13) = (   0.9559764  -0.0157670   0.3978370  )
        14           Te  tau(  14) = (   1.0440226   0.3900675   0.0798141  )
        15           Te  tau(  15) = (   1.2272369   0.0846443   0.3179124  )
        16           Te  tau(  16) = (   0.7727621   0.2884525   0.1582027  )
        17           Te  tau(  17) = (   0.7269122  -0.0082383   0.1982671  )
        18           Te  tau(  18) = (   1.2730888   0.1944860   0.0394068  )
        19           Te  tau(  19) = (   1.2727631   0.3824792   0.2781918  )
        20           Te  tau(  20) = (   0.7272379   0.1786711   0.4379014  )

   Crystallographic axes

     site n.     atom                  positions (cryst. coord.)
         1           Sc  tau(   1) = (  0.3320490  0.3320490  0.1679510  )
         2           Sc  tau(   2) = (  0.1679510  0.1679510  0.3320490  )
         3           Sc  tau(   3) = (  0.9179510  0.9179510  0.0820490  )
         4           Sc  tau(   4) = (  0.0820490  0.0820490  0.9179510  )
         5           Sc  tau(   5) = (  0.0004270  0.0004270  0.4995730  )
         6           Sc  tau(   6) = (  0.4995730  0.4995730  0.0004270  )
         7           Sc  tau(   7) = (  0.2495730  0.2495730  0.7504270  )
         8           Sc  tau(   8) = (  0.7504270  0.7504270  0.2495730  )
         9           Te  tau(   9) = (  0.9975820  0.5024180  0.5024180  )
        10           Te  tau(  10) = (  0.5024180  0.9975820  0.9975820  )
        11           Te  tau(  11) = (  0.2524180  0.7475820  0.7475820  )
        12           Te  tau(  12) = (  0.7475820  0.2524180  0.2524180  )
        13           Te  tau(  13) = (  0.6666460  0.1673660  0.8342440  )
        14           Te  tau(  14) = (  0.3317430  0.8342440  0.1673660  )
        15           Te  tau(  15) = (  0.8342440  0.3317430  0.6666460  )
        16           Te  tau(  16) = (  0.1673660  0.6666460  0.3317430  )
        17           Te  tau(  17) = (  0.5833540  0.0826340  0.4157560  )
        18           Te  tau(  18) = (  0.9182570  0.4157560  0.0826340  )
        19           Te  tau(  19) = (  0.4157560  0.9182570  0.5833540  )
        20           Te  tau(  20) = (  0.0826340  0.5833540  0.9182570  )

     number of k points=    14
                       cart. coord. in units 2pi/alat
        k(    1) = (   0.0000000   0.0000000   0.0000000), wk =   0.0740741
        k(    2) = (   0.0000000   0.0000000   0.6989830), wk =   0.1481481
        k(    3) = (   0.0000000   0.6787086   0.1671284), wk =   0.1481481
        k(    4) = (   0.0000000   0.6787086   0.8661114), wk =   0.1481481
        k(    5) = (   0.0000000   0.6787086  -0.5318546), wk =   0.1481481
        k(    6) = (   0.3333333  -0.5545805  -0.2643985), wk =   0.1481481
        k(    7) = (   0.3333333  -0.5545805   0.4345845), wk =   0.1481481
        k(    8) = (   0.3333333  -0.5545805  -0.9633815), wk =   0.1481481
        k(    9) = (   0.3333333   0.1241281  -0.0972702), wk =   0.1481481
        k(   10) = (   0.3333333   0.1241281   0.6017128), wk =   0.1481481
        k(   11) = (   0.3333333   0.1241281  -0.7962532), wk =   0.1481481
        k(   12) = (   0.3333333  -1.2332891  -0.4315269), wk =   0.1481481
        k(   13) = (   0.3333333  -1.2332891   0.2674561), wk =   0.1481481
        k(   14) = (   0.3333333  -1.2332891  -1.1305099), wk =   0.1481481

                       cryst. coord.
        k(    1) = (   0.0000000   0.0000000   0.0000000), wk =   0.0740741
        k(    2) = (   0.0000000   0.0000000   0.3333333), wk =   0.1481481
        k(    3) = (   0.0000000   0.3333333  -0.0000000), wk =   0.1481481
        k(    4) = (   0.0000000   0.3333333   0.3333333), wk =   0.1481481
        k(    5) = (   0.0000000   0.3333333  -0.3333333), wk =   0.1481481
        k(    6) = (   0.3333333   0.0000000   0.0000000), wk =   0.1481481
        k(    7) = (   0.3333333   0.0000000   0.3333333), wk =   0.1481481
        k(    8) = (   0.3333333   0.0000000  -0.3333333), wk =   0.1481481
        k(    9) = (   0.3333333   0.3333333   0.0000000), wk =   0.1481481
        k(   10) = (   0.3333333   0.3333333   0.3333333), wk =   0.1481481
        k(   11) = (   0.3333333   0.3333333  -0.3333333), wk =   0.1481481
        k(   12) = (   0.3333333  -0.3333333   0.0000000), wk =   0.1481481
        k(   13) = (   0.3333333  -0.3333333   0.3333333), wk =   0.1481481
        k(   14) = (   0.3333333  -0.3333333  -0.3333333), wk =   0.1481481

     Initial potential from superposition of free atoms

     starting charge     159.9763, renormalised to     160.0000
     Starting wfcs are  128 randomized atomic wfcs +  128 random wfcs

     Self-consistent Calculation

     iteration #  1     ecut=    30.00 Ry     beta= 0.70
     Davidson diagonalization with overlap

     ethr =  1.00E-02,  avg # of iterations =  7.4

     Threshold (ethr) on eigenvalues was too large:
     Diagonalizing with lowered threshold

     Davidson diagonalization with overlap

[...]

     total energy              =   -1054.45402789 Ry
     estimated scf accuracy    <       0.51636404 Ry

[...]

     total energy              =   -1054.65059484 Ry
     estimated scf accuracy    <       0.00001974 Ry

     iteration # 10     ecut=    30.00 Ry     beta= 0.70
     Davidson diagonalization with overlap

     ethr =  1.23E-08,  avg # of iterations =  1.0

     End of self-consistent calculation

          k = 0.0000 0.0000 0.0000 ( 11391 PWs)   bands (ev):

   -43.7300 -43.7300 -43.7292 -43.7292 -43.5910 -43.5905 -43.5903 -43.5897
   -22.3255 -22.3255 -22.3236 -22.3236 -22.2901 -22.2901 -22.2821 -22.2814
   -22.2774 -22.2774 -22.2703 -22.2701 -22.1832 -22.1798 -22.1710 -22.1682
   -22.1671 -22.1665 -22.1634 -22.1613 -22.1333 -22.1332 -22.1277 -22.1274
    -4.8522  -4.3479  -4.2135  -3.6788  -3.6747  -3.6728  -3.6717  -3.6299
    -3.5909  -3.5641  -3.5352  -3.5320   2.2525   2.2679   2.5462   2.5691
     2.9734   3.0263   3.3550   3.4676   3.5874   3.6434   3.7560   3.7889
     3.7908   3.8957   4.0484   4.1549   4.3239   4.3605   4.3857   4.5054
     4.5185   4.7828   4.8730   4.9518   5.1820   5.2668   5.2778   5.3016
     5.3276   5.3701   5.3801   5.4280   6.0222   6.8350   6.8532   6.8637
     6.8698   7.7019   7.7679   7.8253   7.9144   8.1275   8.2143   8.2210
     8.3415   8.3817   8.4055   8.4143   8.5141   8.5152   8.5483   8.5616
     8.6013   8.6391   8.6588   8.6672   8.6904   8.7287   8.7765   8.7781
     8.8241   8.8998   8.9655   9.0581   9.1844   9.3274   9.4700   9.7525
     9.7556  10.0656  10.1895  10.2337  10.3085  10.4196  10.4224  10.4307
    10.5548  10.9438  11.5239  11.6783  11.7125  11.7804  11.8007  11.9538
    12.4203  12.6598  12.9057  13.0872  13.1391  13.1573  13.3131  13.3344
    13.4587  13.5667  13.8191  13.9406  13.9830  14.0702  14.1163  14.4998
    14.5740  14.6239  14.6777  14.7016  14.7097  14.7166  14.8788  14.9507
    14.9844  15.0972  15.1120  15.3603  15.5032  15.6311  15.7196  15.8408
    15.8828  15.9613  16.0244  16.3433  16.3881  16.6150  16.6789  16.6813
    16.7831  17.5780  17.9964  18.0787  18.2067  18.3834  18.5725  18.5945
    18.6430  18.7132  18.7193  18.7231  18.7831  18.8013  18.8602  18.8810
    19.0759  19.1143  19.1918  19.2153  19.2536  19.2658  19.4397  19.6486
    19.7111  20.2079  20.2542  20.5388  20.5739  20.5785  20.5953  20.6039
    20.7321  20.8588  20.9339  20.9407  20.9577  20.9580  20.9751  20.9956
    21.0086  21.0288  21.3676  21.8677  21.9675  21.9958  22.4108  22.5017
    22.8570  22.8973  22.9649  22.9672  22.9739  22.9796  23.0038  23.1531
    23.3111  23.9285  24.0290  24.1344  24.2259  24.2260  24.3128  24.4448
    24.4503  24.6426  24.6533  24.6717  24.8531  24.9517  24.9961  25.0219
    25.0633  25.2311  25.2372  25.2775  25.4326  25.8156  25.9065  25.9428
    26.2620  26.3697  26.4031  26.6982  26.7151  26.7257  26.7655  26.9498

     occupation numbers
     1.0000   1.0000   1.0000   1.0000   1.0000   1.0000   1.0000   1.0000
     1.0000   1.0000   1.0000   1.0000   1.0000   1.0000   1.0000   1.0000
     1.0000   1.0000   1.0000   1.0000   1.0000   1.0000   1.0000   1.0000
     1.0000   1.0000   1.0000   1.0000   1.0000   1.0000   1.0000   1.0000
     1.0000   1.0000   1.0000   1.0000   1.0000   1.0000   1.0000   1.0000
     1.0000   1.0000   1.0000   1.0000   1.0000   1.0000   1.0000   1.0000
     1.0000   1.0000   1.0000   1.0000   1.0000   1.0000   1.0000   1.0000
     1.0000   1.0000   1.0000   1.0000   1.0000   1.0000   1.0000   1.0000
     1.0000   1.0000   1.0000   1.0000   1.0000   1.0000   1.0000   1.0000
     1.0000   1.0000   1.0000   1.0000   1.0000   1.0000   1.0000   1.0000
     0.0000   0.0000   0.0000   0.0000   0.0000   0.0000   0.0000   0.0000
     0.0000   0.0000   0.0000   0.0000   0.0000   0.0000   0.0000   0.0000
     0.0000   0.0000   0.0000   0.0000   0.0000   0.0000   0.0000   0.0000
     0.0000   0.0000   0.0000   0.0000   0.0000   0.0000   0.0000   0.0000
     0.0000   0.0000   0.0000   0.0000   0.0000   0.0000   0.0000   0.0000
     0.0000   0.0000   0.0000   0.0000   0.0000   0.0000   0.0000   0.0000
     0.0000   0.0000   0.0000   0.0000   0.0000   0.0000   0.0000   0.0000
     0.0000   0.0000   0.0000   0.0000   0.0000   0.0000   0.0000   0.0000
     0.0000   0.0000   0.0000   0.0000   0.0000   0.0000   0.0000   0.0000
     0.0000   0.0000   0.0000   0.0000   0.0000   0.0000   0.0000   0.0000
     0.0000   0.0000   0.0000   0.0000   0.0000   0.0000   0.0000   0.0000
     0.0000   0.0000   0.0000   0.0000   0.0000   0.0000   0.0000   0.0000
     0.0000   0.0000   0.0000   0.0000   0.0000   0.0000   0.0000   0.0000
     0.0000   0.0000   0.0000   0.0000   0.0000   0.0000   0.0000   0.0000
     0.0000   0.0000   0.0000   0.0000   0.0000   0.0000   0.0000   0.0000
     0.0000   0.0000   0.0000   0.0000   0.0000   0.0000   0.0000   0.0000
     0.0000   0.0000   0.0000   0.0000   0.0000   0.0000   0.0000   0.0000
     0.0000   0.0000   0.0000   0.0000   0.0000   0.0000   0.0000   0.0000
     0.0000   0.0000   0.0000   0.0000   0.0000   0.0000   0.0000   0.0000
     0.0000   0.0000   0.0000   0.0000   0.0000   0.0000   0.0000   0.0000
     0.0000   0.0000   0.0000   0.0000   0.0000   0.0000   0.0000   0.0000
     0.0000   0.0000   0.0000   0.0000   0.0000   0.0000   0.0000   0.0000

[...]

          k = 0.3333-1.2333-1.1305 ( 11379 PWs)   bands (ev):

   -43.7300 -43.7300 -43.7292 -43.7292 -43.5908 -43.5906 -43.5901 -43.5900
   -22.3259 -22.3258 -22.3229 -22.3229 -22.2899 -22.2899 -22.2821 -22.2818
   -22.2775 -22.2775 -22.2702 -22.2702 -22.1818 -22.1810 -22.1705 -22.1700
   -22.1656 -22.1655 -22.1628 -22.1621 -22.1323 -22.1319 -22.1295 -22.1289
    -4.4959  -4.3206  -3.9045  -3.8248  -3.8195  -3.7831  -3.7679  -3.6900
    -3.6798  -3.6797  -3.6270  -3.6229   2.2818   2.4389   2.7259   2.7410
     3.0734   3.1251   3.1399   3.1578   3.1905   3.2661   3.9439   4.1262
     4.2274   4.3248   4.3887   4.4312   4.5583   4.5795   4.6768   4.6885
     4.7847   4.8105   4.9092   4.9464   5.0634   5.1238   5.2190   5.2305
     5.3376   5.3976   5.4865   5.5049   5.7600   5.8617   5.9576   6.0764
     7.3309   7.3390   7.3741   7.6046   7.6742   7.7543   8.0970   8.2351
     8.3552   8.3565   8.3817   8.4133   8.5551   8.5899   8.6662   8.7029
     8.7077   8.7505   8.7946   8.8018   8.8174   8.8598   8.8987   8.9023
     9.0389   9.1577   9.1937   9.1967   9.3677   9.4433   9.5700   9.7142
     9.7637   9.8632  10.0903  10.2846  10.4926  10.5313  10.5700  10.6502
    10.8431  10.9370  11.0753  11.3350  11.3377  11.4971  11.5689  11.8481
    12.0080  12.0501  12.1047  12.6276  13.1966  13.2688  13.2807  13.3970
    13.4846  13.5080  13.5399  13.6366  13.6739  13.7617  13.8309  13.8709
    14.0814  14.1761  14.3195  14.6975  14.7020  14.8771  14.9450  15.2659
    15.2753  15.5424  15.5519  15.6647  15.8801  15.9089  16.0142  16.2460
    16.7959  16.8049  16.8607  16.8726  16.9244  16.9764  17.0898  17.1391
    17.4305  17.6599  17.7389  17.8347  17.9222  18.1038  18.1319  18.2239
    18.2924  18.3032  18.4149  18.6322  18.9117  18.9311  19.1809  19.1895
    19.2669  19.3322  19.4919  19.5279  19.6826  20.0051  20.0999  20.1382
    20.2332  20.3154  20.3840  20.4400  20.4573  20.5250  20.6085  20.6257
    21.0199  21.1849  21.3586  21.5473  21.5628  21.6045  21.6260  21.7307
    21.7631  21.7696  21.8770  21.9043  22.0515  22.1676  22.3533  22.4188
    22.4534  22.4629  22.4709  22.5626  22.7815  22.9323  22.9689  23.3028
    23.3809  23.4313  23.5141  23.5935  23.7164  23.7335  23.9601  24.0325
    24.1465  24.2408  24.3079  24.3321  24.4522  24.6579  24.7404  25.0483
    25.1352  25.1831  25.4145  25.6009  25.6193  25.6629  25.7292  25.7337
    25.8324  25.8600  25.9049  25.9857  26.0372  26.2158  26.2296  26.3437

     occupation numbers
     1.0000   1.0000   1.0000   1.0000   1.0000   1.0000   1.0000   1.0000
     1.0000   1.0000   1.0000   1.0000   1.0000   1.0000   1.0000   1.0000
     1.0000   1.0000   1.0000   1.0000   1.0000   1.0000   1.0000   1.0000
     1.0000   1.0000   1.0000   1.0000   1.0000   1.0000   1.0000   1.0000
     1.0000   1.0000   1.0000   1.0000   1.0000   1.0000   1.0000   1.0000
     1.0000   1.0000   1.0000   1.0000   1.0000   1.0000   1.0000   1.0000
     1.0000   1.0000   1.0000   1.0000   1.0000   1.0000   1.0000   1.0000
     1.0000   1.0000   1.0000   1.0000   1.0000   1.0000   1.0000   1.0000
     1.0000   1.0000   1.0000   1.0000   1.0000   1.0000   1.0000   1.0000
     1.0000   1.0000   1.0000   1.0000   1.0000   1.0000   1.0000   1.0000
     0.0000   0.0000   0.0000   0.0000   0.0000   0.0000   0.0000   0.0000
     0.0000   0.0000   0.0000   0.0000   0.0000   0.0000   0.0000   0.0000
     0.0000   0.0000   0.0000   0.0000   0.0000   0.0000   0.0000   0.0000
     0.0000   0.0000   0.0000   0.0000   0.0000   0.0000   0.0000   0.0000
     0.0000   0.0000   0.0000   0.0000   0.0000   0.0000   0.0000   0.0000
     0.0000   0.0000   0.0000   0.0000   0.0000   0.0000   0.0000   0.0000
     0.0000   0.0000   0.0000   0.0000   0.0000   0.0000   0.0000   0.0000
     0.0000   0.0000   0.0000   0.0000   0.0000   0.0000   0.0000   0.0000
     0.0000   0.0000   0.0000   0.0000   0.0000   0.0000   0.0000   0.0000
     0.0000   0.0000   0.0000   0.0000   0.0000   0.0000   0.0000   0.0000
     0.0000   0.0000   0.0000   0.0000   0.0000   0.0000   0.0000   0.0000
     0.0000   0.0000   0.0000   0.0000   0.0000   0.0000   0.0000   0.0000
     0.0000   0.0000   0.0000   0.0000   0.0000   0.0000   0.0000   0.0000
     0.0000   0.0000   0.0000   0.0000   0.0000   0.0000   0.0000   0.0000
     0.0000   0.0000   0.0000   0.0000   0.0000   0.0000   0.0000   0.0000
     0.0000   0.0000   0.0000   0.0000   0.0000   0.0000   0.0000   0.0000
     0.0000   0.0000   0.0000   0.0000   0.0000   0.0000   0.0000   0.0000
     0.0000   0.0000   0.0000   0.0000   0.0000   0.0000   0.0000   0.0000
     0.0000   0.0000   0.0000   0.0000   0.0000   0.0000   0.0000   0.0000
     0.0000   0.0000   0.0000   0.0000   0.0000   0.0000   0.0000   0.0000
     0.0000   0.0000   0.0000   0.0000   0.0000   0.0000   0.0000   0.0000
     0.0000   0.0000   0.0000   0.0000   0.0000   0.0000   0.0000   0.0000

     highest occupied, lowest unoccupied level (ev):     6.8637    6.8698

!    total energy              =   -1054.65059689 Ry
     estimated scf accuracy    <       0.00000006 Ry

     The total energy is the sum of the following terms:
     one-electron contribution =    -435.91711165 Ry
     hartree contribution      =     255.62583996 Ry
     xc contribution           =    -268.84594093 Ry
     ewald contribution        =    -605.51338427 Ry

     convergence has been achieved in  10 iterations

     Writing all to output data dir bands_nm/myprefix.save/

     General routines

     Parallel routines

   This run was terminated on:  21:21:55  15Jul2023

   JOB DONE.