     Program PWSCF v.7.1 starts on 16Jul2023 at 15:33:37

     Reading input from espresso_26773.pwi
Warning: card &CELL ignored
Warning: card / ignored

     Current dimensions of program PWSCF are:
     Max number of different atomic species (ntypx) = 10
     Max number of k-points (npk) =  40000
     Max angular momentum in pseudopotentials (lmaxx) =  4
     file In.pbe-dn-rrkjus_psl.0.2.2.UPF: wavefunction(s)  5S renormalized
     Message from routine setup:
     using ibrav=0 with symmetry is DISCOURAGED, use correct ibrav instead

     K-points division:     npool     =       2
     R & G space division:  proc/nbgrp/npool/nimage =       4
     Subspace diagonalization in iterative solution of the eigenvalue problem:
     a serial algorithm will be used

     Using Slab Decomposition

     bravais-lattice index     =            0
     lattice parameter (alat)  =       8.2254  a.u.
     unit-cell volume          =    1557.7997 (a.u.)^3
     number of atoms/cell      =            8
     number of atomic types    =            3
     number of electrons       =        72.00
     number of Kohn-Sham states=           64
     kinetic-energy cutoff     =      30.0000  Ry
     charge density cutoff     =     240.0000  Ry
     scf convergence threshold =      1.0E-06
     mixing beta               =       0.7000
     number of iterations used =            8  plain     mixing
     Exchange-correlation= PBE
                           (   1   4   3   4   0   0   0)

     celldm(1)=   8.225385  celldm(2)=   0.000000  celldm(3)=   0.000000
     celldm(4)=   0.000000  celldm(5)=   0.000000  celldm(6)=   0.000000

     crystal axes: (cart. coord. in units of alat)
               a(1) = (   1.000000   0.000000   0.000000 )
               a(2) = (   0.000000   1.395245   0.000000 )
               a(3) = (   0.000000   0.000000   2.006285 )

     reciprocal axes: (cart. coord. in units 2 pi/alat)
               b(1) = (  1.000000  0.000000  0.000000 )
               b(2) = (  0.000000  0.716720  0.000000 )
               b(3) = (  0.000000  0.000000  0.498434 )

     PseudoPot. # 1 for In read from file:
     /lustre07/scratch/pragov/crystal_structure_design/utils/SSSP/In.pbe-dn-rrkjus_psl.0.2.2.UPF
     MD5 check sum: 25e7c42c3b55b68f4bf926be2e7201a4
     Pseudo is Ultrasoft + core correction, Zval = 13.0
     Generated using "atomic" code by A. Dal Corso  v.5.0.99 svn rev. 10869
     Using radial grid of 1241 points,  6 beta functions with:
                l(1) =   0
                l(2) =   0
                l(3) =   1
                l(4) =   1
                l(5) =   2
                l(6) =   2
     Q(r) pseudized with 0 coefficients

     PseudoPot. # 2 for As read from file:
     /lustre07/scratch/pragov/crystal_structure_design/utils/SSSP/As.pbe-n-rrkjus_psl.0.2.UPF
     MD5 check sum: 767315de957beeeb34f87d97bf945c8f
     Pseudo is Ultrasoft + core correction, Zval =  5.0
     Generated using "atomic" code by A. Dal Corso  v.5.0.99 svn rev. 10869
     Using radial grid of 1209 points,  4 beta functions with:
                l(1) =   0
                l(2) =   0
                l(3) =   1
                l(4) =   1
     Q(r) pseudized with 0 coefficients

     PseudoPot. # 3 for P  read from file:
     /lustre07/scratch/pragov/crystal_structure_design/utils/SSSP/P.pbe-n-rrkjus_psl.1.0.0.UPF
     MD5 check sum: 8b930f418f0a4573dca56cd030ffe088
     Pseudo is Ultrasoft + core correction, Zval =  5.0
     Generated using "atomic" code by A. Dal Corso  v.5.1
     Using radial grid of 1147 points,  6 beta functions with:
                l(1) =   0
                l(2) =   0
                l(3) =   1
                l(4) =   1
                l(5) =   2
                l(6) =   2
     Q(r) pseudized with 0 coefficients

     atomic species   valence    mass     pseudopotential
        In            13.00   114.81800     In( 1.00)
        As             5.00    74.92159     As( 1.00)
        P              5.00    30.97376     P ( 1.00)

      4 Sym. Ops. (no inversion) found ( 2 have fractional translation)

                                    s                        frac. trans.

      isym =  1     identity

 cryst.   s( 1) = (     1          0          0      )
                  (     0          1          0      )
                  (     0          0          1      )

 cart.    s( 1) = (  1.0000000  0.0000000  0.0000000 )
                  (  0.0000000  1.0000000  0.0000000 )
                  (  0.0000000  0.0000000  1.0000000 )

      isym =  2     180 deg rotation - cart. axis [0,1,0]

 cryst.   s( 2) = (    -1          0          0      )    f =(  0.0000000 )
                  (     0          1          0      )       (  0.0000000 )
                  (     0          0         -1      )       ( -0.5000000 )

 cart.    s( 2) = ( -1.0000000  0.0000000  0.0000000 )    f =(  0.0000000 )
                  (  0.0000000  1.0000000  0.0000000 )       (  0.0000000 )
                  (  0.0000000  0.0000000 -1.0000000 )       ( -1.0031423 )

      isym =  3     inv. 180 deg rotation - cart. axis [0,0,1]

 cryst.   s( 3) = (     1          0          0      )    f =(  0.0000000 )
                  (     0          1          0      )       (  0.0000000 )
                  (     0          0         -1      )       ( -0.5000000 )

 cart.    s( 3) = (  1.0000000  0.0000000  0.0000000 )    f =(  0.0000000 )
                  (  0.0000000  1.0000000  0.0000000 )       (  0.0000000 )
                  (  0.0000000  0.0000000 -1.0000000 )       ( -1.0031423 )

      isym =  4     inv. 180 deg rotation - cart. axis [1,0,0]

 cryst.   s( 4) = (    -1          0          0      )
                  (     0          1          0      )
                  (     0          0          1      )

 cart.    s( 4) = ( -1.0000000  0.0000000  0.0000000 )
                  (  0.0000000  1.0000000  0.0000000 )
                  (  0.0000000  0.0000000  1.0000000 )

   Cartesian axes

     site n.     atom                  positions (alat units)
         1           In  tau(   1) = (   0.0000000   0.0064404   1.9950535  )
         2           In  tau(   2) = (   0.5000000   0.7000319   0.5015712  )
         3           In  tau(   3) = (   0.0000000   0.0064404   1.0143735  )
         4           In  tau(   4) = (   0.5000000   0.6848809   1.5047135  )
         5           As  tau(   5) = (   0.5000000   1.0459298   2.0026553  )
         6           As  tau(   6) = (   0.0000000   0.3473224   0.5015712  )
         7           As  tau(   7) = (   0.5000000   1.0459298   1.0067717  )
         8           P   tau(   8) = (   0.0000000   0.3487595   1.5047135  )

   Crystallographic axes

     site n.     atom                  positions (cryst. coord.)
         1           In  tau(   1) = (  0.0000000  0.0046160  0.9944020  )
         2           In  tau(   2) = (  0.5000000  0.5017270  0.2500000  )
         3           In  tau(   3) = (  0.0000000  0.0046160  0.5055980  )
         4           In  tau(   4) = (  0.5000000  0.4908680  0.7500000  )
         5           As  tau(   5) = (  0.5000000  0.7496390  0.9981910  )
         6           As  tau(   6) = (  0.0000000  0.2489330  0.2500000  )
         7           As  tau(   7) = (  0.5000000  0.7496390  0.5018090  )
         8           P   tau(   8) = (  0.0000000  0.2499630  0.7500000  )

     number of k points=     8
                       cart. coord. in units 2pi/alat
        k(    1) = (   0.0000000   0.0000000   0.0000000), wk =   0.0740741
        k(    2) = (   0.0000000   0.0000000   0.1661446), wk =   0.1481481
        k(    3) = (   0.0000000   0.2389067   0.0000000), wk =   0.1481481
        k(    4) = (   0.0000000   0.2389067   0.1661446), wk =   0.2962963
        k(    5) = (   0.3333333   0.0000000   0.0000000), wk =   0.1481481
        k(    6) = (   0.3333333   0.0000000   0.1661446), wk =   0.2962963
        k(    7) = (   0.3333333   0.2389067   0.0000000), wk =   0.2962963
        k(    8) = (   0.3333333   0.2389067   0.1661446), wk =   0.5925926

                       cryst. coord.
        k(    1) = (   0.0000000   0.0000000   0.0000000), wk =   0.0740741
        k(    2) = (   0.0000000   0.0000000   0.3333333), wk =   0.1481481
        k(    3) = (   0.0000000   0.3333333   0.0000000), wk =   0.1481481
        k(    4) = (   0.0000000   0.3333333   0.3333333), wk =   0.2962963
        k(    5) = (   0.3333333   0.0000000   0.0000000), wk =   0.1481481
        k(    6) = (   0.3333333   0.0000000   0.3333333), wk =   0.2962963
        k(    7) = (   0.3333333   0.3333333   0.0000000), wk =   0.2962963
        k(    8) = (   0.3333333   0.3333333   0.3333333), wk =   0.5925926

     Initial potential from superposition of free atoms

     starting charge      71.9843, renormalised to      72.0000
     Starting wfcs are   52 randomized atomic wfcs +   12 random wfcs

     Self-consistent Calculation

     iteration #  1     ecut=    30.00 Ry     beta= 0.70
     Davidson diagonalization with overlap

     ethr =  1.00E-02,  avg # of iterations =  7.9

     Threshold (ethr) on eigenvalues was too large:
     Diagonalizing with lowered threshold

     Davidson diagonalization with overlap

[...]

     total energy              =    -647.98335153 Ry
     estimated scf accuracy    <       0.32658290 Ry

[...]

     total energy              =    -648.09450249 Ry
     estimated scf accuracy    <       0.00000124 Ry

     iteration #  9     ecut=    30.00 Ry     beta= 0.70
     Davidson diagonalization with overlap

     ethr =  1.72E-09,  avg # of iterations =  2.2

     End of self-consistent calculation

          k = 0.0000 0.0000 0.0000 (  4323 PWs)   bands (ev):

    -8.4901  -8.4421  -8.4364  -8.3539  -8.3500  -8.3448  -8.3161  -8.3123
    -8.3100  -8.3084  -8.2819  -8.2811  -8.2735  -8.2556  -8.2521  -8.2441
    -8.2383  -8.2318  -8.2310  -8.2105  -5.5185  -4.3449  -4.1862  -3.5918
     0.3563   1.0731   1.1770   3.3062   3.3272   3.6765   3.6983   4.7937
     5.0046   5.5387   5.8479   5.9036   5.9121   7.5146   7.8494   8.3202
     8.4367   9.7735   9.7773   9.7927  10.7119  10.8589  11.1786  11.1949
    11.2439  11.2827  13.4171  13.9242  13.9424  14.7564  14.7631  14.7755
    15.3146  15.3250  15.3812  15.5536  16.3875  16.3875  16.6776  17.1640

     occupation numbers
     1.0000   1.0000   1.0000   1.0000   1.0000   1.0000   1.0000   1.0000
     1.0000   1.0000   1.0000   1.0000   1.0000   1.0000   1.0000   1.0000
     1.0000   1.0000   1.0000   1.0000   1.0000   1.0000   1.0000   1.0000
     1.0000   1.0000   1.0000   1.0000   1.0000   1.0000   1.0000   1.0000
     1.0000   1.0000   1.0000   1.0000   0.0000   0.0000   0.0000   0.0000
     0.0000   0.0000   0.0000   0.0000   0.0000   0.0000   0.0000   0.0000
     0.0000   0.0000   0.0000   0.0000   0.0000   0.0000   0.0000   0.0000
     0.0000   0.0000   0.0000   0.0000   0.0000   0.0000   0.0000   0.0000

[...]

          k = 0.3333 0.2389 0.1661 (  4329 PWs)   bands (ev):

    -8.4632  -8.4546  -8.4466  -8.4272  -8.3281  -8.3235  -8.3172  -8.3130
    -8.3044  -8.2990  -8.2936  -8.2899  -8.2612  -8.2578  -8.2473  -8.2426
    -8.2402  -8.2351  -8.2224  -8.2217  -4.5057  -4.1790  -3.9940  -3.6680
     0.5305   0.6262   0.9860   1.3389   2.7826   3.2533   3.4053   4.0841
     4.3058   4.3625   4.5325   4.9760   8.0067   8.2667   8.4833   9.0776
     9.4332  10.0206  10.0914  10.7294  10.8738  11.1146  11.3709  11.5391
    12.3479  12.5475  12.6205  12.8900  13.2816  13.9722  14.1557  14.2119
    15.0385  15.3340  15.6459  16.2931  16.4301  16.7992  17.5252  17.7551

     occupation numbers
     1.0000   1.0000   1.0000   1.0000   1.0000   1.0000   1.0000   1.0000
     1.0000   1.0000   1.0000   1.0000   1.0000   1.0000   1.0000   1.0000
     1.0000   1.0000   1.0000   1.0000   1.0000   1.0000   1.0000   1.0000
     1.0000   1.0000   1.0000   1.0000   1.0000   1.0000   1.0000   1.0000
     1.0000   1.0000   1.0000   1.0000   0.0000   0.0000   0.0000   0.0000
     0.0000   0.0000   0.0000   0.0000   0.0000   0.0000   0.0000   0.0000
     0.0000   0.0000   0.0000   0.0000   0.0000   0.0000   0.0000   0.0000
     0.0000   0.0000   0.0000   0.0000   0.0000   0.0000   0.0000   0.0000

     highest occupied, lowest unoccupied level (ev):     5.9036    5.9121

!    total energy              =    -648.09450283 Ry
     estimated scf accuracy    <       0.00000003 Ry

     The total energy is the sum of the following terms:
     one-electron contribution =    -264.59601935 Ry
     hartree contribution      =     181.81459497 Ry
     xc contribution           =    -222.56015643 Ry
     ewald contribution        =    -342.75292201 Ry

     convergence has been achieved in   9 iterations

     Writing all to output data dir bands_nm/myprefix.save/

     General routines

     Parallel routines

   This run was terminated on:  15:33:47  16Jul2023

   JOB DONE.