     Program PWSCF v.7.1 starts on 14Jul2023 at 15: 0:33

     Reading input from espresso_10901.pwi
Warning: card &CELL ignored
Warning: card / ignored

     Current dimensions of program PWSCF are:
     Max number of different atomic species (ntypx) = 10
     Max number of k-points (npk) =  40000
     Max angular momentum in pseudopotentials (lmaxx) =  4
     file Pr.paw.z_13.atompaw.wentzcovitch.v1.2.upf: wavefunction(s)  6S 0P 5D 0D 4F 0F renormalized
     Message from routine setup:
     using ibrav=0 with symmetry is DISCOURAGED, use correct ibrav instead

     K-points division:     npool     =       2
     R & G space division:  proc/nbgrp/npool/nimage =       4
     Subspace diagonalization in iterative solution of the eigenvalue problem:
     a serial algorithm will be used

     Using Slab Decomposition

     bravais-lattice index     =            0
     lattice parameter (alat)  =      14.9037  a.u.
     unit-cell volume          =    2548.3569 (a.u.)^3
     number of atoms/cell      =           14
     number of atomic types    =            3
     number of electrons       =       120.00
     number of Kohn-Sham states=           64
     kinetic-energy cutoff     =      30.0000  Ry
     charge density cutoff     =     240.0000  Ry
     scf convergence threshold =      1.0E-06
     mixing beta               =       0.7000
     number of iterations used =            8  plain     mixing
     Exchange-correlation= SLA  PW   PBE  PBE
                           (   1   4   3   4   0   0   0)

     celldm(1)=  14.903701  celldm(2)=   0.000000  celldm(3)=   0.000000
     celldm(4)=   0.000000  celldm(5)=   0.000000  celldm(6)=   0.000000

     crystal axes: (cart. coord. in units of alat)
               a(1) = (   1.000000   0.000000   0.000000 )
               a(2) = (  -0.334190   0.942506   0.000000 )
               a(3) = (  -0.332905  -0.471253   0.816759 )

     reciprocal axes: (cart. coord. in units 2 pi/alat)
               b(1) = (  1.000000  0.354576  0.612176 )
               b(2) = (  0.000000  1.061001  0.612176 )
               b(3) = (  0.000000  0.000000  1.224352 )

     PseudoPot. # 1 for Sr read from file:
     /lustre07/scratch/pragov/crystal_structure_design/utils/SSSP/Sr_pbe_v1.uspp.F.UPF
     MD5 check sum: 6b418c05fbe9db5448babca5e47b7a5b
     Pseudo is Ultrasoft + core correction, Zval = 10.0
     Generated by new atomic code, or converted to UPF format
     Using radial grid of  883 points,  6 beta functions with:
                l(1) =   0
                l(2) =   0
                l(3) =   1
                l(4) =   1
                l(5) =   2
                l(6) =   2
     Q(r) pseudized with  6 coefficients,  rinner =    1.400   1.400   1.400
                                                       1.400   1.400

     PseudoPot. # 2 for Pr read from file:
     /lustre07/scratch/pragov/crystal_structure_design/utils/SSSP/Pr.paw.z_13.atompaw.wentzcovitch.v1.2.upf
     MD5 check sum: e0f8e046fa815e336ba020f7e7bc75cb
     Pseudo is Projector augmented-wave + core cor, Zval = 13.0
     Generated using ATOMPAW code
     Shape of augmentation charge: BESSEL
     Using radial grid of 1103 points,  8 beta functions with:
                l(1) =   0
                l(2) =   0
                l(3) =   1
                l(4) =   1
                l(5) =   2
                l(6) =   2
                l(7) =   3
                l(8) =   3
     Q(r) pseudized with 0 coefficients

     PseudoPot. # 3 for Se read from file:
     /lustre07/scratch/pragov/crystal_structure_design/utils/SSSP/Se_pbe_v1.uspp.F.UPF
     MD5 check sum: 1b3568f3a8ae88f9a2a0ad0698632c85
     Pseudo is Ultrasoft + core correction, Zval =  6.0
     Generated by new atomic code, or converted to UPF format
     Using radial grid of  877 points,  6 beta functions with:
                l(1) =   0
                l(2) =   0
                l(3) =   1
                l(4) =   1
                l(5) =   2
                l(6) =   2
     Q(r) pseudized with  8 coefficients,  rinner =    1.300   1.300   1.300
                                                       1.300   1.300

     atomic species   valence    mass     pseudopotential
        Sr            10.00    87.62000     Sr( 1.00)
        Pr            13.00   140.90766     Pr( 1.00)
        Se             6.00    78.97100     Se( 1.00)

      2 Sym. Ops. (no inversion) found ( 1 have fractional translation)

                                    s                        frac. trans.

      isym =  1     identity

 cryst.   s( 1) = (     1          0          0      )
                  (     0          1          0      )
                  (     0          0          1      )

 cart.    s( 1) = (  1.0000000  0.0000000  0.0000000 )
                  (  0.0000000  1.0000000  0.0000000 )
                  (  0.0000000  0.0000000  1.0000000 )

      isym =  2     inv. 180 deg rotation - cart. axis [0,0,1]

 cryst.   s( 2) = (     1          0          0      )    f =( -0.2500000 )
                  (     0          1          0      )       (  0.2500000 )
                  (    -1         -1         -1      )       (  0.5000000 )

 cart.    s( 2) = (  1.0000000  0.0000000 -0.0000000 )    f =( -0.5000000 )
                  (  0.0000000  1.0000000 -0.0000000 )       (  0.0000000 )
                  (  0.0000000  0.0000000 -1.0000000 )       (  0.4083794 )

   Cartesian axes

     site n.     atom                  positions (alat units)
         1           Sr  tau(   1) = (   0.5000000   0.0000000   0.4083794  )
         2           Sr  tau(   2) = (   0.3329051   0.4712529   0.0000000  )
         3           Pr  tau(   3) = (   0.8319123   0.2953479   0.1006827  )
         4           Pr  tau(   4) = (   0.1674454   0.4115315   0.5090621  )
         5           Pr  tau(   5) = (  -0.3325546   0.4115315   0.7160761  )
         6           Pr  tau(   6) = (  -0.0009928  -0.1759050   0.3076967  )
         7           Se  tau(   7) = (   0.1937710   0.1371666   0.2036866  )
         8           Se  tau(   8) = (   0.5373948   0.4059575   0.3292575  )
         9           Se  tau(   9) = (  -0.1298796   0.1709116   0.4875013  )
        10           Se  tau(  10) = (   0.3701204   0.1709116   0.7376369  )
        11           Se  tau(  11) = (   0.0266761   0.6084195   0.2046928  )
        12           Se  tau(  12) = (   0.2316190  -0.2427829   0.6120660  )
        13           Se  tau(  13) = (   0.3702999   0.8772104   0.0791219  )
        14           Se  tau(  14) = (  -0.2683810  -0.2427829   0.6130722  )

   Crystallographic axes

     site n.     atom                  positions (cryst. coord.)
         1           Sr  tau(   1) = (  0.7500000  0.2500000  0.5000000  )
         2           Sr  tau(   2) = (  0.5000000  0.5000000  0.0000000  )
         3           Pr  tau(   3) = (  0.9982710  0.3750000  0.1232710  )
         4           Pr  tau(   4) = (  0.6250000  0.7482710  0.6232710  )
         5           Pr  tau(   5) = (  0.2517290  0.8750000  0.8767290  )
         6           Pr  tau(   6) = (  0.1250000  0.0017290  0.3767290  )
         7           Se  tau(   7) = (  0.3670990  0.2702260  0.2493840  )
         8           Se  tau(   8) = (  0.8829010  0.6322850  0.4031270  )
         9           Se  tau(   9) = (  0.2291580  0.4797740  0.5968730  )
        10           Se  tau(  10) = (  0.8822850  0.6329010  0.9031270  )
        11           Se  tau(  11) = (  0.3677150  0.7708420  0.2506160  )
        12           Se  tau(  12) = (  0.5202260  0.1170990  0.7493840  )
        13           Se  tau(  13) = (  0.7297740  0.9791580  0.0968730  )
        14           Se  tau(  14) = (  0.0208420  0.1177150  0.7506160  )

     number of k points=    10
                       cart. coord. in units 2pi/alat
        k(    1) = (   0.0000000   0.0000000   0.0000000), wk =   0.0740741
        k(    2) = (   0.0000000   0.0000000   0.4081172), wk =   0.1481481
        k(    3) = (   0.0000000   0.3536671   0.2040586), wk =   0.2962963
        k(    4) = (   0.0000000   0.3536671   0.6121759), wk =   0.1481481
        k(    5) = (   0.3333333   0.1181920   0.2040586), wk =   0.2962963
        k(    6) = (   0.3333333   0.1181920   0.6121759), wk =   0.1481481
        k(    7) = (   0.3333333   0.4718591   0.4081172), wk =   0.2962963
        k(    8) = (   0.3333333   0.4718591  -0.0000000), wk =   0.1481481
        k(    9) = (   0.3333333  -0.2354752   0.0000000), wk =   0.1481481
        k(   10) = (   0.3333333  -0.2354752   0.4081172), wk =   0.2962963

                       cryst. coord.
        k(    1) = (   0.0000000   0.0000000   0.0000000), wk =   0.0740741
        k(    2) = (   0.0000000   0.0000000   0.3333333), wk =   0.1481481
        k(    3) = (   0.0000000   0.3333333   0.0000000), wk =   0.2962963
        k(    4) = (   0.0000000   0.3333333   0.3333333), wk =   0.1481481
        k(    5) = (   0.3333333   0.0000000   0.0000000), wk =   0.2962963
        k(    6) = (   0.3333333   0.0000000   0.3333333), wk =   0.1481481
        k(    7) = (   0.3333333   0.3333333   0.0000000), wk =   0.2962963
        k(    8) = (   0.3333333   0.3333333  -0.3333333), wk =   0.1481481
        k(    9) = (   0.3333333  -0.3333333  -0.0000000), wk =   0.1481481
        k(   10) = (   0.3333333  -0.3333333   0.3333333), wk =   0.2962963

     Initial potential from superposition of free atoms

     starting charge     119.9025, renormalised to     120.0000

     negative rho (up, down):  1.254E-01 0.000E+00
     Starting wfcs are  186 randomized atomic wfcs
     Checking if some PAW data can be deallocated...

     Self-consistent Calculation

     iteration #  1     ecut=    30.00 Ry     beta= 0.70
     Davidson diagonalization with overlap

     ethr =  1.00E-02,  avg # of iterations =  1.0

     negative rho (up, down):  1.276E-01 0.000E+00

     total energy              =   -2519.76795641 Ry
     estimated scf accuracy    <       4.24772459 Ry

[...]

     c_bands:  2 eigenvalues not converged
     c_bands:  3 eigenvalues not converged
     c_bands:  2 eigenvalues not converged
     ethr =  1.34E-04,  avg # of iterations = 19.4

[...]

     c_bands:  1 eigenvalues not converged
     ethr =  1.98E-09,  avg # of iterations = 16.6

[...]

     total energy              =   -2524.18167007 Ry
     estimated scf accuracy    <       0.00007060 Ry

     iteration #230     ecut=    30.00 Ry     beta= 0.70
     Davidson diagonalization with overlap

     ethr =  1.09E-09,  avg # of iterations = 12.3

     negative rho (up, down):  1.305E-01 0.000E+00

     End of self-consistent calculation

          k = 0.0000 0.0000 0.0000 (  7011 PWs)   bands (ev):

   -26.8422 -26.8311 -26.8305 -26.8233 -25.8994 -25.8982  -9.0741  -9.0697
    -9.0690  -9.0276  -8.9830  -8.9420  -8.9418  -8.8911  -8.8607  -8.8232
    -8.8205  -8.7925  -8.0142  -8.0130  -7.9806  -7.9713  -7.9691  -7.9678
    -4.0339  -3.5174  -2.9471  -2.9429  -2.9365  -2.9151  -2.9141  -2.9064
     4.8180   4.8193   4.8266   4.8936   4.9154   5.3105   5.6083   5.6466
     6.2782   6.2787   6.5009   6.6891   6.7913   6.7925   6.8266   7.4557
     7.4559   7.5559   7.7145   7.7246   7.7296   7.9507   8.1886   8.1902
     9.3315   9.3533   9.3704   9.4008   9.4060   9.4275   9.4327   9.4692

     occupation numbers
     1.0000   1.0000   1.0000   1.0000   1.0000   1.0000   1.0000   1.0000
     1.0000   1.0000   1.0000   1.0000   1.0000   1.0000   1.0000   1.0000
     1.0000   1.0000   1.0000   1.0000   1.0000   1.0000   1.0000   1.0000
     1.0000   1.0000   1.0000   1.0000   1.0000   1.0000   1.0000   1.0000
     1.0000   1.0000   1.0000   1.0000   1.0000   1.0000   1.0000   1.0000
     1.0000   1.0000   1.0000   1.0000   1.0000   1.0000   1.0000   1.0000
     1.0000   1.0000   1.0000   1.0000   1.0000   1.0000   1.0000   1.0000
     1.0000   1.0000   1.0000   1.0000   0.0000   0.0000   0.0000   0.0000

[...]

          k = 0.3333-0.2355 0.4081 (  7089 PWs)   bands (ev):

   -26.8371 -26.8322 -26.8310 -26.8269 -25.8990 -25.8987  -9.0946  -9.0474
    -9.0175  -8.9963  -8.9609  -8.9520  -8.9112  -8.8985  -8.8901  -8.8524
    -8.8428  -8.8234  -8.0253  -8.0162  -7.9903  -7.9772  -7.9740  -7.9695
    -3.5575  -3.3583  -3.2198  -3.2004  -3.1511  -3.1196  -2.7892  -2.7809
     4.7592   5.0678   5.3325   5.3390   5.4209   5.6451   5.6889   5.6950
     5.8298   5.8844   6.0771   6.2415   6.7317   6.8280   7.0060   7.1203
     7.1631   7.2457   7.2759   7.2909   7.7912   7.8749   7.9802   8.0754
     9.3590   9.3676   9.3791   9.3913   9.3985   9.4112   9.4264   9.4463

     occupation numbers
     1.0000   1.0000   1.0000   1.0000   1.0000   1.0000   1.0000   1.0000
     1.0000   1.0000   1.0000   1.0000   1.0000   1.0000   1.0000   1.0000
     1.0000   1.0000   1.0000   1.0000   1.0000   1.0000   1.0000   1.0000
     1.0000   1.0000   1.0000   1.0000   1.0000   1.0000   1.0000   1.0000
     1.0000   1.0000   1.0000   1.0000   1.0000   1.0000   1.0000   1.0000
     1.0000   1.0000   1.0000   1.0000   1.0000   1.0000   1.0000   1.0000
     1.0000   1.0000   1.0000   1.0000   1.0000   1.0000   1.0000   1.0000
     1.0000   1.0000   1.0000   1.0000   0.0000   0.0000   0.0000   0.0000

     highest occupied, lowest unoccupied level (ev):     9.4008    9.3960

!    total energy              =   -2524.18167156 Ry
     estimated scf accuracy    <       0.00000073 Ry

     The total energy is the sum of the following terms:
     one-electron contribution =     -74.42561047 Ry
     hartree contribution      =     106.98193028 Ry
     xc contribution           =    -322.52972723 Ry
     ewald contribution        =    -555.81224539 Ry
     one-center paw contrib.   =   -1678.39601875 Ry
      -> PAW hartree energy AE =       0.00000000 Ry
      -> PAW hartree energy PS =       0.00000000 Ry
      -> PAW xc energy AE      =       0.00000000 Ry
      -> PAW xc energy PS      =       0.00000000 Ry
      -> total E_H with PAW    =     106.98193028 Ry
      -> total E_XC with PAW   =    -322.52972723 Ry

     convergence has been achieved in 230 iterations

     Writing all to output data dir bands_nm/myprefix.save/

     General routines

     Parallel routines

     PAW routines

   This run was terminated on:  15: 8: 8  14Jul2023

   JOB DONE.