     Program PWSCF v.7.1 starts on 15Jul2023 at 18:51:24

     Reading input from espresso_17551.pwi
Warning: card &CELL ignored
Warning: card / ignored

     Current dimensions of program PWSCF are:
     Max number of different atomic species (ntypx) = 10
     Max number of k-points (npk) =  40000
     Max angular momentum in pseudopotentials (lmaxx) =  4
     file Ba.pbe-spn-kjpaw_psl.1.0.0.UPF: wavefunction(s)  5S 6S renormalized
     file Nd.paw.z_14.atompaw.wentzcovitch.v1.2.upf: wavefunction(s)  6S 0P 5D 0D 0F renormalized
     file Al.pbe-n-kjpaw_psl.1.0.0.UPF: wavefunction(s)  3S 3P renormalized
     file O.pbe-n-kjpaw_psl.0.1.UPF: wavefunction(s)  2P renormalized
     Message from routine setup:
     using ibrav=0 with symmetry is DISCOURAGED, use correct ibrav instead

     K-points division:     npool     =       2
     R & G space division:  proc/nbgrp/npool/nimage =       4
     Subspace diagonalization in iterative solution of the eigenvalue problem:
     one sub-group per band group will be used

     Using Slab Decomposition

     bravais-lattice index     =            0
     lattice parameter (alat)  =      11.7534  a.u.
     unit-cell volume          =    2104.0756 (a.u.)^3
     number of atoms/cell      =           18
     number of atomic types    =            4
     number of electrons       =       134.00
     number of Kohn-Sham states=          256
     kinetic-energy cutoff     =      30.0000  Ry
     charge density cutoff     =     240.0000  Ry
     scf convergence threshold =      1.0E-06
     mixing beta               =       0.7000
     number of iterations used =            8  plain     mixing
     Exchange-correlation= SLA  PW   PBX  PBC
                           (   1   4   3   4   0   0   0)

     celldm(1)=  11.753418  celldm(2)=   0.000000  celldm(3)=   0.000000
     celldm(4)=   0.000000  celldm(5)=   0.000000  celldm(6)=   0.000000

     crystal axes: (cart. coord. in units of alat)
               a(1) = (   1.000000   0.000000   0.000000 )
               a(2) = (   0.000000   1.195284   0.000000 )
               a(3) = (   0.000000   0.570880   1.084171 )

     reciprocal axes: (cart. coord. in units 2 pi/alat)
               b(1) = (  1.000000  0.000000  0.000000 )
               b(2) = (  0.000000  0.836622 -0.440531 )
               b(3) = (  0.000000  0.000000  0.922364 )

     PseudoPot. # 1 for Ba read from file:
     /lustre07/scratch/pragov/crystal_structure_design/utils/SSSP/Ba.pbe-spn-kjpaw_psl.1.0.0.UPF
     MD5 check sum: c432291d3e53af55f19d5e8866385beb
     Pseudo is Projector augmented-wave + core cor, Zval = 10.0
     Generated using "atomic" code by A. Dal Corso  v.5.1
     Shape of augmentation charge: PSQ
     Using radial grid of 1251 points,  7 beta functions with:
                l(1) =   0
                l(2) =   0
                l(3) =   0
                l(4) =   1
                l(5) =   1
                l(6) =   2
                l(7) =   2
     Q(r) pseudized with 0 coefficients

     PseudoPot. # 2 for Nd read from file:
     /lustre07/scratch/pragov/crystal_structure_design/utils/SSSP/Nd.paw.z_14.atompaw.wentzcovitch.v1.2.upf
     MD5 check sum: 8a77231a7dfbac907351543c5ef6bfc9
     Pseudo is Projector augmented-wave + core cor, Zval = 14.0
     Generated using ATOMPAW code
     Shape of augmentation charge: BESSEL
     Using radial grid of 1105 points,  8 beta functions with:
                l(1) =   0
                l(2) =   0
                l(3) =   1
                l(4) =   1
                l(5) =   2
                l(6) =   2
                l(7) =   3
                l(8) =   3
     Q(r) pseudized with 0 coefficients

     PseudoPot. # 3 for Al read from file:
     /lustre07/scratch/pragov/crystal_structure_design/utils/SSSP/Al.pbe-n-kjpaw_psl.1.0.0.UPF
     MD5 check sum: cfc449ca30b5f3223ec38ddd88ac046d
     Pseudo is Projector augmented-wave + core cor, Zval =  3.0
     Generated using "atomic" code by A. Dal Corso  v.5.1
     Shape of augmentation charge: PSQ
     Using radial grid of 1135 points,  6 beta functions with:
                l(1) =   0
                l(2) =   0
                l(3) =   1
                l(4) =   1
                l(5) =   2
                l(6) =   2
     Q(r) pseudized with 0 coefficients

     PseudoPot. # 4 for O  read from file:
     /lustre07/scratch/pragov/crystal_structure_design/utils/SSSP/O.pbe-n-kjpaw_psl.0.1.UPF
     MD5 check sum: 0234752ac141de4415c5fc33072bef88
     Pseudo is Projector augmented-wave + core cor, Zval =  6.0
     Generated using "atomic" code by A. Dal Corso  v.5.0.99 svn rev. 10869
     Shape of augmentation charge: BESSEL
     Using radial grid of 1095 points,  4 beta functions with:
                l(1) =   0
                l(2) =   0
                l(3) =   1
                l(4) =   1
     Q(r) pseudized with 0 coefficients

     atomic species   valence    mass     pseudopotential
        Ba            10.00   137.32700     Ba( 1.00)
        Nd            14.00   144.24200     Nd( 1.00)
        Al             3.00    26.98154     Al( 1.00)
        O              6.00    15.99900     O ( 1.00)

      2 Sym. Ops. (no inversion) found ( 1 have fractional translation)

                                    s                        frac. trans.

      isym =  1     identity

 cryst.   s( 1) = (     1          0          0      )
                  (     0          1          0      )
                  (     0          0          1      )

 cart.    s( 1) = (  1.0000000  0.0000000  0.0000000 )
                  (  0.0000000  1.0000000  0.0000000 )
                  (  0.0000000  0.0000000  1.0000000 )

      isym =  2     180 deg rotation - cart. axis [1,0,0]

 cryst.   s( 2) = (     1          0          0      )    f =( -0.5000000 )
                  (     0         -1          0      )       ( -0.0000000 )
                  (     0          0         -1      )       (  0.0000000 )

 cart.    s( 2) = (  1.0000000  0.0000000  0.0000000 )    f =( -0.5000000 )
                  (  0.0000000 -1.0000000  0.0000000 )       ( -0.0000000 )
                  (  0.0000000  0.0000000 -1.0000000 )       (  0.0000000 )

   Cartesian axes

     site n.     atom                  positions (alat units)
         1           Ba  tau(   1) = (   0.2401860   1.2588905   0.4293318  )
         2           Ba  tau(   2) = (   0.2442290   0.8567918   0.9285557  )
         3           Ba  tau(   3) = (   0.7401860   0.5072735   0.6548393  )
         4           Ba  tau(   4) = (   0.7442290   0.9093722   0.1556154  )
         5           Nd  tau(   5) = (   0.2387970   0.6722229   0.3643335  )
         6           Nd  tau(   6) = (   0.7387970   1.0939411   0.7198376  )
         7           Al  tau(   7) = (   0.7270210   0.2945364   0.1772782  )
         8           Al  tau(   8) = (   0.2270210   1.4716275   0.9068929  )
         9           O   tau(   9) = (   0.5019990   0.8756873   0.5293064  )
        10           O   tau(  10) = (   0.2603210   0.4856877   0.7108964  )
        11           O   tau(  11) = (   0.4244160   1.2728839   0.8399345  )
        12           O   tau(  12) = (   0.7521260   0.7877897   0.9862076  )
        13           O   tau(  13) = (   0.7603210   1.2804763   0.3732747  )
        14           O   tau(  14) = (   0.9629040   1.3668810   0.8596675  )
        15           O   tau(  15) = (   0.0019990   0.8904767   0.5548647  )
        16           O   tau(  16) = (   0.4629040   0.3992830   0.2245036  )
        17           O   tau(  17) = (   0.2521260   0.9783743   0.0979635  )
        18           O   tau(  18) = (   0.9244160   0.4932801   0.2442366  )

   Crystallographic axes

     site n.     atom                  positions (cryst. coord.)
         1           Ba  tau(   1) = (  0.2401860  0.8640810  0.3960000  )
         2           Ba  tau(   2) = (  0.2442290  0.3077530  0.8564660  )
         3           Ba  tau(   3) = (  0.7401860  0.1359190  0.6040000  )
         4           Ba  tau(   4) = (  0.7442290  0.6922470  0.1435340  )
         5           Nd  tau(   5) = (  0.2387970  0.4018960  0.3360480  )
         6           Nd  tau(   6) = (  0.7387970  0.5981040  0.6639520  )
         7           Al  tau(   7) = (  0.7270210  0.1683190  0.1635150  )
         8           Al  tau(   8) = (  0.2270210  0.8316810  0.8364850  )
         9           O   tau(   9) = (  0.5019990  0.4994430  0.4882130  )
        10           O   tau(  10) = (  0.2603210  0.0931650  0.6557050  )
        11           O   tau(  11) = (  0.4244160  0.6949050  0.7747250  )
        12           O   tau(  12) = (  0.7521260  0.2246270  0.9096420  )
        13           O   tau(  13) = (  0.7603210  0.9068350  0.3442950  )
        14           O   tau(  14) = (  0.9629040  0.7648520  0.7929260  )
        15           O   tau(  15) = (  0.0019990  0.5005570  0.5117870  )
        16           O   tau(  16) = (  0.4629040  0.2351480  0.2070740  )
        17           O   tau(  17) = (  0.2521260  0.7753730  0.0903580  )
        18           O   tau(  18) = (  0.9244160  0.3050950  0.2252750  )

     number of k points=    10
                       cart. coord. in units 2pi/alat
        k(    1) = (   0.0000000   0.0000000   0.0000000), wk =   0.0740741
        k(    2) = (   0.0000000   0.0000000   0.3074545), wk =   0.1481481
        k(    3) = (   0.0000000   0.2788738  -0.1468436), wk =   0.1481481
        k(    4) = (   0.0000000   0.2788738   0.1606109), wk =   0.1481481
        k(    5) = (   0.0000000   0.2788738  -0.4542982), wk =   0.1481481
        k(    6) = (   0.3333333   0.0000000   0.0000000), wk =   0.1481481
        k(    7) = (   0.3333333   0.0000000   0.3074545), wk =   0.2962963
        k(    8) = (   0.3333333   0.2788738  -0.1468436), wk =   0.2962963
        k(    9) = (   0.3333333   0.2788738   0.1606109), wk =   0.2962963
        k(   10) = (   0.3333333   0.2788738  -0.4542982), wk =   0.2962963

                       cryst. coord.
        k(    1) = (   0.0000000   0.0000000   0.0000000), wk =   0.0740741
        k(    2) = (   0.0000000   0.0000000   0.3333333), wk =   0.1481481
        k(    3) = (   0.0000000   0.3333333   0.0000000), wk =   0.1481481
        k(    4) = (   0.0000000   0.3333333   0.3333333), wk =   0.1481481
        k(    5) = (   0.0000000   0.3333333  -0.3333333), wk =   0.1481481
        k(    6) = (   0.3333333   0.0000000   0.0000000), wk =   0.1481481
        k(    7) = (   0.3333333   0.0000000   0.3333333), wk =   0.2962963
        k(    8) = (   0.3333333   0.3333333   0.0000000), wk =   0.2962963
        k(    9) = (   0.3333333   0.3333333   0.3333333), wk =   0.2962963
        k(   10) = (   0.3333333   0.3333333  -0.3333333), wk =   0.2962963

     Check: negative core charge=   -0.000008

     Initial potential from superposition of free atoms

     starting charge     133.9150, renormalised to     134.0000
     Starting wfcs are  132 randomized atomic wfcs +  124 random wfcs
     Checking if some PAW data can be deallocated...

     Self-consistent Calculation

     iteration #  1     ecut=    30.00 Ry     beta= 0.70
     Davidson diagonalization with overlap

     ethr =  1.00E-02,  avg # of iterations =  7.4

     negative rho (up, down):  3.121E-01 0.000E+00

     total energy              =   -3313.94514733 Ry
     estimated scf accuracy    <       5.57043899 Ry

[...]

     negative rho (up, down):  4.463E-04 0.000E+00

[...]

     c_bands:  1 eigenvalues not converged
     ethr =  2.39E-06,  avg # of iterations =  5.2

[...]

     c_bands:  1 eigenvalues not converged
     ethr =  1.07E-06,  avg # of iterations =  2.9

[...]

     total energy              =   -3316.70511468 Ry
     estimated scf accuracy    <       0.00000150 Ry

     iteration # 68     ecut=    30.00 Ry     beta= 0.70
     Davidson diagonalization with overlap

     ethr =  1.06E-09,  avg # of iterations =  1.0

     End of self-consistent calculation

          k = 0.0000 0.0000 0.0000 (  5833 PWs)   bands (ev):

   -26.4671 -26.4577 -17.8610 -17.8346 -17.6724 -17.6677  -9.7007  -9.5565
    -9.2202  -8.9945  -8.9346  -8.9344  -8.5853  -8.2389  -8.1041  -8.0929
    -7.3520  -7.1554  -6.8995  -6.8898  -5.9931  -5.9221  -3.3140  -3.2604
    -3.1709  -3.0808  -2.9356  -2.9246  -2.8978  -2.8013  -2.7825  -2.7311
    -2.7263  -2.6760   4.0459   4.0757   4.9456   5.0156   5.1831   5.2903
     5.3570   5.4402   5.5732   5.8948   5.9951   6.2593   6.2773   6.4964
     6.5302   6.5395   6.5820   6.7582   6.7779   6.8568   7.1112   7.1368
     7.1625   7.2942   7.3453   7.4132   7.4137   7.4867   7.5026   7.5305
    10.7239  10.7430  10.7671  10.7755  10.8638  10.9028  10.9516  10.9530
    10.9781  10.9838  11.0432  11.0458  11.1125  11.1491  11.5038  12.3421
    12.3551  12.6303  12.8976  12.9310  13.0082  13.2453  13.2527  13.3985
    13.7074  13.8449  14.3970  14.4396  14.6398  14.7449  14.9049  15.3151
    15.4119  15.5683  15.8112  15.9037  16.4641  16.6136  16.6852  16.7316
    16.9306  17.0444  17.2049  17.3396  17.5292  17.8269  17.9138  18.4733
    18.4995  18.9236  19.0990  19.2985  19.4165  19.4531  19.5537  19.6917
    19.9641  20.6033  20.6980  21.3110  21.3747  21.5021  21.6126  21.7248
    21.8129  22.1081  22.1465  22.3872  22.5077  22.5333  22.7055  23.1315
    23.1532  23.6677  23.6973  23.8313  24.1316  24.5833  24.5926  24.8494
    24.9297  25.4351  25.5411  25.7028  25.8332  26.0219  26.2086  26.3470
    26.3743  26.7066  26.8321  27.3754  27.4664  27.6138  27.6934  27.7776
    28.0538  28.1753  28.5617  28.5879  28.9027  28.9727  29.1082  29.2507
    29.4065  29.8669  30.0205  30.0613  30.3413  30.4541  30.6012  30.7319
    30.9044  31.0330  31.0590  31.2281  31.3748  31.5216  31.9067  31.9524
    32.3052  32.3132  32.7272  32.7901  32.9368  33.0470  33.3247  33.3554
    33.5965  33.7534  33.8047  33.8143  34.0823  34.3066  34.3986  34.4441
    34.6277  34.8562  35.1327  35.2600  35.4751  35.6440  35.7590  35.8579
    35.9468  35.9973  36.1833  36.2984  36.4351  36.5462  36.8022  36.8298
    36.8869  37.0988  37.1449  37.2733  37.2850  37.5466  37.6736  37.8576
    37.8790  37.9516  38.1351  38.3074  38.4360  38.6985  38.8287  39.0381
    39.1874  39.2836  39.3467  39.6411  39.7779  39.8528  39.8567  40.0051
    40.2884  40.2977  40.3439  40.8117  40.8437  40.9676  40.9704  41.1818
    41.3858  41.4853  41.5438  41.6469  41.8456  42.0175  42.2355  42.3631

     occupation numbers
     1.0000   1.0000   1.0000   1.0000   1.0000   1.0000   1.0000   1.0000
     1.0000   1.0000   1.0000   1.0000   1.0000   1.0000   1.0000   1.0000
     1.0000   1.0000   1.0000   1.0000   1.0000   1.0000   1.0000   1.0000
     1.0000   1.0000   1.0000   1.0000   1.0000   1.0000   1.0000   1.0000
     1.0000   1.0000   1.0000   1.0000   1.0000   1.0000   1.0000   1.0000
     1.0000   1.0000   1.0000   1.0000   1.0000   1.0000   1.0000   1.0000
     1.0000   1.0000   1.0000   1.0000   1.0000   1.0000   1.0000   1.0000
     1.0000   1.0000   1.0000   1.0000   1.0000   1.0000   1.0000   1.0000
     1.0000   1.0000   1.0000   0.0000   0.0000   0.0000   0.0000   0.0000
     0.0000   0.0000   0.0000   0.0000   0.0000   0.0000   0.0000   0.0000
     0.0000   0.0000   0.0000   0.0000   0.0000   0.0000   0.0000   0.0000
     0.0000   0.0000   0.0000   0.0000   0.0000   0.0000   0.0000   0.0000
     0.0000   0.0000   0.0000   0.0000   0.0000   0.0000   0.0000   0.0000
     0.0000   0.0000   0.0000   0.0000   0.0000   0.0000   0.0000   0.0000
     0.0000   0.0000   0.0000   0.0000   0.0000   0.0000   0.0000   0.0000
     0.0000   0.0000   0.0000   0.0000   0.0000   0.0000   0.0000   0.0000
     0.0000   0.0000   0.0000   0.0000   0.0000   0.0000   0.0000   0.0000
     0.0000   0.0000   0.0000   0.0000   0.0000   0.0000   0.0000   0.0000
     0.0000   0.0000   0.0000   0.0000   0.0000   0.0000   0.0000   0.0000
     0.0000   0.0000   0.0000   0.0000   0.0000   0.0000   0.0000   0.0000
     0.0000   0.0000   0.0000   0.0000   0.0000   0.0000   0.0000   0.0000
     0.0000   0.0000   0.0000   0.0000   0.0000   0.0000   0.0000   0.0000
     0.0000   0.0000   0.0000   0.0000   0.0000   0.0000   0.0000   0.0000
     0.0000   0.0000   0.0000   0.0000   0.0000   0.0000   0.0000   0.0000
     0.0000   0.0000   0.0000   0.0000   0.0000   0.0000   0.0000   0.0000
     0.0000   0.0000   0.0000   0.0000   0.0000   0.0000   0.0000   0.0000
     0.0000   0.0000   0.0000   0.0000   0.0000   0.0000   0.0000   0.0000
     0.0000   0.0000   0.0000   0.0000   0.0000   0.0000   0.0000   0.0000
     0.0000   0.0000   0.0000   0.0000   0.0000   0.0000   0.0000   0.0000
     0.0000   0.0000   0.0000   0.0000   0.0000   0.0000   0.0000   0.0000
     0.0000   0.0000   0.0000   0.0000   0.0000   0.0000   0.0000   0.0000
     0.0000   0.0000   0.0000   0.0000   0.0000   0.0000   0.0000   0.0000

[...]

          k = 0.3333 0.2789-0.4543 (  5838 PWs)   bands (ev):

   -26.4644 -26.4600 -17.8428 -17.8378 -17.6875 -17.6715  -9.6043  -9.5663
    -9.3009  -9.1063  -8.9900  -8.8839  -8.4632  -8.2398  -8.1174  -8.0624
    -7.3090  -7.1405  -6.9867  -6.9416  -5.9836  -5.8971  -3.2583  -3.1731
    -3.0851  -3.0599  -2.9760  -2.9391  -2.8846  -2.8417  -2.8202  -2.7786
    -2.7122  -2.6744   3.9597   4.0408   5.1575   5.2804   5.3301   5.3730
     5.5634   5.5891   5.9207   5.9627   6.0008   6.1160   6.2094   6.2976
     6.3573   6.4260   6.5331   6.6025   6.6702   6.6968   6.8180   6.8702
     6.9449   7.0803   7.1458   7.2016   7.2874   7.3615   7.4201   7.4959
    10.7446  10.7527  10.7599  10.7680  10.8578  10.9155  10.9227  10.9537
    10.9568  10.9842  11.0316  11.0595  11.0804  11.1072  12.4645  12.7214
    12.9050  12.9897  13.2100  13.2449  13.3992  13.5671  13.7985  13.8572
    13.9497  14.1513  14.2705  14.4190  14.5891  14.8132  14.9479  15.1678
    15.2524  15.4880  15.6092  15.6444  15.8526  15.9730  16.1675  16.3145
    16.4918  16.6815  16.8699  17.1070  17.3045  17.4670  17.7149  18.1051
    18.5561  18.7833  18.9690  19.2682  19.4807  19.5648  19.6740  19.9675
    20.3584  20.5309  20.7537  20.9265  21.1523  21.3771  21.6239  21.7712
    22.0374  22.2626  22.4531  22.8037  22.8945  23.1162  23.1542  23.3616
    23.6778  23.6971  24.1096  24.2935  24.4883  24.7329  24.8958  25.1114
    25.2583  25.4021  25.4812  25.6843  25.8973  26.0065  26.1325  26.2268
    26.4414  26.6178  26.8174  27.0268  27.2085  27.4180  27.6571  27.7594
    27.9213  28.1502  28.2852  28.4872  28.6286  28.8243  28.9925  29.2653
    29.3975  29.5305  29.7304  29.8636  30.0502  30.1696  30.2671  30.4942
    30.7191  30.9127  30.9508  31.2032  31.4996  31.5558  31.7235  31.8965
    32.1131  32.2461  32.3917  32.5693  32.6636  32.8093  33.0409  33.1551
    33.3544  33.5074  33.5848  33.7652  34.0357  34.1369  34.4162  34.5159
    34.6132  34.7047  34.8903  35.1243  35.3059  35.4274  35.5943  35.7206
    35.8204  36.0437  36.1227  36.2385  36.4392  36.7005  36.8542  36.8966
    37.1543  37.2150  37.2779  37.5025  37.5881  37.6817  37.8082  38.0709
    38.1957  38.3454  38.4243  38.4750  38.6620  38.8485  38.9160  39.0800
    39.1980  39.2954  39.5002  39.6182  39.7406  39.8749  39.9262  40.1046
    40.3897  40.5057  40.6042  40.7533  40.8611  40.9908  41.1342  41.2341
    41.4585  41.5360  41.6242  41.7137  41.9189  42.0437  42.1615  42.3209

     occupation numbers
     1.0000   1.0000   1.0000   1.0000   1.0000   1.0000   1.0000   1.0000
     1.0000   1.0000   1.0000   1.0000   1.0000   1.0000   1.0000   1.0000
     1.0000   1.0000   1.0000   1.0000   1.0000   1.0000   1.0000   1.0000
     1.0000   1.0000   1.0000   1.0000   1.0000   1.0000   1.0000   1.0000
     1.0000   1.0000   1.0000   1.0000   1.0000   1.0000   1.0000   1.0000
     1.0000   1.0000   1.0000   1.0000   1.0000   1.0000   1.0000   1.0000
     1.0000   1.0000   1.0000   1.0000   1.0000   1.0000   1.0000   1.0000
     1.0000   1.0000   1.0000   1.0000   1.0000   1.0000   1.0000   1.0000
     1.0000   1.0000   1.0000   0.0000   0.0000   0.0000   0.0000   0.0000
     0.0000   0.0000   0.0000   0.0000   0.0000   0.0000   0.0000   0.0000
     0.0000   0.0000   0.0000   0.0000   0.0000   0.0000   0.0000   0.0000
     0.0000   0.0000   0.0000   0.0000   0.0000   0.0000   0.0000   0.0000
     0.0000   0.0000   0.0000   0.0000   0.0000   0.0000   0.0000   0.0000
     0.0000   0.0000   0.0000   0.0000   0.0000   0.0000   0.0000   0.0000
     0.0000   0.0000   0.0000   0.0000   0.0000   0.0000   0.0000   0.0000
     0.0000   0.0000   0.0000   0.0000   0.0000   0.0000   0.0000   0.0000
     0.0000   0.0000   0.0000   0.0000   0.0000   0.0000   0.0000   0.0000
     0.0000   0.0000   0.0000   0.0000   0.0000   0.0000   0.0000   0.0000
     0.0000   0.0000   0.0000   0.0000   0.0000   0.0000   0.0000   0.0000
     0.0000   0.0000   0.0000   0.0000   0.0000   0.0000   0.0000   0.0000
     0.0000   0.0000   0.0000   0.0000   0.0000   0.0000   0.0000   0.0000
     0.0000   0.0000   0.0000   0.0000   0.0000   0.0000   0.0000   0.0000
     0.0000   0.0000   0.0000   0.0000   0.0000   0.0000   0.0000   0.0000
     0.0000   0.0000   0.0000   0.0000   0.0000   0.0000   0.0000   0.0000
     0.0000   0.0000   0.0000   0.0000   0.0000   0.0000   0.0000   0.0000
     0.0000   0.0000   0.0000   0.0000   0.0000   0.0000   0.0000   0.0000
     0.0000   0.0000   0.0000   0.0000   0.0000   0.0000   0.0000   0.0000
     0.0000   0.0000   0.0000   0.0000   0.0000   0.0000   0.0000   0.0000
     0.0000   0.0000   0.0000   0.0000   0.0000   0.0000   0.0000   0.0000
     0.0000   0.0000   0.0000   0.0000   0.0000   0.0000   0.0000   0.0000
     0.0000   0.0000   0.0000   0.0000   0.0000   0.0000   0.0000   0.0000
     0.0000   0.0000   0.0000   0.0000   0.0000   0.0000   0.0000   0.0000

     highest occupied, lowest unoccupied level (ev):    10.7767   10.7570

!    total energy              =   -3316.70511364 Ry
     total all-electron energy =    -68637.832075 Ry
     estimated scf accuracy    <       0.00000064 Ry

     The total energy is the sum of the following terms:
     one-electron contribution =    -185.30089386 Ry
     hartree contribution      =     186.97693717 Ry
     xc contribution           =    -189.39449855 Ry
     ewald contribution        =    -604.68613267 Ry
     one-center paw contrib.   =   -2524.30052572 Ry
      -> PAW hartree energy AE =      86.22852579 Ry
      -> PAW hartree energy PS =     -85.89512719 Ry
      -> PAW xc energy AE      =   -1182.69769759 Ry
      -> PAW xc energy PS      =      57.49697184 Ry
      -> total E_H with PAW    =     187.31033578 Ry
      -> total E_XC with PAW   =   -1314.59522430 Ry

     convergence has been achieved in  68 iterations

     Writing all to output data dir bands_nm/myprefix.save/

     General routines

     Parallel routines

     PAW routines

   This run was terminated on:  18:56:57  15Jul2023

   JOB DONE.