     Program PWSCF v.7.1 starts on 17Jul2023 at  1:24:25

     Reading input from espresso_26522.pwi
Warning: card &CELL ignored
Warning: card / ignored

     Current dimensions of program PWSCF are:
     Max number of different atomic species (ntypx) = 10
     Max number of k-points (npk) =  40000
     Max angular momentum in pseudopotentials (lmaxx) =  4
     file Eu.paw.z_17.atompaw.wentzcovitch.v1.2.upf: wavefunction(s)  6S 0P 5D 0D 4F 0F renormalized
     file O.pbe-n-kjpaw_psl.0.1.UPF: wavefunction(s)  2P renormalized
     Message from routine setup:
     the system is metallic, specify occupations
     Message from routine setup:
     using ibrav=0 with symmetry is DISCOURAGED, use correct ibrav instead

     K-points division:     npool     =       2
     R & G space division:  proc/nbgrp/npool/nimage =       4
     Subspace diagonalization in iterative solution of the eigenvalue problem:
     a serial algorithm will be used

     Using Slab Decomposition

     bravais-lattice index     =            0
     lattice parameter (alat)  =      10.7396  a.u.
     unit-cell volume          =     875.8796 (a.u.)^3
     number of atoms/cell      =           10
     number of atomic types    =            5
     number of electrons       =        89.00 (up:  48.00, down:  41.00)
     number of Kohn-Sham states=           64
     kinetic-energy cutoff     =      30.0000  Ry
     charge density cutoff     =     240.0000  Ry
     scf convergence threshold =      1.0E-06
     mixing beta               =       0.7000
     number of iterations used =            8  plain     mixing
     Exchange-correlation= SLA  PW   PBX  PBC
                           (   1   4   3   4   0   0   0)

     celldm(1)=  10.739560  celldm(2)=   0.000000  celldm(3)=   0.000000
     celldm(4)=   0.000000  celldm(5)=   0.000000  celldm(6)=   0.000000

     crystal axes: (cart. coord. in units of alat)
               a(1) = (   1.000000   0.000000   0.000000 )
               a(2) = (   0.500000   0.866025   0.000000 )
               a(3) = (   0.500000   0.288675   0.816497 )

     reciprocal axes: (cart. coord. in units 2 pi/alat)
               b(1) = (  1.000000 -0.577350 -0.408248 )
               b(2) = (  0.000000  1.154701 -0.408248 )
               b(3) = (  0.000000  0.000000  1.224745 )

     PseudoPot. # 1 for Sr read from file:
     /lustre03/project/6004852/pragov/crystal_structure_design/crystal-design/crystal_design/utils/SSSP/Sr_pbe_v1.uspp.F.UPF
     MD5 check sum: 6b418c05fbe9db5448babca5e47b7a5b
     Pseudo is Ultrasoft + core correction, Zval = 10.0
     Generated by new atomic code, or converted to UPF format
     Using radial grid of  883 points,  6 beta functions with:
                l(1) =   0
                l(2) =   0
                l(3) =   1
                l(4) =   1
                l(5) =   2
                l(6) =   2
     Q(r) pseudized with  6 coefficients,  rinner =    1.400   1.400   1.400
                                                       1.400   1.400

     PseudoPot. # 2 for Eu read from file:
     /lustre03/project/6004852/pragov/crystal_structure_design/crystal-design/crystal_design/utils/SSSP/Eu.paw.z_17.atompaw.wentzcovitch.v1.2.upf
     MD5 check sum: 52b6e423bc4e840b6e0dc4248fa51623
     Pseudo is Projector augmented-wave + core cor, Zval = 17.0
     Generated using ATOMPAW code
     Shape of augmentation charge: BESSEL
     Using radial grid of 1109 points,  8 beta functions with:
                l(1) =   0
                l(2) =   0
                l(3) =   1
                l(4) =   1
                l(5) =   2
                l(6) =   2
                l(7) =   3
                l(8) =   3
     Q(r) pseudized with 0 coefficients

     PseudoPot. # 3 for Ti read from file:
     /lustre03/project/6004852/pragov/crystal_structure_design/crystal-design/crystal_design/utils/SSSP/ti_pbe_v1.4.uspp.F.UPF
     MD5 check sum: 88a00a6731bd790ddea75d31a80cb452
     Pseudo is Ultrasoft + core correction, Zval = 12.0
     Generated by new atomic code, or converted to UPF format
     Using radial grid of  851 points,  6 beta functions with:
                l(1) =   0
                l(2) =   0
                l(3) =   1
                l(4) =   1
                l(5) =   2
                l(6) =   2
     Q(r) pseudized with  6 coefficients,  rinner =    1.000   1.000   1.000
                                                       1.000   1.000

     PseudoPot. # 4 for Sn read from file:
     /lustre03/project/6004852/pragov/crystal_structure_design/crystal-design/crystal_design/utils/SSSP/Sn_pbe_v1.uspp.F.UPF
     MD5 check sum: 4cf58ce39ec5d5d420df3dd08604eb00
     Pseudo is Ultrasoft + core correction, Zval = 14.0
     Generated by new atomic code, or converted to UPF format
     Using radial grid of  891 points,  6 beta functions with:
                l(1) =   0
                l(2) =   0
                l(3) =   1
                l(4) =   1
                l(5) =   2
                l(6) =   2
     Q(r) pseudized with  6 coefficients,  rinner =    1.200   1.200   1.200
                                                       1.200   1.200

     PseudoPot. # 5 for O  read from file:
     /lustre03/project/6004852/pragov/crystal_structure_design/crystal-design/crystal_design/utils/SSSP/O.pbe-n-kjpaw_psl.0.1.UPF
     MD5 check sum: 0234752ac141de4415c5fc33072bef88
     Pseudo is Projector augmented-wave + core cor, Zval =  6.0
     Generated using "atomic" code by A. Dal Corso  v.5.0.99 svn rev. 10869
     Shape of augmentation charge: BESSEL
     Using radial grid of 1095 points,  4 beta functions with:
                l(1) =   0
                l(2) =   0
                l(3) =   1
                l(4) =   1
     Q(r) pseudized with 0 coefficients

     atomic species   valence    mass     pseudopotential
        Sr            10.00    87.62000     Sr( 1.00)
        Eu            17.00   151.96400     Eu( 1.00)
        Ti            12.00    47.86700     Ti( 1.00)
        Sn            14.00   118.71000     Sn( 1.00)
        O              6.00    15.99900     O ( 1.00)

     Starting magnetic structure
     atomic species   magnetization
        Sr           0.000
        Eu           0.000
        Ti           0.000
        Sn           0.000
        O            0.000

      6 Sym. Ops. (no inversion) found

                                    s                        frac. trans.

      isym =  1     identity

 cryst.   s( 1) = (     1          0          0      )
                  (     0          1          0      )
                  (     0          0          1      )

 cart.    s( 1) = (  1.0000000  0.0000000 -0.0000000 )
                  (  0.0000000  1.0000000 -0.0000000 )
                  (  0.0000000  0.0000000  1.0000000 )

      isym =  2     120 deg rotation - cryst. axis [0,0,1]

[...]

      isym =  3     120 deg rotation - cryst. axis [0,0,-1]

[...]

      isym =  4     inv. 180 deg rotation - cart. axis [1,0,0]

[...]

      isym =  5     inv. 180 deg rotation - cryst. axis [0,1,0]

[...]

      isym =  6     inv. 180 deg rotation - cryst. axis [1,1,0]

 cryst.   s( 6) = (     1         -1          0      )
                  (     0         -1          0      )
                  (     0         -1          1      )

 cart.    s( 6) = (  0.5000000 -0.8660254 -0.0000000 )
                  ( -0.8660254 -0.5000000 -0.0000000 )
                  (  0.0000000  0.0000000  1.0000000 )

   Cartesian axes

     site n.     atom                  positions (alat units)
         1           Sr  tau(   1) = (   1.5000000   0.8660254   0.6123724  )
         2           Eu  tau(   2) = (   0.5000000   0.2886751   0.2041241  )
         3           Ti  tau(   3) = (   1.0000000   0.5773503   0.4082483  )
         4           Sn  tau(   4) = (   0.0000000   0.0000000   0.0000000  )
         5           O   tau(   5) = (   1.0000000   0.2949648   0.2085716  )
         6           O   tau(   6) = (   1.0000000   0.8597358   0.6079250  )
         7           O   tau(   7) = (   1.2445530   0.4361575   0.6079250  )
         8           O   tau(   8) = (   0.7554470   0.7185430   0.2085716  )
         9           O   tau(   9) = (   1.2445530   0.7185430   0.2085716  )
        10           O   tau(  10) = (   0.7554470   0.4361575   0.6079250  )

   Crystallographic axes

     site n.     atom                  positions (cryst. coord.)
         1           Sr  tau(   1) = (  0.7500000  0.7500000  0.7500000  )
         2           Eu  tau(   2) = (  0.2500000  0.2500000  0.2500000  )
         3           Ti  tau(   3) = (  0.5000000  0.5000000  0.5000000  )
         4           Sn  tau(   4) = (  0.0000000  0.0000000  0.0000000  )
         5           O   tau(   5) = (  0.7445530  0.2554470  0.2554470  )
         6           O   tau(   6) = (  0.2554470  0.7445530  0.7445530  )
         7           O   tau(   7) = (  0.7445530  0.2554470  0.7445530  )
         8           O   tau(   8) = (  0.2554470  0.7445530  0.2554470  )
         9           O   tau(   9) = (  0.7445530  0.7445530  0.2554470  )
        10           O   tau(  10) = (  0.2554470  0.2554470  0.7445530  )

     number of k points=     6
                       cart. coord. in units 2pi/alat
        k(    1) = (   0.0000000   0.0000000   0.0000000), wk =   0.0370370
        k(    2) = (   0.0000000   0.0000000   0.4082483), wk =   0.0740741
        k(    3) = (   0.0000000   0.3849002  -0.1360828), wk =   0.2222222
        k(    4) = (   0.0000000   0.3849002   0.2721655), wk =   0.2222222
        k(    5) = (   0.0000000   0.3849002  -0.5443311), wk =   0.2222222
        k(    6) = (   0.3333333  -0.5773503  -0.0000000), wk =   0.2222222

                       cryst. coord.
        k(    1) = (   0.0000000   0.0000000   0.0000000), wk =   0.0370370
        k(    2) = (   0.0000000   0.0000000   0.3333333), wk =   0.0740741
        k(    3) = (   0.0000000   0.3333333  -0.0000000), wk =   0.2222222
        k(    4) = (   0.0000000   0.3333333   0.3333333), wk =   0.2222222
        k(    5) = (   0.0000000   0.3333333  -0.3333333), wk =   0.2222222
        k(    6) = (   0.3333333  -0.3333333   0.0000000), wk =   0.2222222

     Check: negative core charge=   -0.000012
     Generating pointlists ...
     new r_m :   0.2063 (alat units)  2.2153 (a.u.) for type    1
     new r_m :   0.2063 (alat units)  2.2153 (a.u.) for type    2
     new r_m :   0.1427 (alat units)  1.5321 (a.u.) for type    3
     new r_m :   0.1490 (alat units)  1.6004 (a.u.) for type    4
     new r_m :   0.1427 (alat units)  1.5321 (a.u.) for type    5

     Initial potential from superposition of free atoms

     starting charge      86.9615, renormalised to      89.0000

     negative rho (up, down):  3.265E-02 3.265E-02
     Starting wfcs are   88 randomized atomic wfcs
     Checking if some PAW data can be deallocated...

     Self-consistent Calculation

     iteration #  1     ecut=    30.00 Ry     beta= 0.70
     Davidson diagonalization with overlap

     ethr =  1.00E-02,  avg # of iterations =  2.2

     negative rho (up, down):  3.150E-02 3.215E-02

     total energy              =   -1233.22395871 Ry
     estimated scf accuracy    <      13.96804612 Ry

     total magnetization       =     7.00 Bohr mag/cell
     absolute magnetization    =     7.00 Bohr mag/cell

[...]

     total energy              =   -1245.86063170 Ry
     estimated scf accuracy    <       0.00000131 Ry

[...]

     iteration # 20     ecut=    30.00 Ry     beta= 0.70
     Davidson diagonalization with overlap

     ethr =  1.48E-09,  avg # of iterations =  1.0

     negative rho (up, down):  3.332E-02 3.341E-02

     Magnetic moment per site  (integrated on atomic sphere of radius R)
     atom   1 (R=0.206)  charge=  7.6927  magn=  0.0028
     atom   2 (R=0.206)  charge= 14.3353  magn=  6.6987
     atom   3 (R=0.143)  charge=  8.5495  magn=  0.1124
     atom   4 (R=0.149)  charge=  9.6940  magn=  0.0011
     atom   5 (R=0.143)  charge=  5.4171  magn= -0.0085
     atom   6 (R=0.143)  charge=  5.4171  magn= -0.0085
     atom   7 (R=0.143)  charge=  5.4171  magn= -0.0085
     atom   8 (R=0.143)  charge=  5.4171  magn= -0.0085
     atom   9 (R=0.143)  charge=  5.4171  magn= -0.0085
     atom  10 (R=0.143)  charge=  5.4171  magn= -0.0085

     End of self-consistent calculation

 ------ SPIN UP ------------

          k = 0.0000 0.0000 0.0000 (  2421 PWs)   bands (ev):

   -45.9989 -28.5335 -22.6388 -22.2864 -22.2864 -22.2864 -10.1300 -10.1300
    -9.5405  -9.5405  -9.5405  -7.5561  -7.3782  -7.3782  -7.3782  -6.2138
    -6.2138  -6.2138  -5.3941  -5.3941  -4.7240  -4.7240  -4.7240   3.1275
     6.4416   6.4416   6.4416   7.1359   7.1359   7.1359   7.6528   7.6528
     9.1374   9.1374   9.1374   9.6296   9.6296   9.6296  10.2578  10.2578
    10.2578  13.1381  13.1381  13.1382  13.1580  13.2549  13.2549  13.2549
    13.5040  13.5040  13.5040  14.3484  14.9210  14.9210  15.8392  15.8392
    15.8392  16.8914  16.9355  16.9355  17.6403  17.6403  17.6404  18.9591

     occupation numbers
     1.0000   1.0000   1.0000   1.0000   1.0000   1.0000   1.0000   1.0000
     1.0000   1.0000   1.0000   1.0000   1.0000   1.0000   1.0000   1.0000
     1.0000   1.0000   1.0000   1.0000   1.0000   1.0000   1.0000   1.0000
     1.0000   1.0000   1.0000   1.0000   1.0000   1.0000   1.0000   1.0000
     1.0000   1.0000   1.0000   1.0000   1.0000   1.0000   1.0000   1.0000
     1.0000   1.0000   1.0000   1.0000   1.0000   1.0000   1.0000   1.0000
     0.0000   0.0000   0.0000   0.0000   0.0000   0.0000   0.0000   0.0000
     0.0000   0.0000   0.0000   0.0000   0.0000   0.0000   0.0000   0.0000

[...]

 ------ SPIN DOWN ----------

[...]

          k = 0.3333-0.5774-0.0000 (  2424 PWs)   bands (ev):

   -45.8398 -25.4920 -22.6385 -22.1308 -22.1303 -22.1275 -10.1480 -10.1247
    -9.5329  -9.5313  -9.5309  -7.4061  -6.9865  -6.5649  -6.4000  -5.6232
    -5.4371  -4.9088  -4.8499  -4.7690  -4.4396  -4.4266  -4.3634   3.7619
     5.8550   6.0804   6.6431   6.9100   7.3285   7.5203   7.8132   8.2401
     8.4893   8.5096   8.5744   8.6078   8.8760   9.2596   9.4565   9.5353
     9.8594  13.7713  14.0478  14.1286  14.4478  16.2991  17.2605  17.4599
    17.4688  17.6470  17.7215  17.7379  17.7998  17.8033  17.8266  17.9306
    17.9647  18.2363  18.4390  18.6109  18.6598  18.7280  18.8382  18.8662

     occupation numbers
     1.0000   1.0000   1.0000   1.0000   1.0000   1.0000   1.0000   1.0000
     1.0000   1.0000   1.0000   1.0000   1.0000   1.0000   1.0000   1.0000
     1.0000   1.0000   1.0000   1.0000   1.0000   1.0000   1.0000   1.0000
     1.0000   1.0000   1.0000   1.0000   1.0000   1.0000   1.0000   1.0000
     1.0000   1.0000   1.0000   1.0000   1.0000   1.0000   1.0000   1.0000
     1.0000   0.0000   0.0000   0.0000   0.0000   0.0000   0.0000   0.0000
     0.0000   0.0000   0.0000   0.0000   0.0000   0.0000   0.0000   0.0000
     0.0000   0.0000   0.0000   0.0000   0.0000   0.0000   0.0000   0.0000

     highest occupied, lowest unoccupied level (ev):    13.2549   13.5040

!    total energy              =   -1245.86063178 Ry
     estimated scf accuracy    <       0.00000002 Ry

     The total energy is the sum of the following terms:
     one-electron contribution =    -204.42858914 Ry
     hartree contribution      =     166.10149910 Ry
     xc contribution           =    -150.45650540 Ry
     ewald contribution        =    -543.17944819 Ry
     one-center paw contrib.   =    -513.89758815 Ry
      -> PAW hartree energy AE =     159.36489062 Ry
      -> PAW hartree energy PS =    -152.25088013 Ry
      -> PAW xc energy AE      =    -484.23832100 Ry
      -> PAW xc energy PS      =      20.35598039 Ry
      -> total E_H with PAW    =     173.21550958 Ry
      -> total E_XC with PAW   =    -614.33884600 Ry

     total magnetization       =     7.00 Bohr mag/cell
     absolute magnetization    =     7.11 Bohr mag/cell

     convergence has been achieved in  20 iterations

     Writing all to output data dir bands_nm_v2/myprefix.save/

     General routines

     Parallel routines

     PAW routines

   This run was terminated on:   1:25:10  17Jul2023

   JOB DONE.