     Program PWSCF v.7.0 starts on  5Jun2023 at 23:53:24

     K-points division:     npool     =       2
     R & G space division:  proc/nbgrp/npool/nimage =       4

     Reading input from espresso_12423.pwi
Warning: card &CELL ignored
Warning: card / ignored

     Current dimensions of program PWSCF are:
     Max number of different atomic species (ntypx) = 10
     Max number of k-points (npk) =  40000
     Max angular momentum in pseudopotentials (lmaxx) =  4
     Message from routine setup:
     using ibrav=0 with symmetry is DISCOURAGED, use correct ibrav instead

     Using Slab Decomposition

     bravais-lattice index     =            0
     lattice parameter (alat)  =      18.8413  a.u.
     unit-cell volume          =    2027.8884 (a.u.)^3
     number of atoms/cell      =            7
     number of atomic types    =            3
     number of electrons       =        56.00
     number of Kohn-Sham states=           64
     kinetic-energy cutoff     =      30.0000  Ry
     charge density cutoff     =     240.0000  Ry
     scf convergence threshold =      1.0E-06
     mixing beta               =       0.7000
     number of iterations used =            8  plain     mixing
     Exchange-correlation=  SLA  PW   PBX  PBC
                           (   1   4   3   4   0   0   0)

     celldm(1)=  18.841271  celldm(2)=   0.000000  celldm(3)=   0.000000
     celldm(4)=   0.000000  celldm(5)=   0.000000  celldm(6)=   0.000000

     crystal axes: (cart. coord. in units of alat)
               a(1) = (   1.000000   0.000000   0.000000 )
               a(2) = (   0.668007   0.744155   0.000000 )
               a(3) = (  -0.834003  -0.372078   0.407427 )

     reciprocal axes: (cart. coord. in units 2 pi/alat)
               b(1) = (  1.000000 -0.897671  1.227214 )
               b(2) = (  0.000000  1.343805  1.227214 )
               b(3) = (  0.000000  0.000000  2.454428 )

     PseudoPot. # 1 for Cs read from file:
     /home/pragov/projects/rrg-bengioy-ad/pragov/crystal_structure_design/SSSP/Cs_pbe_v1.uspp.F.UPF
     MD5 check sum: 3476d69cb178dfad3ffaa59df4e07ca4
     Pseudo is Ultrasoft + core correction, Zval =  9.0
     Generated by new atomic code, or converted to UPF format
     Using radial grid of  905 points,  6 beta functions with:
                l(1) =   0
                l(2) =   0
                l(3) =   1
                l(4) =   1
                l(5) =   2
                l(6) =   2
     Q(r) pseudized with  6 coefficients,  rinner =    1.500   1.500   1.500
                                                       1.500   1.500

     PseudoPot. # 2 for Ca read from file:
     /home/pragov/projects/rrg-bengioy-ad/pragov/crystal_structure_design/SSSP/Ca_pbe_v1.uspp.F.UPF
     MD5 check sum: 403a4c14b9e4d4dfdc3024c9a3812218
     Pseudo is Ultrasoft + core correction, Zval = 10.0
     Generated by new atomic code, or converted to UPF format
     Using radial grid of  845 points,  6 beta functions with:
                l(1) =   0
                l(2) =   0
                l(3) =   1
                l(4) =   1
                l(5) =   2
                l(6) =   2
     Q(r) pseudized with  8 coefficients,  rinner =    1.500   1.500   1.500
                                                       1.500   1.500

     PseudoPot. # 3 for Br read from file:
     /home/pragov/projects/rrg-bengioy-ad/pragov/crystal_structure_design/SSSP/br_pbe_v1.4.uspp.F.UPF
     MD5 check sum: d3ffb7b29f6225aa16fe06858fb2a80b
     Pseudo is Ultrasoft + core correction, Zval =  7.0
     Generated by new atomic code, or converted to UPF format
     Using radial grid of  879 points,  6 beta functions with:
                l(1) =   0
                l(2) =   0
                l(3) =   1
                l(4) =   1
                l(5) =   2
                l(6) =   2
     Q(r) pseudized with  8 coefficients,  rinner =    1.100   1.100   1.100
                                                       1.100   1.100

     atomic species   valence    mass     pseudopotential
        Cs             9.00   132.90545     Cs( 1.00)
        Ca            10.00    40.07800     Ca( 1.00)
        Br             7.00    79.90400     Br( 1.00)

      4 Sym. Ops., with inversion, found

                                    s                        frac. trans.

      isym =  1     identity

 cryst.   s( 1) = (     1          0          0      )
                  (     0          1          0      )
                  (     0          0          1      )

 cart.    s( 1) = (  1.0000000  0.0000000  0.0000000 )
                  (  0.0000000  1.0000000 -0.0000000 )
                  (  0.0000000  0.0000000  1.0000000 )

      isym =  2     180 deg rotation - cart. axis [0,0,1]

[...]

      isym =  3     inversion

[...]

      isym =  4     inv. 180 deg rotation - cart. axis [0,0,1]

 cryst.   s( 4) = (     1          0          0      )
                  (     0          1          0      )
                  (    -1         -1         -1      )

 cart.    s( 4) = (  1.0000000  0.0000000 -0.0000000 )
                  (  0.0000000  1.0000000 -0.0000000 )
                  (  0.0000000  0.0000000 -1.0000000 )

   Cartesian axes

     site n.     atom                  positions (alat units)
         1           Cs  tau(   1) = (   0.5958353   0.2658227   0.0000000  )
         2           Cs  tau(   2) = (   1.0721712   0.4783327   0.0000000  )
         3           Ca  tau(   3) = (   0.0000000   0.0000000   0.0000000  )
         4           Br  tau(   4) = (   0.2660470   0.1186928   0.0000000  )
         5           Br  tau(   5) = (   1.4019595   0.6254626   0.0000000  )
         6           Br  tau(   6) = (   0.0829984  -0.1860389   0.2037135  )
         7           Br  tau(   7) = (  -0.0829984   0.1860389   0.2037135  )

   Crystallographic axes

     site n.     atom                  positions (cryst. coord.)
         1           Cs  tau(   1) = (  0.3572140  0.3572140  0.0000000  )
         2           Cs  tau(   2) = (  0.6427860  0.6427860  0.0000000  )
         3           Ca  tau(   3) = (  0.0000000  0.0000000  0.0000000  )
         4           Br  tau(   4) = (  0.1595000  0.1595000  0.0000000  )
         5           Br  tau(   5) = (  0.8405000  0.8405000  0.0000000  )
         6           Br  tau(   6) = (  0.5000000  0.0000000  0.5000000  )
         7           Br  tau(   7) = ( -0.0000000  0.5000000  0.5000000  )

     number of k points=    10
                       cart. coord. in units 2pi/alat
        k(    1) = (   0.0000000   0.0000000   0.0000000), wk =   0.0740741
        k(    2) = (   0.0000000   0.0000000   0.8181425), wk =   0.1481481
        k(    3) = (   0.0000000   0.4479351   0.4090713), wk =   0.2962963
        k(    4) = (   0.0000000   0.4479351   1.2272138), wk =   0.1481481
        k(    5) = (   0.3333333  -0.2992236   0.4090713), wk =   0.2962963
        k(    6) = (   0.3333333  -0.2992236   1.2272138), wk =   0.1481481
        k(    7) = (   0.3333333   0.1487115   0.8181425), wk =   0.2962963
        k(    8) = (   0.3333333   0.1487115  -0.0000000), wk =   0.1481481
        k(    9) = (   0.3333333  -0.7471587   0.0000000), wk =   0.1481481
        k(   10) = (   0.3333333  -0.7471587   0.8181425), wk =   0.2962963

                       cryst. coord.
        k(    1) = (   0.0000000   0.0000000   0.0000000), wk =   0.0740741
        k(    2) = (   0.0000000   0.0000000   0.3333333), wk =   0.1481481
        k(    3) = (   0.0000000   0.3333333  -0.0000000), wk =   0.2962963
        k(    4) = (   0.0000000   0.3333333   0.3333333), wk =   0.1481481
        k(    5) = (   0.3333333   0.0000000  -0.0000000), wk =   0.2962963
        k(    6) = (   0.3333333   0.0000000   0.3333333), wk =   0.1481481
        k(    7) = (   0.3333333   0.3333333  -0.0000000), wk =   0.2962963
        k(    8) = (   0.3333333   0.3333333  -0.3333333), wk =   0.1481481
        k(    9) = (   0.3333333  -0.3333333  -0.0000000), wk =   0.1481481
        k(   10) = (   0.3333333  -0.3333333   0.3333333), wk =   0.2962963

     Initial potential from superposition of free atoms

     starting charge      55.9157, renormalised to      56.0000
     Starting wfcs are   52 randomized atomic wfcs +   12 random wfcs

     Self-consistent Calculation

     iteration #  1     ecut=    30.00 Ry     beta= 0.70
     Davidson diagonalization with overlap

     ethr =  1.00E-02,  avg # of iterations =  7.7

     Threshold (ethr) on eigenvalues was too large:
     Diagonalizing with lowered threshold

     Davidson diagonalization with overlap

[...]

     total energy              =    -389.40138389 Ry
     estimated scf accuracy    <       0.14759479 Ry

[...]

     c_bands:  1 eigenvalues not converged
     ethr =  1.98E-06,  avg # of iterations = 11.0

[...]

     total energy              =    -389.44676156 Ry
     estimated scf accuracy    <       0.00000106 Ry

     iteration #  7     ecut=    30.00 Ry     beta= 0.70
     Davidson diagonalization with overlap

     ethr =  1.89E-09,  avg # of iterations =  4.4

     End of self-consistent calculation

          k = 0.0000 0.0000 0.0000 (  5629 PWs)   bands (ev):

   -37.5409 -18.5845 -18.5845 -18.5263 -18.2033 -18.1964 -11.5650 -11.3406
   -10.7820 -10.7402  -5.0543  -5.0160  -5.0160  -5.0105  -5.0105  -4.9933
    -0.2520  -0.2520   0.0511   0.4516   0.6944   0.8801   0.8801   1.0931
     1.0931   1.3151   1.3513   1.3513   5.7712   6.1988   6.6069   6.6069
     7.2279   7.4397   7.5249   7.5831   7.6546   7.9441   8.7548   8.8270
     8.8270   8.9185   9.0855  10.0316  10.0316  10.0947  10.3663  11.5946
    11.5946  12.0255  12.0255  12.5092  12.5984  12.6720  13.1467  13.3745
    13.3745  13.8698  14.5801  15.0552  15.2348  15.2348  15.3404  15.4026

     occupation numbers
     1.0000   1.0000   1.0000   1.0000   1.0000   1.0000   1.0000   1.0000
     1.0000   1.0000   1.0000   1.0000   1.0000   1.0000   1.0000   1.0000
     1.0000   1.0000   1.0000   1.0000   1.0000   1.0000   1.0000   1.0000
     1.0000   1.0000   1.0000   1.0000   0.0000   0.0000   0.0000   0.0000
     0.0000   0.0000   0.0000   0.0000   0.0000   0.0000   0.0000   0.0000
     0.0000   0.0000   0.0000   0.0000   0.0000   0.0000   0.0000   0.0000
     0.0000   0.0000   0.0000   0.0000   0.0000   0.0000   0.0000   0.0000
     0.0000   0.0000   0.0000   0.0000   0.0000   0.0000   0.0000   0.0000

[...]

          k = 0.3333-0.7472 0.8181 (  5630 PWs)   bands (ev):

   -37.5408 -18.5972 -18.5844 -18.5261 -18.1990 -18.1983 -11.4888 -11.3468
   -10.7763 -10.7502  -5.0472  -5.0317  -5.0203  -5.0146  -5.0080  -4.9864
    -0.5202  -0.0972   0.1501   0.3929   0.3996   0.5517   0.7538   1.0440
     1.0509   1.0643   1.2397   1.4144   6.8686   6.9628   7.0921   7.3112
     7.4867   7.5068   7.8521   8.0930   8.4088   8.8373   8.9177   8.9399
     9.0012   9.2154   9.4288   9.5213   9.6110   9.7052  10.5633  10.8555
    11.3736  11.4999  11.6009  11.7774  11.8168  12.1649  12.2009  12.8036
    13.1685  13.4338  13.5998  13.6321  13.8829  14.1042  14.2538  14.3823

     occupation numbers
     1.0000   1.0000   1.0000   1.0000   1.0000   1.0000   1.0000   1.0000
     1.0000   1.0000   1.0000   1.0000   1.0000   1.0000   1.0000   1.0000
     1.0000   1.0000   1.0000   1.0000   1.0000   1.0000   1.0000   1.0000
     1.0000   1.0000   1.0000   1.0000   0.0000   0.0000   0.0000   0.0000
     0.0000   0.0000   0.0000   0.0000   0.0000   0.0000   0.0000   0.0000
     0.0000   0.0000   0.0000   0.0000   0.0000   0.0000   0.0000   0.0000
     0.0000   0.0000   0.0000   0.0000   0.0000   0.0000   0.0000   0.0000
     0.0000   0.0000   0.0000   0.0000   0.0000   0.0000   0.0000   0.0000

     highest occupied, lowest unoccupied level (ev):     1.4144    5.7712

!    total energy              =    -389.44676193 Ry
     estimated scf accuracy    <       0.00000004 Ry

     The total energy is the sum of the following terms:
     one-electron contribution =    -103.40570937 Ry
     hartree contribution      =      69.25546159 Ry
     xc contribution           =    -177.17673047 Ry
     ewald contribution        =    -178.11978367 Ry

     convergence has been achieved in   7 iterations

     Writing all to output data dir calculations_bands/myprefix.save/

     General routines

     Parallel routines

   This run was terminated on:  23:53:44   5Jun2023

   JOB DONE.