     Program PWSCF v.7.1 starts on 14Jul2023 at  2:43: 0

     Reading input from espresso_17523.pwi
Warning: card &CELL ignored
Warning: card / ignored

     Current dimensions of program PWSCF are:
     Max number of different atomic species (ntypx) = 10
     Max number of k-points (npk) =  40000
     Max angular momentum in pseudopotentials (lmaxx) =  4
     file Ga.pbe-dn-kjpaw_psl.1.0.0.UPF: wavefunction(s)  4S renormalized

     K-points division:     npool     =       2
     R & G space division:  proc/nbgrp/npool/nimage =       4
     Subspace diagonalization in iterative solution of the eigenvalue problem:
     a serial algorithm will be used

     Using Slab Decomposition

     bravais-lattice index     =            0
     lattice parameter (alat)  =      13.5463  a.u.
     unit-cell volume          =    1466.5650 (a.u.)^3
     number of atoms/cell      =            8
     number of atomic types    =            4
     number of electrons       =        88.00
     number of Kohn-Sham states=           64
     kinetic-energy cutoff     =      30.0000  Ry
     charge density cutoff     =     240.0000  Ry
     scf convergence threshold =      1.0E-06
     mixing beta               =       0.7000
     number of iterations used =            8  plain     mixing
     Exchange-correlation= SLA  PW   PBE  PBE
                           (   1   4   3   4   0   0   0)

     celldm(1)=  13.546298  celldm(2)=   0.000000  celldm(3)=   0.000000
     celldm(4)=   0.000000  celldm(5)=   0.000000  celldm(6)=   0.000000

     crystal axes: (cart. coord. in units of alat)
               a(1) = (   1.000000   0.000000   0.000000 )
               a(2) = (   0.635412   0.772173   0.000000 )
               a(3) = (   0.360148   0.170047   0.764055 )

     reciprocal axes: (cart. coord. in units 2 pi/alat)
               b(1) = (  1.000000 -0.822888 -0.288224 )
               b(2) = (  0.000000  1.295046 -0.288224 )
               b(3) = (  0.000000  0.000000  1.308806 )

     PseudoPot. # 1 for Ga read from file:
     /lustre07/scratch/pragov/crystal_structure_design/utils/SSSP/Ga.pbe-dn-kjpaw_psl.1.0.0.UPF
     MD5 check sum: a27b4342b1af7e5f338de752e9ed7044
     Pseudo is Projector augmented-wave + core cor, Zval = 13.0
     Generated using "atomic" code by A. Dal Corso  v.5.1
     Shape of augmentation charge: PSQ
     Using radial grid of 1205 points,  6 beta functions with:
                l(1) =   0
                l(2) =   0
                l(3) =   1
                l(4) =   1
                l(5) =   2
                l(6) =   2
     Q(r) pseudized with 0 coefficients

     PseudoPot. # 2 for Ag read from file:
     /lustre07/scratch/pragov/crystal_structure_design/utils/SSSP/Ag_ONCV_PBE-1.0.oncvpsp.upf
     MD5 check sum: 94f47bd0669c641108e45594df92fabc
     Pseudo is Norm-conserving, Zval = 19.0
     Generated using ONCVPSP code by D. R. Hamann
     Using radial grid of 1398 points,  6 beta functions with:
                l(1) =   0
                l(2) =   0
                l(3) =   1
                l(4) =   1
                l(5) =   2
                l(6) =   2

     PseudoPot. # 3 for Te read from file:
     /lustre07/scratch/pragov/crystal_structure_design/utils/SSSP/Te_pbe_v1.uspp.F.UPF
     MD5 check sum: c319670d6894cc26e93307826a071b75
     Pseudo is Ultrasoft + core correction, Zval =  6.0
     Generated by new atomic code, or converted to UPF format
     Using radial grid of  891 points,  5 beta functions with:
                l(1) =   0
                l(2) =   0
                l(3) =   1
                l(4) =   1
                l(5) =   2
     Q(r) pseudized with  6 coefficients,  rinner =    1.800   1.800   1.800
                                                       1.800   1.800

     PseudoPot. # 4 for Se read from file:
     /lustre07/scratch/pragov/crystal_structure_design/utils/SSSP/Se_pbe_v1.uspp.F.UPF
     MD5 check sum: 1b3568f3a8ae88f9a2a0ad0698632c85
     Pseudo is Ultrasoft + core correction, Zval =  6.0
     Generated by new atomic code, or converted to UPF format
     Using radial grid of  877 points,  6 beta functions with:
                l(1) =   0
                l(2) =   0
                l(3) =   1
                l(4) =   1
                l(5) =   2
                l(6) =   2
     Q(r) pseudized with  8 coefficients,  rinner =    1.300   1.300   1.300
                                                       1.300   1.300

     atomic species   valence    mass     pseudopotential
        Ga            13.00    69.72300     Ga( 1.00)
        Ag            19.00   107.86820     Ag( 1.00)
        Te             6.00   127.60000     Te( 1.00)
        Se             6.00    78.97100     Se( 1.00)

     No symmetry found

                                    s                        frac. trans.

      isym =  1     identity

 cryst.   s( 1) = (     1          0          0      )
                  (     0          1          0      )
                  (     0          0          1      )

 cart.    s( 1) = (  1.0000000  0.0000000  0.0000000 )
                  (  0.0000000  1.0000000  0.0000000 )
                  (  0.0000000  0.0000000  1.0000000 )

   Cartesian axes

     site n.     atom                  positions (alat units)
         1           Ga  tau(   1) = (   1.2915524   0.5000607   0.4662478  )
         2           Ga  tau(   2) = (   0.7887589   0.2626626   0.2978072  )
         3           Ag  tau(   3) = (   0.9402689   0.7898075   0.0987533  )
         4           Ag  tau(   4) = (   0.7882339   0.7180229   0.6653017  )
         5           Te  tau(   5) = (   0.9464449   0.1134261   0.0000000  )
         6           Se  tau(   6) = (   0.9613607   0.5482441   0.3820275  )
         7           Se  tau(   7) = (   0.4635618   0.3384161   0.2139637  )
         8           Se  tau(   8) = (   1.4396917   0.7993039   0.5500913  )

   Crystallographic axes

     site n.     atom                  positions (cryst. coord.)
         1           Ga  tau(   1) = (  0.7456750  0.5132180  0.6102280  )
         2           Ga  tau(   2) = (  0.4867820  0.2543250  0.3897720  )
         3           Ag  tau(   3) = (  0.2618830  0.9943740  0.1292490  )
         4           Ag  tau(   4) = (  0.0056260  0.7381170  0.8707510  )
         5           Te  tau(   5) = (  0.8531080  0.1468920  0.0000000  )
         6           Se  tau(   6) = (  0.4001080  0.5998920  0.5000000  )
         7           Se  tau(   7) = (  0.1234140  0.3765950  0.2800370  )
         8           Se  tau(   8) = (  0.6234050  0.8765860  0.7199630  )

     number of k points=    14
                       cart. coord. in units 2pi/alat
        k(    1) = (   0.0000000   0.0000000   0.0000000), wk =   0.0740741
        k(    2) = (   0.0000000   0.0000000   0.4362688), wk =   0.1481481
        k(    3) = (   0.0000000   0.4316820  -0.0960746), wk =   0.1481481
        k(    4) = (   0.0000000   0.4316820   0.3401942), wk =   0.1481481
        k(    5) = (   0.0000000   0.4316820  -0.5323433), wk =   0.1481481
        k(    6) = (   0.3333333  -0.2742959  -0.0960746), wk =   0.1481481
        k(    7) = (   0.3333333  -0.2742959   0.3401942), wk =   0.1481481
        k(    8) = (   0.3333333  -0.2742959  -0.5323433), wk =   0.1481481
        k(    9) = (   0.3333333   0.1573861  -0.1921491), wk =   0.1481481
        k(   10) = (   0.3333333   0.1573861   0.2441197), wk =   0.1481481
        k(   11) = (   0.3333333   0.1573861  -0.6284179), wk =   0.1481481
        k(   12) = (   0.3333333  -0.7059779   0.0000000), wk =   0.1481481
        k(   13) = (   0.3333333  -0.7059779   0.4362688), wk =   0.1481481
        k(   14) = (   0.3333333  -0.7059779  -0.4362688), wk =   0.1481481

                       cryst. coord.
        k(    1) = (   0.0000000   0.0000000   0.0000000), wk =   0.0740741
        k(    2) = (   0.0000000   0.0000000   0.3333333), wk =   0.1481481
        k(    3) = (   0.0000000   0.3333333   0.0000000), wk =   0.1481481
        k(    4) = (   0.0000000   0.3333333   0.3333333), wk =   0.1481481
        k(    5) = (   0.0000000   0.3333333  -0.3333333), wk =   0.1481481
        k(    6) = (   0.3333333   0.0000000   0.0000000), wk =   0.1481481
        k(    7) = (   0.3333333   0.0000000   0.3333333), wk =   0.1481481
        k(    8) = (   0.3333333   0.0000000  -0.3333333), wk =   0.1481481
        k(    9) = (   0.3333333   0.3333333   0.0000000), wk =   0.1481481
        k(   10) = (   0.3333333   0.3333333   0.3333333), wk =   0.1481481
        k(   11) = (   0.3333333   0.3333333  -0.3333333), wk =   0.1481481
        k(   12) = (   0.3333333  -0.3333333   0.0000000), wk =   0.1481481
        k(   13) = (   0.3333333  -0.3333333   0.3333333), wk =   0.1481481
        k(   14) = (   0.3333333  -0.3333333  -0.3333333), wk =   0.1481481

     Initial potential from superposition of free atoms

     starting charge      87.9931, renormalised to      88.0000
     Starting wfcs are   54 randomized atomic wfcs +   10 random wfcs
     Checking if some PAW data can be deallocated...

     Self-consistent Calculation

     iteration #  1     ecut=    30.00 Ry     beta= 0.70
     Davidson diagonalization with overlap

     ethr =  1.00E-02,  avg # of iterations =  5.9

     Threshold (ethr) on eigenvalues was too large:
     Diagonalizing with lowered threshold

     Davidson diagonalization with overlap

[...]

     total energy              =   -1287.35097573 Ry
     estimated scf accuracy    <       0.35031387 Ry

[...]

     total energy              =   -1287.48614120 Ry
     estimated scf accuracy    <       0.00000278 Ry

     iteration #  8     ecut=    30.00 Ry     beta= 0.70
     Davidson diagonalization with overlap

     ethr =  3.16E-09,  avg # of iterations =  5.4

     End of self-consistent calculation

          k = 0.0000 0.0000 0.0000 (  4081 PWs)   bands (ev):

   -85.7934 -85.7933 -48.8636 -48.8604 -48.8401 -48.8379 -48.8250 -48.8236
    -8.9258  -8.9215  -8.8805  -8.8219  -8.8143  -8.8083  -8.7738  -8.7675
    -8.7663  -8.7579  -7.1009  -6.1045  -6.0977  -4.4748  -0.8639   0.9897
     1.9777   2.0230   2.3023   2.3993   2.4055   2.4310   2.4577   2.6298
     2.9561   3.0115   3.0242   3.0664   3.4382   3.7704   4.1875   4.4782
     4.4898   6.1194   6.1618   6.3461   6.4351   8.7573   8.9064  10.2909
    10.3224  10.4263  10.8672  11.0826  11.4138  11.7263  13.1320  13.2190
    13.5607  14.1998  15.2272  15.6181  15.8825  15.9649  16.1594  16.3338

     occupation numbers
     1.0000   1.0000   1.0000   1.0000   1.0000   1.0000   1.0000   1.0000
     1.0000   1.0000   1.0000   1.0000   1.0000   1.0000   1.0000   1.0000
     1.0000   1.0000   1.0000   1.0000   1.0000   1.0000   1.0000   1.0000
     1.0000   1.0000   1.0000   1.0000   1.0000   1.0000   1.0000   1.0000
     1.0000   1.0000   1.0000   1.0000   1.0000   1.0000   1.0000   1.0000
     1.0000   1.0000   1.0000   1.0000   0.0000   0.0000   0.0000   0.0000
     0.0000   0.0000   0.0000   0.0000   0.0000   0.0000   0.0000   0.0000
     0.0000   0.0000   0.0000   0.0000   0.0000   0.0000   0.0000   0.0000

[...]

          k = 0.3333-0.7060-0.4363 (  4078 PWs)   bands (ev):

   -85.7934 -85.7933 -48.8623 -48.8601 -48.8393 -48.8373 -48.8247 -48.8242
    -8.9276  -8.9006  -8.8937  -8.8341  -8.8162  -8.8131  -8.7712  -8.7698
    -8.7622  -8.7603  -6.5995  -6.5200  -6.2031  -4.6133  -0.2201   0.1932
     1.8452   1.9946   2.2224   2.3619   2.4275   2.5036   2.6160   2.7267
     2.8238   2.8953   3.0910   3.1564   3.8160   3.9568   4.2822   4.6914
     5.1334   5.2529   5.6934   5.8387   7.7001   8.3386   9.5069   9.7758
    10.4844  10.7024  11.4653  11.7801  11.8636  12.3766  12.4614  12.6992
    13.0424  13.1726  13.8840  14.2097  15.4616  15.7225  15.8859  16.1192

     occupation numbers
     1.0000   1.0000   1.0000   1.0000   1.0000   1.0000   1.0000   1.0000
     1.0000   1.0000   1.0000   1.0000   1.0000   1.0000   1.0000   1.0000
     1.0000   1.0000   1.0000   1.0000   1.0000   1.0000   1.0000   1.0000
     1.0000   1.0000   1.0000   1.0000   1.0000   1.0000   1.0000   1.0000
     1.0000   1.0000   1.0000   1.0000   1.0000   1.0000   1.0000   1.0000
     1.0000   1.0000   1.0000   1.0000   0.0000   0.0000   0.0000   0.0000
     0.0000   0.0000   0.0000   0.0000   0.0000   0.0000   0.0000   0.0000
     0.0000   0.0000   0.0000   0.0000   0.0000   0.0000   0.0000   0.0000

     highest occupied, lowest unoccupied level (ev):     6.3461    6.4351

!    total energy              =   -1287.48614360 Ry
     estimated scf accuracy    <       0.00000023 Ry

     The total energy is the sum of the following terms:
     one-electron contribution =    -674.55974765 Ry
     hartree contribution      =     377.63338375 Ry
     xc contribution           =    -233.84100595 Ry
     ewald contribution        =    -534.85301282 Ry
     one-center paw contrib.   =    -221.86576092 Ry
      -> PAW hartree energy AE =     139.69761458 Ry
      -> PAW hartree energy PS =    -137.48402763 Ry
      -> PAW xc energy AE      =    -150.73014942 Ry
      -> PAW xc energy PS      =      37.58367445 Ry
      -> total E_H with PAW    =     379.84697070 Ry
      -> total E_XC with PAW   =    -346.98748091 Ry

     convergence has been achieved in   8 iterations

     Writing all to output data dir bands_nm/myprefix.save/

     General routines

     Parallel routines

     PAW routines

   This run was terminated on:   2:43:11  14Jul2023

   JOB DONE.