     Program PWSCF v.7.1 starts on 15Jul2023 at 14:19: 8

     Reading input from espresso_8498.pwi
Warning: card &CELL ignored
Warning: card / ignored

     Current dimensions of program PWSCF are:
     Max number of different atomic species (ntypx) = 10
     Max number of k-points (npk) =  40000
     Max angular momentum in pseudopotentials (lmaxx) =  4
     Message from routine setup:
     the system is metallic, specify occupations
     Message from routine setup:
     using ibrav=0 with symmetry is DISCOURAGED, use correct ibrav instead

     K-points division:     npool     =       2
     R & G space division:  proc/nbgrp/npool/nimage =       4
     Subspace diagonalization in iterative solution of the eigenvalue problem:
     a serial algorithm will be used

     Using Slab Decomposition

     bravais-lattice index     =            0
     lattice parameter (alat)  =      11.2626  a.u.
     unit-cell volume          =    1010.1732 (a.u.)^3
     number of atoms/cell      =           15
     number of atomic types    =            3
     number of electrons       =        89.00 (up:  47.00, down:  42.00)
     number of Kohn-Sham states=           64
     kinetic-energy cutoff     =      30.0000  Ry
     charge density cutoff     =     240.0000  Ry
     scf convergence threshold =      1.0E-06
     mixing beta               =       0.7000
     number of iterations used =            8  plain     mixing
     Exchange-correlation=  SLA  PW   PBX  PBC
                           (   1   4   3   4   0   0   0)

     celldm(1)=  11.262555  celldm(2)=   0.000000  celldm(3)=   0.000000
     celldm(4)=   0.000000  celldm(5)=   0.000000  celldm(6)=   0.000000

     crystal axes: (cart. coord. in units of alat)
               a(1) = (   1.000000   0.000000   0.000000 )
               a(2) = (   0.500000   0.866025   0.000000 )
               a(3) = (   0.500000   0.288675   0.816497 )

     reciprocal axes: (cart. coord. in units 2 pi/alat)
               b(1) = (  1.000000 -0.577350 -0.408248 )
               b(2) = (  0.000000  1.154701 -0.408248 )
               b(3) = (  0.000000  0.000000  1.224745 )

     PseudoPot. # 1 for Li read from file:
     /lustre07/scratch/pragov/crystal_structure_design/utils/SSSP/li_pbe_v1.4.uspp.F.UPF
     MD5 check sum: e912e257baa3777c20ea3d68f190483c
     Pseudo is Ultrasoft, Zval =  3.0
     Generated by new atomic code, or converted to UPF format
     Using radial grid of  751 points,  5 beta functions with:
                l(1) =   0
                l(2) =   0
                l(3) =   0
                l(4) =   1
                l(5) =   1
     Q(r) pseudized with 10 coefficients,  rinner =    1.150   1.150   1.150

     PseudoPot. # 2 for Mn read from file:
     /lustre07/scratch/pragov/crystal_structure_design/utils/SSSP/mn_pbe_v1.5.uspp.F.UPF
     MD5 check sum: 82ef2b46521d7a7d9e736dc3972e4928
     Pseudo is Ultrasoft + core correction, Zval = 15.0
     Generated by new atomic code, or converted to UPF format
     Using radial grid of  859 points,  6 beta functions with:
                l(1) =   0
                l(2) =   0
                l(3) =   1
                l(4) =   1
                l(5) =   2
                l(6) =   2
     Q(r) pseudized with  8 coefficients,  rinner =    0.950   0.950   0.950
                                                       0.950   0.950

     PseudoPot. # 3 for F  read from file:
     /lustre07/scratch/pragov/crystal_structure_design/utils/SSSP/f_pbe_v1.4.uspp.F.UPF
     MD5 check sum: 4c38b6a325caf53ec0e86aed9459de46
     Pseudo is Ultrasoft, Zval =  7.0
     Generated by new atomic code, or converted to UPF format
     Using radial grid of  799 points,  4 beta functions with:
                l(1) =   0
                l(2) =   0
                l(3) =   1
                l(4) =   1
     Q(r) pseudized with  8 coefficients,  rinner =    0.950   0.950   0.950

     atomic species   valence    mass     pseudopotential
        Li             3.00     6.94000     Li( 1.00)
        Mn            15.00    54.93804     Mn( 1.00)
        F              7.00    18.99840     F ( 1.00)

     Starting magnetic structure
     atomic species   magnetization
        Li           0.000
        Mn           0.000
        F            0.000

     12 Sym. Ops., with inversion, found

                                    s                        frac. trans.

      isym =  1     identity

 cryst.   s( 1) = (     1          0          0      )
                  (     0          1          0      )
                  (     0          0          1      )

 cart.    s( 1) = (  1.0000000  0.0000000  0.0000000 )
                  (  0.0000000  1.0000000  0.0000000 )
                  (  0.0000000  0.0000000  1.0000000 )

      isym =  2     180 deg rotation - cart. axis [1,0,0]

[...]

      isym =  3     120 deg rotation - cryst. axis [0,0,1]

[...]

      isym =  6     180 deg rotation - cryst. axis [1,1,0]

[...]

      isym =  7     inversion

[...]

      isym =  8     inv. 180 deg rotation - cart. axis [1,0,0]

[...]

      isym =  9     inv. 120 deg rotation - cryst. axis [0,0,1]

 cryst.   s( 9) = (     1         -1          0      )
                  (     1          0          0      )
                  (     1          0         -1      )

 cart.    s( 9) = (  0.5000000  0.8660254  0.0000000 )
                  ( -0.8660254  0.5000000  0.0000000 )
                  (  0.0000000  0.0000000 -1.0000000 )

[...]

 cryst.   s(10) = (     0          1          0      )
                  (    -1          1          0      )
                  (     0          1         -1      )

 cart.    s(10) = (  0.5000000 -0.8660254 -0.0000000 )
                  (  0.8660254  0.5000000  0.0000000 )
                  (  0.0000000  0.0000000 -1.0000000 )

[...]

      isym = 12     inv. 180 deg rotation - cryst. axis [1,1,0]

 cryst.   s(12) = (     1         -1          0      )
                  (     0         -1          0      )
                  (     0         -1          1      )

 cart.    s(12) = (  0.5000000 -0.8660254  0.0000000 )
                  ( -0.8660254 -0.5000000 -0.0000000 )
                  (  0.0000000  0.0000000  1.0000000 )

   Cartesian axes

     site n.     atom                  positions (alat units)
         1           Li  tau(   1) = (   0.7500000   0.4330127   0.0000000  )
         2           Li  tau(   2) = (   0.5000000   0.0000000   0.0000000  )
         3           Li  tau(   3) = (   0.2500000   0.1443376   0.4082483  )
         4           Li  tau(   4) = (   0.7500000   0.1443376   0.4082483  )
         5           Li  tau(   5) = (   0.2500000   0.4330127   0.0000000  )
         6           Li  tau(   6) = (   0.5000000   0.5773503   0.4082483  )
         7           Mn  tau(   7) = (   0.0000000   0.0000000   0.0000000  )
         8           F   tau(   8) = (   1.0000000   0.2848265   0.2014028  )
         9           F   tau(   9) = (   1.2533330   0.7236121   0.2014028  )
        10           F   tau(  10) = (   0.7466670   0.7236121   0.2014028  )
        11           F   tau(  11) = (   1.2533330   0.4310884   0.6150938  )
        12           F   tau(  12) = (   0.5000000   0.2886751   0.2041241  )
        13           F   tau(  13) = (   1.5000000   0.8660254   0.6123724  )
        14           F   tau(  14) = (   1.0000000   0.8698740   0.6150938  )
        15           F   tau(  15) = (   0.7466670   0.4310884   0.6150938  )

   Crystallographic axes

     site n.     atom                  positions (cryst. coord.)
         1           Li  tau(   1) = (  0.5000000  0.5000000  0.0000000  )
         2           Li  tau(   2) = (  0.5000000  0.0000000  0.0000000  )
         3           Li  tau(   3) = (  0.0000000 -0.0000000  0.5000000  )
         4           Li  tau(   4) = (  0.5000000 -0.0000000  0.5000000  )
         5           Li  tau(   5) = (  0.0000000  0.5000000  0.0000000  )
         6           Li  tau(   6) = ( -0.0000000  0.5000000  0.5000000  )
         7           Mn  tau(   7) = (  0.0000000  0.0000000  0.0000000  )
         8           F   tau(   8) = (  0.7533330  0.2466670  0.2466670  )
         9           F   tau(   9) = (  0.7533330  0.7533330  0.2466670  )
        10           F   tau(  10) = (  0.2466670  0.7533330  0.2466670  )
        11           F   tau(  11) = (  0.7533330  0.2466670  0.7533330  )
        12           F   tau(  12) = (  0.2500000  0.2500000  0.2500000  )
        13           F   tau(  13) = (  0.7500000  0.7500000  0.7500000  )
        14           F   tau(  14) = (  0.2466670  0.7533330  0.7533330  )
        15           F   tau(  15) = (  0.2466670  0.2466670  0.7533330  )

     number of k points=     6
                       cart. coord. in units 2pi/alat
        k(    1) = (   0.0000000   0.0000000   0.0000000), wk =   0.0370370
        k(    2) = (   0.0000000   0.0000000   0.4082483), wk =   0.0740741
        k(    3) = (   0.0000000   0.3849002  -0.1360828), wk =   0.2222222
        k(    4) = (   0.0000000   0.3849002   0.2721655), wk =   0.2222222
        k(    5) = (   0.0000000   0.3849002  -0.5443311), wk =   0.2222222
        k(    6) = (   0.3333333  -0.5773503   0.0000000), wk =   0.2222222

                       cryst. coord.
        k(    1) = (   0.0000000   0.0000000   0.0000000), wk =   0.0370370
        k(    2) = (   0.0000000   0.0000000   0.3333333), wk =   0.0740741
        k(    3) = (   0.0000000   0.3333333   0.0000000), wk =   0.2222222
        k(    4) = (   0.0000000   0.3333333   0.3333333), wk =   0.2222222
        k(    5) = (   0.0000000   0.3333333  -0.3333333), wk =   0.2222222
        k(    6) = (   0.3333333  -0.3333333   0.0000000), wk =   0.2222222

     Check: negative core charge=   -0.000009
     Generating pointlists ...
     new r_m :   0.1458 (alat units)  1.6425 (a.u.) for type    1
     new r_m :   0.1439 (alat units)  1.6206 (a.u.) for type    2
     new r_m :   0.1439 (alat units)  1.6206 (a.u.) for type    3

     Initial potential from superposition of free atoms

     starting charge      85.7955, renormalised to      89.0000
     Starting wfcs are   75 randomized atomic wfcs

     Self-consistent Calculation

     iteration #  1     ecut=    30.00 Ry     beta= 0.70
     Davidson diagonalization with overlap

     ethr =  1.00E-02,  avg # of iterations =  3.8

     total energy              =    -683.72725791 Ry
     estimated scf accuracy    <       6.31283474 Ry

     total magnetization       =     5.00 Bohr mag/cell
     absolute magnetization    =     5.00 Bohr mag/cell

[...]

     negative rho (up, down):  0.000E+00 8.782E-04

[...]

     total energy              =    -688.60534148 Ry
     estimated scf accuracy    <       0.00001163 Ry

[...]

     iteration # 10     ecut=    30.00 Ry     beta= 0.70
     Davidson diagonalization with overlap

     ethr =  1.31E-08,  avg # of iterations =  2.5

     negative rho (up, down):  0.000E+00 6.004E-04

     Magnetic moment per site  (integrated on atomic sphere of radius R)
     atom   1 (R=0.146)  charge=  2.1371  magn= -0.0005
     atom   2 (R=0.146)  charge=  2.1371  magn= -0.0005
     atom   3 (R=0.146)  charge=  2.1371  magn= -0.0005
     atom   4 (R=0.146)  charge=  2.1371  magn= -0.0005
     atom   5 (R=0.146)  charge=  2.1371  magn= -0.0005
     atom   6 (R=0.146)  charge=  2.1371  magn= -0.0005
     atom   7 (R=0.144)  charge= 12.3619  magn=  4.1094
     atom   8 (R=0.144)  charge=  6.6596  magn=  0.0505
     atom   9 (R=0.144)  charge=  6.6596  magn=  0.0505
     atom  10 (R=0.144)  charge=  6.6596  magn=  0.0505
     atom  11 (R=0.144)  charge=  6.6596  magn=  0.0505
     atom  12 (R=0.144)  charge=  6.6578  magn=  0.0003
     atom  13 (R=0.144)  charge=  6.6578  magn=  0.0003
     atom  14 (R=0.144)  charge=  6.6596  magn=  0.0505
     atom  15 (R=0.144)  charge=  6.6596  magn=  0.0505

     End of self-consistent calculation

 ------ SPIN UP ------------

          k = 0.0000 0.0000 0.0000 (  2741 PWs)   bands (ev):

   -76.0363 -44.7876 -44.7876 -44.7876 -40.6064 -40.5836 -40.5836 -40.5836
   -40.5748 -40.5748 -19.2418 -18.8692 -18.8692 -18.8692 -18.7590 -18.7590
   -18.7098 -18.5737  -2.0905  -1.8807  -1.8807  -1.8807  -1.8125  -1.8125
    -1.8125  -0.7841  -0.7841  -0.3376  -0.3376  -0.3376  -0.1808  -0.1808
    -0.1808   0.2852   0.2852   0.2852   0.2946   0.2946   0.2946   0.5108
     0.5108   0.5108   3.2778   3.2778   3.2778   4.8657   4.8657   7.9811
    10.6672  10.9881  10.9881  10.9881  13.9945  14.5213  14.5213  14.5213
    15.7431  15.9100  15.9100  15.9100  16.5240  16.5240  17.0960  17.0961

     occupation numbers
     1.0000   1.0000   1.0000   1.0000   1.0000   1.0000   1.0000   1.0000
     1.0000   1.0000   1.0000   1.0000   1.0000   1.0000   1.0000   1.0000
     1.0000   1.0000   1.0000   1.0000   1.0000   1.0000   1.0000   1.0000
     1.0000   1.0000   1.0000   1.0000   1.0000   1.0000   1.0000   1.0000
     1.0000   1.0000   1.0000   1.0000   1.0000   1.0000   1.0000   1.0000
     1.0000   1.0000   1.0000   1.0000   1.0000   1.0000   1.0000   0.0000
     0.0000   0.0000   0.0000   0.0000   0.0000   0.0000   0.0000   0.0000
     0.0000   0.0000   0.0000   0.0000   0.0000   0.0000   0.0000   0.0000

[...]

 ------ SPIN DOWN ----------

[...]

          k = 0.3333-0.5774 0.0000 (  2774 PWs)   bands (ev):

   -70.8567 -40.5944 -40.5937 -40.5862 -40.5829 -40.5801 -40.5789 -39.7346
   -39.7335 -39.7320 -18.9754 -18.8609 -18.8176 -18.7343 -18.7313 -18.6960
   -18.6307 -18.6131  -1.3723  -1.3602  -1.1971  -1.1910  -1.1845  -1.1254
    -0.9366  -0.9248  -0.7539  -0.7238  -0.6335  -0.5002  -0.2879  -0.1748
    -0.1210   0.0322   0.0997   0.1238   0.1404   0.1940   0.2032   0.2140
     0.2492   0.5012   7.4843   7.5052   7.5127   8.6330   8.7839  10.1109
    11.0104  11.1143  12.4776  12.6130  13.6152  13.7858  13.9916  14.9802
    15.2180  15.4922  16.1014  16.1405  17.0022  17.2666  17.4429  17.9269

     occupation numbers
     1.0000   1.0000   1.0000   1.0000   1.0000   1.0000   1.0000   1.0000
     1.0000   1.0000   1.0000   1.0000   1.0000   1.0000   1.0000   1.0000
     1.0000   1.0000   1.0000   1.0000   1.0000   1.0000   1.0000   1.0000
     1.0000   1.0000   1.0000   1.0000   1.0000   1.0000   1.0000   1.0000
     1.0000   1.0000   1.0000   1.0000   1.0000   1.0000   1.0000   1.0000
     1.0000   1.0000   0.0000   0.0000   0.0000   0.0000   0.0000   0.0000
     0.0000   0.0000   0.0000   0.0000   0.0000   0.0000   0.0000   0.0000
     0.0000   0.0000   0.0000   0.0000   0.0000   0.0000   0.0000   0.0000

     highest occupied, lowest unoccupied level (ev):     4.8657    7.4581

!    total energy              =    -688.60534282 Ry
     estimated scf accuracy    <       0.00000093 Ry

     The total energy is the sum of the following terms:
     one-electron contribution =    -405.16061733 Ry
     hartree contribution      =     236.62944707 Ry
     xc contribution           =    -122.91499411 Ry
     ewald contribution        =    -397.15917845 Ry

     total magnetization       =     5.00 Bohr mag/cell
     absolute magnetization    =     5.03 Bohr mag/cell

     convergence has been achieved in  10 iterations

     Writing all to output data dir bands_nm/myprefix.save/

     General routines

     Parallel routines

   This run was terminated on:  14:19:15  15Jul2023

   JOB DONE.