     Program PWSCF v.7.1 starts on 14Jul2023 at 18: 0: 3

     Reading input from espresso_14741.pwi
Warning: card &CELL ignored
Warning: card / ignored

     Current dimensions of program PWSCF are:
     Max number of different atomic species (ntypx) = 10
     Max number of k-points (npk) =  40000
     Max angular momentum in pseudopotentials (lmaxx) =  4
     file O.pbe-n-kjpaw_psl.0.1.UPF: wavefunction(s)  2P renormalized
     Message from routine setup:
     using ibrav=0 with symmetry is DISCOURAGED, use correct ibrav instead

     K-points division:     npool     =       2
     R & G space division:  proc/nbgrp/npool/nimage =       4
     Subspace diagonalization in iterative solution of the eigenvalue problem:
     a serial algorithm will be used

     Using Slab Decomposition

     bravais-lattice index     =            0
     lattice parameter (alat)  =       7.4414  a.u.
     unit-cell volume          =    1359.5241 (a.u.)^3
     number of atoms/cell      =           14
     number of atomic types    =            4
     number of electrons       =       120.00
     number of Kohn-Sham states=           64
     kinetic-energy cutoff     =      30.0000  Ry
     charge density cutoff     =     240.0000  Ry
     scf convergence threshold =      1.0E-06
     mixing beta               =       0.7000
     number of iterations used =            8  plain     mixing
     Exchange-correlation= SLA  PW   PBX  PBC
                           (   1   4   3   4   0   0   0)

     celldm(1)=   7.441443  celldm(2)=   0.000000  celldm(3)=   0.000000
     celldm(4)=   0.000000  celldm(5)=   0.000000  celldm(6)=   0.000000

     crystal axes: (cart. coord. in units of alat)
               a(1) = (   1.000000   0.000000   0.000000 )
               a(2) = (  -0.000420   1.004296   0.000000 )
               a(3) = (  -0.369811  -0.248065   3.285140 )

     reciprocal axes: (cart. coord. in units 2 pi/alat)
               b(1) = (  1.000000  0.000418  0.112603 )
               b(2) = (  0.000000  0.995723  0.075188 )
               b(3) = (  0.000000  0.000000  0.304401 )

     PseudoPot. # 1 for Ca read from file:
     /lustre07/scratch/pragov/crystal_structure_design/utils/SSSP/Ca_pbe_v1.uspp.F.UPF
     MD5 check sum: 403a4c14b9e4d4dfdc3024c9a3812218
     Pseudo is Ultrasoft + core correction, Zval = 10.0
     Generated by new atomic code, or converted to UPF format
     Using radial grid of  845 points,  6 beta functions with:
                l(1) =   0
                l(2) =   0
                l(3) =   1
                l(4) =   1
                l(5) =   2
                l(6) =   2
     Q(r) pseudized with  8 coefficients,  rinner =    1.500   1.500   1.500
                                                       1.500   1.500

     PseudoPot. # 2 for Ta read from file:
     /lustre07/scratch/pragov/crystal_structure_design/utils/SSSP/Ta_pbe_v1.uspp.F.UPF
     MD5 check sum: f8bbe9446314a3b8ea5d9f3e3836c939
     Pseudo is Ultrasoft + core correction, Zval = 13.0
     Generated by new atomic code, or converted to UPF format
     Using radial grid of  921 points,  7 beta functions with:
                l(1) =   0
                l(2) =   0
                l(3) =   1
                l(4) =   1
                l(5) =   2
                l(6) =   2
                l(7) =   3
     Q(r) pseudized with  6 coefficients,  rinner =    1.300   1.300   1.300
                                                       1.300   1.300   1.300
                                                       1.300

     PseudoPot. # 3 for Bi read from file:
     /lustre07/scratch/pragov/crystal_structure_design/utils/SSSP/Bi_pbe_v1.uspp.F.UPF
     MD5 check sum: cceb9f28ec65b6d7ff33140f5b0b1758
     Pseudo is Ultrasoft + core correction, Zval = 15.0
     Generated by new atomic code, or converted to UPF format
     Using radial grid of  899 points,  6 beta functions with:
                l(1) =   0
                l(2) =   0
                l(3) =   1
                l(4) =   1
                l(5) =   2
                l(6) =   2
     Q(r) pseudized with  6 coefficients,  rinner =    1.000   1.000   1.000
                                                       1.000   1.000

     PseudoPot. # 4 for O  read from file:
     /lustre07/scratch/pragov/crystal_structure_design/utils/SSSP/O.pbe-n-kjpaw_psl.0.1.UPF
     MD5 check sum: 0234752ac141de4415c5fc33072bef88
     Pseudo is Projector augmented-wave + core cor, Zval =  6.0
     Generated using "atomic" code by A. Dal Corso  v.5.0.99 svn rev. 10869
     Shape of augmentation charge: BESSEL
     Using radial grid of 1095 points,  4 beta functions with:
                l(1) =   0
                l(2) =   0
                l(3) =   1
                l(4) =   1
     Q(r) pseudized with 0 coefficients

     atomic species   valence    mass     pseudopotential
        Ca            10.00    40.07800     Ca( 1.00)
        Ta            13.00   180.94788     Ta( 1.00)
        Bi            15.00   208.98040     Bi( 1.00)
        O              6.00    15.99900     O ( 1.00)

      2 Sym. Ops., with inversion, found

                                    s                        frac. trans.

      isym =  1     identity

 cryst.   s( 1) = (     1          0          0      )
                  (     0          1          0      )
                  (     0          0          1      )

 cart.    s( 1) = (  1.0000000  0.0000000  0.0000000 )
                  (  0.0000000  1.0000000  0.0000000 )
                  (  0.0000000  0.0000000  1.0000000 )

      isym =  2     inversion

 cryst.   s( 2) = (    -1          0          0      )
                  (     0         -1          0      )
                  (     0          0         -1      )

 cart.    s( 2) = ( -1.0000000 -0.0000000  0.0000000 )
                  (  0.0000000 -1.0000000  0.0000000 )
                  (  0.0000000  0.0000000 -1.0000000 )

   Cartesian axes

     site n.     atom                  positions (alat units)
         1           Ca  tau(   1) = (   0.4997900   0.5021478   0.0000000  )
         2           Ta  tau(   2) = (   0.0023740   0.0093820   0.5261612  )
         3           Ta  tau(   3) = (   0.6273946   0.7468485   2.7589792  )
         4           Bi  tau(   4) = (   0.0344706   0.0887688   1.9678977  )
         5           Bi  tau(   5) = (   0.5952980   0.6674616   1.3172428  )
         6           O   tau(   6) = (  -0.0065528  -0.0087284   1.0123259  )
         7           O   tau(   7) = (   0.6363214   0.7649588   2.2728146  )
         8           O   tau(   8) = (   0.4975546   0.0027036   0.4679847  )
         9           O   tau(   9) = (   0.5713423   0.1247810   1.6349323  )
        10           O   tau(  10) = (   0.0584263   0.6314495   1.6502082  )
        11           O   tau(  11) = (  -0.0091275   0.5054048   0.4658428  )
        12           O   tau(  12) = (   0.1322139   0.7535268   2.8171558  )
        13           O   tau(  13) = (   0.6388960   0.2508257   2.8192977  )
        14           O   tau(  14) = (   0.0000000   0.0000000   0.0000000  )

   Crystallographic axes

     site n.     atom                  positions (cryst. coord.)
         1           Ca  tau(   1) = (  0.5000000  0.5000000  0.0000000  )
         2           Ta  tau(   2) = (  0.0616250  0.0489030  0.1601640  )
         3           Ta  tau(   3) = (  0.9383750  0.9510970  0.8398360  )
         4           Bi  tau(   4) = (  0.2560980  0.2363520  0.5990300  )
         5           Bi  tau(   5) = (  0.7439020  0.7636480  0.4009700  )
         6           O   tau(   6) = (  0.1074340  0.0674240  0.3081530  )
         7           O   tau(   7) = (  0.8925660  0.9325760  0.6918470  )
         8           O   tau(   8) = (  0.5502520  0.0378790  0.1424550  )
         9           O   tau(   9) = (  0.7554920  0.2471750  0.4976750  )
        10           O   tau(  10) = (  0.2445080  0.7528250  0.5023250  )
        11           O   tau(  11) = (  0.0435390  0.5382690  0.1418030  )
        12           O   tau(  12) = (  0.4497480  0.9621210  0.8575450  )
        13           O   tau(  13) = (  0.9564610  0.4617310  0.8581970  )
        14           O   tau(  14) = (  0.0000000  0.0000000  0.0000000  )

     number of k points=    14
                       cart. coord. in units 2pi/alat
        k(    1) = (   0.0000000   0.0000000   0.0000000), wk =   0.0740741
        k(    2) = (   0.0000000   0.0000000   0.1014670), wk =   0.1481481
        k(    3) = (   0.0000000   0.3319076   0.0250628), wk =   0.1481481
        k(    4) = (   0.0000000   0.3319076   0.1265298), wk =   0.1481481
        k(    5) = (   0.0000000   0.3319076  -0.0764042), wk =   0.1481481
        k(    6) = (   0.3333333   0.0001394   0.0375342), wk =   0.1481481
        k(    7) = (   0.3333333   0.0001394   0.1390012), wk =   0.1481481
        k(    8) = (   0.3333333   0.0001394  -0.0639328), wk =   0.1481481
        k(    9) = (   0.3333333   0.3320470   0.0625969), wk =   0.1481481
        k(   10) = (   0.3333333   0.3320470   0.1640639), wk =   0.1481481
        k(   11) = (   0.3333333   0.3320470  -0.0388701), wk =   0.1481481
        k(   12) = (   0.3333333  -0.3317682   0.0124714), wk =   0.1481481
        k(   13) = (   0.3333333  -0.3317682   0.1139384), wk =   0.1481481
        k(   14) = (   0.3333333  -0.3317682  -0.0889956), wk =   0.1481481

                       cryst. coord.
        k(    1) = (   0.0000000   0.0000000   0.0000000), wk =   0.0740741
        k(    2) = (   0.0000000   0.0000000   0.3333333), wk =   0.1481481
        k(    3) = (   0.0000000   0.3333333   0.0000000), wk =   0.1481481
        k(    4) = (   0.0000000   0.3333333   0.3333333), wk =   0.1481481
        k(    5) = (   0.0000000   0.3333333  -0.3333333), wk =   0.1481481
        k(    6) = (   0.3333333  -0.0000000  -0.0000000), wk =   0.1481481
        k(    7) = (   0.3333333  -0.0000000   0.3333333), wk =   0.1481481
        k(    8) = (   0.3333333  -0.0000000  -0.3333333), wk =   0.1481481
        k(    9) = (   0.3333333   0.3333333  -0.0000000), wk =   0.1481481
        k(   10) = (   0.3333333   0.3333333   0.3333333), wk =   0.1481481
        k(   11) = (   0.3333333   0.3333333  -0.3333333), wk =   0.1481481
        k(   12) = (   0.3333333  -0.3333333  -0.0000000), wk =   0.1481481
        k(   13) = (   0.3333333  -0.3333333   0.3333333), wk =   0.1481481
        k(   14) = (   0.3333333  -0.3333333  -0.3333333), wk =   0.1481481

     Check: negative core charge=   -0.000009

     Initial potential from superposition of free atoms

     starting charge     117.9922, renormalised to     120.0000

     negative rho (up, down):  2.763E-01 0.000E+00
     Starting wfcs are   90 randomized atomic wfcs
     Checking if some PAW data can be deallocated...

     Self-consistent Calculation

     iteration #  1     ecut=    30.00 Ry     beta= 0.70
     Davidson diagonalization with overlap

     ethr =  1.00E-02,  avg # of iterations =  2.1

     negative rho (up, down):  2.901E-01 0.000E+00

     total energy              =    -986.49940596 Ry
     estimated scf accuracy    <     140.34326474 Ry

[...]

     c_bands:  1 eigenvalues not converged
     ethr =  3.97E-04,  avg # of iterations =  7.8

[...]

     c_bands:  1 eigenvalues not converged
     c_bands:  2 eigenvalues not converged
     ethr =  3.38E-07,  avg # of iterations = 12.5

[...]

     total energy              =   -1104.78047991 Ry
     estimated scf accuracy    <       0.00000103 Ry

     iteration # 31     ecut=    30.00 Ry     beta= 0.70
     Davidson diagonalization with overlap

     ethr =  8.58E-10,  avg # of iterations =  2.9

     negative rho (up, down):  2.730E-01 0.000E+00

     End of self-consistent calculation

          k = 0.0000 0.0000 0.0000 (  3801 PWs)   bands (ev):

   -58.8085 -58.8082 -30.4070 -25.3723 -25.3710 -25.3526 -25.3513 -25.3300
   -25.3036 -13.5302 -13.3629 -13.3513 -13.3423 -13.3263 -13.3123 -13.3008
   -13.2723 -13.2497 -13.2190 -11.5348 -11.3587 -11.3508  -9.8448  -9.2050
    -8.9075  -8.5331  -8.5035  -7.8915  -7.7627  -7.4679  -7.1629  -0.9641
     1.1563   4.3046   4.3820   4.3870   5.3513   5.3675   5.7935   5.8173
     5.9748   6.1600   6.3641   6.5364   6.6357   6.6969   6.7258   6.7724
     7.0897   7.1840   7.2015   7.2711   7.4011   7.5179   7.5188   7.5850
     7.9886   7.9995   8.1169   8.2043  10.9716  11.1077  11.3019  11.5215

     occupation numbers
     1.0000   1.0000   1.0000   1.0000   1.0000   1.0000   1.0000   1.0000
     1.0000   1.0000   1.0000   1.0000   1.0000   1.0000   1.0000   1.0000
     1.0000   1.0000   1.0000   1.0000   1.0000   1.0000   1.0000   1.0000
     1.0000   1.0000   1.0000   1.0000   1.0000   1.0000   1.0000   1.0000
     1.0000   1.0000   1.0000   1.0000   1.0000   1.0000   1.0000   1.0000
     1.0000   1.0000   1.0000   1.0000   1.0000   1.0000   1.0000   1.0000
     1.0000   1.0000   1.0000   1.0000   1.0000   1.0000   1.0000   1.0000
     1.0000   1.0000   1.0000   1.0000   0.0000   0.0000   0.0000   0.0000

[...]

          k = 0.3333-0.3318-0.0890 (  3769 PWs)   bands (ev):

   -58.8073 -58.8071 -30.3996 -25.4487 -25.4474 -25.4241 -25.4230 -25.3237
   -25.2966 -13.5318 -13.4795 -13.3379 -13.3285 -13.3215 -13.2849 -13.2788
   -13.2630 -13.2429 -13.2314 -11.4630 -11.4424 -11.4240  -8.8228  -8.1676
    -8.0635  -8.0176  -7.8741  -7.8494  -7.7932  -7.5204  -7.1029  -1.1345
    -0.4070   3.5966   3.7102   3.7985   3.8473   3.8791   4.3310   4.4166
     4.5096   4.6590   4.9016   5.0454   5.2658   5.5502   5.9311   6.4895
     6.5736   6.9106   7.1083   7.4337   7.6617   7.8189   7.9483   7.9671
     8.0836   8.1650   8.3579   8.5673  11.8164  13.1485  13.3421  13.5874

     occupation numbers
     1.0000   1.0000   1.0000   1.0000   1.0000   1.0000   1.0000   1.0000
     1.0000   1.0000   1.0000   1.0000   1.0000   1.0000   1.0000   1.0000
     1.0000   1.0000   1.0000   1.0000   1.0000   1.0000   1.0000   1.0000
     1.0000   1.0000   1.0000   1.0000   1.0000   1.0000   1.0000   1.0000
     1.0000   1.0000   1.0000   1.0000   1.0000   1.0000   1.0000   1.0000
     1.0000   1.0000   1.0000   1.0000   1.0000   1.0000   1.0000   1.0000
     1.0000   1.0000   1.0000   1.0000   1.0000   1.0000   1.0000   1.0000
     1.0000   1.0000   1.0000   1.0000   0.0000   0.0000   0.0000   0.0000

     highest occupied, lowest unoccupied level (ev):     8.5771   10.9706

!    total energy              =   -1104.78048000 Ry
     estimated scf accuracy    <       0.00000008 Ry

     The total energy is the sum of the following terms:
     one-electron contribution =    -303.73082342 Ry
     hartree contribution      =     220.45780404 Ry
     xc contribution           =    -292.71581939 Ry
     ewald contribution        =    -643.08319128 Ry
     one-center paw contrib.   =     -85.70844995 Ry
      -> PAW hartree energy AE =       0.00000000 Ry
      -> PAW hartree energy PS =       0.00000000 Ry
      -> PAW xc energy AE      =       0.00000000 Ry
      -> PAW xc energy PS      =       0.00000000 Ry
      -> total E_H with PAW    =     220.45780404 Ry
      -> total E_XC with PAW   =    -292.71581939 Ry

     convergence has been achieved in  31 iterations

     Writing all to output data dir bands_nm/myprefix.save/

     General routines

     Parallel routines

     PAW routines

   This run was terminated on:  18: 0:49  14Jul2023

   JOB DONE.