     Program PWSCF v.7.1 starts on 12Jul2023 at 14:23:58

     Reading input from espresso_22154.pwi
Warning: card &CELL ignored
Warning: card / ignored

     Current dimensions of program PWSCF are:
     Max number of different atomic species (ntypx) = 10
     Max number of k-points (npk) =  40000
     Max angular momentum in pseudopotentials (lmaxx) =  4
     file O.pbe-n-kjpaw_psl.0.1.UPF: wavefunction(s)  2P renormalized

     K-points division:     npool     =       2
     R & G space division:  proc/nbgrp/npool/nimage =       8
     Subspace diagonalization in iterative solution of the eigenvalue problem:
     a serial algorithm will be used

     Using Slab Decomposition

     bravais-lattice index     =            0
     lattice parameter (alat)  =      13.1092  a.u.
     unit-cell volume          =    1116.1496 (a.u.)^3
     number of atoms/cell      =           12
     number of atomic types    =            4
     number of electrons       =       100.00
     number of Kohn-Sham states=           64
     kinetic-energy cutoff     =      30.0000  Ry
     charge density cutoff     =     240.0000  Ry
     scf convergence threshold =      1.0E-06
     mixing beta               =       0.7000
     number of iterations used =            8  plain     mixing
     Exchange-correlation= SLA  PW   PBX  PBC
                           (   1   4   3   4   0   0   0)

     celldm(1)=  13.109174  celldm(2)=   0.000000  celldm(3)=   0.000000
     celldm(4)=   0.000000  celldm(5)=   0.000000  celldm(6)=   0.000000

     crystal axes: (cart. coord. in units of alat)
               a(1) = (   1.000000   0.000000   0.000000 )
               a(2) = (   0.409914   0.912124   0.000000 )
               a(3) = (  -0.704957  -0.456062   0.543178 )

     reciprocal axes: (cart. coord. in units 2 pi/alat)
               b(1) = (  1.000000 -0.449406  0.920508 )
               b(2) = (  0.000000  1.096342  0.920508 )
               b(3) = (  0.000000  0.000000  1.841016 )

     PseudoPot. # 1 for Na read from file:
     /lustre07/scratch/pragov/crystal_structure_design/utils/SSSP/na_pbe_v1.5.uspp.F.UPF
     MD5 check sum: 44600605ef58000f06b90626533354dc
     Pseudo is Ultrasoft, Zval =  9.0
     Generated by new atomic code, or converted to UPF format
     Using radial grid of  819 points,  5 beta functions with:
                l(1) =   0
                l(2) =   0
                l(3) =   1
                l(4) =   1
                l(5) =   2
     Q(r) pseudized with  8 coefficients,  rinner =    1.250   1.250   1.250
                                                       1.250   1.250

     PseudoPot. # 2 for Bi read from file:
     /lustre07/scratch/pragov/crystal_structure_design/utils/SSSP/Bi_pbe_v1.uspp.F.UPF
     MD5 check sum: cceb9f28ec65b6d7ff33140f5b0b1758
     Pseudo is Ultrasoft + core correction, Zval = 15.0
     Generated by new atomic code, or converted to UPF format
     Using radial grid of  899 points,  6 beta functions with:
                l(1) =   0
                l(2) =   0
                l(3) =   1
                l(4) =   1
                l(5) =   2
                l(6) =   2
     Q(r) pseudized with  6 coefficients,  rinner =    1.000   1.000   1.000
                                                       1.000   1.000

     PseudoPot. # 3 for Mo read from file:
     /lustre07/scratch/pragov/crystal_structure_design/utils/SSSP/Mo_ONCV_PBE-1.0.oncvpsp.upf
     MD5 check sum: 1b5d28e075c9ccadda658a603575cd1f
     Pseudo is Norm-conserving, Zval = 14.0
     Generated using ONCVPSP code by D. R. Hamann
     Using radial grid of 1526 points,  6 beta functions with:
                l(1) =   0
                l(2) =   0
                l(3) =   1
                l(4) =   1
                l(5) =   2
                l(6) =   2

     PseudoPot. # 4 for O  read from file:
     /lustre07/scratch/pragov/crystal_structure_design/utils/SSSP/O.pbe-n-kjpaw_psl.0.1.UPF
     MD5 check sum: 0234752ac141de4415c5fc33072bef88
     Pseudo is Projector augmented-wave + core cor, Zval =  6.0
     Generated using "atomic" code by A. Dal Corso  v.5.0.99 svn rev. 10869
     Shape of augmentation charge: BESSEL
     Using radial grid of 1095 points,  4 beta functions with:
                l(1) =   0
                l(2) =   0
                l(3) =   1
                l(4) =   1
     Q(r) pseudized with 0 coefficients

     atomic species   valence    mass     pseudopotential
        Na             9.00    22.98977     Na( 1.00)
        Bi            15.00   208.98040     Bi( 1.00)
        Mo            14.00    95.95000     Mo( 1.00)
        O              6.00    15.99900     O ( 1.00)

     No symmetry found

                                    s                        frac. trans.

      isym =  1     identity

 cryst.   s( 1) = (     1          0          0      )
                  (     0          1          0      )
                  (     0          0          1      )

 cart.    s( 1) = (  1.0000000  0.0000000  0.0000000 )
                  (  0.0000000  1.0000000  0.0000000 )
                  (  0.0000000  0.0000000  1.0000000 )

   Cartesian axes

     site n.     atom                  positions (alat units)
         1           Na  tau(   1) = (   0.5000000   0.0000000   0.2715892  )
         2           Bi  tau(   2) = (   0.7049572   0.4560620   0.0000000  )
         3           Mo  tau(   3) = (   0.0000000   0.0000000   0.0000000  )
         4           Mo  tau(   4) = (   0.2049572   0.4560620   0.2715892  )
         5           O   tau(   5) = (  -0.1120053  -0.3330311   0.4815625  )
         6           O   tau(   6) = (   0.3552790   0.4904135   0.0616160  )
         7           O   tau(   7) = (   0.9692667   0.5536675   0.2187803  )
         8           O   tau(   8) = (   0.1973740   0.2010741   0.3243981  )
         9           O   tau(   9) = (   0.6434241   0.8057553   0.0470876  )
        10           O   tau(  10) = (   0.2937404  -0.1994701   0.4960908  )
        11           O   tau(  11) = (  -0.1416806  -0.0355760   0.2161465  )
        12           O   tau(  12) = (   0.6144305   0.3414149   0.3270320  )

   Crystallographic axes

     site n.     atom                  positions (cryst. coord.)
         1           Na  tau(   1) = (  0.7500000  0.2500000  0.5000000  )
         2           Bi  tau(   2) = (  0.5000000  0.5000000  0.0000000  )
         3           Mo  tau(   3) = (  0.0000000  0.0000000  0.0000000  )
         4           Mo  tau(   4) = (  0.2500000  0.7500000  0.5000000  )
         5           O   tau(   5) = (  0.4809430  0.0781660  0.8865640  )
         6           O   tau(   6) = (  0.1916020  0.5943790  0.1134360  )
         7           O   tau(   7) = (  0.9218340  0.8083980  0.4027780  )
         8           O   tau(   8) = (  0.4056210  0.5190570  0.5972220  )
         9           O   tau(   9) = (  0.3246570  0.9267280  0.0866890  )
        10           O   tau(  10) = (  0.8400390  0.2379680  0.9133110  )
        11           O   tau(  11) = (  0.0732720  0.1599610  0.3979290  )
        12           O   tau(  12) = (  0.7620320  0.6753430  0.6020710  )

     number of k points=    14
                       cart. coord. in units 2pi/alat
        k(    1) = (   0.0000000   0.0000000   0.0000000), wk =   0.0740741
        k(    2) = (   0.0000000   0.0000000   0.6136719), wk =   0.1481481
        k(    3) = (   0.0000000   0.3654474   0.3068359), wk =   0.1481481
        k(    4) = (   0.0000000   0.3654474   0.9205078), wk =   0.1481481
        k(    5) = (   0.3333333  -0.1498021   0.3068359), wk =   0.1481481
        k(    6) = (   0.3333333  -0.1498021   0.9205078), wk =   0.1481481
        k(    7) = (   0.3333333   0.2156453   0.6136719), wk =   0.1481481
        k(    8) = (   0.3333333   0.2156453  -0.0000000), wk =   0.1481481
        k(    9) = (   0.3333333  -0.5152495  -0.0000000), wk =   0.1481481
        k(   10) = (   0.3333333  -0.5152495   0.6136719), wk =   0.1481481
        k(   11) = (   0.0000000  -0.3654474   0.3068359), wk =   0.1481481
        k(   12) = (  -0.3333333   0.1498021   0.3068359), wk =   0.1481481
        k(   13) = (  -0.3333333  -0.2156453   0.6136719), wk =   0.1481481
        k(   14) = (  -0.3333333   0.5152495   0.6136719), wk =   0.1481481

                       cryst. coord.
        k(    1) = (   0.0000000   0.0000000   0.0000000), wk =   0.0740741
        k(    2) = (   0.0000000   0.0000000   0.3333333), wk =   0.1481481
        k(    3) = (   0.0000000   0.3333333   0.0000000), wk =   0.1481481
        k(    4) = (   0.0000000   0.3333333   0.3333333), wk =   0.1481481
        k(    5) = (   0.3333333   0.0000000   0.0000000), wk =   0.1481481
        k(    6) = (   0.3333333   0.0000000   0.3333333), wk =   0.1481481
        k(    7) = (   0.3333333   0.3333333   0.0000000), wk =   0.1481481
        k(    8) = (   0.3333333   0.3333333  -0.3333333), wk =   0.1481481
        k(    9) = (   0.3333333  -0.3333333   0.0000000), wk =   0.1481481
        k(   10) = (   0.3333333  -0.3333333   0.3333333), wk =   0.1481481
        k(   11) = (   0.0000000  -0.3333333   0.3333333), wk =   0.1481481
        k(   12) = (  -0.3333333   0.0000000   0.3333333), wk =   0.1481481
        k(   13) = (  -0.3333333  -0.3333333   0.6666667), wk =   0.1481481
        k(   14) = (  -0.3333333   0.3333333   0.3333333), wk =   0.1481481

     Check: negative core charge=   -0.000014

     Initial potential from superposition of free atoms

     starting charge      98.9917, renormalised to     100.0000

     negative rho (up, down):  4.167E-02 0.000E+00
     Starting wfcs are   66 randomized atomic wfcs
     Checking if some PAW data can be deallocated...

     Self-consistent Calculation

     iteration #  1     ecut=    30.00 Ry     beta= 0.70
     Davidson diagonalization with overlap

     ethr =  1.00E-02,  avg # of iterations =  2.0

     negative rho (up, down):  3.830E-02 0.000E+00

     total energy              =    -885.50408262 Ry
     estimated scf accuracy    <       4.65572026 Ry

[...]

     total energy              =    -888.24992549 Ry
     estimated scf accuracy    <       0.00000588 Ry

     iteration # 11     ecut=    30.00 Ry     beta= 0.70
     Davidson diagonalization with overlap

     ethr =  5.66E-09,  avg # of iterations =  2.0

     negative rho (up, down):  3.927E-02 0.000E+00

     End of self-consistent calculation

          k = 0.0000 0.0000 0.0000 (  3099 PWs)   bands (ev):

   -54.5697 -54.5215 -42.1150 -28.8339 -28.8338 -28.8159 -28.7852 -28.7852
   -28.7577 -15.2583 -15.2291 -15.2230 -15.2230 -15.1999 -14.0372 -14.0372
   -14.0281 -10.8741 -10.0137  -9.8181  -9.8179  -9.7322  -9.7156  -9.5976
    -9.5974  -2.4978   1.5089   2.1223   2.1225   2.4734   2.6616   2.7738
     3.0366   3.0367   3.3832   3.6256   3.9356   4.3150   4.3152   4.8696
     4.8744   5.1837   5.1839   5.3953   5.3955   5.6987   5.7569   6.2732
     6.3745   6.3748   9.5548  10.0327  10.3168  10.4063  11.5128  11.5129
    11.6247  12.0443  12.0444  12.7346  12.8374  12.8374  13.2565  14.0653

     occupation numbers
     1.0000   1.0000   1.0000   1.0000   1.0000   1.0000   1.0000   1.0000
     1.0000   1.0000   1.0000   1.0000   1.0000   1.0000   1.0000   1.0000
     1.0000   1.0000   1.0000   1.0000   1.0000   1.0000   1.0000   1.0000
     1.0000   1.0000   1.0000   1.0000   1.0000   1.0000   1.0000   1.0000
     1.0000   1.0000   1.0000   1.0000   1.0000   1.0000   1.0000   1.0000
     1.0000   1.0000   1.0000   1.0000   1.0000   1.0000   1.0000   1.0000
     1.0000   1.0000   0.0000   0.0000   0.0000   0.0000   0.0000   0.0000
     0.0000   0.0000   0.0000   0.0000   0.0000   0.0000   0.0000   0.0000

[...]

          k = 0.0000-0.3654 0.3068 (  3090 PWs)   bands (ev):

[...]

          k =-0.3333 0.1498 0.3068 (  3090 PWs)   bands (ev):

[...]

          k =-0.3333 0.5152 0.6137 (  3081 PWs)   bands (ev):

   -54.5695 -54.5214 -42.1148 -28.8348 -28.8343 -28.8141 -28.7845 -28.7839
   -28.7600 -15.2567 -15.2286 -15.2240 -15.2228 -15.1987 -14.0381 -14.0372
   -14.0286 -10.4372 -10.2875 -10.0684  -9.8965  -9.7085  -9.6405  -9.6022
    -9.5822  -2.5151   1.9441   2.1214   2.3441   2.5881   2.7299   2.8111
     3.1128   3.2373   3.3341   3.3771   3.8870   4.1150   4.2372   4.4473
     4.6874   4.9753   5.1282   5.3842   5.6899   5.8704   5.9435   6.1419
     6.2087   6.2969   9.4268  10.0914  10.2980  10.3523  11.1913  11.4460
    11.6718  12.1300  12.1932  12.5978  12.8216  13.1494  13.6625  15.6199

     occupation numbers
     1.0000   1.0000   1.0000   1.0000   1.0000   1.0000   1.0000   1.0000
     1.0000   1.0000   1.0000   1.0000   1.0000   1.0000   1.0000   1.0000
     1.0000   1.0000   1.0000   1.0000   1.0000   1.0000   1.0000   1.0000
     1.0000   1.0000   1.0000   1.0000   1.0000   1.0000   1.0000   1.0000
     1.0000   1.0000   1.0000   1.0000   1.0000   1.0000   1.0000   1.0000
     1.0000   1.0000   1.0000   1.0000   1.0000   1.0000   1.0000   1.0000
     1.0000   1.0000   0.0000   0.0000   0.0000   0.0000   0.0000   0.0000
     0.0000   0.0000   0.0000   0.0000   0.0000   0.0000   0.0000   0.0000

     highest occupied, lowest unoccupied level (ev):     6.5058    9.3941

!    total energy              =    -888.24992633 Ry
     estimated scf accuracy    <       0.00000021 Ry

     The total energy is the sum of the following terms:
     one-electron contribution =    -318.59523818 Ry
     hartree contribution      =     208.28573899 Ry
     xc contribution           =    -169.12763747 Ry
     ewald contribution        =    -532.56229276 Ry
     one-center paw contrib.   =     -76.25049691 Ry
      -> PAW hartree energy AE =       0.00000000 Ry
      -> PAW hartree energy PS =       0.00000000 Ry
      -> PAW xc energy AE      =       0.00000000 Ry
      -> PAW xc energy PS      =       0.00000000 Ry
      -> total E_H with PAW    =     208.28573899 Ry
      -> total E_XC with PAW   =    -169.12763747 Ry

     convergence has been achieved in  11 iterations

     Writing all to output data dir bands_nm/myprefix.save/

     General routines

     Parallel routines

     PAW routines

   This run was terminated on:  14:24: 8  12Jul2023

   JOB DONE.