     Program PWSCF v.7.1 starts on 14Jul2023 at  1:51:59

     Reading input from espresso_6246.pwi
Warning: card &CELL ignored
Warning: card / ignored

     Current dimensions of program PWSCF are:
     Max number of different atomic species (ntypx) = 10
     Max number of k-points (npk) =  40000
     Max angular momentum in pseudopotentials (lmaxx) =  4

     K-points division:     npool     =       2
     R & G space division:  proc/nbgrp/npool/nimage =       4
     Subspace diagonalization in iterative solution of the eigenvalue problem:
     a serial algorithm will be used

     Using Slab Decomposition

     bravais-lattice index     =            0
     lattice parameter (alat)  =      14.8275  a.u.
     unit-cell volume          =    2368.8242 (a.u.)^3
     number of atoms/cell      =           10
     number of atomic types    =            3
     number of electrons       =        88.00
     number of Kohn-Sham states=           64
     kinetic-energy cutoff     =      30.0000  Ry
     charge density cutoff     =     240.0000  Ry
     scf convergence threshold =      1.0E-06
     mixing beta               =       0.7000
     number of iterations used =            8  plain     mixing
     Exchange-correlation=  SLA  PW   PBX  PBC
                           (   1   4   3   4   0   0   0)

     celldm(1)=  14.827519  celldm(2)=   0.000000  celldm(3)=   0.000000
     celldm(4)=   0.000000  celldm(5)=   0.000000  celldm(6)=   0.000000

     crystal axes: (cart. coord. in units of alat)
               a(1) = (   1.000000   0.000000   0.000000 )
               a(2) = (   0.481308   0.876552   0.000000 )
               a(3) = (   0.481308   0.284810   0.828991 )

     reciprocal axes: (cart. coord. in units 2 pi/alat)
               b(1) = (  1.000000 -0.549092 -0.391947 )
               b(2) = (  0.000000  1.140834 -0.391947 )
               b(3) = (  0.000000  0.000000  1.206286 )

     PseudoPot. # 1 for Rb read from file:
     /lustre07/scratch/pragov/crystal_structure_design/utils/SSSP/Rb_ONCV_PBE-1.0.oncvpsp.upf
     MD5 check sum: 55a5172d6bfbce6759a58e35d43f6aa9
     Pseudo is Norm-conserving, Zval =  9.0
     Generated using ONCVPSP code by D. R. Hamann
     Using radial grid of 2308 points,  6 beta functions with:
                l(1) =   0
                l(2) =   0
                l(3) =   1
                l(4) =   1
                l(5) =   2
                l(6) =   2

     PseudoPot. # 2 for Sn read from file:
     /lustre07/scratch/pragov/crystal_structure_design/utils/SSSP/Sn_pbe_v1.uspp.F.UPF
     MD5 check sum: 4cf58ce39ec5d5d420df3dd08604eb00
     Pseudo is Ultrasoft + core correction, Zval = 14.0
     Generated by new atomic code, or converted to UPF format
     Using radial grid of  891 points,  6 beta functions with:
                l(1) =   0
                l(2) =   0
                l(3) =   1
                l(4) =   1
                l(5) =   2
                l(6) =   2
     Q(r) pseudized with  6 coefficients,  rinner =    1.200   1.200   1.200
                                                       1.200   1.200

     PseudoPot. # 3 for Cl read from file:
     /lustre07/scratch/pragov/crystal_structure_design/utils/SSSP/cl_pbe_v1.4.uspp.F.UPF
     MD5 check sum: fc6f6913ecf08c9257cb748ef0700058
     Pseudo is Ultrasoft + core correction, Zval =  7.0
     Generated by new atomic code, or converted to UPF format
     Using radial grid of  909 points,  6 beta functions with:
                l(1) =   0
                l(2) =   0
                l(3) =   1
                l(4) =   1
                l(5) =   2
                l(6) =   2
     Q(r) pseudized with  8 coefficients,  rinner =    1.300   1.300   1.300
                                                       1.300   1.300

     atomic species   valence    mass     pseudopotential
        Rb             9.00    85.46780     Rb( 1.00)
        Sn            14.00   118.71000     Sn( 1.00)
        Cl             7.00    35.45000     Cl( 1.00)

     No symmetry found

                                    s                        frac. trans.

      isym =  1     identity

 cryst.   s( 1) = (     1          0          0      )
                  (     0          1          0      )
                  (     0          0          1      )

 cart.    s( 1) = (  1.0000000  0.0000000  0.0000000 )
                  (  0.0000000  1.0000000  0.0000000 )
                  (  0.0000000  0.0000000  1.0000000 )

   Cartesian axes

     site n.     atom                  positions (alat units)
         1           Rb  tau(   1) = (   0.5342652   0.3161470   0.2256688  )
         2           Rb  tau(   2) = (   1.5155729   0.8968278   0.6401643  )
         3           Sn  tau(   3) = (   0.0010264   0.0006074   0.0004336  )
         4           Sn  tau(   4) = (   0.9823342   0.5812882   0.4149291  )
         5           Cl  tau(   5) = (   1.2854914   0.3883397   0.5693038  )
         6           Cl  tau(   6) = (   1.2012677   0.8069256   0.1822902  )
         7           Cl  tau(   7) = (   0.9591168   0.8438035   0.7039129  )
         8           Cl  tau(   8) = (   0.7854914   0.3687228   0.5967857  )
         9           Cl  tau(   9) = (   0.7012677   0.7304571   0.2894174  )
        10           Cl  tau(  10) = (   0.9778090   0.3592080   0.1548083  )

   Crystallographic axes

     site n.     atom                  positions (cryst. coord.)
         1           Rb  tau(   1) = (  0.2722210  0.2722210  0.2722210  )
         2           Rb  tau(   2) = (  0.7722210  0.7722210  0.7722210  )
         3           Sn  tau(   3) = (  0.0005230  0.0005230  0.0005230  )
         4           Sn  tau(   4) = (  0.5005230  0.5005230  0.5005230  )
         5           Cl  tau(   5) = (  0.8491200  0.2198940  0.6867430  )
         6           Cl  tau(   6) = (  0.6867430  0.8491200  0.2198940  )
         7           Cl  tau(   7) = (  0.2198940  0.6867430  0.8491200  )
         8           Cl  tau(   8) = (  0.3491200  0.1867430  0.7198940  )
         9           Cl  tau(   9) = (  0.1867430  0.7198940  0.3491200  )
        10           Cl  tau(  10) = (  0.7198940  0.3491200  0.1867430  )

     number of k points=    14
                       cart. coord. in units 2pi/alat
        k(    1) = (   0.0000000   0.0000000   0.0000000), wk =   0.0740741
        k(    2) = (   0.0000000   0.0000000   0.4020952), wk =   0.1481481
        k(    3) = (   0.0000000   0.3802780  -0.1306491), wk =   0.1481481
        k(    4) = (   0.0000000   0.3802780   0.2714461), wk =   0.1481481
        k(    5) = (   0.0000000   0.3802780  -0.5327443), wk =   0.1481481
        k(    6) = (   0.3333333  -0.1830307  -0.1306491), wk =   0.1481481
        k(    7) = (   0.3333333  -0.1830307   0.2714461), wk =   0.1481481
        k(    8) = (   0.3333333  -0.1830307  -0.5327443), wk =   0.1481481
        k(    9) = (   0.3333333   0.1972473  -0.2612982), wk =   0.1481481
        k(   10) = (   0.3333333   0.1972473   0.1407970), wk =   0.1481481
        k(   11) = (   0.3333333   0.1972473  -0.6633934), wk =   0.1481481
        k(   12) = (   0.3333333  -0.5633088   0.0000000), wk =   0.1481481
        k(   13) = (   0.3333333  -0.5633088   0.4020952), wk =   0.1481481
        k(   14) = (   0.3333333  -0.5633088  -0.4020952), wk =   0.1481481

                       cryst. coord.
        k(    1) = (   0.0000000   0.0000000   0.0000000), wk =   0.0740741
        k(    2) = (   0.0000000   0.0000000   0.3333333), wk =   0.1481481
        k(    3) = (   0.0000000   0.3333333   0.0000000), wk =   0.1481481
        k(    4) = (   0.0000000   0.3333333   0.3333333), wk =   0.1481481
        k(    5) = (   0.0000000   0.3333333  -0.3333333), wk =   0.1481481
        k(    6) = (   0.3333333   0.0000000  -0.0000000), wk =   0.1481481
        k(    7) = (   0.3333333   0.0000000   0.3333333), wk =   0.1481481
        k(    8) = (   0.3333333   0.0000000  -0.3333333), wk =   0.1481481
        k(    9) = (   0.3333333   0.3333333  -0.0000000), wk =   0.1481481
        k(   10) = (   0.3333333   0.3333333   0.3333333), wk =   0.1481481
        k(   11) = (   0.3333333   0.3333333  -0.3333333), wk =   0.1481481
        k(   12) = (   0.3333333  -0.3333333  -0.0000000), wk =   0.1481481
        k(   13) = (   0.3333333  -0.3333333   0.3333333), wk =   0.1481481
        k(   14) = (   0.3333333  -0.3333333  -0.3333333), wk =   0.1481481

     Initial potential from superposition of free atoms

     starting charge      85.9503, renormalised to      88.0000

     negative rho (up, down):  9.453E-02 0.000E+00
     Starting wfcs are   52 randomized atomic wfcs +   12 random wfcs

     Self-consistent Calculation

     iteration #  1     ecut=    30.00 Ry     beta= 0.70
     Davidson diagonalization with overlap

     ethr =  1.00E-02,  avg # of iterations =  6.6

     Threshold (ethr) on eigenvalues was too large:
     Diagonalizing with lowered threshold

     Davidson diagonalization with overlap

[...]

     negative rho (up, down):  9.367E-02 0.000E+00

     total energy              =    -624.94317665 Ry
     estimated scf accuracy    <       0.48875763 Ry

[...]

     total energy              =    -625.12327053 Ry
     estimated scf accuracy    <       0.00000114 Ry

     iteration #  7     ecut=    30.00 Ry     beta= 0.70
     Davidson diagonalization with overlap

     ethr =  1.29E-09,  avg # of iterations =  2.0

     negative rho (up, down):  9.116E-02 0.000E+00

     End of self-consistent calculation

          k = 0.0000 0.0000 0.0000 (  6525 PWs)   bands (ev):

   -23.2703 -23.2690 -18.2649 -18.2649 -18.2566 -18.2566 -18.2406 -18.2406
   -18.2396 -18.2396 -18.2292 -18.2288 -11.8911 -11.5843 -11.5426 -11.5426
   -11.3877 -11.3877  -7.3763  -7.3685  -7.3608  -7.3608  -7.3304  -7.3304
    -4.5610  -2.6461  -1.3669  -1.3669  -0.9415  -0.1568  -0.0913  -0.0913
     0.1313   0.1313   0.3557   0.5064   0.5065   0.6171   0.6171   0.7391
     0.8385   0.8385   1.0815   2.9882   5.0949   5.0949   5.4076   6.6539
     7.9749   8.2127   8.2127   8.3477   8.6365   8.6365   9.0594   9.0594
     9.2801   9.4733   9.5976   9.5976  10.8528  10.8528  11.1366  11.1368

     occupation numbers
     1.0000   1.0000   1.0000   1.0000   1.0000   1.0000   1.0000   1.0000
     1.0000   1.0000   1.0000   1.0000   1.0000   1.0000   1.0000   1.0000
     1.0000   1.0000   1.0000   1.0000   1.0000   1.0000   1.0000   1.0000
     1.0000   1.0000   1.0000   1.0000   1.0000   1.0000   1.0000   1.0000
     1.0000   1.0000   1.0000   1.0000   1.0000   1.0000   1.0000   1.0000
     1.0000   1.0000   1.0000   1.0000   0.0000   0.0000   0.0000   0.0000
     0.0000   0.0000   0.0000   0.0000   0.0000   0.0000   0.0000   0.0000
     0.0000   0.0000   0.0000   0.0000   0.0000   0.0000   0.0000   0.0000

[...]

          k = 0.3333-0.5633-0.4021 (  6581 PWs)   bands (ev):

   -23.2697 -23.2696 -18.2628 -18.2627 -18.2587 -18.2586 -18.2406 -18.2405
   -18.2399 -18.2399 -18.2291 -18.2290 -11.7406 -11.7392 -11.5278 -11.5096
   -11.4312 -11.4161  -7.3681  -7.3669  -7.3463  -7.3399  -7.3345  -7.3298
    -3.8012  -3.7971  -1.1529  -0.9844  -0.7274  -0.4323  -0.1997  -0.0947
     0.1124   0.2480   0.2953   0.4079   0.5166   0.5562   0.5785   0.6154
     0.6645   0.7278   1.8111   1.8486   5.5531   6.0266   6.1551   7.1065
     7.1387   7.6751   8.3590   8.4162   8.8181   9.0675   9.1672   9.2037
     9.6572   9.6663   9.9942  10.0296  10.2702  10.3397  10.5962  10.5973

     occupation numbers
     1.0000   1.0000   1.0000   1.0000   1.0000   1.0000   1.0000   1.0000
     1.0000   1.0000   1.0000   1.0000   1.0000   1.0000   1.0000   1.0000
     1.0000   1.0000   1.0000   1.0000   1.0000   1.0000   1.0000   1.0000
     1.0000   1.0000   1.0000   1.0000   1.0000   1.0000   1.0000   1.0000
     1.0000   1.0000   1.0000   1.0000   1.0000   1.0000   1.0000   1.0000
     1.0000   1.0000   1.0000   1.0000   0.0000   0.0000   0.0000   0.0000
     0.0000   0.0000   0.0000   0.0000   0.0000   0.0000   0.0000   0.0000
     0.0000   0.0000   0.0000   0.0000   0.0000   0.0000   0.0000   0.0000

     highest occupied, lowest unoccupied level (ev):     2.9882    5.0949

!    total energy              =    -625.12327082 Ry
     estimated scf accuracy    <       0.00000006 Ry

     The total energy is the sum of the following terms:
     one-electron contribution =    -284.31866806 Ry
     hartree contribution      =     176.73780183 Ry
     xc contribution           =    -166.72327248 Ry
     ewald contribution        =    -350.81913211 Ry

     convergence has been achieved in   7 iterations

     Writing all to output data dir bands_nm/myprefix.save/

     General routines

     Parallel routines

   This run was terminated on:   1:52:19  14Jul2023

   JOB DONE.