     Program PWSCF v.7.1 starts on 15Jul2023 at 21:13:30

     Reading input from espresso_13000.pwi
Warning: card &CELL ignored
Warning: card / ignored

     Current dimensions of program PWSCF are:
     Max number of different atomic species (ntypx) = 10
     Max number of k-points (npk) =  40000
     Max angular momentum in pseudopotentials (lmaxx) =  4
     file Nb.pbe-spn-kjpaw_psl.0.3.0.UPF: wavefunction(s)  4S 4P renormalized
     file Pb.pbe-dn-kjpaw_psl.0.2.2.UPF: wavefunction(s)  6S renormalized
     file O.pbe-n-kjpaw_psl.0.1.UPF: wavefunction(s)  2P renormalized

     K-points division:     npool     =       2
     R & G space division:  proc/nbgrp/npool/nimage =       4
     Subspace diagonalization in iterative solution of the eigenvalue problem:
     one sub-group per band group will be used

     Using Slab Decomposition

     bravais-lattice index     =            0
     lattice parameter (alat)  =       7.9207  a.u.
     unit-cell volume          =    1448.6592 (a.u.)^3
     number of atoms/cell      =           15
     number of atomic types    =            4
     number of electrons       =       142.00
     number of Kohn-Sham states=          256
     kinetic-energy cutoff     =      30.0000  Ry
     charge density cutoff     =     240.0000  Ry
     scf convergence threshold =      1.0E-06
     mixing beta               =       0.7000
     number of iterations used =            8  plain     mixing
     Exchange-correlation= SLA  PW   PBX  PBC
                           (   1   4   3   4   0   0   0)

     celldm(1)=   7.920683  celldm(2)=   0.000000  celldm(3)=   0.000000
     celldm(4)=   0.000000  celldm(5)=   0.000000  celldm(6)=   0.000000

     crystal axes: (cart. coord. in units of alat)
               a(1) = (   1.000000   0.000000   0.000000 )
               a(2) = (   0.040252   2.987788   0.000000 )
               a(3) = (   0.020456   0.987187   0.975728 )

     reciprocal axes: (cart. coord. in units 2 pi/alat)
               b(1) = (  1.000000 -0.013472 -0.007335 )
               b(2) = (  0.000000  0.334696 -0.338626 )
               b(3) = (  0.000000  0.000000  1.024876 )

     PseudoPot. # 1 for Nb read from file:
     /lustre07/scratch/pragov/crystal_structure_design/utils/SSSP/Nb.pbe-spn-kjpaw_psl.0.3.0.UPF
     MD5 check sum: 411d72ad547312f8017e2943ceca08cc
     Pseudo is Projector augmented-wave + core cor, Zval = 13.0
     Generated using "atomic" code by A. Dal Corso  v.5.0.99 svn rev. 10869
     Shape of augmentation charge: PSQ
     Using radial grid of 1227 points,  6 beta functions with:
                l(1) =   0
                l(2) =   0
                l(3) =   1
                l(4) =   1
                l(5) =   2
                l(6) =   2
     Q(r) pseudized with 0 coefficients

     PseudoPot. # 2 for Zn read from file:
     /lustre07/scratch/pragov/crystal_structure_design/utils/SSSP/Zn_pbe_v1.uspp.F.UPF
     MD5 check sum: df62231357ef9e81f77b2b3087fa5675
     Pseudo is Ultrasoft, Zval = 20.0
     Generated by new atomic code, or converted to UPF format
     Using radial grid of  943 points,  6 beta functions with:
                l(1) =   0
                l(2) =   0
                l(3) =   1
                l(4) =   1
                l(5) =   2
                l(6) =   2
     Q(r) pseudized with  8 coefficients,  rinner =    1.100   1.100   1.100
                                                       1.100   1.100

     PseudoPot. # 3 for Pb read from file:
     /lustre07/scratch/pragov/crystal_structure_design/utils/SSSP/Pb.pbe-dn-kjpaw_psl.0.2.2.UPF
     MD5 check sum: 9d431e6316058b74ade52399a6cf67da
     Pseudo is Projector augmented-wave + core cor, Zval = 14.0
     Generated using "atomic" code by A. Dal Corso  v.5.0.99 svn rev. 10869
     Shape of augmentation charge: PSQ
     Using radial grid of 1281 points,  6 beta functions with:
                l(1) =   0
                l(2) =   0
                l(3) =   1
                l(4) =   1
                l(5) =   2
                l(6) =   2
     Q(r) pseudized with 0 coefficients

     PseudoPot. # 4 for O  read from file:
     /lustre07/scratch/pragov/crystal_structure_design/utils/SSSP/O.pbe-n-kjpaw_psl.0.1.UPF
     MD5 check sum: 0234752ac141de4415c5fc33072bef88
     Pseudo is Projector augmented-wave + core cor, Zval =  6.0
     Generated using "atomic" code by A. Dal Corso  v.5.0.99 svn rev. 10869
     Shape of augmentation charge: BESSEL
     Using radial grid of 1095 points,  4 beta functions with:
                l(1) =   0
                l(2) =   0
                l(3) =   1
                l(4) =   1
     Q(r) pseudized with 0 coefficients

     atomic species   valence    mass     pseudopotential
        Nb            13.00    92.90637     Nb( 1.00)
        Zn            20.00    65.38000     Zn( 1.00)
        Pb            14.00   207.20000     Pb( 1.00)
        O              6.00    15.99900     O ( 1.00)

     No symmetry found

                                    s                        frac. trans.

      isym =  1     identity

 cryst.   s( 1) = (     1          0          0      )
                  (     0          1          0      )
                  (     0          0          1      )

 cart.    s( 1) = (  1.0000000  0.0000000  0.0000000 )
                  (  0.0000000  1.0000000 -0.0000000 )
                  (  0.0000000  0.0000000  1.0000000 )

   Cartesian axes

     site n.     atom                  positions (alat units)
         1           Nb  tau(   1) = (   0.4933863   2.4500465   0.5022060  )
         2           Nb  tau(   2) = (   0.4790189   1.4916079   0.4812083  )
         3           Zn  tau(   3) = (   0.5159545   3.4276210   0.4683902  )
         4           Pb  tau(   4) = (   0.9439121   3.8956654   0.9403954  )
         5           Pb  tau(   5) = (   0.9552536   0.8871175   0.0808634  )
         6           Pb  tau(   6) = (   0.9781967   3.0177065   0.8896459  )
         7           O   tau(   7) = (   1.0396132   3.4976952   0.5133380  )
         8           O   tau(   8) = (   0.0337436   1.5015210   0.4843648  )
         9           O   tau(   9) = (   0.0473073   2.4727548   0.4943016  )
        10           O   tau(  10) = (   0.5441433   1.5164486   0.9552382  )
        11           O   tau(  11) = (   0.5648782   2.4757026   0.0255953  )
        12           O   tau(  12) = (   0.5420535   1.4960682   0.0029877  )
        13           O   tau(  13) = (   0.5467442   1.0274358   0.4941357  )
        14           O   tau(  14) = (   0.5494246   1.9865129   0.4835549  )
        15           O   tau(  15) = (   0.5678295   2.9395460   0.5017318  )

   Crystallographic axes

     site n.     atom                  positions (cryst. coord.)
         1           Nb  tau(   1) = (  0.4566950  0.6499600  0.5146990  )
         2           Nb  tau(   2) = (  0.4553940  0.3362850  0.4931790  )
         3           Zn  tau(   3) = (  0.4663410  0.9886010  0.4800420  )
         4           Pb  tau(   4) = (  0.8845310  0.9854200  0.9637890  )
         5           Pb  tau(   5) = (  0.9427090  0.2695320  0.0828750  )
         6           Pb  tau(   6) = (  0.9310160  0.7087560  0.9117770  )
         7           O   tau(   7) = (  0.9887260  0.9968340  0.5261080  )
         8           O   tau(   8) = (  0.0099620  0.3385340  0.4964140  )
         9           O   tau(   9) = (  0.0103680  0.6602370  0.5065980  )
        10           O   tau(  10) = (  0.5167070  0.1840800  0.9790010  )
        11           O   tau(  11) = (  0.5313370  0.8199400  0.0262320  )
        12           O   tau(  12) = (  0.5218760  0.4997160  0.0030620  )
        13           O   tau(  13) = (  0.5292780  0.1765510  0.5064280  )
        14           O   tau(  14) = (  0.5191150  0.5011330  0.4955840  )
        15           O   tau(  15) = (  0.5245470  0.8139540  0.5142130  )

     number of k points=    14
                       cart. coord. in units 2pi/alat
        k(    1) = (   0.0000000   0.0000000   0.0000000), wk =   0.0740741
        k(    2) = (   0.0000000   0.0000000   0.3416254), wk =   0.1481481
        k(    3) = (   0.0000000   0.1115653  -0.1128755), wk =   0.1481481
        k(    4) = (   0.0000000   0.1115653   0.2287499), wk =   0.1481481
        k(    5) = (   0.0000000   0.1115653  -0.4545009), wk =   0.1481481
        k(    6) = (   0.3333333  -0.0044908  -0.0024448), wk =   0.1481481
        k(    7) = (   0.3333333  -0.0044908   0.3391806), wk =   0.1481481
        k(    8) = (   0.3333333  -0.0044908  -0.3440703), wk =   0.1481481
        k(    9) = (   0.3333333   0.1070745  -0.1153203), wk =   0.1481481
        k(   10) = (   0.3333333   0.1070745   0.2263051), wk =   0.1481481
        k(   11) = (   0.3333333   0.1070745  -0.4569458), wk =   0.1481481
        k(   12) = (   0.3333333  -0.1160560   0.1104307), wk =   0.1481481
        k(   13) = (   0.3333333  -0.1160560   0.4520561), wk =   0.1481481
        k(   14) = (   0.3333333  -0.1160560  -0.2311948), wk =   0.1481481

                       cryst. coord.
        k(    1) = (   0.0000000   0.0000000   0.0000000), wk =   0.0740741
        k(    2) = (   0.0000000   0.0000000   0.3333333), wk =   0.1481481
        k(    3) = (   0.0000000   0.3333333   0.0000000), wk =   0.1481481
        k(    4) = (   0.0000000   0.3333333   0.3333333), wk =   0.1481481
        k(    5) = (   0.0000000   0.3333333  -0.3333333), wk =   0.1481481
        k(    6) = (   0.3333333   0.0000000   0.0000000), wk =   0.1481481
        k(    7) = (   0.3333333   0.0000000   0.3333333), wk =   0.1481481
        k(    8) = (   0.3333333   0.0000000  -0.3333333), wk =   0.1481481
        k(    9) = (   0.3333333   0.3333333   0.0000000), wk =   0.1481481
        k(   10) = (   0.3333333   0.3333333   0.3333333), wk =   0.1481481
        k(   11) = (   0.3333333   0.3333333  -0.3333333), wk =   0.1481481
        k(   12) = (   0.3333333  -0.3333333  -0.0000000), wk =   0.1481481
        k(   13) = (   0.3333333  -0.3333333   0.3333333), wk =   0.1481481
        k(   14) = (   0.3333333  -0.3333333  -0.3333333), wk =   0.1481481

     Check: negative core charge=   -0.000014

     Initial potential from superposition of free atoms

     starting charge     141.9885, renormalised to     142.0000
     Starting wfcs are   96 randomized atomic wfcs +  160 random wfcs
     Checking if some PAW data can be deallocated...

     Self-consistent Calculation

     iteration #  1     ecut=    30.00 Ry     beta= 0.70
     Davidson diagonalization with overlap

     ethr =  1.00E-02,  avg # of iterations =  7.0

     total energy              =   -4113.78455376 Ry
     estimated scf accuracy    <       5.86322284 Ry

[...]

     total energy              =   -4116.88814403 Ry
     estimated scf accuracy    <       0.00000303 Ry

     iteration # 14     ecut=    30.00 Ry     beta= 0.70
     Davidson diagonalization with overlap

     ethr =  2.13E-09,  avg # of iterations =  2.0

     End of self-consistent calculation

          k = 0.0000 0.0000 0.0000 (  4013 PWs)   bands (ev):

  -114.3135 -68.4778 -68.4550 -68.4137 -45.8712 -45.8543 -22.0524 -22.0279
   -22.0086 -21.9918 -21.9448 -21.9357  -8.3890  -7.9997  -7.8131  -7.7032
    -7.6143  -7.5747  -7.4883  -7.2264  -7.1967  -6.1171  -6.0985  -6.0709
    -6.0504  -6.0462  -6.0148  -5.9944  -5.9795  -5.9572  -5.9376  -5.9244
    -5.8673  -5.7665  -5.6855  -5.4552   2.0702   2.2423   3.2082   4.1617
     4.3398   4.4305   4.5347   4.7191   4.8084   4.9870   5.5850   5.6947
     5.9536   6.0508   6.1512   6.3715   6.5139   6.5559   6.6293   6.7362
     6.9611   7.1221   7.1918   7.4123   7.5233   7.7840   7.8391   7.9484
     8.0002   8.1747   8.2255   8.3527   8.5370   8.6479   8.7737  11.7665
    12.0854  12.1591  12.6230  12.8199  13.1896  13.3603  13.9102  14.1858
    14.2783  14.3710  14.6870  15.1838  15.3570  15.5658  15.6745  15.9952
    16.4614  16.6413  17.9816  19.3668  19.6795  20.2914  20.3906  20.5922
    20.7965  21.4239  21.7795  22.0811  22.4261  23.1193  23.3290  23.4240
    23.5179  23.8954  24.6917  24.9043  25.0934  25.2145  25.4542  25.6535
    25.8241  26.3974  26.7381  26.9740  27.3480  27.8587  28.0113  28.0876
    28.1885  28.4769  28.6305  29.2544  29.2772  29.5040  29.6501  30.3394
    30.3883  30.5834  31.1950  31.3651  31.4667  31.5578  31.8506  32.1665
    32.5549  32.5803  32.9682  33.0840  33.5060  33.9451  34.1052  34.4022
    34.7623  34.9994  35.4028  35.7070  35.8604  36.1886  36.4183  36.6939
    36.7573  37.0518  37.0957  37.3533  37.6130  37.8531  37.9707  38.1108
    38.6267  38.7511  39.3321  39.4464  39.4922  39.7599  39.8427  40.1216
    40.2932  40.6452  40.8222  40.9262  41.0424  41.3488  41.5411  41.5532
    41.7667  42.0746  42.3227  42.4253  42.5821  42.6668  42.8347  42.9395
    43.0457  43.3553  43.6124  43.8171  43.8711  43.9995  44.2508  44.3365
    44.3871  44.4913  44.5829  44.7028  44.9602  44.9804  45.3161  45.3406
    45.4232  45.8088  45.9301  46.4261  46.8826  47.1240  47.3639  47.6204
    47.8252  47.9738  48.1431  48.2562  48.3626  48.4895  48.9614  49.0388
    49.2641  49.2998  49.4388  49.6258  49.8036  49.9992  50.3004  50.4357
    50.4598  50.6882  50.9467  51.0161  51.1642  51.4034  51.4509  51.4920
    51.6774  52.0255  52.3097  52.5698  52.6646  52.9130  53.0244  53.2823
    53.3468  53.5010  53.5795  53.7652  53.8846  54.0628  54.1692  54.3705
    54.5103  54.6479  54.7598  54.7807  54.9153  55.0680  55.1997  55.2970

     occupation numbers
     1.0000   1.0000   1.0000   1.0000   1.0000   1.0000   1.0000   1.0000
     1.0000   1.0000   1.0000   1.0000   1.0000   1.0000   1.0000   1.0000
     1.0000   1.0000   1.0000   1.0000   1.0000   1.0000   1.0000   1.0000
     1.0000   1.0000   1.0000   1.0000   1.0000   1.0000   1.0000   1.0000
     1.0000   1.0000   1.0000   1.0000   1.0000   1.0000   1.0000   1.0000
     1.0000   1.0000   1.0000   1.0000   1.0000   1.0000   1.0000   1.0000
     1.0000   1.0000   1.0000   1.0000   1.0000   1.0000   1.0000   1.0000
     1.0000   1.0000   1.0000   1.0000   1.0000   1.0000   1.0000   1.0000
     1.0000   1.0000   1.0000   1.0000   1.0000   1.0000   1.0000   0.0000
     0.0000   0.0000   0.0000   0.0000   0.0000   0.0000   0.0000   0.0000
     0.0000   0.0000   0.0000   0.0000   0.0000   0.0000   0.0000   0.0000
     0.0000   0.0000   0.0000   0.0000   0.0000   0.0000   0.0000   0.0000
     0.0000   0.0000   0.0000   0.0000   0.0000   0.0000   0.0000   0.0000
     0.0000   0.0000   0.0000   0.0000   0.0000   0.0000   0.0000   0.0000
     0.0000   0.0000   0.0000   0.0000   0.0000   0.0000   0.0000   0.0000
     0.0000   0.0000   0.0000   0.0000   0.0000   0.0000   0.0000   0.0000
     0.0000   0.0000   0.0000   0.0000   0.0000   0.0000   0.0000   0.0000
     0.0000   0.0000   0.0000   0.0000   0.0000   0.0000   0.0000   0.0000
     0.0000   0.0000   0.0000   0.0000   0.0000   0.0000   0.0000   0.0000
     0.0000   0.0000   0.0000   0.0000   0.0000   0.0000   0.0000   0.0000
     0.0000   0.0000   0.0000   0.0000   0.0000   0.0000   0.0000   0.0000
     0.0000   0.0000   0.0000   0.0000   0.0000   0.0000   0.0000   0.0000
     0.0000   0.0000   0.0000   0.0000   0.0000   0.0000   0.0000   0.0000
     0.0000   0.0000   0.0000   0.0000   0.0000   0.0000   0.0000   0.0000
     0.0000   0.0000   0.0000   0.0000   0.0000   0.0000   0.0000   0.0000
     0.0000   0.0000   0.0000   0.0000   0.0000   0.0000   0.0000   0.0000
     0.0000   0.0000   0.0000   0.0000   0.0000   0.0000   0.0000   0.0000
     0.0000   0.0000   0.0000   0.0000   0.0000   0.0000   0.0000   0.0000
     0.0000   0.0000   0.0000   0.0000   0.0000   0.0000   0.0000   0.0000
     0.0000   0.0000   0.0000   0.0000   0.0000   0.0000   0.0000   0.0000
     0.0000   0.0000   0.0000   0.0000   0.0000   0.0000   0.0000   0.0000
     0.0000   0.0000   0.0000   0.0000   0.0000   0.0000   0.0000   0.0000

[...]

          k = 0.3333-0.1161-0.2312 (  4023 PWs)   bands (ev):

  -114.3133 -68.4755 -68.4538 -68.4157 -45.8703 -45.8535 -22.1068 -22.0843
   -22.0071 -21.9963 -21.9394 -21.9333  -8.0153  -7.9246  -7.7364  -7.6413
    -7.4634  -7.3847  -7.2962  -7.2358  -7.1951  -6.1133  -6.0943  -6.0714
    -6.0593  -6.0386  -6.0097  -5.9787  -5.9717  -5.9537  -5.9417  -5.9051
    -5.7954  -5.7198  -5.6098  -5.5070   1.9959   2.3261   2.4818   3.9932
     4.1055   4.1470   4.4459   4.5342   4.6602   4.7120   4.8330   5.0930
     5.2012   5.2781   5.4925   5.7837   5.8618   6.1977   6.5360   6.6846
     6.8788   7.1425   7.2387   7.4045   7.6051   7.9268   8.0424   8.1715
     8.2292   8.3717   8.4841   8.5589   8.6717   8.8723   8.9503  12.1985
    12.7421  12.8635  12.9218  13.2706  13.3591  13.4925  13.8020  14.1807
    14.5780  14.6796  14.8905  15.3322  15.5090  15.6593  15.9048  16.4642
    16.9207  17.3988  18.0986  19.6868  20.2874  20.5096  20.8396  21.1870
    21.3816  22.1033  22.2291  22.4099  22.6940  23.0174  23.2363  23.4675
    23.7921  23.9504  24.0726  24.4922  24.7253  25.1038  25.4399  25.8514
    25.9223  26.3217  26.8932  27.1178  27.3619  27.5712  27.8180  28.1089
    28.2881  28.6341  28.7177  28.9946  29.2033  29.5399  29.9617  30.1823
    30.4589  30.8345  30.9926  31.2661  31.4903  31.6899  31.8877  32.1781
    32.4563  32.6510  32.8984  33.2466  33.5109  33.7465  33.8778  34.0573
    34.3468  34.6722  34.9131  35.2498  35.4985  35.7978  36.0809  36.1660
    36.4600  36.6068  36.8366  37.0206  37.1673  37.3905  37.5624  37.8950
    38.0540  38.3064  38.6174  38.8186  38.9316  39.0854  39.1655  39.4580
    39.7080  39.8824  40.1301  40.3437  40.5365  40.7413  40.8488  41.0337
    41.3588  41.4197  41.5978  41.8227  41.9482  42.2172  42.4037  42.6001
    42.6501  42.9403  43.0317  43.1613  43.3930  43.6503  43.9810  44.2405
    44.3459  44.4424  44.6680  44.8244  45.0098  45.1381  45.4603  45.5187
    45.7632  45.8761  46.0723  46.3479  46.6394  46.9128  47.1905  47.4857
    47.6413  47.8181  48.0713  48.2502  48.3708  48.6941  48.8330  49.0467
    49.3096  49.5305  49.6560  49.9002  49.9821  50.2125  50.3053  50.5551
    50.8212  51.0110  51.0844  51.3016  51.4684  51.8269  52.0077  52.1319
    52.2620  52.5669  52.7222  53.0134  53.1282  53.2421  53.3237  53.5933
    53.8994  54.1036  54.2361  54.4458  54.5318  54.8096  54.9916  55.0951
    55.1696  55.4305  55.5922  55.7944  56.0635  56.1967  56.2961  56.5890

     occupation numbers
     1.0000   1.0000   1.0000   1.0000   1.0000   1.0000   1.0000   1.0000
     1.0000   1.0000   1.0000   1.0000   1.0000   1.0000   1.0000   1.0000
     1.0000   1.0000   1.0000   1.0000   1.0000   1.0000   1.0000   1.0000
     1.0000   1.0000   1.0000   1.0000   1.0000   1.0000   1.0000   1.0000
     1.0000   1.0000   1.0000   1.0000   1.0000   1.0000   1.0000   1.0000
     1.0000   1.0000   1.0000   1.0000   1.0000   1.0000   1.0000   1.0000
     1.0000   1.0000   1.0000   1.0000   1.0000   1.0000   1.0000   1.0000
     1.0000   1.0000   1.0000   1.0000   1.0000   1.0000   1.0000   1.0000
     1.0000   1.0000   1.0000   1.0000   1.0000   1.0000   1.0000   0.0000
     0.0000   0.0000   0.0000   0.0000   0.0000   0.0000   0.0000   0.0000
     0.0000   0.0000   0.0000   0.0000   0.0000   0.0000   0.0000   0.0000
     0.0000   0.0000   0.0000   0.0000   0.0000   0.0000   0.0000   0.0000
     0.0000   0.0000   0.0000   0.0000   0.0000   0.0000   0.0000   0.0000
     0.0000   0.0000   0.0000   0.0000   0.0000   0.0000   0.0000   0.0000
     0.0000   0.0000   0.0000   0.0000   0.0000   0.0000   0.0000   0.0000
     0.0000   0.0000   0.0000   0.0000   0.0000   0.0000   0.0000   0.0000
     0.0000   0.0000   0.0000   0.0000   0.0000   0.0000   0.0000   0.0000
     0.0000   0.0000   0.0000   0.0000   0.0000   0.0000   0.0000   0.0000
     0.0000   0.0000   0.0000   0.0000   0.0000   0.0000   0.0000   0.0000
     0.0000   0.0000   0.0000   0.0000   0.0000   0.0000   0.0000   0.0000
     0.0000   0.0000   0.0000   0.0000   0.0000   0.0000   0.0000   0.0000
     0.0000   0.0000   0.0000   0.0000   0.0000   0.0000   0.0000   0.0000
     0.0000   0.0000   0.0000   0.0000   0.0000   0.0000   0.0000   0.0000
     0.0000   0.0000   0.0000   0.0000   0.0000   0.0000   0.0000   0.0000
     0.0000   0.0000   0.0000   0.0000   0.0000   0.0000   0.0000   0.0000
     0.0000   0.0000   0.0000   0.0000   0.0000   0.0000   0.0000   0.0000
     0.0000   0.0000   0.0000   0.0000   0.0000   0.0000   0.0000   0.0000
     0.0000   0.0000   0.0000   0.0000   0.0000   0.0000   0.0000   0.0000
     0.0000   0.0000   0.0000   0.0000   0.0000   0.0000   0.0000   0.0000
     0.0000   0.0000   0.0000   0.0000   0.0000   0.0000   0.0000   0.0000
     0.0000   0.0000   0.0000   0.0000   0.0000   0.0000   0.0000   0.0000
     0.0000   0.0000   0.0000   0.0000   0.0000   0.0000   0.0000   0.0000

     highest occupied, lowest unoccupied level (ev):     9.1170   11.6368

!    total energy              =   -4116.88814438 Ry
     estimated scf accuracy    <       0.00000050 Ry

     The total energy is the sum of the following terms:
     one-electron contribution =    -688.10834486 Ry
     hartree contribution      =     440.58150742 Ry
     xc contribution           =    -299.84195569 Ry
     ewald contribution        =    -881.35420991 Ry
     one-center paw contrib.   =   -2688.16514133 Ry
      -> PAW hartree energy AE =     130.36344620 Ry
      -> PAW hartree energy PS =    -129.63215400 Ry
      -> PAW xc energy AE      =    -471.04164061 Ry
      -> PAW xc energy PS      =      53.33463336 Ry
      -> total E_H with PAW    =     441.31279962 Ry
      -> total E_XC with PAW   =    -717.54896295 Ry

     convergence has been achieved in  14 iterations

     Writing all to output data dir bands_nm/myprefix.save/

     General routines

     Parallel routines

     PAW routines

   This run was terminated on:  21:14:55  15Jul2023

   JOB DONE.