     Program PWSCF v.7.1 starts on 15Jul2023 at 14:10:38

     Reading input from espresso_22243.pwi
Warning: card &CELL ignored
Warning: card / ignored

     Current dimensions of program PWSCF are:
     Max number of different atomic species (ntypx) = 10
     Max number of k-points (npk) =  40000
     Max angular momentum in pseudopotentials (lmaxx) =  4
     file Ce.paw.z_12.atompaw.wentzcovitch.v1.2.upf: wavefunction(s)  6S 0P 5D 0D 4F 0F renormalized
     Message from routine setup:
     the system is metallic, specify occupations
     Message from routine setup:
     using ibrav=0 with symmetry is DISCOURAGED, use correct ibrav instead

     K-points division:     npool     =       2
     R & G space division:  proc/nbgrp/npool/nimage =       4
     Subspace diagonalization in iterative solution of the eigenvalue problem:
     a serial algorithm will be used

     Using Slab Decomposition

     bravais-lattice index     =            0
     lattice parameter (alat)  =      13.7611  a.u.
     unit-cell volume          =    1842.6489 (a.u.)^3
     number of atoms/cell      =           10
     number of atomic types    =            3
     number of electrons       =        81.00 (up:  41.00, down:  40.00)
     number of Kohn-Sham states=           64
     kinetic-energy cutoff     =      30.0000  Ry
     charge density cutoff     =     240.0000  Ry
     scf convergence threshold =      1.0E-06
     mixing beta               =       0.7000
     number of iterations used =            8  plain     mixing
     Exchange-correlation=  SLA  PW   PBX  PBC
                           (   1   4   3   4   0   0   0)

     celldm(1)=  13.761080  celldm(2)=   0.000000  celldm(3)=   0.000000
     celldm(4)=   0.000000  celldm(5)=   0.000000  celldm(6)=   0.000000

     crystal axes: (cart. coord. in units of alat)
               a(1) = (   1.000000   0.000000   0.000000 )
               a(2) = (   0.500000   0.866025   0.000000 )
               a(3) = (   0.500000   0.288675   0.816497 )

     reciprocal axes: (cart. coord. in units 2 pi/alat)
               b(1) = (  1.000000 -0.577350 -0.408248 )
               b(2) = (  0.000000  1.154701 -0.408248 )
               b(3) = (  0.000000  0.000000  1.224745 )

     PseudoPot. # 1 for Cs read from file:
     /lustre07/scratch/pragov/crystal_structure_design/utils/SSSP/Cs_pbe_v1.uspp.F.UPF
     MD5 check sum: 3476d69cb178dfad3ffaa59df4e07ca4
     Pseudo is Ultrasoft + core correction, Zval =  9.0
     Generated by new atomic code, or converted to UPF format
     Using radial grid of  905 points,  6 beta functions with:
                l(1) =   0
                l(2) =   0
                l(3) =   1
                l(4) =   1
                l(5) =   2
                l(6) =   2
     Q(r) pseudized with  6 coefficients,  rinner =    1.500   1.500   1.500
                                                       1.500   1.500

     PseudoPot. # 2 for Ce read from file:
     /lustre07/scratch/pragov/crystal_structure_design/utils/SSSP/Ce.paw.z_12.atompaw.wentzcovitch.v1.2.upf
     MD5 check sum: 2241420ff980c77e0c917a2dc8a7e08e
     Pseudo is Projector augmented-wave + core cor, Zval = 12.0
     Generated using ATOMPAW code
     Shape of augmentation charge: BESSEL
     Using radial grid of 1102 points,  8 beta functions with:
                l(1) =   0
                l(2) =   0
                l(3) =   1
                l(4) =   1
                l(5) =   2
                l(6) =   2
                l(7) =   3
                l(8) =   3
     Q(r) pseudized with 0 coefficients

     PseudoPot. # 3 for F  read from file:
     /lustre07/scratch/pragov/crystal_structure_design/utils/SSSP/f_pbe_v1.4.uspp.F.UPF
     MD5 check sum: 4c38b6a325caf53ec0e86aed9459de46
     Pseudo is Ultrasoft, Zval =  7.0
     Generated by new atomic code, or converted to UPF format
     Using radial grid of  799 points,  4 beta functions with:
                l(1) =   0
                l(2) =   0
                l(3) =   1
                l(4) =   1
     Q(r) pseudized with  8 coefficients,  rinner =    0.950   0.950   0.950

     atomic species   valence    mass     pseudopotential
        Cs             9.00   132.90545     Cs( 1.00)
        Ce            12.00   140.11600     Ce( 1.00)
        F              7.00    18.99840     F ( 1.00)

     Starting magnetic structure
     atomic species   magnetization
        Cs           0.000
        Ce           0.000
        F            0.000

     12 Sym. Ops., with inversion, found

                                    s                        frac. trans.

      isym =  1     identity

 cryst.   s( 1) = (     1          0          0      )
                  (     0          1          0      )
                  (     0          0          1      )

 cart.    s( 1) = (  1.0000000  0.0000000  0.0000000 )
                  (  0.0000000  1.0000000  0.0000000 )
                  (  0.0000000  0.0000000  1.0000000 )

      isym =  2     180 deg rotation - cart. axis [1,0,0]

[...]

      isym =  3     120 deg rotation - cryst. axis [0,0,1]

[...]

      isym =  6     180 deg rotation - cryst. axis [1,1,0]

[...]

      isym =  7     inversion

[...]

      isym =  8     inv. 180 deg rotation - cart. axis [1,0,0]

[...]

      isym =  9     inv. 120 deg rotation - cryst. axis [0,0,1]

 cryst.   s( 9) = (     1         -1          0      )
                  (     1          0          0      )
                  (     1          0         -1      )

 cart.    s( 9) = (  0.5000000  0.8660254  0.0000000 )
                  ( -0.8660254  0.5000000 -0.0000000 )
                  (  0.0000000  0.0000000 -1.0000000 )

[...]

 cryst.   s(10) = (     0          1          0      )
                  (    -1          1          0      )
                  (     0          1         -1      )

 cart.    s(10) = (  0.5000000 -0.8660254  0.0000000 )
                  (  0.8660254  0.5000000  0.0000000 )
                  (  0.0000000  0.0000000 -1.0000000 )

[...]

      isym = 12     inv. 180 deg rotation - cryst. axis [1,1,0]

 cryst.   s(12) = (     1         -1          0      )
                  (     0         -1          0      )
                  (     0         -1          1      )

 cart.    s(12) = (  0.5000000 -0.8660254  0.0000000 )
                  ( -0.8660254 -0.5000000  0.0000000 )
                  (  0.0000000  0.0000000  1.0000000 )

   Cartesian axes

     site n.     atom                  positions (alat units)
         1           Cs  tau(   1) = (   1.0000000   0.5773503   0.4082483  )
         2           Cs  tau(   2) = (   1.5000000   0.8660254   0.6123724  )
         3           Cs  tau(   3) = (   0.5000000   0.2886751   0.2041241  )
         4           Ce  tau(   4) = (   0.0000000   0.0000000   0.0000000  )
         5           F   tau(   5) = (   1.2760780   0.7367440   0.1828315  )
         6           F   tau(   6) = (   0.7239220   0.7367440   0.1828315  )
         7           F   tau(   7) = (   1.0000000   0.2585629   0.1828315  )
         8           F   tau(   8) = (   0.7239220   0.4179566   0.6336650  )
         9           F   tau(   9) = (   1.2760780   0.4179566   0.6336650  )
        10           F   tau(  10) = (   1.0000000   0.8961377   0.6336650  )

   Crystallographic axes

     site n.     atom                  positions (cryst. coord.)
         1           Cs  tau(   1) = (  0.5000000  0.5000000  0.5000000  )
         2           Cs  tau(   2) = (  0.7500000  0.7500000  0.7500000  )
         3           Cs  tau(   3) = (  0.2500000  0.2500000  0.2500000  )
         4           Ce  tau(   4) = (  0.0000000  0.0000000  0.0000000  )
         5           F   tau(   5) = (  0.7760780  0.7760780  0.2239220  )
         6           F   tau(   6) = (  0.2239220  0.7760780  0.2239220  )
         7           F   tau(   7) = (  0.7760780  0.2239220  0.2239220  )
         8           F   tau(   8) = (  0.2239220  0.2239220  0.7760780  )
         9           F   tau(   9) = (  0.7760780  0.2239220  0.7760780  )
        10           F   tau(  10) = (  0.2239220  0.7760780  0.7760780  )

     number of k points=     6
                       cart. coord. in units 2pi/alat
        k(    1) = (   0.0000000   0.0000000   0.0000000), wk =   0.0370370
        k(    2) = (   0.0000000   0.0000000   0.4082483), wk =   0.0740741
        k(    3) = (   0.0000000   0.3849002  -0.1360828), wk =   0.2222222
        k(    4) = (   0.0000000   0.3849002   0.2721655), wk =   0.2222222
        k(    5) = (   0.0000000   0.3849002  -0.5443311), wk =   0.2222222
        k(    6) = (   0.3333333  -0.5773503   0.0000000), wk =   0.2222222

                       cryst. coord.
        k(    1) = (   0.0000000   0.0000000   0.0000000), wk =   0.0370370
        k(    2) = (   0.0000000   0.0000000   0.3333333), wk =   0.0740741
        k(    3) = (   0.0000000   0.3333333  -0.0000000), wk =   0.2222222
        k(    4) = (   0.0000000   0.3333333   0.3333333), wk =   0.2222222
        k(    5) = (   0.0000000   0.3333333  -0.3333333), wk =   0.2222222
        k(    6) = (   0.3333333  -0.3333333   0.0000000), wk =   0.2222222

     Check: negative core charge=   -0.000001
     Generating pointlists ...
     new r_m :   0.1611 (alat units)  2.2163 (a.u.) for type    1
     new r_m :   0.1306 (alat units)  1.7976 (a.u.) for type    2
     new r_m :   0.1306 (alat units)  1.7976 (a.u.) for type    3

     Initial potential from superposition of free atoms

     starting charge      80.8749, renormalised to      81.0000
     Starting wfcs are   95 randomized atomic wfcs
     Checking if some PAW data can be deallocated...

     Self-consistent Calculation

     iteration #  1     ecut=    30.00 Ry     beta= 0.70
     Davidson diagonalization with overlap

     ethr =  1.00E-02,  avg # of iterations =  3.6

     total energy              =    -962.10636403 Ry
     estimated scf accuracy    <       1.57420579 Ry

     total magnetization       =     1.00 Bohr mag/cell
     absolute magnetization    =     1.21 Bohr mag/cell

[...]

     negative rho (up, down):  0.000E+00 1.423E-05

[...]

     total energy              =    -964.24435409 Ry
     estimated scf accuracy    <       0.00000405 Ry

[...]

     iteration # 10     ecut=    30.00 Ry     beta= 0.70
     Davidson diagonalization with overlap

     ethr =  5.00E-09,  avg # of iterations =  6.0

     negative rho (up, down):  0.000E+00 2.656E-03

     Magnetic moment per site  (integrated on atomic sphere of radius R)
     atom   1 (R=0.161)  charge=  6.1668  magn= -0.0004
     atom   2 (R=0.161)  charge=  6.1195  magn=  0.0006
     atom   3 (R=0.161)  charge=  6.1195  magn=  0.0006
     atom   4 (R=0.131)  charge=  7.0820  magn=  0.9159
     atom   5 (R=0.131)  charge=  6.9595  magn= -0.0047
     atom   6 (R=0.131)  charge=  6.9595  magn= -0.0047
     atom   7 (R=0.131)  charge=  6.9595  magn= -0.0047
     atom   8 (R=0.131)  charge=  6.9595  magn= -0.0047
     atom   9 (R=0.131)  charge=  6.9595  magn= -0.0047
     atom  10 (R=0.131)  charge=  6.9595  magn= -0.0047

     End of self-consistent calculation

 ------ SPIN UP ------------

          k = 0.0000 0.0000 0.0000 (  5029 PWs)   bands (ev):

   -28.4510 -18.1203 -18.1203 -18.1203 -17.8975 -17.8975 -17.8744 -17.4875
   -17.4577 -15.7466 -10.9799 -10.9796 -10.9796  -4.3680  -4.3680  -4.3680
    -4.2671  -4.2671  -4.2671  -2.8644  -2.8644  -2.8644  -0.2332  -0.2332
     0.2435   0.2435   0.2435   0.2702   0.7217   0.7217   0.7217   0.7352
     0.7352   0.7352   1.0243   1.0243   1.0243   1.4215   1.4215   1.4215
     6.6705   6.8885   7.3924   7.3930   7.3930   7.5012   7.5012   7.5012
     8.4744   8.4744   9.0999   9.1000   9.1000   9.3101   9.3101   9.3101
    10.3552  10.3553  10.3553  11.3247  11.5513  11.7865  11.7873  11.7873

     occupation numbers
     1.0000   1.0000   1.0000   1.0000   1.0000   1.0000   1.0000   1.0000
     1.0000   1.0000   1.0000   1.0000   1.0000   1.0000   1.0000   1.0000
     1.0000   1.0000   1.0000   1.0000   1.0000   1.0000   1.0000   1.0000
     1.0000   1.0000   1.0000   1.0000   1.0000   1.0000   1.0000   1.0000
     1.0000   1.0000   1.0000   1.0000   1.0000   1.0000   1.0000   1.0000
     1.0000   0.0000   0.0000   0.0000   0.0000   0.0000   0.0000   0.0000
     0.0000   0.0000   0.0000   0.0000   0.0000   0.0000   0.0000   0.0000
     0.0000   0.0000   0.0000   0.0000   0.0000   0.0000   0.0000   0.0000

[...]

 ------ SPIN DOWN ----------

[...]

          k = 0.3333-0.5774 0.0000 (  5118 PWs)   bands (ev):

   -28.0190 -18.1492 -18.1260 -18.1163 -17.9365 -17.9123 -17.7731 -17.4883
   -17.4868 -15.7601 -10.6624 -10.6593 -10.6556  -4.3394  -4.3387  -4.3104
    -4.2683  -4.2590  -4.2230  -2.9371  -2.9317  -2.8813  -0.1466   0.1001
     0.1570   0.2138   0.2597   0.4623   0.6119   0.6400   0.6739   0.6939
     0.7227   0.7596   0.9235   0.9370   0.9864   1.1228   1.1495   1.4125
     7.8106   7.8127   7.8161   7.9245   7.9277   7.9389   8.4340   8.4604
     8.7233   9.0569   9.1866   9.2770   9.4490   9.6619   9.8789   9.8980
     9.9208  10.0110  10.0635  10.4799  10.6810  10.9244  11.5389  11.7448

     occupation numbers
     1.0000   1.0000   1.0000   1.0000   1.0000   1.0000   1.0000   1.0000
     1.0000   1.0000   1.0000   1.0000   1.0000   1.0000   1.0000   1.0000
     1.0000   1.0000   1.0000   1.0000   1.0000   1.0000   1.0000   1.0000
     1.0000   1.0000   1.0000   1.0000   1.0000   1.0000   1.0000   1.0000
     1.0000   1.0000   1.0000   1.0000   1.0000   1.0000   1.0000   1.0000
     0.0000   0.0000   0.0000   0.0000   0.0000   0.0000   0.0000   0.0000
     0.0000   0.0000   0.0000   0.0000   0.0000   0.0000   0.0000   0.0000
     0.0000   0.0000   0.0000   0.0000   0.0000   0.0000   0.0000   0.0000

     highest occupied, lowest unoccupied level (ev):     6.6738    6.8885

!    total energy              =    -964.24435671 Ry
     estimated scf accuracy    <       0.00000026 Ry

     The total energy is the sum of the following terms:
     one-electron contribution =    -268.24017176 Ry
     hartree contribution      =     176.21114272 Ry
     xc contribution           =    -161.12971941 Ry
     ewald contribution        =    -306.14862067 Ry
     one-center paw contrib.   =    -404.93698759 Ry
      -> PAW hartree energy AE =       0.00000000 Ry
      -> PAW hartree energy PS =       0.00000000 Ry
      -> PAW xc energy AE      =       0.00000000 Ry
      -> PAW xc energy PS      =       0.00000000 Ry
      -> total E_H with PAW    =     176.21114272 Ry
      -> total E_XC with PAW   =    -161.12971941 Ry

     total magnetization       =     1.00 Bohr mag/cell
     absolute magnetization    =     1.10 Bohr mag/cell

     convergence has been achieved in  10 iterations

     Writing all to output data dir bands_nm/myprefix.save/

     General routines

     Parallel routines

     PAW routines

   This run was terminated on:  14:10:54  15Jul2023

   JOB DONE.