     Program PWSCF v.7.1 starts on 17Jul2023 at  4:45:19

     Reading input from espresso_4939.pwi
Warning: card &CELL ignored
Warning: card / ignored

     Current dimensions of program PWSCF are:
     Max number of different atomic species (ntypx) = 10
     Max number of k-points (npk) =  40000
     Max angular momentum in pseudopotentials (lmaxx) =  4
     file Ho.paw.z_21.atompaw.wentzcovitch.v1.2.upf: wavefunction(s)  6S 0P 5D 0D 4F 0F renormalized
     file Cd.pbe-dn-rrkjus_psl.0.3.1.UPF: wavefunction(s)  4D renormalized
     Message from routine setup:
     using ibrav=0 with symmetry is DISCOURAGED, use correct ibrav instead

     K-points division:     npool     =       2
     R & G space division:  proc/nbgrp/npool/nimage =       4
     Subspace diagonalization in iterative solution of the eigenvalue problem:
     one sub-group per band group will be used

     Using Slab Decomposition

     bravais-lattice index     =            0
     lattice parameter (alat)  =      15.0506  a.u.
     unit-cell volume          =    2410.7071 (a.u.)^3
     number of atoms/cell      =           14
     number of atomic types    =            3
     number of electrons       =       156.00
     number of Kohn-Sham states=          256
     kinetic-energy cutoff     =      30.0000  Ry
     charge density cutoff     =     240.0000  Ry
     scf convergence threshold =      1.0E-06
     mixing beta               =       0.7000
     number of iterations used =            8  plain     mixing
     Exchange-correlation=  SLA  PW   PBX  PBC
                           (   1   4   3   4   0   0   0)

     celldm(1)=  15.050577  celldm(2)=   0.000000  celldm(3)=   0.000000
     celldm(4)=   0.000000  celldm(5)=   0.000000  celldm(6)=   0.000000

     crystal axes: (cart. coord. in units of alat)
               a(1) = (   1.000000   0.000000   0.000000 )
               a(2) = (   0.500000   0.866025   0.000000 )
               a(3) = (   0.500000   0.288675   0.816497 )

     reciprocal axes: (cart. coord. in units 2 pi/alat)
               b(1) = (  1.000000 -0.577350 -0.408248 )
               b(2) = (  0.000000  1.154701 -0.408248 )
               b(3) = (  0.000000  0.000000  1.224745 )

     PseudoPot. # 1 for Ho read from file:
     /lustre07/scratch/pragov/crystal_structure_design/utils/SSSP/Ho.paw.z_21.atompaw.wentzcovitch.v1.2.upf
     MD5 check sum: f900adcc49abc9ab8113872cdbacec3e
     Pseudo is Projector augmented-wave + core cor, Zval = 21.0
     Generated using ATOMPAW code
     Shape of augmentation charge: BESSEL
     Using radial grid of 1114 points,  8 beta functions with:
                l(1) =   0
                l(2) =   0
                l(3) =   1
                l(4) =   1
                l(5) =   2
                l(6) =   2
                l(7) =   3
                l(8) =   3
     Q(r) pseudized with 0 coefficients

     PseudoPot. # 2 for Cd read from file:
     /lustre07/scratch/pragov/crystal_structure_design/utils/SSSP/Cd.pbe-dn-rrkjus_psl.0.3.1.UPF
     MD5 check sum: 558e9f355611b531a870a69ef6ace9e2
     Pseudo is Ultrasoft + core correction, Zval = 12.0
     Generated using "atomic" code by A. Dal Corso  v.5.0.99 svn rev. 10869
     Using radial grid of 1239 points,  6 beta functions with:
                l(1) =   0
                l(2) =   0
                l(3) =   1
                l(4) =   1
                l(5) =   2
                l(6) =   2
     Q(r) pseudized with 0 coefficients

     PseudoPot. # 3 for S  read from file:
     /lustre07/scratch/pragov/crystal_structure_design/utils/SSSP/s_pbe_v1.4.uspp.F.UPF
     MD5 check sum: 88d86576ff6df21479756cfb9bdac1df
     Pseudo is Ultrasoft + core correction, Zval =  6.0
     Generated by new atomic code, or converted to UPF format
     Using radial grid of  907 points,  6 beta functions with:
                l(1) =   0
                l(2) =   0
                l(3) =   1
                l(4) =   1
                l(5) =   2
                l(6) =   2
     Q(r) pseudized with  8 coefficients,  rinner =    1.300   1.300   1.300
                                                       1.300   1.300

     atomic species   valence    mass     pseudopotential
        Ho            21.00   164.93033     Ho( 1.00)
        Cd            12.00   112.41400     Cd( 1.00)
        S              6.00    32.06000     S ( 1.00)

     12 Sym. Ops., with inversion, found ( 6 have fractional translation)

                                    s                        frac. trans.

      isym =  1     identity

 cryst.   s( 1) = (     1          0          0      )
                  (     0          1          0      )
                  (     0          0          1      )

 cart.    s( 1) = (  1.0000000  0.0000000  0.0000000 )
                  (  0.0000000  1.0000000  0.0000000 )
                  (  0.0000000  0.0000000  1.0000000 )

      isym =  2     180 deg rotation - cart. axis [1,0,0]

 cryst.   s( 2) = (     1          0          0      )    f =( -0.2500000 )
                  (     1         -1          0      )       ( -0.2500000 )
                  (     1          0         -1      )       ( -0.2500000 )

 cart.    s( 2) = (  1.0000000  0.0000000  0.0000000 )    f =( -0.5000000 )
                  (  0.0000000 -1.0000000  0.0000000 )       ( -0.2886751 )
                  (  0.0000000  0.0000000 -1.0000000 )       ( -0.2041241 )

      isym =  3     120 deg rotation - cryst. axis [0,0,1]

[...]

      isym =  6     180 deg rotation - cryst. axis [1,1,0]

[...]

      isym =  7     inversion

[...]

      isym =  8     inv. 180 deg rotation - cart. axis [1,0,0]

 cryst.   s( 8) = (    -1          0          0      )
                  (    -1          1          0      )
                  (    -1          0          1      )

 cart.    s( 8) = ( -1.0000000  0.0000000  0.0000000 )
                  (  0.0000000  1.0000000  0.0000000 )
                  (  0.0000000  0.0000000  1.0000000 )

      isym =  9     inv. 120 deg rotation - cryst. axis [0,0,1]

 cryst.   s( 9) = (     1         -1          0      )    f =( -0.2500000 )
                  (     1          0          0      )       ( -0.2500000 )
                  (     1          0         -1      )       ( -0.2500000 )

 cart.    s( 9) = (  0.5000000  0.8660254 -0.0000000 )    f =( -0.5000000 )
                  ( -0.8660254  0.5000000 -0.0000000 )       ( -0.2886751 )
                  (  0.0000000  0.0000000 -1.0000000 )       ( -0.2041241 )

[...]

 cryst.   s(10) = (     0          1          0      )    f =( -0.2500000 )
                  (    -1          1          0      )       ( -0.2500000 )
                  (     0          1         -1      )       ( -0.2500000 )

 cart.    s(10) = (  0.5000000 -0.8660254  0.0000000 )    f =( -0.5000000 )
                  (  0.8660254  0.5000000 -0.0000000 )       ( -0.2886751 )
                  (  0.0000000  0.0000000 -1.0000000 )       ( -0.2041241 )

[...]

 cryst.   s(11) = (     0          1          0      )
                  (     1          0          0      )
                  (     0          0          1      )

 cart.    s(11) = (  0.5000000  0.8660254 -0.0000000 )
                  (  0.8660254 -0.5000000  0.0000000 )
                  (  0.0000000  0.0000000  1.0000000 )

      isym = 12     inv. 180 deg rotation - cryst. axis [1,1,0]

 cryst.   s(12) = (     1         -1          0      )
                  (     0         -1          0      )
                  (     0         -1          1      )

 cart.    s(12) = (  0.5000000 -0.8660254  0.0000000 )
                  ( -0.8660254 -0.5000000  0.0000000 )
                  (  0.0000000  0.0000000  1.0000000 )

   Cartesian axes

     site n.     atom                  positions (alat units)
         1           Ho  tau(   1) = (   0.7500000   0.1443376   0.1020621  )
         2           Ho  tau(   2) = (   0.2500000   0.1443376   0.1020621  )
         3           Ho  tau(   3) = (   0.5000000   0.5773503   0.1020621  )
         4           Ho  tau(   4) = (   0.5000000   0.2886751   0.5103104  )
         5           Cd  tau(   5) = (   1.5000000   0.8660254   0.6123724  )
         6           Cd  tau(   6) = (   1.0000000   0.5773503   0.4082483  )
         7           S   tau(   7) = (   0.7345900   0.4241157   0.2998951  )
         8           S   tau(   8) = (   1.2345910   1.0192599   0.7207256  )
         9           S   tau(   9) = (   1.5000005   0.8660257   0.2873137  )
        10           S   tau(  10) = (   1.5000005   0.5595572   0.7207256  )
        11           S   tau(  11) = (   0.9999995   0.5773500   0.7333070  )
        12           S   tau(  12) = (   0.9999995   0.8838185   0.2998951  )
        13           S   tau(  13) = (   1.7654100   1.0192599   0.7207256  )
        14           S   tau(  14) = (   1.2654090   0.4241157   0.2998951  )

   Crystallographic axes

     site n.     atom                  positions (cryst. coord.)
         1           Ho  tau(   1) = (  0.6250000  0.1250000  0.1250000  )
         2           Ho  tau(   2) = (  0.1250000  0.1250000  0.1250000  )
         3           Ho  tau(   3) = (  0.1250000  0.6250000  0.1250000  )
         4           Ho  tau(   4) = (  0.1250000  0.1250000  0.6250000  )
         5           Cd  tau(   5) = (  0.7500000  0.7500000  0.7500000  )
         6           Cd  tau(   6) = (  0.5000000  0.5000000  0.5000000  )
         7           S   tau(   7) = (  0.3672950  0.3672950  0.3672950  )
         8           S   tau(   8) = (  0.3518860  0.8827050  0.8827050  )
         9           S   tau(   9) = (  0.8827050  0.8827050  0.3518860  )
        10           S   tau(  10) = (  0.8827050  0.3518860  0.8827050  )
        11           S   tau(  11) = (  0.3672950  0.3672950  0.8981140  )
        12           S   tau(  12) = (  0.3672950  0.8981140  0.3672950  )
        13           S   tau(  13) = (  0.8827050  0.8827050  0.8827050  )
        14           S   tau(  14) = (  0.8981140  0.3672950  0.3672950  )

     number of k points=     6
                       cart. coord. in units 2pi/alat
        k(    1) = (   0.0000000   0.0000000   0.0000000), wk =   0.0740741
        k(    2) = (   0.0000000   0.0000000   0.4082483), wk =   0.1481481
        k(    3) = (   0.0000000   0.3849002  -0.1360828), wk =   0.4444444
        k(    4) = (   0.0000000   0.3849002   0.2721655), wk =   0.4444444
        k(    5) = (   0.0000000   0.3849002  -0.5443311), wk =   0.4444444
        k(    6) = (   0.3333333  -0.5773503   0.0000000), wk =   0.4444444

                       cryst. coord.
        k(    1) = (   0.0000000   0.0000000   0.0000000), wk =   0.0740741
        k(    2) = (   0.0000000   0.0000000   0.3333333), wk =   0.1481481
        k(    3) = (   0.0000000   0.3333333   0.0000000), wk =   0.4444444
        k(    4) = (   0.0000000   0.3333333   0.3333333), wk =   0.4444444
        k(    5) = (   0.0000000   0.3333333  -0.3333333), wk =   0.4444444
        k(    6) = (   0.3333333  -0.3333333   0.0000000), wk =   0.4444444

     Check: negative core charge=   -0.000001

     Initial potential from superposition of free atoms

     starting charge     155.9728, renormalised to     156.0000
     Starting wfcs are  178 randomized atomic wfcs +   78 random wfcs
     Checking if some PAW data can be deallocated...

     Self-consistent Calculation

     iteration #  1     ecut=    30.00 Ry     beta= 0.70
     Davidson diagonalization with overlap

     ethr =  1.00E-02,  avg # of iterations =  7.2

     total energy              =   -3732.93008802 Ry
     estimated scf accuracy    <      19.63041893 Ry

[...]

     total energy              =   -3756.33312820 Ry
     estimated scf accuracy    <       0.00023360 Ry

     iteration #221     ecut=    30.00 Ry     beta= 0.70
     Davidson diagonalization with overlap

     ethr =  1.43E-09,  avg # of iterations =  1.0

     End of self-consistent calculation

          k = 0.0000 0.0000 0.0000 (  6735 PWs)   bands (ev):

   -39.1540 -39.1458 -39.1457 -39.1456 -14.6000 -14.4518 -14.4518 -14.4518
   -14.3569 -14.3569 -14.2813 -14.2812 -14.2809 -14.2801 -14.2800 -14.2799
    -5.2148  -4.5695  -4.5687  -4.5687  -4.2901  -4.2752  -4.2744  -4.2744
    -0.5967  -0.5965  -0.5965  -0.5655  -0.5655  -0.5465  -0.5465  -0.5266
    -0.5264  -0.5264   2.1053   3.0063   3.3514   3.3514   3.3514   4.7201
     4.7201   5.0938   5.0938   5.2360   5.2364   5.2364   5.3575   5.3575
     5.3578   5.4055   5.4061   5.4061   5.7257   5.7257   5.7259   6.0979
     6.0979   6.0984   6.8959   6.8959   6.9397   6.9407   6.9407   6.9478
     6.9486   6.9486   6.9607   6.9608   6.9611   6.9913   6.9913   6.9916
     7.0150   7.0708   7.1057   7.1058   7.1059   7.1460   7.1460   7.1468
     7.2415   7.2417   7.2417   7.5836   7.5836   7.5844   8.0696   9.6503
     9.6503   9.7230  10.5570  10.8994  10.8994  10.8995  11.9774  11.9774
    11.9774  12.5409  12.5409  12.5409  13.2727  13.2728  13.2728  13.3797
    13.3797  13.3798  13.5366  13.5366  14.4264  14.4264  14.4268  14.6281
    14.6282  14.6282  15.1940  15.5352  15.5355  15.5356  15.7474  15.7474
    16.3582  16.3582  16.3584  16.5605  16.8252  16.8252  16.8252  17.8436
    17.8436  17.9646  18.3976  18.3976  18.5097  18.6650  18.6651  18.6651
    19.5470  19.5470  19.5472  19.6854  19.6855  19.6855  20.3202  20.3204
    20.3204  20.4328  20.4329  20.4329  20.7756  20.7756  21.0114  21.0114
    21.0117  22.2809  22.2809  22.2809  22.4487  22.4487  22.4489  22.7614
    22.8932  22.8932  22.8932  23.2159  23.2360  23.2360  23.4357  23.4358
    23.4360  24.2303  24.2303  24.2303  24.5850  24.5853  24.5853  25.4985
    25.4985  26.0107  26.5706  26.5706  26.8022  26.8023  26.8023  26.8575
    26.8575  26.8576  27.1729  27.9921  27.9921  27.9921  28.1868  28.1868
    28.1869  28.2827  28.2828  28.2829  28.6180  29.1459  29.1459  29.2640
    29.2669  29.2669  29.9542  29.9543  29.9543  30.6328  30.6330  30.6330
    31.0102  31.1498  31.1498  31.1499  31.9574  31.9574  31.9574  32.5221
    32.7263  32.7264  32.7264  33.1971  33.1971  33.4735  33.4736  33.4736
    33.5511  33.5511  33.5765  33.5765  33.5767  33.8533  33.8534  33.8534
    33.9327  33.9327  33.9327  34.5579  34.5579  34.5579  34.7253  34.7254
    34.7254  35.5903  35.5903  35.7561  35.7561  35.7819  35.7819  35.7821
    35.9921  35.9923  35.9923  36.1717  36.1717  36.1717  36.7771  36.7950

     occupation numbers
     1.0000   1.0000   1.0000   1.0000   1.0000   1.0000   1.0000   1.0000
     1.0000   1.0000   1.0000   1.0000   1.0000   1.0000   1.0000   1.0000
     1.0000   1.0000   1.0000   1.0000   1.0000   1.0000   1.0000   1.0000
     1.0000   1.0000   1.0000   1.0000   1.0000   1.0000   1.0000   1.0000
     1.0000   1.0000   1.0000   1.0000   1.0000   1.0000   1.0000   1.0000
     1.0000   1.0000   1.0000   1.0000   1.0000   1.0000   1.0000   1.0000
     1.0000   1.0000   1.0000   1.0000   1.0000   1.0000   1.0000   1.0000
     1.0000   1.0000   1.0000   1.0000   1.0000   1.0000   1.0000   1.0000
     1.0000   1.0000   1.0000   1.0000   1.0000   1.0000   1.0000   1.0000
     1.0000   1.0000   1.0000   1.0000   1.0000   1.0000   0.0000   0.0000
     0.0000   0.0000   0.0000   0.0000   0.0000   0.0000   0.0000   0.0000
     0.0000   0.0000   0.0000   0.0000   0.0000   0.0000   0.0000   0.0000
     0.0000   0.0000   0.0000   0.0000   0.0000   0.0000   0.0000   0.0000
     0.0000   0.0000   0.0000   0.0000   0.0000   0.0000   0.0000   0.0000
     0.0000   0.0000   0.0000   0.0000   0.0000   0.0000   0.0000   0.0000
     0.0000   0.0000   0.0000   0.0000   0.0000   0.0000   0.0000   0.0000
     0.0000   0.0000   0.0000   0.0000   0.0000   0.0000   0.0000   0.0000
     0.0000   0.0000   0.0000   0.0000   0.0000   0.0000   0.0000   0.0000
     0.0000   0.0000   0.0000   0.0000   0.0000   0.0000   0.0000   0.0000
     0.0000   0.0000   0.0000   0.0000   0.0000   0.0000   0.0000   0.0000
     0.0000   0.0000   0.0000   0.0000   0.0000   0.0000   0.0000   0.0000
     0.0000   0.0000   0.0000   0.0000   0.0000   0.0000   0.0000   0.0000
     0.0000   0.0000   0.0000   0.0000   0.0000   0.0000   0.0000   0.0000
     0.0000   0.0000   0.0000   0.0000   0.0000   0.0000   0.0000   0.0000
     0.0000   0.0000   0.0000   0.0000   0.0000   0.0000   0.0000   0.0000
     0.0000   0.0000   0.0000   0.0000   0.0000   0.0000   0.0000   0.0000
     0.0000   0.0000   0.0000   0.0000   0.0000   0.0000   0.0000   0.0000
     0.0000   0.0000   0.0000   0.0000   0.0000   0.0000   0.0000   0.0000
     0.0000   0.0000   0.0000   0.0000   0.0000   0.0000   0.0000   0.0000
     0.0000   0.0000   0.0000   0.0000   0.0000   0.0000   0.0000   0.0000
     0.0000   0.0000   0.0000   0.0000   0.0000   0.0000   0.0000   0.0000
     0.0000   0.0000   0.0000   0.0000   0.0000   0.0000   0.0000   0.0000

[...]

          k = 0.3333-0.5774 0.0000 (  6689 PWs)   bands (ev):

   -39.1509 -39.1487 -39.1458 -39.1456 -14.5137 -14.4538 -14.3952 -14.3940
   -14.3878 -14.3639 -14.3302 -14.3256 -14.3105 -14.3075 -14.3019 -14.2805
    -4.8274  -4.6540  -4.5562  -4.5320  -4.4622  -4.3830  -4.3577  -4.3103
    -0.6387  -0.6021  -0.5799  -0.5587  -0.5576  -0.5569  -0.5541  -0.5534
    -0.5466  -0.5465   3.0383   3.0623   3.8070   4.0930   4.1382   4.2875
     4.2901   4.5996   4.6838   4.6934   4.8479   5.0545   5.1361   5.1466
     5.2091   5.2131   5.4299   5.4674   5.5638   5.5655   5.7371   5.8235
     5.8570   5.9451   6.9152   6.9238   6.9275   6.9438   6.9534   6.9585
     6.9594   6.9719   6.9993   7.0036   7.0104   7.0120   7.0235   7.0314
     7.0403   7.0413   7.0482   7.0604   7.0670   7.0845   7.0963   7.1024
     7.1174   7.1453   7.1871   7.1921   7.2223   7.3505   9.9574  10.1232
    10.3738  10.9248  11.0335  11.1762  11.2742  11.4405  11.8766  12.0897
    12.2461  12.3312  12.3766  12.3930  12.6477  12.7660  13.2381  13.2529
    13.3474  13.4368  13.6221  14.0746  14.1697  14.4464  14.5161  14.8556
    14.9607  15.0339  15.1084  15.2153  15.3385  15.3409  15.5965  15.6259
    15.6597  15.9439  15.9996  16.3774  16.5901  16.7750  16.9517  17.3344
    17.3713  17.6880  17.7773  18.0827  18.1112  18.3914  18.5287  18.6069
    18.6397  18.8501  18.8887  19.3612  19.5432  19.5614  19.5846  20.0776
    20.4446  20.7023  20.8527  20.9897  21.0530  21.4444  21.6686  21.7248
    21.7459  21.8726  22.2432  22.3202  22.3222  22.5914  22.6015  22.6772
    23.3441  23.3970  23.6327  23.9095  24.0443  24.1006  24.2939  24.3940
    24.5915  24.6668  24.7204  24.7711  25.0319  25.0810  25.3156  25.4974
    25.7540  25.7931  26.0024  26.0467  26.0652  26.0966  26.6911  26.7744
    26.8609  27.0958  27.1633  27.1715  27.2523  27.7988  28.0285  28.0616
    28.0760  28.2022  28.5137  28.6045  29.1125  29.1247  29.1428  29.5283
    29.5436  29.8064  29.8067  29.9997  30.0649  30.2262  30.3726  30.4056
    30.5532  30.6328  30.7036  30.9512  30.9658  31.0441  31.4126  31.4636
    31.5035  31.6064  31.7065  32.0301  32.1373  32.3658  32.5073  32.6243
    32.8193  32.9131  32.9382  33.2077  33.3534  33.4466  33.4564  33.7628
    33.8436  34.0387  34.3289  34.3852  34.5069  34.6438  34.6636  34.7201
    34.8686  34.9167  35.1303  35.2743  35.5495  35.7441  35.9426  36.3076
    36.4109  36.4237  36.4996  36.5851  36.6966  36.8468  37.1968  37.2812

     occupation numbers
     1.0000   1.0000   1.0000   1.0000   1.0000   1.0000   1.0000   1.0000
     1.0000   1.0000   1.0000   1.0000   1.0000   1.0000   1.0000   1.0000
     1.0000   1.0000   1.0000   1.0000   1.0000   1.0000   1.0000   1.0000
     1.0000   1.0000   1.0000   1.0000   1.0000   1.0000   1.0000   1.0000
     1.0000   1.0000   1.0000   1.0000   1.0000   1.0000   1.0000   1.0000
     1.0000   1.0000   1.0000   1.0000   1.0000   1.0000   1.0000   1.0000
     1.0000   1.0000   1.0000   1.0000   1.0000   1.0000   1.0000   1.0000
     1.0000   1.0000   1.0000   1.0000   1.0000   1.0000   1.0000   1.0000
     1.0000   1.0000   1.0000   1.0000   1.0000   1.0000   1.0000   1.0000
     1.0000   1.0000   1.0000   1.0000   1.0000   1.0000   0.0000   0.0000
     0.0000   0.0000   0.0000   0.0000   0.0000   0.0000   0.0000   0.0000
     0.0000   0.0000   0.0000   0.0000   0.0000   0.0000   0.0000   0.0000
     0.0000   0.0000   0.0000   0.0000   0.0000   0.0000   0.0000   0.0000
     0.0000   0.0000   0.0000   0.0000   0.0000   0.0000   0.0000   0.0000
     0.0000   0.0000   0.0000   0.0000   0.0000   0.0000   0.0000   0.0000
     0.0000   0.0000   0.0000   0.0000   0.0000   0.0000   0.0000   0.0000
     0.0000   0.0000   0.0000   0.0000   0.0000   0.0000   0.0000   0.0000
     0.0000   0.0000   0.0000   0.0000   0.0000   0.0000   0.0000   0.0000
     0.0000   0.0000   0.0000   0.0000   0.0000   0.0000   0.0000   0.0000
     0.0000   0.0000   0.0000   0.0000   0.0000   0.0000   0.0000   0.0000
     0.0000   0.0000   0.0000   0.0000   0.0000   0.0000   0.0000   0.0000
     0.0000   0.0000   0.0000   0.0000   0.0000   0.0000   0.0000   0.0000
     0.0000   0.0000   0.0000   0.0000   0.0000   0.0000   0.0000   0.0000
     0.0000   0.0000   0.0000   0.0000   0.0000   0.0000   0.0000   0.0000
     0.0000   0.0000   0.0000   0.0000   0.0000   0.0000   0.0000   0.0000
     0.0000   0.0000   0.0000   0.0000   0.0000   0.0000   0.0000   0.0000
     0.0000   0.0000   0.0000   0.0000   0.0000   0.0000   0.0000   0.0000
     0.0000   0.0000   0.0000   0.0000   0.0000   0.0000   0.0000   0.0000
     0.0000   0.0000   0.0000   0.0000   0.0000   0.0000   0.0000   0.0000
     0.0000   0.0000   0.0000   0.0000   0.0000   0.0000   0.0000   0.0000
     0.0000   0.0000   0.0000   0.0000   0.0000   0.0000   0.0000   0.0000
     0.0000   0.0000   0.0000   0.0000   0.0000   0.0000   0.0000   0.0000

     highest occupied, lowest unoccupied level (ev):     7.1460    7.0917

!    total energy              =   -3756.33312830 Ry
     estimated scf accuracy    <       0.00000002 Ry

     The total energy is the sum of the following terms:
     one-electron contribution =   -1219.22804229 Ry
     hartree contribution      =     666.80691028 Ry
     xc contribution           =    -274.88427210 Ry
     ewald contribution        =    -988.85680041 Ry
     one-center paw contrib.   =   -1940.17092378 Ry
      -> PAW hartree energy AE =     591.06731388 Ry
      -> PAW hartree energy PS =    -540.59762610 Ry
      -> PAW xc energy AE      =   -1078.84935154 Ry
      -> PAW xc energy PS      =      58.29413163 Ry
      -> total E_H with PAW    =     717.27659806 Ry
      -> total E_XC with PAW   =   -1295.43949201 Ry

     convergence has been achieved in 221 iterations

     Writing all to output data dir bands_nm/myprefix.save/

     General routines

     Parallel routines

     PAW routines

   This run was terminated on:   4:58:14  17Jul2023

   JOB DONE.