     Program PWSCF v.7.1 starts on 16Jul2023 at 18:13:11

     Reading input from espresso_23929.pwi
Warning: card &CELL ignored
Warning: card / ignored

     Current dimensions of program PWSCF are:
     Max number of different atomic species (ntypx) = 10
     Max number of k-points (npk) =  40000
     Max angular momentum in pseudopotentials (lmaxx) =  4
     file O.pbe-n-kjpaw_psl.0.1.UPF: wavefunction(s)  2P renormalized
     Message from routine setup:
     using ibrav=0 with symmetry is DISCOURAGED, use correct ibrav instead

     K-points division:     npool     =       2
     R & G space division:  proc/nbgrp/npool/nimage =       4
     Subspace diagonalization in iterative solution of the eigenvalue problem:
     one sub-group per band group will be used

     Using Slab Decomposition

     bravais-lattice index     =            0
     lattice parameter (alat)  =      14.0650  a.u.
     unit-cell volume          =    1648.4733 (a.u.)^3
     number of atoms/cell      =           14
     number of atomic types    =            3
     number of electrons       =       156.00
     number of Kohn-Sham states=          256
     kinetic-energy cutoff     =      30.0000  Ry
     charge density cutoff     =     240.0000  Ry
     scf convergence threshold =      1.0E-06
     mixing beta               =       0.7000
     number of iterations used =            8  plain     mixing
     Exchange-correlation= SLA  PW   PBX  PBC
                           (   1   4   3   4   0   0   0)

     celldm(1)=  14.065015  celldm(2)=   0.000000  celldm(3)=   0.000000
     celldm(4)=   0.000000  celldm(5)=   0.000000  celldm(6)=   0.000000

     crystal axes: (cart. coord. in units of alat)
               a(1) = (   1.000000   0.000000   0.000000 )
               a(2) = (  -0.281555   0.959545   0.000000 )
               a(3) = (   0.172072   0.229817   0.617442 )

     reciprocal axes: (cart. coord. in units 2 pi/alat)
               b(1) = (  1.000000  0.293426 -0.387901 )
               b(2) = (  0.000000  1.042161 -0.387901 )
               b(3) = (  0.000000  0.000000  1.619586 )

     PseudoPot. # 1 for Hg read from file:
     /lustre07/scratch/pragov/crystal_structure_design/utils/SSSP/Hg_ONCV_PBE-1.0.oncvpsp.upf
     MD5 check sum: dd5a8773074bfcf4280086d4d95875c4
     Pseudo is Norm-conserving, Zval = 20.0
     Generated using ONCVPSP code by D. R. Hamann
     Using radial grid of 1262 points,  8 beta functions with:
                l(1) =   0
                l(2) =   0
                l(3) =   1
                l(4) =   1
                l(5) =   2
                l(6) =   2
                l(7) =   3
                l(8) =   3

     PseudoPot. # 2 for W  read from file:
     /lustre07/scratch/pragov/crystal_structure_design/utils/SSSP/W_pbe_v1.2.uspp.F.UPF
     MD5 check sum: 9c083fa34c2a2ea0f02f1f893e16e1c8
     Pseudo is Ultrasoft + core correction, Zval = 14.0
     Generated by new atomic code, or converted to UPF format
     Using radial grid of  923 points,  8 beta functions with:
                l(1) =   0
                l(2) =   0
                l(3) =   0
                l(4) =   1
                l(5) =   1
                l(6) =   2
                l(7) =   2
                l(8) =   3
     Q(r) pseudized with  6 coefficients,  rinner =    1.350   1.350   1.350
                                                       1.350   1.350   1.350
                                                       1.350

     PseudoPot. # 3 for O  read from file:
     /lustre07/scratch/pragov/crystal_structure_design/utils/SSSP/O.pbe-n-kjpaw_psl.0.1.UPF
     MD5 check sum: 0234752ac141de4415c5fc33072bef88
     Pseudo is Projector augmented-wave + core cor, Zval =  6.0
     Generated using "atomic" code by A. Dal Corso  v.5.0.99 svn rev. 10869
     Shape of augmentation charge: BESSEL
     Using radial grid of 1095 points,  4 beta functions with:
                l(1) =   0
                l(2) =   0
                l(3) =   1
                l(4) =   1
     Q(r) pseudized with 0 coefficients

     atomic species   valence    mass     pseudopotential
        Hg            20.00   200.59200     Hg( 1.00)
        W             14.00   183.84000     W ( 1.00)
        O              6.00    15.99900     O ( 1.00)

      2 Sym. Ops., with inversion, found

                                    s                        frac. trans.

      isym =  1     identity

 cryst.   s( 1) = (     1          0          0      )
                  (     0          1          0      )
                  (     0          0          1      )

 cart.    s( 1) = (  1.0000000  0.0000000  0.0000000 )
                  (  0.0000000  1.0000000 -0.0000000 )
                  (  0.0000000  0.0000000  1.0000000 )

      isym =  2     inversion

 cryst.   s( 2) = (    -1          0          0      )
                  (     0         -1          0      )
                  (     0          0         -1      )

 cart.    s( 2) = ( -1.0000000  0.0000000  0.0000000 )
                  (  0.0000000 -1.0000000  0.0000000 )
                  (  0.0000000  0.0000000 -1.0000000 )

   Cartesian axes

     site n.     atom                  positions (alat units)
         1           Hg  tau(   1) = (   0.4852771   0.3424005   0.2938745  )
         2           Hg  tau(   2) = (   0.6125644   0.5124037   0.0148464  )
         3           Hg  tau(   3) = (   0.4052396   0.8469618   0.3235672  )
         4           Hg  tau(   4) = (   0.2779524   0.6769586   0.6025953  )
         5           W   tau(   5) = (  -0.1182698   0.9269508   0.1543604  )
         6           W   tau(   6) = (   1.0087866   0.2624115   0.4630813  )
         7           O   tau(   7) = (   0.1161154   0.9820200   0.1833573  )
         8           O   tau(   8) = (  -0.1051187   0.6865426   0.1253635  )
         9           O   tau(   9) = (   0.7744014   0.2073423   0.4340844  )
        10           O   tau(  10) = (   0.9956355   0.5028197   0.4920782  )
        11           O   tau(  11) = (   0.3022999   0.2761658   0.5229836  )
        12           O   tau(  12) = (   0.7966735   0.9364446   0.4031789  )
        13           O   tau(  13) = (   0.0938432   0.2529177   0.2142628  )
        14           O   tau(  14) = (   0.5882169   0.9131965   0.0944581  )

   Crystallographic axes

     site n.     atom                  positions (cryst. coord.)
         1           Hg  tau(   1) = (  0.4717520  0.2428420  0.4759550  )
         2           Hg  tau(   2) = (  0.7571580  0.5282480  0.0240450  )
         3           Hg  tau(   3) = (  0.5282480  0.7571580  0.5240450  )
         4           Hg  tau(   4) = (  0.2428420  0.4717520  0.9759550  )
         5           W   tau(   5) = (  0.0938450  0.9061550  0.2500000  )
         6           W   tau(   6) = (  0.9061550  0.0938450  0.7500000  )
         7           O   tau(   7) = (  0.3331410  0.9522980  0.2969630  )
         8           O   tau(   8) = (  0.0477020  0.6668590  0.2030370  )
         9           O   tau(   9) = (  0.6668590  0.0477020  0.7030370  )
        10           O   tau(  10) = (  0.9522980  0.3331410  0.7969630  )
        11           O   tau(  11) = (  0.1804680  0.0849430  0.8470170  )
        12           O   tau(  12) = (  0.9150570  0.8195320  0.6529830  )
        13           O   tau(  13) = (  0.0849430  0.1804680  0.3470170  )
        14           O   tau(  14) = (  0.8195320  0.9150570  0.1529830  )

     number of k points=    14
                       cart. coord. in units 2pi/alat
        k(    1) = (   0.0000000   0.0000000   0.0000000), wk =   0.0740741
        k(    2) = (   0.0000000   0.0000000   0.5398620), wk =   0.1481481
        k(    3) = (   0.0000000   0.3473869  -0.1293005), wk =   0.1481481
        k(    4) = (   0.0000000   0.3473869   0.4105615), wk =   0.1481481
        k(    5) = (   0.0000000   0.3473869  -0.6691625), wk =   0.1481481
        k(    6) = (   0.3333333   0.0978087  -0.1293005), wk =   0.1481481
        k(    7) = (   0.3333333   0.0978087   0.4105615), wk =   0.1481481
        k(    8) = (   0.3333333   0.0978087  -0.6691625), wk =   0.1481481
        k(    9) = (   0.3333333   0.4451955  -0.2586010), wk =   0.1481481
        k(   10) = (   0.3333333   0.4451955   0.2812610), wk =   0.1481481
        k(   11) = (   0.3333333   0.4451955  -0.7984630), wk =   0.1481481
        k(   12) = (   0.3333333  -0.2495782   0.0000000), wk =   0.1481481
        k(   13) = (   0.3333333  -0.2495782   0.5398620), wk =   0.1481481
        k(   14) = (   0.3333333  -0.2495782  -0.5398620), wk =   0.1481481

                       cryst. coord.
        k(    1) = (   0.0000000   0.0000000   0.0000000), wk =   0.0740741
        k(    2) = (   0.0000000   0.0000000   0.3333333), wk =   0.1481481
        k(    3) = (   0.0000000   0.3333333   0.0000000), wk =   0.1481481
        k(    4) = (   0.0000000   0.3333333   0.3333333), wk =   0.1481481
        k(    5) = (   0.0000000   0.3333333  -0.3333333), wk =   0.1481481
        k(    6) = (   0.3333333   0.0000000   0.0000000), wk =   0.1481481
        k(    7) = (   0.3333333   0.0000000   0.3333333), wk =   0.1481481
        k(    8) = (   0.3333333   0.0000000  -0.3333333), wk =   0.1481481
        k(    9) = (   0.3333333   0.3333333   0.0000000), wk =   0.1481481
        k(   10) = (   0.3333333   0.3333333   0.3333333), wk =   0.1481481
        k(   11) = (   0.3333333   0.3333333  -0.3333333), wk =   0.1481481
        k(   12) = (   0.3333333  -0.3333333  -0.0000000), wk =   0.1481481
        k(   13) = (   0.3333333  -0.3333333   0.3333333), wk =   0.1481481
        k(   14) = (   0.3333333  -0.3333333  -0.3333333), wk =   0.1481481

     Check: negative core charge=   -0.000010

     Initial potential from superposition of free atoms

     starting charge     155.7990, renormalised to     156.0000

     negative rho (up, down):  1.265E-01 0.000E+00
     Starting wfcs are   98 randomized atomic wfcs +  158 random wfcs
     Checking if some PAW data can be deallocated...

     Self-consistent Calculation

     iteration #  1     ecut=    30.00 Ry     beta= 0.70
     Davidson diagonalization with overlap

     ethr =  1.00E-02,  avg # of iterations =  7.6

     negative rho (up, down):  1.189E-01 0.000E+00

     total energy              =   -1888.63835004 Ry
     estimated scf accuracy    <       4.40302574 Ry

[...]

     total energy              =   -1891.00590999 Ry
     estimated scf accuracy    <       0.00000249 Ry

     iteration # 11     ecut=    30.00 Ry     beta= 0.70
     Davidson diagonalization with overlap

     ethr =  1.60E-09,  avg # of iterations =  2.1

     negative rho (up, down):  1.209E-01 0.000E+00

     End of self-consistent calculation

          k = 0.0000 0.0000 0.0000 (  4567 PWs)   bands (ev):

  -106.6186-106.6186-106.6129-106.6128 -66.7487 -66.7449 -54.6296 -54.6284
   -54.5067 -54.5003 -54.4320 -54.4305 -54.4239 -54.4237 -54.4093 -54.4085
   -54.4051 -54.4021 -31.0503 -31.0431 -31.0343 -30.9851 -30.9836 -30.9390
   -10.4552  -9.5143  -9.4129  -9.2903  -9.0774  -9.0355  -8.9206  -8.8947
     0.9406   1.1394   1.7931   1.8410   1.9052   2.0529   2.1122   2.2628
     2.3576   2.4083   2.5461   2.6093   2.7177   2.7602   2.7650   2.7819
     2.8520   2.8930   2.9911   3.1512   3.1805   3.3441   3.4780   3.6320
     3.6943   4.0304   4.2341   4.3662   4.4091   4.6441   4.7813   4.9638
     5.2527   5.2961   5.6643   5.9379   5.9806   6.1793   6.3647   6.4555
     6.5666   6.8540   6.9673   6.9927   7.0827   7.1240  10.2185  10.7223
    10.8026  11.2577  11.6836  11.7774  11.8805  12.1535  12.3195  13.3095
    13.5830  14.1806  14.6640  14.6963  15.2975  15.6471  15.7462  16.3166
    16.5315  17.0270  17.3912  17.8971  18.2518  18.3359  19.0633  19.4468
    19.8515  20.3211  20.3351  20.3878  21.2359  21.3872  21.8994  22.1811
    22.5511  22.6348  22.6934  23.1605  23.4825  23.6026  23.8096  23.9345
    24.2266  24.3335  24.7347  25.2478  25.3379  25.8685  27.3232  27.5234
    27.7644  28.0114  28.3582  28.4405  28.6063  28.7005  28.8818  29.2982
    29.4021  29.4842  29.7062  29.7700  29.7963  30.1712  30.5109  30.5552
    30.5801  30.9022  31.0054  31.0748  31.3455  31.6028  32.1993  32.2971
    32.3374  32.5224  32.9862  33.0914  33.1065  33.2404  33.5449  33.6514
    33.6814  33.7402  34.0132  34.3618  34.4508  34.5046  34.7338  34.9527
    35.2225  35.6083  36.0708  36.0750  36.2108  36.2488  36.3749  36.8756
    37.1311  37.1873  37.4655  37.6339  38.1601  38.2223  38.2409  38.6014
    38.8072  38.9377  39.0815  39.4467  39.6117  39.8579  39.8588  40.1958
    40.4551  40.6943  40.7729  40.7861  40.8689  41.0370  41.2671  41.3878
    41.4017  41.5680  41.6505  41.8445  41.9890  42.3572  42.4738  42.6962
    43.0584  43.2576  43.2769  43.3533  43.6543  43.8001  44.0882  44.1208
    44.4975  44.5835  44.6541  44.8114  45.2105  45.2803  45.5216  45.5383
    45.5579  45.5933  45.6613  45.8360  46.0901  46.2918  46.4097  46.5955
    47.1447  47.3242  47.8868  47.9233  48.0752  48.1551  48.2552  48.4087
    48.6094  48.6725  48.7250  48.9991  49.1194  49.2615  49.5881  49.6843
    49.7628  49.8719  49.9468  50.0026  50.0306  50.3816  50.6659  50.8652

     occupation numbers
     1.0000   1.0000   1.0000   1.0000   1.0000   1.0000   1.0000   1.0000
     1.0000   1.0000   1.0000   1.0000   1.0000   1.0000   1.0000   1.0000
     1.0000   1.0000   1.0000   1.0000   1.0000   1.0000   1.0000   1.0000
     1.0000   1.0000   1.0000   1.0000   1.0000   1.0000   1.0000   1.0000
     1.0000   1.0000   1.0000   1.0000   1.0000   1.0000   1.0000   1.0000
     1.0000   1.0000   1.0000   1.0000   1.0000   1.0000   1.0000   1.0000
     1.0000   1.0000   1.0000   1.0000   1.0000   1.0000   1.0000   1.0000
     1.0000   1.0000   1.0000   1.0000   1.0000   1.0000   1.0000   1.0000
     1.0000   1.0000   1.0000   1.0000   1.0000   1.0000   1.0000   1.0000
     1.0000   1.0000   1.0000   1.0000   1.0000   1.0000   0.0000   0.0000
     0.0000   0.0000   0.0000   0.0000   0.0000   0.0000   0.0000   0.0000
     0.0000   0.0000   0.0000   0.0000   0.0000   0.0000   0.0000   0.0000
     0.0000   0.0000   0.0000   0.0000   0.0000   0.0000   0.0000   0.0000
     0.0000   0.0000   0.0000   0.0000   0.0000   0.0000   0.0000   0.0000
     0.0000   0.0000   0.0000   0.0000   0.0000   0.0000   0.0000   0.0000
     0.0000   0.0000   0.0000   0.0000   0.0000   0.0000   0.0000   0.0000
     0.0000   0.0000   0.0000   0.0000   0.0000   0.0000   0.0000   0.0000
     0.0000   0.0000   0.0000   0.0000   0.0000   0.0000   0.0000   0.0000
     0.0000   0.0000   0.0000   0.0000   0.0000   0.0000   0.0000   0.0000
     0.0000   0.0000   0.0000   0.0000   0.0000   0.0000   0.0000   0.0000
     0.0000   0.0000   0.0000   0.0000   0.0000   0.0000   0.0000   0.0000
     0.0000   0.0000   0.0000   0.0000   0.0000   0.0000   0.0000   0.0000
     0.0000   0.0000   0.0000   0.0000   0.0000   0.0000   0.0000   0.0000
     0.0000   0.0000   0.0000   0.0000   0.0000   0.0000   0.0000   0.0000
     0.0000   0.0000   0.0000   0.0000   0.0000   0.0000   0.0000   0.0000
     0.0000   0.0000   0.0000   0.0000   0.0000   0.0000   0.0000   0.0000
     0.0000   0.0000   0.0000   0.0000   0.0000   0.0000   0.0000   0.0000
     0.0000   0.0000   0.0000   0.0000   0.0000   0.0000   0.0000   0.0000
     0.0000   0.0000   0.0000   0.0000   0.0000   0.0000   0.0000   0.0000
     0.0000   0.0000   0.0000   0.0000   0.0000   0.0000   0.0000   0.0000
     0.0000   0.0000   0.0000   0.0000   0.0000   0.0000   0.0000   0.0000
     0.0000   0.0000   0.0000   0.0000   0.0000   0.0000   0.0000   0.0000

[...]

          k = 0.3333-0.2496-0.5399 (  4561 PWs)   bands (ev):

  -106.6186-106.6186-106.6129-106.6128 -66.7478 -66.7458 -54.6339 -54.6288
   -54.5048 -54.5019 -54.4318 -54.4281 -54.4264 -54.4240 -54.4102 -54.4080
   -54.4044 -54.4017 -31.0523 -31.0493 -31.0256 -31.0083 -30.9580 -30.9424
   -10.1864  -9.7027  -9.4639  -9.4017  -9.0276  -8.9889  -8.9574  -8.9021
     0.8671   1.2603   1.8569   1.9283   1.9547   2.0821   2.1665   2.1873
     2.3560   2.4378   2.5470   2.5766   2.6691   2.7555   2.7924   2.9205
     2.9389   2.9754   3.0842   3.2031   3.2193   3.2822   3.4086   3.6093
     3.8061   3.9068   4.0605   4.3295   4.5506   4.6245   4.8730   5.1193
     5.2382   5.3311   5.5285   5.6628   5.8138   5.9990   6.1412   6.6043
     6.6596   6.7352   6.8038   6.9309   7.0511   7.3474   9.7508  10.4222
    11.1015  11.1614  11.5667  11.6541  11.9657  12.1179  12.7064  12.8085
    13.8867  13.9889  14.3363  14.8631  15.3213  15.6437  16.0636  16.0782
    16.4095  16.8338  17.3135  17.8848  18.5518  18.9948  19.3608  19.8002
    20.0871  20.5748  20.6477  20.8040  21.1456  21.5983  21.7659  21.9434
    22.2353  23.1667  23.2668  23.7435  23.9527  23.9642  24.2782  24.5280
    24.8065  25.0732  25.6205  25.7493  25.9563  26.0952  26.5442  26.5976
    26.8495  27.2066  27.4128  27.4447  27.8754  27.9636  28.4003  28.5770
    28.8659  28.9707  29.2430  29.3464  29.4832  29.6356  29.7116  30.0499
    30.2557  30.3954  30.7268  30.8933  30.9715  31.3483  31.7618  31.9285
    32.1166  32.3279  32.5389  32.7055  32.9985  33.3160  33.5008  33.7240
    33.8196  33.8640  34.2208  34.7190  34.7962  35.2627  35.3340  35.4226
    35.7779  35.9993  36.2050  36.3207  36.3878  36.8531  37.1022  37.4753
    37.5661  37.7931  37.9986  38.0773  38.2912  38.3543  38.6972  38.7998
    38.8809  38.9893  39.2622  39.2941  39.4907  39.5899  39.8198  40.1647
    40.2517  40.4533  40.6287  40.6901  41.0841  41.3693  41.5167  41.7519
    41.7907  41.9840  42.0609  42.2548  42.4227  42.5421  42.6821  42.8179
    43.0962  43.1361  43.3230  43.5831  43.7352  43.8799  43.9961  44.1443
    44.3703  44.5943  44.6978  45.0875  45.2689  45.3860  45.4598  45.5194
    45.8583  46.1162  46.3245  46.4128  46.4632  46.6110  46.6478  46.8608
    47.0051  47.1247  47.1662  47.2079  47.3231  47.5339  47.6352  47.9033
    48.0197  48.2468  48.5477  48.6765  49.1109  49.2030  49.4177  49.4611
    49.5651  49.6810  49.8845  50.0476  50.3826  50.4648  50.8060  50.8826

     occupation numbers
     1.0000   1.0000   1.0000   1.0000   1.0000   1.0000   1.0000   1.0000
     1.0000   1.0000   1.0000   1.0000   1.0000   1.0000   1.0000   1.0000
     1.0000   1.0000   1.0000   1.0000   1.0000   1.0000   1.0000   1.0000
     1.0000   1.0000   1.0000   1.0000   1.0000   1.0000   1.0000   1.0000
     1.0000   1.0000   1.0000   1.0000   1.0000   1.0000   1.0000   1.0000
     1.0000   1.0000   1.0000   1.0000   1.0000   1.0000   1.0000   1.0000
     1.0000   1.0000   1.0000   1.0000   1.0000   1.0000   1.0000   1.0000
     1.0000   1.0000   1.0000   1.0000   1.0000   1.0000   1.0000   1.0000
     1.0000   1.0000   1.0000   1.0000   1.0000   1.0000   1.0000   1.0000
     1.0000   1.0000   1.0000   1.0000   1.0000   1.0000   0.0000   0.0000
     0.0000   0.0000   0.0000   0.0000   0.0000   0.0000   0.0000   0.0000
     0.0000   0.0000   0.0000   0.0000   0.0000   0.0000   0.0000   0.0000
     0.0000   0.0000   0.0000   0.0000   0.0000   0.0000   0.0000   0.0000
     0.0000   0.0000   0.0000   0.0000   0.0000   0.0000   0.0000   0.0000
     0.0000   0.0000   0.0000   0.0000   0.0000   0.0000   0.0000   0.0000
     0.0000   0.0000   0.0000   0.0000   0.0000   0.0000   0.0000   0.0000
     0.0000   0.0000   0.0000   0.0000   0.0000   0.0000   0.0000   0.0000
     0.0000   0.0000   0.0000   0.0000   0.0000   0.0000   0.0000   0.0000
     0.0000   0.0000   0.0000   0.0000   0.0000   0.0000   0.0000   0.0000
     0.0000   0.0000   0.0000   0.0000   0.0000   0.0000   0.0000   0.0000
     0.0000   0.0000   0.0000   0.0000   0.0000   0.0000   0.0000   0.0000
     0.0000   0.0000   0.0000   0.0000   0.0000   0.0000   0.0000   0.0000
     0.0000   0.0000   0.0000   0.0000   0.0000   0.0000   0.0000   0.0000
     0.0000   0.0000   0.0000   0.0000   0.0000   0.0000   0.0000   0.0000
     0.0000   0.0000   0.0000   0.0000   0.0000   0.0000   0.0000   0.0000
     0.0000   0.0000   0.0000   0.0000   0.0000   0.0000   0.0000   0.0000
     0.0000   0.0000   0.0000   0.0000   0.0000   0.0000   0.0000   0.0000
     0.0000   0.0000   0.0000   0.0000   0.0000   0.0000   0.0000   0.0000
     0.0000   0.0000   0.0000   0.0000   0.0000   0.0000   0.0000   0.0000
     0.0000   0.0000   0.0000   0.0000   0.0000   0.0000   0.0000   0.0000
     0.0000   0.0000   0.0000   0.0000   0.0000   0.0000   0.0000   0.0000
     0.0000   0.0000   0.0000   0.0000   0.0000   0.0000   0.0000   0.0000

     highest occupied, lowest unoccupied level (ev):     7.7253    9.6849

!    total energy              =   -1891.00591025 Ry
     estimated scf accuracy    <       0.00000051 Ry

     The total energy is the sum of the following terms:
     one-electron contribution =    -995.66106336 Ry
     hartree contribution      =     534.72634450 Ry
     xc contribution           =    -250.82879488 Ry
     ewald contribution        =   -1103.00888891 Ry
     one-center paw contrib.   =     -76.23350761 Ry
      -> PAW hartree energy AE =       0.00000000 Ry
      -> PAW hartree energy PS =       0.00000000 Ry
      -> PAW xc energy AE      =       0.00000000 Ry
      -> PAW xc energy PS      =       0.00000000 Ry
      -> total E_H with PAW    =     534.72634450 Ry
      -> total E_XC with PAW   =    -250.82879488 Ry

     convergence has been achieved in  11 iterations

     Writing all to output data dir bands_nm/myprefix.save/

     General routines

     Parallel routines

     PAW routines

   This run was terminated on:  18:15:17  16Jul2023

   JOB DONE.