     Program PWSCF v.7.1 starts on 16Jul2023 at 13: 6:19

     Reading input from espresso_17353.pwi
Warning: card &CELL ignored
Warning: card / ignored

     Current dimensions of program PWSCF are:
     Max number of different atomic species (ntypx) = 10
     Max number of k-points (npk) =  40000
     Max angular momentum in pseudopotentials (lmaxx) =  4
     file Cu.paw.z_11.ld1.psl.v1.0.0-low.upf: wavefunction(s)  4S 3D renormalized
     file O.pbe-n-kjpaw_psl.0.1.UPF: wavefunction(s)  2P renormalized
     Message from routine setup:
     using ibrav=0 with symmetry is DISCOURAGED, use correct ibrav instead

     K-points division:     npool     =       2
     R & G space division:  proc/nbgrp/npool/nimage =       4
     Subspace diagonalization in iterative solution of the eigenvalue problem:
     a serial algorithm will be used

     Using Slab Decomposition

     bravais-lattice index     =            0
     lattice parameter (alat)  =      10.4920  a.u.
     unit-cell volume          =    1067.2056 (a.u.)^3
     number of atoms/cell      =           12
     number of atomic types    =            3
     number of electrons       =       108.00
     number of Kohn-Sham states=           64
     kinetic-energy cutoff     =      30.0000  Ry
     charge density cutoff     =     240.0000  Ry
     scf convergence threshold =      1.0E-06
     mixing beta               =       0.7000
     number of iterations used =            8  plain     mixing
     Exchange-correlation= SLA  PW   PBX  PBC
                           (   1   4   3   4   0   0   0)

     celldm(1)=  10.492013  celldm(2)=   0.000000  celldm(3)=   0.000000
     celldm(4)=   0.000000  celldm(5)=   0.000000  celldm(6)=   0.000000

     crystal axes: (cart. coord. in units of alat)
               a(1) = (   1.000000   0.000000   0.000000 )
               a(2) = (   0.500000   1.014578   0.000000 )
               a(3) = (   0.000000   0.567418   0.910723 )

     reciprocal axes: (cart. coord. in units 2 pi/alat)
               b(1) = (  1.000000 -0.492816  0.307044 )
               b(2) = (  0.000000  0.985631 -0.614089 )
               b(3) = (  0.000000  0.000000  1.098029 )

     PseudoPot. # 1 for Na read from file:
     /lustre07/scratch/pragov/crystal_structure_design/utils/SSSP/na_pbe_v1.5.uspp.F.UPF
     MD5 check sum: 44600605ef58000f06b90626533354dc
     Pseudo is Ultrasoft, Zval =  9.0
     Generated by new atomic code, or converted to UPF format
     Using radial grid of  819 points,  5 beta functions with:
                l(1) =   0
                l(2) =   0
                l(3) =   1
                l(4) =   1
                l(5) =   2
     Q(r) pseudized with  8 coefficients,  rinner =    1.250   1.250   1.250
                                                       1.250   1.250

     PseudoPot. # 2 for Cu read from file:
     /lustre07/scratch/pragov/crystal_structure_design/utils/SSSP/Cu.paw.z_11.ld1.psl.v1.0.0-low.upf
     MD5 check sum: 619f40885d92a09a85a8b37550532d0c
     Pseudo is Projector augmented-wave + core cor, Zval = 11.0
     Generated using &quot;atomic&quot; code by A. Dal Corso  v.6.3MaX
     Shape of augmentation charge: PSQ
     Using radial grid of 1199 points,  6 beta functions with:
                l(1) =   0
                l(2) =   0
                l(3) =   1
                l(4) =   1
                l(5) =   2
                l(6) =   2
     Q(r) pseudized with 0 coefficients

     PseudoPot. # 3 for O  read from file:
     /lustre07/scratch/pragov/crystal_structure_design/utils/SSSP/O.pbe-n-kjpaw_psl.0.1.UPF
     MD5 check sum: 0234752ac141de4415c5fc33072bef88
     Pseudo is Projector augmented-wave + core cor, Zval =  6.0
     Generated using "atomic" code by A. Dal Corso  v.5.0.99 svn rev. 10869
     Shape of augmentation charge: BESSEL
     Using radial grid of 1095 points,  4 beta functions with:
                l(1) =   0
                l(2) =   0
                l(3) =   1
                l(4) =   1
     Q(r) pseudized with 0 coefficients

     atomic species   valence    mass     pseudopotential
        Na             9.00    22.98977     Na( 1.00)
        Cu            11.00    63.54600     Cu( 1.00)
        O              6.00    15.99900     O ( 1.00)

      4 Sym. Ops., with inversion, found

                                    s                        frac. trans.

      isym =  1     identity

 cryst.   s( 1) = (     1          0          0      )
                  (     0          1          0      )
                  (     0          0          1      )

 cart.    s( 1) = (  1.0000000  0.0000000  0.0000000 )
                  (  0.0000000  1.0000000 -0.0000000 )
                  (  0.0000000  0.0000000  1.0000000 )

      isym =  2     180 deg rotation - cart. axis [1,0,0]

[...]

      isym =  3     inversion

[...]

      isym =  4     inv. 180 deg rotation - cart. axis [1,0,0]

 cryst.   s( 4) = (    -1          0          0      )
                  (    -1          1          0      )
                  (     0          0          1      )

 cart.    s( 4) = ( -1.0000000  0.0000000 -0.0000000 )
                  (  0.0000000  1.0000000 -0.0000000 )
                  (  0.0000000  0.0000000  1.0000000 )

   Cartesian axes

     site n.     atom                  positions (alat units)
         1           Na  tau(   1) = (   0.7500000   0.2837089   0.4553614  )
         2           Na  tau(   2) = (   0.2500000   0.2837089   0.4553614  )
         3           Cu  tau(   3) = (   0.0000000   0.0000000   0.0000000  )
         4           Cu  tau(   4) = (   0.5000000   0.0000000   0.0000000  )
         5           Cu  tau(   5) = (   0.7500000   0.5072890   0.0000000  )
         6           Cu  tau(   6) = (   0.2500000   0.5072890   0.0000000  )
         7           Cu  tau(   7) = (   0.2500000   0.7909979   0.4553614  )
         8           Cu  tau(   8) = (   0.7500000   0.7909979   0.4553614  )
         9           O   tau(   9) = (   0.5000000   0.3186513   0.1239767  )
        10           O   tau(  10) = (   1.0000000   0.5965725   0.5700487  )
        11           O   tau(  11) = (   0.5000000   0.9854233   0.3406741  )
        12           O   tau(  12) = (   1.0000000   1.2633445   0.7867461  )

   Crystallographic axes

     site n.     atom                  positions (cryst. coord.)
         1           Na  tau(   1) = (  0.7500000  0.0000000  0.5000000  )
         2           Na  tau(   2) = (  0.2500000  0.0000000  0.5000000  )
         3           Cu  tau(   3) = (  0.0000000  0.0000000  0.0000000  )
         4           Cu  tau(   4) = (  0.5000000  0.0000000  0.0000000  )
         5           Cu  tau(   5) = (  0.5000000  0.5000000  0.0000000  )
         6           Cu  tau(   6) = ( -0.0000000  0.5000000  0.0000000  )
         7           Cu  tau(   7) = ( -0.0000000  0.5000000  0.5000000  )
         8           Cu  tau(   8) = (  0.5000000  0.5000000  0.5000000  )
         9           O   tau(   9) = (  0.3810300  0.2379400  0.1361300  )
        10           O   tau(  10) = (  0.8810300  0.2379400  0.6259300  )
        11           O   tau(  11) = (  0.1189700  0.7620600  0.3740700  )
        12           O   tau(  12) = (  0.6189700  0.7620600  0.8638700  )

     number of k points=    10
                       cart. coord. in units 2pi/alat
        k(    1) = (   0.0000000   0.0000000   0.0000000), wk =   0.0740741
        k(    2) = (   0.0000000   0.0000000   0.3660096), wk =   0.1481481
        k(    3) = (   0.0000000   0.3285438  -0.2046963), wk =   0.1481481
        k(    4) = (   0.0000000   0.3285438   0.1613133), wk =   0.1481481
        k(    5) = (   0.0000000   0.3285438  -0.5707059), wk =   0.1481481
        k(    6) = (   0.3333333  -0.1642719   0.1023481), wk =   0.2962963
        k(    7) = (   0.3333333  -0.1642719   0.4683578), wk =   0.2962963
        k(    8) = (   0.3333333  -0.1642719  -0.2636615), wk =   0.2962963
        k(    9) = (   0.3333333  -0.4928157   0.3070444), wk =   0.1481481
        k(   10) = (   0.3333333  -0.4928157   0.6730541), wk =   0.2962963

                       cryst. coord.
        k(    1) = (   0.0000000   0.0000000   0.0000000), wk =   0.0740741
        k(    2) = (   0.0000000   0.0000000   0.3333333), wk =   0.1481481
        k(    3) = (   0.0000000   0.3333333   0.0000000), wk =   0.1481481
        k(    4) = (   0.0000000   0.3333333   0.3333333), wk =   0.1481481
        k(    5) = (   0.0000000   0.3333333  -0.3333333), wk =   0.1481481
        k(    6) = (   0.3333333   0.0000000   0.0000000), wk =   0.2962963
        k(    7) = (   0.3333333   0.0000000   0.3333333), wk =   0.2962963
        k(    8) = (   0.3333333   0.0000000  -0.3333333), wk =   0.2962963
        k(    9) = (   0.3333333  -0.3333333  -0.0000000), wk =   0.1481481
        k(   10) = (   0.3333333  -0.3333333   0.3333333), wk =   0.2962963

     Check: negative core charge=   -0.000006

     Initial potential from superposition of free atoms

     starting charge     107.9860, renormalised to     108.0000
     Starting wfcs are   80 randomized atomic wfcs
     Checking if some PAW data can be deallocated...

     Self-consistent Calculation

     iteration #  1     ecut=    30.00 Ry     beta= 0.70
     Davidson diagonalization with overlap

     ethr =  1.00E-02,  avg # of iterations =  2.4

     total energy              =   -1634.57919731 Ry
     estimated scf accuracy    <       1.72546800 Ry

[...]

     total energy              =   -1635.57713598 Ry
     estimated scf accuracy    <       0.00000236 Ry

     iteration # 11     ecut=    30.00 Ry     beta= 0.70
     Davidson diagonalization with overlap

     ethr =  1.35E-09,  avg # of iterations =  2.0

     End of self-consistent calculation

          k = 0.0000 0.0000 0.0000 (  2991 PWs)   bands (ev):

   -44.0135 -43.9860 -16.1352 -15.9888 -15.9671 -15.9319 -15.8918 -15.8149
   -11.8209 -11.5939 -11.2476 -11.2126   0.7476   1.0534   1.2280   1.2519
     1.9600   2.1777   2.5334   2.6145   2.7424   3.1956   3.4116   3.4337
     3.8536   4.4548   4.5066   4.5885   4.7168   4.9394   5.0169   5.0285
     5.0834   5.1704   5.2910   5.3102   5.3896   5.5295   5.6046   5.6609
     5.7078   5.7082   5.8218   5.8716   5.9214   5.9295   5.9901   5.9993
     6.1911   6.8230   6.8454   6.8810   7.3695   7.3992   8.2845   8.7923
     9.8807   9.9038  10.2835  11.9921  12.5129  12.6226  13.0445  14.4902

     occupation numbers
     1.0000   1.0000   1.0000   1.0000   1.0000   1.0000   1.0000   1.0000
     1.0000   1.0000   1.0000   1.0000   1.0000   1.0000   1.0000   1.0000
     1.0000   1.0000   1.0000   1.0000   1.0000   1.0000   1.0000   1.0000
     1.0000   1.0000   1.0000   1.0000   1.0000   1.0000   1.0000   1.0000
     1.0000   1.0000   1.0000   1.0000   1.0000   1.0000   1.0000   1.0000
     1.0000   1.0000   1.0000   1.0000   1.0000   1.0000   1.0000   1.0000
     1.0000   1.0000   1.0000   1.0000   1.0000   1.0000   0.0000   0.0000
     0.0000   0.0000   0.0000   0.0000   0.0000   0.0000   0.0000   0.0000

[...]

          k = 0.3333-0.4928 0.6731 (  2963 PWs)   bands (ev):

   -44.0066 -43.9924 -16.0546 -15.9804 -15.9620 -15.9323 -15.9060 -15.8963
   -11.5764 -11.5027 -11.4395 -11.3651   0.9003   1.1654   1.2844   1.6012
     1.8582   2.2720   2.4171   2.5568   2.6487   2.6670   2.9223   2.9619
     4.2851   4.6667   4.7627   4.8867   5.0255   5.1114   5.1516   5.1924
     5.2336   5.2930   5.3225   5.3511   5.4027   5.4835   5.5139   5.5562
     5.5994   5.6513   5.6604   5.8754   5.8787   5.8838   5.9602   6.0465
     6.2460   6.3580   6.4100   6.4800   6.8259   7.0130   9.4669   9.7818
     9.9758  10.5750  10.9015  11.5807  12.1951  12.4041  13.6288  14.3015

     occupation numbers
     1.0000   1.0000   1.0000   1.0000   1.0000   1.0000   1.0000   1.0000
     1.0000   1.0000   1.0000   1.0000   1.0000   1.0000   1.0000   1.0000
     1.0000   1.0000   1.0000   1.0000   1.0000   1.0000   1.0000   1.0000
     1.0000   1.0000   1.0000   1.0000   1.0000   1.0000   1.0000   1.0000
     1.0000   1.0000   1.0000   1.0000   1.0000   1.0000   1.0000   1.0000
     1.0000   1.0000   1.0000   1.0000   1.0000   1.0000   1.0000   1.0000
     1.0000   1.0000   1.0000   1.0000   1.0000   1.0000   0.0000   0.0000
     0.0000   0.0000   0.0000   0.0000   0.0000   0.0000   0.0000   0.0000

     highest occupied, lowest unoccupied level (ev):     7.3992    8.2845

!    total energy              =   -1635.57713624 Ry
     estimated scf accuracy    <       0.00000019 Ry

     The total energy is the sum of the following terms:
     one-electron contribution =    -445.84330183 Ry
     hartree contribution      =     333.78197603 Ry
     xc contribution           =    -326.07012305 Ry
     ewald contribution        =    -620.39631147 Ry
     one-center paw contrib.   =    -577.04937591 Ry
      -> PAW hartree energy AE =       0.00000000 Ry
      -> PAW hartree energy PS =       0.00000000 Ry
      -> PAW xc energy AE      =       0.00000000 Ry
      -> PAW xc energy PS      =       0.00000000 Ry
      -> total E_H with PAW    =     333.78197603 Ry
      -> total E_XC with PAW   =    -326.07012305 Ry

     convergence has been achieved in  11 iterations

     Writing all to output data dir bands_nm/myprefix.save/

     General routines

     Parallel routines

     PAW routines

   This run was terminated on:  13: 6:28  16Jul2023

   JOB DONE.