     Program PWSCF v.7.1 starts on 13Jul2023 at  9:19:33

     Reading input from espresso_6115.pwi
Warning: card &CELL ignored
Warning: card / ignored

     Current dimensions of program PWSCF are:
     Max number of different atomic species (ntypx) = 10
     Max number of k-points (npk) =  40000
     Max angular momentum in pseudopotentials (lmaxx) =  4
     Message from routine setup:
     using ibrav=0 with symmetry is DISCOURAGED, use correct ibrav instead

     K-points division:     npool     =       2
     R & G space division:  proc/nbgrp/npool/nimage =       8
     Subspace diagonalization in iterative solution of the eigenvalue problem:
     a serial algorithm will be used

     Using Slab Decomposition

     bravais-lattice index     =            0
     lattice parameter (alat)  =      15.6093  a.u.
     unit-cell volume          =    4339.8956 (a.u.)^3
     number of atoms/cell      =           14
     number of atomic types    =            3
     number of electrons       =       126.00
     number of Kohn-Sham states=           64
     kinetic-energy cutoff     =      30.0000  Ry
     charge density cutoff     =     240.0000  Ry
     scf convergence threshold =      1.0E-06
     mixing beta               =       0.7000
     number of iterations used =            8  plain     mixing
     Exchange-correlation= SLA  PW   PBX  PBC
                           (   1   4   3   4   0   0   0)

     celldm(1)=  15.609344  celldm(2)=   0.000000  celldm(3)=   0.000000
     celldm(4)=   0.000000  celldm(5)=   0.000000  celldm(6)=   0.000000

     crystal axes: (cart. coord. in units of alat)
               a(1) = (   1.000000   0.000000   0.000000 )
               a(2) = (   0.000000   0.947083   0.000000 )
               a(3) = (   0.000000   0.424195   1.204862 )

     reciprocal axes: (cart. coord. in units 2 pi/alat)
               b(1) = (  1.000000  0.000000  0.000000 )
               b(2) = (  0.000000  1.055874 -0.371741 )
               b(3) = (  0.000000  0.000000  0.829970 )

     PseudoPot. # 1 for Rb read from file:
     /lustre07/scratch/pragov/crystal_structure_design/utils/SSSP/Rb_ONCV_PBE-1.0.oncvpsp.upf
     MD5 check sum: 55a5172d6bfbce6759a58e35d43f6aa9
     Pseudo is Norm-conserving, Zval =  9.0
     Generated using ONCVPSP code by D. R. Hamann
     Using radial grid of 2308 points,  6 beta functions with:
                l(1) =   0
                l(2) =   0
                l(3) =   1
                l(4) =   1
                l(5) =   2
                l(6) =   2

     PseudoPot. # 2 for Co read from file:
     /lustre07/scratch/pragov/crystal_structure_design/utils/SSSP/Co_pbe_v1.2.uspp.F.UPF
     MD5 check sum: 5f91765df6ddd3222702df6e7b74a16d
     Pseudo is Ultrasoft + core correction, Zval = 17.0
     Generated by new atomic code, or converted to UPF format
     Using radial grid of  863 points,  6 beta functions with:
                l(1) =   0
                l(2) =   0
                l(3) =   1
                l(4) =   1
                l(5) =   2
                l(6) =   2
     Q(r) pseudized with  8 coefficients,  rinner =    1.200   1.200   1.200
                                                       1.200   1.200

     PseudoPot. # 3 for I  read from file:
     /lustre07/scratch/pragov/crystal_structure_design/utils/SSSP/I.pbe-n-kjpaw_psl.0.2.UPF
     MD5 check sum: d4ef18d9c8f18dc85e5843bca1e50dc0
     Pseudo is Projector augmented-wave + core cor, Zval =  7.0
     Generated using "atomic" code by A. Dal Corso  v.5.0.99 svn rev. 10869
     Shape of augmentation charge: PSQ
     Using radial grid of 1247 points,  4 beta functions with:
                l(1) =   0
                l(2) =   0
                l(3) =   1
                l(4) =   1
     Q(r) pseudized with 0 coefficients

     atomic species   valence    mass     pseudopotential
        Rb             9.00    85.46780     Rb( 1.00)
        Co            17.00    58.93319     Co( 1.00)
        I              7.00   126.90447     I ( 1.00)

      4 Sym. Ops., with inversion, found ( 2 have fractional translation)

                                    s                        frac. trans.

      isym =  1     identity

 cryst.   s( 1) = (     1          0          0      )
                  (     0          1          0      )
                  (     0          0          1      )

 cart.    s( 1) = (  1.0000000  0.0000000  0.0000000 )
                  (  0.0000000  1.0000000  0.0000000 )
                  (  0.0000000  0.0000000  1.0000000 )

      isym =  2     180 deg rotation - cart. axis [1,0,0]

 cryst.   s( 2) = (     1          0          0      )    f =( -0.5000000 )
                  (     0         -1          0      )       ( -0.0000000 )
                  (     0          0         -1      )       ( -0.0000000 )

 cart.    s( 2) = (  1.0000000  0.0000000  0.0000000 )    f =( -0.5000000 )
                  (  0.0000000 -1.0000000  0.0000000 )       ( -0.0000000 )
                  (  0.0000000  0.0000000 -1.0000000 )       ( -0.0000000 )

      isym =  3     inversion

 cryst.   s( 3) = (    -1          0          0      )
                  (     0         -1          0      )
                  (     0          0         -1      )

 cart.    s( 3) = ( -1.0000000  0.0000000  0.0000000 )
                  (  0.0000000 -1.0000000  0.0000000 )
                  (  0.0000000  0.0000000 -1.0000000 )

      isym =  4     inv. 180 deg rotation - cart. axis [1,0,0]

 cryst.   s( 4) = (    -1          0          0      )    f =(  0.5000000 )
                  (     0          1          0      )       (  0.0000000 )
                  (     0          0          1      )       (  0.0000000 )

 cart.    s( 4) = ( -1.0000000  0.0000000  0.0000000 )    f =(  0.5000000 )
                  (  0.0000000  1.0000000  0.0000000 )       (  0.0000000 )
                  (  0.0000000  0.0000000  1.0000000 )       (  0.0000000 )

   Cartesian axes

     site n.     atom                  positions (alat units)
         1           Rb  tau(   1) = (   0.2500000   1.0711722   1.1596391  )
         2           Rb  tau(   2) = (   0.7500000   0.3001052   0.0452233  )
         3           Rb  tau(   3) = (   0.7500000   0.4407854   0.7054915  )
         4           Rb  tau(   4) = (   0.2500000   0.9304921   0.4993709  )
         5           Co  tau(   5) = (   0.7500000   0.7506050   0.2583370  )
         6           Co  tau(   6) = (   0.2500000   0.6206724   0.9465255  )
         7           I   tau(   7) = (   0.2500000   0.1512594   0.0525067  )
         8           I   tau(   8) = (   0.7500000   1.2200180   1.1523557  )
         9           I   tau(   9) = (   0.2500000   0.3562460   0.7790833  )
        10           I   tau(  10) = (   0.7500000   1.0150315   0.4257791  )
        11           I   tau(  11) = (   0.0010390   0.7941608   0.8713866  )
        12           I   tau(  12) = (   0.5010390   0.5771166   0.3334758  )
        13           I   tau(  13) = (   0.9989610   0.5771166   0.3334758  )
        14           I   tau(  14) = (   0.4989610   0.7941608   0.8713866  )

   Crystallographic axes

     site n.     atom                  positions (cryst. coord.)
         1           Rb  tau(   1) = (  0.2500000  0.6999380  0.9624660  )
         2           Rb  tau(   2) = (  0.7500000  0.3000620  0.0375340  )
         3           Rb  tau(   3) = (  0.7500000  0.2031540  0.5855370  )
         4           Rb  tau(   4) = (  0.2500000  0.7968460  0.4144630  )
         5           Co  tau(   5) = (  0.7500000  0.6965100  0.2144120  )
         6           Co  tau(   6) = (  0.2500000  0.3034900  0.7855880  )
         7           I   tau(   7) = (  0.2500000  0.1401920  0.0435790  )
         8           I   tau(   8) = (  0.7500000  0.8598080  0.9564210  )
         9           I   tau(   9) = (  0.2500000  0.0865340  0.6466160  )
        10           I   tau(  10) = (  0.7500000  0.9134660  0.3533840  )
        11           I   tau(  11) = (  0.0010390  0.5146040  0.7232250  )
        12           I   tau(  12) = (  0.5010390  0.4853960  0.2767750  )
        13           I   tau(  13) = (  0.9989610  0.4853960  0.2767750  )
        14           I   tau(  14) = (  0.4989610  0.5146040  0.7232250  )

     number of k points=    10
                       cart. coord. in units 2pi/alat
        k(    1) = (   0.0000000   0.0000000   0.0000000), wk =   0.0740741
        k(    2) = (   0.0000000   0.0000000   0.2766568), wk =   0.1481481
        k(    3) = (   0.0000000   0.3519580  -0.1239135), wk =   0.1481481
        k(    4) = (   0.0000000   0.3519580   0.1527432), wk =   0.1481481
        k(    5) = (   0.0000000   0.3519580  -0.4005703), wk =   0.1481481
        k(    6) = (   0.3333333   0.0000000   0.0000000), wk =   0.1481481
        k(    7) = (   0.3333333   0.0000000   0.2766568), wk =   0.2962963
        k(    8) = (   0.3333333   0.3519580  -0.1239135), wk =   0.2962963
        k(    9) = (   0.3333333   0.3519580   0.1527432), wk =   0.2962963
        k(   10) = (   0.3333333   0.3519580  -0.4005703), wk =   0.2962963

                       cryst. coord.
        k(    1) = (   0.0000000   0.0000000   0.0000000), wk =   0.0740741
        k(    2) = (   0.0000000   0.0000000   0.3333333), wk =   0.1481481
        k(    3) = (   0.0000000   0.3333333  -0.0000000), wk =   0.1481481
        k(    4) = (   0.0000000   0.3333333   0.3333333), wk =   0.1481481
        k(    5) = (   0.0000000   0.3333333  -0.3333333), wk =   0.1481481
        k(    6) = (   0.3333333   0.0000000   0.0000000), wk =   0.1481481
        k(    7) = (   0.3333333   0.0000000   0.3333333), wk =   0.2962963
        k(    8) = (   0.3333333   0.3333333  -0.0000000), wk =   0.2962963
        k(    9) = (   0.3333333   0.3333333   0.3333333), wk =   0.2962963
        k(   10) = (   0.3333333   0.3333333  -0.3333333), wk =   0.2962963

     Check: negative core charge=   -0.000003

     Initial potential from superposition of free atoms

     starting charge     123.9003, renormalised to     126.0000
     Starting wfcs are   78 randomized atomic wfcs
     Checking if some PAW data can be deallocated...

     Self-consistent Calculation

     iteration #  1     ecut=    30.00 Ry     beta= 0.70
     Davidson diagonalization with overlap

     ethr =  1.00E-02,  avg # of iterations =  2.0

     Threshold (ethr) on eigenvalues was too large:
     Diagonalizing with lowered threshold

     Davidson diagonalization with overlap

[...]

     negative rho (up, down):  6.392E-05 0.000E+00

     total energy              =   -3824.03058572 Ry
     estimated scf accuracy    <       1.32078782 Ry

[...]

     total energy              =   -3824.61415020 Ry
     estimated scf accuracy    <       0.00000942 Ry

     iteration # 16     ecut=    30.00 Ry     beta= 0.70
     Davidson diagonalization with overlap

     ethr =  4.23E-09,  avg # of iterations =  4.6

     negative rho (up, down):  7.040E-06 0.000E+00

     End of self-consistent calculation

          k = 0.0000 0.0000 0.0000 ( 12059 PWs)   bands (ev):

   -91.3570 -91.3569 -54.6757 -54.6751 -54.6427 -54.6425 -54.6181 -54.6180
   -24.0792 -24.0789 -23.8362 -23.8349  -9.5966  -9.5566  -9.2704  -9.2458
    -9.2351  -9.1998  -9.1990  -9.1877  -8.1598  -8.1591  -8.1442  -8.1347
    -8.1264  -8.1239  -7.9284  -7.9230  -7.9201  -7.9169  -7.8931  -7.8708
    -1.2206  -1.1380  -0.3380  -0.1742  -0.0453   0.0250   0.1907   0.1954
     0.1973   0.2444   0.3782   0.4613   0.4782   0.5475   0.5917   0.7431
     0.8232   0.8819   1.0485   1.1335   1.1707   1.3513   1.3717   1.4297
     2.4964   2.5686   2.5812   2.6767   2.8929   2.9836   3.0672   3.1076

     occupation numbers
     1.0000   1.0000   1.0000   1.0000   1.0000   1.0000   1.0000   1.0000
     1.0000   1.0000   1.0000   1.0000   1.0000   1.0000   1.0000   1.0000
     1.0000   1.0000   1.0000   1.0000   1.0000   1.0000   1.0000   1.0000
     1.0000   1.0000   1.0000   1.0000   1.0000   1.0000   1.0000   1.0000
     1.0000   1.0000   1.0000   1.0000   1.0000   1.0000   1.0000   1.0000
     1.0000   1.0000   1.0000   1.0000   1.0000   1.0000   1.0000   1.0000
     1.0000   1.0000   1.0000   1.0000   1.0000   1.0000   1.0000   1.0000
     1.0000   1.0000   1.0000   1.0000   1.0000   1.0000   1.0000   0.0000

[...]

          k = 0.3333 0.3520-0.4006 ( 12038 PWs)   bands (ev):

   -91.3569 -91.3569 -54.6742 -54.6736 -54.6422 -54.6419 -54.6188 -54.6184
   -24.0791 -24.0790 -23.8359 -23.8352  -9.5417  -9.5125  -9.3567  -9.3102
    -9.2395  -9.2356  -9.1782  -9.1683  -8.1563  -8.1492  -8.1480  -8.1335
    -8.1275  -8.1156  -7.9222  -7.9203  -7.9075  -7.8923  -7.8887  -7.8758
    -1.0465  -0.9785  -0.1631  -0.1147  -0.0747   0.0153   0.1054   0.1523
     0.2064   0.2834   0.3199   0.3586   0.3986   0.4756   0.5886   0.6093
     0.6931   0.7662   1.1364   1.1607   1.1874   1.2049   1.3083   1.3511
     2.5572   2.5821   2.6288   2.6390   2.9253   2.9357   3.0190   3.0320

     occupation numbers
     1.0000   1.0000   1.0000   1.0000   1.0000   1.0000   1.0000   1.0000
     1.0000   1.0000   1.0000   1.0000   1.0000   1.0000   1.0000   1.0000
     1.0000   1.0000   1.0000   1.0000   1.0000   1.0000   1.0000   1.0000
     1.0000   1.0000   1.0000   1.0000   1.0000   1.0000   1.0000   1.0000
     1.0000   1.0000   1.0000   1.0000   1.0000   1.0000   1.0000   1.0000
     1.0000   1.0000   1.0000   1.0000   1.0000   1.0000   1.0000   1.0000
     1.0000   1.0000   1.0000   1.0000   1.0000   1.0000   1.0000   1.0000
     1.0000   1.0000   1.0000   1.0000   1.0000   1.0000   1.0000   0.0000

     highest occupied, lowest unoccupied level (ev):     3.0672    3.0167

!    total energy              =   -3824.61415085 Ry
     estimated scf accuracy    <       0.00000053 Ry

     The total energy is the sum of the following terms:
     one-electron contribution =    -835.03029332 Ry
     hartree contribution      =     453.18670869 Ry
     xc contribution           =    -428.92653976 Ry
     ewald contribution        =    -449.65571960 Ry
     one-center paw contrib.   =   -2564.18830686 Ry
      -> PAW hartree energy AE =       0.00000000 Ry
      -> PAW hartree energy PS =       0.00000000 Ry
      -> PAW xc energy AE      =       0.00000000 Ry
      -> PAW xc energy PS      =       0.00000000 Ry
      -> total E_H with PAW    =     453.18670869 Ry
      -> total E_XC with PAW   =    -428.92653976 Ry

     convergence has been achieved in  16 iterations

     Writing all to output data dir bands_nm/myprefix.save/

     General routines

     Parallel routines

     PAW routines

   This run was terminated on:   9:19:50  13Jul2023

   JOB DONE.