     Program PWSCF v.7.1 starts on 14Jul2023 at 18:25:37

     Reading input from espresso_20760.pwi
Warning: card &CELL ignored
Warning: card / ignored

     Current dimensions of program PWSCF are:
     Max number of different atomic species (ntypx) = 10
     Max number of k-points (npk) =  40000
     Max angular momentum in pseudopotentials (lmaxx) =  4
     file La.paw.z_11.atompaw.wentzcovitch.v1.2.upf: wavefunction(s)  6S 0P 5D 0D 4F 0F renormalized
     file Nb.pbe-spn-kjpaw_psl.0.3.0.UPF: wavefunction(s)  4S 4P renormalized
     file O.pbe-n-kjpaw_psl.0.1.UPF: wavefunction(s)  2P renormalized
     Message from routine setup:
     using ibrav=0 with symmetry is DISCOURAGED, use correct ibrav instead

     K-points division:     npool     =       2
     R & G space division:  proc/nbgrp/npool/nimage =       4
     Subspace diagonalization in iterative solution of the eigenvalue problem:
     a serial algorithm will be used

     Using Slab Decomposition

     bravais-lattice index     =            0
     lattice parameter (alat)  =       7.4286  a.u.
     unit-cell volume          =    1129.7189 (a.u.)^3
     number of atoms/cell      =           11
     number of atomic types    =            4
     number of electrons       =        88.00
     number of Kohn-Sham states=           64
     kinetic-energy cutoff     =      30.0000  Ry
     charge density cutoff     =     240.0000  Ry
     scf convergence threshold =      1.0E-06
     mixing beta               =       0.7000
     number of iterations used =            8  plain     mixing
     Exchange-correlation= SLA  PW   PBX  PBC
                           (   1   4   3   4   0   0   0)

     celldm(1)=   7.428644  celldm(2)=   0.000000  celldm(3)=   0.000000
     celldm(4)=   0.000000  celldm(5)=   0.000000  celldm(6)=   0.000000

     crystal axes: (cart. coord. in units of alat)
               a(1) = (   1.000000   0.000000   0.000000 )
               a(2) = (   0.000000   1.000000   0.000000 )
               a(3) = (   0.500000   0.500000   2.755763 )

     reciprocal axes: (cart. coord. in units 2 pi/alat)
               b(1) = (  1.000000  0.000000 -0.181438 )
               b(2) = (  0.000000  1.000000 -0.181438 )
               b(3) = (  0.000000  0.000000  0.362876 )

     PseudoPot. # 1 for Na read from file:
     /lustre07/scratch/pragov/crystal_structure_design/utils/SSSP/na_pbe_v1.5.uspp.F.UPF
     MD5 check sum: 44600605ef58000f06b90626533354dc
     Pseudo is Ultrasoft, Zval =  9.0
     Generated by new atomic code, or converted to UPF format
     Using radial grid of  819 points,  5 beta functions with:
                l(1) =   0
                l(2) =   0
                l(3) =   1
                l(4) =   1
                l(5) =   2
     Q(r) pseudized with  8 coefficients,  rinner =    1.250   1.250   1.250
                                                       1.250   1.250

     PseudoPot. # 2 for La read from file:
     /lustre07/scratch/pragov/crystal_structure_design/utils/SSSP/La.paw.z_11.atompaw.wentzcovitch.v1.2.upf
     MD5 check sum: 754494e15ae71f30e5b5f678af019e01
     Pseudo is Projector augmented-wave + core cor, Zval = 11.0
     Generated using ATOMPAW code
     Shape of augmentation charge: BESSEL
     Using radial grid of 1101 points,  8 beta functions with:
                l(1) =   0
                l(2) =   0
                l(3) =   1
                l(4) =   1
                l(5) =   2
                l(6) =   2
                l(7) =   3
                l(8) =   3
     Q(r) pseudized with 0 coefficients

     PseudoPot. # 3 for Nb read from file:
     /lustre07/scratch/pragov/crystal_structure_design/utils/SSSP/Nb.pbe-spn-kjpaw_psl.0.3.0.UPF
     MD5 check sum: 411d72ad547312f8017e2943ceca08cc
     Pseudo is Projector augmented-wave + core cor, Zval = 13.0
     Generated using "atomic" code by A. Dal Corso  v.5.0.99 svn rev. 10869
     Shape of augmentation charge: PSQ
     Using radial grid of 1227 points,  6 beta functions with:
                l(1) =   0
                l(2) =   0
                l(3) =   1
                l(4) =   1
                l(5) =   2
                l(6) =   2
     Q(r) pseudized with 0 coefficients

     PseudoPot. # 4 for O  read from file:
     /lustre07/scratch/pragov/crystal_structure_design/utils/SSSP/O.pbe-n-kjpaw_psl.0.1.UPF
     MD5 check sum: 0234752ac141de4415c5fc33072bef88
     Pseudo is Projector augmented-wave + core cor, Zval =  6.0
     Generated using "atomic" code by A. Dal Corso  v.5.0.99 svn rev. 10869
     Shape of augmentation charge: BESSEL
     Using radial grid of 1095 points,  4 beta functions with:
                l(1) =   0
                l(2) =   0
                l(3) =   1
                l(4) =   1
     Q(r) pseudized with 0 coefficients

     atomic species   valence    mass     pseudopotential
        Na             9.00    22.98977     Na( 1.00)
        La            11.00   138.90547     La( 1.00)
        Nb            13.00    92.90637     Nb( 1.00)
        O              6.00    15.99900     O ( 1.00)

      8 Sym. Ops. (no inversion) found

                                    s                        frac. trans.

      isym =  1     identity

 cryst.   s( 1) = (     1          0          0      )
                  (     0          1          0      )
                  (     0          0          1      )

 cart.    s( 1) = (  1.0000000  0.0000000  0.0000000 )
                  (  0.0000000  1.0000000  0.0000000 )
                  (  0.0000000  0.0000000  1.0000000 )

      isym =  2     180 deg rotation - cart. axis [0,0,1]

[...]

      isym =  4     180 deg rotation - cart. axis [1,-1,0]

[...]

      isym =  5     inv. 180 deg rotation - cart. axis [0,1,0]

[...]

      isym =  8     inv.  90 deg rotation - cart. axis [0,0,1]

 cryst.   s( 8) = (     0         -1          0      )
                  (     1          0          0      )
                  (     1          0         -1      )

 cart.    s( 8) = (  0.0000000  1.0000000  0.0000001 )
                  ( -1.0000000  0.0000000  0.0000000 )
                  (  0.0000000  0.0000000 -1.0000000 )

   Cartesian axes

     site n.     atom                  positions (alat units)
         1           Na  tau(   1) = (   0.9999999   0.4999999   1.3778813  )
         2           La  tau(   2) = (   0.0000000   0.0000000   0.0000000  )
         3           Nb  tau(   3) = (   0.5000000   0.5000000   0.5872144  )
         4           Nb  tau(   4) = (   0.9999999   0.9999999   2.1685482  )
         5           O   tau(   5) = (   0.9999994   0.4999994   2.2793932  )
         6           O   tau(   6) = (   0.4999994   0.9999994   2.2836867  )
         7           O   tau(   7) = (   0.5000005   1.0000005   0.4720759  )
         8           O   tau(   8) = (   1.0000005   0.5000005   0.4763694  )
         9           O   tau(   9) = (   0.5000005   0.5000005   1.0469280  )
        10           O   tau(  10) = (   0.9999994   0.9999994   1.7088346  )
        11           O   tau(  11) = (   0.5000000   0.5000000   0.0000000  )

   Crystallographic axes

     site n.     atom                  positions (cryst. coord.)
         1           Na  tau(   1) = (  0.7500000  0.2500000  0.5000000  )
         2           La  tau(   2) = (  0.0000000  0.0000000  0.0000000  )
         3           Nb  tau(   3) = (  0.3934570  0.3934570  0.2130860  )
         4           Nb  tau(   4) = (  0.6065430  0.6065430  0.7869140  )
         5           O   tau(   5) = (  0.5864310  0.0864310  0.8271370  )
         6           O   tau(   6) = (  0.0856520  0.5856520  0.8286950  )
         7           O   tau(   7) = (  0.4143480  0.9143480  0.1713050  )
         8           O   tau(   8) = (  0.9135690  0.4135690  0.1728630  )
         9           O   tau(   9) = (  0.3100480  0.3100480  0.3799050  )
        10           O   tau(  10) = (  0.6899520  0.6899520  0.6200950  )
        11           O   tau(  11) = (  0.5000000  0.5000000  0.0000000  )

     number of k points=     6
                       cart. coord. in units 2pi/alat
        k(    1) = (   0.0000000   0.0000000   0.0000000), wk =   0.0740741
        k(    2) = (   0.0000000   0.0000000   0.1209587), wk =   0.1481481
        k(    3) = (   0.0000000   0.3333333  -0.0604793), wk =   0.5925926
        k(    4) = (   0.0000000   0.3333333  -0.1814380), wk =   0.2962963
        k(    5) = (   0.3333333   0.3333333  -0.1209586), wk =   0.5925926
        k(    6) = (   0.3333333   0.3333333   0.0000000), wk =   0.2962963

                       cryst. coord.
        k(    1) = (   0.0000000   0.0000000   0.0000000), wk =   0.0740741
        k(    2) = (   0.0000000   0.0000000   0.3333333), wk =   0.1481481
        k(    3) = (   0.0000000   0.3333333  -0.0000000), wk =   0.5925926
        k(    4) = (   0.0000000   0.3333333  -0.3333333), wk =   0.2962963
        k(    5) = (   0.3333333   0.3333333  -0.0000000), wk =   0.5925926
        k(    6) = (   0.3333333   0.3333333   0.3333333), wk =   0.2962963

     Check: negative core charge=   -0.000017

     Initial potential from superposition of free atoms

     starting charge      87.9809, renormalised to      88.0000

     negative rho (up, down):  7.305E-05 0.000E+00
     Starting wfcs are   85 randomized atomic wfcs
     Checking if some PAW data can be deallocated...

     Self-consistent Calculation

     iteration #  1     ecut=    30.00 Ry     beta= 0.70
     Davidson diagonalization with overlap

     ethr =  1.00E-02,  avg # of iterations =  2.5

     negative rho (up, down):  3.683E-04 0.000E+00

     total energy              =   -1511.74372138 Ry
     estimated scf accuracy    <       5.16528118 Ry

[...]

     total energy              =   -1514.58405573 Ry
     estimated scf accuracy    <       0.00000186 Ry

     iteration # 14     ecut=    30.00 Ry     beta= 0.70
     Davidson diagonalization with overlap

     ethr =  2.12E-09,  avg # of iterations =  6.8

     negative rho (up, down):  1.490E-04 0.000E+00

     End of self-consistent calculation

          k = 0.0000 0.0000 0.0000 (  3167 PWs)   bands (ev):

   -48.2980 -48.2978 -42.6683 -24.5314 -24.4944 -24.4313 -24.4313 -24.3995
   -24.3995 -24.0633 -14.6202 -14.5670 -14.5670 -11.4880 -11.1263 -10.7150
   -10.6847  -9.4989  -9.2932  -8.7336  -7.5669  -7.5669  -7.2403   2.5854
     2.7849   2.7849   2.9156   2.9156   3.2745   3.7247   4.3105   4.3937
     4.5284   4.5284   4.7364   4.7707   4.7707   5.2793   5.2793   5.4594
     5.4594   6.3122   6.4082   6.4082   8.1705   8.2157  10.8395  10.8968
    10.9900  10.9900  11.0099  11.0099  11.0285  11.1272  11.1272  11.2289
    11.2907  11.4056  11.4056  11.5435  12.4475  12.6690  12.7709  13.0081

     occupation numbers
     1.0000   1.0000   1.0000   1.0000   1.0000   1.0000   1.0000   1.0000
     1.0000   1.0000   1.0000   1.0000   1.0000   1.0000   1.0000   1.0000
     1.0000   1.0000   1.0000   1.0000   1.0000   1.0000   1.0000   1.0000
     1.0000   1.0000   1.0000   1.0000   1.0000   1.0000   1.0000   1.0000
     1.0000   1.0000   1.0000   1.0000   1.0000   1.0000   1.0000   1.0000
     1.0000   1.0000   1.0000   1.0000   0.0000   0.0000   0.0000   0.0000
     0.0000   0.0000   0.0000   0.0000   0.0000   0.0000   0.0000   0.0000
     0.0000   0.0000   0.0000   0.0000   0.0000   0.0000   0.0000   0.0000

[...]

          k = 0.3333 0.3333 0.0000 (  3127 PWs)   bands (ev):

   -48.2932 -48.2930 -42.6674 -24.5503 -24.5442 -24.5156 -24.5111 -24.4849
   -24.4769 -24.0095 -14.6095 -14.5880 -14.5838 -10.6562 -10.4886 -10.4476
   -10.2000  -9.4773  -9.2844  -8.8930  -7.6438  -7.5247  -7.1871   1.6348
     1.7026   1.7688   2.0372   2.1775   2.4288   3.0200   3.5504   3.6782
     3.7687   3.9204   4.2861   4.9546   5.1623   5.1849   5.3504   5.4994
     5.6129   6.0871   6.1580   6.4681  10.2461  10.4108  10.4927  10.5116
    10.7129  10.8032  10.9076  10.9320  10.9873  10.9955  11.0353  11.0626
    11.1238  12.7765  13.1054  13.4089  13.4658  13.9702  14.1286  14.3638

     occupation numbers
     1.0000   1.0000   1.0000   1.0000   1.0000   1.0000   1.0000   1.0000
     1.0000   1.0000   1.0000   1.0000   1.0000   1.0000   1.0000   1.0000
     1.0000   1.0000   1.0000   1.0000   1.0000   1.0000   1.0000   1.0000
     1.0000   1.0000   1.0000   1.0000   1.0000   1.0000   1.0000   1.0000
     1.0000   1.0000   1.0000   1.0000   1.0000   1.0000   1.0000   1.0000
     1.0000   1.0000   1.0000   1.0000   0.0000   0.0000   0.0000   0.0000
     0.0000   0.0000   0.0000   0.0000   0.0000   0.0000   0.0000   0.0000
     0.0000   0.0000   0.0000   0.0000   0.0000   0.0000   0.0000   0.0000

     highest occupied, lowest unoccupied level (ev):     6.4681    8.1705

!    total energy              =   -1514.58405635 Ry
     estimated scf accuracy    <       0.00000059 Ry

     The total energy is the sum of the following terms:
     one-electron contribution =    -367.01842036 Ry
     hartree contribution      =     228.15338138 Ry
     xc contribution           =    -137.36689945 Ry
     ewald contribution        =    -361.10408978 Ry
     one-center paw contrib.   =    -877.24802812 Ry
      -> PAW hartree energy AE =      33.79747583 Ry
      -> PAW hartree energy PS =     -33.80020317 Ry
      -> PAW xc energy AE      =    -405.22990017 Ry
      -> PAW xc energy PS      =      11.62994701 Ry
      -> total E_H with PAW    =     228.15065403 Ry
      -> total E_XC with PAW   =    -530.96685262 Ry

     convergence has been achieved in  14 iterations

     Writing all to output data dir bands_nm/myprefix.save/

     General routines

     Parallel routines

     PAW routines

   This run was terminated on:  18:25:48  14Jul2023

   JOB DONE.