     Program PWSCF v.7.1 starts on 16Jul2023 at  4:33:43

     Reading input from espresso_18848.pwi
Warning: card &CELL ignored
Warning: card / ignored

     Current dimensions of program PWSCF are:
     Max number of different atomic species (ntypx) = 10
     Max number of k-points (npk) =  40000
     Max angular momentum in pseudopotentials (lmaxx) =  4
     file O.pbe-n-kjpaw_psl.0.1.UPF: wavefunction(s)  2P renormalized
     Message from routine setup:
     using ibrav=0 with symmetry is DISCOURAGED, use correct ibrav instead

     K-points division:     npool     =       2
     R & G space division:  proc/nbgrp/npool/nimage =       4
     Subspace diagonalization in iterative solution of the eigenvalue problem:
     a serial algorithm will be used

     Using Slab Decomposition

     bravais-lattice index     =            0
     lattice parameter (alat)  =      10.9459  a.u.
     unit-cell volume          =     982.5863 (a.u.)^3
     number of atoms/cell      =           14
     number of atomic types    =            4
     number of electrons       =       114.00
     number of Kohn-Sham states=           64
     kinetic-energy cutoff     =      30.0000  Ry
     charge density cutoff     =     240.0000  Ry
     scf convergence threshold =      1.0E-06
     mixing beta               =       0.7000
     number of iterations used =            8  plain     mixing
     Exchange-correlation= SLA  PW   PBX  PBC
                           (   1   4   3   4   0   0   0)

     celldm(1)=  10.945938  celldm(2)=   0.000000  celldm(3)=   0.000000
     celldm(4)=   0.000000  celldm(5)=   0.000000  celldm(6)=   0.000000

     crystal axes: (cart. coord. in units of alat)
               a(1) = (   1.000000   0.000000   0.000000 )
               a(2) = (   0.488897   0.899188   0.000000 )
               a(3) = (   0.028493  -0.552204   0.833223 )

     reciprocal axes: (cart. coord. in units 2 pi/alat)
               b(1) = (  1.000000 -0.543709 -0.394530 )
               b(2) = (  0.000000  1.112114  0.737034 )
               b(3) = (  0.000000  0.000000  1.200159 )

     PseudoPot. # 1 for Li read from file:
     /lustre07/scratch/pragov/crystal_structure_design/utils/SSSP/li_pbe_v1.4.uspp.F.UPF
     MD5 check sum: e912e257baa3777c20ea3d68f190483c
     Pseudo is Ultrasoft, Zval =  3.0
     Generated by new atomic code, or converted to UPF format
     Using radial grid of  751 points,  5 beta functions with:
                l(1) =   0
                l(2) =   0
                l(3) =   0
                l(4) =   1
                l(5) =   1
     Q(r) pseudized with 10 coefficients,  rinner =    1.150   1.150   1.150

     PseudoPot. # 2 for Ti read from file:
     /lustre07/scratch/pragov/crystal_structure_design/utils/SSSP/ti_pbe_v1.4.uspp.F.UPF
     MD5 check sum: 88a00a6731bd790ddea75d31a80cb452
     Pseudo is Ultrasoft + core correction, Zval = 12.0
     Generated by new atomic code, or converted to UPF format
     Using radial grid of  851 points,  6 beta functions with:
                l(1) =   0
                l(2) =   0
                l(3) =   1
                l(4) =   1
                l(5) =   2
                l(6) =   2
     Q(r) pseudized with  6 coefficients,  rinner =    1.000   1.000   1.000
                                                       1.000   1.000

     PseudoPot. # 3 for Ni read from file:
     /lustre07/scratch/pragov/crystal_structure_design/utils/SSSP/ni_pbe_v1.4.uspp.F.UPF
     MD5 check sum: 1ee80287db30b12d2bc1f57a5b5d6409
     Pseudo is Ultrasoft + core correction, Zval = 18.0
     Generated by new atomic code, or converted to UPF format
     Using radial grid of  865 points,  6 beta functions with:
                l(1) =   0
                l(2) =   0
                l(3) =   1
                l(4) =   1
                l(5) =   2
                l(6) =   2
     Q(r) pseudized with 10 coefficients,  rinner =    0.980   0.980   0.980
                                                       0.980   0.980

     PseudoPot. # 4 for O  read from file:
     /lustre07/scratch/pragov/crystal_structure_design/utils/SSSP/O.pbe-n-kjpaw_psl.0.1.UPF
     MD5 check sum: 0234752ac141de4415c5fc33072bef88
     Pseudo is Projector augmented-wave + core cor, Zval =  6.0
     Generated using "atomic" code by A. Dal Corso  v.5.0.99 svn rev. 10869
     Shape of augmentation charge: BESSEL
     Using radial grid of 1095 points,  4 beta functions with:
                l(1) =   0
                l(2) =   0
                l(3) =   1
                l(4) =   1
     Q(r) pseudized with 0 coefficients

     atomic species   valence    mass     pseudopotential
        Li             3.00     6.94000     Li( 1.00)
        Ti            12.00    47.86700     Ti( 1.00)
        Ni            18.00    58.69340     Ni( 1.00)
        O              6.00    15.99900     O ( 1.00)

      2 Sym. Ops., with inversion, found

                                    s                        frac. trans.

      isym =  1     identity

 cryst.   s( 1) = (     1          0          0      )
                  (     0          1          0      )
                  (     0          0          1      )

 cart.    s( 1) = (  1.0000000 -0.0000000 -0.0000000 )
                  (  0.0000000  1.0000000  0.0000000 )
                  (  0.0000000  0.0000000  1.0000000 )

      isym =  2     inversion

 cryst.   s( 2) = (    -1          0          0      )
                  (     0         -1          0      )
                  (     0          0         -1      )

 cart.    s( 2) = ( -1.0000000  0.0000000  0.0000000 )
                  (  0.0000000 -1.0000000  0.0000000 )
                  (  0.0000000  0.0000000 -1.0000000 )

   Cartesian axes

     site n.     atom                  positions (alat units)
         1           Li  tau(   1) = (   0.2566201   0.1590907   0.0991635  )
         2           Li  tau(   2) = (   1.2607706   0.1878935   0.7340594  )
         3           Ti  tau(   3) = (   1.5031420   0.6230842   0.4166131  )
         4           Ti  tau(   4) = (   0.7586949   0.1734916   0.4166123  )
         5           Ni  tau(   5) = (   0.5142442  -0.2760973   0.4166098  )
         6           Ni  tau(   6) = (   0.7444506   0.4495905   0.0000000  )
         7           O   tau(   7) = (   0.5234299   0.3334382   0.2237612  )
         8           O   tau(   8) = (   0.7588473   0.4747600   0.5919299  )
         9           O   tau(   9) = (   0.7585423  -0.1277752   0.2412922  )
        10           O   tau(  10) = (   0.9939603   0.0135446   0.6094625  )
        11           O   tau(  11) = (   0.7532886   0.7396757   0.2292296  )
        12           O   tau(  12) = (   0.9720835   0.3203828   0.2064568  )
        13           O   tau(  13) = (   0.7640991  -0.3926904   0.6039916  )
        14           O   tau(  14) = (   0.5453073   0.0266004   0.6267677  )

   Crystallographic axes

     site n.     atom                  positions (cryst. coord.)
         1           Li  tau(   1) = (  0.1309980  0.2500140  0.1190120  )
         2           Li  tau(   2) = (  0.8690030  0.7499860  0.8809880  )
         3           Ti  tau(   3) = (  0.9999990  0.9999990  0.5000020  )
         4           Ti  tau(   4) = (  0.5000000  0.5000000  0.5000010  )
         5           Ni  tau(   5) = (  0.4999960  0.0000040  0.4999980  )
         6           Ni  tau(   6) = (  0.5000040  0.4999960  0.0000000  )
         7           O   tau(   7) = (  0.2538560  0.5357410  0.2685490  )
         8           O   tau(   8) = (  0.2671820  0.9642600  0.7104100  )
         9           O   tau(   9) = (  0.7328180  0.0357400  0.2895890  )
        10           O   tau(  10) = (  0.7461450  0.4642580  0.7314520  )
        11           O   tau(  11) = (  0.2606820  0.9915540  0.2751120  )
        12           O   tau(  12) = (  0.7164350  0.5084680  0.2477810  )
        13           O   tau(  13) = (  0.7393160  0.0084460  0.7248860  )
        14           O   tau(  14) = (  0.2835660  0.4915320  0.7522210  )

     number of k points=    14
                       cart. coord. in units 2pi/alat
        k(    1) = (   0.0000000   0.0000000   0.0000000), wk =   0.0740741
        k(    2) = (   0.0000000   0.0000000   0.4000530), wk =   0.1481481
        k(    3) = (   0.0000000   0.3707047   0.2456781), wk =   0.1481481
        k(    4) = (   0.0000000   0.3707047   0.6457311), wk =   0.1481481
        k(    5) = (   0.0000000   0.3707047  -0.1543749), wk =   0.1481481
        k(    6) = (   0.3333333  -0.1812365  -0.1315099), wk =   0.1481481
        k(    7) = (   0.3333333  -0.1812365   0.2685432), wk =   0.1481481
        k(    8) = (   0.3333333  -0.1812365  -0.5315629), wk =   0.1481481
        k(    9) = (   0.3333333   0.1894683   0.1141683), wk =   0.1481481
        k(   10) = (   0.3333333   0.1894683   0.5142213), wk =   0.1481481
        k(   11) = (   0.3333333   0.1894683  -0.2858848), wk =   0.1481481
        k(   12) = (   0.3333333  -0.5519412  -0.3771880), wk =   0.1481481
        k(   13) = (   0.3333333  -0.5519412   0.0228650), wk =   0.1481481
        k(   14) = (   0.3333333  -0.5519412  -0.7772410), wk =   0.1481481

                       cryst. coord.
        k(    1) = (   0.0000000   0.0000000   0.0000000), wk =   0.0740741
        k(    2) = (   0.0000000   0.0000000   0.3333333), wk =   0.1481481
        k(    3) = (   0.0000000   0.3333333   0.0000000), wk =   0.1481481
        k(    4) = (   0.0000000   0.3333333   0.3333333), wk =   0.1481481
        k(    5) = (   0.0000000   0.3333333  -0.3333333), wk =   0.1481481
        k(    6) = (   0.3333333   0.0000000   0.0000000), wk =   0.1481481
        k(    7) = (   0.3333333   0.0000000   0.3333333), wk =   0.1481481
        k(    8) = (   0.3333333   0.0000000  -0.3333333), wk =   0.1481481
        k(    9) = (   0.3333333   0.3333333   0.0000000), wk =   0.1481481
        k(   10) = (   0.3333333   0.3333333   0.3333333), wk =   0.1481481
        k(   11) = (   0.3333333   0.3333333  -0.3333333), wk =   0.1481481
        k(   12) = (   0.3333333  -0.3333333   0.0000000), wk =   0.1481481
        k(   13) = (   0.3333333  -0.3333333   0.3333333), wk =   0.1481481
        k(   14) = (   0.3333333  -0.3333333  -0.3333333), wk =   0.1481481

     Check: negative core charge=   -0.000018

     Initial potential from superposition of free atoms

     starting charge     107.0984, renormalised to     114.0000

     negative rho (up, down):  2.690E-03 0.000E+00
     Starting wfcs are   88 randomized atomic wfcs
     Checking if some PAW data can be deallocated...

     Self-consistent Calculation

     iteration #  1     ecut=    30.00 Ry     beta= 0.70
     Davidson diagonalization with overlap

     ethr =  1.00E-02,  avg # of iterations =  2.1

     total energy              =   -1189.75431608 Ry
     estimated scf accuracy    <     124.80485693 Ry

[...]

     negative rho (up, down):  3.410E-05 0.000E+00

[...]

     total energy              =   -1287.45219480 Ry
     estimated scf accuracy    <       0.00000214 Ry

     iteration # 36     ecut=    30.00 Ry     beta= 0.70
     Davidson diagonalization with overlap

     ethr =  1.88E-09,  avg # of iterations =  1.1

     negative rho (up, down):  2.429E-03 0.000E+00

     End of self-consistent calculation

          k = 0.0000 0.0000 0.0000 (  2735 PWs)   bands (ev):

   -96.0523 -96.0505 -56.5965 -56.5940 -56.4754 -56.4648 -56.0042 -55.9898
   -49.3760 -49.3425 -35.4746 -35.4733 -25.8752 -25.6831 -25.6534 -25.6337
   -25.5896 -25.4774 -11.0029 -10.1167  -9.7711  -9.6659  -9.6247  -9.5950
    -9.3909  -9.3130   1.5369   1.6837   2.1590   2.3878   3.2100   3.3063
     3.3188   3.4678   3.5671   3.5850   4.0496   4.0665   4.4974   4.6788
     4.6914   4.8478   5.2770   5.4116   5.4148   5.7533   6.0154   6.3598
     6.3789   6.4076   6.5514   6.5560   6.6662   6.8016   6.8160   6.9162
     8.4091   8.4418   9.1227   9.2914   9.7573  10.2988  10.5636  10.5734

     occupation numbers
     1.0000   1.0000   1.0000   1.0000   1.0000   1.0000   1.0000   1.0000
     1.0000   1.0000   1.0000   1.0000   1.0000   1.0000   1.0000   1.0000
     1.0000   1.0000   1.0000   1.0000   1.0000   1.0000   1.0000   1.0000
     1.0000   1.0000   1.0000   1.0000   1.0000   1.0000   1.0000   1.0000
     1.0000   1.0000   1.0000   1.0000   1.0000   1.0000   1.0000   1.0000
     1.0000   1.0000   1.0000   1.0000   1.0000   1.0000   1.0000   1.0000
     1.0000   1.0000   1.0000   1.0000   1.0000   1.0000   1.0000   1.0000
     1.0000   0.0000   0.0000   0.0000   0.0000   0.0000   0.0000   0.0000

[...]

          k = 0.3333-0.5519-0.7772 (  2728 PWs)   bands (ev):

   -96.0510 -96.0506 -56.5954 -56.5904 -56.4681 -56.4640 -56.0023 -55.9936
   -49.3676 -49.3507 -35.4740 -35.4736 -25.7856 -25.6630 -25.6491 -25.6444
   -25.6119 -25.5665 -10.5184 -10.1953  -9.9594  -9.8156  -9.6942  -9.6029
    -9.4702  -9.3222   2.3624   2.7060   2.7609   2.9468   3.0654   3.1433
     3.2275   3.4246   3.4892   3.5375   3.7687   3.9745   4.0778   4.2772
     4.4091   4.6907   4.8120   5.1416   5.2770   5.3118   5.3591   5.6258
     5.8816   6.1751   6.7624   7.0012   7.0556   7.1116   7.1805   7.2041
     8.3243   8.5325   8.8735   8.9163  10.1566  10.3555  10.5281  10.6068

     occupation numbers
     1.0000   1.0000   1.0000   1.0000   1.0000   1.0000   1.0000   1.0000
     1.0000   1.0000   1.0000   1.0000   1.0000   1.0000   1.0000   1.0000
     1.0000   1.0000   1.0000   1.0000   1.0000   1.0000   1.0000   1.0000
     1.0000   1.0000   1.0000   1.0000   1.0000   1.0000   1.0000   1.0000
     1.0000   1.0000   1.0000   1.0000   1.0000   1.0000   1.0000   1.0000
     1.0000   1.0000   1.0000   1.0000   1.0000   1.0000   1.0000   1.0000
     1.0000   1.0000   1.0000   1.0000   1.0000   1.0000   1.0000   1.0000
     1.0000   0.0000   0.0000   0.0000   0.0000   0.0000   0.0000   0.0000

     highest occupied, lowest unoccupied level (ev):     8.4938    8.1613

!    total energy              =   -1287.45219479 Ry
     estimated scf accuracy    <       0.00000004 Ry

     The total energy is the sum of the following terms:
     one-electron contribution =    -873.28418838 Ry
     hartree contribution      =     485.11807491 Ry
     xc contribution           =    -173.10119144 Ry
     ewald contribution        =    -649.97611963 Ry
     one-center paw contrib.   =     -76.20877026 Ry
      -> PAW hartree energy AE =       0.00000000 Ry
      -> PAW hartree energy PS =       0.00000000 Ry
      -> PAW xc energy AE      =       0.00000000 Ry
      -> PAW xc energy PS      =       0.00000000 Ry
      -> total E_H with PAW    =     485.11807491 Ry
      -> total E_XC with PAW   =    -173.10119144 Ry

     convergence has been achieved in  36 iterations

     Writing all to output data dir bands_nm/myprefix.save/

     General routines

     Parallel routines

     PAW routines

   This run was terminated on:   4:34:34  16Jul2023

   JOB DONE.