     Program PWSCF v.7.1 starts on 14Jul2023 at 19:20:53

     Reading input from espresso_21847.pwi
Warning: card &CELL ignored
Warning: card / ignored

     Current dimensions of program PWSCF are:
     Max number of different atomic species (ntypx) = 10
     Max number of k-points (npk) =  40000
     Max angular momentum in pseudopotentials (lmaxx) =  4
     file K.pbe-spn-kjpaw_psl.1.0.0.UPF: wavefunction(s)  3S renormalized
     file O.pbe-n-kjpaw_psl.0.1.UPF: wavefunction(s)  2P renormalized
     Message from routine setup:
     using ibrav=0 with symmetry is DISCOURAGED, use correct ibrav instead

     K-points division:     npool     =       2
     R & G space division:  proc/nbgrp/npool/nimage =       4
     Subspace diagonalization in iterative solution of the eigenvalue problem:
     a serial algorithm will be used

     Using Slab Decomposition

     bravais-lattice index     =            0
     lattice parameter (alat)  =      12.3895  a.u.
     unit-cell volume          =    1462.0035 (a.u.)^3
     number of atoms/cell      =           16
     number of atomic types    =            4
     number of electrons       =        80.00
     number of Kohn-Sham states=           64
     kinetic-energy cutoff     =      30.0000  Ry
     charge density cutoff     =     240.0000  Ry
     scf convergence threshold =      1.0E-06
     mixing beta               =       0.7000
     number of iterations used =            8  plain     mixing
     Exchange-correlation= SLA  PW   PBX  PBC
                           (   1   4   3   4   0   0   0)

     celldm(1)=  12.389462  celldm(2)=   0.000000  celldm(3)=   0.000000
     celldm(4)=   0.000000  celldm(5)=   0.000000  celldm(6)=   0.000000

     crystal axes: (cart. coord. in units of alat)
               a(1) = (   1.000000   0.000000   0.000000 )
               a(2) = (  -0.372940   0.927856   0.000000 )
               a(3) = (  -0.313530  -0.463928   0.828535 )

     reciprocal axes: (cart. coord. in units 2 pi/alat)
               b(1) = (  1.000000  0.401937  0.603475 )
               b(2) = (  0.000000  1.077754  0.603475 )
               b(3) = (  0.000000  0.000000  1.206950 )

     PseudoPot. # 1 for K  read from file:
     /lustre07/scratch/pragov/crystal_structure_design/utils/SSSP/K.pbe-spn-kjpaw_psl.1.0.0.UPF
     MD5 check sum: 7d58810084cac21f60fbe77ea2b688fd
     Pseudo is Projector augmented-wave + core cor, Zval =  9.0
     Generated using "atomic" code by A. Dal Corso  v.5.1
     Shape of augmentation charge: PSQ
     Using radial grid of 1165 points,  6 beta functions with:
                l(1) =   0
                l(2) =   0
                l(3) =   1
                l(4) =   1
                l(5) =   2
                l(6) =   2
     Q(r) pseudized with 0 coefficients

     PseudoPot. # 2 for As read from file:
     /lustre07/scratch/pragov/crystal_structure_design/utils/SSSP/As.pbe-n-rrkjus_psl.0.2.UPF
     MD5 check sum: 767315de957beeeb34f87d97bf945c8f
     Pseudo is Ultrasoft + core correction, Zval =  5.0
     Generated using "atomic" code by A. Dal Corso  v.5.0.99 svn rev. 10869
     Using radial grid of 1209 points,  4 beta functions with:
                l(1) =   0
                l(2) =   0
                l(3) =   1
                l(4) =   1
     Q(r) pseudized with 0 coefficients

     PseudoPot. # 3 for H  read from file:
     /lustre07/scratch/pragov/crystal_structure_design/utils/SSSP/H.pbe-rrkjus_psl.1.0.0.UPF
     MD5 check sum: f52b6d4d1c606e5624b1dc7b2218f220
     Pseudo is Ultrasoft, Zval =  1.0
     Generated using "atomic" code by A. Dal Corso  v.5.1
     Using radial grid of  929 points,  2 beta functions with:
                l(1) =   0
                l(2) =   0
     Q(r) pseudized with 0 coefficients

     PseudoPot. # 4 for O  read from file:
     /lustre07/scratch/pragov/crystal_structure_design/utils/SSSP/O.pbe-n-kjpaw_psl.0.1.UPF
     MD5 check sum: 0234752ac141de4415c5fc33072bef88
     Pseudo is Projector augmented-wave + core cor, Zval =  6.0
     Generated using "atomic" code by A. Dal Corso  v.5.0.99 svn rev. 10869
     Shape of augmentation charge: BESSEL
     Using radial grid of 1095 points,  4 beta functions with:
                l(1) =   0
                l(2) =   0
                l(3) =   1
                l(4) =   1
     Q(r) pseudized with 0 coefficients

     atomic species   valence    mass     pseudopotential
        K              9.00    39.09830     K ( 1.00)
        As             5.00    74.92159     As( 1.00)
        H              1.00     1.00800     H ( 1.00)
        O              6.00    15.99900     O ( 1.00)

      2 Sym. Ops. (no inversion) found ( 1 have fractional translation)

                                    s                        frac. trans.

      isym =  1     identity

 cryst.   s( 1) = (     1          0          0      )
                  (     0          1          0      )
                  (     0          0          1      )

 cart.    s( 1) = (  1.0000000  0.0000000 -0.0000000 )
                  (  0.0000000  1.0000000  0.0000000 )
                  (  0.0000000  0.0000000  1.0000000 )

      isym =  2     inv. 180 deg rotation - cart. axis [0,0,1]

 cryst.   s( 2) = (     1          0          0      )    f =(  0.2500000 )
                  (     0          1          0      )       ( -0.2500000 )
                  (    -1         -1         -1      )       ( -0.5000000 )

 cart.    s( 2) = (  1.0000000  0.0000000 -0.0000000 )    f =(  0.5000000 )
                  (  0.0000000  1.0000000 -0.0000000 )       ( -0.0000000 )
                  (  0.0000000  0.0000000 -1.0000000 )       ( -0.4142674 )

   Cartesian axes

     site n.     atom                  positions (alat units)
         1           K   tau(   1) = (   0.3135302   0.4639278   0.0000000  )
         2           K   tau(   2) = (  -0.1864698   0.4639278   0.4142674  )
         3           As  tau(   3) = (   0.0000000   0.0000000   0.0000000  )
         4           As  tau(   4) = (   0.5000000   0.0000000   0.4142674  )
         5           H   tau(   5) = (   0.2996065   0.3043835   0.4920659  )
         6           H   tau(   6) = (  -0.1428414  -0.0724196   0.3364688  )
         7           H   tau(   7) = (   0.4860763  -0.1595443   0.7507361  )
         8           H   tau(   8) = (  -0.0157810   0.8554360   0.0777986  )
         9           O   tau(   9) = (   0.1827696   0.3695774   0.6203513  )
        10           O   tau(  10) = (  -0.4117183   0.7713417   0.2081834  )
        11           O   tau(  11) = (  -0.0877180   0.2420019   0.0555093  )
        12           O   tau(  12) = (  -0.2427436   0.0088624   0.4697767  )
        13           O   tau(  13) = (  -0.4292138   0.4727912   0.7730254  )
        14           O   tau(  14) = (   0.4122830   0.2420019   0.3587580  )
        15           O   tau(  15) = (   0.3692398  -0.0943513   0.6224508  )
        16           O   tau(  16) = (   0.0882827   0.7713417   0.2060839  )

   Crystallographic axes

     site n.     atom                  positions (cryst. coord.)
         1           K   tau(   1) = (  0.5000000  0.5000000  0.0000000  )
         2           K   tau(   2) = (  0.2500000  0.7500000  0.5000000  )
         3           As  tau(   3) = (  0.0000000  0.0000000  0.0000000  )
         4           As  tau(   4) = (  0.7500000  0.2500000  0.5000000  )
         5           H   tau(   5) = (  0.7188990  0.6250000  0.5938990  )
         6           H   tau(   6) = (  0.0311010  0.1250000  0.4061010  )
         7           H   tau(   7) = (  0.8750000  0.2811010  0.9061010  )
         8           H   tau(   8) = (  0.3750000  0.9688990  0.0938990  )
         9           O   tau(   9) = (  0.7056830  0.7726800  0.7487330  )
        10           O   tau(  10) = (  0.0239460  0.9569500  0.2512670  )
        11           O   tau(  11) = (  0.0430500  0.2943170  0.0669970  )
        12           O   tau(  12) = (  0.0443170  0.2930500  0.5669970  )
        13           O   tau(  13) = (  0.2273200  0.9760540  0.9330030  )
        14           O   tau(  14) = (  0.7260540  0.4773200  0.4330030  )
        15           O   tau(  15) = (  0.7069500  0.2739460  0.7512670  )
        16           O   tau(  16) = (  0.5226800  0.9556830  0.2487330  )

     number of k points=    10
                       cart. coord. in units 2pi/alat
        k(    1) = (   0.0000000   0.0000000   0.0000000), wk =   0.0740741
        k(    2) = (   0.0000000   0.0000000   0.4023167), wk =   0.1481481
        k(    3) = (   0.0000000   0.3592513   0.2011583), wk =   0.2962963
        k(    4) = (   0.0000000   0.3592513   0.6034750), wk =   0.1481481
        k(    5) = (   0.3333333   0.1339790   0.2011583), wk =   0.2962963
        k(    6) = (   0.3333333   0.1339790   0.6034750), wk =   0.1481481
        k(    7) = (   0.3333333   0.4932303   0.4023167), wk =   0.2962963
        k(    8) = (   0.3333333   0.4932303  -0.0000000), wk =   0.1481481
        k(    9) = (   0.3333333  -0.2252723  -0.0000000), wk =   0.1481481
        k(   10) = (   0.3333333  -0.2252723   0.4023167), wk =   0.2962963

                       cryst. coord.
        k(    1) = (   0.0000000   0.0000000   0.0000000), wk =   0.0740741
        k(    2) = (   0.0000000   0.0000000   0.3333333), wk =   0.1481481
        k(    3) = (   0.0000000   0.3333333   0.0000000), wk =   0.2962963
        k(    4) = (   0.0000000   0.3333333   0.3333333), wk =   0.1481481
        k(    5) = (   0.3333333   0.0000000   0.0000000), wk =   0.2962963
        k(    6) = (   0.3333333   0.0000000   0.3333333), wk =   0.1481481
        k(    7) = (   0.3333333   0.3333333   0.0000000), wk =   0.2962963
        k(    8) = (   0.3333333   0.3333333  -0.3333333), wk =   0.1481481
        k(    9) = (   0.3333333  -0.3333333  -0.0000000), wk =   0.1481481
        k(   10) = (   0.3333333  -0.3333333   0.3333333), wk =   0.2962963

     Check: negative core charge=   -0.000009

     Initial potential from superposition of free atoms

     starting charge      79.9618, renormalised to      80.0000
     Starting wfcs are   60 randomized atomic wfcs +    4 random wfcs
     Checking if some PAW data can be deallocated...

     Self-consistent Calculation

     iteration #  1     ecut=    30.00 Ry     beta= 0.70
     Davidson diagonalization with overlap

     ethr =  1.00E-02,  avg # of iterations =  8.4

     total energy              =    -599.14404102 Ry
     estimated scf accuracy    <       2.55828567 Ry

[...]

     total energy              =    -600.28772975 Ry
     estimated scf accuracy    <       0.00000655 Ry

     iteration #  8     ecut=    30.00 Ry     beta= 0.70
     Davidson diagonalization with overlap

     ethr =  8.19E-09,  avg # of iterations =  1.0

     End of self-consistent calculation

          k = 0.0000 0.0000 0.0000 (  4053 PWs)   bands (ev):

   -25.3910 -25.3786 -17.8729 -17.0272 -16.1850 -16.1850 -16.0673 -15.1247
   -15.0896 -15.0895  -8.9231  -8.9231  -8.9113  -8.8693  -8.8693  -8.8395
    -7.5106  -5.9048  -4.8446  -4.3093  -4.3093  -2.3213  -2.3212  -1.8889
    -1.7927  -1.5673  -0.9532  -0.9532  -0.0996   0.4029   0.5499   0.7364
     0.7364   0.8912   0.9927   1.1291   1.1291   1.3253   1.3254   1.3673
     5.5641   7.6609   9.4234   9.4234   9.6252   9.9833  10.0671  10.5390
    10.5554  10.5554  11.0525  11.0525  11.6702  11.6702  11.7620  12.0316
    12.3842  12.6079  13.7740  13.7767  13.8316  13.8874  13.8874  14.2209

     occupation numbers
     1.0000   1.0000   1.0000   1.0000   1.0000   1.0000   1.0000   1.0000
     1.0000   1.0000   1.0000   1.0000   1.0000   1.0000   1.0000   1.0000
     1.0000   1.0000   1.0000   1.0000   1.0000   1.0000   1.0000   1.0000
     1.0000   1.0000   1.0000   1.0000   1.0000   1.0000   1.0000   1.0000
     1.0000   1.0000   1.0000   1.0000   1.0000   1.0000   1.0000   1.0000
     0.0000   0.0000   0.0000   0.0000   0.0000   0.0000   0.0000   0.0000
     0.0000   0.0000   0.0000   0.0000   0.0000   0.0000   0.0000   0.0000
     0.0000   0.0000   0.0000   0.0000   0.0000   0.0000   0.0000   0.0000

[...]

          k = 0.3333-0.2253 0.4023 (  4066 PWs)   bands (ev):

   -25.3862 -25.3831 -17.6410 -17.4495 -16.2039 -16.1647 -15.6404 -15.4026
   -15.0827 -15.0641  -8.9404  -8.9242  -8.8856  -8.8826  -8.8687  -8.8580
    -7.0601  -6.7031  -4.4972  -4.2920  -3.5935  -3.1232  -2.2738  -2.0632
    -1.4278  -1.2957  -1.2040  -1.0953  -0.0427   0.0573   0.5891   0.6767
     0.8545   0.8989   0.9548   0.9992   1.1005   1.2327   1.3759   1.4015
     6.8134   7.2953   8.6198   8.7607   9.4567   9.6369  10.1969  10.2976
    10.7755  10.8584  11.2247  11.3823  11.3833  11.7812  12.0173  12.1567
    12.6319  12.8759  12.9272  13.0123  13.5297  13.7377  14.4720  14.6960

     occupation numbers
     1.0000   1.0000   1.0000   1.0000   1.0000   1.0000   1.0000   1.0000
     1.0000   1.0000   1.0000   1.0000   1.0000   1.0000   1.0000   1.0000
     1.0000   1.0000   1.0000   1.0000   1.0000   1.0000   1.0000   1.0000
     1.0000   1.0000   1.0000   1.0000   1.0000   1.0000   1.0000   1.0000
     1.0000   1.0000   1.0000   1.0000   1.0000   1.0000   1.0000   1.0000
     0.0000   0.0000   0.0000   0.0000   0.0000   0.0000   0.0000   0.0000
     0.0000   0.0000   0.0000   0.0000   0.0000   0.0000   0.0000   0.0000
     0.0000   0.0000   0.0000   0.0000   0.0000   0.0000   0.0000   0.0000

     highest occupied, lowest unoccupied level (ev):     1.4116    5.5641

!    total energy              =    -600.28772998 Ry
     estimated scf accuracy    <       0.00000070 Ry

     The total energy is the sum of the following terms:
     one-electron contribution =    -181.11238954 Ry
     hartree contribution      =     128.48841072 Ry
     xc contribution           =    -103.45403963 Ry
     ewald contribution        =    -257.17246505 Ry
     one-center paw contrib.   =    -187.03724648 Ry
      -> PAW hartree energy AE =      75.41994404 Ry
      -> PAW hartree energy PS =     -74.99937458 Ry
      -> PAW xc energy AE      =    -132.44071430 Ry
      -> PAW xc energy PS      =      21.18536676 Ry
      -> total E_H with PAW    =     128.90898018 Ry
      -> total E_XC with PAW   =    -214.70938718 Ry

     convergence has been achieved in   8 iterations

     Writing all to output data dir bands_nm/myprefix.save/

     General routines

     Parallel routines

     PAW routines

   This run was terminated on:  19:21: 3  14Jul2023

   JOB DONE.