     Program PWSCF v.7.1 starts on 15Jul2023 at 22: 5:21

     Reading input from espresso_15739.pwi
Warning: card &CELL ignored
Warning: card / ignored

     Current dimensions of program PWSCF are:
     Max number of different atomic species (ntypx) = 10
     Max number of k-points (npk) =  40000
     Max angular momentum in pseudopotentials (lmaxx) =  4
     file Ga.pbe-dn-kjpaw_psl.1.0.0.UPF: wavefunction(s)  4S renormalized
     Message from routine setup:
     using ibrav=0 with symmetry is DISCOURAGED, use correct ibrav instead

     K-points division:     npool     =       2
     R & G space division:  proc/nbgrp/npool/nimage =       4
     Subspace diagonalization in iterative solution of the eigenvalue problem:
     one sub-group per band group will be used

     Using Slab Decomposition

     bravais-lattice index     =            0
     lattice parameter (alat)  =      19.4143  a.u.
     unit-cell volume          =    2013.8881 (a.u.)^3
     number of atoms/cell      =           20
     number of atomic types    =            4
     number of electrons       =       152.00
     number of Kohn-Sham states=          256
     kinetic-energy cutoff     =      30.0000  Ry
     charge density cutoff     =     240.0000  Ry
     scf convergence threshold =      1.0E-06
     mixing beta               =       0.7000
     number of iterations used =            8  plain     mixing
     Exchange-correlation=  SLA  PW   PBX  PBC
                           (   1   4   3   4   0   0   0)

     celldm(1)=  19.414316  celldm(2)=   0.000000  celldm(3)=   0.000000
     celldm(4)=   0.000000  celldm(5)=   0.000000  celldm(6)=   0.000000

     crystal axes: (cart. coord. in units of alat)
               a(1) = (   1.000000   0.000000   0.000000 )
               a(2) = (   0.831341   0.555763   0.000000 )
               a(3) = (   0.831341   0.252290   0.495199 )

     reciprocal axes: (cart. coord. in units 2 pi/alat)
               b(1) = (  1.000000 -1.495856 -0.916706 )
               b(2) = (  0.000000  1.799329 -0.916706 )
               b(3) = (  0.000000  0.000000  2.019390 )

     PseudoPot. # 1 for Rb read from file:
     /lustre07/scratch/pragov/crystal_structure_design/utils/SSSP/Rb_ONCV_PBE-1.0.oncvpsp.upf
     MD5 check sum: 55a5172d6bfbce6759a58e35d43f6aa9
     Pseudo is Norm-conserving, Zval =  9.0
     Generated using ONCVPSP code by D. R. Hamann
     Using radial grid of 2308 points,  6 beta functions with:
                l(1) =   0
                l(2) =   0
                l(3) =   1
                l(4) =   1
                l(5) =   2
                l(6) =   2

     PseudoPot. # 2 for Li read from file:
     /lustre07/scratch/pragov/crystal_structure_design/utils/SSSP/li_pbe_v1.4.uspp.F.UPF
     MD5 check sum: e912e257baa3777c20ea3d68f190483c
     Pseudo is Ultrasoft, Zval =  3.0
     Generated by new atomic code, or converted to UPF format
     Using radial grid of  751 points,  5 beta functions with:
                l(1) =   0
                l(2) =   0
                l(3) =   0
                l(4) =   1
                l(5) =   1
     Q(r) pseudized with 10 coefficients,  rinner =    1.150   1.150   1.150

     PseudoPot. # 3 for Ga read from file:
     /lustre07/scratch/pragov/crystal_structure_design/utils/SSSP/Ga.pbe-dn-kjpaw_psl.1.0.0.UPF
     MD5 check sum: a27b4342b1af7e5f338de752e9ed7044
     Pseudo is Projector augmented-wave + core cor, Zval = 13.0
     Generated using "atomic" code by A. Dal Corso  v.5.1
     Shape of augmentation charge: PSQ
     Using radial grid of 1205 points,  6 beta functions with:
                l(1) =   0
                l(2) =   0
                l(3) =   1
                l(4) =   1
                l(5) =   2
                l(6) =   2
     Q(r) pseudized with 0 coefficients

     PseudoPot. # 4 for F  read from file:
     /lustre07/scratch/pragov/crystal_structure_design/utils/SSSP/f_pbe_v1.4.uspp.F.UPF
     MD5 check sum: 4c38b6a325caf53ec0e86aed9459de46
     Pseudo is Ultrasoft, Zval =  7.0
     Generated by new atomic code, or converted to UPF format
     Using radial grid of  799 points,  4 beta functions with:
                l(1) =   0
                l(2) =   0
                l(3) =   1
                l(4) =   1
     Q(r) pseudized with  8 coefficients,  rinner =    0.950   0.950   0.950

     atomic species   valence    mass     pseudopotential
        Rb             9.00    85.46780     Rb( 1.00)
        Li             3.00     6.94000     Li( 1.00)
        Ga            13.00    69.72300     Ga( 1.00)
        F              7.00    18.99840     F ( 1.00)

      2 Sym. Ops., with inversion, found

                                    s                        frac. trans.

      isym =  1     identity

 cryst.   s( 1) = (     1          0          0      )
                  (     0          1          0      )
                  (     0          0          1      )

 cart.    s( 1) = (  1.0000000 -0.0000000  0.0000000 )
                  (  0.0000000  1.0000000  0.0000000 )
                  (  0.0000000  0.0000000  1.0000000 )

      isym =  2     inversion

 cryst.   s( 2) = (    -1          0          0      )
                  (     0         -1          0      )
                  (     0          0         -1      )

 cart.    s( 2) = ( -1.0000000  0.0000000  0.0000000 )
                  (  0.0000000 -1.0000000  0.0000000 )
                  (  0.0000000  0.0000000 -1.0000000 )

   Cartesian axes

     site n.     atom                  positions (alat units)
         1           Rb  tau(   1) = (   1.9094732   0.5794736   0.3551191  )
         2           Rb  tau(   2) = (   0.7532089   0.2285786   0.1400799  )
         3           Rb  tau(   3) = (   2.3230251   0.7049755   0.4320304  )
         4           Rb  tau(   4) = (   0.3396571   0.1030768   0.0631686  )
         5           Li  tau(   5) = (   1.0758780   0.3265000   0.2000891  )
         6           Li  tau(   6) = (   1.5868041   0.4815523   0.2951099  )
         7           Ga  tau(   7) = (   1.3313411   0.4040261   0.2475995  )
         8           Ga  tau(   8) = (   0.0000000   0.0000000   0.0000000  )
         9           F   tau(   9) = (   0.9585972   0.4530725   0.0956596  )
        10           F   tau(  10) = (   1.7040849   0.3549797   0.3995394  )
        11           F   tau(  11) = (   0.9585972   0.2909084   0.3602746  )
        12           F   tau(  12) = (   1.0487220   0.1560947   0.0956596  )
        13           F   tau(  13) = (   1.7040849   0.5171438   0.1349244  )
        14           F   tau(  14) = (   1.6139602   0.6519575   0.3995394  )
        15           F   tau(  15) = (   1.1736734   0.4902736   0.3004546  )
        16           F   tau(  16) = (   1.2481986   0.3787946   0.0816415  )
        17           F   tau(  17) = (   1.2481986   0.2446993   0.3004546  )
        18           F   tau(  18) = (   1.4144835   0.5633529   0.1947444  )
        19           F   tau(  19) = (   1.4890087   0.3177787   0.1947444  )
        20           F   tau(  20) = (   1.4144835   0.4292576   0.4135575  )

   Crystallographic axes

     site n.     atom                  positions (cryst. coord.)
         1           Rb  tau(   1) = (  0.7171240  0.7171240  0.7171240  )
         2           Rb  tau(   2) = (  0.2828760  0.2828760  0.2828760  )
         3           Rb  tau(   3) = (  0.8724380  0.8724380  0.8724380  )
         4           Rb  tau(   4) = (  0.1275620  0.1275620  0.1275620  )
         5           Li  tau(   5) = (  0.4040580  0.4040580  0.4040580  )
         6           Li  tau(   6) = (  0.5959420  0.5959420  0.5959420  )
         7           Ga  tau(   7) = (  0.5000000  0.5000000  0.5000000  )
         8           Ga  tau(   8) = (  0.0000000  0.0000000  0.0000000  )
         9           F   tau(   9) = (  0.1931740  0.7275350  0.1931740  )
        10           F   tau(  10) = (  0.8068260  0.2724650  0.8068260  )
        11           F   tau(  11) = (  0.1931740  0.1931740  0.7275350  )
        12           F   tau(  12) = (  0.7275350  0.1931740  0.1931740  )
        13           F   tau(  13) = (  0.8068260  0.8068260  0.2724650  )
        14           F   tau(  14) = (  0.2724650  0.8068260  0.8068260  )
        15           F   tau(  15) = (  0.1648660  0.6067350  0.6067350  )
        16           F   tau(  16) = (  0.6067350  0.6067350  0.1648660  )
        17           F   tau(  17) = (  0.6067350  0.1648660  0.6067350  )
        18           F   tau(  18) = (  0.3932650  0.8351340  0.3932650  )
        19           F   tau(  19) = (  0.8351340  0.3932650  0.3932650  )
        20           F   tau(  20) = (  0.3932650  0.3932650  0.8351340  )

     number of k points=    14
                       cart. coord. in units 2pi/alat
        k(    1) = (   0.0000000   0.0000000   0.0000000), wk =   0.0740741
        k(    2) = (   0.0000000   0.0000000   0.6731301), wk =   0.1481481
        k(    3) = (   0.0000000   0.5997765  -0.3055688), wk =   0.1481481
        k(    4) = (   0.0000000   0.5997765   0.3675613), wk =   0.1481481
        k(    5) = (   0.0000000   0.5997765  -0.9786989), wk =   0.1481481
        k(    6) = (   0.3333333  -0.4986188  -0.3055688), wk =   0.1481481
        k(    7) = (   0.3333333  -0.4986188   0.3675613), wk =   0.1481481
        k(    8) = (   0.3333333  -0.4986188  -0.9786989), wk =   0.1481481
        k(    9) = (   0.3333333   0.1011577  -0.6111376), wk =   0.1481481
        k(   10) = (   0.3333333   0.1011577   0.0619925), wk =   0.1481481
        k(   11) = (   0.3333333   0.1011577  -1.2842677), wk =   0.1481481
        k(   12) = (   0.3333333  -1.0983952  -0.0000000), wk =   0.1481481
        k(   13) = (   0.3333333  -1.0983952   0.6731301), wk =   0.1481481
        k(   14) = (   0.3333333  -1.0983952  -0.6731301), wk =   0.1481481

                       cryst. coord.
        k(    1) = (   0.0000000   0.0000000   0.0000000), wk =   0.0740741
        k(    2) = (   0.0000000   0.0000000   0.3333333), wk =   0.1481481
        k(    3) = (   0.0000000   0.3333333   0.0000000), wk =   0.1481481
        k(    4) = (   0.0000000   0.3333333   0.3333333), wk =   0.1481481
        k(    5) = (   0.0000000   0.3333333  -0.3333333), wk =   0.1481481
        k(    6) = (   0.3333333   0.0000000  -0.0000000), wk =   0.1481481
        k(    7) = (   0.3333333   0.0000000   0.3333333), wk =   0.1481481
        k(    8) = (   0.3333333   0.0000000  -0.3333333), wk =   0.1481481
        k(    9) = (   0.3333333   0.3333333  -0.0000000), wk =   0.1481481
        k(   10) = (   0.3333333   0.3333333   0.3333333), wk =   0.1481481
        k(   11) = (   0.3333333   0.3333333  -0.3333333), wk =   0.1481481
        k(   12) = (   0.3333333  -0.3333333  -0.0000000), wk =   0.1481481
        k(   13) = (   0.3333333  -0.3333333   0.3333333), wk =   0.1481481
        k(   14) = (   0.3333333  -0.3333333  -0.3333333), wk =   0.1481481

     Check: negative core charge=   -0.000002

     Initial potential from superposition of free atoms

     starting charge     150.9935, renormalised to     152.0000
     Starting wfcs are   96 randomized atomic wfcs +  160 random wfcs
     Checking if some PAW data can be deallocated...

     Self-consistent Calculation

     iteration #  1     ecut=    30.00 Ry     beta= 0.70
     Davidson diagonalization with overlap

     ethr =  1.00E-02,  avg # of iterations =  7.3

     total energy              =   -1364.86565654 Ry
     estimated scf accuracy    <       1.90521554 Ry

[...]

     total energy              =   -1365.67866847 Ry
     estimated scf accuracy    <       0.00000108 Ry

     iteration #  8     ecut=    30.00 Ry     beta= 0.70
     Davidson diagonalization with overlap

     ethr =  7.10E-10,  avg # of iterations =  2.6

     End of self-consistent calculation

          k = 0.0000 0.0000 0.0000 (  5551 PWs)   bands (ev):

   -39.8327 -39.8320 -20.5479 -20.4965 -20.4708 -20.4315 -18.3730 -18.3563
   -17.9900 -17.9141 -17.9139 -17.8938 -17.8061 -17.8059 -17.7871 -17.7870
   -17.7075 -17.7073  -9.9443  -9.9339  -9.9339  -9.8651  -9.8651  -9.7458
    -9.7419  -9.7419  -9.6455  -9.6455  -4.8605  -4.8605  -4.8225  -4.7741
    -4.7741  -4.6937  -4.6937  -4.6778  -4.6416  -4.5722  -4.5722  -4.5205
    -2.9320  -2.5911  -0.9758  -0.8614  -0.7429  -0.7428  -0.4247  -0.4245
     0.2970   0.5199   0.6152   0.6153   0.6229   0.6661   0.6661   0.9719
     0.9719   1.1946   1.1947   1.2141   1.2436   1.2437   1.3105   1.3106
     1.4471   1.4618   1.4619   1.4625   1.5299   1.5299   1.6156   1.6973
     1.6974   1.7738   1.7740   1.8110   7.7829   9.0364  11.0886  11.4109
    11.6845  11.6845  11.8286  11.8286  11.8841  12.0663  12.0663  12.3182
    12.3182  12.6703  13.8109  13.9522  13.9522  14.4620  14.4980  14.4980
    14.6057  14.6057  14.6206  15.3708  15.4598  15.6175  15.6175  16.0196
    16.5304  16.5304  16.6415  16.7374  16.7375  16.8692  16.8692  17.1281
    17.2699  17.2699  17.4426  17.4867  17.4867  17.5720  18.2339  18.7319
    19.0691  19.9125  19.9125  20.6577  20.6577  21.7619  21.7619  22.0473
    22.0473  22.7539  22.7539  22.9500  23.3520  23.3520  23.6053  23.6053
    23.6575  23.7106  23.9655  24.0767  24.0893  24.3285  24.3285  24.7575
    25.0302  25.3856  25.3856  25.4256  25.4256  25.5261  25.9629  26.0746
    26.0746  26.2727  26.2727  26.5481  27.2445  27.4876  27.5142  27.5142
    27.6614  27.6614  27.6739  28.3011  28.3011  28.9970  28.9970  29.4113
    29.8067  30.0222  30.0222  30.6038  30.8103  30.8103  31.0017  31.0017
    31.4729  31.4729  31.5173  31.5173  31.5550  32.0308  32.0308  32.1085
    32.4211  32.5425  32.6376  32.6376  32.6870  32.6870  33.1803  33.5529
    33.5529  33.9458  34.0764  34.1325  34.4194  34.4194  34.6571  34.6571
    35.2383  35.2383  35.3184  35.3341  35.3341  35.6358  35.6358  36.0361
    36.1231  36.1232  36.4221  36.4222  36.7059  37.0755  37.0755  37.3080
    37.3902  37.3902  37.9290  38.2125  38.2880  38.2880  38.4651  38.8002
    38.8002  38.8882  39.0967  39.4878  40.1066  40.1066  40.1932  40.4108
    40.4482  40.8606  40.8606  41.1605  41.1605  41.2040  41.3828  41.3828
    41.7772  42.0293  42.2619  42.2619  42.3571  42.3571  43.2769  43.2769
    43.4694  43.4761  43.4762  43.5334  43.6630  43.8507  43.8510  43.9411

     occupation numbers
     1.0000   1.0000   1.0000   1.0000   1.0000   1.0000   1.0000   1.0000
     1.0000   1.0000   1.0000   1.0000   1.0000   1.0000   1.0000   1.0000
     1.0000   1.0000   1.0000   1.0000   1.0000   1.0000   1.0000   1.0000
     1.0000   1.0000   1.0000   1.0000   1.0000   1.0000   1.0000   1.0000
     1.0000   1.0000   1.0000   1.0000   1.0000   1.0000   1.0000   1.0000
     1.0000   1.0000   1.0000   1.0000   1.0000   1.0000   1.0000   1.0000
     1.0000   1.0000   1.0000   1.0000   1.0000   1.0000   1.0000   1.0000
     1.0000   1.0000   1.0000   1.0000   1.0000   1.0000   1.0000   1.0000
     1.0000   1.0000   1.0000   1.0000   1.0000   1.0000   1.0000   1.0000
     1.0000   1.0000   1.0000   1.0000   0.0000   0.0000   0.0000   0.0000
     0.0000   0.0000   0.0000   0.0000   0.0000   0.0000   0.0000   0.0000
     0.0000   0.0000   0.0000   0.0000   0.0000   0.0000   0.0000   0.0000
     0.0000   0.0000   0.0000   0.0000   0.0000   0.0000   0.0000   0.0000
     0.0000   0.0000   0.0000   0.0000   0.0000   0.0000   0.0000   0.0000
     0.0000   0.0000   0.0000   0.0000   0.0000   0.0000   0.0000   0.0000
     0.0000   0.0000   0.0000   0.0000   0.0000   0.0000   0.0000   0.0000
     0.0000   0.0000   0.0000   0.0000   0.0000   0.0000   0.0000   0.0000
     0.0000   0.0000   0.0000   0.0000   0.0000   0.0000   0.0000   0.0000
     0.0000   0.0000   0.0000   0.0000   0.0000   0.0000   0.0000   0.0000
     0.0000   0.0000   0.0000   0.0000   0.0000   0.0000   0.0000   0.0000
     0.0000   0.0000   0.0000   0.0000   0.0000   0.0000   0.0000   0.0000
     0.0000   0.0000   0.0000   0.0000   0.0000   0.0000   0.0000   0.0000
     0.0000   0.0000   0.0000   0.0000   0.0000   0.0000   0.0000   0.0000
     0.0000   0.0000   0.0000   0.0000   0.0000   0.0000   0.0000   0.0000
     0.0000   0.0000   0.0000   0.0000   0.0000   0.0000   0.0000   0.0000
     0.0000   0.0000   0.0000   0.0000   0.0000   0.0000   0.0000   0.0000
     0.0000   0.0000   0.0000   0.0000   0.0000   0.0000   0.0000   0.0000
     0.0000   0.0000   0.0000   0.0000   0.0000   0.0000   0.0000   0.0000
     0.0000   0.0000   0.0000   0.0000   0.0000   0.0000   0.0000   0.0000
     0.0000   0.0000   0.0000   0.0000   0.0000   0.0000   0.0000   0.0000
     0.0000   0.0000   0.0000   0.0000   0.0000   0.0000   0.0000   0.0000
     0.0000   0.0000   0.0000   0.0000   0.0000   0.0000   0.0000   0.0000

[...]

          k = 0.3333-1.0984-0.6731 (  5608 PWs)   bands (ev):

   -39.8328 -39.8327 -20.5070 -20.5045 -20.4617 -20.4428 -18.3899 -18.3606
   -17.9800 -17.9245 -17.9161 -17.8867 -17.8252 -17.8236 -17.7991 -17.7684
   -17.7288 -17.7100  -9.9443  -9.9332  -9.9330  -9.8707  -9.8652  -9.7458
    -9.7411  -9.7402  -9.6511  -9.6456  -4.7852  -4.7799  -4.7704  -4.7681
    -4.7013  -4.6527  -4.6440  -4.5879  -4.5804  -4.5361  -4.5034  -4.4928
    -2.8126  -2.5877  -0.9187  -0.7991  -0.7398  -0.7134  -0.5305  -0.4439
     0.2104   0.3310   0.5014   0.6141   0.6666   0.7076   0.8145   0.8478
     0.8984   0.9447   1.0246   1.0572   1.1220   1.2088   1.2474   1.2566
     1.2993   1.3352   1.3653   1.4328   1.4824   1.4864   1.5502   1.5831
     1.6165   1.6281   1.6925   1.7751   8.6968   9.1397  11.1478  11.3438
    12.0645  12.0775  12.2511  12.3049  12.3103  12.6199  12.8786  12.9483
    13.1854  13.1920  13.2510  13.5107  13.8177  13.9499  14.1320  14.1839
    14.4975  14.5892  14.6374  15.1704  15.2094  15.4314  15.5563  15.5808
    15.7388  16.0060  16.3490  16.7262  16.7327  16.8967  17.0306  17.3748
    17.4316  17.4755  17.4883  17.8199  18.2708  18.4632  18.7464  19.1781
    19.1790  19.4826  19.7539  20.0005  20.2910  20.6453  20.7403  20.8720
    21.4972  21.7273  21.8569  22.1237  22.3734  22.4989  22.6790  23.0530
    23.3270  23.6234  23.8184  24.0183  24.4409  24.5091  24.7023  24.7962
    25.1018  25.4350  25.4547  25.6544  25.8205  25.9674  26.1162  26.4376
    26.5105  26.7789  26.8314  27.3920  27.3954  27.8177  28.0134  28.1281
    28.2460  28.6195  28.6467  28.7386  28.8020  29.0118  29.3522  29.5813
    29.6611  29.8436  30.0535  30.2966  30.5819  30.6099  30.8312  30.9835
    31.0024  31.1404  31.4408  31.5290  31.6327  31.8493  31.9737  32.2169
    32.3862  32.5581  32.7913  32.8523  33.0790  33.2013  33.3027  33.5096
    33.5742  33.7730  33.8313  34.0768  34.3171  34.8678  34.8736  34.9724
    35.1386  35.2678  35.5618  35.7682  35.8400  35.9425  36.1056  36.2859
    36.3389  36.4514  36.5113  36.6703  36.8213  36.9059  37.3231  37.5639
    37.7033  37.7764  37.8164  38.0066  38.3546  38.4027  38.5479  38.9412
    39.0718  39.2574  39.3171  39.5944  39.6287  39.7997  39.8998  39.9900
    40.1789  40.4765  40.4936  40.5478  40.6962  40.9700  41.0497  41.2151
    41.3523  41.4597  41.7173  41.8337  42.0305  42.1353  42.3409  42.5349
    42.5607  42.8189  42.9104  43.0606  43.2255  43.2383  43.3906  43.7380

     occupation numbers
     1.0000   1.0000   1.0000   1.0000   1.0000   1.0000   1.0000   1.0000
     1.0000   1.0000   1.0000   1.0000   1.0000   1.0000   1.0000   1.0000
     1.0000   1.0000   1.0000   1.0000   1.0000   1.0000   1.0000   1.0000
     1.0000   1.0000   1.0000   1.0000   1.0000   1.0000   1.0000   1.0000
     1.0000   1.0000   1.0000   1.0000   1.0000   1.0000   1.0000   1.0000
     1.0000   1.0000   1.0000   1.0000   1.0000   1.0000   1.0000   1.0000
     1.0000   1.0000   1.0000   1.0000   1.0000   1.0000   1.0000   1.0000
     1.0000   1.0000   1.0000   1.0000   1.0000   1.0000   1.0000   1.0000
     1.0000   1.0000   1.0000   1.0000   1.0000   1.0000   1.0000   1.0000
     1.0000   1.0000   1.0000   1.0000   0.0000   0.0000   0.0000   0.0000
     0.0000   0.0000   0.0000   0.0000   0.0000   0.0000   0.0000   0.0000
     0.0000   0.0000   0.0000   0.0000   0.0000   0.0000   0.0000   0.0000
     0.0000   0.0000   0.0000   0.0000   0.0000   0.0000   0.0000   0.0000
     0.0000   0.0000   0.0000   0.0000   0.0000   0.0000   0.0000   0.0000
     0.0000   0.0000   0.0000   0.0000   0.0000   0.0000   0.0000   0.0000
     0.0000   0.0000   0.0000   0.0000   0.0000   0.0000   0.0000   0.0000
     0.0000   0.0000   0.0000   0.0000   0.0000   0.0000   0.0000   0.0000
     0.0000   0.0000   0.0000   0.0000   0.0000   0.0000   0.0000   0.0000
     0.0000   0.0000   0.0000   0.0000   0.0000   0.0000   0.0000   0.0000
     0.0000   0.0000   0.0000   0.0000   0.0000   0.0000   0.0000   0.0000
     0.0000   0.0000   0.0000   0.0000   0.0000   0.0000   0.0000   0.0000
     0.0000   0.0000   0.0000   0.0000   0.0000   0.0000   0.0000   0.0000
     0.0000   0.0000   0.0000   0.0000   0.0000   0.0000   0.0000   0.0000
     0.0000   0.0000   0.0000   0.0000   0.0000   0.0000   0.0000   0.0000
     0.0000   0.0000   0.0000   0.0000   0.0000   0.0000   0.0000   0.0000
     0.0000   0.0000   0.0000   0.0000   0.0000   0.0000   0.0000   0.0000
     0.0000   0.0000   0.0000   0.0000   0.0000   0.0000   0.0000   0.0000
     0.0000   0.0000   0.0000   0.0000   0.0000   0.0000   0.0000   0.0000
     0.0000   0.0000   0.0000   0.0000   0.0000   0.0000   0.0000   0.0000
     0.0000   0.0000   0.0000   0.0000   0.0000   0.0000   0.0000   0.0000
     0.0000   0.0000   0.0000   0.0000   0.0000   0.0000   0.0000   0.0000
     0.0000   0.0000   0.0000   0.0000   0.0000   0.0000   0.0000   0.0000

     highest occupied, lowest unoccupied level (ev):     1.8110    7.7829

!    total energy              =   -1365.67866868 Ry
     estimated scf accuracy    <       0.00000005 Ry

     The total energy is the sum of the following terms:
     one-electron contribution =    -678.72779626 Ry
     hartree contribution      =     430.11774628 Ry
     xc contribution           =    -226.44653274 Ry
     ewald contribution        =    -668.50371869 Ry
     one-center paw contrib.   =    -222.11836727 Ry
      -> PAW hartree energy AE =       0.00000000 Ry
      -> PAW hartree energy PS =       0.00000000 Ry
      -> PAW xc energy AE      =       0.00000000 Ry
      -> PAW xc energy PS      =       0.00000000 Ry
      -> total E_H with PAW    =     430.11774628 Ry
      -> total E_XC with PAW   =    -226.44653274 Ry

     convergence has been achieved in   8 iterations

     Writing all to output data dir bands_nm/myprefix.save/

     General routines

     Parallel routines

     PAW routines

   This run was terminated on:  22: 6:56  15Jul2023

   JOB DONE.