     Program PWSCF v.7.1 starts on 17Jul2023 at  0:16:29

     Reading input from espresso_16708.pwi
Warning: card &CELL ignored
Warning: card / ignored

     Current dimensions of program PWSCF are:
     Max number of different atomic species (ntypx) = 10
     Max number of k-points (npk) =  40000
     Max angular momentum in pseudopotentials (lmaxx) =  4
     file Cu.paw.z_11.ld1.psl.v1.0.0-low.upf: wavefunction(s)  4S 3D renormalized
     Message from routine setup:
     using ibrav=0 with symmetry is DISCOURAGED, use correct ibrav instead

     K-points division:     npool     =       2
     R & G space division:  proc/nbgrp/npool/nimage =       4
     Subspace diagonalization in iterative solution of the eigenvalue problem:
     one sub-group per band group will be used

     Using Slab Decomposition

     bravais-lattice index     =            0
     lattice parameter (alat)  =      10.0424  a.u.
     unit-cell volume          =    2892.3584 (a.u.)^3
     number of atoms/cell      =           20
     number of atomic types    =            3
     number of electrons       =       136.00
     number of Kohn-Sham states=          256
     kinetic-energy cutoff     =      30.0000  Ry
     charge density cutoff     =     240.0000  Ry
     scf convergence threshold =      1.0E-06
     mixing beta               =       0.7000
     number of iterations used =            8  plain     mixing
     Exchange-correlation=  SLA  PW   PBX  PBC
                           (   1   4   3   4   0   0   0)

     celldm(1)=  10.042424  celldm(2)=   0.000000  celldm(3)=   0.000000
     celldm(4)=   0.000000  celldm(5)=   0.000000  celldm(6)=   0.000000

     crystal axes: (cart. coord. in units of alat)
               a(1) = (   1.000000   0.000000   0.000000 )
               a(2) = (   0.000000   1.000000   0.000000 )
               a(3) = (   0.000000   0.000000   2.855857 )

     reciprocal axes: (cart. coord. in units 2 pi/alat)
               b(1) = (  1.000000  0.000000  0.000000 )
               b(2) = (  0.000000  1.000000  0.000000 )
               b(3) = (  0.000000  0.000000  0.350158 )

     PseudoPot. # 1 for Cu read from file:
     /lustre07/scratch/pragov/crystal_structure_design/utils/SSSP/Cu.paw.z_11.ld1.psl.v1.0.0-low.upf
     MD5 check sum: 619f40885d92a09a85a8b37550532d0c
     Pseudo is Projector augmented-wave + core cor, Zval = 11.0
     Generated using &quot;atomic&quot; code by A. Dal Corso  v.6.3MaX
     Shape of augmentation charge: PSQ
     Using radial grid of 1199 points,  6 beta functions with:
                l(1) =   0
                l(2) =   0
                l(3) =   1
                l(4) =   1
                l(5) =   2
                l(6) =   2
     Q(r) pseudized with 0 coefficients

     PseudoPot. # 2 for P  read from file:
     /lustre07/scratch/pragov/crystal_structure_design/utils/SSSP/P.pbe-n-rrkjus_psl.1.0.0.UPF
     MD5 check sum: 8b930f418f0a4573dca56cd030ffe088
     Pseudo is Ultrasoft + core correction, Zval =  5.0
     Generated using "atomic" code by A. Dal Corso  v.5.1
     Using radial grid of 1147 points,  6 beta functions with:
                l(1) =   0
                l(2) =   0
                l(3) =   1
                l(4) =   1
                l(5) =   2
                l(6) =   2
     Q(r) pseudized with 0 coefficients

     PseudoPot. # 3 for S  read from file:
     /lustre07/scratch/pragov/crystal_structure_design/utils/SSSP/s_pbe_v1.4.uspp.F.UPF
     MD5 check sum: 88d86576ff6df21479756cfb9bdac1df
     Pseudo is Ultrasoft + core correction, Zval =  6.0
     Generated by new atomic code, or converted to UPF format
     Using radial grid of  907 points,  6 beta functions with:
                l(1) =   0
                l(2) =   0
                l(3) =   1
                l(4) =   1
                l(5) =   2
                l(6) =   2
     Q(r) pseudized with  8 coefficients,  rinner =    1.300   1.300   1.300
                                                       1.300   1.300

     atomic species   valence    mass     pseudopotential
        Cu            11.00    63.54600     Cu( 1.00)
        P              5.00    30.97376     P ( 1.00)
        S              6.00    32.06000     S ( 1.00)

     16 Sym. Ops., with inversion, found ( 8 have fractional translation)

                                    s                        frac. trans.

      isym =  1     identity

 cryst.   s( 1) = (     1          0          0      )
                  (     0          1          0      )
                  (     0          0          1      )

 cart.    s( 1) = (  1.0000000  0.0000000  0.0000000 )
                  (  0.0000000  1.0000000  0.0000000 )
                  (  0.0000000  0.0000000  1.0000000 )

      isym =  2     180 deg rotation - cart. axis [0,0,1]

[...]

 cryst.   s( 3) = (    -1          0          0      )    f =(  0.5000000 )
                  (     0          1          0      )       (  0.5000000 )
                  (     0          0         -1      )       (  0.5000000 )

 cart.    s( 3) = ( -1.0000000  0.0000000  0.0000000 )    f =(  0.5000000 )
                  (  0.0000000  1.0000000  0.0000000 )       (  0.5000000 )
                  (  0.0000000  0.0000000 -1.0000000 )       (  1.4279284 )

[...]

      isym =  8      90 deg rotation - cart. axis [0,0,1]

 cryst.   s( 8) = (     0          1          0      )    f =(  0.5000000 )
                  (    -1          0          0      )       (  0.5000000 )
                  (     0          0          1      )       ( -0.5000000 )

 cart.    s( 8) = (  0.0000000 -1.0000000  0.0000000 )    f =(  0.5000000 )
                  (  1.0000000  0.0000000  0.0000000 )       (  0.5000000 )
                  (  0.0000000  0.0000000  1.0000000 )       ( -1.4279284 )

      isym =  9     inversion

 cryst.   s( 9) = (    -1          0          0      )
                  (     0         -1          0      )
                  (     0          0         -1      )

 cart.    s( 9) = ( -1.0000000  0.0000000  0.0000000 )
                  (  0.0000000 -1.0000000  0.0000000 )
                  (  0.0000000  0.0000000 -1.0000000 )

      isym = 10     inv. 180 deg rotation - cart. axis [0,0,1]

 cryst.   s(10) = (     1          0          0      )
                  (     0          1          0      )
                  (     0          0         -1      )

 cart.    s(10) = (  1.0000000  0.0000000  0.0000000 )
                  (  0.0000000  1.0000000  0.0000000 )
                  (  0.0000000  0.0000000 -1.0000000 )

[...]

 cryst.   s(11) = (     1          0          0      )    f =( -0.5000000 )
                  (     0         -1          0      )       (  0.5000000 )
                  (     0          0          1      )       ( -0.5000000 )

 cart.    s(11) = (  1.0000000  0.0000000  0.0000000 )    f =( -0.5000000 )
                  (  0.0000000 -1.0000000  0.0000000 )       (  0.5000000 )
                  (  0.0000000  0.0000000  1.0000000 )       ( -1.4279284 )

[...]

 cryst.   s(14) = (     0          1          0      )
                  (     1          0          0      )
                  (     0          0          1      )

 cart.    s(14) = (  0.0000000  1.0000000  0.0000000 )
                  (  1.0000000  0.0000000  0.0000000 )
                  (  0.0000000  0.0000000  1.0000000 )

[...]

      isym = 16     inv.  90 deg rotation - cart. axis [0,0,1]

 cryst.   s(16) = (     0         -1          0      )    f =( -0.5000000 )
                  (     1          0          0      )       (  0.5000000 )
                  (     0          0         -1      )       (  0.5000000 )

 cart.    s(16) = (  0.0000000  1.0000000  0.0000000 )    f =( -0.5000000 )
                  ( -1.0000000  0.0000000  0.0000000 )       (  0.5000000 )
                  (  0.0000000  0.0000000 -1.0000000 )       (  1.4279284 )

   Cartesian axes

     site n.     atom                  positions (alat units)
         1           Cu  tau(   1) = (   0.0000000   0.5000000   0.7139642  )
         2           Cu  tau(   2) = (   0.5000000   0.0000000   2.1418926  )
         3           Cu  tau(   3) = (   0.0000000   0.5000000   2.1418926  )
         4           Cu  tau(   4) = (   0.5000000   0.0000000   0.7139642  )
         5           P   tau(   5) = (   0.5000000   0.5000000   1.1582698  )
         6           P   tau(   6) = (   0.0000000   0.0000000   2.5861982  )
         7           P   tau(   7) = (   0.5000000   0.5000000   1.6975870  )
         8           P   tau(   8) = (   0.0000000   0.0000000   0.2696586  )
         9           S   tau(   9) = (   0.2887960   0.7112040   1.4279284  )
        10           S   tau(  10) = (   0.7112040   0.2887960   1.4279284  )
        11           S   tau(  11) = (   0.2112040   0.2112040   0.0000000  )
        12           S   tau(  12) = (   0.7887960   0.7887960   0.0000000  )
        13           S   tau(  13) = (   0.2633780   0.2633780   0.9689894  )
        14           S   tau(  14) = (   0.7366220   0.7366220   0.9689894  )
        15           S   tau(  15) = (   0.2366220   0.7633780   2.3969178  )
        16           S   tau(  16) = (   0.7633780   0.2366220   2.3969178  )
        17           S   tau(  17) = (   0.7366220   0.7366220   1.8868674  )
        18           S   tau(  18) = (   0.2633780   0.2633780   1.8868674  )
        19           S   tau(  19) = (   0.7633780   0.2366220   0.4589390  )
        20           S   tau(  20) = (   0.2366220   0.7633780   0.4589390  )

   Crystallographic axes

     site n.     atom                  positions (cryst. coord.)
         1           Cu  tau(   1) = (  0.0000000  0.5000000  0.2500000  )
         2           Cu  tau(   2) = (  0.5000000  0.0000000  0.7500000  )
         3           Cu  tau(   3) = (  0.0000000  0.5000000  0.7500000  )
         4           Cu  tau(   4) = (  0.5000000  0.0000000  0.2500000  )
         5           P   tau(   5) = (  0.5000000  0.5000000  0.4055770  )
         6           P   tau(   6) = (  0.0000000  0.0000000  0.9055770  )
         7           P   tau(   7) = (  0.5000000  0.5000000  0.5944230  )
         8           P   tau(   8) = (  0.0000000  0.0000000  0.0944230  )
         9           S   tau(   9) = (  0.2887960  0.7112040  0.5000000  )
        10           S   tau(  10) = (  0.7112040  0.2887960  0.5000000  )
        11           S   tau(  11) = (  0.2112040  0.2112040  0.0000000  )
        12           S   tau(  12) = (  0.7887960  0.7887960  0.0000000  )
        13           S   tau(  13) = (  0.2633780  0.2633780  0.3392990  )
        14           S   tau(  14) = (  0.7366220  0.7366220  0.3392990  )
        15           S   tau(  15) = (  0.2366220  0.7633780  0.8392990  )
        16           S   tau(  16) = (  0.7633780  0.2366220  0.8392990  )
        17           S   tau(  17) = (  0.7366220  0.7366220  0.6607010  )
        18           S   tau(  18) = (  0.2633780  0.2633780  0.6607010  )
        19           S   tau(  19) = (  0.7633780  0.2366220  0.1607010  )
        20           S   tau(  20) = (  0.2366220  0.7633780  0.1607010  )

     number of k points=     6
                       cart. coord. in units 2pi/alat
        k(    1) = (   0.0000000   0.0000000   0.0000000), wk =   0.0740741
        k(    2) = (   0.0000000   0.0000000   0.1167192), wk =   0.1481481
        k(    3) = (   0.0000000   0.3333333   0.0000000), wk =   0.2962963
        k(    4) = (   0.0000000   0.3333333   0.1167192), wk =   0.5925926
        k(    5) = (   0.3333333   0.3333333   0.0000000), wk =   0.2962963
        k(    6) = (   0.3333333   0.3333333   0.1167192), wk =   0.5925926

                       cryst. coord.
        k(    1) = (   0.0000000   0.0000000   0.0000000), wk =   0.0740741
        k(    2) = (   0.0000000   0.0000000   0.3333333), wk =   0.1481481
        k(    3) = (   0.0000000   0.3333333   0.0000000), wk =   0.2962963
        k(    4) = (   0.0000000   0.3333333   0.3333333), wk =   0.5925926
        k(    5) = (   0.3333333   0.3333333   0.0000000), wk =   0.2962963
        k(    6) = (   0.3333333   0.3333333   0.3333333), wk =   0.5925926

     Check: negative core charge=   -0.000002

     Initial potential from superposition of free atoms

     starting charge     135.9980, renormalised to     136.0000
     Starting wfcs are  100 randomized atomic wfcs +  156 random wfcs
     Checking if some PAW data can be deallocated...

     Self-consistent Calculation

     iteration #  1     ecut=    30.00 Ry     beta= 0.70
     Davidson diagonalization with overlap

     ethr =  1.00E-02,  avg # of iterations =  7.0

     Threshold (ethr) on eigenvalues was too large:
     Diagonalizing with lowered threshold

     Davidson diagonalization with overlap

[...]

     total energy              =   -1197.83377708 Ry
     estimated scf accuracy    <       0.61670596 Ry

[...]

     total energy              =   -1198.01138426 Ry
     estimated scf accuracy    <       0.00000194 Ry

     iteration #  9     ecut=    30.00 Ry     beta= 0.70
     Davidson diagonalization with overlap

     ethr =  1.42E-09,  avg # of iterations =  4.0

     End of self-consistent calculation

          k = 0.0000 0.0000 0.0000 (  8075 PWs)   bands (ev):

   -11.6616 -11.6192 -10.0832  -9.8526  -8.5454  -8.3021  -8.3021  -8.1878
    -7.9747  -7.9747  -7.9356  -7.9356  -5.0363  -4.5401  -3.6558  -3.4188
    -1.2913  -1.2913  -0.9268  -0.8591  -0.7723  -0.7723  -0.2487  -0.2472
    -0.2472   0.1156   0.1769   0.2854   0.9301   0.9301   1.0322   1.2596
     1.4517   1.4610   1.6769   1.8989   1.8989   2.1083   2.2266   2.2266
     2.5911   2.7510   2.9366   2.9366   3.1249   3.1249   3.2514   3.2514
     3.3452   3.3847   3.4811   3.4838   3.6473   3.6620   3.6669   3.6777
     3.7199   3.7199   3.7237   3.7237   3.8187   4.1016   4.5907   4.7965
     4.8165   4.8165   5.0361   5.0361   6.3602   6.3795   6.7026   6.7210
     7.1391   7.1391   7.9095   8.1472   8.8335   8.8335   8.9200   8.9419
     9.1236   9.1236   9.3140   9.3140   9.3251   9.3669   9.8002  10.1380
    10.6166  10.7308  11.0353  11.1920  11.1920  11.2153  11.6188  12.0175
    12.0175  12.2886  12.5448  12.5945  12.8235  12.8235  13.2911  13.4151
    13.8003  13.8003  14.0358  14.4094  14.5766  14.8225  15.1129  15.1129
    15.2495  15.4871  15.4871  15.4899  15.5945  15.7344  15.8857  15.9837
    16.1906  16.2516  16.8193  16.8193  17.1267  17.2824  17.3341  17.4248
    17.4248  17.7891  17.7891  17.8993  17.8993  17.9936  17.9936  18.0175
    18.1635  18.2452  18.3782  18.4634  18.4934  18.4934  18.6033  18.6399
    18.6408  19.3527  19.3527  19.8134  19.8276  19.9444  19.9444  19.9575
    20.2424  20.2424  20.6336  20.6480  20.6480  20.7666  20.7666  20.9002
    20.9002  20.9615  21.1257  21.3170  21.6242  21.6866  21.7461  21.9717
    21.9762  22.1192  22.2253  22.2253  22.4596  22.4596  22.7437  23.0917
    23.0917  23.2459  23.4462  23.5620  23.6675  23.6675  23.7987  23.9684
    24.0069  24.0069  24.2874  24.2874  24.5436  24.5436  24.6236  24.6236
    24.6633  24.7236  24.7404  24.7830  25.1316  25.1316  25.3643  25.4183
    26.1070  26.1070  26.2312  26.2643  26.3299  26.5761  26.7157  27.1232
    27.4372  27.4831  27.4831  27.5128  27.5128  27.6599  27.7214  27.8768
    27.8768  28.1021  28.1021  28.2726  28.5180  28.5180  28.6038  28.8366
    29.0548  29.1235  29.1985  29.2205  29.2205  29.4241  29.5611  29.9059
    29.9059  29.9184  29.9490  29.9585  30.2791  30.2793  30.3501  30.3501
    30.7910  30.9411  31.0123  31.0211  31.0278  31.0464  31.1179  31.3522
    31.3683  31.4443  31.4443  31.6117  31.8005  31.9823  32.1008  32.1009

     occupation numbers
     1.0000   1.0000   1.0000   1.0000   1.0000   1.0000   1.0000   1.0000
     1.0000   1.0000   1.0000   1.0000   1.0000   1.0000   1.0000   1.0000
     1.0000   1.0000   1.0000   1.0000   1.0000   1.0000   1.0000   1.0000
     1.0000   1.0000   1.0000   1.0000   1.0000   1.0000   1.0000   1.0000
     1.0000   1.0000   1.0000   1.0000   1.0000   1.0000   1.0000   1.0000
     1.0000   1.0000   1.0000   1.0000   1.0000   1.0000   1.0000   1.0000
     1.0000   1.0000   1.0000   1.0000   1.0000   1.0000   1.0000   1.0000
     1.0000   1.0000   1.0000   1.0000   1.0000   1.0000   1.0000   1.0000
     1.0000   1.0000   1.0000   1.0000   0.0000   0.0000   0.0000   0.0000
     0.0000   0.0000   0.0000   0.0000   0.0000   0.0000   0.0000   0.0000
     0.0000   0.0000   0.0000   0.0000   0.0000   0.0000   0.0000   0.0000
     0.0000   0.0000   0.0000   0.0000   0.0000   0.0000   0.0000   0.0000
     0.0000   0.0000   0.0000   0.0000   0.0000   0.0000   0.0000   0.0000
     0.0000   0.0000   0.0000   0.0000   0.0000   0.0000   0.0000   0.0000
     0.0000   0.0000   0.0000   0.0000   0.0000   0.0000   0.0000   0.0000
     0.0000   0.0000   0.0000   0.0000   0.0000   0.0000   0.0000   0.0000
     0.0000   0.0000   0.0000   0.0000   0.0000   0.0000   0.0000   0.0000
     0.0000   0.0000   0.0000   0.0000   0.0000   0.0000   0.0000   0.0000
     0.0000   0.0000   0.0000   0.0000   0.0000   0.0000   0.0000   0.0000
     0.0000   0.0000   0.0000   0.0000   0.0000   0.0000   0.0000   0.0000
     0.0000   0.0000   0.0000   0.0000   0.0000   0.0000   0.0000   0.0000
     0.0000   0.0000   0.0000   0.0000   0.0000   0.0000   0.0000   0.0000
     0.0000   0.0000   0.0000   0.0000   0.0000   0.0000   0.0000   0.0000
     0.0000   0.0000   0.0000   0.0000   0.0000   0.0000   0.0000   0.0000
     0.0000   0.0000   0.0000   0.0000   0.0000   0.0000   0.0000   0.0000
     0.0000   0.0000   0.0000   0.0000   0.0000   0.0000   0.0000   0.0000
     0.0000   0.0000   0.0000   0.0000   0.0000   0.0000   0.0000   0.0000
     0.0000   0.0000   0.0000   0.0000   0.0000   0.0000   0.0000   0.0000
     0.0000   0.0000   0.0000   0.0000   0.0000   0.0000   0.0000   0.0000
     0.0000   0.0000   0.0000   0.0000   0.0000   0.0000   0.0000   0.0000
     0.0000   0.0000   0.0000   0.0000   0.0000   0.0000   0.0000   0.0000
     0.0000   0.0000   0.0000   0.0000   0.0000   0.0000   0.0000   0.0000

[...]

          k = 0.3333 0.3333 0.1167 (  8039 PWs)   bands (ev):

   -11.5428 -11.5372  -9.8486  -9.8143  -8.4552  -8.4267  -8.3460  -8.2796
    -8.1917  -8.1808  -8.1358  -8.1217  -4.7805  -4.6868  -3.1956  -3.1274
    -1.7200  -1.6734  -1.1995  -1.1627  -1.1077  -1.0514  -0.6909  -0.6027
     0.1821   0.2971   0.4428   0.5464   1.1254   1.4059   1.4537   1.5379
     1.6099   1.7280   1.8673   1.8798   2.0607   2.0768   2.1249   2.1633
     2.1997   2.3682   2.4111   2.6026   2.7589   2.8132   3.3009   3.3119
     3.4299   3.4487   3.4791   3.5058   3.5315   3.5438   3.6479   3.7945
     3.7977   3.8357   4.1826   4.2488   4.3126   4.5143   4.6262   4.6583
     4.8526   4.9429   5.0262   5.1460   6.4981   6.6047   7.0484   7.2460
     7.3488   7.4904   8.1255   8.4443   8.6636   8.8771   8.8948   9.0243
     9.1385   9.2455   9.3405   9.3426  10.1043  10.4335  10.4420  10.8358
    10.8551  11.1704  11.2502  11.4048  11.5554  11.6301  12.0204  12.1278
    12.2493  12.3027  12.4278  12.5881  12.6742  12.7881  12.8968  12.9443
    13.0888  13.3464  13.3797  13.5567  13.5665  14.0399  14.0995  14.1933
    14.3445  14.5011  14.6699  14.9493  14.9943  15.0980  15.3784  15.4618
    15.8032  15.8629  16.1788  16.2101  16.2501  16.3450  16.5437  16.6494
    16.7988  17.0229  17.0274  17.1241  17.3477  17.3724  17.7768  17.7958
    18.1490  18.3141  18.3149  18.4442  18.6295  18.6604  18.7542  18.9443
    18.9792  19.2414  19.3594  19.4287  19.4881  19.5211  19.6851  19.9354
    20.0519  20.2998  20.5060  20.5234  20.6836  20.8688  20.9278  21.0331
    21.0784  21.3661  21.4705  21.5559  21.7054  21.7601  22.0543  22.2815
    22.3252  22.4297  22.5796  22.6475  22.6698  22.8137  22.9113  23.1772
    23.2728  23.4879  23.5391  23.6773  23.7831  23.9217  24.0257  24.1383
    24.1833  24.4632  24.5493  24.7219  24.9150  24.9426  25.0762  25.1057
    25.4274  25.4343  25.6395  25.8803  25.9914  26.0018  26.1911  26.4326
    26.4945  26.5842  26.6356  26.7379  26.8341  26.9663  27.1092  27.2000
    27.2974  27.3922  27.4753  27.5751  27.7462  27.7597  27.7737  27.9704
    28.0426  28.0779  28.2453  28.2866  28.3834  28.5047  28.6988  28.7262
    28.8190  29.0676  29.3261  29.3539  29.3572  29.6040  29.7533  29.7719
    30.0695  30.1872  30.2069  30.2747  30.4045  30.4787  30.6904  30.7539
    31.1322  31.1761  31.2844  31.3174  31.6898  31.7648  31.8169  31.9145
    31.9538  32.1807  32.2231  32.4669  32.4734  32.5975  32.6204  32.6672

     occupation numbers
     1.0000   1.0000   1.0000   1.0000   1.0000   1.0000   1.0000   1.0000
     1.0000   1.0000   1.0000   1.0000   1.0000   1.0000   1.0000   1.0000
     1.0000   1.0000   1.0000   1.0000   1.0000   1.0000   1.0000   1.0000
     1.0000   1.0000   1.0000   1.0000   1.0000   1.0000   1.0000   1.0000
     1.0000   1.0000   1.0000   1.0000   1.0000   1.0000   1.0000   1.0000
     1.0000   1.0000   1.0000   1.0000   1.0000   1.0000   1.0000   1.0000
     1.0000   1.0000   1.0000   1.0000   1.0000   1.0000   1.0000   1.0000
     1.0000   1.0000   1.0000   1.0000   1.0000   1.0000   1.0000   1.0000
     1.0000   1.0000   1.0000   1.0000   0.0000   0.0000   0.0000   0.0000
     0.0000   0.0000   0.0000   0.0000   0.0000   0.0000   0.0000   0.0000
     0.0000   0.0000   0.0000   0.0000   0.0000   0.0000   0.0000   0.0000
     0.0000   0.0000   0.0000   0.0000   0.0000   0.0000   0.0000   0.0000
     0.0000   0.0000   0.0000   0.0000   0.0000   0.0000   0.0000   0.0000
     0.0000   0.0000   0.0000   0.0000   0.0000   0.0000   0.0000   0.0000
     0.0000   0.0000   0.0000   0.0000   0.0000   0.0000   0.0000   0.0000
     0.0000   0.0000   0.0000   0.0000   0.0000   0.0000   0.0000   0.0000
     0.0000   0.0000   0.0000   0.0000   0.0000   0.0000   0.0000   0.0000
     0.0000   0.0000   0.0000   0.0000   0.0000   0.0000   0.0000   0.0000
     0.0000   0.0000   0.0000   0.0000   0.0000   0.0000   0.0000   0.0000
     0.0000   0.0000   0.0000   0.0000   0.0000   0.0000   0.0000   0.0000
     0.0000   0.0000   0.0000   0.0000   0.0000   0.0000   0.0000   0.0000
     0.0000   0.0000   0.0000   0.0000   0.0000   0.0000   0.0000   0.0000
     0.0000   0.0000   0.0000   0.0000   0.0000   0.0000   0.0000   0.0000
     0.0000   0.0000   0.0000   0.0000   0.0000   0.0000   0.0000   0.0000
     0.0000   0.0000   0.0000   0.0000   0.0000   0.0000   0.0000   0.0000
     0.0000   0.0000   0.0000   0.0000   0.0000   0.0000   0.0000   0.0000
     0.0000   0.0000   0.0000   0.0000   0.0000   0.0000   0.0000   0.0000
     0.0000   0.0000   0.0000   0.0000   0.0000   0.0000   0.0000   0.0000
     0.0000   0.0000   0.0000   0.0000   0.0000   0.0000   0.0000   0.0000
     0.0000   0.0000   0.0000   0.0000   0.0000   0.0000   0.0000   0.0000
     0.0000   0.0000   0.0000   0.0000   0.0000   0.0000   0.0000   0.0000
     0.0000   0.0000   0.0000   0.0000   0.0000   0.0000   0.0000   0.0000

     highest occupied, lowest unoccupied level (ev):     5.1663    6.3533

!    total energy              =   -1198.01138481 Ry
     estimated scf accuracy    <       0.00000013 Ry

     The total energy is the sum of the following terms:
     one-electron contribution =    -374.82808304 Ry
     hartree contribution      =     283.66302809 Ry
     xc contribution           =    -297.47624315 Ry
     ewald contribution        =    -450.08876504 Ry
     one-center paw contrib.   =    -359.28132167 Ry
      -> PAW hartree energy AE =     296.01411295 Ry
      -> PAW hartree energy PS =    -293.81865843 Ry
      -> PAW xc energy AE      =    -404.96957985 Ry
      -> PAW xc energy PS      =     133.31313407 Ry
      -> total E_H with PAW    =     285.85848261 Ry
      -> total E_XC with PAW   =    -569.13268893 Ry

     convergence has been achieved in   9 iterations

     Writing all to output data dir bands_nm/myprefix.save/

     General routines

     Parallel routines

     PAW routines

   This run was terminated on:   0:17:41  17Jul2023

   JOB DONE.