     Program PWSCF v.7.1 starts on 16Jul2023 at 13:33:47

     Reading input from espresso_26660.pwi
Warning: card &CELL ignored
Warning: card / ignored

     Current dimensions of program PWSCF are:
     Max number of different atomic species (ntypx) = 10
     Max number of k-points (npk) =  40000
     Max angular momentum in pseudopotentials (lmaxx) =  4
     file O.pbe-n-kjpaw_psl.0.1.UPF: wavefunction(s)  2P renormalized
     Message from routine setup:
     using ibrav=0 with symmetry is DISCOURAGED, use correct ibrav instead

     K-points division:     npool     =       2
     R & G space division:  proc/nbgrp/npool/nimage =       4
     Subspace diagonalization in iterative solution of the eigenvalue problem:
     a serial algorithm will be used

     Using Slab Decomposition

     bravais-lattice index     =            0
     lattice parameter (alat)  =      13.0703  a.u.
     unit-cell volume          =    2385.8011 (a.u.)^3
     number of atoms/cell      =           14
     number of atomic types    =            3
     number of electrons       =       120.00
     number of Kohn-Sham states=           64
     kinetic-energy cutoff     =      30.0000  Ry
     charge density cutoff     =     240.0000  Ry
     scf convergence threshold =      1.0E-06
     mixing beta               =       0.7000
     number of iterations used =            8  plain     mixing
     Exchange-correlation= SLA  PW   PBX  PBC
                           (   1   4   3   4   0   0   0)

     celldm(1)=  13.070300  celldm(2)=   0.000000  celldm(3)=   0.000000
     celldm(4)=   0.000000  celldm(5)=   0.000000  celldm(6)=   0.000000

     crystal axes: (cart. coord. in units of alat)
               a(1) = (   1.000000   0.000000   0.000000 )
               a(2) = (  -0.307764   0.951463   0.000000 )
               a(3) = (   0.082891   0.113932   1.123016 )

     reciprocal axes: (cart. coord. in units 2 pi/alat)
               b(1) = (  1.000000  0.323464 -0.106627 )
               b(2) = (  0.000000  1.051013 -0.106627 )
               b(3) = (  0.000000  0.000000  0.890460 )

     PseudoPot. # 1 for Rb read from file:
     /lustre07/scratch/pragov/crystal_structure_design/utils/SSSP/Rb_ONCV_PBE-1.0.oncvpsp.upf
     MD5 check sum: 55a5172d6bfbce6759a58e35d43f6aa9
     Pseudo is Norm-conserving, Zval =  9.0
     Generated using ONCVPSP code by D. R. Hamann
     Using radial grid of 2308 points,  6 beta functions with:
                l(1) =   0
                l(2) =   0
                l(3) =   1
                l(4) =   1
                l(5) =   2
                l(6) =   2

     PseudoPot. # 2 for Sb read from file:
     /lustre07/scratch/pragov/crystal_structure_design/utils/SSSP/sb_pbe_v1.4.uspp.F.UPF
     MD5 check sum: 9bc50dfb53373b713f5709b9110fe27f
     Pseudo is Ultrasoft + core correction, Zval = 15.0
     Generated by new atomic code, or converted to UPF format
     Using radial grid of  891 points,  6 beta functions with:
                l(1) =   0
                l(2) =   0
                l(3) =   1
                l(4) =   1
                l(5) =   2
                l(6) =   2
     Q(r) pseudized with  8 coefficients,  rinner =    1.350   1.350   1.350
                                                       1.350   1.350

     PseudoPot. # 3 for O  read from file:
     /lustre07/scratch/pragov/crystal_structure_design/utils/SSSP/O.pbe-n-kjpaw_psl.0.1.UPF
     MD5 check sum: 0234752ac141de4415c5fc33072bef88
     Pseudo is Projector augmented-wave + core cor, Zval =  6.0
     Generated using "atomic" code by A. Dal Corso  v.5.0.99 svn rev. 10869
     Shape of augmentation charge: BESSEL
     Using radial grid of 1095 points,  4 beta functions with:
                l(1) =   0
                l(2) =   0
                l(3) =   1
                l(4) =   1
     Q(r) pseudized with 0 coefficients

     atomic species   valence    mass     pseudopotential
        Rb             9.00    85.46780     Rb( 1.00)
        Sb            15.00   121.76000     Sb( 1.00)
        O              6.00    15.99900     O ( 1.00)

      2 Sym. Ops., with inversion, found

                                    s                        frac. trans.

      isym =  1     identity

 cryst.   s( 1) = (     1          0          0      )
                  (     0          1          0      )
                  (     0          0          1      )

 cart.    s( 1) = (  1.0000000  0.0000000  0.0000000 )
                  (  0.0000000  1.0000000  0.0000000 )
                  (  0.0000000  0.0000000  1.0000000 )

      isym =  2     inversion

 cryst.   s( 2) = (    -1          0          0      )
                  (     0         -1          0      )
                  (     0          0         -1      )

 cart.    s( 2) = ( -1.0000000  0.0000000 -0.0000000 )
                  (  0.0000000 -1.0000000  0.0000000 )
                  (  0.0000000  0.0000000 -1.0000000 )

   Cartesian axes

     site n.     atom                  positions (alat units)
         1           Rb  tau(   1) = (   0.4976142   0.6839594   0.3892866  )
         2           Rb  tau(   2) = (   0.7881800   0.2412290   0.5615078  )
         3           Rb  tau(   3) = (  -0.0130530   0.8241654   0.5615078  )
         4           Rb  tau(   4) = (  -0.0181544   0.7407575   0.0000000  )
         5           Rb  tau(   5) = (   0.7103904   0.2107052   0.0000000  )
         6           Rb  tau(   6) = (   0.2775128   0.3814350   0.7337290  )
         7           Sb  tau(   7) = (   0.5794381   0.7964245   0.9302691  )
         8           Sb  tau(   8) = (   0.1956889   0.2689699   0.1927465  )
         9           O   tau(   9) = (   0.0352476   0.0484470   0.2752815  )
        10           O   tau(  10) = (   0.3373409   0.8389025   0.7852676  )
        11           O   tau(  11) = (   0.6943631   0.5791512   0.7852676  )
        12           O   tau(  12) = (   0.0807639   0.4862432   0.3377481  )
        13           O   tau(  13) = (   0.4377860   0.2264919   0.3377481  )
        14           O   tau(  14) = (   0.7398794   1.0169474   0.8477342  )

   Crystallographic axes

     site n.     atom                  positions (cryst. coord.)
         1           Rb  tau(   1) = (  0.6773420  0.6773420  0.3466440  )
         2           Rb  tau(   2) = (  0.8063370  0.1936630  0.5000000  )
         3           Rb  tau(   3) = (  0.1936630  0.8063370  0.5000000  )
         4           Rb  tau(   4) = (  0.2214540  0.7785460  0.0000000  )
         5           Rb  tau(   5) = (  0.7785460  0.2214540  0.0000000  )
         6           Rb  tau(   6) = (  0.3226580  0.3226580  0.6533560  )
         7           Sb  tau(   7) = (  0.7378610  0.7378610  0.8283670  )
         8           Sb  tau(   8) = (  0.2621390  0.2621390  0.1716330  )
         9           O   tau(   9) = (  0.0215660  0.0215660  0.2451270  )
        10           O   tau(  10) = (  0.5249650  0.7979670  0.6992490  )
        11           O   tau(  11) = (  0.7979670  0.5249650  0.6992490  )
        12           O   tau(  12) = (  0.2020330  0.4750350  0.3007510  )
        13           O   tau(  13) = (  0.4750350  0.2020330  0.3007510  )
        14           O   tau(  14) = (  0.9784340  0.9784340  0.7548730  )

     number of k points=    14
                       cart. coord. in units 2pi/alat
        k(    1) = (   0.0000000   0.0000000   0.0000000), wk =   0.0740741
        k(    2) = (   0.0000000   0.0000000   0.2968198), wk =   0.1481481
        k(    3) = (   0.0000000   0.3503378  -0.0355423), wk =   0.1481481
        k(    4) = (   0.0000000   0.3503378   0.2612775), wk =   0.1481481
        k(    5) = (   0.0000000   0.3503378  -0.3323621), wk =   0.1481481
        k(    6) = (   0.3333333   0.1078213  -0.0355423), wk =   0.1481481
        k(    7) = (   0.3333333   0.1078213   0.2612775), wk =   0.1481481
        k(    8) = (   0.3333333   0.1078213  -0.3323621), wk =   0.1481481
        k(    9) = (   0.3333333   0.4581591  -0.0710846), wk =   0.1481481
        k(   10) = (   0.3333333   0.4581591   0.2257352), wk =   0.1481481
        k(   11) = (   0.3333333   0.4581591  -0.3679045), wk =   0.1481481
        k(   12) = (   0.3333333  -0.2425164  -0.0000000), wk =   0.1481481
        k(   13) = (   0.3333333  -0.2425164   0.2968198), wk =   0.1481481
        k(   14) = (   0.3333333  -0.2425164  -0.2968198), wk =   0.1481481

                       cryst. coord.
        k(    1) = (   0.0000000   0.0000000   0.0000000), wk =   0.0740741
        k(    2) = (   0.0000000   0.0000000   0.3333333), wk =   0.1481481
        k(    3) = (   0.0000000   0.3333333   0.0000000), wk =   0.1481481
        k(    4) = (   0.0000000   0.3333333   0.3333333), wk =   0.1481481
        k(    5) = (   0.0000000   0.3333333  -0.3333333), wk =   0.1481481
        k(    6) = (   0.3333333   0.0000000   0.0000000), wk =   0.1481481
        k(    7) = (   0.3333333   0.0000000   0.3333333), wk =   0.1481481
        k(    8) = (   0.3333333   0.0000000  -0.3333333), wk =   0.1481481
        k(    9) = (   0.3333333   0.3333333   0.0000000), wk =   0.1481481
        k(   10) = (   0.3333333   0.3333333   0.3333333), wk =   0.1481481
        k(   11) = (   0.3333333   0.3333333  -0.3333333), wk =   0.1481481
        k(   12) = (   0.3333333  -0.3333333   0.0000000), wk =   0.1481481
        k(   13) = (   0.3333333  -0.3333333   0.3333333), wk =   0.1481481
        k(   14) = (   0.3333333  -0.3333333  -0.3333333), wk =   0.1481481

     Check: negative core charge=   -0.000008

     Initial potential from superposition of free atoms

     starting charge     117.8514, renormalised to     120.0000
     Starting wfcs are   72 randomized atomic wfcs
     Checking if some PAW data can be deallocated...

     Self-consistent Calculation

     iteration #  1     ecut=    30.00 Ry     beta= 0.70
     Davidson diagonalization with overlap

     ethr =  1.00E-02,  avg # of iterations =  3.1

     total energy              =    -911.91553267 Ry
     estimated scf accuracy    <       3.33141151 Ry

[...]

     total energy              =    -913.62816120 Ry
     estimated scf accuracy    <       0.00000675 Ry

     iteration # 10     ecut=    30.00 Ry     beta= 0.70
     Davidson diagonalization with overlap

     ethr =  1.72E-09,  avg # of iterations =  3.0

     End of self-consistent calculation

          k = 0.0000 0.0000 0.0000 (  6639 PWs)   bands (ev):

   -23.1235 -23.1222 -23.1188 -23.1166 -22.9937 -22.9921 -22.9857 -22.9849
   -22.9724 -22.9698 -21.5253 -21.5016 -21.4412 -21.3862 -20.5649 -20.5454
   -12.0934 -12.0565 -11.1639 -11.1527 -11.1438 -11.0850  -5.9840  -5.7580
    -5.7406  -5.6760  -5.6675  -5.5921  -5.5813  -5.5653  -5.5516  -5.5235
    -5.4973  -5.2467  -4.7274  -4.6918  -4.6626  -4.6613  -4.5918  -4.5644
    -2.1727  -2.0077   1.8185   1.8409   1.9190   2.0113   2.0666   2.5639
     3.4864   3.6074   3.6793   3.7497   3.9455   3.9916   3.9949   4.1289
     4.1786   4.2082   4.3412   4.8591   8.0121   8.7733   8.8048   9.0583

     occupation numbers
     1.0000   1.0000   1.0000   1.0000   1.0000   1.0000   1.0000   1.0000
     1.0000   1.0000   1.0000   1.0000   1.0000   1.0000   1.0000   1.0000
     1.0000   1.0000   1.0000   1.0000   1.0000   1.0000   1.0000   1.0000
     1.0000   1.0000   1.0000   1.0000   1.0000   1.0000   1.0000   1.0000
     1.0000   1.0000   1.0000   1.0000   1.0000   1.0000   1.0000   1.0000
     1.0000   1.0000   1.0000   1.0000   1.0000   1.0000   1.0000   1.0000
     1.0000   1.0000   1.0000   1.0000   1.0000   1.0000   1.0000   1.0000
     1.0000   1.0000   1.0000   1.0000   0.0000   0.0000   0.0000   0.0000

[...]

          k = 0.3333-0.2425-0.2968 (  6630 PWs)   bands (ev):

   -23.1238 -23.1223 -23.1192 -23.1167 -22.9912 -22.9901 -22.9865 -22.9845
   -22.9711 -22.9692 -21.5228 -21.5029 -21.4404 -21.3862 -20.5631 -20.5503
   -12.0944 -12.0757 -11.1552 -11.1473 -11.1160 -11.1064  -5.9953  -5.7624
    -5.7087  -5.6790  -5.6481  -5.6056  -5.5450  -5.5353  -5.5262  -5.5019
    -5.4645  -5.2403  -4.7838  -4.7116  -4.6842  -4.6653  -4.6533  -4.6092
    -2.0969  -2.0183   1.8073   1.8293   1.9265   1.9356   2.2006   2.5407
     3.4444   3.5142   3.6468   3.7263   3.8240   3.9377   4.0042   4.1308
     4.1856   4.2216   4.7508   4.8800   7.5451   8.5070   8.5328   8.6790

     occupation numbers
     1.0000   1.0000   1.0000   1.0000   1.0000   1.0000   1.0000   1.0000
     1.0000   1.0000   1.0000   1.0000   1.0000   1.0000   1.0000   1.0000
     1.0000   1.0000   1.0000   1.0000   1.0000   1.0000   1.0000   1.0000
     1.0000   1.0000   1.0000   1.0000   1.0000   1.0000   1.0000   1.0000
     1.0000   1.0000   1.0000   1.0000   1.0000   1.0000   1.0000   1.0000
     1.0000   1.0000   1.0000   1.0000   1.0000   1.0000   1.0000   1.0000
     1.0000   1.0000   1.0000   1.0000   1.0000   1.0000   1.0000   1.0000
     1.0000   1.0000   1.0000   1.0000   0.0000   0.0000   0.0000   0.0000

     highest occupied, lowest unoccupied level (ev):     5.0041    7.5451

!    total energy              =    -913.62816197 Ry
     estimated scf accuracy    <       0.00000032 Ry

     The total energy is the sum of the following terms:
     one-electron contribution =    -441.50003490 Ry
     hartree contribution      =     273.22225368 Ry
     xc contribution           =    -177.91466508 Ry
     ewald contribution        =    -510.25311838 Ry
     one-center paw contrib.   =     -57.18259728 Ry
      -> PAW hartree energy AE =       0.00000000 Ry
      -> PAW hartree energy PS =       0.00000000 Ry
      -> PAW xc energy AE      =       0.00000000 Ry
      -> PAW xc energy PS      =       0.00000000 Ry
      -> total E_H with PAW    =     273.22225368 Ry
      -> total E_XC with PAW   =    -177.91466508 Ry

     convergence has been achieved in  10 iterations

     Writing all to output data dir bands_nm/myprefix.save/

     General routines

     Parallel routines

     PAW routines

   This run was terminated on:  13:34: 2  16Jul2023

   JOB DONE.