     Program PWSCF v.7.0 starts on 23Jun2023 at 14:28:50

     K-points division:     npool     =       2
     R & G space division:  proc/nbgrp/npool/nimage =       4

     Reading input from espresso_9801.pwi
Warning: card &CELL ignored
Warning: card / ignored

     Current dimensions of program PWSCF are:
     Max number of different atomic species (ntypx) = 10
     Max number of k-points (npk) =  40000
     Max angular momentum in pseudopotentials (lmaxx) =  4
     file O.pbe-n-kjpaw_psl.0.1.UPF: wavefunction(s)  2P renormalized
     Message from routine setup:
     using ibrav=0 with symmetry is DISCOURAGED, use correct ibrav instead

     Using Slab Decomposition

     bravais-lattice index     =            0
     lattice parameter (alat)  =       7.2147  a.u.
     unit-cell volume          =    1628.4438 (a.u.)^3
     number of atoms/cell      =           16
     number of atomic types    =            3
     number of electrons       =       132.00
     number of Kohn-Sham states=           90
     kinetic-energy cutoff     =      30.0000  Ry
     charge density cutoff     =     240.0000  Ry
     scf convergence threshold =      1.0E-06
     mixing beta               =       0.7000
     number of iterations used =            8  plain     mixing
     Exchange-correlation= SLA  PW   PBX  PBC
                           (   1   4   3   4   0   0   0)

     celldm(1)=   7.214672  celldm(2)=   0.000000  celldm(3)=   0.000000
     celldm(4)=   0.000000  celldm(5)=   0.000000  celldm(6)=   0.000000

     crystal axes: (cart. coord. in units of alat)
               a(1) = (   1.000000   0.000000   0.000000 )
               a(2) = (  -0.500000   1.462022   0.000000 )
               a(3) = (   0.000000   0.000000   2.965985 )

     reciprocal axes: (cart. coord. in units 2 pi/alat)
               b(1) = (  1.000000  0.341992  0.000000 )
               b(2) = (  0.000000  0.683984  0.000000 )
               b(3) = (  0.000000  0.000000  0.337156 )

     PseudoPot. # 1 for Ca read from file:
     /home/pragov/projects/rrg-bengioy-ad/pragov/crystal_structure_design/SSSP/Ca_pbe_v1.uspp.F.UPF
     MD5 check sum: 403a4c14b9e4d4dfdc3024c9a3812218
     Pseudo is Ultrasoft + core correction, Zval = 10.0
     Generated by new atomic code, or converted to UPF format
     Using radial grid of  845 points,  6 beta functions with:
                l(1) =   0
                l(2) =   0
                l(3) =   1
                l(4) =   1
                l(5) =   2
                l(6) =   2
     Q(r) pseudized with  8 coefficients,  rinner =    1.500   1.500   1.500
                                                       1.500   1.500

     PseudoPot. # 2 for V  read from file:
     /home/pragov/projects/rrg-bengioy-ad/pragov/crystal_structure_design/SSSP/v_pbe_v1.4.uspp.F.UPF
     MD5 check sum: 22b79981416ebb76fdaf5b1b8640f6fb
     Pseudo is Ultrasoft + core correction, Zval = 13.0
     Generated by new atomic code, or converted to UPF format
     Using radial grid of  853 points,  6 beta functions with:
                l(1) =   0
                l(2) =   0
                l(3) =   1
                l(4) =   1
                l(5) =   2
                l(6) =   2
     Q(r) pseudized with  8 coefficients,  rinner =    1.100   1.100   1.100
                                                       1.100   1.100

     PseudoPot. # 3 for O  read from file:
     /home/pragov/projects/rrg-bengioy-ad/pragov/crystal_structure_design/SSSP/O.pbe-n-kjpaw_psl.0.1.UPF
     MD5 check sum: 0234752ac141de4415c5fc33072bef88
     Pseudo is Projector augmented-wave + core cor, Zval =  6.0
     Generated using "atomic" code by A. Dal Corso  v.5.0.99 svn rev. 10869
     Shape of augmentation charge: BESSEL
     Using radial grid of 1095 points,  4 beta functions with:
                l(1) =   0
                l(2) =   0
                l(3) =   1
                l(4) =   1
     Q(r) pseudized with 0 coefficients

     atomic species   valence    mass     pseudopotential
        Ca            10.00    40.07800     Ca( 1.00)
        V             13.00    50.94150     V ( 1.00)
        O              6.00    15.99900     O ( 1.00)

      8 Sym. Ops., with inversion, found ( 4 have fractional translation)

                                    s                        frac. trans.

      isym =  1     identity

 cryst.   s( 1) = (     1          0          0      )
                  (     0          1          0      )
                  (     0          0          1      )

 cart.    s( 1) = (  1.0000000  0.0000000  0.0000000 )
                  (  0.0000000  1.0000000  0.0000000 )
                  (  0.0000000  0.0000000  1.0000000 )

      isym =  2     180 deg rotation - cart. axis [0,0,1]

 cryst.   s( 2) = (    -1          0          0      )    f =( -0.0000010 )
                  (     0         -1          0      )       ( -0.0000010 )
                  (     0          0          1      )       (  0.5000000 )

 cart.    s( 2) = ( -1.0000000 -0.0000000  0.0000000 )    f =( -0.0000005 )
                  (  0.0000000 -1.0000000  0.0000000 )       ( -0.0000015 )
                  (  0.0000000  0.0000000  1.0000000 )       (  1.4829927 )

[...]

      isym =  4     180 deg rotation - cart. axis [1,0,0]

[...]

      isym =  5     inversion

[...]

      isym =  6     inv. 180 deg rotation - cart. axis [0,0,1]

[...]

 cryst.   s( 7) = (     1          0          0      )    f =( -0.0000010 )
                  (    -1         -1          0      )       ( -0.0000010 )
                  (     0          0          1      )       (  0.5000000 )

 cart.    s( 7) = (  1.0000000 -0.0000004  0.0000000 )    f =( -0.0000005 )
                  (  0.0000000 -1.0000000  0.0000000 )       ( -0.0000015 )
                  (  0.0000000  0.0000000  1.0000000 )       (  1.4829927 )

      isym =  8     inv. 180 deg rotation - cart. axis [1,0,0]

 cryst.   s( 8) = (    -1          0          0      )
                  (     1          1          0      )
                  (     0          0          1      )

 cart.    s( 8) = ( -1.0000000  0.0000004  0.0000000 )
                  (  0.0000000  1.0000000  0.0000000 )
                  (  0.0000000  0.0000000  1.0000000 )

   Cartesian axes

     site n.     atom                  positions (alat units)
         1           Ca  tau(   1) = (   0.5000007   1.1596921   2.2244891  )
         2           Ca  tau(   2) = (   0.0000001   0.3023316   0.7414964  )
         3           V   tau(   3) = (  -0.0000009   0.5920985   1.7680388  )
         4           V   tau(   4) = (   0.5000017   0.8699252   1.1979437  )
         5           V   tau(   5) = (   0.5000017   0.8699252   0.2850490  )
         6           V   tau(   6) = (  -0.0000009   0.5920985   2.6809394  )
         7           O   tau(   7) = (   0.5000001   0.6188068   0.7414964  )
         8           O   tau(   8) = (   0.0000007   0.8432169   2.2244891  )
         9           O   tau(   9) = (   0.0000011   0.7038731   0.2229442  )
        10           O   tau(  10) = (   0.5000006   0.7581506   2.7430412  )
        11           O   tau(  11) = (   0.5000006   0.7581506   1.7059370  )
        12           O   tau(  12) = (   0.0000011   0.7038731   1.2600455  )
        13           O   tau(  13) = (   0.0000005   0.1624906   1.8378521  )
        14           O   tau(  14) = (   0.5000002   1.2995302   1.1281333  )
        15           O   tau(  15) = (   0.0000005   0.1624906   2.6111261  )
        16           O   tau(  16) = (   0.5000002   1.2995302   0.3548624  )

   Crystallographic axes

     site n.     atom                  positions (cryst. coord.)
         1           Ca  tau(   1) = (  0.8966060  0.7932110  0.7500000  )
         2           Ca  tau(   2) = (  0.1033950  0.2067900  0.2500000  )
         3           V   tau(   3) = (  0.2024920  0.4049860  0.5961050  )
         4           V   tau(   4) = (  0.7975090  0.5950150  0.4038940  )
         5           V   tau(   5) = (  0.7975090  0.5950150  0.0961060  )
         6           V   tau(   6) = (  0.2024920  0.4049860  0.9038950  )
         7           O   tau(   7) = (  0.7116270  0.4232540  0.2500000  )
         8           O   tau(   8) = (  0.2883740  0.5767470  0.7500000  )
         9           O   tau(   9) = (  0.2407200  0.4814380  0.0751670  )
        10           O   tau(  10) = (  0.7592820  0.5185630  0.9248330  )
        11           O   tau(  11) = (  0.7592820  0.5185630  0.5751670  )
        12           O   tau(  12) = (  0.2407200  0.4814380  0.4248320  )
        13           O   tau(  13) = (  0.0555710  0.1111410  0.6196430  )
        14           O   tau(  14) = (  0.9444290  0.8888580  0.3803570  )
        15           O   tau(  15) = (  0.0555710  0.1111410  0.8803570  )
        16           O   tau(  16) = (  0.9444290  0.8888580  0.1196440  )

     number of k points=     8
                       cart. coord. in units 2pi/alat
        k(    1) = (   0.0000000   0.0000000   0.0000000), wk =   0.0740741
        k(    2) = (   0.0000000   0.0000000   0.1123854), wk =   0.1481481
        k(    3) = (   0.0000000   0.2279947   0.0000000), wk =   0.1481481
        k(    4) = (   0.0000000   0.2279947   0.1123854), wk =   0.2962963
        k(    5) = (   0.3333333   0.1139973   0.0000000), wk =   0.2962963
        k(    6) = (   0.3333333   0.1139973   0.1123854), wk =   0.5925926
        k(    7) = (   0.3333333   0.3419920   0.0000000), wk =   0.1481481
        k(    8) = (   0.3333333   0.3419920   0.1123854), wk =   0.2962963

                       cryst. coord.
        k(    1) = (   0.0000000   0.0000000   0.0000000), wk =   0.0740741
        k(    2) = (   0.0000000   0.0000000   0.3333333), wk =   0.1481481
        k(    3) = (   0.0000000   0.3333333   0.0000000), wk =   0.1481481
        k(    4) = (   0.0000000   0.3333333   0.3333333), wk =   0.2962963
        k(    5) = (   0.3333333   0.0000000   0.0000000), wk =   0.2962963
        k(    6) = (   0.3333333   0.0000000   0.3333333), wk =   0.5925926
        k(    7) = (   0.3333333   0.3333333   0.0000000), wk =   0.1481481
        k(    8) = (   0.3333333   0.3333333   0.3333333), wk =   0.2962963

     Check: negative core charge=   -0.000014

     Initial potential from superposition of free atoms

     starting charge     131.9842, renormalised to     132.0000

     negative rho (up, down):  1.767E-03 0.000E+00
     Starting wfcs are  100 randomized atomic wfcs
     Checking if some PAW data can be deallocated...

     Self-consistent Calculation

     iteration #  1     ecut=    30.00 Ry     beta= 0.70
     Davidson diagonalization with overlap

     ethr =  1.00E-02,  avg # of iterations =  2.0

     negative rho (up, down):  6.325E-03 0.000E+00

     total energy              =   -1143.98987901 Ry
     estimated scf accuracy    <       6.21380882 Ry

[...]

     total energy              =   -1147.66607444 Ry
     estimated scf accuracy    <       0.00000225 Ry

     iteration # 12     ecut=    30.00 Ry     beta= 0.70
     Davidson diagonalization with overlap

     ethr =  1.70E-09,  avg # of iterations =  2.0

     negative rho (up, down):  3.631E-03 0.000E+00

     End of self-consistent calculation

          k = 0.0000 0.0000 0.0000 (  4525 PWs)   bands (ev):

   -58.4995 -58.4980 -58.4870 -58.4858 -33.1824 -33.1809 -32.9050 -32.9039
   -32.8751 -32.8718 -32.1527 -32.1517 -32.1333 -32.1071 -32.1052 -32.1039
   -32.0836 -32.0562 -14.5641 -14.5475 -14.4165 -14.3854 -14.2764 -14.2750
   -12.6462 -12.4234 -11.9954 -11.7567 -11.7380 -11.7175 -11.3377 -11.2423
   -11.2422 -11.1624   0.6925   0.7513   0.9484   1.1471   1.1732   1.1933
     1.5585   1.5626   1.6131   1.8306   1.8918   2.0048   2.0294   2.1135
     2.2593   2.2916   2.4719   2.5865   2.7715   3.0376   3.0511   3.0700
     3.1177   3.2566   3.3443   3.3682   3.4518   3.5962   3.9473   4.2781
     6.8822   7.3868   7.5314   7.7305   8.0340   8.3962   8.6641   8.7543
     8.8770   8.8881   8.9085   9.0667   9.0753   9.0801   9.1178   9.1949
     9.6294   9.6714   9.6737   9.7773   9.9613  10.7229  11.5788  12.0414
    12.1769  12.1793

     occupation numbers
     1.0000   1.0000   1.0000   1.0000   1.0000   1.0000   1.0000   1.0000
     1.0000   1.0000   1.0000   1.0000   1.0000   1.0000   1.0000   1.0000
     1.0000   1.0000   1.0000   1.0000   1.0000   1.0000   1.0000   1.0000
     1.0000   1.0000   1.0000   1.0000   1.0000   1.0000   1.0000   1.0000
     1.0000   1.0000   1.0000   1.0000   1.0000   1.0000   1.0000   1.0000
     1.0000   1.0000   1.0000   1.0000   1.0000   1.0000   1.0000   1.0000
     1.0000   1.0000   1.0000   1.0000   1.0000   1.0000   1.0000   1.0000
     1.0000   1.0000   1.0000   1.0000   1.0000   1.0000   1.0000   1.0000
     1.0000   1.0000   0.0000   0.0000   0.0000   0.0000   0.0000   0.0000
     0.0000   0.0000   0.0000   0.0000   0.0000   0.0000   0.0000   0.0000
     0.0000   0.0000   0.0000   0.0000   0.0000   0.0000   0.0000   0.0000
     0.0000   0.0000

[...]

          k = 0.3333 0.3420 0.1124 (  4500 PWs)   bands (ev):

   -58.4954 -58.4948 -58.4891 -58.4885 -33.1746 -33.1732 -32.8942 -32.8936
   -32.8783 -32.8771 -32.1764 -32.1739 -32.1638 -32.1592 -32.0910 -32.0858
   -32.0657 -32.0581 -14.7235 -14.7195 -14.3890 -14.3862 -14.3703 -14.3685
   -12.1678 -12.1595 -11.8069 -11.7747 -11.4943 -11.4707 -11.3686 -11.3589
   -11.2465 -11.1987   0.3773   0.4482   0.7554   0.9463   1.2731   1.3916
     1.4062   1.5166   1.6311   1.6361   1.7442   1.7795   1.8675   1.9837
     2.2948   2.3751   2.4023   2.5965   2.8233   2.8571   2.8728   2.9105
     3.1713   3.4019   3.4157   3.5859   3.6420   3.7255   3.8273   3.9611
     7.5057   7.5215   7.7151   7.7592   7.9002   7.9509   8.0753   8.0868
     8.2163   8.3411   8.8490   8.9274   9.0061   9.0872   9.3334   9.3882
     9.7620   9.8152  10.1649  10.2548  11.3194  11.3207  11.7691  11.7873
    12.3246  12.4757

     occupation numbers
     1.0000   1.0000   1.0000   1.0000   1.0000   1.0000   1.0000   1.0000
     1.0000   1.0000   1.0000   1.0000   1.0000   1.0000   1.0000   1.0000
     1.0000   1.0000   1.0000   1.0000   1.0000   1.0000   1.0000   1.0000
     1.0000   1.0000   1.0000   1.0000   1.0000   1.0000   1.0000   1.0000
     1.0000   1.0000   1.0000   1.0000   1.0000   1.0000   1.0000   1.0000
     1.0000   1.0000   1.0000   1.0000   1.0000   1.0000   1.0000   1.0000
     1.0000   1.0000   1.0000   1.0000   1.0000   1.0000   1.0000   1.0000
     1.0000   1.0000   1.0000   1.0000   1.0000   1.0000   1.0000   1.0000
     1.0000   1.0000   0.0000   0.0000   0.0000   0.0000   0.0000   0.0000
     0.0000   0.0000   0.0000   0.0000   0.0000   0.0000   0.0000   0.0000
     0.0000   0.0000   0.0000   0.0000   0.0000   0.0000   0.0000   0.0000
     0.0000   0.0000

     highest occupied, lowest unoccupied level (ev):     7.5667    7.4896

!    total energy              =   -1147.66607474 Ry
     estimated scf accuracy    <       0.00000006 Ry

     The total energy is the sum of the following terms:
     one-electron contribution =    -690.84481993 Ry
     hartree contribution      =     392.36984592 Ry
     xc contribution           =    -176.22573102 Ry
     ewald contribution        =    -577.71157062 Ry
     one-center paw contrib.   =     -95.25379908 Ry
      -> PAW hartree energy AE =       0.00000000 Ry
      -> PAW hartree energy PS =       0.00000000 Ry
      -> PAW xc energy AE      =       0.00000000 Ry
      -> PAW xc energy PS      =       0.00000000 Ry
      -> total E_H with PAW    =     392.36984592 Ry
      -> total E_XC with PAW   =    -176.22573102 Ry

     convergence has been achieved in  12 iterations

     Writing all to output data dir calculations_bands/myprefix.save/

     General routines

     Parallel routines

     PAW routines

   This run was terminated on:  14:29: 3  23Jun2023

   JOB DONE.