     Program PWSCF v.7.1 starts on 12Jul2023 at 20: 3: 4

     Reading input from espresso_23185.pwi
Warning: card &CELL ignored
Warning: card / ignored

     Current dimensions of program PWSCF are:
     Max number of different atomic species (ntypx) = 10
     Max number of k-points (npk) =  40000
     Max angular momentum in pseudopotentials (lmaxx) =  4
     Message from routine setup:
     using ibrav=0 with symmetry is DISCOURAGED, use correct ibrav instead

     K-points division:     npool     =       2
     R & G space division:  proc/nbgrp/npool/nimage =       8
     Subspace diagonalization in iterative solution of the eigenvalue problem:
     a serial algorithm will be used

     Using Slab Decomposition

     bravais-lattice index     =            0
     lattice parameter (alat)  =       8.6148  a.u.
     unit-cell volume          =    1207.5124 (a.u.)^3
     number of atoms/cell      =            6
     number of atomic types    =            2
     number of electrons       =        78.00
     number of Kohn-Sham states=           64
     kinetic-energy cutoff     =      30.0000  Ry
     charge density cutoff     =     240.0000  Ry
     scf convergence threshold =      1.0E-06
     mixing beta               =       0.7000
     number of iterations used =            8  plain     mixing
     Exchange-correlation= SLA  PW   PBE  PBE
                           (   1   4   3   4   0   0   0)

     celldm(1)=   8.614819  celldm(2)=   0.000000  celldm(3)=   0.000000
     celldm(4)=   0.000000  celldm(5)=   0.000000  celldm(6)=   0.000000

     crystal axes: (cart. coord. in units of alat)
               a(1) = (   1.000000   0.000000   0.000000 )
               a(2) = (  -0.500000   0.866025   0.000000 )
               a(3) = (   0.000000   0.000000   2.180833 )

     reciprocal axes: (cart. coord. in units 2 pi/alat)
               b(1) = (  1.000000  0.577350  0.000000 )
               b(2) = (  0.000000  1.154701  0.000000 )
               b(3) = (  0.000000  0.000000  0.458540 )

     PseudoPot. # 1 for Hg read from file:
     /lustre07/scratch/pragov/crystal_structure_design/utils/SSSP/Hg_ONCV_PBE-1.0.oncvpsp.upf
     MD5 check sum: dd5a8773074bfcf4280086d4d95875c4
     Pseudo is Norm-conserving, Zval = 20.0
     Generated using ONCVPSP code by D. R. Hamann
     Using radial grid of 1262 points,  8 beta functions with:
                l(1) =   0
                l(2) =   0
                l(3) =   1
                l(4) =   1
                l(5) =   2
                l(6) =   2
                l(7) =   3
                l(8) =   3

     PseudoPot. # 2 for Se read from file:
     /lustre07/scratch/pragov/crystal_structure_design/utils/SSSP/Se_pbe_v1.uspp.F.UPF
     MD5 check sum: 1b3568f3a8ae88f9a2a0ad0698632c85
     Pseudo is Ultrasoft + core correction, Zval =  6.0
     Generated by new atomic code, or converted to UPF format
     Using radial grid of  877 points,  6 beta functions with:
                l(1) =   0
                l(2) =   0
                l(3) =   1
                l(4) =   1
                l(5) =   2
                l(6) =   2
     Q(r) pseudized with  8 coefficients,  rinner =    1.300   1.300   1.300
                                                       1.300   1.300

     atomic species   valence    mass     pseudopotential
        Hg            20.00   200.59200     Hg( 1.00)
        Se             6.00    78.97100     Se( 1.00)

      6 Sym. Ops. (no inversion) found ( 4 have fractional translation)

                                    s                        frac. trans.

      isym =  1     identity

 cryst.   s( 1) = (     1          0          0      )
                  (     0          1          0      )
                  (     0          0          1      )

 cart.    s( 1) = (  1.0000000  0.0000000  0.0000000 )
                  (  0.0000000  1.0000000  0.0000000 )
                  (  0.0000000  0.0000000  1.0000000 )

      isym =  2     180 deg rotation - cart. axis [1,0,0]

 cryst.   s( 2) = (     1          0          0      )    f =(  0.0000000 )
                  (    -1         -1          0      )       (  0.0000000 )
                  (     0          0         -1      )       ( -0.3333330 )

 cart.    s( 2) = (  1.0000000 -0.0000001  0.0000000 )    f =(  0.0000000 )
                  (  0.0000000 -1.0000000  0.0000000 )       (  0.0000000 )
                  (  0.0000000  0.0000000 -1.0000000 )       ( -0.7269438 )

      isym =  3     120 deg rotation - cryst. axis [0,0,1]

[...]

 cryst.   s( 5) = (    -1         -1          0      )    f =(  0.0000000 )
                  (     0          1          0      )       ( -0.0000000 )
                  (     0          0         -1      )       (  0.3333330 )

 cart.    s( 5) = ( -0.5000000 -0.8660253  0.0000000 )    f =(  0.0000000 )
                  ( -0.8660254  0.5000000  0.0000000 )       ( -0.0000000 )
                  (  0.0000000  0.0000000 -1.0000000 )       (  0.7269438 )

      isym =  6     180 deg rotation - cryst. axis [1,1,0]

 cryst.   s( 6) = (     0          1          0      )
                  (     1          0          0      )
                  (     0          0         -1      )

 cart.    s( 6) = ( -0.5000000  0.8660254  0.0000000 )
                  (  0.8660254  0.5000000  0.0000000 )
                  (  0.0000000  0.0000000 -1.0000000 )

   Cartesian axes

     site n.     atom                  positions (alat units)
         1           Hg  tau(   1) = (   0.3632165   0.6291094   0.0000000  )
         2           Hg  tau(   2) = (   0.2735670   0.0000000   1.4538897  )
         3           Hg  tau(   3) = (  -0.1367835   0.2369160   0.7269438  )
         4           Se  tau(   4) = (   0.2426340   0.4202544   1.0904167  )
         5           Se  tau(   5) = (   0.5147320   0.0000000   0.3634730  )
         6           Se  tau(   6) = (  -0.2573660   0.4457710   1.8173605  )

   Crystallographic axes

     site n.     atom                  positions (cryst. coord.)
         1           Hg  tau(   1) = (  0.7264330  0.7264330  0.0000000  )
         2           Hg  tau(   2) = (  0.2735670  0.0000000  0.6666670  )
         3           Hg  tau(   3) = ( -0.0000000  0.2735670  0.3333330  )
         4           Se  tau(   4) = (  0.4852680  0.4852680  0.5000000  )
         5           Se  tau(   5) = (  0.5147320  0.0000000  0.1666670  )
         6           Se  tau(   6) = ( -0.0000000  0.5147320  0.8333330  )

     number of k points=     7
                       cart. coord. in units 2pi/alat
        k(    1) = (   0.0000000   0.0000000   0.0000000), wk =   0.0740741
        k(    2) = (   0.0000000   0.0000000   0.1528468), wk =   0.1481481
        k(    3) = (   0.0000000   0.3849002   0.0000000), wk =   0.4444444
        k(    4) = (   0.0000000   0.3849002   0.1528468), wk =   0.4444444
        k(    5) = (   0.3333333   0.5773502   0.0000000), wk =   0.1481481
        k(    6) = (   0.3333333   0.5773502   0.1528468), wk =   0.2962963
        k(    7) = (   0.0000000   0.3849002  -0.1528468), wk =   0.4444444

                       cryst. coord.
        k(    1) = (   0.0000000   0.0000000   0.0000000), wk =   0.0740741
        k(    2) = (   0.0000000   0.0000000   0.3333333), wk =   0.1481481
        k(    3) = (   0.0000000   0.3333333   0.0000000), wk =   0.4444444
        k(    4) = (   0.0000000   0.3333333   0.3333333), wk =   0.4444444
        k(    5) = (   0.3333333   0.3333333   0.0000000), wk =   0.1481481
        k(    6) = (   0.3333333   0.3333333   0.3333333), wk =   0.2962963
        k(    7) = (   0.0000000   0.3333333  -0.3333333), wk =   0.4444444

     Initial potential from superposition of free atoms

     starting charge      77.9996, renormalised to      78.0000
     Starting wfcs are   42 randomized atomic wfcs +   22 random wfcs

     Self-consistent Calculation

     iteration #  1     ecut=    30.00 Ry     beta= 0.70
     Davidson diagonalization with overlap

     ethr =  1.00E-02,  avg # of iterations =  8.3

     Threshold (ethr) on eigenvalues was too large:
     Diagonalizing with lowered threshold

     Davidson diagonalization with overlap

[...]

     total energy              =   -1060.46119950 Ry
     estimated scf accuracy    <       0.41815511 Ry

[...]

     total energy              =   -1060.65954455 Ry
     estimated scf accuracy    <       0.00001501 Ry

     iteration #  6     ecut=    30.00 Ry     beta= 0.70
     Davidson diagonalization with overlap

     ethr =  1.92E-08,  avg # of iterations =  2.0

     End of self-consistent calculation

          k = 0.0000 0.0000 0.0000 (  3327 PWs)   bands (ev):

  -108.7601-108.7600-108.7600 -56.7440 -56.7410 -56.7409 -56.5512 -56.5481
   -56.5480 -56.5358 -56.5341 -56.5340  -6.1405  -5.4466  -5.4463  -0.1697
    -0.1695   0.1993   0.2772   0.2772   0.4567   0.5375   0.6080   0.6080
     0.7988   0.7988   0.8588   0.8588   0.8994   0.9083   2.7716   2.7718
     4.6634   5.1746   5.4614   5.4616   6.5835   6.6588   6.6590   7.7347
     9.4880   9.4881  10.7268  10.7270  11.6070  12.4656  12.4656  13.2302
    14.8328  15.0998  15.0998  15.7243  15.7244  16.3064  16.4068  16.4069
    16.5616  17.3935  17.7632  17.7632  18.1931  18.1931  18.8684  19.4884

     occupation numbers
     1.0000   1.0000   1.0000   1.0000   1.0000   1.0000   1.0000   1.0000
     1.0000   1.0000   1.0000   1.0000   1.0000   1.0000   1.0000   1.0000
     1.0000   1.0000   1.0000   1.0000   1.0000   1.0000   1.0000   1.0000
     1.0000   1.0000   1.0000   1.0000   1.0000   1.0000   1.0000   1.0000
     1.0000   1.0000   1.0000   1.0000   1.0000   1.0000   1.0000   0.0000
     0.0000   0.0000   0.0000   0.0000   0.0000   0.0000   0.0000   0.0000
     0.0000   0.0000   0.0000   0.0000   0.0000   0.0000   0.0000   0.0000
     0.0000   0.0000   0.0000   0.0000   0.0000   0.0000   0.0000   0.0000

[...]

          k = 0.0000 0.3849-0.1528 (  3360 PWs)   bands (ev):

  -108.7602-108.7601-108.7601 -56.7475 -56.7466 -56.7461 -56.5539 -56.5516
   -56.5508 -56.5421 -56.5400 -56.5381  -5.8148  -5.6050  -5.2628  -0.4396
     0.1179   0.2763   0.3348   0.4201   0.4650   0.5808   0.6136   0.6745
     0.7871   0.8552   0.8628   0.8909   0.9158   0.9531   2.5858   2.9464
     3.1440   4.2964   5.0142   5.1626   5.8569   6.1766   6.2892   8.4402
     8.8518   9.7803  10.0767  11.5336  12.3077  12.3948  12.9973  13.1788
    14.6955  15.1373  15.1781  15.9473  16.2400  16.5977  17.5245  17.5566
    18.1657  18.4332  19.2981  19.7677  20.3265  20.6254  20.7209  20.9906

     occupation numbers
     1.0000   1.0000   1.0000   1.0000   1.0000   1.0000   1.0000   1.0000
     1.0000   1.0000   1.0000   1.0000   1.0000   1.0000   1.0000   1.0000
     1.0000   1.0000   1.0000   1.0000   1.0000   1.0000   1.0000   1.0000
     1.0000   1.0000   1.0000   1.0000   1.0000   1.0000   1.0000   1.0000
     1.0000   1.0000   1.0000   1.0000   1.0000   1.0000   1.0000   0.0000
     0.0000   0.0000   0.0000   0.0000   0.0000   0.0000   0.0000   0.0000
     0.0000   0.0000   0.0000   0.0000   0.0000   0.0000   0.0000   0.0000
     0.0000   0.0000   0.0000   0.0000   0.0000   0.0000   0.0000   0.0000

     highest occupied, lowest unoccupied level (ev):     6.6973    7.7347

!    total energy              =   -1060.65954858 Ry
     estimated scf accuracy    <       0.00000021 Ry

     The total energy is the sum of the following terms:
     one-electron contribution =    -651.82006734 Ry
     hartree contribution      =     329.83655424 Ry
     xc contribution           =    -171.14975899 Ry
     ewald contribution        =    -567.52627649 Ry

     convergence has been achieved in   6 iterations

     Writing all to output data dir bands_nm/myprefix.save/

     General routines

     Parallel routines

   This run was terminated on:  20: 3:14  12Jul2023

   JOB DONE.