     Program PWSCF v.7.1 starts on 15Jul2023 at 19: 4: 2

     Reading input from espresso_17975.pwi
Warning: card &CELL ignored
Warning: card / ignored

     Current dimensions of program PWSCF are:
     Max number of different atomic species (ntypx) = 10
     Max number of k-points (npk) =  40000
     Max angular momentum in pseudopotentials (lmaxx) =  4
     file O.pbe-n-kjpaw_psl.0.1.UPF: wavefunction(s)  2P renormalized
     Message from routine setup:
     using ibrav=0 with symmetry is DISCOURAGED, use correct ibrav instead

     K-points division:     npool     =       2
     R & G space division:  proc/nbgrp/npool/nimage =       4
     Subspace diagonalization in iterative solution of the eigenvalue problem:
     one sub-group per band group will be used

     Using Slab Decomposition

     bravais-lattice index     =            0
     lattice parameter (alat)  =      12.8197  a.u.
     unit-cell volume          =    2796.7816 (a.u.)^3
     number of atoms/cell      =           18
     number of atomic types    =            4
     number of electrons       =       204.00
     number of Kohn-Sham states=          256
     kinetic-energy cutoff     =      30.0000  Ry
     charge density cutoff     =     240.0000  Ry
     scf convergence threshold =      1.0E-06
     mixing beta               =       0.7000
     number of iterations used =            8  plain     mixing
     Exchange-correlation= SLA  PW   PBX  PBC
                           (   1   4   3   4   0   0   0)

     celldm(1)=  12.819696  celldm(2)=   0.000000  celldm(3)=   0.000000
     celldm(4)=   0.000000  celldm(5)=   0.000000  celldm(6)=   0.000000

     crystal axes: (cart. coord. in units of alat)
               a(1) = (   1.000000   0.000000   0.000000 )
               a(2) = (  -0.500000   0.866025   0.000000 )
               a(3) = (   0.000000   0.000000   1.532833 )

     reciprocal axes: (cart. coord. in units 2 pi/alat)
               b(1) = (  1.000000  0.577350  0.000000 )
               b(2) = (  0.000000  1.154701  0.000000 )
               b(3) = (  0.000000  0.000000  0.652387 )

     PseudoPot. # 1 for Na read from file:
     /lustre07/scratch/pragov/crystal_structure_design/utils/SSSP/na_pbe_v1.5.uspp.F.UPF
     MD5 check sum: 44600605ef58000f06b90626533354dc
     Pseudo is Ultrasoft, Zval =  9.0
     Generated by new atomic code, or converted to UPF format
     Using radial grid of  819 points,  5 beta functions with:
                l(1) =   0
                l(2) =   0
                l(3) =   1
                l(4) =   1
                l(5) =   2
     Q(r) pseudized with  8 coefficients,  rinner =    1.250   1.250   1.250
                                                       1.250   1.250

     PseudoPot. # 2 for Hg read from file:
     /lustre07/scratch/pragov/crystal_structure_design/utils/SSSP/Hg_ONCV_PBE-1.0.oncvpsp.upf
     MD5 check sum: dd5a8773074bfcf4280086d4d95875c4
     Pseudo is Norm-conserving, Zval = 20.0
     Generated using ONCVPSP code by D. R. Hamann
     Using radial grid of 1262 points,  8 beta functions with:
                l(1) =   0
                l(2) =   0
                l(3) =   1
                l(4) =   1
                l(5) =   2
                l(6) =   2
                l(7) =   3
                l(8) =   3

     PseudoPot. # 3 for I  read from file:
     /lustre07/scratch/pragov/crystal_structure_design/utils/SSSP/I.pbe-n-kjpaw_psl.0.2.UPF
     MD5 check sum: d4ef18d9c8f18dc85e5843bca1e50dc0
     Pseudo is Projector augmented-wave + core cor, Zval =  7.0
     Generated using "atomic" code by A. Dal Corso  v.5.0.99 svn rev. 10869
     Shape of augmentation charge: PSQ
     Using radial grid of 1247 points,  4 beta functions with:
                l(1) =   0
                l(2) =   0
                l(3) =   1
                l(4) =   1
     Q(r) pseudized with 0 coefficients

     PseudoPot. # 4 for O  read from file:
     /lustre07/scratch/pragov/crystal_structure_design/utils/SSSP/O.pbe-n-kjpaw_psl.0.1.UPF
     MD5 check sum: 0234752ac141de4415c5fc33072bef88
     Pseudo is Projector augmented-wave + core cor, Zval =  6.0
     Generated using "atomic" code by A. Dal Corso  v.5.0.99 svn rev. 10869
     Shape of augmentation charge: BESSEL
     Using radial grid of 1095 points,  4 beta functions with:
                l(1) =   0
                l(2) =   0
                l(3) =   1
                l(4) =   1
     Q(r) pseudized with 0 coefficients

     atomic species   valence    mass     pseudopotential
        Na             9.00    22.98977     Na( 1.00)
        Hg            20.00   200.59200     Hg( 1.00)
        I              7.00   126.90447     I ( 1.00)
        O              6.00    15.99900     O ( 1.00)

     12 Sym. Ops. (no inversion) found ( 8 have fractional translation)

                                    s                        frac. trans.

      isym =  1     identity

 cryst.   s( 1) = (     1          0          0      )
                  (     0          1          0      )
                  (     0          0          1      )

 cart.    s( 1) = (  1.0000000 -0.0000000  0.0000000 )
                  (  0.0000000  1.0000000  0.0000000 )
                  (  0.0000000  0.0000000  1.0000000 )

      isym =  2     180 deg rotation - cart. axis [0,0,1]

[...]

      isym =  4     180 deg rotation - cart. axis [1,0,0]

 cryst.   s( 4) = (     1          0          0      )
                  (    -1         -1          0      )
                  (     0          0         -1      )

 cart.    s( 4) = (  1.0000000  0.0000003  0.0000000 )
                  (  0.0000000 -1.0000000  0.0000000 )
                  (  0.0000000  0.0000000 -1.0000000 )

      isym =  5      60 deg rotation - cryst. axis [0,0,1]

 cryst.   s( 5) = (     1          1          0      )    f =(  0.0000000 )
                  (    -1          0          0      )       (  0.0000000 )
                  (     0          0          1      )       ( -0.3333340 )

 cart.    s( 5) = (  0.4999999 -0.8660255  0.0000000 )    f =(  0.0000000 )
                  (  0.8660253  0.5000001  0.0000000 )       (  0.0000000 )
                  (  0.0000000  0.0000000  1.0000000 )       ( -0.5109453 )

[...]

 cryst.   s( 9) = (     0         -1          0      )    f =(  0.0000000 )
                  (    -1          0          0      )       (  0.0000000 )
                  (     0          0         -1      )       (  0.3333330 )

 cart.    s( 9) = (  0.5000001 -0.8660253  0.0000000 )    f =(  0.0000000 )
                  ( -0.8660253 -0.5000001  0.0000000 )       (  0.0000000 )
                  (  0.0000000  0.0000000 -1.0000000 )       (  0.5109438 )

[...]

 cryst.   s(10) = (     1          1          0      )    f =(  0.0000000 )
                  (     0         -1          0      )       (  0.0000000 )
                  (     0          0         -1      )       ( -0.3333340 )

 cart.    s(10) = (  0.4999999  0.8660256  0.0000000 )    f =(  0.0000000 )
                  (  0.8660253 -0.4999999  0.0000000 )       (  0.0000000 )
                  (  0.0000000  0.0000000 -1.0000000 )       ( -0.5109453 )

[...]

      isym = 12     180 deg rotation - cryst. axis [1,1,0]

 cryst.   s(12) = (     0          1          0      )    f =(  0.0000000 )
                  (     1          0          0      )       (  0.0000000 )
                  (     0          0         -1      )       (  0.3333330 )

 cart.    s(12) = ( -0.5000001  0.8660253  0.0000000 )    f =(  0.0000000 )
                  (  0.8660253  0.5000001  0.0000000 )       (  0.0000000 )
                  (  0.0000000  0.0000000 -1.0000000 )       (  0.5109438 )

   Cartesian axes

     site n.     atom                  positions (alat units)
         1           Na  tau(   1) = (   0.0000000   0.0000000   0.2554727  )
         2           Na  tau(   2) = (   0.0000000   0.0000000   1.2773602  )
         3           Na  tau(   3) = (   0.0000000   0.0000000   0.7664164  )
         4           Hg  tau(   4) = (   0.2499999   0.4330127   0.0061344  )
         5           Hg  tau(   5) = (  -0.2500001   0.4330127   0.5170782  )
         6           Hg  tau(   6) = (   0.5000000   0.0000000   1.0280220  )
         7           Hg  tau(   7) = (  -0.2500001   0.4330127   1.5266985  )
         8           Hg  tau(   8) = (   0.2499999   0.4330127   1.0157547  )
         9           Hg  tau(   9) = (   0.5000000   0.0000000   0.5048109  )
        10           I   tau(  10) = (   0.5000000   0.0000000   0.0000000  )
        11           I   tau(  11) = (   0.2499999   0.4330127   0.5109438  )
        12           I   tau(  12) = (  -0.2500001   0.4330127   1.0218891  )
        13           O   tau(  13) = (   0.4999999   0.6099676   0.0000000  )
        14           O   tau(  14) = (  -0.2782476   0.7379965   0.5109438  )
        15           O   tau(  15) = (   0.2782474   0.7379965   1.0218891  )
        16           O   tau(  16) = (   0.2217525   0.1280289   1.0218891  )
        17           O   tau(  17) = (  -0.0000000   0.2560577   0.0000000  )
        18           O   tau(  18) = (   0.7782475   0.1280289   0.5109438  )

   Crystallographic axes

     site n.     atom                  positions (cryst. coord.)
         1           Na  tau(   1) = (  0.0000000  0.0000000  0.1666670  )
         2           Na  tau(   2) = (  0.0000000  0.0000000  0.8333330  )
         3           Na  tau(   3) = (  0.0000000  0.0000000  0.5000000  )
         4           Hg  tau(   4) = (  0.5000000  0.5000000  0.0040020  )
         5           Hg  tau(   5) = (  0.0000000  0.5000000  0.3373350  )
         6           Hg  tau(   6) = (  0.5000000  0.0000000  0.6706680  )
         7           Hg  tau(   7) = (  0.0000000  0.5000000  0.9959980  )
         8           Hg  tau(   8) = (  0.5000000  0.5000000  0.6626650  )
         9           Hg  tau(   9) = (  0.5000000  0.0000000  0.3293320  )
        10           I   tau(  10) = (  0.5000000  0.0000000  0.0000000  )
        11           I   tau(  11) = (  0.5000000  0.5000000  0.3333330  )
        12           I   tau(  12) = (  0.0000000  0.5000000  0.6666670  )
        13           O   tau(  13) = (  0.8521650  0.7043300  0.0000000  )
        14           O   tau(  14) = (  0.1478350  0.8521650  0.3333330  )
        15           O   tau(  15) = (  0.7043300  0.8521650  0.6666670  )
        16           O   tau(  16) = (  0.2956700  0.1478350  0.6666670  )
        17           O   tau(  17) = (  0.1478350  0.2956700  0.0000000  )
        18           O   tau(  18) = (  0.8521650  0.1478350  0.3333330  )

     number of k points=     6
                       cart. coord. in units 2pi/alat
        k(    1) = (   0.0000000   0.0000000   0.0000000), wk =   0.0740741
        k(    2) = (   0.0000000   0.0000000   0.2174623), wk =   0.1481481
        k(    3) = (   0.0000000   0.3849002   0.0000000), wk =   0.4444444
        k(    4) = (   0.0000000   0.3849002   0.2174623), wk =   0.8888889
        k(    5) = (   0.3333333   0.5773504   0.0000000), wk =   0.1481481
        k(    6) = (   0.3333333   0.5773504   0.2174623), wk =   0.2962963

                       cryst. coord.
        k(    1) = (   0.0000000   0.0000000   0.0000000), wk =   0.0740741
        k(    2) = (   0.0000000   0.0000000   0.3333333), wk =   0.1481481
        k(    3) = (   0.0000000   0.3333333   0.0000000), wk =   0.4444444
        k(    4) = (   0.0000000   0.3333333   0.3333333), wk =   0.8888889
        k(    5) = (   0.3333333   0.3333333   0.0000000), wk =   0.1481481
        k(    6) = (   0.3333333   0.3333333   0.3333333), wk =   0.2962963

     Check: negative core charge=   -0.000006

     Initial potential from superposition of free atoms

     starting charge     203.9805, renormalised to     204.0000
     Starting wfcs are  111 randomized atomic wfcs +  145 random wfcs
     Checking if some PAW data can be deallocated...

     Self-consistent Calculation

     iteration #  1     ecut=    30.00 Ry     beta= 0.70
     Davidson diagonalization with overlap

     ethr =  1.00E-02,  avg # of iterations =  7.7

     total energy              =   -3529.80408336 Ry
     estimated scf accuracy    <       3.96584919 Ry

[...]

     total energy              =   -3532.02271263 Ry
     estimated scf accuracy    <       0.00000646 Ry

     iteration #  8     ecut=    30.00 Ry     beta= 0.70
     Davidson diagonalization with overlap

     ethr =  3.17E-09,  avg # of iterations =  2.2

     End of self-consistent calculation

          k = 0.0000 0.0000 0.0000 (  7775 PWs)   bands (ev):

  -109.1507-109.1506-109.1505-109.1504-109.1504-109.1503 -57.1548 -57.1537
   -57.1537 -57.1508 -57.1498 -57.1498 -56.9407 -56.9406 -56.9367 -56.9364
   -56.9363 -56.9317 -56.9274 -56.9250 -56.9249 -56.9229 -56.9198 -56.9198
   -44.1033 -44.1021 -44.1020 -16.0511 -16.0488 -16.0487 -16.0177 -16.0176
   -16.0033 -16.0032 -15.9933 -15.9743 -11.6818 -11.6291 -11.6290 -11.0305
   -11.0304 -11.0251  -5.5017  -5.3988  -5.3987  -1.5834  -1.5833  -1.5702
    -0.7919  -0.7475  -0.7474  -0.3845  -0.3132  -0.3132   0.2264   0.3009
     0.3009   0.3574   0.3575   0.3886   0.3887   0.4015   0.4267   0.4410
     0.4411   0.4718   0.4719   0.5013   0.5013   0.5019   0.5929   0.5930
     0.6504   0.6504   0.6935   2.6315   2.6316   2.6988   2.6989   2.7682
     2.8046   2.8047   2.8615   2.9152   2.9467   3.3157   3.3158   3.6986
     3.6986   4.2523   4.3695   4.4773   4.4773   4.7679   4.8122   4.8123
     5.1353   5.1354   5.2338   5.2609   5.2610   5.4918   7.0419   7.9316
     7.9317   9.9223   9.9226  10.4189  10.4788  10.4789  10.6174  11.9032
    11.9342  11.9343  12.3015  12.4182  13.1576  13.1578  13.1871  13.1872
    13.4767  13.4767  14.3423  14.4763  14.4763  14.5897  14.5897  14.8115
    15.6881  15.6881  15.8907  15.8907  16.0503  16.3214  16.4681  16.4682
    16.5310  17.1129  17.2244  17.3071  17.3072  17.5674  18.1358  18.1358
    18.9506  18.9506  19.1695  19.2465  19.4495  19.4784  19.4784  19.7982
    19.7983  19.8361  20.2616  20.4072  20.4813  20.4813  20.9640  20.9641
    21.1351  21.1351  21.1833  21.4771  21.4771  21.4962  21.9842  21.9843
    22.5129  22.9587  23.0790  23.0790  23.1598  23.2601  23.2602  23.4977
    23.4977  23.6372  23.7644  23.7645  23.8230  24.3133  24.3134  24.4788
    25.3401  25.3401  25.4336  25.4336  25.4471  25.8155  26.1231  26.2277
    26.2278  26.7297  26.7298  26.7353  26.9998  27.0733  27.1284  27.1284
    27.3798  27.3798  27.4516  27.5394  27.5395  27.9199  27.9200  27.9696
    27.9697  28.0899  28.4677  28.4678  28.4942  28.4942  28.9287  29.2528
    29.2529  29.4614  29.9177  29.9178  30.5201  30.5437  30.6251  30.7315
    30.7315  31.2128  31.2128  31.2131  31.2131  31.4681  31.6690  31.6690
    31.7281  31.7281  31.7895  31.7959  32.0146  32.3230  32.5451  32.5451
    32.6740  32.9185  32.9185  33.0608  33.0608  33.3164  33.4023  33.4726
    33.4727  33.5131  33.5227  33.5227  33.5701  33.5702  34.2453  34.2517

     occupation numbers
     1.0000   1.0000   1.0000   1.0000   1.0000   1.0000   1.0000   1.0000
     1.0000   1.0000   1.0000   1.0000   1.0000   1.0000   1.0000   1.0000
     1.0000   1.0000   1.0000   1.0000   1.0000   1.0000   1.0000   1.0000
     1.0000   1.0000   1.0000   1.0000   1.0000   1.0000   1.0000   1.0000
     1.0000   1.0000   1.0000   1.0000   1.0000   1.0000   1.0000   1.0000
     1.0000   1.0000   1.0000   1.0000   1.0000   1.0000   1.0000   1.0000
     1.0000   1.0000   1.0000   1.0000   1.0000   1.0000   1.0000   1.0000
     1.0000   1.0000   1.0000   1.0000   1.0000   1.0000   1.0000   1.0000
     1.0000   1.0000   1.0000   1.0000   1.0000   1.0000   1.0000   1.0000
     1.0000   1.0000   1.0000   1.0000   1.0000   1.0000   1.0000   1.0000
     1.0000   1.0000   1.0000   1.0000   1.0000   1.0000   1.0000   1.0000
     1.0000   1.0000   1.0000   1.0000   1.0000   1.0000   1.0000   1.0000
     1.0000   1.0000   1.0000   1.0000   1.0000   1.0000   0.0000   0.0000
     0.0000   0.0000   0.0000   0.0000   0.0000   0.0000   0.0000   0.0000
     0.0000   0.0000   0.0000   0.0000   0.0000   0.0000   0.0000   0.0000
     0.0000   0.0000   0.0000   0.0000   0.0000   0.0000   0.0000   0.0000
     0.0000   0.0000   0.0000   0.0000   0.0000   0.0000   0.0000   0.0000
     0.0000   0.0000   0.0000   0.0000   0.0000   0.0000   0.0000   0.0000
     0.0000   0.0000   0.0000   0.0000   0.0000   0.0000   0.0000   0.0000
     0.0000   0.0000   0.0000   0.0000   0.0000   0.0000   0.0000   0.0000
     0.0000   0.0000   0.0000   0.0000   0.0000   0.0000   0.0000   0.0000
     0.0000   0.0000   0.0000   0.0000   0.0000   0.0000   0.0000   0.0000
     0.0000   0.0000   0.0000   0.0000   0.0000   0.0000   0.0000   0.0000
     0.0000   0.0000   0.0000   0.0000   0.0000   0.0000   0.0000   0.0000
     0.0000   0.0000   0.0000   0.0000   0.0000   0.0000   0.0000   0.0000
     0.0000   0.0000   0.0000   0.0000   0.0000   0.0000   0.0000   0.0000
     0.0000   0.0000   0.0000   0.0000   0.0000   0.0000   0.0000   0.0000
     0.0000   0.0000   0.0000   0.0000   0.0000   0.0000   0.0000   0.0000
     0.0000   0.0000   0.0000   0.0000   0.0000   0.0000   0.0000   0.0000
     0.0000   0.0000   0.0000   0.0000   0.0000   0.0000   0.0000   0.0000
     0.0000   0.0000   0.0000   0.0000   0.0000   0.0000   0.0000   0.0000
     0.0000   0.0000   0.0000   0.0000   0.0000   0.0000   0.0000   0.0000

[...]

          k = 0.3333 0.5774 0.2175 (  7782 PWs)   bands (ev):

  -109.1506-109.1506-109.1505-109.1505-109.1505-109.1504 -57.1567 -57.1559
   -57.1542 -57.1536 -57.1532 -57.1521 -56.9418 -56.9406 -56.9362 -56.9354
   -56.9347 -56.9326 -56.9307 -56.9253 -56.9252 -56.9240 -56.9228 -56.9221
   -44.1033 -44.1025 -44.1019 -16.0514 -16.0513 -16.0484 -16.0300 -16.0078
   -15.9999 -15.9968 -15.9952 -15.9808 -11.4839 -11.4791 -11.4763 -11.2455
   -11.2255 -11.1882  -5.4355  -5.3956  -5.3731  -1.1587  -1.1445  -1.1411
    -0.4788  -0.4689  -0.4682  -0.2604  -0.1825  -0.1573  -0.1066  -0.0778
    -0.0567   0.0674   0.0932   0.1082   0.1662   0.1716   0.1726   0.2110
     0.2297   0.2499   0.3555   0.3717   0.4119   0.4261   0.4414   0.4632
     0.5357   0.5380   0.5436   1.5064   1.8471   1.8854   2.4300   2.4335
     2.7670   3.4836   3.5177   3.5836   3.8630   3.8639   3.8782   3.9812
     3.9922   4.4486   4.5088   4.7925   4.8034   4.9477   5.1526   5.1529
     5.1918   5.1951   5.3097   5.5218   5.5746   5.6433   8.2317   8.4577
     8.6944   8.9919   9.1563   9.2735  10.4771  10.7273  10.8318  11.0648
    11.1757  11.3037  11.9562  12.0241  12.0945  12.1548  12.3894  12.7728
    13.0176  13.2623  13.3750  13.7829  14.0661  14.4286  14.6586  14.9350
    15.5947  15.7404  15.8872  15.9921  16.3282  16.3296  16.7636  17.1968
    17.2340  17.3550  17.4556  17.5556  17.8545  18.0092  18.0718  18.5536
    18.7245  18.9261  19.0823  19.2099  19.5334  19.6003  19.7614  19.8756
    19.8835  19.9103  20.1046  20.2763  20.8098  20.8992  21.1151  21.3335
    21.4949  21.5454  21.6470  21.6876  22.4235  22.6081  22.7550  22.7566
    22.9941  23.0637  23.1152  23.3316  23.3993  23.4064  23.4969  23.8295
    23.9133  24.1014  24.2811  24.3524  24.5123  24.6764  24.8666  25.1689
    25.2994  25.4934  25.6730  25.6980  25.8198  26.1187  26.1266  26.2412
    26.2546  26.3444  26.4451  26.6118  26.7162  26.7766  26.9186  26.9365
    27.2748  27.3140  27.4512  27.4919  27.5531  27.6400  27.8583  28.0021
    28.0842  28.3558  28.5426  28.5838  28.7838  28.8528  28.9594  29.0452
    29.0754  29.1334  29.2088  29.2928  29.3088  29.5727  29.7765  29.7777
    29.8381  30.2130  30.4115  30.4526  30.8132  30.8531  30.9965  31.0081
    31.0591  31.1911  31.4430  31.4541  31.4704  31.7577  31.8992  32.0335
    32.0612  32.0837  32.0893  32.2909  32.5581  32.5771  32.6590  32.7158
    32.8814  33.0608  33.2451  33.3717  33.3911  33.4079  33.5090  33.6936

     occupation numbers
     1.0000   1.0000   1.0000   1.0000   1.0000   1.0000   1.0000   1.0000
     1.0000   1.0000   1.0000   1.0000   1.0000   1.0000   1.0000   1.0000
     1.0000   1.0000   1.0000   1.0000   1.0000   1.0000   1.0000   1.0000
     1.0000   1.0000   1.0000   1.0000   1.0000   1.0000   1.0000   1.0000
     1.0000   1.0000   1.0000   1.0000   1.0000   1.0000   1.0000   1.0000
     1.0000   1.0000   1.0000   1.0000   1.0000   1.0000   1.0000   1.0000
     1.0000   1.0000   1.0000   1.0000   1.0000   1.0000   1.0000   1.0000
     1.0000   1.0000   1.0000   1.0000   1.0000   1.0000   1.0000   1.0000
     1.0000   1.0000   1.0000   1.0000   1.0000   1.0000   1.0000   1.0000
     1.0000   1.0000   1.0000   1.0000   1.0000   1.0000   1.0000   1.0000
     1.0000   1.0000   1.0000   1.0000   1.0000   1.0000   1.0000   1.0000
     1.0000   1.0000   1.0000   1.0000   1.0000   1.0000   1.0000   1.0000
     1.0000   1.0000   1.0000   1.0000   1.0000   1.0000   0.0000   0.0000
     0.0000   0.0000   0.0000   0.0000   0.0000   0.0000   0.0000   0.0000
     0.0000   0.0000   0.0000   0.0000   0.0000   0.0000   0.0000   0.0000
     0.0000   0.0000   0.0000   0.0000   0.0000   0.0000   0.0000   0.0000
     0.0000   0.0000   0.0000   0.0000   0.0000   0.0000   0.0000   0.0000
     0.0000   0.0000   0.0000   0.0000   0.0000   0.0000   0.0000   0.0000
     0.0000   0.0000   0.0000   0.0000   0.0000   0.0000   0.0000   0.0000
     0.0000   0.0000   0.0000   0.0000   0.0000   0.0000   0.0000   0.0000
     0.0000   0.0000   0.0000   0.0000   0.0000   0.0000   0.0000   0.0000
     0.0000   0.0000   0.0000   0.0000   0.0000   0.0000   0.0000   0.0000
     0.0000   0.0000   0.0000   0.0000   0.0000   0.0000   0.0000   0.0000
     0.0000   0.0000   0.0000   0.0000   0.0000   0.0000   0.0000   0.0000
     0.0000   0.0000   0.0000   0.0000   0.0000   0.0000   0.0000   0.0000
     0.0000   0.0000   0.0000   0.0000   0.0000   0.0000   0.0000   0.0000
     0.0000   0.0000   0.0000   0.0000   0.0000   0.0000   0.0000   0.0000
     0.0000   0.0000   0.0000   0.0000   0.0000   0.0000   0.0000   0.0000
     0.0000   0.0000   0.0000   0.0000   0.0000   0.0000   0.0000   0.0000
     0.0000   0.0000   0.0000   0.0000   0.0000   0.0000   0.0000   0.0000
     0.0000   0.0000   0.0000   0.0000   0.0000   0.0000   0.0000   0.0000
     0.0000   0.0000   0.0000   0.0000   0.0000   0.0000   0.0000   0.0000

     highest occupied, lowest unoccupied level (ev):     5.6839    7.0419

!    total energy              =   -3532.02271437 Ry
     estimated scf accuracy    <       0.00000039 Ry

     The total energy is the sum of the following terms:
     one-electron contribution =   -1678.10574137 Ry
     hartree contribution      =     871.97941826 Ry
     xc contribution           =    -376.92485952 Ry
     ewald contribution        =   -1330.19229472 Ry
     one-center paw contrib.   =   -1018.77923701 Ry
      -> PAW hartree energy AE =       0.00000000 Ry
      -> PAW hartree energy PS =       0.00000000 Ry
      -> PAW xc energy AE      =       0.00000000 Ry
      -> PAW xc energy PS      =       0.00000000 Ry
      -> total E_H with PAW    =     871.97941826 Ry
      -> total E_XC with PAW   =    -376.92485952 Ry

     convergence has been achieved in   8 iterations

     Writing all to output data dir bands_nm/myprefix.save/

     General routines

     Parallel routines

     PAW routines

   This run was terminated on:  19: 4:41  15Jul2023

   JOB DONE.