     Program PWSCF v.7.1 starts on 14Jul2023 at 18: 1:59

     Reading input from espresso_14869.pwi
Warning: card &CELL ignored
Warning: card / ignored

     Current dimensions of program PWSCF are:
     Max number of different atomic species (ntypx) = 10
     Max number of k-points (npk) =  40000
     Max angular momentum in pseudopotentials (lmaxx) =  4
     file K.pbe-spn-kjpaw_psl.1.0.0.UPF: wavefunction(s)  3S renormalized
     Message from routine setup:
     using ibrav=0 with symmetry is DISCOURAGED, use correct ibrav instead

     K-points division:     npool     =       2
     R & G space division:  proc/nbgrp/npool/nimage =       4
     Subspace diagonalization in iterative solution of the eigenvalue problem:
     a serial algorithm will be used

     Using Slab Decomposition

     bravais-lattice index     =            0
     lattice parameter (alat)  =      18.7033  a.u.
     unit-cell volume          =    3941.6631 (a.u.)^3
     number of atoms/cell      =           16
     number of atomic types    =            3
     number of electrons       =       124.00
     number of Kohn-Sham states=           64
     kinetic-energy cutoff     =      30.0000  Ry
     charge density cutoff     =     240.0000  Ry
     scf convergence threshold =      1.0E-06
     mixing beta               =       0.7000
     number of iterations used =            8  plain     mixing
     Exchange-correlation= SLA  PW   PBE  PBE
                           (   1   4   3   4   0   0   0)

     celldm(1)=  18.703317  celldm(2)=   0.000000  celldm(3)=   0.000000
     celldm(4)=   0.000000  celldm(5)=   0.000000  celldm(6)=   0.000000

     crystal axes: (cart. coord. in units of alat)
               a(1) = (   1.000000   0.000000   0.000000 )
               a(2) = (   0.232585   0.972576   0.000000 )
               a(3) = (  -0.616293  -0.486288   0.619441 )

     reciprocal axes: (cart. coord. in units 2 pi/alat)
               b(1) = (  1.000000 -0.239144  0.807179 )
               b(2) = (  0.000000  1.028197  0.807179 )
               b(3) = (  0.000000  0.000000  1.614358 )

     PseudoPot. # 1 for K  read from file:
     /lustre07/scratch/pragov/crystal_structure_design/utils/SSSP/K.pbe-spn-kjpaw_psl.1.0.0.UPF
     MD5 check sum: 7d58810084cac21f60fbe77ea2b688fd
     Pseudo is Projector augmented-wave + core cor, Zval =  9.0
     Generated using "atomic" code by A. Dal Corso  v.5.1
     Shape of augmentation charge: PSQ
     Using radial grid of 1165 points,  6 beta functions with:
                l(1) =   0
                l(2) =   0
                l(3) =   1
                l(4) =   1
                l(5) =   2
                l(6) =   2
     Q(r) pseudized with 0 coefficients

     PseudoPot. # 2 for Sn read from file:
     /lustre07/scratch/pragov/crystal_structure_design/utils/SSSP/Sn_pbe_v1.uspp.F.UPF
     MD5 check sum: 4cf58ce39ec5d5d420df3dd08604eb00
     Pseudo is Ultrasoft + core correction, Zval = 14.0
     Generated by new atomic code, or converted to UPF format
     Using radial grid of  891 points,  6 beta functions with:
                l(1) =   0
                l(2) =   0
                l(3) =   1
                l(4) =   1
                l(5) =   2
                l(6) =   2
     Q(r) pseudized with  6 coefficients,  rinner =    1.200   1.200   1.200
                                                       1.200   1.200

     PseudoPot. # 3 for Te read from file:
     /lustre07/scratch/pragov/crystal_structure_design/utils/SSSP/Te_pbe_v1.uspp.F.UPF
     MD5 check sum: c319670d6894cc26e93307826a071b75
     Pseudo is Ultrasoft + core correction, Zval =  6.0
     Generated by new atomic code, or converted to UPF format
     Using radial grid of  891 points,  5 beta functions with:
                l(1) =   0
                l(2) =   0
                l(3) =   1
                l(4) =   1
                l(5) =   2
     Q(r) pseudized with  6 coefficients,  rinner =    1.800   1.800   1.800
                                                       1.800   1.800

     atomic species   valence    mass     pseudopotential
        K              9.00    39.09830     K ( 1.00)
        Sn            14.00   118.71000     Sn( 1.00)
        Te             6.00   127.60000     Te( 1.00)

      4 Sym. Ops., with inversion, found ( 2 have fractional translation)

                                    s                        frac. trans.

      isym =  1     identity

 cryst.   s( 1) = (     1          0          0      )
                  (     0          1          0      )
                  (     0          0          1      )

 cart.    s( 1) = (  1.0000000  0.0000000 -0.0000000 )
                  (  0.0000000  1.0000000  0.0000000 )
                  (  0.0000000  0.0000000  1.0000000 )

      isym =  2     180 deg rotation - cart. axis [0,0,1]

 cryst.   s( 2) = (    -1          0          0      )    f =( -0.5000000 )
                  (     0         -1          0      )       (  0.5000000 )
                  (     1          1          1      )       (  0.0000000 )

 cart.    s( 2) = ( -1.0000000 -0.0000000 -0.0000000 )    f =( -0.3837074 )
                  (  0.0000000 -1.0000000 -0.0000000 )       (  0.4862880 )
                  (  0.0000000  0.0000000  1.0000000 )       (  0.0000000 )

      isym =  3     inversion

 cryst.   s( 3) = (    -1          0          0      )
                  (     0         -1          0      )
                  (     0          0         -1      )

 cart.    s( 3) = ( -1.0000000 -0.0000000  0.0000000 )
                  (  0.0000000 -1.0000000 -0.0000000 )
                  (  0.0000000  0.0000000 -1.0000000 )

      isym =  4     inv. 180 deg rotation - cart. axis [0,0,1]

 cryst.   s( 4) = (     1          0          0      )    f =(  0.5000000 )
                  (     0          1          0      )       ( -0.5000000 )
                  (    -1         -1         -1      )       (  0.0000000 )

 cart.    s( 4) = (  1.0000000  0.0000000  0.0000000 )    f =(  0.3837074 )
                  (  0.0000000  1.0000000  0.0000000 )       ( -0.4862880 )
                  (  0.0000000  0.0000000 -1.0000000 )       (  0.0000000 )

   Cartesian axes

     site n.     atom                  positions (alat units)
         1           K   tau(   1) = (   0.0000000   0.0000000   0.0000000  )
         2           K   tau(   2) = (   0.6162926   0.4862880   0.0000000  )
         3           K   tau(   3) = (   0.3081463   0.2431440   0.0000000  )
         4           K   tau(   4) = (   0.9244390   0.7294320   0.0000000  )
         5           Sn  tau(   5) = (   0.1162926   0.4862880   0.3097206  )
         6           Sn  tau(   6) = (   0.5000000  -0.0000000   0.3097206  )
         7           Te  tau(   7) = (  -0.2216895  -0.0629393   0.3097206  )
         8           Te  tau(   8) = (   0.0246221  -0.3750987   0.5315270  )
         9           Te  tau(   9) = (   0.1918537  -0.2431440   0.3097206  )
        10           Te  tau(  10) = (  -0.1918537   0.2431440   0.3097206  )
        11           Te  tau(  11) = (   0.5035177   0.2853168   0.3097206  )
        12           Te  tau(  12) = (   0.2572061   0.5974763   0.0879142  )
        13           Te  tau(  13) = (   0.3590865  -0.1111883   0.5315270  )
        14           Te  tau(  14) = (   0.1127750   0.2009712   0.3097206  )
        15           Te  tau(  15) = (   0.8379822   0.5492273   0.3097206  )
        16           Te  tau(  16) = (   0.5916706   0.8613867   0.0879142  )

   Crystallographic axes

     site n.     atom                  positions (cryst. coord.)
         1           K   tau(   1) = (  0.0000000  0.0000000  0.0000000  )
         2           K   tau(   2) = (  0.5000000  0.5000000  0.0000000  )
         3           K   tau(   3) = (  0.2500000  0.2500000  0.0000000  )
         4           K   tau(   4) = (  0.7500000  0.7500000  0.0000000  )
         5           Sn  tau(   5) = (  0.2500000  0.7500000  0.5000000  )
         6           Sn  tau(   6) = (  0.7500000  0.2500000  0.5000000  )
         7           Te  tau(   7) = (  0.0433620  0.1852860  0.5000000  )
         8           Te  tau(   8) = (  0.5433620  0.0433620  0.8580750  )
         9           Te  tau(   9) = (  0.5000000  0.0000000  0.5000000  )
        10           Te  tau(  10) = ( -0.0000000  0.5000000  0.5000000  )
        11           Te  tau(  11) = (  0.6852860  0.5433620  0.5000000  )
        12           Te  tau(  12) = (  0.1852860  0.6852860  0.1419250  )
        13           Te  tau(  13) = (  0.8147140  0.3147140  0.8580750  )
        14           Te  tau(  14) = (  0.3147140  0.4566380  0.5000000  )
        15           Te  tau(  15) = (  0.9566380  0.8147140  0.5000000  )
        16           Te  tau(  16) = (  0.4566380  0.9566380  0.1419250  )

     number of k points=    10
                       cart. coord. in units 2pi/alat
        k(    1) = (   0.0000000   0.0000000   0.0000000), wk =   0.0740741
        k(    2) = (   0.0000000   0.0000000   0.5381194), wk =   0.1481481
        k(    3) = (   0.0000000   0.3427324   0.2690597), wk =   0.2962963
        k(    4) = (   0.0000000   0.3427324   0.8071792), wk =   0.1481481
        k(    5) = (   0.3333333  -0.0797145   0.2690597), wk =   0.2962963
        k(    6) = (   0.3333333  -0.0797145   0.8071792), wk =   0.1481481
        k(    7) = (   0.3333333   0.2630179   0.5381194), wk =   0.2962963
        k(    8) = (   0.3333333   0.2630179   0.0000000), wk =   0.1481481
        k(    9) = (   0.3333333  -0.4224469   0.0000000), wk =   0.1481481
        k(   10) = (   0.3333333  -0.4224469   0.5381194), wk =   0.2962963

                       cryst. coord.
        k(    1) = (   0.0000000   0.0000000   0.0000000), wk =   0.0740741
        k(    2) = (   0.0000000   0.0000000   0.3333333), wk =   0.1481481
        k(    3) = (   0.0000000   0.3333333  -0.0000000), wk =   0.2962963
        k(    4) = (   0.0000000   0.3333333   0.3333333), wk =   0.1481481
        k(    5) = (   0.3333333   0.0000000  -0.0000000), wk =   0.2962963
        k(    6) = (   0.3333333   0.0000000   0.3333333), wk =   0.1481481
        k(    7) = (   0.3333333   0.3333333  -0.0000000), wk =   0.2962963
        k(    8) = (   0.3333333   0.3333333  -0.3333333), wk =   0.1481481
        k(    9) = (   0.3333333  -0.3333333  -0.0000000), wk =   0.1481481
        k(   10) = (   0.3333333  -0.3333333   0.3333333), wk =   0.2962963

     Check: negative core charge=   -0.000001

     Initial potential from superposition of free atoms

     starting charge     121.9224, renormalised to     124.0000
     Starting wfcs are   90 randomized atomic wfcs
     Checking if some PAW data can be deallocated...

     Self-consistent Calculation

     iteration #  1     ecut=    30.00 Ry     beta= 0.70
     Davidson diagonalization with overlap

     ethr =  1.00E-02,  avg # of iterations =  2.0

     Threshold (ethr) on eigenvalues was too large:
     Diagonalizing with lowered threshold

     Davidson diagonalization with overlap

[...]

     total energy              =   -1043.75395653 Ry
     estimated scf accuracy    <       0.89296535 Ry

[...]

     total energy              =   -1044.13356664 Ry
     estimated scf accuracy    <       0.00000509 Ry

     iteration #  9     ecut=    30.00 Ry     beta= 0.70
     Davidson diagonalization with overlap

     ethr =  4.11E-09,  avg # of iterations =  2.7

     End of self-consistent calculation

          k = 0.0000 0.0000 0.0000 ( 10909 PWs)   bands (ev):

   -25.6401 -25.6399 -25.1617 -25.1617 -16.9410 -16.9404 -16.9348 -16.9348
   -16.9346 -16.9346 -16.9123 -16.9123 -16.9010 -16.9009  -9.1948  -9.1632
    -9.1222  -9.1222  -9.1138  -9.1138  -8.7232  -8.7013  -8.6860  -8.6860
    -8.6656  -8.6656  -7.3034  -6.8398  -6.0875  -5.6782  -5.5443  -5.5443
    -5.5404  -5.5403  -5.0468  -4.5375  -1.8211  -1.6678   1.1857   1.1858
     1.4203   1.4715   1.4942   1.6114   1.6115   2.2424   2.2424   2.4991
     2.7926   3.0021   3.0021   3.0309   3.0991   3.1768   3.4130   3.4131
     3.8309   3.8309   4.0035   4.3488   4.3989   4.3991   5.2805   6.2238

     occupation numbers
     1.0000   1.0000   1.0000   1.0000   1.0000   1.0000   1.0000   1.0000
     1.0000   1.0000   1.0000   1.0000   1.0000   1.0000   1.0000   1.0000
     1.0000   1.0000   1.0000   1.0000   1.0000   1.0000   1.0000   1.0000
     1.0000   1.0000   1.0000   1.0000   1.0000   1.0000   1.0000   1.0000
     1.0000   1.0000   1.0000   1.0000   1.0000   1.0000   1.0000   1.0000
     1.0000   1.0000   1.0000   1.0000   1.0000   1.0000   1.0000   1.0000
     1.0000   1.0000   1.0000   1.0000   1.0000   1.0000   1.0000   1.0000
     1.0000   1.0000   1.0000   1.0000   1.0000   1.0000   0.0000   0.0000

[...]

          k = 0.3333-0.4224 0.5381 ( 10936 PWs)   bands (ev):

   -25.6401 -25.6400 -25.1618 -25.1616 -16.9409 -16.9406 -16.9348 -16.9348
   -16.9347 -16.9347 -16.9124 -16.9123 -16.9009 -16.9009  -9.1891  -9.1671
    -9.1229  -9.1216  -9.1168  -9.1160  -8.7311  -8.6968  -8.6830  -8.6804
    -8.6734  -8.6714  -7.0794  -6.9404  -6.4417  -5.7035  -5.6978  -5.6242
    -5.3707  -5.3546  -4.8769  -4.3987  -1.9001  -1.6371   0.5696   0.7578
     0.7825   1.0952   1.6333   2.0154   2.1273   2.1717   2.5556   2.5573
     2.6806   2.7971   2.9596   3.3761   3.4166   3.7412   3.8041   3.8349
     4.0151   4.0501   4.0819   4.0931   4.6797   4.7307   5.6335   5.8725

     occupation numbers
     1.0000   1.0000   1.0000   1.0000   1.0000   1.0000   1.0000   1.0000
     1.0000   1.0000   1.0000   1.0000   1.0000   1.0000   1.0000   1.0000
     1.0000   1.0000   1.0000   1.0000   1.0000   1.0000   1.0000   1.0000
     1.0000   1.0000   1.0000   1.0000   1.0000   1.0000   1.0000   1.0000
     1.0000   1.0000   1.0000   1.0000   1.0000   1.0000   1.0000   1.0000
     1.0000   1.0000   1.0000   1.0000   1.0000   1.0000   1.0000   1.0000
     1.0000   1.0000   1.0000   1.0000   1.0000   1.0000   1.0000   1.0000
     1.0000   1.0000   1.0000   1.0000   1.0000   1.0000   0.0000   0.0000

     highest occupied, lowest unoccupied level (ev):     4.7307    5.2805

!    total energy              =   -1044.13356716 Ry
     estimated scf accuracy    <       0.00000038 Ry

     The total energy is the sum of the following terms:
     one-electron contribution =    -284.99291124 Ry
     hartree contribution      =     194.45336435 Ry
     xc contribution           =    -284.47902589 Ry
     ewald contribution        =    -447.44826541 Ry
     one-center paw contrib.   =    -221.66672898 Ry
      -> PAW hartree energy AE =      75.23036806 Ry
      -> PAW hartree energy PS =     -74.81064221 Ry
      -> PAW xc energy AE      =    -132.41131197 Ry
      -> PAW xc energy PS      =      21.15899375 Ry
      -> total E_H with PAW    =     194.87309020 Ry
      -> total E_XC with PAW   =    -395.73134410 Ry

     convergence has been achieved in   9 iterations

     Writing all to output data dir bands_nm/myprefix.save/

     General routines

     Parallel routines

     PAW routines

   This run was terminated on:  18: 2:26  14Jul2023

   JOB DONE.