     Program PWSCF v.7.1 starts on 16Jul2023 at 15:30:41

     Reading input from espresso_24537.pwi
Warning: card &CELL ignored
Warning: card / ignored

     Current dimensions of program PWSCF are:
     Max number of different atomic species (ntypx) = 10
     Max number of k-points (npk) =  40000
     Max angular momentum in pseudopotentials (lmaxx) =  4
     file O.pbe-n-kjpaw_psl.0.1.UPF: wavefunction(s)  2P renormalized
     Message from routine setup:
     using ibrav=0 with symmetry is DISCOURAGED, use correct ibrav instead

     K-points division:     npool     =       2
     R & G space division:  proc/nbgrp/npool/nimage =       4
     Subspace diagonalization in iterative solution of the eigenvalue problem:
     a serial algorithm will be used

     Using Slab Decomposition

     bravais-lattice index     =            0
     lattice parameter (alat)  =       9.6508  a.u.
     unit-cell volume          =    1340.5634 (a.u.)^3
     number of atoms/cell      =           16
     number of atomic types    =            2
     number of electrons       =        96.00
     number of Kohn-Sham states=           64
     kinetic-energy cutoff     =      30.0000  Ry
     charge density cutoff     =     240.0000  Ry
     scf convergence threshold =      1.0E-06
     mixing beta               =       0.7000
     number of iterations used =            8  plain     mixing
     Exchange-correlation= SLA  PW   PBX  PBC
                           (   1   4   3   4   0   0   0)

     celldm(1)=   9.650839  celldm(2)=   0.000000  celldm(3)=   0.000000
     celldm(4)=   0.000000  celldm(5)=   0.000000  celldm(6)=   0.000000

     crystal axes: (cart. coord. in units of alat)
               a(1) = (   1.000000   0.000000   0.000000 )
               a(2) = (   0.000000   1.032567   0.000000 )
               a(3) = (   0.000000   0.000000   1.444354 )

     reciprocal axes: (cart. coord. in units 2 pi/alat)
               b(1) = (  1.000000  0.000000  0.000000 )
               b(2) = (  0.000000  0.968460  0.000000 )
               b(3) = (  0.000000  0.000000  0.692351 )

     PseudoPot. # 1 for Te read from file:
     /lustre07/scratch/pragov/crystal_structure_design/utils/SSSP/Te_pbe_v1.uspp.F.UPF
     MD5 check sum: c319670d6894cc26e93307826a071b75
     Pseudo is Ultrasoft + core correction, Zval =  6.0
     Generated by new atomic code, or converted to UPF format
     Using radial grid of  891 points,  5 beta functions with:
                l(1) =   0
                l(2) =   0
                l(3) =   1
                l(4) =   1
                l(5) =   2
     Q(r) pseudized with  6 coefficients,  rinner =    1.800   1.800   1.800
                                                       1.800   1.800

     PseudoPot. # 2 for O  read from file:
     /lustre07/scratch/pragov/crystal_structure_design/utils/SSSP/O.pbe-n-kjpaw_psl.0.1.UPF
     MD5 check sum: 0234752ac141de4415c5fc33072bef88
     Pseudo is Projector augmented-wave + core cor, Zval =  6.0
     Generated using "atomic" code by A. Dal Corso  v.5.0.99 svn rev. 10869
     Shape of augmentation charge: BESSEL
     Using radial grid of 1095 points,  4 beta functions with:
                l(1) =   0
                l(2) =   0
                l(3) =   1
                l(4) =   1
     Q(r) pseudized with 0 coefficients

     atomic species   valence    mass     pseudopotential
        Te             6.00   127.60000     Te( 1.00)
        O              6.00    15.99900     O ( 1.00)

      8 Sym. Ops., with inversion, found ( 6 have fractional translation)

                                    s                        frac. trans.

      isym =  1     identity

 cryst.   s( 1) = (     1          0          0      )
                  (     0          1          0      )
                  (     0          0          1      )

 cart.    s( 1) = (  1.0000000  0.0000000  0.0000000 )
                  (  0.0000000  1.0000000  0.0000000 )
                  (  0.0000000  0.0000000  1.0000000 )

      isym =  2     180 deg rotation - cart. axis [0,0,1]

 cryst.   s( 2) = (    -1          0          0      )    f =(  0.0000000 )
                  (     0         -1          0      )       (  0.0000000 )
                  (     0          0          1      )       (  0.5000000 )

 cart.    s( 2) = ( -1.0000000  0.0000000  0.0000000 )    f =(  0.0000000 )
                  (  0.0000000 -1.0000000  0.0000000 )       (  0.0000000 )
                  (  0.0000000  0.0000000  1.0000000 )       (  0.7221771 )

[...]

      isym =  4     180 deg rotation - cart. axis [1,0,0]

[...]

      isym =  5     inversion

 cryst.   s( 5) = (    -1          0          0      )
                  (     0         -1          0      )
                  (     0          0         -1      )

 cart.    s( 5) = ( -1.0000000  0.0000000  0.0000000 )
                  (  0.0000000 -1.0000000  0.0000000 )
                  (  0.0000000  0.0000000 -1.0000000 )

      isym =  6     inv. 180 deg rotation - cart. axis [0,0,1]

[...]

      isym =  8     inv. 180 deg rotation - cart. axis [1,0,0]

 cryst.   s( 8) = (    -1          0          0      )    f =(  0.5000000 )
                  (     0          1          0      )       ( -0.5000000 )
                  (     0          0          1      )       (  0.0000000 )

 cart.    s( 8) = ( -1.0000000  0.0000000  0.0000000 )    f =(  0.5000000 )
                  (  0.0000000  1.0000000  0.0000000 )       ( -0.5162837 )
                  (  0.0000000  0.0000000  1.0000000 )       (  0.0000000 )

   Cartesian axes

     site n.     atom                  positions (alat units)
         1           Te  tau(   1) = (   0.0000000   0.0000000   0.7221771  )
         2           Te  tau(   2) = (   0.5000000   0.5162837   0.7221771  )
         3           Te  tau(   3) = (   0.5000000   0.5162837   0.0000000  )
         4           Te  tau(   4) = (   0.0000000   0.0000000   0.0000000  )
         5           O   tau(   5) = (   0.3769360   0.5384612   0.3610886  )
         6           O   tau(   6) = (   0.8769360   1.0103899   1.0832657  )
         7           O   tau(   7) = (   0.1230640   0.0221775   0.3610886  )
         8           O   tau(   8) = (   0.6230640   0.4941062   1.0832657  )
         9           O   tau(   9) = (   0.1839440   0.3202467   1.3578533  )
        10           O   tau(  10) = (   0.6839440   0.1960371   0.0865009  )
        11           O   tau(  11) = (   0.3160560   0.8365304   0.8086781  )
        12           O   tau(  12) = (   0.8160560   0.7123208   0.6356762  )
        13           O   tau(  13) = (   0.1839440   0.3202467   0.8086781  )
        14           O   tau(  14) = (   0.6839440   0.1960371   0.6356762  )
        15           O   tau(  15) = (   0.8160560   0.7123208   0.0865009  )
        16           O   tau(  16) = (   0.3160560   0.8365304   1.3578533  )

   Crystallographic axes

     site n.     atom                  positions (cryst. coord.)
         1           Te  tau(   1) = (  0.0000000  0.0000000  0.5000000  )
         2           Te  tau(   2) = (  0.5000000  0.5000000  0.5000000  )
         3           Te  tau(   3) = (  0.5000000  0.5000000  0.0000000  )
         4           Te  tau(   4) = (  0.0000000  0.0000000  0.0000000  )
         5           O   tau(   5) = (  0.3769360  0.5214780  0.2500000  )
         6           O   tau(   6) = (  0.8769360  0.9785220  0.7500000  )
         7           O   tau(   7) = (  0.1230640  0.0214780  0.2500000  )
         8           O   tau(   8) = (  0.6230640  0.4785220  0.7500000  )
         9           O   tau(   9) = (  0.1839440  0.3101460  0.9401110  )
        10           O   tau(  10) = (  0.6839440  0.1898540  0.0598890  )
        11           O   tau(  11) = (  0.3160560  0.8101460  0.5598890  )
        12           O   tau(  12) = (  0.8160560  0.6898540  0.4401110  )
        13           O   tau(  13) = (  0.1839440  0.3101460  0.5598890  )
        14           O   tau(  14) = (  0.6839440  0.1898540  0.4401110  )
        15           O   tau(  15) = (  0.8160560  0.6898540  0.0598890  )
        16           O   tau(  16) = (  0.3160560  0.8101460  0.9401110  )

     number of k points=     8
                       cart. coord. in units 2pi/alat
        k(    1) = (   0.0000000   0.0000000   0.0000000), wk =   0.0740741
        k(    2) = (   0.0000000   0.0000000   0.2307836), wk =   0.1481481
        k(    3) = (   0.0000000   0.3228199   0.0000000), wk =   0.1481481
        k(    4) = (   0.0000000   0.3228199   0.2307836), wk =   0.2962963
        k(    5) = (   0.3333333   0.0000000   0.0000000), wk =   0.1481481
        k(    6) = (   0.3333333   0.0000000   0.2307836), wk =   0.2962963
        k(    7) = (   0.3333333   0.3228199   0.0000000), wk =   0.2962963
        k(    8) = (   0.3333333   0.3228199   0.2307836), wk =   0.5925926

                       cryst. coord.
        k(    1) = (   0.0000000   0.0000000   0.0000000), wk =   0.0740741
        k(    2) = (   0.0000000   0.0000000   0.3333333), wk =   0.1481481
        k(    3) = (   0.0000000   0.3333333   0.0000000), wk =   0.1481481
        k(    4) = (   0.0000000   0.3333333   0.3333333), wk =   0.2962963
        k(    5) = (   0.3333333   0.0000000   0.0000000), wk =   0.1481481
        k(    6) = (   0.3333333   0.0000000   0.3333333), wk =   0.2962963
        k(    7) = (   0.3333333   0.3333333   0.0000000), wk =   0.2962963
        k(    8) = (   0.3333333   0.3333333   0.3333333), wk =   0.5925926

     Check: negative core charge=   -0.000006

     Initial potential from superposition of free atoms

     starting charge      95.9991, renormalised to      96.0000
     Starting wfcs are   64 randomized atomic wfcs
     Checking if some PAW data can be deallocated...

     Self-consistent Calculation

     iteration #  1     ecut=    30.00 Ry     beta= 0.70
     Davidson diagonalization with overlap

     ethr =  1.00E-02,  avg # of iterations =  3.0

     total energy              =    -602.05933230 Ry
     estimated scf accuracy    <       4.46933699 Ry

[...]

     total energy              =    -604.04854007 Ry
     estimated scf accuracy    <       0.00002360 Ry

     iteration #  7     ecut=    30.00 Ry     beta= 0.70
     Davidson diagonalization with overlap

     ethr =  2.46E-08,  avg # of iterations =  3.1

     End of self-consistent calculation

          k = 0.0000 0.0000 0.0000 (  3717 PWs)   bands (ev):

   -15.1539 -14.2518 -12.9576 -12.4804 -12.4259 -12.3875 -12.2746 -12.2359
   -12.1704 -11.2778 -11.1893 -11.1337  -8.2073  -5.3758  -2.8735  -2.1501
    -1.9674  -1.7744  -1.7160  -1.2813  -1.0454   0.7761   1.8753   2.1858
     2.2307   2.2708   2.4610   2.6372   2.7186   2.8127   2.8323   3.2770
     3.8546   4.1363   4.2811   4.3698   4.5576   4.6285   4.6850   4.7371
     4.9157   4.9330   5.0666   5.2113   5.2289   5.2825   5.3941   5.4485
     6.5865   8.2760  10.0385  11.3146  11.3374  11.5366  11.8337  12.2947
    12.4996  13.1453  14.9607  15.7777  16.2103  16.8361  16.9949  17.0538

     occupation numbers
     1.0000   1.0000   1.0000   1.0000   1.0000   1.0000   1.0000   1.0000
     1.0000   1.0000   1.0000   1.0000   1.0000   1.0000   1.0000   1.0000
     1.0000   1.0000   1.0000   1.0000   1.0000   1.0000   1.0000   1.0000
     1.0000   1.0000   1.0000   1.0000   1.0000   1.0000   1.0000   1.0000
     1.0000   1.0000   1.0000   1.0000   1.0000   1.0000   1.0000   1.0000
     1.0000   1.0000   1.0000   1.0000   1.0000   1.0000   1.0000   1.0000
     0.0000   0.0000   0.0000   0.0000   0.0000   0.0000   0.0000   0.0000
     0.0000   0.0000   0.0000   0.0000   0.0000   0.0000   0.0000   0.0000

[...]

          k = 0.3333 0.3228 0.2308 (  3715 PWs)   bands (ev):

   -14.3669 -13.9208 -13.8330 -13.3544 -12.5025 -12.4164 -12.1301 -12.0928
   -11.8301 -11.7420 -11.4269 -11.3187  -5.8659  -4.8977  -4.7031  -3.8568
    -1.5850  -1.3848  -0.6869  -0.4441  -0.1856   0.1863   0.9890   1.6351
     2.1675   2.2862   2.4193   2.5057   2.9997   3.3238   3.4497   3.5448
     3.7132   3.9982   4.1018   4.1695   4.3342   4.4559   4.5737   4.6515
     4.7568   4.8610   4.9676   5.0227   5.1405   5.1994   5.2288   5.3060
     7.8440   8.5104   8.6823   9.4108  12.0553  12.4572  13.1466  13.3133
    13.8757  14.0716  15.0827  15.3961  15.6458  15.8584  16.4105  16.5661

     occupation numbers
     1.0000   1.0000   1.0000   1.0000   1.0000   1.0000   1.0000   1.0000
     1.0000   1.0000   1.0000   1.0000   1.0000   1.0000   1.0000   1.0000
     1.0000   1.0000   1.0000   1.0000   1.0000   1.0000   1.0000   1.0000
     1.0000   1.0000   1.0000   1.0000   1.0000   1.0000   1.0000   1.0000
     1.0000   1.0000   1.0000   1.0000   1.0000   1.0000   1.0000   1.0000
     1.0000   1.0000   1.0000   1.0000   1.0000   1.0000   1.0000   1.0000
     0.0000   0.0000   0.0000   0.0000   0.0000   0.0000   0.0000   0.0000
     0.0000   0.0000   0.0000   0.0000   0.0000   0.0000   0.0000   0.0000

     highest occupied, lowest unoccupied level (ev):     5.5630    6.5865

!    total energy              =    -604.04854523 Ry
     estimated scf accuracy    <       0.00000061 Ry

     The total energy is the sum of the following terms:
     one-electron contribution =    -117.92678641 Ry
     hartree contribution      =     121.27814460 Ry
     xc contribution           =    -147.49306553 Ry
     ewald contribution        =    -345.56413069 Ry
     one-center paw contrib.   =    -114.34270721 Ry
      -> PAW hartree energy AE =       0.00000000 Ry
      -> PAW hartree energy PS =       0.00000000 Ry
      -> PAW xc energy AE      =       0.00000000 Ry
      -> PAW xc energy PS      =       0.00000000 Ry
      -> total E_H with PAW    =     121.27814460 Ry
      -> total E_XC with PAW   =    -147.49306553 Ry

     convergence has been achieved in   7 iterations

     Writing all to output data dir bands_nm/myprefix.save/

     General routines

     Parallel routines

     PAW routines

   This run was terminated on:  15:30:46  16Jul2023

   JOB DONE.