     Program PWSCF v.7.1 starts on 13Jul2023 at  9:12:14

     Reading input from espresso_6063.pwi
Warning: card &CELL ignored
Warning: card / ignored

     Current dimensions of program PWSCF are:
     Max number of different atomic species (ntypx) = 10
     Max number of k-points (npk) =  40000
     Max angular momentum in pseudopotentials (lmaxx) =  4
     Message from routine setup:
     using ibrav=0 with symmetry is DISCOURAGED, use correct ibrav instead

     K-points division:     npool     =       2
     R & G space division:  proc/nbgrp/npool/nimage =       8
     Subspace diagonalization in iterative solution of the eigenvalue problem:
     a serial algorithm will be used

     Using Slab Decomposition

     bravais-lattice index     =            0
     lattice parameter (alat)  =      12.5709  a.u.
     unit-cell volume          =    1141.8444 (a.u.)^3
     number of atoms/cell      =           12
     number of atomic types    =            3
     number of electrons       =       112.00
     number of Kohn-Sham states=           64
     kinetic-energy cutoff     =      30.0000  Ry
     charge density cutoff     =     240.0000  Ry
     scf convergence threshold =      1.0E-06
     mixing beta               =       0.7000
     number of iterations used =            8  plain     mixing
     Exchange-correlation=  SLA  PW   PBX  PBC
                           (   1   4   3   4   0   0   0)

     celldm(1)=  12.570894  celldm(2)=   0.000000  celldm(3)=   0.000000
     celldm(4)=   0.000000  celldm(5)=   0.000000  celldm(6)=   0.000000

     crystal axes: (cart. coord. in units of alat)
               a(1) = (   1.000000   0.000000   0.000000 )
               a(2) = (   0.282103   0.959384   0.000000 )
               a(3) = (  -0.641052  -0.479692   0.599123 )

     reciprocal axes: (cart. coord. in units 2 pi/alat)
               b(1) = (  1.000000 -0.294046  0.834553 )
               b(2) = (  0.000000  1.042335  0.834553 )
               b(3) = (  0.000000  0.000000  1.669106 )

     PseudoPot. # 1 for Ca read from file:
     /lustre07/scratch/pragov/crystal_structure_design/utils/SSSP/Ca_pbe_v1.uspp.F.UPF
     MD5 check sum: 403a4c14b9e4d4dfdc3024c9a3812218
     Pseudo is Ultrasoft + core correction, Zval = 10.0
     Generated by new atomic code, or converted to UPF format
     Using radial grid of  845 points,  6 beta functions with:
                l(1) =   0
                l(2) =   0
                l(3) =   1
                l(4) =   1
                l(5) =   2
                l(6) =   2
     Q(r) pseudized with  8 coefficients,  rinner =    1.500   1.500   1.500
                                                       1.500   1.500

     PseudoPot. # 2 for Pd read from file:
     /lustre07/scratch/pragov/crystal_structure_design/utils/SSSP/Pd_ONCV_PBE-1.0.oncvpsp.upf
     MD5 check sum: eb77f42b51d86fb18e25f68156a31cf1
     Pseudo is Norm-conserving, Zval = 18.0
     Generated using ONCVPSP code by D. R. Hamann
     Using radial grid of 1410 points,  6 beta functions with:
                l(1) =   0
                l(2) =   0
                l(3) =   1
                l(4) =   1
                l(5) =   2
                l(6) =   2

     PseudoPot. # 3 for F  read from file:
     /lustre07/scratch/pragov/crystal_structure_design/utils/SSSP/f_pbe_v1.4.uspp.F.UPF
     MD5 check sum: 4c38b6a325caf53ec0e86aed9459de46
     Pseudo is Ultrasoft, Zval =  7.0
     Generated by new atomic code, or converted to UPF format
     Using radial grid of  799 points,  4 beta functions with:
                l(1) =   0
                l(2) =   0
                l(3) =   1
                l(4) =   1
     Q(r) pseudized with  8 coefficients,  rinner =    0.950   0.950   0.950

     atomic species   valence    mass     pseudopotential
        Ca            10.00    40.07800     Ca( 1.00)
        Pd            18.00   106.42000     Pd( 1.00)
        F              7.00    18.99840     F ( 1.00)

      4 Sym. Ops., with inversion, found ( 2 have fractional translation)

                                    s                        frac. trans.

      isym =  1     identity

 cryst.   s( 1) = (     1          0          0      )
                  (     0          1          0      )
                  (     0          0          1      )

 cart.    s( 1) = (  1.0000000  0.0000000  0.0000000 )
                  (  0.0000000  1.0000000  0.0000000 )
                  (  0.0000000  0.0000000  1.0000000 )

      isym =  2     180 deg rotation - cart. axis [0,0,1]

 cryst.   s( 2) = (    -1          0          0      )    f =( -0.5000000 )
                  (     0         -1          0      )       (  0.5000000 )
                  (     1          1          1      )       (  0.0000000 )

 cart.    s( 2) = ( -1.0000000  0.0000000  0.0000000 )    f =( -0.3589483 )
                  (  0.0000000 -1.0000000  0.0000000 )       (  0.4796920 )
                  (  0.0000000  0.0000000  1.0000000 )       (  0.0000000 )

      isym =  3     inversion

 cryst.   s( 3) = (    -1          0          0      )
                  (     0         -1          0      )
                  (     0          0         -1      )

 cart.    s( 3) = ( -1.0000000  0.0000000  0.0000000 )
                  (  0.0000000 -1.0000000 -0.0000000 )
                  (  0.0000000  0.0000000 -1.0000000 )

      isym =  4     inv. 180 deg rotation - cart. axis [0,0,1]

 cryst.   s( 4) = (     1          0          0      )    f =( -0.5000000 )
                  (     0          1          0      )       ( -0.5000000 )
                  (    -1         -1         -1      )       (  0.0000000 )

 cart.    s( 4) = (  1.0000000  0.0000000 -0.0000000 )    f =( -0.6410517 )
                  (  0.0000000  1.0000000 -0.0000000 )       ( -0.4796920 )
                  (  0.0000000  0.0000000 -1.0000000 )       (  0.0000000 )

   Cartesian axes

     site n.     atom                  positions (alat units)
         1           Ca  tau(   1) = (   0.9615775   0.7195380   0.0000000  )
         2           Ca  tau(   2) = (   0.3205258   0.2398460   0.0000000  )
         3           Pd  tau(   3) = (   0.8205258   0.2398460   0.2995615  )
         4           Pd  tau(   4) = (   0.4615775   0.7195380   0.2995615  )
         5           F   tau(   5) = (   0.9950836   0.3704657   0.0884827  )
         6           F   tau(   6) = (   0.6459681   0.1092264   0.0884827  )
         7           F   tau(   7) = (  -0.3540319   0.1092264   0.5106403  )
         8           F   tau(   8) = (   0.4134819   0.4199166   0.2995615  )
         9           F   tau(   9) = (  -0.0049164   0.3704657   0.5106403  )
        10           F   tau(  10) = (   0.7625974   0.6811559   0.2995615  )
        11           F   tau(  11) = (   0.2275697   0.0597754   0.2995615  )
        12           F   tau(  12) = (  -0.1215457  -0.2014639   0.2995615  )

   Crystallographic axes

     site n.     atom                  positions (cryst. coord.)
         1           Ca  tau(   1) = (  0.7500000  0.7500000  0.0000000  )
         2           Ca  tau(   2) = (  0.2500000  0.2500000  0.0000000  )
         3           Pd  tau(   3) = (  1.0000000  0.5000000  0.5000000  )
         4           Pd  tau(   4) = (  0.5000000  1.0000000  0.5000000  )
         5           F   tau(   5) = (  0.9599930  0.4599930  0.1476870  )
         6           F   tau(   6) = (  0.6876940  0.1876940  0.1476870  )
         7           F   tau(   7) = (  0.0400070  0.5400070  0.8523130  )
         8           F   tau(   8) = (  0.5400070  0.6876940  0.5000000  )
         9           F   tau(   9) = (  0.3123060  0.8123060  0.8523130  )
        10           F   tau(  10) = (  0.8123060  0.9599930  0.5000000  )
        11           F   tau(  11) = (  0.4599930  0.3123060  0.5000000  )
        12           F   tau(  12) = (  0.1876940  0.0400070  0.5000000  )

     number of k points=    10
                       cart. coord. in units 2pi/alat
        k(    1) = (   0.0000000   0.0000000   0.0000000), wk =   0.0740741
        k(    2) = (   0.0000000   0.0000000   0.5563688), wk =   0.1481481
        k(    3) = (   0.0000000   0.3474452   0.2781844), wk =   0.2962963
        k(    4) = (   0.0000000   0.3474452   0.8345532), wk =   0.1481481
        k(    5) = (   0.3333333  -0.0980154   0.2781844), wk =   0.2962963
        k(    6) = (   0.3333333  -0.0980154   0.8345532), wk =   0.1481481
        k(    7) = (   0.3333333   0.2494297   0.5563688), wk =   0.2962963
        k(    8) = (   0.3333333   0.2494297  -0.0000000), wk =   0.1481481
        k(    9) = (   0.3333333  -0.4454606   0.0000000), wk =   0.1481481
        k(   10) = (   0.3333333  -0.4454606   0.5563688), wk =   0.2962963

                       cryst. coord.
        k(    1) = (   0.0000000   0.0000000   0.0000000), wk =   0.0740741
        k(    2) = (   0.0000000   0.0000000   0.3333333), wk =   0.1481481
        k(    3) = (   0.0000000   0.3333333   0.0000000), wk =   0.2962963
        k(    4) = (   0.0000000   0.3333333   0.3333333), wk =   0.1481481
        k(    5) = (   0.3333333   0.0000000   0.0000000), wk =   0.2962963
        k(    6) = (   0.3333333   0.0000000   0.3333333), wk =   0.1481481
        k(    7) = (   0.3333333   0.3333333   0.0000000), wk =   0.2962963
        k(    8) = (   0.3333333   0.3333333  -0.3333333), wk =   0.1481481
        k(    9) = (   0.3333333  -0.3333333  -0.0000000), wk =   0.1481481
        k(   10) = (   0.3333333  -0.3333333   0.3333333), wk =   0.2962963

     Initial potential from superposition of free atoms

     starting charge     111.9884, renormalised to     112.0000
     Starting wfcs are   72 randomized atomic wfcs

     Self-consistent Calculation

     iteration #  1     ecut=    30.00 Ry     beta= 0.70
     Davidson diagonalization with overlap

     ethr =  1.00E-02,  avg # of iterations =  2.0

     total energy              =   -1045.15736360 Ry
     estimated scf accuracy    <       1.15667222 Ry

[...]

     total energy              =   -1045.62443735 Ry
     estimated scf accuracy    <       0.00000415 Ry

     iteration #  7     ecut=    30.00 Ry     beta= 0.70
     Davidson diagonalization with overlap

     ethr =  3.70E-09,  avg # of iterations =  3.3

     End of self-consistent calculation

          k = 0.0000 0.0000 0.0000 (  3145 PWs)   bands (ev):

   -78.4613 -78.4607 -44.2914 -44.2896 -44.2822 -44.2816 -42.9313 -42.9307
   -32.8106 -32.7960 -16.7279 -16.6546 -16.6544 -16.5300 -16.3888 -16.2424
   -16.2423 -16.1363 -13.8581 -13.7446 -13.7446 -13.5685 -13.4893 -13.4893
    -0.1015   0.0116   0.0118   0.1198   1.2781   1.4646   1.4887   1.5076
     1.5664   1.7051   1.7052   1.7332   1.7332   2.1469   2.1470   2.3548
     2.4190   2.5843   2.7549   3.1015   3.1015   3.1306   3.2239   3.2240
     5.3238   5.5615   5.6794   5.7548   5.7707   5.7711   6.1643   6.2612
     7.3942   7.3946  10.0995  12.4940  12.7207  12.8310  13.0320  13.0324

     occupation numbers
     1.0000   1.0000   1.0000   1.0000   1.0000   1.0000   1.0000   1.0000
     1.0000   1.0000   1.0000   1.0000   1.0000   1.0000   1.0000   1.0000
     1.0000   1.0000   1.0000   1.0000   1.0000   1.0000   1.0000   1.0000
     1.0000   1.0000   1.0000   1.0000   1.0000   1.0000   1.0000   1.0000
     1.0000   1.0000   1.0000   1.0000   1.0000   1.0000   1.0000   1.0000
     1.0000   1.0000   1.0000   1.0000   1.0000   1.0000   1.0000   1.0000
     1.0000   1.0000   1.0000   1.0000   1.0000   1.0000   1.0000   1.0000
     0.0000   0.0000   0.0000   0.0000   0.0000   0.0000   0.0000   0.0000

[...]

          k = 0.3333-0.4455 0.5564 (  3199 PWs)   bands (ev):

   -78.4613 -78.4607 -44.2929 -44.2923 -44.2838 -44.2832 -42.9332 -42.9326
   -32.8069 -32.7996 -16.6836 -16.6346 -16.5675 -16.5316 -16.4136 -16.2797
   -16.2597 -16.2493 -13.7956 -13.6751 -13.6662 -13.6573 -13.5517 -13.5223
     0.2121   0.2758   0.4488   0.6705   0.9163   1.1976   1.2600   1.2821
     1.3956   1.6152   1.7029   1.9033   1.9335   1.9952   2.0992   2.2749
     2.4136   2.4567   2.6636   2.7197   2.8125   2.8642   3.1592   3.2495
     5.4211   5.5146   5.6355   5.6639   5.7333   5.7686   6.2340   6.2367
     7.5562   7.5634  11.6394  11.8549  12.6149  12.7119  13.1879  13.1989

     occupation numbers
     1.0000   1.0000   1.0000   1.0000   1.0000   1.0000   1.0000   1.0000
     1.0000   1.0000   1.0000   1.0000   1.0000   1.0000   1.0000   1.0000
     1.0000   1.0000   1.0000   1.0000   1.0000   1.0000   1.0000   1.0000
     1.0000   1.0000   1.0000   1.0000   1.0000   1.0000   1.0000   1.0000
     1.0000   1.0000   1.0000   1.0000   1.0000   1.0000   1.0000   1.0000
     1.0000   1.0000   1.0000   1.0000   1.0000   1.0000   1.0000   1.0000
     1.0000   1.0000   1.0000   1.0000   1.0000   1.0000   1.0000   1.0000
     0.0000   0.0000   0.0000   0.0000   0.0000   0.0000   0.0000   0.0000

     highest occupied, lowest unoccupied level (ev):     6.2974    7.2475

!    total energy              =   -1045.62443779 Ry
     estimated scf accuracy    <       0.00000098 Ry

     The total energy is the sum of the following terms:
     one-electron contribution =    -538.59396741 Ry
     hartree contribution      =     319.12263076 Ry
     xc contribution           =    -148.16395291 Ry
     ewald contribution        =    -677.98914823 Ry

     convergence has been achieved in   7 iterations

     Writing all to output data dir bands_nm/myprefix.save/

     General routines

     Parallel routines

   This run was terminated on:   9:12:28  13Jul2023

   JOB DONE.