     Program PWSCF v.7.1 starts on 15Jul2023 at 14:11:10

     Reading input from espresso_20105.pwi
Warning: card &CELL ignored
Warning: card / ignored

     Current dimensions of program PWSCF are:
     Max number of different atomic species (ntypx) = 10
     Max number of k-points (npk) =  40000
     Max angular momentum in pseudopotentials (lmaxx) =  4
     file Al.pbe-n-kjpaw_psl.1.0.0.UPF: wavefunction(s)  3S 3P renormalized
     file O.pbe-n-kjpaw_psl.0.1.UPF: wavefunction(s)  2P renormalized
     Message from routine setup:
     the system is metallic, specify occupations

     K-points division:     npool     =       2
     R & G space division:  proc/nbgrp/npool/nimage =       4
     Subspace diagonalization in iterative solution of the eigenvalue problem:
     a serial algorithm will be used

     Using Slab Decomposition

     bravais-lattice index     =            0
     lattice parameter (alat)  =       9.5951  a.u.
     unit-cell volume          =     973.7170 (a.u.)^3
     number of atoms/cell      =           16
     number of atomic types    =            4
     number of electrons       =       105.00 (up:  54.00, down:  51.00)
     number of Kohn-Sham states=           64
     kinetic-energy cutoff     =      30.0000  Ry
     charge density cutoff     =     240.0000  Ry
     scf convergence threshold =      1.0E-06
     mixing beta               =       0.7000
     number of iterations used =            8  plain     mixing
     Exchange-correlation= SLA  PW   PBX  PBC
                           (   1   4   3   4   0   0   0)

     celldm(1)=   9.595093  celldm(2)=   0.000000  celldm(3)=   0.000000
     celldm(4)=   0.000000  celldm(5)=   0.000000  celldm(6)=   0.000000

     crystal axes: (cart. coord. in units of alat)
               a(1) = (   1.000000   0.000000   0.000000 )
               a(2) = (   0.332544   1.116615   0.000000 )
               a(3) = (  -0.000021  -0.594707   0.987146 )

     reciprocal axes: (cart. coord. in units 2 pi/alat)
               b(1) = (  1.000000 -0.297814 -0.179396 )
               b(2) = (  0.000000  0.895564  0.539533 )
               b(3) = (  0.000000  0.000000  1.013021 )

     PseudoPot. # 1 for Li read from file:
     /lustre07/scratch/pragov/crystal_structure_design/utils/SSSP/li_pbe_v1.4.uspp.F.UPF
     MD5 check sum: e912e257baa3777c20ea3d68f190483c
     Pseudo is Ultrasoft, Zval =  3.0
     Generated by new atomic code, or converted to UPF format
     Using radial grid of  751 points,  5 beta functions with:
                l(1) =   0
                l(2) =   0
                l(3) =   0
                l(4) =   1
                l(5) =   1
     Q(r) pseudized with 10 coefficients,  rinner =    1.150   1.150   1.150

     PseudoPot. # 2 for Al read from file:
     /lustre07/scratch/pragov/crystal_structure_design/utils/SSSP/Al.pbe-n-kjpaw_psl.1.0.0.UPF
     MD5 check sum: cfc449ca30b5f3223ec38ddd88ac046d
     Pseudo is Projector augmented-wave + core cor, Zval =  3.0
     Generated using "atomic" code by A. Dal Corso  v.5.1
     Shape of augmentation charge: PSQ
     Using radial grid of 1135 points,  6 beta functions with:
                l(1) =   0
                l(2) =   0
                l(3) =   1
                l(4) =   1
                l(5) =   2
                l(6) =   2
     Q(r) pseudized with 0 coefficients

     PseudoPot. # 3 for Cr read from file:
     /lustre07/scratch/pragov/crystal_structure_design/utils/SSSP/cr_pbe_v1.5.uspp.F.UPF
     MD5 check sum: 0d52af634a40206e4dee301ad30da4bf
     Pseudo is Ultrasoft + core correction, Zval = 14.0
     Generated by new atomic code, or converted to UPF format
     Using radial grid of  857 points,  6 beta functions with:
                l(1) =   0
                l(2) =   0
                l(3) =   1
                l(4) =   1
                l(5) =   2
                l(6) =   2
     Q(r) pseudized with  8 coefficients,  rinner =    0.950   0.950   0.950
                                                       0.950   0.950

     PseudoPot. # 4 for O  read from file:
     /lustre07/scratch/pragov/crystal_structure_design/utils/SSSP/O.pbe-n-kjpaw_psl.0.1.UPF
     MD5 check sum: 0234752ac141de4415c5fc33072bef88
     Pseudo is Projector augmented-wave + core cor, Zval =  6.0
     Generated using "atomic" code by A. Dal Corso  v.5.0.99 svn rev. 10869
     Shape of augmentation charge: BESSEL
     Using radial grid of 1095 points,  4 beta functions with:
                l(1) =   0
                l(2) =   0
                l(3) =   1
                l(4) =   1
     Q(r) pseudized with 0 coefficients

     atomic species   valence    mass     pseudopotential
        Li             3.00     6.94000     Li( 1.00)
        Al             3.00    26.98154     Al( 1.00)
        Cr            14.00    51.99610     Cr( 1.00)
        O              6.00    15.99900     O ( 1.00)

     Starting magnetic structure
     atomic species   magnetization
        Li           0.000
        Al           0.000
        Cr           0.000
        O            0.000

     No symmetry found

                                    s                        frac. trans.

      isym =  1     identity

 cryst.   s( 1) = (     1          0          0      )
                  (     0          1          0      )
                  (     0          0          1      )

 cart.    s( 1) = (  1.0000000  0.0000000 -0.0000000 )
                  (  0.0000000  1.0000000 -0.0000000 )
                  (  0.0000000  0.0000000  1.0000000 )

   Cartesian axes

     site n.     atom                  positions (alat units)
         1           Li  tau(   1) = (   0.3325940   0.5216111   0.9871149  )
         2           Li  tau(   2) = (   0.9999233  -0.2971739   0.4938329  )
         3           Li  tau(   3) = (   0.4991494  -0.1479326   0.2467876  )
         4           Li  tau(   4) = (   0.8333320   0.6702454   0.7396777  )
         5           Al  tau(   5) = (   0.1662674   0.2605399   0.4942958  )
         6           Cr  tau(   6) = (   0.6662684   0.4091578   0.2475161  )
         7           Cr  tau(   7) = (   0.1662887   0.5572040   0.0019042  )
         8           Cr  tau(   8) = (   0.6662521   0.1144871   0.7367548  )
         9           O   tau(   9) = (   0.8472404   0.0799203   0.3834136  )
        10           O   tau(  10) = (   0.4852921   0.4429312   0.6021021  )
        11           O   tau(  11) = (   0.5008972   0.7455293   0.1111853  )
        12           O   tau(  12) = (   0.8316686  -0.2221863   0.8735664  )
        13           O   tau(  13) = (   0.3274677  -0.0627506   0.6238341  )
        14           O   tau(  14) = (   0.3274764   0.2218919   0.1479960  )
        15           O   tau(  15) = (   1.0050221   0.2970845   0.8406194  )
        16           O   tau(  16) = (   1.0050346   0.5847049   0.3665699  )

   Crystallographic axes

     site n.     atom                  positions (cryst. coord.)
         1           Li  tau(   1) = (  0.0001660  0.9997170  0.9999680  )
         2           Li  tau(   2) = (  0.9998340  0.0003010  0.5002630  )
         3           Li  tau(   3) = (  0.4989330  0.0006670  0.2500010  )
         4           Li  tau(   4) = (  0.5010280  0.9993280  0.7493090  )
         5           Al  tau(   5) = ( -0.0000000  0.5000190  0.5007320  )
         6           Cr  tau(   6) = (  0.5000120  0.4999700  0.2507390  )
         7           Cr  tau(   7) = (  0.0000040  0.5000390  0.0019290  )
         8           Cr  tau(   8) = (  0.4999850  0.5000340  0.7463480  )
         9           O   tau(   9) = (  0.7546560  0.2784380  0.3884060  )
        10           O   tau(  10) = (  0.2453660  0.7215270  0.6099420  )
        11           O   tau(  11) = (  0.2589220  0.7276570  0.1126330  )
        12           O   tau(  12) = (  0.7411240  0.2723360  0.8849410  )
        13           O   tau(  13) = (  0.2342420  0.2803820  0.6319570  )
        14           O   tau(  14) = (  0.2348440  0.2785670  0.1499230  )
        15           O   tau(  15) = (  0.7657420  0.7196000  0.8515650  )
        16           O   tau(  16) = (  0.7651400  0.7214170  0.3713430  )

     number of k points=    14
                       cart. coord. in units 2pi/alat
        k(    1) = (   0.0000000   0.0000000   0.0000000), wk =   0.0370370
        k(    2) = (   0.0000000   0.0000000   0.3376736), wk =   0.0740741
        k(    3) = (   0.0000000   0.2985212   0.1798443), wk =   0.0740741
        k(    4) = (   0.0000000   0.2985212   0.5175180), wk =   0.0740741
        k(    5) = (   0.0000000   0.2985212  -0.1578293), wk =   0.0740741
        k(    6) = (   0.3333333  -0.0992713  -0.0597988), wk =   0.0740741
        k(    7) = (   0.3333333  -0.0992713   0.2778748), wk =   0.0740741
        k(    8) = (   0.3333333  -0.0992713  -0.3974725), wk =   0.0740741
        k(    9) = (   0.3333333   0.1992499   0.1200455), wk =   0.0740741
        k(   10) = (   0.3333333   0.1992499   0.4577191), wk =   0.0740741
        k(   11) = (   0.3333333   0.1992499  -0.2176281), wk =   0.0740741
        k(   12) = (   0.3333333  -0.3977925  -0.2396432), wk =   0.0740741
        k(   13) = (   0.3333333  -0.3977925   0.0980305), wk =   0.0740741
        k(   14) = (   0.3333333  -0.3977925  -0.5773168), wk =   0.0740741

                       cryst. coord.
        k(    1) = (   0.0000000   0.0000000   0.0000000), wk =   0.0370370
        k(    2) = (   0.0000000   0.0000000   0.3333333), wk =   0.0740741
        k(    3) = (   0.0000000   0.3333333   0.0000000), wk =   0.0740741
        k(    4) = (   0.0000000   0.3333333   0.3333333), wk =   0.0740741
        k(    5) = (   0.0000000   0.3333333  -0.3333333), wk =   0.0740741
        k(    6) = (   0.3333333   0.0000000  -0.0000000), wk =   0.0740741
        k(    7) = (   0.3333333   0.0000000   0.3333333), wk =   0.0740741
        k(    8) = (   0.3333333   0.0000000  -0.3333333), wk =   0.0740741
        k(    9) = (   0.3333333   0.3333333  -0.0000000), wk =   0.0740741
        k(   10) = (   0.3333333   0.3333333   0.3333333), wk =   0.0740741
        k(   11) = (   0.3333333   0.3333333  -0.3333333), wk =   0.0740741
        k(   12) = (   0.3333333  -0.3333333   0.0000000), wk =   0.0740741
        k(   13) = (   0.3333333  -0.3333333   0.3333333), wk =   0.0740741
        k(   14) = (   0.3333333  -0.3333333  -0.3333333), wk =   0.0740741

     Check: negative core charge=   -0.000017
     Generating pointlists ...
     new r_m :   0.1731 (alat units)  1.6605 (a.u.) for type    1
     new r_m :   0.1580 (alat units)  1.5158 (a.u.) for type    2
     new r_m :   0.1644 (alat units)  1.5770 (a.u.) for type    3
     new r_m :   0.1580 (alat units)  1.5158 (a.u.) for type    4

     Initial potential from superposition of free atoms

     starting charge     100.1947, renormalised to     105.0000

     negative rho (up, down):  2.675E-03 2.675E-03
     Starting wfcs are   86 randomized atomic wfcs
     Checking if some PAW data can be deallocated...

     Self-consistent Calculation

     iteration #  1     ecut=    30.00 Ry     beta= 0.70
     Davidson diagonalization with overlap

     ethr =  1.00E-02,  avg # of iterations =  2.8

     negative rho (up, down):  3.171E-03 4.658E-03

     total energy              =    -954.35176765 Ry
     estimated scf accuracy    <       5.78501469 Ry

     total magnetization       =     3.00 Bohr mag/cell
     absolute magnetization    =     3.00 Bohr mag/cell

[...]

     total energy              =    -957.94648321 Ry
     estimated scf accuracy    <       0.00000105 Ry

[...]

     iteration #177     ecut=    30.00 Ry     beta= 0.70
     Davidson diagonalization with overlap

     ethr =  1.00E-09,  avg # of iterations =  3.4

     negative rho (up, down):  1.270E-03 3.841E-03

     Magnetic moment per site  (integrated on atomic sphere of radius R)
     atom   1 (R=0.173)  charge=  2.1778  magn= -0.0016
     atom   2 (R=0.173)  charge=  2.1777  magn= -0.0012
     atom   3 (R=0.173)  charge=  2.1647  magn=  0.0000
     atom   4 (R=0.173)  charge=  2.1642  magn= -0.0001
     atom   5 (R=0.158)  charge=  0.4694  magn=  0.0078
     atom   6 (R=0.164)  charge= 11.0119  magn=  1.2331
     atom   7 (R=0.164)  charge= 11.0120  magn=  0.4024
     atom   8 (R=0.164)  charge= 11.0184  magn=  0.8448
     atom   9 (R=0.158)  charge=  5.3858  magn=  0.0039
     atom  10 (R=0.158)  charge=  5.3847  magn= -0.0203
     atom  11 (R=0.158)  charge=  5.3550  magn= -0.0066
     atom  12 (R=0.158)  charge=  5.3506  magn= -0.0342
     atom  13 (R=0.158)  charge=  5.3846  magn=  0.0466
     atom  14 (R=0.158)  charge=  5.3823  magn= -0.0064
     atom  15 (R=0.158)  charge=  5.3843  magn=  0.0215
     atom  16 (R=0.158)  charge=  5.3810  magn=  0.0175

     End of self-consistent calculation

 ------ SPIN UP ------------

          k = 0.0000 0.0000 0.0000 (  2709 PWs)   bands (ev):

   -63.0894 -62.7433 -62.5529 -35.6354 -35.6192 -35.4675 -35.4491 -34.7853
   -34.6351 -34.3821 -34.3324 -34.1434 -33.8638 -33.7454 -33.7212 -33.5630
   -10.4427  -9.1709  -9.1200  -9.1163  -9.0274  -8.9593  -8.8749  -8.8432
     2.0284   2.8723   3.0173   3.2073   3.2670   3.3032   3.7023   4.5777
     4.6335   4.6863   4.8347   5.0640   5.0902   5.2203   5.5587   5.7822
     5.8500   5.9194   6.1174   6.1238   6.5659   7.0411   7.1560   7.1755
     8.7009   8.9293   9.1797   9.2529   9.4150   9.6674  10.0488  10.6066
    10.6889  11.8469  11.8951  12.0740  12.1489  12.3492  12.3802  13.6305

     occupation numbers
     1.0000   1.0000   1.0000   1.0000   1.0000   1.0000   1.0000   1.0000
     1.0000   1.0000   1.0000   1.0000   1.0000   1.0000   1.0000   1.0000
     1.0000   1.0000   1.0000   1.0000   1.0000   1.0000   1.0000   1.0000
     1.0000   1.0000   1.0000   1.0000   1.0000   1.0000   1.0000   1.0000
     1.0000   1.0000   1.0000   1.0000   1.0000   1.0000   1.0000   1.0000
     1.0000   1.0000   1.0000   1.0000   1.0000   1.0000   1.0000   1.0000
     1.0000   1.0000   1.0000   1.0000   1.0000   1.0000   0.0000   0.0000
     0.0000   0.0000   0.0000   0.0000   0.0000   0.0000   0.0000   0.0000

[...]

 ------ SPIN DOWN ----------

[...]

          k = 0.3333-0.3978-0.5773 (  2696 PWs)   bands (ev):

   -62.0505 -61.6864 -61.5414 -35.6336 -35.6216 -35.4680 -35.4521 -33.8824
   -33.4742 -33.4252 -33.3025 -33.2281 -33.0095 -32.8394 -32.4560 -32.3995
    -9.9021  -9.4961  -9.3493  -9.1543  -9.0379  -8.9936  -8.8489  -8.7871
     2.7106   3.3601   3.5596   3.6457   3.7695   3.9371   4.0212   4.2038
     4.3152   4.5519   4.8618   5.0183   5.1393   5.3198   5.4589   5.5387
     5.6551   5.9085   6.0367   6.2479   6.3732   6.4278   6.5392   6.7193
     9.5598   9.8476   9.9903  10.7044  11.0054  11.1983  11.2970  11.3667
    11.4765  12.1915  12.3232  12.3635  12.4516  12.6046  12.7193  16.2414

     occupation numbers
     1.0000   1.0000   1.0000   1.0000   1.0000   1.0000   1.0000   1.0000
     1.0000   1.0000   1.0000   1.0000   1.0000   1.0000   1.0000   1.0000
     1.0000   1.0000   1.0000   1.0000   1.0000   1.0000   1.0000   1.0000
     1.0000   1.0000   1.0000   1.0000   1.0000   1.0000   1.0000   1.0000
     1.0000   1.0000   1.0000   1.0000   1.0000   1.0000   1.0000   1.0000
     1.0000   1.0000   1.0000   1.0000   1.0000   1.0000   1.0000   1.0000
     1.0000   1.0000   1.0000   0.0000   0.0000   0.0000   0.0000   0.0000
     0.0000   0.0000   0.0000   0.0000   0.0000   0.0000   0.0000   0.0000

     highest occupied, lowest unoccupied level (ev):    10.1699   10.0355

!    total energy              =    -957.94649516 Ry
     estimated scf accuracy    <       0.00000077 Ry

     The total energy is the sum of the following terms:
     one-electron contribution =    -430.79744551 Ry
     hartree contribution      =     263.43302278 Ry
     xc contribution           =    -143.68658258 Ry
     ewald contribution        =    -536.09373163 Ry
     one-center paw contrib.   =    -110.80175823 Ry
      -> PAW hartree energy AE =       0.00000000 Ry
      -> PAW hartree energy PS =       0.00000000 Ry
      -> PAW xc energy AE      =       0.00000000 Ry
      -> PAW xc energy PS      =       0.00000000 Ry
      -> total E_H with PAW    =     263.43302278 Ry
      -> total E_XC with PAW   =    -143.68658258 Ry

     total magnetization       =     3.00 Bohr mag/cell
     absolute magnetization    =     4.88 Bohr mag/cell

     convergence has been achieved in 177 iterations

     Writing all to output data dir bands_nm/myprefix.save/

     General routines

     Parallel routines

     PAW routines

   This run was terminated on:  14:14:40  15Jul2023

   JOB DONE.