     Program PWSCF v.7.1 starts on 15Jul2023 at 21:52:24

     Reading input from espresso_19227.pwi
Warning: card &CELL ignored
Warning: card / ignored

     Current dimensions of program PWSCF are:
     Max number of different atomic species (ntypx) = 10
     Max number of k-points (npk) =  40000
     Max angular momentum in pseudopotentials (lmaxx) =  4
     file K.pbe-spn-kjpaw_psl.1.0.0.UPF: wavefunction(s)  3S renormalized
     file Fe.pbe-spn-kjpaw_psl.0.2.1.UPF: wavefunction(s)  3D renormalized
     Message from routine setup:
     using ibrav=0 with symmetry is DISCOURAGED, use correct ibrav instead

     K-points division:     npool     =       2
     R & G space division:  proc/nbgrp/npool/nimage =       4
     Subspace diagonalization in iterative solution of the eigenvalue problem:
     one sub-group per band group will be used

     Using Slab Decomposition

     bravais-lattice index     =            0
     lattice parameter (alat)  =       7.6841  a.u.
     unit-cell volume          =    3941.1264 (a.u.)^3
     number of atoms/cell      =           20
     number of atomic types    =            3
     number of electrons       =       184.00
     number of Kohn-Sham states=          256
     kinetic-energy cutoff     =      30.0000  Ry
     charge density cutoff     =     240.0000  Ry
     scf convergence threshold =      1.0E-06
     mixing beta               =       0.7000
     number of iterations used =            8  plain     mixing
     Exchange-correlation=  SLA  PW   PBX  PBC
                           (   1   4   3   4   0   0   0)

     celldm(1)=   7.684120  celldm(2)=   0.000000  celldm(3)=   0.000000
     celldm(4)=   0.000000  celldm(5)=   0.000000  celldm(6)=   0.000000

     crystal axes: (cart. coord. in units of alat)
               a(1) = (   1.000000   0.000000   0.000000 )
               a(2) = (   0.000000   2.342708   0.000000 )
               a(3) = (   0.000000   0.000000   3.707830 )

     reciprocal axes: (cart. coord. in units 2 pi/alat)
               b(1) = (  1.000000  0.000000  0.000000 )
               b(2) = (  0.000000  0.426856  0.000000 )
               b(3) = (  0.000000  0.000000  0.269700 )

     PseudoPot. # 1 for K  read from file:
     /lustre07/scratch/pragov/crystal_structure_design/utils/SSSP/K.pbe-spn-kjpaw_psl.1.0.0.UPF
     MD5 check sum: 7d58810084cac21f60fbe77ea2b688fd
     Pseudo is Projector augmented-wave + core cor, Zval =  9.0
     Generated using "atomic" code by A. Dal Corso  v.5.1
     Shape of augmentation charge: PSQ
     Using radial grid of 1165 points,  6 beta functions with:
                l(1) =   0
                l(2) =   0
                l(3) =   1
                l(4) =   1
                l(5) =   2
                l(6) =   2
     Q(r) pseudized with 0 coefficients

     PseudoPot. # 2 for Fe read from file:
     /lustre07/scratch/pragov/crystal_structure_design/utils/SSSP/Fe.pbe-spn-kjpaw_psl.0.2.1.UPF
     MD5 check sum: e86618425769142926afa95317d90200
     Pseudo is Projector augmented-wave + core cor, Zval = 16.0
     Generated using "atomic" code by A. Dal Corso  v.5.0.99 svn rev. 10869
     Shape of augmentation charge: PSQ
     Using radial grid of 1191 points,  6 beta functions with:
                l(1) =   0
                l(2) =   0
                l(3) =   1
                l(4) =   1
                l(5) =   2
                l(6) =   2
     Q(r) pseudized with 0 coefficients

     PseudoPot. # 3 for Br read from file:
     /lustre07/scratch/pragov/crystal_structure_design/utils/SSSP/br_pbe_v1.4.uspp.F.UPF
     MD5 check sum: d3ffb7b29f6225aa16fe06858fb2a80b
     Pseudo is Ultrasoft + core correction, Zval =  7.0
     Generated by new atomic code, or converted to UPF format
     Using radial grid of  879 points,  6 beta functions with:
                l(1) =   0
                l(2) =   0
                l(3) =   1
                l(4) =   1
                l(5) =   2
                l(6) =   2
     Q(r) pseudized with  8 coefficients,  rinner =    1.100   1.100   1.100
                                                       1.100   1.100

     atomic species   valence    mass     pseudopotential
        K              9.00    39.09830     K ( 1.00)
        Fe            16.00    55.84500     Fe( 1.00)
        Br             7.00    79.90400     Br( 1.00)

      8 Sym. Ops., with inversion, found ( 6 have fractional translation)

                                    s                        frac. trans.

      isym =  1     identity

 cryst.   s( 1) = (     1          0          0      )
                  (     0          1          0      )
                  (     0          0          1      )

 cart.    s( 1) = (  1.0000000  0.0000000  0.0000000 )
                  (  0.0000000  1.0000000  0.0000000 )
                  (  0.0000000  0.0000000  1.0000000 )

      isym =  2     180 deg rotation - cart. axis [0,0,1]

 cryst.   s( 2) = (    -1          0          0      )    f =(  0.0000000 )
                  (     0         -1          0      )       ( -0.5000000 )
                  (     0          0          1      )       (  0.5000000 )

 cart.    s( 2) = ( -1.0000000  0.0000000  0.0000000 )    f =(  0.0000000 )
                  (  0.0000000 -1.0000000  0.0000000 )       ( -1.1713542 )
                  (  0.0000000  0.0000000  1.0000000 )       (  1.8539148 )

[...]

      isym =  4     180 deg rotation - cart. axis [1,0,0]

[...]

      isym =  5     inversion

 cryst.   s( 5) = (    -1          0          0      )
                  (     0         -1          0      )
                  (     0          0         -1      )

 cart.    s( 5) = ( -1.0000000  0.0000000  0.0000000 )
                  (  0.0000000 -1.0000000  0.0000000 )
                  (  0.0000000  0.0000000 -1.0000000 )

      isym =  6     inv. 180 deg rotation - cart. axis [0,0,1]

[...]

      isym =  8     inv. 180 deg rotation - cart. axis [1,0,0]

 cryst.   s( 8) = (    -1          0          0      )    f =(  0.5000000 )
                  (     0          1          0      )       (  0.0000000 )
                  (     0          0          1      )       (  0.0000000 )

 cart.    s( 8) = ( -1.0000000  0.0000000  0.0000000 )    f =(  0.5000000 )
                  (  0.0000000  1.0000000  0.0000000 )       (  0.0000000 )
                  (  0.0000000  0.0000000  1.0000000 )       (  0.0000000 )

   Cartesian axes

     site n.     atom                  positions (alat units)
         1           K   tau(   1) = (   0.7500000   1.2855987   3.0595119  )
         2           K   tau(   2) = (   0.7500000   0.1142445   2.5022325  )
         3           K   tau(   3) = (   0.2500000   1.0571097   0.6483177  )
         4           K   tau(   4) = (   0.2500000   2.2284639   1.2055971  )
         5           Fe  tau(   5) = (   0.7500000   0.7922689   1.6689275  )
         6           Fe  tau(   6) = (   0.2500000   0.3790854   3.5228423  )
         7           Fe  tau(   7) = (   0.2500000   1.5504396   2.0389021  )
         8           Fe  tau(   8) = (   0.7500000   1.9636231   0.1849873  )
         9           Br  tau(   9) = (   0.7500000   0.5533337   1.0989228  )
        10           Br  tau(  10) = (   0.7500000   0.7480010   0.0260549  )
        11           Br  tau(  11) = (   0.2500000   0.6180205   2.9528376  )
        12           Br  tau(  12) = (   0.2500000   1.2161421   1.4931504  )
        13           Br  tau(  13) = (   0.2500000   1.7893748   2.6089068  )
        14           Br  tau(  14) = (   0.7500000   2.2979205   3.3470652  )
        15           Br  tau(  15) = (   0.2500000   0.0447879   0.3607644  )
        16           Br  tau(  16) = (   0.7500000   1.7246879   0.7549920  )
        17           Br  tau(  17) = (   0.2500000   0.4233532   1.8799697  )
        18           Br  tau(  18) = (   0.7500000   1.9193553   1.8278599  )
        19           Br  tau(  19) = (   0.2500000   1.5947074   3.6817747  )
        20           Br  tau(  20) = (   0.7500000   1.1265663   2.2146792  )

   Crystallographic axes

     site n.     atom                  positions (cryst. coord.)
         1           K   tau(   1) = (  0.7500000  0.5487660  0.8251490  )
         2           K   tau(   2) = (  0.7500000  0.0487660  0.6748510  )
         3           K   tau(   3) = (  0.2500000  0.4512340  0.1748510  )
         4           K   tau(   4) = (  0.2500000  0.9512340  0.3251490  )
         5           Fe  tau(   5) = (  0.7500000  0.3381850  0.4501090  )
         6           Fe  tau(   6) = (  0.2500000  0.1618150  0.9501090  )
         7           Fe  tau(   7) = (  0.2500000  0.6618150  0.5498910  )
         8           Fe  tau(   8) = (  0.7500000  0.8381850  0.0498910  )
         9           Br  tau(   9) = (  0.7500000  0.2361940  0.2963790  )
        10           Br  tau(  10) = (  0.7500000  0.3192890  0.0070270  )
        11           Br  tau(  11) = (  0.2500000  0.2638060  0.7963790  )
        12           Br  tau(  12) = (  0.2500000  0.5191180  0.4027020  )
        13           Br  tau(  13) = (  0.2500000  0.7638060  0.7036210  )
        14           Br  tau(  14) = (  0.7500000  0.9808820  0.9027020  )
        15           Br  tau(  15) = (  0.2500000  0.0191180  0.0972980  )
        16           Br  tau(  16) = (  0.7500000  0.7361940  0.2036210  )
        17           Br  tau(  17) = (  0.2500000  0.1807110  0.5070270  )
        18           Br  tau(  18) = (  0.7500000  0.8192890  0.4929730  )
        19           Br  tau(  19) = (  0.2500000  0.6807110  0.9929730  )
        20           Br  tau(  20) = (  0.7500000  0.4808820  0.5972980  )

     number of k points=     8
                       cart. coord. in units 2pi/alat
        k(    1) = (   0.0000000   0.0000000   0.0000000), wk =   0.0740741
        k(    2) = (   0.0000000   0.0000000   0.0898999), wk =   0.1481481
        k(    3) = (   0.0000000   0.1422855   0.0000000), wk =   0.1481481
        k(    4) = (   0.0000000   0.1422855   0.0898999), wk =   0.2962963
        k(    5) = (   0.3333333   0.0000000   0.0000000), wk =   0.1481481
        k(    6) = (   0.3333333   0.0000000   0.0898999), wk =   0.2962963
        k(    7) = (   0.3333333   0.1422855   0.0000000), wk =   0.2962963
        k(    8) = (   0.3333333   0.1422855   0.0898999), wk =   0.5925926

                       cryst. coord.
        k(    1) = (   0.0000000   0.0000000   0.0000000), wk =   0.0740741
        k(    2) = (   0.0000000   0.0000000   0.3333333), wk =   0.1481481
        k(    3) = (   0.0000000   0.3333333   0.0000000), wk =   0.1481481
        k(    4) = (   0.0000000   0.3333333   0.3333333), wk =   0.2962963
        k(    5) = (   0.3333333   0.0000000   0.0000000), wk =   0.1481481
        k(    6) = (   0.3333333   0.0000000   0.3333333), wk =   0.2962963
        k(    7) = (   0.3333333   0.3333333   0.0000000), wk =   0.2962963
        k(    8) = (   0.3333333   0.3333333   0.3333333), wk =   0.5925926

     Check: negative core charge=   -0.000050

     Initial potential from superposition of free atoms

     starting charge     183.9227, renormalised to     184.0000
     Starting wfcs are  132 randomized atomic wfcs +  124 random wfcs
     Checking if some PAW data can be deallocated...

     Self-consistent Calculation

     iteration #  1     ecut=    30.00 Ry     beta= 0.70
     Davidson diagonalization with overlap

     ethr =  1.00E-02,  avg # of iterations =  7.0

     total energy              =   -2329.95869261 Ry
     estimated scf accuracy    <       2.19339714 Ry

[...]

     negative rho (up, down):  4.877E-06 0.000E+00

[...]

     total energy              =   -2331.46678309 Ry
     estimated scf accuracy    <       0.00000201 Ry

     iteration # 12     ecut=    30.00 Ry     beta= 0.70
     Davidson diagonalization with overlap

     ethr =  1.09E-09,  avg # of iterations =  1.6

     negative rho (up, down):  1.077E-05 0.000E+00

     End of self-consistent calculation

          k = 0.0000 0.0000 0.0000 ( 10943 PWs)   bands (ev):

   -82.2415 -82.2414 -82.2396 -82.2391 -47.9319 -47.9306 -47.9258 -47.9197
   -47.8610 -47.8571 -47.8530 -47.8505 -47.8010 -47.7930 -47.7874 -47.7811
   -25.4475 -25.4474 -25.4471 -25.4470 -10.9187 -10.9172 -10.4625 -10.4314
   -10.3811 -10.3609 -10.3530 -10.3427  -9.9362  -9.9034  -9.8498  -9.8271
    -8.9286  -8.9123  -8.9090  -8.9086  -8.9055  -8.9048  -8.9035  -8.9031
    -8.8937  -8.8583  -8.7744  -8.7709  -0.2272  -0.1876  -0.1381  -0.0241
     0.4427   0.4644   0.7356   0.9339   1.0643   1.1119   1.1151   1.2492
     1.2820   1.2928   1.3846   1.3869   1.4102   1.4662   1.4701   1.6679
     1.7289   1.7988   1.8623   2.0506   2.1112   2.2385   2.2642   2.3438
     2.6023   2.6177   2.6288   2.6730   2.7402   2.8175   2.8663   2.9274
     3.5346   3.5355   3.5669   3.5673   3.8297   3.8335   3.8596   3.8619
     3.8928   3.8963   3.9089   3.9810   5.3170   5.3590   5.3648   5.3652
     5.3687   5.3758   5.4440   5.5531   7.1294   8.3998   8.5809   8.7583
     9.0330   9.2063   9.3567   9.4580   9.6203   9.6417   9.6874   9.9455
     9.9981  10.1023  10.1765  10.5464  10.8690  10.9707  10.9768  11.1200
    11.3083  11.6288  11.7134  11.7671  11.8072  11.8624  11.8741  11.9318
    11.9382  11.9755  12.0200  12.3326  12.4653  12.6879  12.7364  12.8393
    12.9842  12.9972  13.0055  13.0184  13.0899  13.2288  13.3887  13.4012
    13.4513  13.5102  13.6090  13.8999  13.9082  13.9196  14.1286  14.2214
    14.2652  14.4071  14.4408  14.4794  14.5119  14.6398  14.7148  14.8809
    14.9681  15.2466  15.2672  15.3894  15.4693  15.6339  15.6564  15.8408
    15.9669  15.9926  16.0237  16.2429  16.3188  16.3342  16.3649  16.7505
    17.0685  17.3199  17.3871  17.4506  17.5452  17.7274  17.7460  17.8303
    17.9111  17.9872  18.1017  18.1791  18.2040  18.3277  18.5438  18.6302
    18.6397  18.7295  19.0419  19.1456  19.2489  19.3268  19.6519  19.6537
    19.7187  19.7807  19.8405  19.8486  20.1865  20.2385  20.3882  20.4716
    20.7699  20.8664  20.8874  21.0629  21.1930  21.2036  21.5062  21.5396
    21.5497  21.6617  21.7395  21.8915  21.9272  21.9590  22.0064  22.2536
    22.2552  22.3716  22.4020  22.5852  22.7476  22.8312  22.9100  23.1756
    23.1861  23.2565  23.2787  23.3402  23.3971  23.4309  23.5717  23.8076
    23.9452  24.0999  24.1303  24.1812  24.2311  24.5623  24.6155  24.6483
    24.8183  24.8725  24.9522  25.0907  25.3076  25.5009  25.5809  25.7346

     occupation numbers
     1.0000   1.0000   1.0000   1.0000   1.0000   1.0000   1.0000   1.0000
     1.0000   1.0000   1.0000   1.0000   1.0000   1.0000   1.0000   1.0000
     1.0000   1.0000   1.0000   1.0000   1.0000   1.0000   1.0000   1.0000
     1.0000   1.0000   1.0000   1.0000   1.0000   1.0000   1.0000   1.0000
     1.0000   1.0000   1.0000   1.0000   1.0000   1.0000   1.0000   1.0000
     1.0000   1.0000   1.0000   1.0000   1.0000   1.0000   1.0000   1.0000
     1.0000   1.0000   1.0000   1.0000   1.0000   1.0000   1.0000   1.0000
     1.0000   1.0000   1.0000   1.0000   1.0000   1.0000   1.0000   1.0000
     1.0000   1.0000   1.0000   1.0000   1.0000   1.0000   1.0000   1.0000
     1.0000   1.0000   1.0000   1.0000   1.0000   1.0000   1.0000   1.0000
     1.0000   1.0000   1.0000   1.0000   1.0000   1.0000   1.0000   1.0000
     1.0000   1.0000   1.0000   1.0000   0.0000   0.0000   0.0000   0.0000
     0.0000   0.0000   0.0000   0.0000   0.0000   0.0000   0.0000   0.0000
     0.0000   0.0000   0.0000   0.0000   0.0000   0.0000   0.0000   0.0000
     0.0000   0.0000   0.0000   0.0000   0.0000   0.0000   0.0000   0.0000
     0.0000   0.0000   0.0000   0.0000   0.0000   0.0000   0.0000   0.0000
     0.0000   0.0000   0.0000   0.0000   0.0000   0.0000   0.0000   0.0000
     0.0000   0.0000   0.0000   0.0000   0.0000   0.0000   0.0000   0.0000
     0.0000   0.0000   0.0000   0.0000   0.0000   0.0000   0.0000   0.0000
     0.0000   0.0000   0.0000   0.0000   0.0000   0.0000   0.0000   0.0000
     0.0000   0.0000   0.0000   0.0000   0.0000   0.0000   0.0000   0.0000
     0.0000   0.0000   0.0000   0.0000   0.0000   0.0000   0.0000   0.0000
     0.0000   0.0000   0.0000   0.0000   0.0000   0.0000   0.0000   0.0000
     0.0000   0.0000   0.0000   0.0000   0.0000   0.0000   0.0000   0.0000
     0.0000   0.0000   0.0000   0.0000   0.0000   0.0000   0.0000   0.0000
     0.0000   0.0000   0.0000   0.0000   0.0000   0.0000   0.0000   0.0000
     0.0000   0.0000   0.0000   0.0000   0.0000   0.0000   0.0000   0.0000
     0.0000   0.0000   0.0000   0.0000   0.0000   0.0000   0.0000   0.0000
     0.0000   0.0000   0.0000   0.0000   0.0000   0.0000   0.0000   0.0000
     0.0000   0.0000   0.0000   0.0000   0.0000   0.0000   0.0000   0.0000
     0.0000   0.0000   0.0000   0.0000   0.0000   0.0000   0.0000   0.0000
     0.0000   0.0000   0.0000   0.0000   0.0000   0.0000   0.0000   0.0000

[...]

          k = 0.3333 0.1423 0.0899 ( 10920 PWs)   bands (ev):

   -82.2400 -82.2394 -82.2391 -82.2383 -47.9208 -47.9199 -47.9147 -47.9110
   -47.8574 -47.8541 -47.8532 -47.8517 -47.7940 -47.7934 -47.7894 -47.7844
   -25.4405 -25.4404 -25.4403 -25.4403 -10.6753 -10.6752 -10.4353 -10.4342
   -10.3276 -10.3272 -10.2255 -10.2249  -9.8423  -9.8344  -9.8128  -9.8088
    -8.9954  -8.9905  -8.9586  -8.9525  -8.9249  -8.9223  -8.9108  -8.9090
    -8.8676  -8.8650  -8.8585  -8.8567  -0.2506  -0.2185  -0.1340  -0.1280
     0.2629   0.2665   0.4983   0.5252   0.6913   0.7163   0.7890   0.8145
     1.0430   1.0900   1.3149   1.3584   1.4538   1.4938   1.5287   1.5522
     1.6249   1.6337   1.7400   1.7760   1.9655   2.0293   2.0636   2.0878
     2.1152   2.1301   2.2779   2.3126   2.3643   2.3995   2.5637   2.5812
     3.6112   3.6123   3.6549   3.6550   3.7601   3.7628   3.7830   3.7933
     3.8462   3.8501   3.8709   3.8780   5.1031   5.1073   5.1970   5.2055
     5.4868   5.5001   5.5775   5.5931   9.1409   9.1884   9.1927   9.3851
     9.5222   9.5937   9.6322   9.6806  10.0683  10.1354  10.3363  10.4129
    10.5630  10.6916  10.7361  10.8245  10.9955  11.0196  11.1099  11.1518
    11.3358  11.3889  11.6322  11.6655  11.7396  11.8214  11.9191  11.9842
    12.0918  12.1326  12.2547  12.3573  12.3668  12.5695  12.6253  12.6946
    12.7824  12.8092  12.9483  13.0098  13.0944  13.2099  13.2162  13.2683
    13.3551  13.4276  13.4737  13.5504  13.6841  13.7116  13.7675  13.8460
    14.0651  14.1715  14.3522  14.4730  14.5234  14.6128  14.8335  14.9176
    15.0818  15.1435  15.3087  15.4402  15.9801  16.2707  16.4598  16.5961
    16.6787  16.7457  16.8270  16.8628  17.0161  17.1093  17.1783  17.2321
    17.3125  17.3892  17.5226  17.6212  17.8156  17.9531  18.0908  18.2116
    18.2814  18.3807  18.5255  18.6958  18.8784  19.0166  19.1353  19.2628
    19.3370  19.3520  19.5358  19.5618  19.8344  19.9523  20.1042  20.2392
    20.3566  20.3674  20.4928  20.6472  20.6862  20.8974  21.0662  21.1807
    21.2879  21.3939  21.5308  21.5754  21.6135  21.7140  21.7429  21.8367
    21.9076  21.9739  22.1618  22.2684  22.3057  22.3771  22.4169  22.5292
    22.5453  22.5849  22.7996  22.8618  22.8958  22.9539  23.0353  23.0949
    23.1770  23.2133  23.4360  23.4911  23.5505  23.5777  23.6074  23.7225
    23.8102  23.8633  23.9995  24.0238  24.1255  24.1591  24.2557  24.3132
    24.4067  24.5040  24.5683  24.6638  24.8091  24.8776  24.9415  25.0131

     occupation numbers
     1.0000   1.0000   1.0000   1.0000   1.0000   1.0000   1.0000   1.0000
     1.0000   1.0000   1.0000   1.0000   1.0000   1.0000   1.0000   1.0000
     1.0000   1.0000   1.0000   1.0000   1.0000   1.0000   1.0000   1.0000
     1.0000   1.0000   1.0000   1.0000   1.0000   1.0000   1.0000   1.0000
     1.0000   1.0000   1.0000   1.0000   1.0000   1.0000   1.0000   1.0000
     1.0000   1.0000   1.0000   1.0000   1.0000   1.0000   1.0000   1.0000
     1.0000   1.0000   1.0000   1.0000   1.0000   1.0000   1.0000   1.0000
     1.0000   1.0000   1.0000   1.0000   1.0000   1.0000   1.0000   1.0000
     1.0000   1.0000   1.0000   1.0000   1.0000   1.0000   1.0000   1.0000
     1.0000   1.0000   1.0000   1.0000   1.0000   1.0000   1.0000   1.0000
     1.0000   1.0000   1.0000   1.0000   1.0000   1.0000   1.0000   1.0000
     1.0000   1.0000   1.0000   1.0000   0.0000   0.0000   0.0000   0.0000
     0.0000   0.0000   0.0000   0.0000   0.0000   0.0000   0.0000   0.0000
     0.0000   0.0000   0.0000   0.0000   0.0000   0.0000   0.0000   0.0000
     0.0000   0.0000   0.0000   0.0000   0.0000   0.0000   0.0000   0.0000
     0.0000   0.0000   0.0000   0.0000   0.0000   0.0000   0.0000   0.0000
     0.0000   0.0000   0.0000   0.0000   0.0000   0.0000   0.0000   0.0000
     0.0000   0.0000   0.0000   0.0000   0.0000   0.0000   0.0000   0.0000
     0.0000   0.0000   0.0000   0.0000   0.0000   0.0000   0.0000   0.0000
     0.0000   0.0000   0.0000   0.0000   0.0000   0.0000   0.0000   0.0000
     0.0000   0.0000   0.0000   0.0000   0.0000   0.0000   0.0000   0.0000
     0.0000   0.0000   0.0000   0.0000   0.0000   0.0000   0.0000   0.0000
     0.0000   0.0000   0.0000   0.0000   0.0000   0.0000   0.0000   0.0000
     0.0000   0.0000   0.0000   0.0000   0.0000   0.0000   0.0000   0.0000
     0.0000   0.0000   0.0000   0.0000   0.0000   0.0000   0.0000   0.0000
     0.0000   0.0000   0.0000   0.0000   0.0000   0.0000   0.0000   0.0000
     0.0000   0.0000   0.0000   0.0000   0.0000   0.0000   0.0000   0.0000
     0.0000   0.0000   0.0000   0.0000   0.0000   0.0000   0.0000   0.0000
     0.0000   0.0000   0.0000   0.0000   0.0000   0.0000   0.0000   0.0000
     0.0000   0.0000   0.0000   0.0000   0.0000   0.0000   0.0000   0.0000
     0.0000   0.0000   0.0000   0.0000   0.0000   0.0000   0.0000   0.0000
     0.0000   0.0000   0.0000   0.0000   0.0000   0.0000   0.0000   0.0000

     highest occupied, lowest unoccupied level (ev):     3.9810    5.0999

!    total energy              =   -2331.46678369 Ry
     estimated scf accuracy    <       0.00000038 Ry

     The total energy is the sum of the following terms:
     one-electron contribution =   -1169.37455836 Ry
     hartree contribution      =     647.10819706 Ry
     xc contribution           =    -497.79550243 Ry
     ewald contribution        =    -785.47623805 Ry
     one-center paw contrib.   =    -525.92868192 Ry
      -> PAW hartree energy AE =     112.96964911 Ry
      -> PAW hartree energy PS =    -112.33928896 Ry
      -> PAW xc energy AE      =    -198.63754032 Ry
      -> PAW xc energy PS      =      31.75628491 Ry
      -> total E_H with PAW    =     647.73855721 Ry
      -> total E_XC with PAW   =    -664.67675784 Ry

     convergence has been achieved in  12 iterations

     Writing all to output data dir bands_nm/myprefix.save/

     General routines

     Parallel routines

     PAW routines

   This run was terminated on:  21:56:12  15Jul2023

   JOB DONE.