     Program PWSCF v.7.1 starts on 17Jul2023 at  0:11:13

     Reading input from espresso_25772.pwi
Warning: card &CELL ignored
Warning: card / ignored

     Current dimensions of program PWSCF are:
     Max number of different atomic species (ntypx) = 10
     Max number of k-points (npk) =  40000
     Max angular momentum in pseudopotentials (lmaxx) =  4
     file O.pbe-n-kjpaw_psl.0.1.UPF: wavefunction(s)  2P renormalized
     Message from routine setup:
     using ibrav=0 with symmetry is DISCOURAGED, use correct ibrav instead

     K-points division:     npool     =       2
     R & G space division:  proc/nbgrp/npool/nimage =       4
     Subspace diagonalization in iterative solution of the eigenvalue problem:
     one sub-group per band group will be used

     Using Slab Decomposition

     bravais-lattice index     =            0
     lattice parameter (alat)  =      10.1713  a.u.
     unit-cell volume          =    2067.7927 (a.u.)^3
     number of atoms/cell      =           20
     number of atomic types    =            3
     number of electrons       =       160.00
     number of Kohn-Sham states=          256
     kinetic-energy cutoff     =      30.0000  Ry
     charge density cutoff     =     240.0000  Ry
     scf convergence threshold =      1.0E-06
     mixing beta               =       0.7000
     number of iterations used =            8  plain     mixing
     Exchange-correlation=  SLA  PW   PBX  PBC
                           (   1   4   3   4   0   0   0)

     celldm(1)=  10.171268  celldm(2)=   0.000000  celldm(3)=   0.000000
     celldm(4)=   0.000000  celldm(5)=   0.000000  celldm(6)=   0.000000

     crystal axes: (cart. coord. in units of alat)
               a(1) = (   1.000000   0.000000   0.000000 )
               a(2) = (   0.000000   1.090800   0.000000 )
               a(3) = (   0.000000   0.011057   1.801509 )

     reciprocal axes: (cart. coord. in units 2 pi/alat)
               b(1) = (  1.000000  0.000000  0.000000 )
               b(2) = (  0.000000  0.916758 -0.005627 )
               b(3) = (  0.000000  0.000000  0.555090 )

     PseudoPot. # 1 for V  read from file:
     /lustre07/scratch/pragov/crystal_structure_design/utils/SSSP/v_pbe_v1.4.uspp.F.UPF
     MD5 check sum: 22b79981416ebb76fdaf5b1b8640f6fb
     Pseudo is Ultrasoft + core correction, Zval = 13.0
     Generated by new atomic code, or converted to UPF format
     Using radial grid of  853 points,  6 beta functions with:
                l(1) =   0
                l(2) =   0
                l(3) =   1
                l(4) =   1
                l(5) =   2
                l(6) =   2
     Q(r) pseudized with  8 coefficients,  rinner =    1.100   1.100   1.100
                                                       1.100   1.100

     PseudoPot. # 2 for O  read from file:
     /lustre07/scratch/pragov/crystal_structure_design/utils/SSSP/O.pbe-n-kjpaw_psl.0.1.UPF
     MD5 check sum: 0234752ac141de4415c5fc33072bef88
     Pseudo is Projector augmented-wave + core cor, Zval =  6.0
     Generated using "atomic" code by A. Dal Corso  v.5.0.99 svn rev. 10869
     Shape of augmentation charge: BESSEL
     Using radial grid of 1095 points,  4 beta functions with:
                l(1) =   0
                l(2) =   0
                l(3) =   1
                l(4) =   1
     Q(r) pseudized with 0 coefficients

     PseudoPot. # 3 for F  read from file:
     /lustre07/scratch/pragov/crystal_structure_design/utils/SSSP/f_pbe_v1.4.uspp.F.UPF
     MD5 check sum: 4c38b6a325caf53ec0e86aed9459de46
     Pseudo is Ultrasoft, Zval =  7.0
     Generated by new atomic code, or converted to UPF format
     Using radial grid of  799 points,  4 beta functions with:
                l(1) =   0
                l(2) =   0
                l(3) =   1
                l(4) =   1
     Q(r) pseudized with  8 coefficients,  rinner =    0.950   0.950   0.950

     atomic species   valence    mass     pseudopotential
        V             13.00    50.94150     V ( 1.00)
        O              6.00    15.99900     O ( 1.00)
        F              7.00    18.99840     F ( 1.00)

      4 Sym. Ops., with inversion, found ( 2 have fractional translation)

                                    s                        frac. trans.

      isym =  1     identity

 cryst.   s( 1) = (     1          0          0      )
                  (     0          1          0      )
                  (     0          0          1      )

 cart.    s( 1) = (  1.0000000  0.0000000  0.0000000 )
                  (  0.0000000  1.0000000  0.0000000 )
                  (  0.0000000  0.0000000  1.0000000 )

      isym =  2     180 deg rotation - cart. axis [1,0,0]

 cryst.   s( 2) = (     1          0          0      )    f =( -0.5000000 )
                  (     0         -1          0      )       ( -0.0000000 )
                  (     0          0         -1      )       (  0.5000000 )

 cart.    s( 2) = (  1.0000000  0.0000000  0.0000000 )    f =( -0.5000000 )
                  (  0.0000000 -1.0000000  0.0000000 )       (  0.0055287 )
                  (  0.0000000  0.0000000 -1.0000000 )       (  0.9007546 )

      isym =  3     inversion

 cryst.   s( 3) = (    -1          0          0      )
                  (     0         -1          0      )
                  (     0          0         -1      )

 cart.    s( 3) = ( -1.0000000  0.0000000  0.0000000 )
                  (  0.0000000 -1.0000000  0.0000000 )
                  (  0.0000000  0.0000000 -1.0000000 )

      isym =  4     inv. 180 deg rotation - cart. axis [1,0,0]

 cryst.   s( 4) = (    -1          0          0      )    f =(  0.5000000 )
                  (     0          1          0      )       ( -0.0000000 )
                  (     0          0          1      )       (  0.5000000 )

 cart.    s( 4) = ( -1.0000000  0.0000000  0.0000000 )    f =(  0.5000000 )
                  (  0.0000000  1.0000000  0.0000000 )       (  0.0055287 )
                  (  0.0000000  0.0000000  1.0000000 )       (  0.9007546 )

   Cartesian axes

     site n.     atom                  positions (alat units)
         1           V   tau(   1) = (   0.5893160   0.7391710   1.5832781  )
         2           V   tau(   2) = (   0.9106840   0.7336423   0.6825234  )
         3           V   tau(   3) = (   0.0893160   0.3682154   1.1189859  )
         4           V   tau(   4) = (   0.4106840   0.3626867   0.2182312  )
         5           O   tau(   5) = (   0.1787300   0.2220095   0.1023726  )
         6           O   tau(   6) = (   0.6787300   0.8743195   0.7983821  )
         7           O   tau(   7) = (   0.3212700   0.2275382   1.0031272  )
         8           O   tau(   8) = (   0.8212700   0.8798481   1.6991367  )
         9           F   tau(   9) = (   0.4008010   0.9792956   1.4663799  )
        10           F   tau(  10) = (   0.5991990   0.1225620   0.3351294  )
        11           F   tau(  11) = (   0.2095470   0.4951911   1.4040459  )
        12           F   tau(  12) = (   0.2904530   0.4896624   0.5032913  )
        13           F   tau(  13) = (   0.3687040   0.7015406   0.0728674  )
        14           F   tau(  14) = (   0.7904530   0.6066666   0.3974634  )
        15           F   tau(  15) = (   0.8687040   0.3947884   0.8278872  )
        16           F   tau(  16) = (   0.1312960   0.7070693   0.9736221  )
        17           F   tau(  17) = (   0.9008010   0.1280907   1.2358840  )
        18           F   tau(  18) = (   0.7095470   0.6121953   1.2982180  )
        19           F   tau(  19) = (   0.6312960   0.4003170   1.7286418  )
        20           F   tau(  20) = (   0.0991990   0.9737670   0.5656253  )

   Crystallographic axes

     site n.     atom                  positions (cryst. coord.)
         1           V   tau(   1) = (  0.5893160  0.6687320  0.8788620  )
         2           V   tau(   2) = (  0.9106840  0.6687320  0.3788620  )
         3           V   tau(   3) = (  0.0893160  0.3312680  0.6211380  )
         4           V   tau(   4) = (  0.4106840  0.3312680  0.1211380  )
         5           O   tau(   5) = (  0.1787300  0.2029530  0.0568260  )
         6           O   tau(   6) = (  0.6787300  0.7970470  0.4431740  )
         7           O   tau(   7) = (  0.3212700  0.2029530  0.5568260  )
         8           O   tau(   8) = (  0.8212700  0.7970470  0.9431740  )
         9           F   tau(   9) = (  0.4008010  0.8895260  0.8139730  )
        10           F   tau(  10) = (  0.5991990  0.1104740  0.1860270  )
        11           F   tau(  11) = (  0.2095470  0.4460700  0.7793720  )
        12           F   tau(  12) = (  0.2904530  0.4460700  0.2793720  )
        13           F   tau(  13) = (  0.3687040  0.6427330  0.0404480  )
        14           F   tau(  14) = (  0.7904530  0.5539300  0.2206280  )
        15           F   tau(  15) = (  0.8687040  0.3572670  0.4595520  )
        16           F   tau(  16) = (  0.1312960  0.6427330  0.5404480  )
        17           F   tau(  17) = (  0.9008010  0.1104740  0.6860270  )
        18           F   tau(  18) = (  0.7095470  0.5539300  0.7206280  )
        19           F   tau(  19) = (  0.6312960  0.3572670  0.9595520  )
        20           F   tau(  20) = (  0.0991990  0.8895260  0.3139730  )

     number of k points=    10
                       cart. coord. in units 2pi/alat
        k(    1) = (   0.0000000   0.0000000   0.0000000), wk =   0.0740741
        k(    2) = (   0.0000000   0.0000000   0.1850300), wk =   0.1481481
        k(    3) = (   0.0000000   0.3055860  -0.0018756), wk =   0.1481481
        k(    4) = (   0.0000000   0.3055860   0.1831544), wk =   0.1481481
        k(    5) = (   0.0000000   0.3055860  -0.1869057), wk =   0.1481481
        k(    6) = (   0.3333333   0.0000000   0.0000000), wk =   0.1481481
        k(    7) = (   0.3333333   0.0000000   0.1850300), wk =   0.2962963
        k(    8) = (   0.3333333   0.3055860  -0.0018756), wk =   0.2962963
        k(    9) = (   0.3333333   0.3055860   0.1831544), wk =   0.2962963
        k(   10) = (   0.3333333   0.3055860  -0.1869057), wk =   0.2962963

                       cryst. coord.
        k(    1) = (   0.0000000   0.0000000   0.0000000), wk =   0.0740741
        k(    2) = (   0.0000000   0.0000000   0.3333333), wk =   0.1481481
        k(    3) = (   0.0000000   0.3333333   0.0000000), wk =   0.1481481
        k(    4) = (   0.0000000   0.3333333   0.3333333), wk =   0.1481481
        k(    5) = (   0.0000000   0.3333333  -0.3333333), wk =   0.1481481
        k(    6) = (   0.3333333   0.0000000   0.0000000), wk =   0.1481481
        k(    7) = (   0.3333333   0.0000000   0.3333333), wk =   0.2962963
        k(    8) = (   0.3333333   0.3333333   0.0000000), wk =   0.2962963
        k(    9) = (   0.3333333   0.3333333   0.3333333), wk =   0.2962963
        k(   10) = (   0.3333333   0.3333333  -0.3333333), wk =   0.2962963

     Check: negative core charge=   -0.000008

     Initial potential from superposition of free atoms

     starting charge     159.9951, renormalised to     160.0000

     negative rho (up, down):  3.084E-03 0.000E+00
     Starting wfcs are  104 randomized atomic wfcs +  152 random wfcs
     Checking if some PAW data can be deallocated...

     Self-consistent Calculation

     iteration #  1     ecut=    30.00 Ry     beta= 0.70
     Davidson diagonalization with overlap

     ethr =  1.00E-02,  avg # of iterations =  6.6

     negative rho (up, down):  1.175E-02 0.000E+00

     total energy              =   -1326.23566569 Ry
     estimated scf accuracy    <       7.87164083 Ry

[...]

     c_bands:  1 eigenvalues not converged
     ethr =  2.38E-06,  avg # of iterations = 11.2

[...]

     total energy              =   -1331.32880582 Ry
     estimated scf accuracy    <       0.00001937 Ry

     iteration # 11     ecut=    30.00 Ry     beta= 0.70
     Davidson diagonalization with overlap

     ethr =  1.21E-08,  avg # of iterations =  1.0

     negative rho (up, down):  7.886E-03 0.000E+00

     End of self-consistent calculation

          k = 0.0000 0.0000 0.0000 (  5741 PWs)   bands (ev):

   -64.1429 -64.1427 -64.1388 -64.1386 -38.0742 -38.0737 -38.0708 -38.0699
   -38.0471 -38.0463 -38.0387 -38.0338 -38.0214 -38.0209 -37.9844 -37.9830
   -21.8000 -21.7125 -21.2385 -21.2369 -21.1408 -21.0202 -20.9240 -20.9192
   -20.7989 -20.7981 -20.7918 -20.7645 -15.5976 -15.5902 -15.5560 -15.5526
    -4.4972  -4.4489  -4.4261  -4.2913  -4.2484  -4.1972  -3.9085  -3.8672
    -3.8292  -3.6080  -3.5314  -3.4398  -3.3972  -3.2228  -3.1381  -3.1231
    -2.8958  -2.8926  -2.7044  -2.6565  -2.4923  -2.4658  -2.4553  -2.3475
    -2.3399  -2.2637  -2.2498  -2.0480  -1.9153  -1.9114  -1.8033  -1.7951
    -1.7359  -1.6760  -1.6661  -1.6224  -1.6163  -1.5741  -1.5541  -1.5243
    -1.0970  -0.9052  -0.8539  -0.8315  -0.8106  -0.7167  -0.6608  -0.6605
     2.6224   2.6341   2.8296   2.8848   3.6285   3.7061   3.8348   3.8798
     3.9079   3.9463   3.9766   3.9889   4.5284   4.5603   5.0136   5.0533
     5.7441   5.7789   6.0381   6.1645   7.8534   9.8282  10.0448  12.4936
    12.5743  13.0497  13.4171  13.4622  13.6793  13.6857  13.9712  14.0145
    14.0975  14.1629  14.6932  14.7010  14.9226  15.7988  15.8060  15.8775
    16.0357  16.5115  16.5219  16.5348  16.8344  17.0015  17.4930  17.5077
    17.5995  17.6858  17.6990  17.9711  18.1299  18.3489  18.9504  19.2853
    19.4099  19.5201  19.8644  19.8740  20.7156  20.9451  21.4654  21.5034
    21.5458  22.1119  22.1556  23.0023  23.0046  23.1274  23.3453  23.4688
    23.6717  24.1434  24.1637  24.2417  24.8011  24.8099  24.8419  24.8616
    25.0996  25.3744  25.4594  25.5546  25.7216  25.7638  25.7648  26.0894
    26.2369  26.7747  26.8102  26.8792  26.9023  27.1087  27.2174  27.2846
    27.6142  27.7353  27.7498  27.9513  28.0141  28.4022  28.4864  28.7043
    28.7309  28.9011  29.1181  29.2835  29.3878  29.5282  29.5613  30.2561
    30.2845  30.6282  30.8938  31.2674  31.3232  31.4818  31.6506  31.7135
    31.8126  31.9702  32.0674  32.3217  32.5488  32.5864  32.6619  32.8380
    33.0355  33.1882  33.4071  33.4966  33.7756  34.1028  34.1479  34.2070
    34.3282  34.7330  34.8078  34.8152  35.0583  35.0828  35.0949  35.5212
    35.7557  35.8357  35.8814  36.1449  36.3035  36.4870  36.5436  36.7818
    36.8638  37.1585  37.2453  37.2475  37.4912  37.5954  37.7684  37.9871
    38.2314  38.3596  38.4976  38.5073  38.7448  38.8309  39.0278  39.0323
    39.3581  39.3865  39.6178  39.6181  39.8073  39.8336  40.2778  40.4467

     occupation numbers
     1.0000   1.0000   1.0000   1.0000   1.0000   1.0000   1.0000   1.0000
     1.0000   1.0000   1.0000   1.0000   1.0000   1.0000   1.0000   1.0000
     1.0000   1.0000   1.0000   1.0000   1.0000   1.0000   1.0000   1.0000
     1.0000   1.0000   1.0000   1.0000   1.0000   1.0000   1.0000   1.0000
     1.0000   1.0000   1.0000   1.0000   1.0000   1.0000   1.0000   1.0000
     1.0000   1.0000   1.0000   1.0000   1.0000   1.0000   1.0000   1.0000
     1.0000   1.0000   1.0000   1.0000   1.0000   1.0000   1.0000   1.0000
     1.0000   1.0000   1.0000   1.0000   1.0000   1.0000   1.0000   1.0000
     1.0000   1.0000   1.0000   1.0000   1.0000   1.0000   1.0000   1.0000
     1.0000   1.0000   1.0000   1.0000   1.0000   1.0000   1.0000   1.0000
     0.0000   0.0000   0.0000   0.0000   0.0000   0.0000   0.0000   0.0000
     0.0000   0.0000   0.0000   0.0000   0.0000   0.0000   0.0000   0.0000
     0.0000   0.0000   0.0000   0.0000   0.0000   0.0000   0.0000   0.0000
     0.0000   0.0000   0.0000   0.0000   0.0000   0.0000   0.0000   0.0000
     0.0000   0.0000   0.0000   0.0000   0.0000   0.0000   0.0000   0.0000
     0.0000   0.0000   0.0000   0.0000   0.0000   0.0000   0.0000   0.0000
     0.0000   0.0000   0.0000   0.0000   0.0000   0.0000   0.0000   0.0000
     0.0000   0.0000   0.0000   0.0000   0.0000   0.0000   0.0000   0.0000
     0.0000   0.0000   0.0000   0.0000   0.0000   0.0000   0.0000   0.0000
     0.0000   0.0000   0.0000   0.0000   0.0000   0.0000   0.0000   0.0000
     0.0000   0.0000   0.0000   0.0000   0.0000   0.0000   0.0000   0.0000
     0.0000   0.0000   0.0000   0.0000   0.0000   0.0000   0.0000   0.0000
     0.0000   0.0000   0.0000   0.0000   0.0000   0.0000   0.0000   0.0000
     0.0000   0.0000   0.0000   0.0000   0.0000   0.0000   0.0000   0.0000
     0.0000   0.0000   0.0000   0.0000   0.0000   0.0000   0.0000   0.0000
     0.0000   0.0000   0.0000   0.0000   0.0000   0.0000   0.0000   0.0000
     0.0000   0.0000   0.0000   0.0000   0.0000   0.0000   0.0000   0.0000
     0.0000   0.0000   0.0000   0.0000   0.0000   0.0000   0.0000   0.0000
     0.0000   0.0000   0.0000   0.0000   0.0000   0.0000   0.0000   0.0000
     0.0000   0.0000   0.0000   0.0000   0.0000   0.0000   0.0000   0.0000
     0.0000   0.0000   0.0000   0.0000   0.0000   0.0000   0.0000   0.0000
     0.0000   0.0000   0.0000   0.0000   0.0000   0.0000   0.0000   0.0000

[...]

          k = 0.3333 0.3056-0.1869 (  5737 PWs)   bands (ev):

   -64.1427 -64.1426 -64.1388 -64.1388 -38.0739 -38.0736 -38.0700 -38.0698
   -38.0474 -38.0469 -38.0365 -38.0354 -38.0214 -38.0211 -37.9829 -37.9825
   -21.7561 -21.7364 -21.2358 -21.2353 -21.0664 -21.0313 -20.9642 -20.9500
   -20.8141 -20.7994 -20.7850 -20.7735 -15.5933 -15.5910 -15.5589 -15.5577
    -4.4750  -4.4468  -4.3967  -4.3571  -4.2285  -4.2043  -3.9481  -3.8993
    -3.7158  -3.6133  -3.4215  -3.3437  -3.3160  -3.2518  -3.0151  -2.9583
    -2.9291  -2.8914  -2.7438  -2.6816  -2.6079  -2.5705  -2.4368  -2.4272
    -2.4067  -2.3428  -2.2858  -2.2293  -1.9468  -1.9017  -1.8621  -1.8117
    -1.7308  -1.7118  -1.6771  -1.6001  -1.5487  -1.5191  -1.4812  -1.4285
    -1.0321  -0.9777  -0.8787  -0.8375  -0.7571  -0.7437  -0.7000  -0.6597
     2.6115   2.6360   2.8412   2.8690   3.5872   3.6242   3.8243   3.8536
     3.9058   3.9382   4.0062   4.0254   4.5801   4.5854   5.0507   5.0634
     5.6714   5.7362   5.9924   6.0973   9.5412  10.1798  11.1433  11.3302
    11.6437  11.8897  12.1716  12.7463  12.9131  13.3571  13.4026  13.7122
    14.4082  14.5396  14.8165  15.2275  15.4524  15.7190  16.0974  16.2191
    16.2712  16.5979  16.6995  16.9815  17.2292  17.3802  17.3913  17.6851
    18.1039  18.2563  18.3983  18.6168  18.6458  19.0129  19.3588  19.5368
    19.7268  19.8785  19.9770  20.2539  20.4893  20.6509  20.9040  21.1260
    21.3728  21.6864  21.9336  21.9631  22.1899  22.2990  22.7180  22.7424
    23.0140  23.2742  23.3628  23.7115  23.8135  24.4184  24.6823  24.7762
    24.8404  25.0821  25.3002  25.5121  25.6513  25.8270  25.8886  26.1506
    26.3187  26.5240  26.6489  26.6565  27.0724  27.2015  27.3013  27.5973
    27.7123  27.8616  28.0264  28.3116  28.5305  28.7249  28.8795  28.8924
    29.1317  29.3615  29.7177  29.7674  30.0799  30.2513  30.3078  30.5799
    30.6868  30.9320  31.0325  31.1554  31.4148  31.5435  31.7753  32.1756
    32.2239  32.3959  32.5984  32.7289  32.8755  32.9565  33.0472  33.1643
    33.4826  33.5493  33.7754  33.7938  33.9973  34.1340  34.3796  34.4752
    34.6103  34.7140  34.8143  34.8988  35.0477  35.1685  35.3897  35.5303
    35.7254  35.8459  36.0665  36.2306  36.3242  36.4070  36.4667  36.6568
    36.7257  36.8137  37.0952  37.1619  37.4208  37.5433  37.6329  37.7877
    37.9517  38.1014  38.1760  38.3376  38.5073  38.6869  38.8440  38.9816
    39.0914  39.1201  39.2333  39.3802  39.4897  39.6969  39.8781  40.0137

     occupation numbers
     1.0000   1.0000   1.0000   1.0000   1.0000   1.0000   1.0000   1.0000
     1.0000   1.0000   1.0000   1.0000   1.0000   1.0000   1.0000   1.0000
     1.0000   1.0000   1.0000   1.0000   1.0000   1.0000   1.0000   1.0000
     1.0000   1.0000   1.0000   1.0000   1.0000   1.0000   1.0000   1.0000
     1.0000   1.0000   1.0000   1.0000   1.0000   1.0000   1.0000   1.0000
     1.0000   1.0000   1.0000   1.0000   1.0000   1.0000   1.0000   1.0000
     1.0000   1.0000   1.0000   1.0000   1.0000   1.0000   1.0000   1.0000
     1.0000   1.0000   1.0000   1.0000   1.0000   1.0000   1.0000   1.0000
     1.0000   1.0000   1.0000   1.0000   1.0000   1.0000   1.0000   1.0000
     1.0000   1.0000   1.0000   1.0000   1.0000   1.0000   1.0000   1.0000
     0.0000   0.0000   0.0000   0.0000   0.0000   0.0000   0.0000   0.0000
     0.0000   0.0000   0.0000   0.0000   0.0000   0.0000   0.0000   0.0000
     0.0000   0.0000   0.0000   0.0000   0.0000   0.0000   0.0000   0.0000
     0.0000   0.0000   0.0000   0.0000   0.0000   0.0000   0.0000   0.0000
     0.0000   0.0000   0.0000   0.0000   0.0000   0.0000   0.0000   0.0000
     0.0000   0.0000   0.0000   0.0000   0.0000   0.0000   0.0000   0.0000
     0.0000   0.0000   0.0000   0.0000   0.0000   0.0000   0.0000   0.0000
     0.0000   0.0000   0.0000   0.0000   0.0000   0.0000   0.0000   0.0000
     0.0000   0.0000   0.0000   0.0000   0.0000   0.0000   0.0000   0.0000
     0.0000   0.0000   0.0000   0.0000   0.0000   0.0000   0.0000   0.0000
     0.0000   0.0000   0.0000   0.0000   0.0000   0.0000   0.0000   0.0000
     0.0000   0.0000   0.0000   0.0000   0.0000   0.0000   0.0000   0.0000
     0.0000   0.0000   0.0000   0.0000   0.0000   0.0000   0.0000   0.0000
     0.0000   0.0000   0.0000   0.0000   0.0000   0.0000   0.0000   0.0000
     0.0000   0.0000   0.0000   0.0000   0.0000   0.0000   0.0000   0.0000
     0.0000   0.0000   0.0000   0.0000   0.0000   0.0000   0.0000   0.0000
     0.0000   0.0000   0.0000   0.0000   0.0000   0.0000   0.0000   0.0000
     0.0000   0.0000   0.0000   0.0000   0.0000   0.0000   0.0000   0.0000
     0.0000   0.0000   0.0000   0.0000   0.0000   0.0000   0.0000   0.0000
     0.0000   0.0000   0.0000   0.0000   0.0000   0.0000   0.0000   0.0000
     0.0000   0.0000   0.0000   0.0000   0.0000   0.0000   0.0000   0.0000
     0.0000   0.0000   0.0000   0.0000   0.0000   0.0000   0.0000   0.0000

     highest occupied, lowest unoccupied level (ev):    -0.6536    2.5957

!    total energy              =   -1331.32880877 Ry
     estimated scf accuracy    <       0.00000011 Ry

     The total energy is the sum of the following terms:
     one-electron contribution =    -990.18596226 Ry
     hartree contribution      =     547.19581305 Ry
     xc contribution           =    -218.53011370 Ry
     ewald contribution        =    -631.61737096 Ry
     one-center paw contrib.   =     -38.19117490 Ry
      -> PAW hartree energy AE =       0.00000000 Ry
      -> PAW hartree energy PS =       0.00000000 Ry
      -> PAW xc energy AE      =       0.00000000 Ry
      -> PAW xc energy PS      =       0.00000000 Ry
      -> total E_H with PAW    =     547.19581305 Ry
      -> total E_XC with PAW   =    -218.53011370 Ry

     convergence has been achieved in  11 iterations

     Writing all to output data dir bands_nm/myprefix.save/

     General routines

     Parallel routines

     PAW routines

   This run was terminated on:   0:12: 5  17Jul2023

   JOB DONE.