     Program PWSCF v.7.1 starts on 15Jul2023 at 21:18:15

     Reading input from espresso_14949.pwi
Warning: card &CELL ignored
Warning: card / ignored

     Current dimensions of program PWSCF are:
     Max number of different atomic species (ntypx) = 10
     Max number of k-points (npk) =  40000
     Max angular momentum in pseudopotentials (lmaxx) =  4
     file Lu.paw.z_25.atompaw.wentzcovitch.v1.2.upf: wavefunction(s)  6S 0P 5D 0D 0F renormalized
     file Cu.paw.z_11.ld1.psl.v1.0.0-low.upf: wavefunction(s)  4S 3D renormalized
     Message from routine setup:
     using ibrav=0 with symmetry is DISCOURAGED, use correct ibrav instead

     K-points division:     npool     =       2
     R & G space division:  proc/nbgrp/npool/nimage =       4
     Subspace diagonalization in iterative solution of the eigenvalue problem:
     one sub-group per band group will be used

     Using Slab Decomposition

     bravais-lattice index     =            0
     lattice parameter (alat)  =      13.8939  a.u.
     unit-cell volume          =    1617.5225 (a.u.)^3
     number of atoms/cell      =           14
     number of atomic types    =            3
     number of electrons       =       152.00
     number of Kohn-Sham states=          256
     kinetic-energy cutoff     =      30.0000  Ry
     charge density cutoff     =     240.0000  Ry
     scf convergence threshold =      1.0E-06
     mixing beta               =       0.7000
     number of iterations used =            8  plain     mixing
     Exchange-correlation=  SLA  PW   PBX  PBC
                           (   1   4   3   4   0   0   0)

     celldm(1)=  13.893858  celldm(2)=   0.000000  celldm(3)=   0.000000
     celldm(4)=   0.000000  celldm(5)=   0.000000  celldm(6)=   0.000000

     crystal axes: (cart. coord. in units of alat)
               a(1) = (   1.000000   0.000000   0.000000 )
               a(2) = (   0.591890   0.806019   0.000000 )
               a(3) = (   0.591890   0.299691   0.748233 )

     reciprocal axes: (cart. coord. in units 2 pi/alat)
               b(1) = (  1.000000 -0.734338 -0.496926 )
               b(2) = (  0.000000  1.240666 -0.496926 )
               b(3) = (  0.000000  0.000000  1.336483 )

     PseudoPot. # 1 for Lu read from file:
     /lustre07/scratch/pragov/crystal_structure_design/utils/SSSP/Lu.paw.z_25.atompaw.wentzcovitch.v1.2.upf
     MD5 check sum: a517b3205eadf2aa79773283867f4cbe
     Pseudo is Projector augmented-wave + core cor, Zval = 25.0
     Generated using ATOMPAW code
     Shape of augmentation charge: BESSEL
     Using radial grid of 1118 points,  8 beta functions with:
                l(1) =   0
                l(2) =   0
                l(3) =   1
                l(4) =   1
                l(5) =   2
                l(6) =   2
                l(7) =   3
                l(8) =   3
     Q(r) pseudized with 0 coefficients

     PseudoPot. # 2 for Cu read from file:
     /lustre07/scratch/pragov/crystal_structure_design/utils/SSSP/Cu.paw.z_11.ld1.psl.v1.0.0-low.upf
     MD5 check sum: 619f40885d92a09a85a8b37550532d0c
     Pseudo is Projector augmented-wave + core cor, Zval = 11.0
     Generated using &quot;atomic&quot; code by A. Dal Corso  v.6.3MaX
     Shape of augmentation charge: PSQ
     Using radial grid of 1199 points,  6 beta functions with:
                l(1) =   0
                l(2) =   0
                l(3) =   1
                l(4) =   1
                l(5) =   2
                l(6) =   2
     Q(r) pseudized with 0 coefficients

     PseudoPot. # 3 for S  read from file:
     /lustre07/scratch/pragov/crystal_structure_design/utils/SSSP/s_pbe_v1.4.uspp.F.UPF
     MD5 check sum: 88d86576ff6df21479756cfb9bdac1df
     Pseudo is Ultrasoft + core correction, Zval =  6.0
     Generated by new atomic code, or converted to UPF format
     Using radial grid of  907 points,  6 beta functions with:
                l(1) =   0
                l(2) =   0
                l(3) =   1
                l(4) =   1
                l(5) =   2
                l(6) =   2
     Q(r) pseudized with  8 coefficients,  rinner =    1.300   1.300   1.300
                                                       1.300   1.300

     atomic species   valence    mass     pseudopotential
        Lu            25.00   174.96680     Lu( 1.00)
        Cu            11.00    63.54600     Cu( 1.00)
        S              6.00    32.06000     S ( 1.00)

      2 Sym. Ops., with inversion, found

                                    s                        frac. trans.

      isym =  1     identity

 cryst.   s( 1) = (     1          0          0      )
                  (     0          1          0      )
                  (     0          0          1      )

 cart.    s( 1) = (  1.0000000  0.0000000 -0.0000000 )
                  (  0.0000000  1.0000000  0.0000000 )
                  (  0.0000000  0.0000000  1.0000000 )

      isym =  2     inversion

 cryst.   s( 2) = (    -1          0          0      )
                  (     0         -1          0      )
                  (     0          0         -1      )

 cart.    s( 2) = ( -1.0000000  0.0000000  0.0000000 )
                  (  0.0000000 -1.0000000  0.0000000 )
                  (  0.0000000  0.0000000 -1.0000000 )

   Cartesian axes

     site n.     atom                  positions (alat units)
         1           Lu  tau(   1) = (   1.8200757   0.9215557   0.6236159  )
         2           Lu  tau(   2) = (   0.3637042   0.1841537   0.1246166  )
         3           Cu  tau(   3) = (   1.2253369   0.9608236   0.4667138  )
         4           Cu  tau(   4) = (   1.3624248   0.5197539   0.7184073  )
         5           Cu  tau(   5) = (   1.4997065   0.5890230   0.2153758  )
         6           Cu  tau(   6) = (   0.6840734   0.5166864   0.5328568  )
         7           Cu  tau(   7) = (   0.8213551   0.5859555   0.0298253  )
         8           Cu  tau(   8) = (   0.9584430   0.1448858   0.2815188  )
         9           S   tau(   9) = (   0.7773470   0.7325299   0.3138836  )
        10           S   tau(  10) = (   1.0505367   0.3631329   0.0624370  )
        11           S   tau(  11) = (   0.9144940   0.2928805   0.5633054  )
        12           S   tau(  12) = (   1.2692853   0.8128286   0.1849264  )
        13           S   tau(  13) = (   1.1332432   0.7425765   0.6857956  )
        14           S   tau(  14) = (   1.4064329   0.3731796   0.4343490  )

   Crystallographic axes

     site n.     atom                  positions (cryst. coord.)
         1           Lu  tau(   1) = (  0.8334520  0.8334520  0.8334520  )
         2           Lu  tau(   2) = (  0.1665480  0.1665480  0.1665480  )
         3           Cu  tau(   3) = (  0.2878460  0.9601390  0.6237550  )
         4           Cu  tau(   4) = (  0.6237550  0.2878460  0.9601390  )
         5           Cu  tau(   5) = (  0.9601390  0.6237550  0.2878460  )
         6           Cu  tau(   6) = (  0.0398610  0.3762450  0.7121540  )
         7           Cu  tau(   7) = (  0.3762450  0.7121540  0.0398610  )
         8           Cu  tau(   8) = (  0.7121540  0.0398610  0.3762450  )
         9           S   tau(   9) = (  0.0834460  0.7528480  0.4195000  )
        10           S   tau(  10) = (  0.7528480  0.4195000  0.0834460  )
        11           S   tau(  11) = (  0.4195000  0.0834460  0.7528480  )
        12           S   tau(  12) = (  0.5805000  0.9165540  0.2471510  )
        13           S   tau(  13) = (  0.2471520  0.5805000  0.9165540  )
        14           S   tau(  14) = (  0.9165540  0.2471520  0.5805000  )

     number of k points=    14
                       cart. coord. in units 2pi/alat
        k(    1) = (   0.0000000   0.0000000   0.0000000), wk =   0.0740741
        k(    2) = (   0.0000000   0.0000000   0.4454943), wk =   0.1481481
        k(    3) = (   0.0000000   0.4135553  -0.1656419), wk =   0.1481481
        k(    4) = (   0.0000000   0.4135553   0.2798524), wk =   0.1481481
        k(    5) = (   0.0000000   0.4135553  -0.6111361), wk =   0.1481481
        k(    6) = (   0.3333333  -0.2447792  -0.1656419), wk =   0.1481481
        k(    7) = (   0.3333333  -0.2447792   0.2798524), wk =   0.1481481
        k(    8) = (   0.3333333  -0.2447792  -0.6111361), wk =   0.1481481
        k(    9) = (   0.3333333   0.1687761  -0.3312837), wk =   0.1481481
        k(   10) = (   0.3333333   0.1687761   0.1142106), wk =   0.1481481
        k(   11) = (   0.3333333   0.1687761  -0.7767780), wk =   0.1481481
        k(   12) = (   0.3333333  -0.6583345  -0.0000000), wk =   0.1481481
        k(   13) = (   0.3333333  -0.6583345   0.4454943), wk =   0.1481481
        k(   14) = (   0.3333333  -0.6583345  -0.4454943), wk =   0.1481481

                       cryst. coord.
        k(    1) = (   0.0000000   0.0000000   0.0000000), wk =   0.0740741
        k(    2) = (   0.0000000   0.0000000   0.3333333), wk =   0.1481481
        k(    3) = (   0.0000000   0.3333333   0.0000000), wk =   0.1481481
        k(    4) = (   0.0000000   0.3333333   0.3333333), wk =   0.1481481
        k(    5) = (   0.0000000   0.3333333  -0.3333333), wk =   0.1481481
        k(    6) = (   0.3333333   0.0000000  -0.0000000), wk =   0.1481481
        k(    7) = (   0.3333333   0.0000000   0.3333333), wk =   0.1481481
        k(    8) = (   0.3333333   0.0000000  -0.3333333), wk =   0.1481481
        k(    9) = (   0.3333333   0.3333333   0.0000000), wk =   0.1481481
        k(   10) = (   0.3333333   0.3333333   0.3333333), wk =   0.1481481
        k(   11) = (   0.3333333   0.3333333  -0.3333333), wk =   0.1481481
        k(   12) = (   0.3333333  -0.3333333  -0.0000000), wk =   0.1481481
        k(   13) = (   0.3333333  -0.3333333   0.3333333), wk =   0.1481481
        k(   14) = (   0.3333333  -0.3333333  -0.3333333), wk =   0.1481481

     Check: negative core charge=   -0.000003

     Initial potential from superposition of free atoms

     starting charge     151.9909, renormalised to     152.0000
     Starting wfcs are  142 randomized atomic wfcs +  114 random wfcs
     Checking if some PAW data can be deallocated...

     Self-consistent Calculation

     iteration #  1     ecut=    30.00 Ry     beta= 0.70
     Davidson diagonalization with overlap

     ethr =  1.00E-02,  avg # of iterations =  7.7

     Threshold (ethr) on eigenvalues was too large:
     Diagonalizing with lowered threshold

     Davidson diagonalization with overlap

[...]

     total energy              =   -3584.06399818 Ry
     estimated scf accuracy    <       0.37585010 Ry

[...]

     c_bands:  1 eigenvalues not converged
     ethr =  8.08E-08,  avg # of iterations =  4.2

[...]

     ethr =  4.95E-08,  avg # of iterations =  1.5

     total energy              =   -3584.22150108 Ry
     estimated scf accuracy    <       0.00001902 Ry

     iteration #  9     ecut=    30.00 Ry     beta= 0.70
     Davidson diagonalization with overlap

     c_bands:  1 eigenvalues not converged
     ethr =  1.25E-08,  avg # of iterations =  2.5

     End of self-consistent calculation

          k = 0.0000 0.0000 0.0000 (  4473 PWs)   bands (ev):

   -45.8844 -45.8807 -16.6360 -16.6186 -16.6186 -16.6042 -16.5370 -16.5370
    -3.9360  -2.8170  -2.7858  -2.7856  -2.6775  -2.6773   3.9228   4.5972
     4.5973   4.6218   4.6218   4.7358   5.3409   5.4225   5.4255   5.4256
     5.4698   5.5124   5.5125   5.5454   5.5455   5.5487   5.5660   5.5739
     5.5740   5.5997   5.7239   5.7849   5.9351   5.9352   5.9732   6.1380
     6.1381   6.2794   6.2794   6.5255   6.6358   6.6359   7.5748   7.5800
     7.6545   7.6546   7.7016   7.7242   8.0087   8.0087   8.1530   8.1530
     8.2490   8.2705   8.3536   8.4448   8.4448   8.4457   8.4457   8.5169
     8.5169   9.0473   9.0474   9.1175   9.1176   9.4884   9.6046   9.7556
     9.7556  10.3188  10.5356  10.5357  11.7420  12.6717  13.0808  13.0808
    13.0878  13.4238  13.4238  13.6037  14.1912  14.1913  14.9257  14.9258
    15.1979  15.3521  15.3521  15.5107  16.6717  16.6717  17.0831  17.0832
    17.1834  17.1957  17.1958  17.3788  17.6673  18.8316  18.8316  19.0916
    19.6653  19.6653  19.7222  19.7998  20.6088  20.6089  20.8977  21.0688
    21.3943  21.5827  21.5828  22.0501  22.0501  22.4718  22.4718  22.6401
    22.6402  22.8407  22.8723  22.8724  23.5547  24.8108  25.0774  25.8066
    25.9077  25.9078  26.0275  26.0275  26.1371  26.1371  26.2287  26.2527
    26.3308  26.8290  27.3019  27.3019  28.3164  28.3164  28.4902  28.7835
    28.8289  28.8290  29.9116  29.9116  30.2331  30.2331  30.3335  30.4547
    31.3627  31.3627  31.4948  31.6638  31.6639  32.2220  32.4737  32.4738
    32.7550  32.7550  33.1836  33.3609  33.8022  33.8043  33.8043  34.2103
    34.2103  34.5935  34.8068  35.7412  35.7713  35.7714  35.8055  35.8055
    36.0535  36.0535  36.1915  36.1916  36.2120  36.3447  36.8327  36.8327
    36.9948  37.2114  37.2114  37.6811  37.7962  37.7962  38.4337  38.5247
    38.5247  39.3311  39.3311  39.8522  39.8523  39.8533  39.9116  40.0382
    40.2718  40.2719  40.7440  41.5433  41.6455  41.7033  41.7033  42.1172
    42.1173  42.1999  42.3379  42.4401  42.4402  42.5588  42.5588  42.7631
    42.9548  42.9685  42.9685  43.1801  43.1801  43.5523  43.6025  43.9843
    43.9843  44.1461  44.1461  44.6525  44.9484  44.9484  45.2821  45.2821
    45.6296  45.9527  46.1517  46.1518  46.5610  46.5610  47.0624  47.5152
    48.0434  48.0435  48.2950  48.2950  48.3047  48.3047  48.3783  48.7632
    48.8913  48.8913  49.6868  49.7920  49.7920  51.0045  51.0163  51.1119

     occupation numbers
     1.0000   1.0000   1.0000   1.0000   1.0000   1.0000   1.0000   1.0000
     1.0000   1.0000   1.0000   1.0000   1.0000   1.0000   1.0000   1.0000
     1.0000   1.0000   1.0000   1.0000   1.0000   1.0000   1.0000   1.0000
     1.0000   1.0000   1.0000   1.0000   1.0000   1.0000   1.0000   1.0000
     1.0000   1.0000   1.0000   1.0000   1.0000   1.0000   1.0000   1.0000
     1.0000   1.0000   1.0000   1.0000   1.0000   1.0000   1.0000   1.0000
     1.0000   1.0000   1.0000   1.0000   1.0000   1.0000   1.0000   1.0000
     1.0000   1.0000   1.0000   1.0000   1.0000   1.0000   1.0000   1.0000
     1.0000   1.0000   1.0000   1.0000   1.0000   1.0000   1.0000   1.0000
     1.0000   1.0000   1.0000   1.0000   0.0000   0.0000   0.0000   0.0000
     0.0000   0.0000   0.0000   0.0000   0.0000   0.0000   0.0000   0.0000
     0.0000   0.0000   0.0000   0.0000   0.0000   0.0000   0.0000   0.0000
     0.0000   0.0000   0.0000   0.0000   0.0000   0.0000   0.0000   0.0000
     0.0000   0.0000   0.0000   0.0000   0.0000   0.0000   0.0000   0.0000
     0.0000   0.0000   0.0000   0.0000   0.0000   0.0000   0.0000   0.0000
     0.0000   0.0000   0.0000   0.0000   0.0000   0.0000   0.0000   0.0000
     0.0000   0.0000   0.0000   0.0000   0.0000   0.0000   0.0000   0.0000
     0.0000   0.0000   0.0000   0.0000   0.0000   0.0000   0.0000   0.0000
     0.0000   0.0000   0.0000   0.0000   0.0000   0.0000   0.0000   0.0000
     0.0000   0.0000   0.0000   0.0000   0.0000   0.0000   0.0000   0.0000
     0.0000   0.0000   0.0000   0.0000   0.0000   0.0000   0.0000   0.0000
     0.0000   0.0000   0.0000   0.0000   0.0000   0.0000   0.0000   0.0000
     0.0000   0.0000   0.0000   0.0000   0.0000   0.0000   0.0000   0.0000
     0.0000   0.0000   0.0000   0.0000   0.0000   0.0000   0.0000   0.0000
     0.0000   0.0000   0.0000   0.0000   0.0000   0.0000   0.0000   0.0000
     0.0000   0.0000   0.0000   0.0000   0.0000   0.0000   0.0000   0.0000
     0.0000   0.0000   0.0000   0.0000   0.0000   0.0000   0.0000   0.0000
     0.0000   0.0000   0.0000   0.0000   0.0000   0.0000   0.0000   0.0000
     0.0000   0.0000   0.0000   0.0000   0.0000   0.0000   0.0000   0.0000
     0.0000   0.0000   0.0000   0.0000   0.0000   0.0000   0.0000   0.0000
     0.0000   0.0000   0.0000   0.0000   0.0000   0.0000   0.0000   0.0000
     0.0000   0.0000   0.0000   0.0000   0.0000   0.0000   0.0000   0.0000

[...]

          k = 0.3333-0.6583-0.4455 (  4506 PWs)   bands (ev):

   -45.8836 -45.8815 -16.6304 -16.6239 -16.6105 -16.6055 -16.5508 -16.5312
    -3.3350  -3.1919  -3.0192  -2.8819  -2.7243  -2.6858   4.0695   4.5150
     4.6016   4.6998   4.7674   5.0016   5.3307   5.4234   5.4478   5.4810
     5.4910   5.5158   5.5196   5.5395   5.5504   5.5542   5.5574   5.5671
     5.5715   5.5838   5.6816   5.8318   5.8923   5.9620   6.0805   6.1683
     6.2184   6.2746   6.3848   6.4183   6.4250   6.5890   7.5857   7.6347
     7.6705   7.7260   7.8425   7.8702   7.9243   7.9546   8.1577   8.2015
     8.2593   8.3402   8.4014   8.4124   8.4251   8.4563   8.5057   8.6113
     8.7062   8.7255   8.9190   9.0784   9.1314   9.2748   9.3794   9.6206
     9.6587   9.7422   9.8439   9.9166  12.5606  12.7972  12.9695  13.3489
    13.3805  13.7304  13.8680  14.0989  14.2647  14.5763  14.9008  15.0445
    15.1472  15.3923  15.4755  15.7453  15.9912  16.3964  16.5425  16.7837
    17.0823  17.1550  17.5401  17.8758  18.0972  18.2582  18.4470  18.6889
    18.9853  19.2664  19.3693  19.7397  20.2202  20.5144  21.0662  21.1994
    21.5092  21.6981  21.8721  22.0195  22.1274  22.6698  22.8152  22.8883
    23.1346  23.2796  23.7102  23.7347  23.9345  24.3155  24.5472  24.6889
    24.8299  25.1212  25.6289  25.8470  26.0218  26.2207  26.4680  26.7022
    27.3391  27.5332  27.6303  28.1846  28.4412  28.6480  28.7037  28.9738
    29.2191  29.3090  29.6552  29.7755  30.0037  30.0706  30.3952  30.7219
    31.0675  31.2577  31.3541  31.5036  31.8865  31.9361  32.0647  32.1560
    32.5749  32.6311  32.7839  32.9622  33.1238  33.1605  33.7234  33.8738
    33.9843  34.2179  34.4088  34.5346  34.6028  34.9338  35.3353  35.4962
    35.6964  35.8074  36.1977  36.3664  36.6089  36.9713  36.9838  37.3155
    37.4776  37.6252  38.0346  38.1972  38.3052  38.4996  38.6813  38.8829
    38.9382  39.0981  39.3083  39.6992  39.7844  39.9654  40.1767  40.2572
    40.5437  40.5973  40.8424  40.9837  41.1027  41.2158  41.5468  41.5871
    41.6202  41.7469  41.9727  42.0933  42.4734  42.6189  42.9555  43.2271
    43.2997  43.4128  43.8120  44.0418  44.2561  44.3475  44.5183  44.7277
    44.8219  44.9824  45.2613  45.3703  45.4901  45.7484  45.8263  46.0222
    46.0940  46.2532  46.4345  46.6367  46.6702  47.0300  47.1718  47.2975
    47.4903  47.5982  47.7270  47.8929  48.0755  48.0933  48.2868  48.5763
    48.7044  48.8824  49.0774  49.2535  49.3565  49.5680  49.7770  49.8484

     occupation numbers
     1.0000   1.0000   1.0000   1.0000   1.0000   1.0000   1.0000   1.0000
     1.0000   1.0000   1.0000   1.0000   1.0000   1.0000   1.0000   1.0000
     1.0000   1.0000   1.0000   1.0000   1.0000   1.0000   1.0000   1.0000
     1.0000   1.0000   1.0000   1.0000   1.0000   1.0000   1.0000   1.0000
     1.0000   1.0000   1.0000   1.0000   1.0000   1.0000   1.0000   1.0000
     1.0000   1.0000   1.0000   1.0000   1.0000   1.0000   1.0000   1.0000
     1.0000   1.0000   1.0000   1.0000   1.0000   1.0000   1.0000   1.0000
     1.0000   1.0000   1.0000   1.0000   1.0000   1.0000   1.0000   1.0000
     1.0000   1.0000   1.0000   1.0000   1.0000   1.0000   1.0000   1.0000
     1.0000   1.0000   1.0000   1.0000   0.0000   0.0000   0.0000   0.0000
     0.0000   0.0000   0.0000   0.0000   0.0000   0.0000   0.0000   0.0000
     0.0000   0.0000   0.0000   0.0000   0.0000   0.0000   0.0000   0.0000
     0.0000   0.0000   0.0000   0.0000   0.0000   0.0000   0.0000   0.0000
     0.0000   0.0000   0.0000   0.0000   0.0000   0.0000   0.0000   0.0000
     0.0000   0.0000   0.0000   0.0000   0.0000   0.0000   0.0000   0.0000
     0.0000   0.0000   0.0000   0.0000   0.0000   0.0000   0.0000   0.0000
     0.0000   0.0000   0.0000   0.0000   0.0000   0.0000   0.0000   0.0000
     0.0000   0.0000   0.0000   0.0000   0.0000   0.0000   0.0000   0.0000
     0.0000   0.0000   0.0000   0.0000   0.0000   0.0000   0.0000   0.0000
     0.0000   0.0000   0.0000   0.0000   0.0000   0.0000   0.0000   0.0000
     0.0000   0.0000   0.0000   0.0000   0.0000   0.0000   0.0000   0.0000
     0.0000   0.0000   0.0000   0.0000   0.0000   0.0000   0.0000   0.0000
     0.0000   0.0000   0.0000   0.0000   0.0000   0.0000   0.0000   0.0000
     0.0000   0.0000   0.0000   0.0000   0.0000   0.0000   0.0000   0.0000
     0.0000   0.0000   0.0000   0.0000   0.0000   0.0000   0.0000   0.0000
     0.0000   0.0000   0.0000   0.0000   0.0000   0.0000   0.0000   0.0000
     0.0000   0.0000   0.0000   0.0000   0.0000   0.0000   0.0000   0.0000
     0.0000   0.0000   0.0000   0.0000   0.0000   0.0000   0.0000   0.0000
     0.0000   0.0000   0.0000   0.0000   0.0000   0.0000   0.0000   0.0000
     0.0000   0.0000   0.0000   0.0000   0.0000   0.0000   0.0000   0.0000
     0.0000   0.0000   0.0000   0.0000   0.0000   0.0000   0.0000   0.0000
     0.0000   0.0000   0.0000   0.0000   0.0000   0.0000   0.0000   0.0000

     highest occupied, lowest unoccupied level (ev):    10.5357   11.7420

!    total energy              =   -3584.22150413 Ry
     estimated scf accuracy    <       0.00000012 Ry

     The total energy is the sum of the following terms:
     one-electron contribution =   -1272.01700474 Ry
     hartree contribution      =     697.50685261 Ry
     xc contribution           =    -402.27108802 Ry
     ewald contribution        =   -1084.19466697 Ry
     one-center paw contrib.   =   -1523.24559702 Ry
      -> PAW hartree energy AE =     981.90216993 Ry
      -> PAW hartree energy PS =    -847.84489751 Ry
      -> PAW xc energy AE      =   -1198.66839291 Ry
      -> PAW xc energy PS      =      80.26549855 Ry
      -> total E_H with PAW    =     831.56412503 Ry
      -> total E_XC with PAW   =   -1520.67398238 Ry

     convergence has been achieved in   9 iterations

     Writing all to output data dir bands_nm/myprefix.save/

     General routines

     Parallel routines

     PAW routines

   This run was terminated on:  21:19:35  15Jul2023

   JOB DONE.