     Program PWSCF v.7.0 starts on  7Jun2023 at  7: 2:29

     K-points division:     npool     =       2
     R & G space division:  proc/nbgrp/npool/nimage =       4

     Reading input from espresso_4144.pwi
Warning: card &CELL ignored
Warning: card / ignored

     Current dimensions of program PWSCF are:
     Max number of different atomic species (ntypx) = 10
     Max number of k-points (npk) =  40000
     Max angular momentum in pseudopotentials (lmaxx) =  4
     file O.pbe-n-kjpaw_psl.0.1.UPF: wavefunction(s)  2P renormalized
     Message from routine setup:
     using ibrav=0 with symmetry is DISCOURAGED, use correct ibrav instead

     Using Slab Decomposition

     bravais-lattice index     =            0
     lattice parameter (alat)  =      10.2141  a.u.
     unit-cell volume          =    1268.9036 (a.u.)^3
     number of atoms/cell      =           12
     number of atomic types    =            3
     number of electrons       =        96.00
     number of Kohn-Sham states=           64
     kinetic-energy cutoff     =      30.0000  Ry
     charge density cutoff     =     240.0000  Ry
     scf convergence threshold =      1.0E-06
     mixing beta               =       0.7000
     number of iterations used =            8  plain     mixing
     Exchange-correlation= SLA  PW   PBX  PBC
                           (   1   4   3   4   0   0   0)

     celldm(1)=  10.214053  celldm(2)=   0.000000  celldm(3)=   0.000000
     celldm(4)=   0.000000  celldm(5)=   0.000000  celldm(6)=   0.000000

     crystal axes: (cart. coord. in units of alat)
               a(1) = (   1.000000   0.000000   0.000000 )
               a(2) = (  -0.406960   0.913446   0.000000 )
               a(3) = (   0.000000   0.000000   1.303621 )

     reciprocal axes: (cart. coord. in units 2 pi/alat)
               b(1) = (  1.000000  0.445522  0.000000 )
               b(2) = (  0.000000  1.094756  0.000000 )
               b(3) = (  0.000000  0.000000  0.767094 )

     PseudoPot. # 1 for Na read from file:
     /home/pragov/projects/rrg-bengioy-ad/pragov/crystal_structure_design/SSSP/na_pbe_v1.5.uspp.F.UPF
     MD5 check sum: 44600605ef58000f06b90626533354dc
     Pseudo is Ultrasoft, Zval =  9.0
     Generated by new atomic code, or converted to UPF format
     Using radial grid of  819 points,  5 beta functions with:
                l(1) =   0
                l(2) =   0
                l(3) =   1
                l(4) =   1
                l(5) =   2
     Q(r) pseudized with  8 coefficients,  rinner =    1.250   1.250   1.250
                                                       1.250   1.250

     PseudoPot. # 2 for Mn read from file:
     /home/pragov/projects/rrg-bengioy-ad/pragov/crystal_structure_design/SSSP/mn_pbe_v1.5.uspp.F.UPF
     MD5 check sum: 82ef2b46521d7a7d9e736dc3972e4928
     Pseudo is Ultrasoft + core correction, Zval = 15.0
     Generated by new atomic code, or converted to UPF format
     Using radial grid of  859 points,  6 beta functions with:
                l(1) =   0
                l(2) =   0
                l(3) =   1
                l(4) =   1
                l(5) =   2
                l(6) =   2
     Q(r) pseudized with  8 coefficients,  rinner =    0.950   0.950   0.950
                                                       0.950   0.950

     PseudoPot. # 3 for O  read from file:
     /home/pragov/projects/rrg-bengioy-ad/pragov/crystal_structure_design/SSSP/O.pbe-n-kjpaw_psl.0.1.UPF
     MD5 check sum: 0234752ac141de4415c5fc33072bef88
     Pseudo is Projector augmented-wave + core cor, Zval =  6.0
     Generated using "atomic" code by A. Dal Corso  v.5.0.99 svn rev. 10869
     Shape of augmentation charge: BESSEL
     Using radial grid of 1095 points,  4 beta functions with:
                l(1) =   0
                l(2) =   0
                l(3) =   1
                l(4) =   1
     Q(r) pseudized with 0 coefficients

     atomic species   valence    mass     pseudopotential
        Na             9.00    22.98977     Na( 1.00)
        Mn            15.00    54.93804     Mn( 1.00)
        O              6.00    15.99900     O ( 1.00)

      4 Sym. Ops., with inversion, found ( 2 have fractional translation)

                                    s                        frac. trans.

      isym =  1     identity

 cryst.   s( 1) = (     1          0          0      )
                  (     0          1          0      )
                  (     0          0          1      )

 cart.    s( 1) = (  1.0000000 -0.0000000  0.0000000 )
                  (  0.0000000  1.0000000  0.0000000 )
                  (  0.0000000  0.0000000  1.0000000 )

      isym =  2     180 deg rotation - cart. axis [0,0,1]

 cryst.   s( 2) = (    -1          0          0      )    f =(  0.0000000 )
                  (     0         -1          0      )       (  0.0000000 )
                  (     0          0          1      )       ( -0.5000000 )

 cart.    s( 2) = ( -1.0000000  0.0000000  0.0000000 )    f =(  0.0000000 )
                  (  0.0000000 -1.0000000  0.0000000 )       (  0.0000000 )
                  (  0.0000000  0.0000000  1.0000000 )       ( -0.6518107 )

      isym =  3     inversion

 cryst.   s( 3) = (    -1          0          0      )
                  (     0         -1          0      )
                  (     0          0         -1      )

 cart.    s( 3) = ( -1.0000000  0.0000000  0.0000000 )
                  (  0.0000000 -1.0000000  0.0000000 )
                  (  0.0000000  0.0000000 -1.0000000 )

      isym =  4     inv. 180 deg rotation - cart. axis [0,0,1]

 cryst.   s( 4) = (     1          0          0      )    f =(  0.0000000 )
                  (     0          1          0      )       (  0.0000000 )
                  (     0          0         -1      )       (  0.5000000 )

 cart.    s( 4) = (  1.0000000 -0.0000000  0.0000000 )    f =(  0.0000000 )
                  (  0.0000000  1.0000000  0.0000000 )       (  0.0000000 )
                  (  0.0000000  0.0000000 -1.0000000 )       (  0.6518107 )

   Cartesian axes

     site n.     atom                  positions (alat units)
         1           Na  tau(   1) = (   0.0000000   0.0000000   0.0000000  )
         2           Na  tau(   2) = (   0.0000000   0.0000000   0.6518107  )
         3           Mn  tau(   3) = (   0.1011282   0.5835777   0.9777160  )
         4           Mn  tau(   4) = (   0.4919114   0.3298681   0.3259053  )
         5           O   tau(   5) = (   0.2122578   0.2181400   0.3259053  )
         6           O   tau(   6) = (   0.1128786   0.2826603   0.9777160  )
         7           O   tau(   7) = (  -0.0414602   0.6761509   0.7338775  )
         8           O   tau(   8) = (   0.6344998   0.2372950   0.0820669  )
         9           O   tau(   9) = (   0.6344998   0.2372950   0.5697438  )
        10           O   tau(  10) = (  -0.0414602   0.6761509   1.2215545  )
        11           O   tau(  11) = (   0.4801611   0.6307855   0.3259053  )
        12           O   tau(  12) = (   0.3807818   0.6953058   0.9777160  )

   Crystallographic axes

     site n.     atom                  positions (cryst. coord.)
         1           Na  tau(   1) = (  0.0000000  0.0000000  0.0000000  )
         2           Na  tau(   2) = (  0.0000000  0.0000000  0.5000000  )
         3           Mn  tau(   3) = (  0.3611250  0.6388750  0.7500000  )
         4           Mn  tau(   4) = (  0.6388750  0.3611250  0.2500000  )
         5           O   tau(   5) = (  0.3094440  0.2388100  0.2500000  )
         6           O   tau(   6) = (  0.2388100  0.3094440  0.7500000  )
         7           O   tau(   7) = (  0.2597800  0.7402200  0.5629530  )
         8           O   tau(   8) = (  0.7402200  0.2597800  0.0629530  )
         9           O   tau(   9) = (  0.7402200  0.2597800  0.4370470  )
        10           O   tau(  10) = (  0.2597800  0.7402200  0.9370470  )
        11           O   tau(  11) = (  0.7611900  0.6905560  0.2500000  )
        12           O   tau(  12) = (  0.6905560  0.7611900  0.7500000  )

     number of k points=    10
                       cart. coord. in units 2pi/alat
        k(    1) = (   0.0000000   0.0000000   0.0000000), wk =   0.0740741
        k(    2) = (   0.0000000   0.0000000   0.2556980), wk =   0.1481481
        k(    3) = (   0.0000000   0.3649186   0.0000000), wk =   0.1481481
        k(    4) = (   0.0000000   0.3649186   0.2556980), wk =   0.2962963
        k(    5) = (   0.3333333   0.1485074   0.0000000), wk =   0.1481481
        k(    6) = (   0.3333333   0.1485074   0.2556980), wk =   0.2962963
        k(    7) = (   0.3333333   0.5134260   0.0000000), wk =   0.1481481
        k(    8) = (   0.3333333   0.5134260   0.2556980), wk =   0.2962963
        k(    9) = (   0.3333333  -0.2164112   0.0000000), wk =   0.1481481
        k(   10) = (   0.3333333  -0.2164112   0.2556980), wk =   0.2962963

                       cryst. coord.
        k(    1) = (   0.0000000   0.0000000   0.0000000), wk =   0.0740741
        k(    2) = (   0.0000000   0.0000000   0.3333333), wk =   0.1481481
        k(    3) = (   0.0000000   0.3333333   0.0000000), wk =   0.1481481
        k(    4) = (   0.0000000   0.3333333   0.3333333), wk =   0.2962963
        k(    5) = (   0.3333333  -0.0000000   0.0000000), wk =   0.1481481
        k(    6) = (   0.3333333  -0.0000000   0.3333333), wk =   0.2962963
        k(    7) = (   0.3333333   0.3333333   0.0000000), wk =   0.1481481
        k(    8) = (   0.3333333   0.3333333   0.3333333), wk =   0.2962963
        k(    9) = (   0.3333333  -0.3333333   0.0000000), wk =   0.1481481
        k(   10) = (   0.3333333  -0.3333333   0.3333333), wk =   0.2962963

     Check: negative core charge=   -0.000020

     Initial potential from superposition of free atoms

     starting charge      94.9872, renormalised to      96.0000
     Starting wfcs are   68 randomized atomic wfcs
     Checking if some PAW data can be deallocated...

     Self-consistent Calculation

     iteration #  1     ecut=    30.00 Ry     beta= 0.70
     Davidson diagonalization with overlap

     ethr =  1.00E-02,  avg # of iterations =  4.5

     total energy              =    -937.23377864 Ry
     estimated scf accuracy    <      12.17434987 Ry

[...]

     total energy              =    -946.03286774 Ry
     estimated scf accuracy    <       0.00000478 Ry

     iteration # 12     ecut=    30.00 Ry     beta= 0.70
     Davidson diagonalization with overlap

     ethr =  4.98E-09,  avg # of iterations =  1.0

     End of self-consistent calculation

          k = 0.0000 0.0000 0.0000 (  3505 PWs)   bands (ev):

   -79.5456 -79.5453 -48.3415 -48.3388 -48.2906 -48.2895 -48.2591 -48.2576
   -47.5238 -47.5220 -19.4962 -19.4576 -19.4509 -19.4459 -19.4328 -19.4260
   -16.0738 -15.8119 -15.4877 -15.3353 -15.3107 -15.3101 -15.2708 -15.2704
    -3.2685  -3.0548  -3.0424  -2.9594  -2.9142  -2.8885  -2.8331  -2.8171
    -2.7375  -2.7130  -1.9839  -1.6207  -1.2071  -0.7829  -0.7581  -0.6965
    -0.5808  -0.3673   0.4591   0.4792   0.5269   0.6512   0.9284   0.9541
     2.8844   3.0877   3.1440   3.3965   4.7090   4.8655   4.8781   4.9359
     4.9750   5.0176   7.5459  10.7418  11.3168  12.2212  12.6907  13.1192

     occupation numbers
     1.0000   1.0000   1.0000   1.0000   1.0000   1.0000   1.0000   1.0000
     1.0000   1.0000   1.0000   1.0000   1.0000   1.0000   1.0000   1.0000
     1.0000   1.0000   1.0000   1.0000   1.0000   1.0000   1.0000   1.0000
     1.0000   1.0000   1.0000   1.0000   1.0000   1.0000   1.0000   1.0000
     1.0000   1.0000   1.0000   1.0000   1.0000   1.0000   1.0000   1.0000
     1.0000   1.0000   1.0000   1.0000   1.0000   1.0000   1.0000   1.0000
     0.0000   0.0000   0.0000   0.0000   0.0000   0.0000   0.0000   0.0000
     0.0000   0.0000   0.0000   0.0000   0.0000   0.0000   0.0000   0.0000

[...]

          k = 0.3333-0.2164 0.2557 (  3520 PWs)   bands (ev):

   -79.5457 -79.5455 -48.3413 -48.3403 -48.2925 -48.2911 -48.2605 -48.2593
   -47.5234 -47.5225 -19.4787 -19.4527 -19.4523 -19.4517 -19.4415 -19.4391
   -15.9334 -15.8677 -15.4392 -15.3848 -15.3625 -15.3360 -15.2714 -15.2706
    -3.3352  -3.2718  -3.0930  -3.0721  -3.0640  -3.0442  -2.8430  -2.7165
    -2.6979  -2.6303  -1.6761  -1.6142  -1.1301  -0.8451  -0.7364  -0.7085
    -0.4951  -0.4064   0.6203   0.6264   0.6620   0.7459   0.8074   0.8741
     2.9861   3.0521   3.1627   3.2739   4.6482   4.6724   4.8703   4.8756
     4.9271   4.9328   9.1716  10.2355  11.4490  12.2063  12.3850  12.5008

     occupation numbers
     1.0000   1.0000   1.0000   1.0000   1.0000   1.0000   1.0000   1.0000
     1.0000   1.0000   1.0000   1.0000   1.0000   1.0000   1.0000   1.0000
     1.0000   1.0000   1.0000   1.0000   1.0000   1.0000   1.0000   1.0000
     1.0000   1.0000   1.0000   1.0000   1.0000   1.0000   1.0000   1.0000
     1.0000   1.0000   1.0000   1.0000   1.0000   1.0000   1.0000   1.0000
     1.0000   1.0000   1.0000   1.0000   1.0000   1.0000   1.0000   1.0000
     0.0000   0.0000   0.0000   0.0000   0.0000   0.0000   0.0000   0.0000
     0.0000   0.0000   0.0000   0.0000   0.0000   0.0000   0.0000   0.0000

     highest occupied, lowest unoccupied level (ev):     0.9541    2.8371

!    total energy              =    -946.03286816 Ry
     estimated scf accuracy    <          4.9E-09 Ry

     The total energy is the sum of the following terms:
     one-electron contribution =    -708.32089381 Ry
     hartree contribution      =     380.40361809 Ry
     xc contribution           =    -139.80047505 Ry
     ewald contribution        =    -402.00821058 Ry
     one-center paw contrib.   =     -76.30690681 Ry
      -> PAW hartree energy AE =       0.00000000 Ry
      -> PAW hartree energy PS =       0.00000000 Ry
      -> PAW xc energy AE      =       0.00000000 Ry
      -> PAW xc energy PS      =       0.00000000 Ry
      -> total E_H with PAW    =     380.40361809 Ry
      -> total E_XC with PAW   =    -139.80047505 Ry

     convergence has been achieved in  12 iterations

     Writing all to output data dir calculations_bands/myprefix.save/

     General routines

     Parallel routines

     PAW routines

   This run was terminated on:   7: 2:41   7Jun2023

   JOB DONE.