     Program PWSCF v.7.1 starts on 16Jul2023 at 14: 3:41

     Reading input from espresso_26181.pwi
Warning: card &CELL ignored
Warning: card / ignored

     Current dimensions of program PWSCF are:
     Max number of different atomic species (ntypx) = 10
     Max number of k-points (npk) =  40000
     Max angular momentum in pseudopotentials (lmaxx) =  4
     file In.pbe-dn-rrkjus_psl.0.2.2.UPF: wavefunction(s)  5S renormalized
     file O.pbe-n-kjpaw_psl.0.1.UPF: wavefunction(s)  2P renormalized
     Message from routine setup:
     using ibrav=0 with symmetry is DISCOURAGED, use correct ibrav instead

     K-points division:     npool     =       2
     R & G space division:  proc/nbgrp/npool/nimage =       4
     Subspace diagonalization in iterative solution of the eigenvalue problem:
     a serial algorithm will be used

     Using Slab Decomposition

     bravais-lattice index     =            0
     lattice parameter (alat)  =      12.8695  a.u.
     unit-cell volume          =     436.3902 (a.u.)^3
     number of atoms/cell      =            4
     number of atomic types    =            3
     number of electrons       =        38.00
     number of Kohn-Sham states=           64
     kinetic-energy cutoff     =      30.0000  Ry
     charge density cutoff     =     240.0000  Ry
     scf convergence threshold =      1.0E-06
     mixing beta               =       0.7000
     number of iterations used =            8  plain     mixing
     Exchange-correlation= SLA  PW   PBX  PBC
                           (   1   4   3   4   0   0   0)

     celldm(1)=  12.869503  celldm(2)=   0.000000  celldm(3)=   0.000000
     celldm(4)=   0.000000  celldm(5)=   0.000000  celldm(6)=   0.000000

     crystal axes: (cart. coord. in units of alat)
               a(1) = (   1.000000   0.000000   0.000000 )
               a(2) = (   0.876613   0.481196   0.000000 )
               a(3) = (   0.876613   0.224779   0.425469 )

     reciprocal axes: (cart. coord. in units 2 pi/alat)
               b(1) = (  1.000000 -1.821739 -1.097906 )
               b(2) = (  0.000000  2.078157 -1.097906 )
               b(3) = (  0.000000  0.000000  2.350348 )

     PseudoPot. # 1 for Tl read from file:
     /lustre07/scratch/pragov/crystal_structure_design/utils/SSSP/Tl_pbe_v1.2.uspp.F.UPF
     MD5 check sum: b76cf1f7e72655a2b2c53cf6385d7059
     Pseudo is Ultrasoft + core correction, Zval = 13.0
     Generated by new atomic code, or converted to UPF format
     Using radial grid of  899 points,  6 beta functions with:
                l(1) =   0
                l(2) =   0
                l(3) =   1
                l(4) =   1
                l(5) =   2
                l(6) =   2
     Q(r) pseudized with  6 coefficients,  rinner =    1.100   1.100   1.100
                                                       1.100   1.100

     PseudoPot. # 2 for In read from file:
     /lustre07/scratch/pragov/crystal_structure_design/utils/SSSP/In.pbe-dn-rrkjus_psl.0.2.2.UPF
     MD5 check sum: 25e7c42c3b55b68f4bf926be2e7201a4
     Pseudo is Ultrasoft + core correction, Zval = 13.0
     Generated using "atomic" code by A. Dal Corso  v.5.0.99 svn rev. 10869
     Using radial grid of 1241 points,  6 beta functions with:
                l(1) =   0
                l(2) =   0
                l(3) =   1
                l(4) =   1
                l(5) =   2
                l(6) =   2
     Q(r) pseudized with 0 coefficients

     PseudoPot. # 3 for O  read from file:
     /lustre07/scratch/pragov/crystal_structure_design/utils/SSSP/O.pbe-n-kjpaw_psl.0.1.UPF
     MD5 check sum: 0234752ac141de4415c5fc33072bef88
     Pseudo is Projector augmented-wave + core cor, Zval =  6.0
     Generated using "atomic" code by A. Dal Corso  v.5.0.99 svn rev. 10869
     Shape of augmentation charge: BESSEL
     Using radial grid of 1095 points,  4 beta functions with:
                l(1) =   0
                l(2) =   0
                l(3) =   1
                l(4) =   1
     Q(r) pseudized with 0 coefficients

     atomic species   valence    mass     pseudopotential
        Tl            13.00   204.38000     Tl( 1.00)
        In            13.00   114.81800     In( 1.00)
        O              6.00    15.99900     O ( 1.00)

      2 Sym. Ops., with inversion, found

                                    s                        frac. trans.

      isym =  1     identity

 cryst.   s( 1) = (     1          0          0      )
                  (     0          1          0      )
                  (     0          0          1      )

 cart.    s( 1) = (  1.0000000 -0.0000000  0.0000000 )
                  (  0.0000000  1.0000000  0.0000000 )
                  (  0.0000000  0.0000000  1.0000000 )

      isym =  2     inversion

 cryst.   s( 2) = (    -1          0          0      )
                  (     0         -1          0      )
                  (     0          0         -1      )

 cart.    s( 2) = ( -1.0000000  0.0000000  0.0000000 )
                  (  0.0000000 -1.0000000  0.0000000 )
                  (  0.0000000  0.0000000 -1.0000000 )

   Cartesian axes

     site n.     atom                  positions (alat units)
         1           Tl  tau(   1) = (   0.0000000   0.0000000   0.0000000  )
         2           In  tau(   2) = (   1.3766132   0.3529872   0.2127345  )
         3           O   tau(   3) = (   0.6165575   0.1580959   0.0952795  )
         4           O   tau(   4) = (   2.1366688   0.5478784   0.3301894  )

   Crystallographic axes

     site n.     atom                  positions (cryst. coord.)
         1           Tl  tau(   1) = (  0.0000000  0.0000000  0.0000000  )
         2           In  tau(   2) = (  0.5000000  0.5000000  0.5000000  )
         3           O   tau(   3) = (  0.2239400  0.2239400  0.2239400  )
         4           O   tau(   4) = (  0.7760600  0.7760600  0.7760600  )

     number of k points=    14
                       cart. coord. in units 2pi/alat
        k(    1) = (   0.0000000   0.0000000   0.0000000), wk =   0.0740741
        k(    2) = (   0.0000000   0.0000000   0.7834492), wk =   0.1481481
        k(    3) = (   0.0000000   0.6927188  -0.3659688), wk =   0.1481481
        k(    4) = (   0.0000000   0.6927188   0.4174804), wk =   0.1481481
        k(    5) = (   0.0000000   0.6927188  -1.1494181), wk =   0.1481481
        k(    6) = (   0.3333333  -0.6072465  -0.3659688), wk =   0.1481481
        k(    7) = (   0.3333333  -0.6072465   0.4174804), wk =   0.1481481
        k(    8) = (   0.3333333  -0.6072465  -1.1494181), wk =   0.1481481
        k(    9) = (   0.3333333   0.0854724  -0.7319376), wk =   0.1481481
        k(   10) = (   0.3333333   0.0854724   0.0515116), wk =   0.1481481
        k(   11) = (   0.3333333   0.0854724  -1.5153869), wk =   0.1481481
        k(   12) = (   0.3333333  -1.2999653  -0.0000000), wk =   0.1481481
        k(   13) = (   0.3333333  -1.2999653   0.7834492), wk =   0.1481481
        k(   14) = (   0.3333333  -1.2999653  -0.7834492), wk =   0.1481481

                       cryst. coord.
        k(    1) = (   0.0000000   0.0000000   0.0000000), wk =   0.0740741
        k(    2) = (   0.0000000   0.0000000   0.3333333), wk =   0.1481481
        k(    3) = (   0.0000000   0.3333333  -0.0000000), wk =   0.1481481
        k(    4) = (   0.0000000   0.3333333   0.3333333), wk =   0.1481481
        k(    5) = (   0.0000000   0.3333333  -0.3333333), wk =   0.1481481
        k(    6) = (   0.3333333   0.0000000   0.0000000), wk =   0.1481481
        k(    7) = (   0.3333333   0.0000000   0.3333333), wk =   0.1481481
        k(    8) = (   0.3333333   0.0000000  -0.3333333), wk =   0.1481481
        k(    9) = (   0.3333333   0.3333333   0.0000000), wk =   0.1481481
        k(   10) = (   0.3333333   0.3333333   0.3333333), wk =   0.1481481
        k(   11) = (   0.3333333   0.3333333  -0.3333333), wk =   0.1481481
        k(   12) = (   0.3333333  -0.3333333   0.0000000), wk =   0.1481481
        k(   13) = (   0.3333333  -0.3333333   0.3333333), wk =   0.1481481
        k(   14) = (   0.3333333  -0.3333333  -0.3333333), wk =   0.1481481

     Check: negative core charge=   -0.000007

     Initial potential from superposition of free atoms

     starting charge      37.9914, renormalised to      38.0000

     negative rho (up, down):  5.029E-02 0.000E+00
     Starting wfcs are   26 randomized atomic wfcs +   38 random wfcs
     Checking if some PAW data can be deallocated...

     Self-consistent Calculation

     iteration #  1     ecut=    30.00 Ry     beta= 0.70
     Davidson diagonalization with overlap

     ethr =  1.00E-02,  avg # of iterations =  7.4

     negative rho (up, down):  5.055E-02 0.000E+00

     total energy              =    -372.53241054 Ry
     estimated scf accuracy    <       0.97867996 Ry

[...]

     total energy              =    -373.03528841 Ry
     estimated scf accuracy    <       0.00002622 Ry

     iteration #  7     ecut=    30.00 Ry     beta= 0.70
     Davidson diagonalization with overlap

     ethr =  6.90E-08,  avg # of iterations =  2.0

     negative rho (up, down):  5.039E-02 0.000E+00

     End of self-consistent calculation

          k = 0.0000 0.0000 0.0000 (  1233 PWs)   bands (ev):

    -8.2836  -7.2663  -3.6887  -3.6887  -3.6459  -3.4292  -3.4292  -1.5006
    -1.4605  -1.4605  -0.9828  -0.9828   2.1243   6.0160   7.2024   7.8836
     7.8836   8.4262   8.4262  12.4727  12.4763  17.7527  19.3378  19.3378
    22.1746  22.1746  22.5370  23.1263  24.4249  24.6157  24.6157  24.7423
    27.4390  27.4390  27.8069  27.8069  28.7900  30.3036  30.3037  30.3406
    33.4937  33.4937  34.7904  35.2601  36.9740  36.9740  37.5161  39.3932
    39.3932  39.9215  40.7202  40.7202  41.3042  41.3042  44.8882  45.0275
    47.6605  48.6202  48.6437  49.1122  49.1122  49.3151  50.4814  50.4814

     occupation numbers
     1.0000   1.0000   1.0000   1.0000   1.0000   1.0000   1.0000   1.0000
     1.0000   1.0000   1.0000   1.0000   1.0000   1.0000   1.0000   1.0000
     1.0000   1.0000   1.0000   0.0000   0.0000   0.0000   0.0000   0.0000
     0.0000   0.0000   0.0000   0.0000   0.0000   0.0000   0.0000   0.0000
     0.0000   0.0000   0.0000   0.0000   0.0000   0.0000   0.0000   0.0000
     0.0000   0.0000   0.0000   0.0000   0.0000   0.0000   0.0000   0.0000
     0.0000   0.0000   0.0000   0.0000   0.0000   0.0000   0.0000   0.0000
     0.0000   0.0000   0.0000   0.0000   0.0000   0.0000   0.0000   0.0000

[...]

          k = 0.3333-1.3000-0.7834 (  1207 PWs)   bands (ev):

    -7.8137  -7.5276  -3.6277  -3.5728  -3.4650  -3.3471  -2.9178  -1.6606
    -1.2076  -1.0792  -1.0724  -1.0352   3.6048   4.6652   6.4539   7.0326
     7.2262   8.5029   8.7503  12.2357  13.6423  14.6055  17.4116  17.4409
    18.6469  19.5859  21.3962  23.0181  23.9007  25.6093  26.0419  27.8109
    28.0118  29.1216  29.4357  30.9478  31.5330  32.1060  32.8222  33.8782
    34.1964  34.3695  35.6379  36.5060  37.5605  38.4682  38.5619  40.5614
    41.4379  41.5405  42.2593  42.4021  42.4645  42.6970  43.9050  44.3465
    44.8143  45.0972  46.2805  46.4581  47.3295  47.7582  47.8976  48.8443

     occupation numbers
     1.0000   1.0000   1.0000   1.0000   1.0000   1.0000   1.0000   1.0000
     1.0000   1.0000   1.0000   1.0000   1.0000   1.0000   1.0000   1.0000
     1.0000   1.0000   1.0000   0.0000   0.0000   0.0000   0.0000   0.0000
     0.0000   0.0000   0.0000   0.0000   0.0000   0.0000   0.0000   0.0000
     0.0000   0.0000   0.0000   0.0000   0.0000   0.0000   0.0000   0.0000
     0.0000   0.0000   0.0000   0.0000   0.0000   0.0000   0.0000   0.0000
     0.0000   0.0000   0.0000   0.0000   0.0000   0.0000   0.0000   0.0000
     0.0000   0.0000   0.0000   0.0000   0.0000   0.0000   0.0000   0.0000

     highest occupied, lowest unoccupied level (ev):     8.7691   10.5552

!    total energy              =    -373.03529337 Ry
     estimated scf accuracy    <       0.00000094 Ry

     The total energy is the sum of the following terms:
     one-electron contribution =     -75.89326282 Ry
     hartree contribution      =      71.57177584 Ry
     xc contribution           =    -124.67894236 Ry
     ewald contribution        =    -224.97004708 Ry
     one-center paw contrib.   =     -19.06481695 Ry
      -> PAW hartree energy AE =       0.00000000 Ry
      -> PAW hartree energy PS =       0.00000000 Ry
      -> PAW xc energy AE      =       0.00000000 Ry
      -> PAW xc energy PS      =       0.00000000 Ry
      -> total E_H with PAW    =      71.57177584 Ry
      -> total E_XC with PAW   =    -124.67894236 Ry

     convergence has been achieved in   7 iterations

     Writing all to output data dir bands_nm/myprefix.save/

     General routines

     Parallel routines

     PAW routines

   This run was terminated on:  14: 3:47  16Jul2023

   JOB DONE.