     Program PWSCF v.7.1 starts on 14Jul2023 at 17:27: 6

     Reading input from espresso_11971.pwi
Warning: card &CELL ignored
Warning: card / ignored

     Current dimensions of program PWSCF are:
     Max number of different atomic species (ntypx) = 10
     Max number of k-points (npk) =  40000
     Max angular momentum in pseudopotentials (lmaxx) =  4
     Message from routine setup:
     using ibrav=0 with symmetry is DISCOURAGED, use correct ibrav instead

     K-points division:     npool     =       2
     R & G space division:  proc/nbgrp/npool/nimage =       4
     Subspace diagonalization in iterative solution of the eigenvalue problem:
     a serial algorithm will be used

     Using Slab Decomposition

     bravais-lattice index     =            0
     lattice parameter (alat)  =       6.2808  a.u.
     unit-cell volume          =    2441.9731 (a.u.)^3
     number of atoms/cell      =           12
     number of atomic types    =            3
     number of electrons       =       104.00
     number of Kohn-Sham states=           64
     kinetic-energy cutoff     =      30.0000  Ry
     charge density cutoff     =     240.0000  Ry
     scf convergence threshold =      1.0E-06
     mixing beta               =       0.7000
     number of iterations used =            8  plain     mixing
     Exchange-correlation= SLA  PW   PBE  PBE
                           (   1   4   3   4   0   0   0)

     celldm(1)=   6.280825  celldm(2)=   0.000000  celldm(3)=   0.000000
     celldm(4)=   0.000000  celldm(5)=   0.000000  celldm(6)=   0.000000

     crystal axes: (cart. coord. in units of alat)
               a(1) = (   1.000000   0.000000   0.000000 )
               a(2) = (  -0.500000   0.866026   0.000000 )
               a(3) = (   0.000000   0.000000  11.380468 )

     reciprocal axes: (cart. coord. in units 2 pi/alat)
               b(1) = (  1.000000  0.577350  0.000000 )
               b(2) = (  0.000000  1.154700  0.000000 )
               b(3) = (  0.000000  0.000000  0.087870 )

     PseudoPot. # 1 for Mo read from file:
     /lustre07/scratch/pragov/crystal_structure_design/utils/SSSP/Mo_ONCV_PBE-1.0.oncvpsp.upf
     MD5 check sum: 1b5d28e075c9ccadda658a603575cd1f
     Pseudo is Norm-conserving, Zval = 14.0
     Generated using ONCVPSP code by D. R. Hamann
     Using radial grid of 1526 points,  6 beta functions with:
                l(1) =   0
                l(2) =   0
                l(3) =   1
                l(4) =   1
                l(5) =   2
                l(6) =   2

     PseudoPot. # 2 for W  read from file:
     /lustre07/scratch/pragov/crystal_structure_design/utils/SSSP/W_pbe_v1.2.uspp.F.UPF
     MD5 check sum: 9c083fa34c2a2ea0f02f1f893e16e1c8
     Pseudo is Ultrasoft + core correction, Zval = 14.0
     Generated by new atomic code, or converted to UPF format
     Using radial grid of  923 points,  8 beta functions with:
                l(1) =   0
                l(2) =   0
                l(3) =   0
                l(4) =   1
                l(5) =   1
                l(6) =   2
                l(7) =   2
                l(8) =   3
     Q(r) pseudized with  6 coefficients,  rinner =    1.350   1.350   1.350
                                                       1.350   1.350   1.350
                                                       1.350

     PseudoPot. # 3 for Se read from file:
     /lustre07/scratch/pragov/crystal_structure_design/utils/SSSP/Se_pbe_v1.uspp.F.UPF
     MD5 check sum: 1b3568f3a8ae88f9a2a0ad0698632c85
     Pseudo is Ultrasoft + core correction, Zval =  6.0
     Generated by new atomic code, or converted to UPF format
     Using radial grid of  877 points,  6 beta functions with:
                l(1) =   0
                l(2) =   0
                l(3) =   1
                l(4) =   1
                l(5) =   2
                l(6) =   2
     Q(r) pseudized with  8 coefficients,  rinner =    1.300   1.300   1.300
                                                       1.300   1.300

     atomic species   valence    mass     pseudopotential
        Mo            14.00    95.95000     Mo( 1.00)
        W             14.00   183.84000     W ( 1.00)
        Se             6.00    78.97100     Se( 1.00)

      6 Sym. Ops. (no inversion) found

                                    s                        frac. trans.

      isym =  1     identity

 cryst.   s( 1) = (     1          0          0      )
                  (     0          1          0      )
                  (     0          0          1      )

 cart.    s( 1) = (  1.0000000  0.0000000  0.0000000 )
                  (  0.0000000  1.0000000  0.0000000 )
                  (  0.0000000  0.0000000  1.0000000 )

      isym =  2     120 deg rotation - cryst. axis [0,0,1]

[...]

      isym =  3     120 deg rotation - cryst. axis [0,0,-1]

[...]

      isym =  4     inv. 180 deg rotation - cart. axis [1,0,0]

[...]

      isym =  5     inv. 180 deg rotation - cryst. axis [0,1,0]

[...]

      isym =  6     inv. 180 deg rotation - cryst. axis [1,1,0]

 cryst.   s( 6) = (     0         -1          0      )
                  (    -1          0          0      )
                  (     0          0          1      )

 cart.    s( 6) = (  0.4999998 -0.8660255  0.0000000 )
                  ( -0.8660255 -0.4999998  0.0000000 )
                  (  0.0000000  0.0000000  1.0000000 )

   Cartesian axes

     site n.     atom                  positions (alat units)
         1           Mo  tau(   1) = (  -0.0000004   0.5773506   1.0688536  )
         2           Mo  tau(   2) = (  -0.0000004   0.5773506   5.3449279  )
         3           Mo  tau(   3) = (   0.5000006   0.2886749   3.2070159  )
         4           W   tau(   4) = (   0.5000006   0.2886749   7.4830902  )
         5           Se  tau(   5) = (  -0.0000004   0.5773506   3.7113414  )
         6           Se  tau(   6) = (  -0.0000004   0.5773506   7.9898511  )
         7           Se  tau(   7) = (   0.5000006   0.2886749   0.5647785  )
         8           Se  tau(   8) = (   0.5000006   0.2886749   4.8407845  )
         9           Se  tau(   9) = (   0.5000006   0.2886749   1.5730993  )
        10           Se  tau(  10) = (   0.5000006   0.2886749   5.8489347  )
        11           Se  tau(  11) = (  -0.0000004   0.5773506   2.7027019  )
        12           Se  tau(  12) = (  -0.0000004   0.5773506   6.9762839  )

   Crystallographic axes

     site n.     atom                  positions (cryst. coord.)
         1           Mo  tau(   1) = (  0.3333330  0.6666670  0.0939200  )
         2           Mo  tau(   2) = (  0.3333330  0.6666670  0.4696580  )
         3           Mo  tau(   3) = (  0.6666670  0.3333330  0.2818000  )
         4           W   tau(   4) = (  0.6666670  0.3333330  0.6575380  )
         5           Se  tau(   5) = (  0.3333330  0.6666670  0.3261150  )
         6           Se  tau(   6) = (  0.3333330  0.6666670  0.7020670  )
         7           Se  tau(   7) = (  0.6666670  0.3333330  0.0496270  )
         8           Se  tau(   8) = (  0.6666670  0.3333330  0.4253590  )
         9           Se  tau(   9) = (  0.6666670  0.3333330  0.1382280  )
        10           Se  tau(  10) = (  0.6666670  0.3333330  0.5139450  )
        11           Se  tau(  11) = (  0.3333330  0.6666670  0.2374860  )
        12           Se  tau(  12) = (  0.3333330  0.6666670  0.6130050  )

     number of k points=     7
                       cart. coord. in units 2pi/alat
        k(    1) = (   0.0000000   0.0000000   0.0000000), wk =   0.0740741
        k(    2) = (   0.0000000   0.0000000   0.0292899), wk =   0.1481481
        k(    3) = (   0.0000000   0.3849001   0.0000000), wk =   0.4444444
        k(    4) = (   0.0000000   0.3849001   0.0292899), wk =   0.4444444
        k(    5) = (   0.3333333   0.5773501   0.0000000), wk =   0.1481481
        k(    6) = (   0.3333333   0.5773501   0.0292899), wk =   0.2962963
        k(    7) = (   0.0000000  -0.3849001   0.0292899), wk =   0.4444444

                       cryst. coord.
        k(    1) = (   0.0000000   0.0000000   0.0000000), wk =   0.0740741
        k(    2) = (   0.0000000   0.0000000   0.3333333), wk =   0.1481481
        k(    3) = (   0.0000000   0.3333333   0.0000000), wk =   0.4444444
        k(    4) = (   0.0000000   0.3333333   0.3333333), wk =   0.4444444
        k(    5) = (   0.3333333   0.3333333   0.0000000), wk =   0.1481481
        k(    6) = (   0.3333333   0.3333333   0.3333333), wk =   0.2962963
        k(    7) = (   0.0000000  -0.3333333   0.3333333), wk =   0.4444444

     Initial potential from superposition of free atoms

     starting charge     103.8961, renormalised to     104.0000

     negative rho (up, down):  6.461E-02 0.000E+00
     Starting wfcs are   75 randomized atomic wfcs

     Self-consistent Calculation

     iteration #  1     ecut=    30.00 Ry     beta= 0.70
     Davidson diagonalization with overlap

     ethr =  1.00E-02,  avg # of iterations =  4.1

     negative rho (up, down):  7.126E-02 0.000E+00

     total energy              =    -646.99487622 Ry
     estimated scf accuracy    <     302.69667730 Ry

[...]

     c_bands:  1 eigenvalues not converged
     ethr =  1.00E-02,  avg # of iterations = 38.6

[...]

     c_bands:  1 eigenvalues not converged
     ethr =  7.99E-06,  avg # of iterations =  4.7

[...]

     total energy              =    -919.95896260 Ry
     estimated scf accuracy    <       0.00002140 Ry

     iteration # 38     ecut=    30.00 Ry     beta= 0.70
     Davidson diagonalization with overlap

     ethr =  6.85E-09,  avg # of iterations =  3.1

     negative rho (up, down):  6.426E-02 0.000E+00

     End of self-consistent calculation

          k = 0.0000 0.0000 0.0000 (  6917 PWs)   bands (ev):

   -68.6066 -55.6089 -55.6049 -55.6028 -32.8973 -32.6984 -32.6984 -29.8009
   -29.7956 -29.7938 -29.5540 -29.5540 -29.5506 -29.5505 -29.5487 -29.5487
    -9.3105  -9.0417  -9.0120  -8.9811  -8.1295  -8.0886  -8.0403  -8.0002
    -0.7608  -0.3689  -0.1903  -0.0096   2.7523   3.0330   3.1163   3.1163
     3.1188   3.1188   3.1217   3.1217   3.1239   3.1239   3.4373   3.8462
     4.0325   4.0325   4.0370   4.0371   4.0423   4.0424   4.1710   4.1711
     4.7144   4.9536   5.1544   5.2599   7.9560   7.9560   7.9637   7.9637
     7.9705   7.9705   8.1760   8.1762   8.2041   8.2043   8.2630   8.2630

     occupation numbers
     1.0000   1.0000   1.0000   1.0000   1.0000   1.0000   1.0000   1.0000
     1.0000   1.0000   1.0000   1.0000   1.0000   1.0000   1.0000   1.0000
     1.0000   1.0000   1.0000   1.0000   1.0000   1.0000   1.0000   1.0000
     1.0000   1.0000   1.0000   1.0000   1.0000   1.0000   1.0000   1.0000
     1.0000   1.0000   1.0000   1.0000   1.0000   1.0000   1.0000   1.0000
     1.0000   1.0000   1.0000   1.0000   1.0000   1.0000   1.0000   1.0000
     1.0000   1.0000   1.0000   1.0000   0.0000   0.0000   0.0000   0.0000
     0.0000   0.0000   0.0000   0.0000   0.0000   0.0000   0.0000   0.0000

[...]

          k = 0.0000-0.3849 0.0293 (  6771 PWs)   bands (ev):

   -68.5998 -55.5930 -55.5890 -55.5868 -32.8677 -32.8530 -32.7350 -29.7639
   -29.7587 -29.7567 -29.7314 -29.7279 -29.7261 -29.5950 -29.5916 -29.5897
    -8.0050  -7.8481  -7.8260  -7.8027  -7.4627  -7.4208  -7.3919  -7.3678
     0.0016   0.2555   0.3116   0.3675   0.9382   1.0667   1.0755   1.1140
     1.2058   1.2868   1.3900   1.4662   2.7392   2.7462   2.7563   2.7693
     3.3114   3.3835   3.4986   3.6027   4.1366   4.1463   4.1599   4.1713
     4.1838   4.2138   4.2474   4.2715   6.9486   7.0846   7.1706   7.1900
     7.2092   7.2561   7.5443   7.6813   7.9496   8.1632   8.3939   8.6587

     occupation numbers
     1.0000   1.0000   1.0000   1.0000   1.0000   1.0000   1.0000   1.0000
     1.0000   1.0000   1.0000   1.0000   1.0000   1.0000   1.0000   1.0000
     1.0000   1.0000   1.0000   1.0000   1.0000   1.0000   1.0000   1.0000
     1.0000   1.0000   1.0000   1.0000   1.0000   1.0000   1.0000   1.0000
     1.0000   1.0000   1.0000   1.0000   1.0000   1.0000   1.0000   1.0000
     1.0000   1.0000   1.0000   1.0000   1.0000   1.0000   1.0000   1.0000
     1.0000   1.0000   1.0000   1.0000   0.0000   0.0000   0.0000   0.0000
     0.0000   0.0000   0.0000   0.0000   0.0000   0.0000   0.0000   0.0000

     highest occupied, lowest unoccupied level (ev):     5.4538    6.6593

!    total energy              =    -919.95896479 Ry
     estimated scf accuracy    <       0.00000071 Ry

     The total energy is the sum of the following terms:
     one-electron contribution =   -3750.32581999 Ry
     hartree contribution      =    1898.77166461 Ry
     xc contribution           =    -325.92156088 Ry
     ewald contribution        =    1257.51675147 Ry

     convergence has been achieved in  38 iterations

     Writing all to output data dir bands_nm/myprefix.save/

     General routines

     Parallel routines

   This run was terminated on:  17:28:36  14Jul2023

   JOB DONE.