     Program PWSCF v.7.1 starts on 17Jul2023 at  0:58:56

     Reading input from espresso_5573.pwi
Warning: card &CELL ignored
Warning: card / ignored

     Current dimensions of program PWSCF are:
     Max number of different atomic species (ntypx) = 10
     Max number of k-points (npk) =  40000
     Max angular momentum in pseudopotentials (lmaxx) =  4
     file Dy.paw.z_20.atompaw.wentzcovitch.v1.2.upf: wavefunction(s)  6S 0P 5D 0D 4F 0F renormalized
     file O.pbe-n-kjpaw_psl.0.1.UPF: wavefunction(s)  2P renormalized
     Message from routine setup:
     using ibrav=0 with symmetry is DISCOURAGED, use correct ibrav instead

     K-points division:     npool     =       2
     R & G space division:  proc/nbgrp/npool/nimage =       4
     Subspace diagonalization in iterative solution of the eigenvalue problem:
     one sub-group per band group will be used

     Using Slab Decomposition

     bravais-lattice index     =            0
     lattice parameter (alat)  =      11.0363  a.u.
     unit-cell volume          =    1938.6764 (a.u.)^3
     number of atoms/cell      =           20
     number of atomic types    =            4
     number of electrons       =       180.00
     number of Kohn-Sham states=          256
     kinetic-energy cutoff     =      30.0000  Ry
     charge density cutoff     =     240.0000  Ry
     scf convergence threshold =      1.0E-06
     mixing beta               =       0.7000
     number of iterations used =            8  plain     mixing
     Exchange-correlation= SLA  PW   PBX  PBC
                           (   1   4   3   4   0   0   0)

     celldm(1)=  11.036292  celldm(2)=   0.000000  celldm(3)=   0.000000
     celldm(4)=   0.000000  celldm(5)=   0.000000  celldm(6)=   0.000000

     crystal axes: (cart. coord. in units of alat)
               a(1) = (   1.000000   0.000000   0.000000 )
               a(2) = (   0.000000   1.007728   0.000000 )
               a(3) = (  -0.986585   0.000000   1.431174 )

     reciprocal axes: (cart. coord. in units 2 pi/alat)
               b(1) = (  1.000000  0.000000  0.689354 )
               b(2) = (  0.000000  0.992331  0.000000 )
               b(3) = (  0.000000  0.000000  0.698727 )

     PseudoPot. # 1 for Sr read from file:
     /lustre07/scratch/pragov/crystal_structure_design/utils/SSSP/Sr_pbe_v1.uspp.F.UPF
     MD5 check sum: 6b418c05fbe9db5448babca5e47b7a5b
     Pseudo is Ultrasoft + core correction, Zval = 10.0
     Generated by new atomic code, or converted to UPF format
     Using radial grid of  883 points,  6 beta functions with:
                l(1) =   0
                l(2) =   0
                l(3) =   1
                l(4) =   1
                l(5) =   2
                l(6) =   2
     Q(r) pseudized with  6 coefficients,  rinner =    1.400   1.400   1.400
                                                       1.400   1.400

     PseudoPot. # 2 for Dy read from file:
     /lustre07/scratch/pragov/crystal_structure_design/utils/SSSP/Dy.paw.z_20.atompaw.wentzcovitch.v1.2.upf
     MD5 check sum: fad4f994dc38884d1fc17fd7bf5e13bf
     Pseudo is Projector augmented-wave + core cor, Zval = 20.0
     Generated using ATOMPAW code
     Shape of augmentation charge: BESSEL
     Using radial grid of 1112 points,  8 beta functions with:
                l(1) =   0
                l(2) =   0
                l(3) =   1
                l(4) =   1
                l(5) =   2
                l(6) =   2
                l(7) =   3
                l(8) =   3
     Q(r) pseudized with 0 coefficients

     PseudoPot. # 3 for Mo read from file:
     /lustre07/scratch/pragov/crystal_structure_design/utils/SSSP/Mo_ONCV_PBE-1.0.oncvpsp.upf
     MD5 check sum: 1b5d28e075c9ccadda658a603575cd1f
     Pseudo is Norm-conserving, Zval = 14.0
     Generated using ONCVPSP code by D. R. Hamann
     Using radial grid of 1526 points,  6 beta functions with:
                l(1) =   0
                l(2) =   0
                l(3) =   1
                l(4) =   1
                l(5) =   2
                l(6) =   2

     PseudoPot. # 4 for O  read from file:
     /lustre07/scratch/pragov/crystal_structure_design/utils/SSSP/O.pbe-n-kjpaw_psl.0.1.UPF
     MD5 check sum: 0234752ac141de4415c5fc33072bef88
     Pseudo is Projector augmented-wave + core cor, Zval =  6.0
     Generated using "atomic" code by A. Dal Corso  v.5.0.99 svn rev. 10869
     Shape of augmentation charge: BESSEL
     Using radial grid of 1095 points,  4 beta functions with:
                l(1) =   0
                l(2) =   0
                l(3) =   1
                l(4) =   1
     Q(r) pseudized with 0 coefficients

     atomic species   valence    mass     pseudopotential
        Sr            10.00    87.62000     Sr( 1.00)
        Dy            20.00   162.50000     Dy( 1.00)
        Mo            14.00    95.95000     Mo( 1.00)
        O              6.00    15.99900     O ( 1.00)

      4 Sym. Ops., with inversion, found ( 2 have fractional translation)

                                    s                        frac. trans.

      isym =  1     identity

 cryst.   s( 1) = (     1          0          0      )
                  (     0          1          0      )
                  (     0          0          1      )

 cart.    s( 1) = (  1.0000000  0.0000000 -0.0000000 )
                  (  0.0000000  1.0000000  0.0000000 )
                  (  0.0000000  0.0000000  1.0000000 )

      isym =  2     180 deg rotation - cart. axis [0,1,0]

 cryst.   s( 2) = (    -1          0          0      )    f =(  0.0000000 )
                  (     0          1          0      )       ( -0.5000000 )
                  (     0          0         -1      )       ( -0.5000000 )

 cart.    s( 2) = ( -1.0000000  0.0000000  0.0000000 )    f =(  0.4932924 )
                  (  0.0000000  1.0000000  0.0000000 )       ( -0.5038641 )
                  (  0.0000000  0.0000000 -1.0000000 )       ( -0.7155870 )

      isym =  3     inversion

 cryst.   s( 3) = (    -1          0          0      )
                  (     0         -1          0      )
                  (     0          0         -1      )

 cart.    s( 3) = ( -1.0000000  0.0000000  0.0000000 )
                  (  0.0000000 -1.0000000  0.0000000 )
                  (  0.0000000  0.0000000 -1.0000000 )

      isym =  4     inv. 180 deg rotation - cart. axis [0,1,0]

 cryst.   s( 4) = (     1          0          0      )    f =( -0.0000000 )
                  (     0         -1          0      )       ( -0.5000000 )
                  (     0          0          1      )       (  0.5000000 )

 cart.    s( 4) = (  1.0000000  0.0000000 -0.0000000 )    f =( -0.4932924 )
                  (  0.0000000 -1.0000000  0.0000000 )       ( -0.5038641 )
                  (  0.0000000  0.0000000  1.0000000 )       (  0.7155870 )

   Cartesian axes

     site n.     atom                  positions (alat units)
         1           Sr  tau(   1) = (  -0.4932924   0.4689554   1.0705238  )
         2           Sr  tau(   2) = (   0.0000000   0.0349087   0.3549369  )
         3           Sr  tau(   3) = (   0.5067076   0.5387728   0.3606501  )
         4           Sr  tau(   4) = (   0.0134152   0.9728195   1.0762371  )
         5           Dy  tau(   5) = (   0.0067076   0.5038641   0.7155870  )
         6           Dy  tau(   6) = (   0.5000000   0.0000000   0.0000000  )
         7           Mo  tau(   7) = (  -0.4932924   0.0000000   0.7155870  )
         8           Mo  tau(   8) = (   0.0000000   0.5038641   0.0000000  )
         9           O   tau(   9) = (   0.2351454   0.1910532   0.7662419  )
        10           O   tau(  10) = (   0.7284378   0.3128109   0.0506550  )
        11           O   tau(  11) = (  -0.2217302   0.8166750   0.6649320  )
        12           O   tau(  12) = (  -0.7150226   0.6949173   1.3805189  )
        13           O   tau(  13) = (  -0.7929272   0.2200909   1.3734132  )
        14           O   tau(  14) = (  -0.2996348   0.2837732   0.6578262  )
        15           O   tau(  15) = (   0.8063424   0.7876374   0.0577607  )
        16           O   tau(  16) = (   0.3130500   0.7239550   0.7733477  )
        17           O   tau(  17) = (  -0.4151168   0.0170860   1.0546922  )
        18           O   tau(  18) = (   0.0781756   0.4867781   0.3391052  )
        19           O   tau(  19) = (   0.4285320   0.9906422   0.3764817  )
        20           O   tau(  20) = (  -0.0647604   0.5209501   1.0920687  )

   Crystallographic axes

     site n.     atom                  positions (cryst. coord.)
         1           Sr  tau(   1) = (  0.2446770  0.4653590  0.7480040  )
         2           Sr  tau(   2) = (  0.2446770  0.0346410  0.2480040  )
         3           Sr  tau(   3) = (  0.7553230  0.5346410  0.2519960  )
         4           Sr  tau(   4) = (  0.7553230  0.9653590  0.7519960  )
         5           Dy  tau(   5) = (  0.5000000  0.5000000  0.5000000  )
         6           Dy  tau(   6) = (  0.5000000  0.0000000  0.0000000  )
         7           Mo  tau(   7) = ( -0.0000000  0.0000000  0.5000000  )
         8           Mo  tau(   8) = (  0.0000000  0.5000000  0.0000000  )
         9           O   tau(   9) = (  0.7633570  0.1895880  0.5353940  )
        10           O   tau(  10) = (  0.7633570  0.3104120  0.0353940  )
        11           O   tau(  11) = (  0.2366430  0.8104120  0.4646060  )
        12           O   tau(  12) = (  0.2366430  0.6895880  0.9646060  )
        13           O   tau(  13) = (  0.1538400  0.2184030  0.9596410  )
        14           O   tau(  14) = (  0.1538400  0.2815970  0.4596410  )
        15           O   tau(  15) = (  0.8461600  0.7815970  0.0403590  )
        16           O   tau(  16) = (  0.8461600  0.7184030  0.5403590  )
        17           O   tau(  17) = (  0.3119390  0.0169550  0.7369420  )
        18           O   tau(  18) = (  0.3119390  0.4830450  0.2369420  )
        19           O   tau(  19) = (  0.6880610  0.9830450  0.2630580  )
        20           O   tau(  20) = (  0.6880610  0.5169550  0.7630580  )

     number of k points=    10
                       cart. coord. in units 2pi/alat
        k(    1) = (   0.0000000   0.0000000   0.0000000), wk =   0.0740741
        k(    2) = (   0.0000000   0.0000000   0.2329090), wk =   0.1481481
        k(    3) = (   0.0000000   0.3307770   0.0000000), wk =   0.1481481
        k(    4) = (   0.0000000   0.3307770   0.2329090), wk =   0.2962963
        k(    5) = (   0.3333333   0.0000000   0.2297845), wk =   0.1481481
        k(    6) = (   0.3333333   0.0000000   0.4626935), wk =   0.1481481
        k(    7) = (   0.3333333   0.0000000  -0.0031245), wk =   0.1481481
        k(    8) = (   0.3333333   0.3307770   0.2297845), wk =   0.2962963
        k(    9) = (   0.3333333   0.3307770   0.4626935), wk =   0.2962963
        k(   10) = (   0.3333333   0.3307770  -0.0031245), wk =   0.2962963

                       cryst. coord.
        k(    1) = (   0.0000000   0.0000000   0.0000000), wk =   0.0740741
        k(    2) = (   0.0000000   0.0000000   0.3333333), wk =   0.1481481
        k(    3) = (   0.0000000   0.3333333   0.0000000), wk =   0.1481481
        k(    4) = (   0.0000000   0.3333333   0.3333333), wk =   0.2962963
        k(    5) = (   0.3333333   0.0000000   0.0000000), wk =   0.1481481
        k(    6) = (   0.3333333   0.0000000   0.3333333), wk =   0.1481481
        k(    7) = (   0.3333333   0.0000000  -0.3333333), wk =   0.1481481
        k(    8) = (   0.3333333   0.3333333   0.0000000), wk =   0.2962963
        k(    9) = (   0.3333333   0.3333333   0.3333333), wk =   0.2962963
        k(   10) = (   0.3333333   0.3333333  -0.3333333), wk =   0.2962963

     Check: negative core charge=   -0.000013

     Initial potential from superposition of free atoms

     starting charge     179.8558, renormalised to     180.0000

     negative rho (up, down):  2.559E-01 0.000E+00
     Starting wfcs are  184 randomized atomic wfcs +   72 random wfcs
     Checking if some PAW data can be deallocated...

     Self-consistent Calculation

     iteration #  1     ecut=    30.00 Ry     beta= 0.70
     Davidson diagonalization with overlap

     ethr =  1.00E-02,  avg # of iterations =  6.2

     negative rho (up, down):  2.604E-01 0.000E+00

     total energy              =   -2604.29708457 Ry
     estimated scf accuracy    <       8.72743927 Ry

[...]

     c_bands:  1 eigenvalues not converged
     ethr =  2.23E-06,  avg # of iterations =  5.7

[...]

     total energy              =   -2610.33806510 Ry
     estimated scf accuracy    <       0.00000561 Ry

     iteration #100     ecut=    30.00 Ry     beta= 0.70
     Davidson diagonalization with overlap

     ethr =  1.55E-09,  avg # of iterations =  2.0

     negative rho (up, down):  2.696E-01 0.000E+00

     End of self-consistent calculation

          k = 0.0000 0.0000 0.0000 (  5419 PWs)   bands (ev):

   -51.6476 -51.6474 -33.2990 -33.2989 -25.8188 -25.8187 -25.7008 -25.7008
   -25.6708 -25.6700 -23.3774 -23.3673 -23.3572 -23.3493 -10.1541 -10.1299
   -10.0946 -10.0626  -9.9780  -9.9734  -7.8698  -7.5991  -7.3227  -7.2977
    -7.2072  -7.1866  -6.6186  -6.5256  -6.2699  -6.1647  -6.1407  -5.9705
    -5.4417  -5.4031  -5.3971  -5.3663  -5.3488  -5.2339  -5.2044  -5.1607
    -5.1130  -4.9536  -4.9226  -4.7110   5.0061   5.0804   5.1487   5.2983
     5.3472   5.6681   5.7110   5.7948   5.8060   5.9077   6.2737   6.3549
     7.0714   7.0736   7.3298   7.4267   7.4573   7.5015   7.7832   7.9771
     7.9892   8.0238   8.0378   8.2414   8.2684   8.3513   8.3967   8.5572
     8.5612   8.6376   8.6902   8.7157   8.7175   8.7416   8.8066   8.8757
    11.2721  11.2768  11.3155  11.3221  11.3283  11.3326  11.4093  11.4134
    11.4456  11.4843  11.5100  11.5287  11.5604  11.5606  11.5813  11.5934
    11.6032  11.6296  12.1671  12.2877  14.3085  14.8249  14.9692  15.1390
    15.2499  15.5109  15.5434  15.8866  15.9615  16.0203  16.1072  16.1589
    16.4381  16.5401  16.6377  16.7404  16.8316  17.2113  17.2981  17.5535
    17.7175  17.9756  18.1084  18.1110  18.3839  18.5198  18.7237  18.8753
    19.1629  19.1803  19.2661  19.2912  19.3642  19.3907  20.3143  20.3558
    20.6840  21.5831  21.7557  22.0683  22.0846  22.7069  22.8350  22.9382
    23.0072  23.1486  23.5939  23.6400  23.7242  23.8972  24.0281  24.0754
    24.6677  25.0403  25.1078  25.5608  25.6732  25.7084  25.8010  26.2002
    26.5044  26.8552  27.0818  27.0831  27.4833  27.6773  27.7985  27.8713
    27.9462  28.7438  29.1303  29.1877  29.3251  29.6001  29.6253  29.9318
    30.2695  30.4376  30.4994  30.5778  30.8204  31.0603  31.1406  31.9561
    31.9839  32.2493  32.3337  32.3414  32.4425  32.5835  32.9036  32.9644
    33.0246  33.2737  33.4953  33.5436  33.7468  33.9398  34.0385  34.1549
    34.3260  34.4866  34.7189  34.9031  34.9673  34.9938  35.1138  35.4129
    35.4821  35.6967  35.9709  36.0011  36.2139  36.5732  36.7456  36.9340
    37.0394  37.5513  37.7983  37.8918  38.1182  38.1781  38.5900  38.6153
    38.7081  38.9800  38.9871  39.0611  39.1657  39.1840  39.3614  39.5916
    39.7538  39.8565  39.9234  40.1187  40.1751  40.3235  40.4780  40.5408
    40.5946  40.7596  40.8538  41.1394  41.3914  41.4609  41.6549  41.7029
    41.8278  41.9407  42.0922  42.2029  42.2327  42.2558  42.9233  42.9435

     occupation numbers
     1.0000   1.0000   1.0000   1.0000   1.0000   1.0000   1.0000   1.0000
     1.0000   1.0000   1.0000   1.0000   1.0000   1.0000   1.0000   1.0000
     1.0000   1.0000   1.0000   1.0000   1.0000   1.0000   1.0000   1.0000
     1.0000   1.0000   1.0000   1.0000   1.0000   1.0000   1.0000   1.0000
     1.0000   1.0000   1.0000   1.0000   1.0000   1.0000   1.0000   1.0000
     1.0000   1.0000   1.0000   1.0000   1.0000   1.0000   1.0000   1.0000
     1.0000   1.0000   1.0000   1.0000   1.0000   1.0000   1.0000   1.0000
     1.0000   1.0000   1.0000   1.0000   1.0000   1.0000   1.0000   1.0000
     1.0000   1.0000   1.0000   1.0000   1.0000   1.0000   1.0000   1.0000
     1.0000   1.0000   1.0000   1.0000   1.0000   1.0000   1.0000   1.0000
     1.0000   1.0000   1.0000   1.0000   1.0000   1.0000   1.0000   1.0000
     1.0000   1.0000   0.0000   0.0000   0.0000   0.0000   0.0000   0.0000
     0.0000   0.0000   0.0000   0.0000   0.0000   0.0000   0.0000   0.0000
     0.0000   0.0000   0.0000   0.0000   0.0000   0.0000   0.0000   0.0000
     0.0000   0.0000   0.0000   0.0000   0.0000   0.0000   0.0000   0.0000
     0.0000   0.0000   0.0000   0.0000   0.0000   0.0000   0.0000   0.0000
     0.0000   0.0000   0.0000   0.0000   0.0000   0.0000   0.0000   0.0000
     0.0000   0.0000   0.0000   0.0000   0.0000   0.0000   0.0000   0.0000
     0.0000   0.0000   0.0000   0.0000   0.0000   0.0000   0.0000   0.0000
     0.0000   0.0000   0.0000   0.0000   0.0000   0.0000   0.0000   0.0000
     0.0000   0.0000   0.0000   0.0000   0.0000   0.0000   0.0000   0.0000
     0.0000   0.0000   0.0000   0.0000   0.0000   0.0000   0.0000   0.0000
     0.0000   0.0000   0.0000   0.0000   0.0000   0.0000   0.0000   0.0000
     0.0000   0.0000   0.0000   0.0000   0.0000   0.0000   0.0000   0.0000
     0.0000   0.0000   0.0000   0.0000   0.0000   0.0000   0.0000   0.0000
     0.0000   0.0000   0.0000   0.0000   0.0000   0.0000   0.0000   0.0000
     0.0000   0.0000   0.0000   0.0000   0.0000   0.0000   0.0000   0.0000
     0.0000   0.0000   0.0000   0.0000   0.0000   0.0000   0.0000   0.0000
     0.0000   0.0000   0.0000   0.0000   0.0000   0.0000   0.0000   0.0000
     0.0000   0.0000   0.0000   0.0000   0.0000   0.0000   0.0000   0.0000
     0.0000   0.0000   0.0000   0.0000   0.0000   0.0000   0.0000   0.0000
     0.0000   0.0000   0.0000   0.0000   0.0000   0.0000   0.0000   0.0000

[...]

          k = 0.3333 0.3308-0.0031 (  5368 PWs)   bands (ev):

   -51.6473 -51.6473 -33.2989 -33.2989 -25.8189 -25.8189 -25.7010 -25.7010
   -25.6702 -25.6700 -23.3688 -23.3638 -23.3609 -23.3564 -10.1768 -10.1535
   -10.0898 -10.0817 -10.0211  -9.9902  -7.7636  -7.6512  -7.3836  -7.1199
    -7.0791  -6.9423  -6.7223  -6.5338  -6.4949  -6.3824  -6.2380  -6.2126
    -5.3804  -5.3679  -5.3481  -5.3410  -5.3184  -5.2605  -5.0221  -4.9752
    -4.9498  -4.9069  -4.8997  -4.8214   5.0370   5.2354   5.3011   5.3782
     5.4457   5.5222   5.8573   5.9184   6.0175   6.1040   6.2267   6.3418
     7.0252   7.0574   7.1104   7.1668   7.3073   7.3326   7.6461   7.7964
     7.8158   7.8853   7.9148   7.9316   8.0412   8.0717   8.2539   8.3357
     8.4329   8.4706   8.5000   8.5383   8.6061   8.6379   8.8648   8.9329
    11.2104  11.2457  11.2800  11.2890  11.3119  11.3193  11.3781  11.3847
    11.4431  11.4480  11.4605  11.4825  11.5007  11.5651  11.5709  11.8578
    12.2300  12.2599  12.2665  12.3197  14.8968  15.0773  15.3751  15.5970
    15.7634  15.7791  15.9128  16.0279  16.2571  16.3489  16.4859  16.7040
    16.8074  16.8221  16.8900  17.0560  17.1082  17.2496  17.3777  17.6027
    17.7502  17.8527  17.9060  17.9943  18.0956  18.4418  18.5368  18.8113
    18.8780  18.9544  19.1547  19.2480  19.6926  19.7240  19.8479  20.5627
    20.6308  20.9529  20.9971  21.4102  21.6674  21.9196  22.0504  22.4211
    23.5674  23.6740  23.9102  23.9952  24.2981  24.3321  24.5209  24.6559
    24.6962  24.8459  24.9276  24.9762  25.1492  25.2467  25.3827  25.6299
    26.1807  26.2780  26.5926  27.1426  27.4977  27.8260  27.9199  28.0458
    28.3425  28.4813  28.8197  29.0739  29.5597  29.7295  29.7857  29.9736
    30.0648  30.3639  30.5985  30.8388  30.8831  31.1110  31.2890  31.5850
    31.9362  32.1215  32.1522  32.2474  32.4372  32.4637  32.7730  32.8932
    33.0450  33.2474  33.2819  33.4507  33.6380  33.8015  33.9897  34.0624
    34.0823  34.2828  34.5512  34.7788  34.8408  34.9796  35.0273  35.3065
    35.5536  35.6781  36.0088  36.1678  36.3435  36.4871  36.6434  36.8256
    37.0109  37.1321  37.2325  37.6537  37.7817  37.9508  37.9779  38.3743
    38.4339  38.7494  39.0773  39.2840  39.3053  39.4594  39.6527  39.7283
    39.9629  40.2484  40.4470  40.5749  40.6978  40.7504  40.8079  41.0265
    41.1878  41.3797  41.5099  41.5536  41.7664  41.9353  42.0691  42.1692
    42.3503  42.5751  42.6792  42.7488  42.9630  43.1233  43.1885  43.2163

     occupation numbers
     1.0000   1.0000   1.0000   1.0000   1.0000   1.0000   1.0000   1.0000
     1.0000   1.0000   1.0000   1.0000   1.0000   1.0000   1.0000   1.0000
     1.0000   1.0000   1.0000   1.0000   1.0000   1.0000   1.0000   1.0000
     1.0000   1.0000   1.0000   1.0000   1.0000   1.0000   1.0000   1.0000
     1.0000   1.0000   1.0000   1.0000   1.0000   1.0000   1.0000   1.0000
     1.0000   1.0000   1.0000   1.0000   1.0000   1.0000   1.0000   1.0000
     1.0000   1.0000   1.0000   1.0000   1.0000   1.0000   1.0000   1.0000
     1.0000   1.0000   1.0000   1.0000   1.0000   1.0000   1.0000   1.0000
     1.0000   1.0000   1.0000   1.0000   1.0000   1.0000   1.0000   1.0000
     1.0000   1.0000   1.0000   1.0000   1.0000   1.0000   1.0000   1.0000
     1.0000   1.0000   1.0000   1.0000   1.0000   1.0000   1.0000   1.0000
     1.0000   1.0000   0.0000   0.0000   0.0000   0.0000   0.0000   0.0000
     0.0000   0.0000   0.0000   0.0000   0.0000   0.0000   0.0000   0.0000
     0.0000   0.0000   0.0000   0.0000   0.0000   0.0000   0.0000   0.0000
     0.0000   0.0000   0.0000   0.0000   0.0000   0.0000   0.0000   0.0000
     0.0000   0.0000   0.0000   0.0000   0.0000   0.0000   0.0000   0.0000
     0.0000   0.0000   0.0000   0.0000   0.0000   0.0000   0.0000   0.0000
     0.0000   0.0000   0.0000   0.0000   0.0000   0.0000   0.0000   0.0000
     0.0000   0.0000   0.0000   0.0000   0.0000   0.0000   0.0000   0.0000
     0.0000   0.0000   0.0000   0.0000   0.0000   0.0000   0.0000   0.0000
     0.0000   0.0000   0.0000   0.0000   0.0000   0.0000   0.0000   0.0000
     0.0000   0.0000   0.0000   0.0000   0.0000   0.0000   0.0000   0.0000
     0.0000   0.0000   0.0000   0.0000   0.0000   0.0000   0.0000   0.0000
     0.0000   0.0000   0.0000   0.0000   0.0000   0.0000   0.0000   0.0000
     0.0000   0.0000   0.0000   0.0000   0.0000   0.0000   0.0000   0.0000
     0.0000   0.0000   0.0000   0.0000   0.0000   0.0000   0.0000   0.0000
     0.0000   0.0000   0.0000   0.0000   0.0000   0.0000   0.0000   0.0000
     0.0000   0.0000   0.0000   0.0000   0.0000   0.0000   0.0000   0.0000
     0.0000   0.0000   0.0000   0.0000   0.0000   0.0000   0.0000   0.0000
     0.0000   0.0000   0.0000   0.0000   0.0000   0.0000   0.0000   0.0000
     0.0000   0.0000   0.0000   0.0000   0.0000   0.0000   0.0000   0.0000
     0.0000   0.0000   0.0000   0.0000   0.0000   0.0000   0.0000   0.0000

     highest occupied, lowest unoccupied level (ev):    11.4843   11.4286

!    total energy              =   -2610.33809311 Ry
     estimated scf accuracy    <       0.00000016 Ry

     The total energy is the sum of the following terms:
     one-electron contribution =    -609.70766810 Ry
     hartree contribution      =     404.56364566 Ry
     xc contribution           =    -249.21231955 Ry
     ewald contribution        =   -1081.87321881 Ry
     one-center paw contrib.   =   -1074.10853231 Ry
      -> PAW hartree energy AE =       0.00000000 Ry
      -> PAW hartree energy PS =       0.00000000 Ry
      -> PAW xc energy AE      =       0.00000000 Ry
      -> PAW xc energy PS      =       0.00000000 Ry
      -> total E_H with PAW    =     404.56364566 Ry
      -> total E_XC with PAW   =    -249.21231955 Ry

     convergence has been achieved in 100 iterations

     Writing all to output data dir bands_nm/myprefix.save/

     General routines

     Parallel routines

     PAW routines

   This run was terminated on:   1: 9:11  17Jul2023

   JOB DONE.