     Program PWSCF v.7.0 starts on  6Jun2023 at  5: 6:11

     K-points division:     npool     =       2
     R & G space division:  proc/nbgrp/npool/nimage =       4

     Reading input from espresso_13578.pwi
Warning: card &CELL ignored
Warning: card / ignored

     Current dimensions of program PWSCF are:
     Max number of different atomic species (ntypx) = 10
     Max number of k-points (npk) =  40000
     Max angular momentum in pseudopotentials (lmaxx) =  4
     file O.pbe-n-kjpaw_psl.0.1.UPF: wavefunction(s)  2P renormalized
     Message from routine setup:
     using ibrav=0 with symmetry is DISCOURAGED, use correct ibrav instead

     Using Slab Decomposition

     bravais-lattice index     =            0
     lattice parameter (alat)  =       7.3336  a.u.
     unit-cell volume          =     964.8584 (a.u.)^3
     number of atoms/cell      =           10
     number of atomic types    =            3
     number of electrons       =        80.00
     number of Kohn-Sham states=           64
     kinetic-energy cutoff     =      30.0000  Ry
     charge density cutoff     =     240.0000  Ry
     scf convergence threshold =      1.0E-06
     mixing beta               =       0.7000
     number of iterations used =            8  plain     mixing
     Exchange-correlation=  SLA  PW   PBX  PBC
                           (   1   4   3   4   0   0   0)

     celldm(1)=   7.333643  celldm(2)=   0.000000  celldm(3)=   0.000000
     celldm(4)=   0.000000  celldm(5)=   0.000000  celldm(6)=   0.000000

     crystal axes: (cart. coord. in units of alat)
               a(1) = (   1.000000   0.000000   0.000000 )
               a(2) = (  -0.001961   0.999998   0.000000 )
               a(3) = (   0.000000   0.000000   2.446274 )

     reciprocal axes: (cart. coord. in units 2 pi/alat)
               b(1) = (  1.000000  0.001961  0.000000 )
               b(2) = (  0.000000  1.000002  0.000000 )
               b(3) = (  0.000000  0.000000  0.408785 )

     PseudoPot. # 1 for W  read from file:
     /home/pragov/projects/rrg-bengioy-ad/pragov/crystal_structure_design/SSSP/W_pbe_v1.2.uspp.F.UPF
     MD5 check sum: 9c083fa34c2a2ea0f02f1f893e16e1c8
     Pseudo is Ultrasoft + core correction, Zval = 14.0
     Generated by new atomic code, or converted to UPF format
     Using radial grid of  923 points,  8 beta functions with:
                l(1) =   0
                l(2) =   0
                l(3) =   0
                l(4) =   1
                l(5) =   1
                l(6) =   2
                l(7) =   2
                l(8) =   3
     Q(r) pseudized with  6 coefficients,  rinner =    1.350   1.350   1.350
                                                       1.350   1.350   1.350
                                                       1.350

     PseudoPot. # 2 for O  read from file:
     /home/pragov/projects/rrg-bengioy-ad/pragov/crystal_structure_design/SSSP/O.pbe-n-kjpaw_psl.0.1.UPF
     MD5 check sum: 0234752ac141de4415c5fc33072bef88
     Pseudo is Projector augmented-wave + core cor, Zval =  6.0
     Generated using "atomic" code by A. Dal Corso  v.5.0.99 svn rev. 10869
     Shape of augmentation charge: BESSEL
     Using radial grid of 1095 points,  4 beta functions with:
                l(1) =   0
                l(2) =   0
                l(3) =   1
                l(4) =   1
     Q(r) pseudized with 0 coefficients

     PseudoPot. # 3 for F  read from file:
     /home/pragov/projects/rrg-bengioy-ad/pragov/crystal_structure_design/SSSP/f_pbe_v1.4.uspp.F.UPF
     MD5 check sum: 4c38b6a325caf53ec0e86aed9459de46
     Pseudo is Ultrasoft, Zval =  7.0
     Generated by new atomic code, or converted to UPF format
     Using radial grid of  799 points,  4 beta functions with:
                l(1) =   0
                l(2) =   0
                l(3) =   1
                l(4) =   1
     Q(r) pseudized with  8 coefficients,  rinner =    0.950   0.950   0.950

     atomic species   valence    mass     pseudopotential
        W             14.00   183.84000     W ( 1.00)
        O              6.00    15.99900     O ( 1.00)
        F              7.00    18.99840     F ( 1.00)

      4 Sym. Ops., with inversion, found ( 2 have fractional translation)

                                    s                        frac. trans.

      isym =  1     identity

 cryst.   s( 1) = (     1          0          0      )
                  (     0          1          0      )
                  (     0          0          1      )

 cart.    s( 1) = (  1.0000000  0.0000000  0.0000000 )
                  (  0.0000000  1.0000000  0.0000000 )
                  (  0.0000000  0.0000000  1.0000000 )

      isym =  2     180 deg rotation - cart. axis [0,0,1]

 cryst.   s( 2) = (    -1          0          0      )    f =( -0.0000000 )
                  (     0         -1          0      )       (  0.0000000 )
                  (     0          0          1      )       ( -0.5000000 )

 cart.    s( 2) = ( -1.0000000 -0.0000000  0.0000000 )    f =( -0.0000000 )
                  (  0.0000000 -1.0000000  0.0000000 )       (  0.0000000 )
                  (  0.0000000  0.0000000  1.0000000 )       ( -1.2231369 )

      isym =  3     inversion

 cryst.   s( 3) = (    -1          0          0      )
                  (     0         -1          0      )
                  (     0          0         -1      )

 cart.    s( 3) = ( -1.0000000 -0.0000000  0.0000000 )
                  (  0.0000000 -1.0000000  0.0000000 )
                  (  0.0000000  0.0000000 -1.0000000 )

      isym =  4     inv. 180 deg rotation - cart. axis [0,0,1]

 cryst.   s( 4) = (     1          0          0      )    f =(  0.0000000 )
                  (     0          1          0      )       (  0.0000000 )
                  (     0          0         -1      )       (  0.5000000 )

 cart.    s( 4) = (  1.0000000  0.0000000  0.0000000 )    f =(  0.0000000 )
                  (  0.0000000  1.0000000  0.0000000 )       (  0.0000000 )
                  (  0.0000000  0.0000000 -1.0000000 )       (  1.2231369 )

   Cartesian axes

     site n.     atom                  positions (alat units)
         1           W   tau(   1) = (   0.2792673   0.2798155   0.6115685  )
         2           W   tau(   2) = (   0.7187718   0.7201826   1.8347054  )
         3           O   tau(   3) = (   0.7427517   0.2459385   1.8347054  )
         4           O   tau(   4) = (   0.7535575   0.2567655   0.6115685  )
         5           O   tau(   5) = (   0.2444816   0.7432326   1.8347054  )
         6           O   tau(   6) = (   0.2552874   0.7540596   0.6115685  )
         7           F   tau(   7) = (   0.2407420   0.2412145   0.1261079  )
         8           F   tau(   8) = (   0.2407420   0.2412145   1.0970291  )
         9           F   tau(   9) = (   0.7572971   0.7587835   1.3492448  )
        10           F   tau(  10) = (   0.7572971   0.7587835   2.3201660  )

   Crystallographic axes

     site n.     atom                  positions (cryst. coord.)
         1           W   tau(   1) = (  0.2798160  0.2798160  0.2500000  )
         2           W   tau(   2) = (  0.7201840  0.7201840  0.7500000  )
         3           O   tau(   3) = (  0.7432340  0.2459390  0.7500000  )
         4           O   tau(   4) = (  0.7540610  0.2567660  0.2500000  )
         5           O   tau(   5) = (  0.2459390  0.7432340  0.7500000  )
         6           O   tau(   6) = (  0.2567660  0.7540610  0.2500000  )
         7           F   tau(   7) = (  0.2412150  0.2412150  0.0515510  )
         8           F   tau(   8) = (  0.2412150  0.2412150  0.4484490  )
         9           F   tau(   9) = (  0.7587850  0.7587850  0.5515510  )
        10           F   tau(  10) = (  0.7587850  0.7587850  0.9484490  )

     number of k points=    10
                       cart. coord. in units 2pi/alat
        k(    1) = (   0.0000000   0.0000000   0.0000000), wk =   0.0740741
        k(    2) = (   0.0000000   0.0000000   0.1362617), wk =   0.1481481
        k(    3) = (   0.0000000   0.3333340   0.0000000), wk =   0.1481481
        k(    4) = (   0.0000000   0.3333340   0.1362617), wk =   0.2962963
        k(    5) = (   0.3333333   0.0006536   0.0000000), wk =   0.1481481
        k(    6) = (   0.3333333   0.0006536   0.1362617), wk =   0.2962963
        k(    7) = (   0.3333333   0.3339876   0.0000000), wk =   0.1481481
        k(    8) = (   0.3333333   0.3339876   0.1362617), wk =   0.2962963
        k(    9) = (   0.3333333  -0.3326803   0.0000000), wk =   0.1481481
        k(   10) = (   0.3333333  -0.3326803   0.1362617), wk =   0.2962963

                       cryst. coord.
        k(    1) = (   0.0000000   0.0000000   0.0000000), wk =   0.0740741
        k(    2) = (   0.0000000   0.0000000   0.3333333), wk =   0.1481481
        k(    3) = (   0.0000000   0.3333333   0.0000000), wk =   0.1481481
        k(    4) = (   0.0000000   0.3333333   0.3333333), wk =   0.2962963
        k(    5) = (   0.3333333   0.0000000   0.0000000), wk =   0.1481481
        k(    6) = (   0.3333333   0.0000000   0.3333333), wk =   0.2962963
        k(    7) = (   0.3333333   0.3333333   0.0000000), wk =   0.1481481
        k(    8) = (   0.3333333   0.3333333   0.3333333), wk =   0.2962963
        k(    9) = (   0.3333333  -0.3333333   0.0000000), wk =   0.1481481
        k(   10) = (   0.3333333  -0.3333333   0.3333333), wk =   0.2962963

     Check: negative core charge=   -0.000008

     Initial potential from superposition of free atoms

     starting charge      79.7993, renormalised to      80.0000

     negative rho (up, down):  1.256E-01 0.000E+00
     Starting wfcs are   58 randomized atomic wfcs +    6 random wfcs
     Checking if some PAW data can be deallocated...

     Self-consistent Calculation

     iteration #  1     ecut=    30.00 Ry     beta= 0.70
     Davidson diagonalization with overlap

     ethr =  1.00E-02,  avg # of iterations =  5.7

     negative rho (up, down):  1.170E-01 0.000E+00

     total energy              =    -677.81276826 Ry
     estimated scf accuracy    <       3.33969088 Ry

[...]

     total energy              =    -679.61559401 Ry
     estimated scf accuracy    <       0.00000357 Ry

     iteration #  9     ecut=    30.00 Ry     beta= 0.70
     Davidson diagonalization with overlap

     ethr =  4.47E-09,  avg # of iterations =  1.7

     negative rho (up, down):  1.189E-01 0.000E+00

     End of self-consistent calculation

          k = 0.0000 0.0000 0.0000 (  2663 PWs)   bands (ev):

   -71.3539 -71.3538 -35.6117 -35.6107 -35.5000 -35.5000 -35.4930 -35.4930
   -18.4793 -18.2455 -17.7982 -17.5503 -14.2807 -14.2731 -13.7939 -13.7925
    -1.4756  -1.4464  -0.1476  -0.0882   0.1250   0.3663   0.4032   0.4593
     0.6817   0.6986   0.7698   0.8124   1.5568   1.5625   1.5747   1.8273
     1.8283   2.0862   2.0942   2.1260   2.4337   2.4579   2.5150   2.5152
     5.1011   5.1054   6.1041   6.1173   6.1476   6.1694   8.9379   8.9394
    10.0033  10.2422  11.0774  13.0611  13.5455  17.2182  17.2209  17.6351
    17.9322  18.7151  19.1569  20.6224  20.6235  20.7138  20.8011  21.2970

     occupation numbers
     1.0000   1.0000   1.0000   1.0000   1.0000   1.0000   1.0000   1.0000
     1.0000   1.0000   1.0000   1.0000   1.0000   1.0000   1.0000   1.0000
     1.0000   1.0000   1.0000   1.0000   1.0000   1.0000   1.0000   1.0000
     1.0000   1.0000   1.0000   1.0000   1.0000   1.0000   1.0000   1.0000
     1.0000   1.0000   1.0000   1.0000   1.0000   1.0000   1.0000   1.0000
     0.0000   0.0000   0.0000   0.0000   0.0000   0.0000   0.0000   0.0000
     0.0000   0.0000   0.0000   0.0000   0.0000   0.0000   0.0000   0.0000
     0.0000   0.0000   0.0000   0.0000   0.0000   0.0000   0.0000   0.0000

[...]

          k = 0.3333-0.3327 0.1363 (  2667 PWs)   bands (ev):

   -71.3533 -71.3533 -35.6073 -35.6073 -35.5411 -35.5410 -35.5335 -35.5334
   -18.3615 -18.3302 -17.6785 -17.6454 -13.2084 -13.2082 -13.0601 -13.0586
    -2.2584  -2.2497  -1.9851  -1.9598  -1.3576  -1.2986  -0.9608  -0.8785
    -0.7968  -0.6688  -0.6408  -0.5747   0.6394   0.6491   0.8946   1.1195
     1.2805   1.3687   2.4135   2.4250   2.5230   2.5813   3.3085   3.3108
     7.4673   7.5701   7.6547   7.6979   7.9436   7.9469  11.6321  11.7994
    13.5917  13.5944  14.3422  14.5313  15.9607  16.3125  16.6897  17.1329
    17.2161  17.5781  17.8394  17.9935  18.9729  19.4838  19.8850  20.1901

     occupation numbers
     1.0000   1.0000   1.0000   1.0000   1.0000   1.0000   1.0000   1.0000
     1.0000   1.0000   1.0000   1.0000   1.0000   1.0000   1.0000   1.0000
     1.0000   1.0000   1.0000   1.0000   1.0000   1.0000   1.0000   1.0000
     1.0000   1.0000   1.0000   1.0000   1.0000   1.0000   1.0000   1.0000
     1.0000   1.0000   1.0000   1.0000   1.0000   1.0000   1.0000   1.0000
     0.0000   0.0000   0.0000   0.0000   0.0000   0.0000   0.0000   0.0000
     0.0000   0.0000   0.0000   0.0000   0.0000   0.0000   0.0000   0.0000
     0.0000   0.0000   0.0000   0.0000   0.0000   0.0000   0.0000   0.0000

     highest occupied, lowest unoccupied level (ev):     3.3132    5.1011

!    total energy              =    -679.61559379 Ry
     estimated scf accuracy    <       0.00000098 Ry

     The total energy is the sum of the following terms:
     one-electron contribution =    -324.30470695 Ry
     hartree contribution      =     193.18385816 Ry
     xc contribution           =    -148.78215962 Ry
     ewald contribution        =    -361.62363853 Ry
     one-center paw contrib.   =     -38.08894684 Ry
      -> PAW hartree energy AE =       0.00000000 Ry
      -> PAW hartree energy PS =       0.00000000 Ry
      -> PAW xc energy AE      =       0.00000000 Ry
      -> PAW xc energy PS      =       0.00000000 Ry
      -> total E_H with PAW    =     193.18385816 Ry
      -> total E_XC with PAW   =    -148.78215962 Ry

     convergence has been achieved in   9 iterations

     Writing all to output data dir calculations_bands/myprefix.save/

     General routines

     Parallel routines

     PAW routines

   This run was terminated on:   5: 6:25   6Jun2023

   JOB DONE.