     Program PWSCF v.7.1 starts on 16Jul2023 at 20:55: 8

     Reading input from espresso_3485.pwi
Warning: card &CELL ignored
Warning: card / ignored

     Current dimensions of program PWSCF are:
     Max number of different atomic species (ntypx) = 10
     Max number of k-points (npk) =  40000
     Max angular momentum in pseudopotentials (lmaxx) =  4
     file La.paw.z_11.atompaw.wentzcovitch.v1.2.upf: wavefunction(s)  6S 0P 5D 0D 4F 0F renormalized
     file Mg.pbe-n-kjpaw_psl.0.3.0.UPF: wavefunction(s)  3S renormalized
     file O.pbe-n-kjpaw_psl.0.1.UPF: wavefunction(s)  2P renormalized
     Message from routine setup:
     using ibrav=0 with symmetry is DISCOURAGED, use correct ibrav instead

     K-points division:     npool     =       2
     R & G space division:  proc/nbgrp/npool/nimage =       4
     Subspace diagonalization in iterative solution of the eigenvalue problem:
     one sub-group per band group will be used

     Using Slab Decomposition

     bravais-lattice index     =            0
     lattice parameter (alat)  =      10.5891  a.u.
     unit-cell volume          =    1699.3538 (a.u.)^3
     number of atoms/cell      =           20
     number of atomic types    =            5
     number of electrons       =       144.00
     number of Kohn-Sham states=          256
     kinetic-energy cutoff     =      30.0000  Ry
     charge density cutoff     =     240.0000  Ry
     scf convergence threshold =      1.0E-06
     mixing beta               =       0.7000
     number of iterations used =            8  plain     mixing
     Exchange-correlation= SLA  PW   PBX  PBC
                           (   1   4   3   4   0   0   0)

     celldm(1)=  10.589141  celldm(2)=   0.000000  celldm(3)=   0.000000
     celldm(4)=   0.000000  celldm(5)=   0.000000  celldm(6)=   0.000000

     crystal axes: (cart. coord. in units of alat)
               a(1) = (   1.000000   0.000000   0.000000 )
               a(2) = (   0.000000   1.000000   0.000000 )
               a(3) = (   0.000000   0.000000   1.431204 )

     reciprocal axes: (cart. coord. in units 2 pi/alat)
               b(1) = (  1.000000  0.000000  0.000000 )
               b(2) = (  0.000000  1.000000  0.000000 )
               b(3) = (  0.000000  0.000000  0.698712 )

     PseudoPot. # 1 for Na read from file:
     /lustre07/scratch/pragov/crystal_structure_design/utils/SSSP/na_pbe_v1.5.uspp.F.UPF
     MD5 check sum: 44600605ef58000f06b90626533354dc
     Pseudo is Ultrasoft, Zval =  9.0
     Generated by new atomic code, or converted to UPF format
     Using radial grid of  819 points,  5 beta functions with:
                l(1) =   0
                l(2) =   0
                l(3) =   1
                l(4) =   1
                l(5) =   2
     Q(r) pseudized with  8 coefficients,  rinner =    1.250   1.250   1.250
                                                       1.250   1.250

     PseudoPot. # 2 for La read from file:
     /lustre07/scratch/pragov/crystal_structure_design/utils/SSSP/La.paw.z_11.atompaw.wentzcovitch.v1.2.upf
     MD5 check sum: 754494e15ae71f30e5b5f678af019e01
     Pseudo is Projector augmented-wave + core cor, Zval = 11.0
     Generated using ATOMPAW code
     Shape of augmentation charge: BESSEL
     Using radial grid of 1101 points,  8 beta functions with:
                l(1) =   0
                l(2) =   0
                l(3) =   1
                l(4) =   1
                l(5) =   2
                l(6) =   2
                l(7) =   3
                l(8) =   3
     Q(r) pseudized with 0 coefficients

     PseudoPot. # 3 for Mg read from file:
     /lustre07/scratch/pragov/crystal_structure_design/utils/SSSP/Mg.pbe-n-kjpaw_psl.0.3.0.UPF
     MD5 check sum: 24ecedc7f3e3cbe212e682f4413594e4
     Pseudo is Projector augmented-wave + core cor, Zval =  2.0
     Generated using "atomic" code by A. Dal Corso  v.5.0.99 svn rev. 10869
     Shape of augmentation charge: PSQ
     Using radial grid of 1129 points,  4 beta functions with:
                l(1) =   0
                l(2) =   0
                l(3) =   1
                l(4) =   1
     Q(r) pseudized with 0 coefficients

     PseudoPot. # 4 for W  read from file:
     /lustre07/scratch/pragov/crystal_structure_design/utils/SSSP/W_pbe_v1.2.uspp.F.UPF
     MD5 check sum: 9c083fa34c2a2ea0f02f1f893e16e1c8
     Pseudo is Ultrasoft + core correction, Zval = 14.0
     Generated by new atomic code, or converted to UPF format
     Using radial grid of  923 points,  8 beta functions with:
                l(1) =   0
                l(2) =   0
                l(3) =   0
                l(4) =   1
                l(5) =   1
                l(6) =   2
                l(7) =   2
                l(8) =   3
     Q(r) pseudized with  6 coefficients,  rinner =    1.350   1.350   1.350
                                                       1.350   1.350   1.350
                                                       1.350

     PseudoPot. # 5 for O  read from file:
     /lustre07/scratch/pragov/crystal_structure_design/utils/SSSP/O.pbe-n-kjpaw_psl.0.1.UPF
     MD5 check sum: 0234752ac141de4415c5fc33072bef88
     Pseudo is Projector augmented-wave + core cor, Zval =  6.0
     Generated using "atomic" code by A. Dal Corso  v.5.0.99 svn rev. 10869
     Shape of augmentation charge: BESSEL
     Using radial grid of 1095 points,  4 beta functions with:
                l(1) =   0
                l(2) =   0
                l(3) =   1
                l(4) =   1
     Q(r) pseudized with 0 coefficients

     atomic species   valence    mass     pseudopotential
        Na             9.00    22.98977     Na( 1.00)
        La            11.00   138.90547     La( 1.00)
        Mg             2.00    24.30500     Mg( 1.00)
        W             14.00   183.84000     W ( 1.00)
        O              6.00    15.99900     O ( 1.00)

     16 Sym. Ops., with inversion, found ( 8 have fractional translation)

                                    s                        frac. trans.

      isym =  1     identity

 cryst.   s( 1) = (     1          0          0      )
                  (     0          1          0      )
                  (     0          0          1      )

 cart.    s( 1) = (  1.0000000  0.0000000  0.0000000 )
                  (  0.0000000  1.0000000  0.0000000 )
                  (  0.0000000  0.0000000  1.0000000 )

      isym =  2     180 deg rotation - cart. axis [0,0,1]

[...]

 cryst.   s( 3) = (    -1          0          0      )    f =(  0.5000000 )
                  (     0          1          0      )       ( -0.5000000 )
                  (     0          0         -1      )       (  0.0000000 )

 cart.    s( 3) = ( -1.0000000  0.0000000  0.0000000 )    f =(  0.5000000 )
                  (  0.0000000  1.0000000  0.0000000 )       ( -0.5000000 )
                  (  0.0000000  0.0000000 -1.0000000 )       (  0.0000000 )

[...]

 cryst.   s( 6) = (     0         -1          0      )
                  (    -1          0          0      )
                  (     0          0         -1      )

 cart.    s( 6) = (  0.0000000 -1.0000000  0.0000000 )
                  ( -1.0000000  0.0000000  0.0000000 )
                  (  0.0000000  0.0000000 -1.0000000 )

[...]

      isym =  8      90 deg rotation - cart. axis [0,0,1]

[...]

      isym =  9     inversion

 cryst.   s( 9) = (    -1          0          0      )    f =(  0.5000000 )
                  (     0         -1          0      )       (  0.5000000 )
                  (     0          0         -1      )       (  0.0000000 )

 cart.    s( 9) = ( -1.0000000  0.0000000  0.0000000 )    f =(  0.5000000 )
                  (  0.0000000 -1.0000000  0.0000000 )       (  0.5000000 )
                  (  0.0000000  0.0000000 -1.0000000 )       (  0.0000000 )

      isym = 10     inv. 180 deg rotation - cart. axis [0,0,1]

 cryst.   s(10) = (     1          0          0      )    f =( -0.5000000 )
                  (     0          1          0      )       ( -0.5000000 )
                  (     0          0         -1      )       (  0.0000000 )

 cart.    s(10) = (  1.0000000  0.0000000  0.0000000 )    f =( -0.5000000 )
                  (  0.0000000  1.0000000  0.0000000 )       ( -0.5000000 )
                  (  0.0000000  0.0000000 -1.0000000 )       (  0.0000000 )

[...]

 cryst.   s(11) = (     1          0          0      )
                  (     0         -1          0      )
                  (     0          0          1      )

 cart.    s(11) = (  1.0000000  0.0000000  0.0000000 )
                  (  0.0000000 -1.0000000  0.0000000 )
                  (  0.0000000  0.0000000  1.0000000 )

[...]

 cryst.   s(14) = (     0          1          0      )    f =( -0.5000000 )
                  (     1          0          0      )       ( -0.5000000 )
                  (     0          0          1      )       (  0.0000000 )

 cart.    s(14) = (  0.0000000  1.0000000  0.0000000 )    f =( -0.5000000 )
                  (  1.0000000  0.0000000  0.0000000 )       ( -0.5000000 )
                  (  0.0000000  0.0000000  1.0000000 )       (  0.0000000 )

[...]

      isym = 16     inv.  90 deg rotation - cart. axis [0,0,1]

 cryst.   s(16) = (     0         -1          0      )
                  (     1          0          0      )
                  (     0          0         -1      )

 cart.    s(16) = (  0.0000000  1.0000000  0.0000000 )
                  ( -1.0000000  0.0000000  0.0000000 )
                  (  0.0000000  0.0000000 -1.0000000 )

   Cartesian axes

     site n.     atom                  positions (alat units)
         1           Na  tau(   1) = (   0.0000000   0.0000000   0.7156021  )
         2           Na  tau(   2) = (   0.5000000   0.5000000   0.7156021  )
         3           La  tau(   3) = (   0.0000000   0.0000000   0.0000000  )
         4           La  tau(   4) = (   0.5000000   0.5000000   0.0000000  )
         5           Mg  tau(   5) = (   0.0000000   0.5000000   0.3652491  )
         6           Mg  tau(   6) = (   0.5000000   0.0000000   1.0659552  )
         7           W   tau(   7) = (   0.0000000   0.5000000   1.0634635  )
         8           W   tau(   8) = (   0.5000000   0.0000000   0.3677408  )
         9           O   tau(   9) = (   0.2434540   0.2565460   1.1026327  )
        10           O   tau(  10) = (   0.2565460   0.2434540   0.3285716  )
        11           O   tau(  11) = (   0.0000000   0.5000000   1.4261378  )
        12           O   tau(  12) = (   0.2434540   0.7434540   1.1026327  )
        13           O   tau(  13) = (   0.0000000   0.5000000   0.7298083  )
        14           O   tau(  14) = (   0.5000000   0.0000000   0.0050665  )
        15           O   tau(  15) = (   0.2565460   0.7565460   0.3285716  )
        16           O   tau(  16) = (   0.7565460   0.2565460   1.1026327  )
        17           O   tau(  17) = (   0.5000000   0.0000000   0.7013960  )
        18           O   tau(  18) = (   0.7565460   0.7434540   1.1026327  )
        19           O   tau(  19) = (   0.7434540   0.7565460   0.3285716  )
        20           O   tau(  20) = (   0.7434540   0.2434540   0.3285716  )

   Crystallographic axes

     site n.     atom                  positions (cryst. coord.)
         1           Na  tau(   1) = (  0.0000000  0.0000000  0.5000000  )
         2           Na  tau(   2) = (  0.5000000  0.5000000  0.5000000  )
         3           La  tau(   3) = (  0.0000000  0.0000000  0.0000000  )
         4           La  tau(   4) = (  0.5000000  0.5000000  0.0000000  )
         5           Mg  tau(   5) = (  0.0000000  0.5000000  0.2552040  )
         6           Mg  tau(   6) = (  0.5000000  0.0000000  0.7447960  )
         7           W   tau(   7) = (  0.0000000  0.5000000  0.7430550  )
         8           W   tau(   8) = (  0.5000000  0.0000000  0.2569450  )
         9           O   tau(   9) = (  0.2434540  0.2565460  0.7704230  )
        10           O   tau(  10) = (  0.2565460  0.2434540  0.2295770  )
        11           O   tau(  11) = (  0.0000000  0.5000000  0.9964600  )
        12           O   tau(  12) = (  0.2434540  0.7434540  0.7704230  )
        13           O   tau(  13) = (  0.0000000  0.5000000  0.5099260  )
        14           O   tau(  14) = (  0.5000000  0.0000000  0.0035400  )
        15           O   tau(  15) = (  0.2565460  0.7565460  0.2295770  )
        16           O   tau(  16) = (  0.7565460  0.2565460  0.7704230  )
        17           O   tau(  17) = (  0.5000000  0.0000000  0.4900740  )
        18           O   tau(  18) = (  0.7565460  0.7434540  0.7704230  )
        19           O   tau(  19) = (  0.7434540  0.7565460  0.2295770  )
        20           O   tau(  20) = (  0.7434540  0.2434540  0.2295770  )

     number of k points=     6
                       cart. coord. in units 2pi/alat
        k(    1) = (   0.0000000   0.0000000   0.0000000), wk =   0.0740741
        k(    2) = (   0.0000000   0.0000000   0.2329041), wk =   0.1481481
        k(    3) = (   0.0000000   0.3333333   0.0000000), wk =   0.2962963
        k(    4) = (   0.0000000   0.3333333   0.2329041), wk =   0.5925926
        k(    5) = (   0.3333333   0.3333333   0.0000000), wk =   0.2962963
        k(    6) = (   0.3333333   0.3333333   0.2329041), wk =   0.5925926

                       cryst. coord.
        k(    1) = (   0.0000000   0.0000000   0.0000000), wk =   0.0740741
        k(    2) = (   0.0000000   0.0000000   0.3333333), wk =   0.1481481
        k(    3) = (   0.0000000   0.3333333   0.0000000), wk =   0.2962963
        k(    4) = (   0.0000000   0.3333333   0.3333333), wk =   0.5925926
        k(    5) = (   0.3333333   0.3333333   0.0000000), wk =   0.2962963
        k(    6) = (   0.3333333   0.3333333   0.3333333), wk =   0.5925926

     Check: negative core charge=   -0.000009

     Initial potential from superposition of free atoms

     starting charge     143.7678, renormalised to     144.0000

     negative rho (up, down):  1.269E-01 0.000E+00
     Starting wfcs are  156 randomized atomic wfcs +  100 random wfcs
     Checking if some PAW data can be deallocated...

     Self-consistent Calculation

     iteration #  1     ecut=    30.00 Ry     beta= 0.70
     Davidson diagonalization with overlap

     ethr =  1.00E-02,  avg # of iterations =  6.0

     negative rho (up, down):  1.199E-01 0.000E+00

     total energy              =   -1991.02597847 Ry
     estimated scf accuracy    <       5.70243249 Ry

[...]

     c_bands:  1 eigenvalues not converged
     ethr =  1.61E-06,  avg # of iterations =  5.2

[...]

     total energy              =   -1994.01308742 Ry
     estimated scf accuracy    <       0.00006401 Ry

     iteration # 10     ecut=    30.00 Ry     beta= 0.70
     Davidson diagonalization with overlap

     ethr =  4.44E-08,  avg # of iterations =  1.0

     negative rho (up, down):  1.224E-01 0.000E+00

     End of self-consistent calculation

          k = 0.0000 0.0000 0.0000 (  4735 PWs)   bands (ev):

   -66.3714 -66.3714 -42.3474 -42.3462 -30.6043 -30.6043 -30.6041 -30.6041
   -30.5985 -30.5982 -22.4798 -22.3900 -14.2604 -14.2550 -14.2461 -14.2461
   -14.2398 -14.2398  -9.7170  -9.5566  -8.8718  -8.6680  -8.6680  -8.6525
    -8.6268  -8.5866  -8.2288  -8.2288  -7.9634  -7.8777  -6.2128  -6.0024
    -6.0024  -5.8100  -5.8100  -5.5363   2.6803   2.7546   3.3849   3.9727
     3.9727   4.0683   4.0945   4.1233   4.1843   4.3652   4.3652   4.4551
     5.1701   5.1701   5.1918   5.2940   5.2940   5.7902   6.1573   6.3847
     6.5831   6.5831   6.6639   6.6639   6.9120   6.9222   6.9222   7.1830
     7.1830   7.6576   7.8587   7.8587   7.9108   7.9825   8.1774   8.1774
    10.8522  11.0795  11.2703  11.2703  12.0710  12.0710  12.3723  12.3723
    12.4489  12.4766  12.5189  12.5279  12.6195  12.6195  12.6717  12.6717
    12.6887  12.7037  12.7920  12.7920  12.8141  13.0918  13.3804  13.8124
    14.4874  14.8837  14.8837  15.2369  15.2721  15.7927  15.7927  15.8533
    16.4280  16.7991  16.9198  16.9451  17.3573  17.4336  18.1555  18.1555
    19.0571  19.4523  19.5913  19.7968  20.5071  20.5071  20.6771  21.6272
    21.6272  21.8965  22.1495  22.5364  22.5364  22.7818  22.7818  23.1399
    23.3848  23.3848  23.5255  23.9964  24.3276  24.8098  24.8098  24.8314
    25.1699  25.5976  25.7257  26.8306  26.8306  27.2041  27.4476  27.5278
    27.6068  27.6068  27.7718  27.8407  27.8407  27.8911  28.7750  28.7750
    28.9920  29.2602  29.2602  29.8601  29.9856  30.1201  30.1269  30.3604
    30.3604  31.0492  31.0951  31.1337  31.1337  31.6488  32.2862  32.3152
    32.3152  32.4057  32.7921  32.7921  34.0939  34.2538  34.2538  34.3078
    34.3078  34.5026  34.9315  34.9315  34.9331  35.1836  35.4874  35.7996
    36.1871  36.5894  36.5894  36.6876  36.7431  36.8185  36.8185  37.5132
    37.5624  37.6050  37.6134  37.6134  37.6249  38.3818  39.1169  39.1169
    39.2511  39.2713  39.2713  39.5000  39.5000  39.5773  39.6365  39.8280
    39.8280  40.0278  40.1450  40.3521  40.4143  41.0313  41.0313  41.5102
    41.7408  41.7408  41.7555  41.7629  41.9848  42.2251  42.3452  42.4822
    42.5192  42.6926  42.8263  42.9130  42.9130  43.4497  43.4497  43.5476
    43.5476  43.8049  43.8277  44.4520  44.4717  44.4717  44.6143  44.9959
    45.1330  45.2745  45.4894  45.5089  45.6699  46.0023  46.0023  46.1546
    46.1546  46.7381  46.7990  46.7991  46.8831  46.8832  46.8868  47.2769

     occupation numbers
     1.0000   1.0000   1.0000   1.0000   1.0000   1.0000   1.0000   1.0000
     1.0000   1.0000   1.0000   1.0000   1.0000   1.0000   1.0000   1.0000
     1.0000   1.0000   1.0000   1.0000   1.0000   1.0000   1.0000   1.0000
     1.0000   1.0000   1.0000   1.0000   1.0000   1.0000   1.0000   1.0000
     1.0000   1.0000   1.0000   1.0000   1.0000   1.0000   1.0000   1.0000
     1.0000   1.0000   1.0000   1.0000   1.0000   1.0000   1.0000   1.0000
     1.0000   1.0000   1.0000   1.0000   1.0000   1.0000   1.0000   1.0000
     1.0000   1.0000   1.0000   1.0000   1.0000   1.0000   1.0000   1.0000
     1.0000   1.0000   1.0000   1.0000   1.0000   1.0000   1.0000   1.0000
     0.0000   0.0000   0.0000   0.0000   0.0000   0.0000   0.0000   0.0000
     0.0000   0.0000   0.0000   0.0000   0.0000   0.0000   0.0000   0.0000
     0.0000   0.0000   0.0000   0.0000   0.0000   0.0000   0.0000   0.0000
     0.0000   0.0000   0.0000   0.0000   0.0000   0.0000   0.0000   0.0000
     0.0000   0.0000   0.0000   0.0000   0.0000   0.0000   0.0000   0.0000
     0.0000   0.0000   0.0000   0.0000   0.0000   0.0000   0.0000   0.0000
     0.0000   0.0000   0.0000   0.0000   0.0000   0.0000   0.0000   0.0000
     0.0000   0.0000   0.0000   0.0000   0.0000   0.0000   0.0000   0.0000
     0.0000   0.0000   0.0000   0.0000   0.0000   0.0000   0.0000   0.0000
     0.0000   0.0000   0.0000   0.0000   0.0000   0.0000   0.0000   0.0000
     0.0000   0.0000   0.0000   0.0000   0.0000   0.0000   0.0000   0.0000
     0.0000   0.0000   0.0000   0.0000   0.0000   0.0000   0.0000   0.0000
     0.0000   0.0000   0.0000   0.0000   0.0000   0.0000   0.0000   0.0000
     0.0000   0.0000   0.0000   0.0000   0.0000   0.0000   0.0000   0.0000
     0.0000   0.0000   0.0000   0.0000   0.0000   0.0000   0.0000   0.0000
     0.0000   0.0000   0.0000   0.0000   0.0000   0.0000   0.0000   0.0000
     0.0000   0.0000   0.0000   0.0000   0.0000   0.0000   0.0000   0.0000
     0.0000   0.0000   0.0000   0.0000   0.0000   0.0000   0.0000   0.0000
     0.0000   0.0000   0.0000   0.0000   0.0000   0.0000   0.0000   0.0000
     0.0000   0.0000   0.0000   0.0000   0.0000   0.0000   0.0000   0.0000
     0.0000   0.0000   0.0000   0.0000   0.0000   0.0000   0.0000   0.0000
     0.0000   0.0000   0.0000   0.0000   0.0000   0.0000   0.0000   0.0000
     0.0000   0.0000   0.0000   0.0000   0.0000   0.0000   0.0000   0.0000

[...]

          k = 0.3333 0.3333 0.2329 (  4702 PWs)   bands (ev):

   -66.3714 -66.3713 -42.3468 -42.3465 -30.6044 -30.6043 -30.6042 -30.6041
   -30.5982 -30.5981 -22.4435 -22.4210 -14.2566 -14.2548 -14.2504 -14.2496
   -14.2404 -14.2378  -9.5838  -9.5591  -9.1754  -8.9631  -8.7538  -8.6969
    -8.5096  -8.4854  -8.3416  -8.2377  -7.9797  -7.9246  -5.9377  -5.8862
    -5.8013  -5.6573  -5.5249  -5.5173   2.9503   2.9900   3.6556   3.6765
     3.7056   3.7605   3.9231   4.0489   4.1067   4.2351   4.3782   4.4217
     5.2737   5.3474   5.4074   5.5397   5.7864   5.9388   6.0843   6.1671
     6.2245   6.3867   6.4865   6.5285   6.6491   6.7754   6.8853   6.9347
     7.1586   7.2413   7.2905   7.4178   7.4852   7.5351   7.8220   7.9954
    11.3991  11.4220  11.5909  11.6827  11.7024  11.8506  12.2963  12.3154
    12.4319  12.4394  12.4956  12.4991  12.5250  12.5308  12.5533  12.5782
    12.6644  12.6835  12.6964  12.7357  14.2875  14.4121  14.6555  14.8635
    14.9730  15.0033  15.3167  15.3586  15.6488  15.6859  15.7594  16.0879
    16.3028  16.4021  16.5935  16.6987  17.0048  17.5414  17.8028  18.7378
    19.5451  19.7571  20.0245  20.5874  20.8004  20.8778  21.0056  21.1682
    21.6448  22.0911  22.1205  22.2965  22.4871  22.7838  22.8371  22.9807
    23.0862  23.2730  23.6679  23.9645  24.1346  24.2706  24.2947  24.4976
    24.6175  25.2609  25.2759  25.5532  25.8722  26.2195  26.3786  26.8325
    27.1951  27.5454  27.7105  28.1245  28.4553  28.5201  28.6310  28.7859
    29.1569  29.2477  29.4856  29.5671  29.7875  30.0939  30.2576  30.4107
    31.0399  31.1601  31.3847  31.4174  31.6412  31.9898  32.0466  32.2126
    32.2328  32.6314  32.9071  33.0475  33.1078  33.4353  33.4992  33.6576
    34.0941  34.2495  34.4950  34.6226  34.7195  34.9279  35.3781  35.6004
    35.7212  35.9020  36.2817  36.6879  36.7751  36.7779  36.9736  37.1391
    37.1559  37.4607  37.5522  37.9392  38.1280  38.3094  38.5415  38.6836
    38.7525  39.0022  39.4962  39.6002  39.8367  39.8909  39.8974  40.4433
    40.4949  40.5756  40.9432  41.0867  41.3814  41.5244  41.7166  41.7844
    42.1976  42.2452  42.3596  42.4285  42.4665  42.6500  42.8364  43.0041
    43.2362  43.2630  43.3637  43.5568  43.7232  43.7360  43.8650  43.9540
    44.2023  44.4041  44.4218  44.5940  44.6488  44.9523  44.9596  45.0435
    45.1804  45.1866  45.3842  45.3902  45.5577  45.8222  45.8475  45.8978
    46.1252  46.1772  46.4676  46.5341  46.7123  46.8037  47.1533  47.1861

     occupation numbers
     1.0000   1.0000   1.0000   1.0000   1.0000   1.0000   1.0000   1.0000
     1.0000   1.0000   1.0000   1.0000   1.0000   1.0000   1.0000   1.0000
     1.0000   1.0000   1.0000   1.0000   1.0000   1.0000   1.0000   1.0000
     1.0000   1.0000   1.0000   1.0000   1.0000   1.0000   1.0000   1.0000
     1.0000   1.0000   1.0000   1.0000   1.0000   1.0000   1.0000   1.0000
     1.0000   1.0000   1.0000   1.0000   1.0000   1.0000   1.0000   1.0000
     1.0000   1.0000   1.0000   1.0000   1.0000   1.0000   1.0000   1.0000
     1.0000   1.0000   1.0000   1.0000   1.0000   1.0000   1.0000   1.0000
     1.0000   1.0000   1.0000   1.0000   1.0000   1.0000   1.0000   1.0000
     0.0000   0.0000   0.0000   0.0000   0.0000   0.0000   0.0000   0.0000
     0.0000   0.0000   0.0000   0.0000   0.0000   0.0000   0.0000   0.0000
     0.0000   0.0000   0.0000   0.0000   0.0000   0.0000   0.0000   0.0000
     0.0000   0.0000   0.0000   0.0000   0.0000   0.0000   0.0000   0.0000
     0.0000   0.0000   0.0000   0.0000   0.0000   0.0000   0.0000   0.0000
     0.0000   0.0000   0.0000   0.0000   0.0000   0.0000   0.0000   0.0000
     0.0000   0.0000   0.0000   0.0000   0.0000   0.0000   0.0000   0.0000
     0.0000   0.0000   0.0000   0.0000   0.0000   0.0000   0.0000   0.0000
     0.0000   0.0000   0.0000   0.0000   0.0000   0.0000   0.0000   0.0000
     0.0000   0.0000   0.0000   0.0000   0.0000   0.0000   0.0000   0.0000
     0.0000   0.0000   0.0000   0.0000   0.0000   0.0000   0.0000   0.0000
     0.0000   0.0000   0.0000   0.0000   0.0000   0.0000   0.0000   0.0000
     0.0000   0.0000   0.0000   0.0000   0.0000   0.0000   0.0000   0.0000
     0.0000   0.0000   0.0000   0.0000   0.0000   0.0000   0.0000   0.0000
     0.0000   0.0000   0.0000   0.0000   0.0000   0.0000   0.0000   0.0000
     0.0000   0.0000   0.0000   0.0000   0.0000   0.0000   0.0000   0.0000
     0.0000   0.0000   0.0000   0.0000   0.0000   0.0000   0.0000   0.0000
     0.0000   0.0000   0.0000   0.0000   0.0000   0.0000   0.0000   0.0000
     0.0000   0.0000   0.0000   0.0000   0.0000   0.0000   0.0000   0.0000
     0.0000   0.0000   0.0000   0.0000   0.0000   0.0000   0.0000   0.0000
     0.0000   0.0000   0.0000   0.0000   0.0000   0.0000   0.0000   0.0000
     0.0000   0.0000   0.0000   0.0000   0.0000   0.0000   0.0000   0.0000
     0.0000   0.0000   0.0000   0.0000   0.0000   0.0000   0.0000   0.0000

     highest occupied, lowest unoccupied level (ev):     8.1774   10.8411

!    total energy              =   -1994.01309802 Ry
     estimated scf accuracy    <       0.00000064 Ry

     The total energy is the sum of the following terms:
     one-electron contribution =    -375.25338153 Ry
     hartree contribution      =     267.99220308 Ry
     xc contribution           =    -230.57637413 Ry
     ewald contribution        =    -692.12774628 Ry
     one-center paw contrib.   =    -964.04779916 Ry
      -> PAW hartree energy AE =      33.82862950 Ry
      -> PAW hartree energy PS =     -33.83125253 Ry
      -> PAW xc energy AE      =    -405.23420099 Ry
      -> PAW xc energy PS      =      11.63378963 Ry
      -> total E_H with PAW    =     267.98958006 Ry
      -> total E_XC with PAW   =    -624.17678550 Ry

     convergence has been achieved in  10 iterations

     Writing all to output data dir bands_nm/myprefix.save/

     General routines

     Parallel routines

     PAW routines

   This run was terminated on:  20:55:42  16Jul2023

   JOB DONE.