     Program PWSCF v.7.1 starts on  9Jul2023 at 17:14:13

     Reading input from espresso_19942.pwi
Warning: card &CELL ignored
Warning: card / ignored

     Current dimensions of program PWSCF are:
     Max number of different atomic species (ntypx) = 10
     Max number of k-points (npk) =  40000
     Max angular momentum in pseudopotentials (lmaxx) =  4
     Message from routine setup:
     using ibrav=0 with symmetry is DISCOURAGED, use correct ibrav instead

     K-points division:     npool     =       2
     R & G space division:  proc/nbgrp/npool/nimage =       4
     Subspace diagonalization in iterative solution of the eigenvalue problem:
     a serial algorithm will be used

     Using Slab Decomposition

     bravais-lattice index     =            0
     lattice parameter (alat)  =      13.3235  a.u.
     unit-cell volume          =    1266.2382 (a.u.)^3
     number of atoms/cell      =            8
     number of atomic types    =            3
     number of electrons       =        70.00
     number of Kohn-Sham states=           64
     kinetic-energy cutoff     =      30.0000  Ry
     charge density cutoff     =     240.0000  Ry
     scf convergence threshold =      1.0E-06
     mixing beta               =       0.7000
     number of iterations used =            8  plain     mixing
     Exchange-correlation= SLA  PW   PBE  PBE
                           (   1   4   3   4   0   0   0)

     celldm(1)=  13.323471  celldm(2)=   0.000000  celldm(3)=   0.000000
     celldm(4)=   0.000000  celldm(5)=   0.000000  celldm(6)=   0.000000

     crystal axes: (cart. coord. in units of alat)
               a(1) = (   1.000000   0.000000   0.000000 )
               a(2) = (   0.347830   0.937558   0.000000 )
               a(3) = (  -0.673915  -0.468779   0.571038 )

     reciprocal axes: (cart. coord. in units 2 pi/alat)
               b(1) = (  1.000000 -0.370996  0.875598 )
               b(2) = (  0.000000  1.066601  0.875598 )
               b(3) = (  0.000000  0.000000  1.751196 )

     PseudoPot. # 1 for Li read from file:
     /home/pragov/projects/rrg-bengioy-ad/pragov/crystal_structure_design/SSSP/li_pbe_v1.4.uspp.F.UPF
     MD5 check sum: e912e257baa3777c20ea3d68f190483c
     Pseudo is Ultrasoft, Zval =  3.0
     Generated by new atomic code, or converted to UPF format
     Using radial grid of  751 points,  5 beta functions with:
                l(1) =   0
                l(2) =   0
                l(3) =   0
                l(4) =   1
                l(5) =   1
     Q(r) pseudized with 10 coefficients,  rinner =    1.150   1.150   1.150

     PseudoPot. # 2 for Dy read from file:
     /home/pragov/projects/rrg-bengioy-ad/pragov/crystal_structure_design/SSSP/Dy.GGA-PBE-paw-v1.0.UPF
     MD5 check sum: 733414aae3e3693a823ce0c917a68f08
     Pseudo is Projector augmented-wave + core cor, Zval = 20.0
     Generated using ATOMPAW code
     Shape of augmentation charge: BESSEL
     Using radial grid of 1112 points,  8 beta functions with:
                l(1) =   0
                l(2) =   0
                l(3) =   1
                l(4) =   1
                l(5) =   2
                l(6) =   2
                l(7) =   3
                l(8) =   3
     Q(r) pseudized with 0 coefficients

     PseudoPot. # 3 for Se read from file:
     /home/pragov/projects/rrg-bengioy-ad/pragov/crystal_structure_design/SSSP/Se_pbe_v1.uspp.F.UPF
     MD5 check sum: 1b3568f3a8ae88f9a2a0ad0698632c85
     Pseudo is Ultrasoft + core correction, Zval =  6.0
     Generated by new atomic code, or converted to UPF format
     Using radial grid of  877 points,  6 beta functions with:
                l(1) =   0
                l(2) =   0
                l(3) =   1
                l(4) =   1
                l(5) =   2
                l(6) =   2
     Q(r) pseudized with  8 coefficients,  rinner =    1.300   1.300   1.300
                                                       1.300   1.300

     atomic species   valence    mass     pseudopotential
        Li             3.00     6.94000     Li( 1.00)
        Dy            20.00   162.50000     Dy( 1.00)
        Se             6.00    78.97100     Se( 1.00)

      4 Sym. Ops., with inversion, found ( 2 have fractional translation)

                                    s                        frac. trans.

      isym =  1     identity

 cryst.   s( 1) = (     1          0          0      )
                  (     0          1          0      )
                  (     0          0          1      )

 cart.    s( 1) = (  1.0000000  0.0000000 -0.0000000 )
                  (  0.0000000  1.0000000  0.0000000 )
                  (  0.0000000  0.0000000  1.0000000 )

      isym =  2     180 deg rotation - cart. axis [0,0,1]

 cryst.   s( 2) = (    -1          0          0      )
                  (     0         -1          0      )
                  (     1          1          1      )

 cart.    s( 2) = ( -1.0000000  0.0000000  0.0000000 )
                  (  0.0000000 -1.0000000  0.0000000 )
                  (  0.0000000  0.0000000  1.0000000 )

      isym =  3     inversion

 cryst.   s( 3) = (    -1          0          0      )    f =(  0.2500000 )
                  (     0         -1          0      )       ( -0.2500000 )
                  (     0          0         -1      )       ( -0.5000000 )

 cart.    s( 3) = ( -1.0000000  0.0000000  0.0000000 )    f =(  0.5000000 )
                  (  0.0000000 -1.0000000  0.0000000 )       ( -0.0000000 )
                  (  0.0000000  0.0000000 -1.0000000 )       ( -0.2855192 )

      isym =  4     inv. 180 deg rotation - cart. axis [0,0,1]

 cryst.   s( 4) = (     1          0          0      )    f =(  0.2500000 )
                  (     0          1          0      )       ( -0.2500000 )
                  (    -1         -1         -1      )       ( -0.5000000 )

 cart.    s( 4) = (  1.0000000  0.0000000 -0.0000000 )    f =(  0.5000000 )
                  (  0.0000000  1.0000000 -0.0000000 )       ( -0.0000000 )
                  (  0.0000000  0.0000000 -1.0000000 )       ( -0.2855192 )

   Cartesian axes

     site n.     atom                  positions (alat units)
         1           Li  tau(   1) = (   0.0000000   0.0000000   0.0000000  )
         2           Li  tau(   2) = (   0.5000000   0.0000000   0.2855192  )
         3           Dy  tau(   3) = (   0.6739151   0.4687788   0.0000000  )
         4           Dy  tau(   4) = (   0.1739151   0.4687788   0.2855192  )
         5           Se  tau(   5) = (   1.0066836   0.7002542   0.0000000  )
         6           Se  tau(   6) = (   0.3411466   0.2373033   0.0000000  )
         7           Se  tau(   7) = (  -0.1588534   0.2373033   0.2855192  )
         8           Se  tau(   8) = (   0.5066836   0.7002542   0.2855192  )

   Crystallographic axes

     site n.     atom                  positions (cryst. coord.)
         1           Li  tau(   1) = (  0.0000000  0.0000000  0.0000000  )
         2           Li  tau(   2) = (  0.7500000  0.2500000  0.5000000  )
         3           Dy  tau(   3) = (  0.5000000  0.5000000  0.0000000  )
         4           Dy  tau(   4) = (  0.2500000  0.7500000  0.5000000  )
         5           Se  tau(   5) = (  0.7468920  0.7468920  0.0000000  )
         6           Se  tau(   6) = (  0.2531080  0.2531080  0.0000000  )
         7           Se  tau(   7) = (  0.0031080  0.5031080  0.5000000  )
         8           Se  tau(   8) = (  0.4968920  0.9968920  0.5000000  )

     number of k points=    10
                       cart. coord. in units 2pi/alat
        k(    1) = (   0.0000000   0.0000000   0.0000000), wk =   0.0740741
        k(    2) = (   0.0000000   0.0000000   0.5837319), wk =   0.1481481
        k(    3) = (   0.0000000   0.3555337   0.2918659), wk =   0.2962963
        k(    4) = (   0.0000000   0.3555337   0.8755978), wk =   0.1481481
        k(    5) = (   0.3333333  -0.1236654   0.2918659), wk =   0.2962963
        k(    6) = (   0.3333333  -0.1236654   0.8755978), wk =   0.1481481
        k(    7) = (   0.3333333   0.2318684   0.5837319), wk =   0.2962963
        k(    8) = (   0.3333333   0.2318684  -0.0000000), wk =   0.1481481
        k(    9) = (   0.3333333  -0.4791991   0.0000000), wk =   0.1481481
        k(   10) = (   0.3333333  -0.4791991   0.5837319), wk =   0.2962963

                       cryst. coord.
        k(    1) = (   0.0000000   0.0000000   0.0000000), wk =   0.0740741
        k(    2) = (   0.0000000   0.0000000   0.3333333), wk =   0.1481481
        k(    3) = (   0.0000000   0.3333333   0.0000000), wk =   0.2962963
        k(    4) = (   0.0000000   0.3333333   0.3333333), wk =   0.1481481
        k(    5) = (   0.3333333   0.0000000   0.0000000), wk =   0.2962963
        k(    6) = (   0.3333333   0.0000000   0.3333333), wk =   0.1481481
        k(    7) = (   0.3333333   0.3333333   0.0000000), wk =   0.2962963
        k(    8) = (   0.3333333   0.3333333  -0.3333333), wk =   0.1481481
        k(    9) = (   0.3333333  -0.3333333   0.0000000), wk =   0.1481481
        k(   10) = (   0.3333333  -0.3333333   0.3333333), wk =   0.2962963

     Initial potential from superposition of free atoms

     starting charge      69.0906, renormalised to      70.0000
     Starting wfcs are   90 randomized atomic wfcs
     Checking if some PAW data can be deallocated...

     Self-consistent Calculation

     iteration #  1     ecut=    30.00 Ry     beta= 0.70
     Davidson diagonalization with overlap

     ethr =  1.00E-02,  avg # of iterations =  6.5

     total energy              =   -1757.42837720 Ry
     estimated scf accuracy    <       0.82784542 Ry

[...]

     total energy              =   -1758.22311868 Ry
     estimated scf accuracy    <       0.00000112 Ry

     iteration # 72     ecut=    30.00 Ry     beta= 0.70
     Davidson diagonalization with overlap

     ethr =  1.60E-09,  avg # of iterations =  1.0

     End of self-consistent calculation

          k = 0.0000 0.0000 0.0000 (  3547 PWs)   bands (ev):

   -38.8804 -38.8795 -38.0029 -37.9951 -14.2291 -14.2168 -14.2101 -14.1702
   -14.1634 -14.1046  -5.5795  -4.8953  -4.7434  -4.7383   3.8828   4.3701
     4.3725   4.4259   4.4288   4.7070   4.8169   5.4575   5.4664   6.0215
     6.0430   6.0752   6.7523   6.7527   6.7903   6.7993   6.8102   6.8454
     6.8476   6.8934   6.9469   6.9742   7.0472   7.4667   7.4860   7.5054
     8.8567  10.1121  10.1175  10.3091  10.6926  11.2543  11.4219  11.4261
    11.4625  11.4691  12.1983  12.3431  14.2584  14.4771  14.6602  14.6613
    14.6652  15.6183  16.4780  16.4788  17.0642  17.8764  17.8764  17.9046

     occupation numbers
     1.0000   1.0000   1.0000   1.0000   1.0000   1.0000   1.0000   1.0000
     1.0000   1.0000   1.0000   1.0000   1.0000   1.0000   1.0000   1.0000
     1.0000   1.0000   1.0000   1.0000   1.0000   1.0000   1.0000   1.0000
     1.0000   1.0000   1.0000   1.0000   1.0000   1.0000   1.0000   1.0000
     1.0000   1.0000   1.0000   0.0000   0.0000   0.0000   0.0000   0.0000
     0.0000   0.0000   0.0000   0.0000   0.0000   0.0000   0.0000   0.0000
     0.0000   0.0000   0.0000   0.0000   0.0000   0.0000   0.0000   0.0000
     0.0000   0.0000   0.0000   0.0000   0.0000   0.0000   0.0000   0.0000

[...]

          k = 0.3333-0.4792 0.5837 (  3508 PWs)   bands (ev):

   -38.8793 -38.8793 -38.0000 -37.9980 -14.2582 -14.2241 -14.2183 -14.1580
   -14.1528 -14.1184  -5.0612  -4.9856  -4.8431  -4.7374   3.7615   3.9443
     3.9610   4.0820   4.6856   4.9214   5.1814   5.2585   5.5108   5.5748
     5.5824   5.7426   6.7403   6.7483   6.7605   6.7792   6.8001   6.8266
     6.8552   6.9054   6.9141   6.9308   6.9432   6.9451   7.0569   7.1618
     9.1398  10.2268  10.8059  10.9450  11.4345  11.7951  11.9693  12.0708
    12.2034  12.6904  13.1568  13.3563  14.0885  14.0919  14.6320  14.7195
    14.8420  15.4881  15.6475  15.7882  16.1000  16.4103  16.9927  17.1650

     occupation numbers
     1.0000   1.0000   1.0000   1.0000   1.0000   1.0000   1.0000   1.0000
     1.0000   1.0000   1.0000   1.0000   1.0000   1.0000   1.0000   1.0000
     1.0000   1.0000   1.0000   1.0000   1.0000   1.0000   1.0000   1.0000
     1.0000   1.0000   1.0000   1.0000   1.0000   1.0000   1.0000   1.0000
     1.0000   1.0000   1.0000   0.0000   0.0000   0.0000   0.0000   0.0000
     0.0000   0.0000   0.0000   0.0000   0.0000   0.0000   0.0000   0.0000
     0.0000   0.0000   0.0000   0.0000   0.0000   0.0000   0.0000   0.0000
     0.0000   0.0000   0.0000   0.0000   0.0000   0.0000   0.0000   0.0000

     highest occupied, lowest unoccupied level (ev):     6.9622    6.8851

!    total energy              =   -1758.22312125 Ry
     estimated scf accuracy    <       0.00000085 Ry

     The total energy is the sum of the following terms:
     one-electron contribution =    -477.32743820 Ry
     hartree contribution      =     262.88958708 Ry
     xc contribution           =    -181.34349071 Ry
     ewald contribution        =    -401.82940543 Ry
     one-center paw contrib.   =    -960.61237399 Ry
      -> PAW hartree energy AE =       0.00000000 Ry
      -> PAW hartree energy PS =       0.00000000 Ry
      -> PAW xc energy AE      =       0.00000000 Ry
      -> PAW xc energy PS      =       0.00000000 Ry
      -> total E_H with PAW    =     262.88958708 Ry
      -> total E_XC with PAW   =    -181.34349071 Ry

     convergence has been achieved in  72 iterations

     Writing all to output data dir bands_nm/myprefix.save/

     General routines

     Parallel routines

     PAW routines

   This run was terminated on:  17:15:57   9Jul2023

   JOB DONE.