     Program PWSCF v.7.1 starts on 17Jul2023 at  0:50:47

     Reading input from espresso_13335.pwi
Warning: card &CELL ignored
Warning: card / ignored

     Current dimensions of program PWSCF are:
     Max number of different atomic species (ntypx) = 10
     Max number of k-points (npk) =  40000
     Max angular momentum in pseudopotentials (lmaxx) =  4
     file La.paw.z_11.atompaw.wentzcovitch.v1.2.upf: wavefunction(s)  6S 0P 5D 0D 4F 0F renormalized
     file O.pbe-n-kjpaw_psl.0.1.UPF: wavefunction(s)  2P renormalized
     Message from routine setup:
     using ibrav=0 with symmetry is DISCOURAGED, use correct ibrav instead

     K-points division:     npool     =       2
     R & G space division:  proc/nbgrp/npool/nimage =       4
     Subspace diagonalization in iterative solution of the eigenvalue problem:
     one sub-group per band group will be used

     Using Slab Decomposition

     bravais-lattice index     =            0
     lattice parameter (alat)  =      11.4368  a.u.
     unit-cell volume          =    2202.9325 (a.u.)^3
     number of atoms/cell      =           20
     number of atomic types    =            4
     number of electrons       =       164.00
     number of Kohn-Sham states=          256
     kinetic-energy cutoff     =      30.0000  Ry
     charge density cutoff     =     240.0000  Ry
     scf convergence threshold =      1.0E-06
     mixing beta               =       0.7000
     number of iterations used =            8  plain     mixing
     Exchange-correlation= SLA  PW   PBX  PBC
                           (   1   4   3   4   0   0   0)

     celldm(1)=  11.436811  celldm(2)=   0.000000  celldm(3)=   0.000000
     celldm(4)=   0.000000  celldm(5)=   0.000000  celldm(6)=   0.000000

     crystal axes: (cart. coord. in units of alat)
               a(1) = (   1.000000   0.000000   0.000000 )
               a(2) = (   0.000020   1.027524   0.000000 )
               a(3) = (   0.007733   0.000009   1.433159 )

     reciprocal axes: (cart. coord. in units 2 pi/alat)
               b(1) = (  1.000000 -0.000019 -0.005396 )
               b(2) = (  0.000000  0.973213 -0.000006 )
               b(3) = (  0.000000  0.000000  0.697759 )

     PseudoPot. # 1 for Sr read from file:
     /lustre07/scratch/pragov/crystal_structure_design/utils/SSSP/Sr_pbe_v1.uspp.F.UPF
     MD5 check sum: 6b418c05fbe9db5448babca5e47b7a5b
     Pseudo is Ultrasoft + core correction, Zval = 10.0
     Generated by new atomic code, or converted to UPF format
     Using radial grid of  883 points,  6 beta functions with:
                l(1) =   0
                l(2) =   0
                l(3) =   1
                l(4) =   1
                l(5) =   2
                l(6) =   2
     Q(r) pseudized with  6 coefficients,  rinner =    1.400   1.400   1.400
                                                       1.400   1.400

     PseudoPot. # 2 for La read from file:
     /lustre07/scratch/pragov/crystal_structure_design/utils/SSSP/La.paw.z_11.atompaw.wentzcovitch.v1.2.upf
     MD5 check sum: 754494e15ae71f30e5b5f678af019e01
     Pseudo is Projector augmented-wave + core cor, Zval = 11.0
     Generated using ATOMPAW code
     Shape of augmentation charge: BESSEL
     Using radial grid of 1101 points,  8 beta functions with:
                l(1) =   0
                l(2) =   0
                l(3) =   1
                l(4) =   1
                l(5) =   2
                l(6) =   2
                l(7) =   3
                l(8) =   3
     Q(r) pseudized with 0 coefficients

     PseudoPot. # 3 for Bi read from file:
     /lustre07/scratch/pragov/crystal_structure_design/utils/SSSP/Bi_pbe_v1.uspp.F.UPF
     MD5 check sum: cceb9f28ec65b6d7ff33140f5b0b1758
     Pseudo is Ultrasoft + core correction, Zval = 15.0
     Generated by new atomic code, or converted to UPF format
     Using radial grid of  899 points,  6 beta functions with:
                l(1) =   0
                l(2) =   0
                l(3) =   1
                l(4) =   1
                l(5) =   2
                l(6) =   2
     Q(r) pseudized with  6 coefficients,  rinner =    1.000   1.000   1.000
                                                       1.000   1.000

     PseudoPot. # 4 for O  read from file:
     /lustre07/scratch/pragov/crystal_structure_design/utils/SSSP/O.pbe-n-kjpaw_psl.0.1.UPF
     MD5 check sum: 0234752ac141de4415c5fc33072bef88
     Pseudo is Projector augmented-wave + core cor, Zval =  6.0
     Generated using "atomic" code by A. Dal Corso  v.5.0.99 svn rev. 10869
     Shape of augmentation charge: BESSEL
     Using radial grid of 1095 points,  4 beta functions with:
                l(1) =   0
                l(2) =   0
                l(3) =   1
                l(4) =   1
     Q(r) pseudized with 0 coefficients

     atomic species   valence    mass     pseudopotential
        Sr            10.00    87.62000     Sr( 1.00)
        La            11.00   138.90547     La( 1.00)
        Bi            15.00   208.98040     Bi( 1.00)
        O              6.00    15.99900     O ( 1.00)

      2 Sym. Ops., with inversion, found

                                    s                        frac. trans.

      isym =  1     identity

 cryst.   s( 1) = (     1          0          0      )
                  (     0          1          0      )
                  (     0          0          1      )

 cart.    s( 1) = (  1.0000000  0.0000000  0.0000000 )
                  (  0.0000000  1.0000000  0.0000000 )
                  (  0.0000000  0.0000000  1.0000000 )

      isym =  2     inversion

 cryst.   s( 2) = (    -1          0          0      )
                  (     0         -1          0      )
                  (     0          0         -1      )

 cart.    s( 2) = ( -1.0000000  0.0000000 -0.0000000 )
                  (  0.0000000 -1.0000000  0.0000000 )
                  (  0.0000000  0.0000000 -1.0000000 )

   Cartesian axes

     site n.     atom                  positions (alat units)
         1           Sr  tau(   1) = (   0.5145831   0.5632849   0.3590751  )
         2           Sr  tau(   2) = (   0.9892658   0.0495207   0.3574508  )
         3           Sr  tau(   3) = (   0.4931696   0.4642485   1.0740839  )
         4           Sr  tau(   4) = (   0.0184869   0.9780127   1.0757082  )
         5           La  tau(   5) = (   0.5000000   0.0000000   0.0000000  )
         6           La  tau(   6) = (   0.0038764   0.5137667   0.7165795  )
         7           Bi  tau(   7) = (   0.0000100   0.5137620   0.0000000  )
         8           Bi  tau(   8) = (   0.5038664   0.0000047   0.7165795  )
         9           O   tau(   9) = (   0.1897226   0.2191196   1.3497945  )
        10           O   tau(  10) = (   0.3219036   0.7328337   0.7999664  )
        11           O   tau(  11) = (   0.8180301   0.8084138   0.0833645  )
        12           O   tau(  12) = (   0.6858491   0.2946998   0.6331926  )
        13           O   tau(  13) = (   0.2941977   0.7081596   1.3561323  )
        14           O   tau(  14) = (   0.2173774   0.1943835   0.7936349  )
        15           O   tau(  15) = (   0.7135550   0.3193739   0.0770267  )
        16           O   tau(  16) = (   0.7903753   0.8331499   0.6395241  )
        17           O   tau(  17) = (   0.3966454   0.9821203   0.3792470  )
        18           O   tau(  18) = (   0.1071995   0.4683417   0.3373627  )
        19           O   tau(  19) = (   0.6111073   0.0454131   1.0539120  )
        20           O   tau(  20) = (   0.9005532   0.5591917   1.0957963  )

   Crystallographic axes

     site n.     atom                  positions (cryst. coord.)
         1           Sr  tau(   1) = (  0.5126348  0.5481941  0.2505480  )
         2           Sr  tau(   2) = (  0.9873362  0.0481919  0.2494146  )
         3           Sr  tau(   3) = (  0.4873652  0.4518059  0.7494520  )
         4           Sr  tau(   4) = (  0.0126638  0.9518081  0.7505854  )
         5           La  tau(   5) = (  0.5000000  0.0000000  0.0000000  )
         6           La  tau(   6) = (  0.0000000  0.5000000  0.5000000  )
         7           Bi  tau(   7) = (  0.0000000  0.5000000  0.0000000  )
         8           Bi  tau(   8) = (  0.5000000 -0.0000000  0.5000000  )
         9           O   tau(   9) = (  0.1824354  0.2132415  0.9418316  )
        10           O   tau(  10) = (  0.3175731  0.7131983  0.5581840  )
        11           O   tau(  11) = (  0.8175646  0.7867585  0.0581684  )
        12           O   tau(  12) = (  0.6824269  0.2868017  0.4418160  )
        13           O   tau(  13) = (  0.2868668  0.6891816  0.9462539  )
        14           O   tau(  14) = (  0.2130915  0.1891715  0.5537661  )
        15           O   tau(  15) = (  0.7131332  0.3108184  0.0537461  )
        16           O   tau(  16) = (  0.7869085  0.8108285  0.4462339  )
        17           O   tau(  17) = (  0.3945801  0.9558102  0.2646231  )
        18           O   tau(  18) = (  0.1053701  0.4557942  0.2353980  )
        19           O   tau(  19) = (  0.6054199  0.0441899  0.7353769  )
        20           O   tau(  20) = (  0.8946299  0.5442058  0.7646020  )

     number of k points=    14
                       cart. coord. in units 2pi/alat
        k(    1) = (   0.0000000   0.0000000   0.0000000), wk =   0.0740741
        k(    2) = (   0.0000000   0.0000000   0.2325864), wk =   0.1481481
        k(    3) = (   0.0000000   0.3244044  -0.0000021), wk =   0.1481481
        k(    4) = (   0.0000000   0.3244044   0.2325843), wk =   0.1481481
        k(    5) = (   0.0000000   0.3244044  -0.2325886), wk =   0.1481481
        k(    6) = (   0.3333333  -0.0000065  -0.0017985), wk =   0.1481481
        k(    7) = (   0.3333333  -0.0000065   0.2307879), wk =   0.1481481
        k(    8) = (   0.3333333  -0.0000065  -0.2343850), wk =   0.1481481
        k(    9) = (   0.3333333   0.3243980  -0.0018007), wk =   0.1481481
        k(   10) = (   0.3333333   0.3243980   0.2307857), wk =   0.1481481
        k(   11) = (   0.3333333   0.3243980  -0.2343871), wk =   0.1481481
        k(   12) = (   0.3333333  -0.3244109  -0.0017964), wk =   0.1481481
        k(   13) = (   0.3333333  -0.3244109   0.2307900), wk =   0.1481481
        k(   14) = (   0.3333333  -0.3244109  -0.2343828), wk =   0.1481481

                       cryst. coord.
        k(    1) = (   0.0000000   0.0000000   0.0000000), wk =   0.0740741
        k(    2) = (   0.0000000   0.0000000   0.3333333), wk =   0.1481481
        k(    3) = (   0.0000000   0.3333333   0.0000000), wk =   0.1481481
        k(    4) = (   0.0000000   0.3333333   0.3333333), wk =   0.1481481
        k(    5) = (   0.0000000   0.3333333  -0.3333333), wk =   0.1481481
        k(    6) = (   0.3333333   0.0000000   0.0000000), wk =   0.1481481
        k(    7) = (   0.3333333   0.0000000   0.3333333), wk =   0.1481481
        k(    8) = (   0.3333333   0.0000000  -0.3333333), wk =   0.1481481
        k(    9) = (   0.3333333   0.3333333   0.0000000), wk =   0.1481481
        k(   10) = (   0.3333333   0.3333333   0.3333333), wk =   0.1481481
        k(   11) = (   0.3333333   0.3333333  -0.3333333), wk =   0.1481481
        k(   12) = (   0.3333333  -0.3333333   0.0000000), wk =   0.1481481
        k(   13) = (   0.3333333  -0.3333333   0.3333333), wk =   0.1481481
        k(   14) = (   0.3333333  -0.3333333  -0.3333333), wk =   0.1481481

     Check: negative core charge=   -0.000011

     Initial potential from superposition of free atoms

     starting charge     161.8482, renormalised to     164.0000

     negative rho (up, down):  3.437E-01 0.000E+00
     Starting wfcs are  182 randomized atomic wfcs +   74 random wfcs
     Checking if some PAW data can be deallocated...

     Self-consistent Calculation

     iteration #  1     ecut=    30.00 Ry     beta= 0.70
     Davidson diagonalization with overlap

     ethr =  1.00E-02,  avg # of iterations =  6.0

     negative rho (up, down):  3.423E-01 0.000E+00

     total energy              =   -2066.42522647 Ry
     estimated scf accuracy    <       4.48321221 Ry

[...]

     total energy              =   -2068.58839584 Ry
     estimated scf accuracy    <       0.00000974 Ry

     iteration # 10     ecut=    30.00 Ry     beta= 0.70
     Davidson diagonalization with overlap

     ethr =  5.94E-09,  avg # of iterations =  1.0

     negative rho (up, down):  3.573E-01 0.000E+00

     End of self-consistent calculation

          k = 0.0000 0.0000 0.0000 (  6121 PWs)   bands (ev):

   -24.5190 -24.5125 -24.5042 -24.4999 -21.4067 -21.4042 -13.7324 -13.7317
   -13.7101 -13.7084 -13.3851 -13.3850 -13.3802 -13.3793 -13.3661 -13.3660
    -9.2561  -9.0209  -8.9590  -8.9570  -8.7026  -8.6316  -8.5613  -8.5547
    -7.8914  -7.8292  -7.5772  -7.5174  -6.6325  -6.5763  -6.5693  -6.5276
    -6.5086  -6.4840  -6.4152  -6.2416  -6.2292  -6.1723  -6.0173  -5.9996
    -4.6734  -4.6528  -4.6291  -4.6235  -4.5814  -4.5804  -0.3609  -0.2384
     4.9059   4.9733   5.1414   5.1566   5.2331   5.2910   5.3559   5.8990
     5.9668   6.0513   6.2592   6.2718   6.3588   6.4638   6.8431   6.8441
     6.9304   6.9719   7.0430   7.0467   7.0655   7.1561   7.2149   7.2366
     7.3455   7.4183   7.4301   7.4642   7.4999   7.5032   7.5035   7.5473
     7.6189   7.7258   9.6911  10.0553  13.4662  13.4922  13.6022  13.6306
    13.6329  13.6569  13.6715  13.7078  13.7126  13.7236  13.7542  13.7583
    13.7865  13.7967  13.8589  13.9072  13.9542  14.1041  14.2057  14.2337
    14.4236  14.5850  14.7050  14.7650  14.7920  14.9607  15.2143  15.6332
    15.6357  15.6986  15.8292  16.1830  16.2510  16.4208  16.6936  16.7071
    16.9016  17.0092  17.0371  17.2358  17.2477  17.2937  17.5476  17.5882
    17.5911  17.7021  18.0212  18.0953  18.2659  18.4415  18.4886  18.7294
    18.8644  19.2667  19.7060  19.9237  20.1272  20.4807  20.5932  20.9184
    21.3693  21.5237  21.8878  22.1472  22.2628  22.2700  22.5078  22.7459
    22.8644  23.1871  23.6364  23.7772  23.9490  24.0684  24.3497  24.6282
    24.8164  25.0920  25.6242  25.7042  25.9912  25.9932  26.0772  26.1894
    26.5244  26.8652  26.8821  27.1182  27.5339  27.7579  27.8381  28.1944
    28.2829  28.3193  28.3249  28.8019  28.9029  29.1141  29.1244  29.2586
    29.4371  29.5369  29.7406  29.8313  30.0477  30.3057  30.3699  30.5949
    30.6761  31.0975  31.1420  31.4851  31.5897  31.7780  31.7995  31.8718
    32.0561  32.1084  32.3742  32.4742  32.5996  32.7802  33.0486  33.0978
    33.4289  33.4407  33.5653  33.5864  33.7992  33.8260  34.2339  34.2613
    34.6233  34.7044  34.8239  34.8426  35.0453  35.4117  35.4691  35.4752
    35.5077  35.5466  35.7528  36.0571  36.0588  36.1631  36.1695  36.6281
    36.7398  36.8070  36.9024  36.9687  36.9899  37.1401  37.1527  37.4604
    37.4664  37.6083  37.8388  37.8879  37.9480  37.9787  38.0392  38.0410
    38.2917  38.4106  38.4222  38.7685  38.7709  38.8855  39.0684  39.2503

     occupation numbers
     1.0000   1.0000   1.0000   1.0000   1.0000   1.0000   1.0000   1.0000
     1.0000   1.0000   1.0000   1.0000   1.0000   1.0000   1.0000   1.0000
     1.0000   1.0000   1.0000   1.0000   1.0000   1.0000   1.0000   1.0000
     1.0000   1.0000   1.0000   1.0000   1.0000   1.0000   1.0000   1.0000
     1.0000   1.0000   1.0000   1.0000   1.0000   1.0000   1.0000   1.0000
     1.0000   1.0000   1.0000   1.0000   1.0000   1.0000   1.0000   1.0000
     1.0000   1.0000   1.0000   1.0000   1.0000   1.0000   1.0000   1.0000
     1.0000   1.0000   1.0000   1.0000   1.0000   1.0000   1.0000   1.0000
     1.0000   1.0000   1.0000   1.0000   1.0000   1.0000   1.0000   1.0000
     1.0000   1.0000   1.0000   1.0000   1.0000   1.0000   1.0000   1.0000
     1.0000   1.0000   0.0000   0.0000   0.0000   0.0000   0.0000   0.0000
     0.0000   0.0000   0.0000   0.0000   0.0000   0.0000   0.0000   0.0000
     0.0000   0.0000   0.0000   0.0000   0.0000   0.0000   0.0000   0.0000
     0.0000   0.0000   0.0000   0.0000   0.0000   0.0000   0.0000   0.0000
     0.0000   0.0000   0.0000   0.0000   0.0000   0.0000   0.0000   0.0000
     0.0000   0.0000   0.0000   0.0000   0.0000   0.0000   0.0000   0.0000
     0.0000   0.0000   0.0000   0.0000   0.0000   0.0000   0.0000   0.0000
     0.0000   0.0000   0.0000   0.0000   0.0000   0.0000   0.0000   0.0000
     0.0000   0.0000   0.0000   0.0000   0.0000   0.0000   0.0000   0.0000
     0.0000   0.0000   0.0000   0.0000   0.0000   0.0000   0.0000   0.0000
     0.0000   0.0000   0.0000   0.0000   0.0000   0.0000   0.0000   0.0000
     0.0000   0.0000   0.0000   0.0000   0.0000   0.0000   0.0000   0.0000
     0.0000   0.0000   0.0000   0.0000   0.0000   0.0000   0.0000   0.0000
     0.0000   0.0000   0.0000   0.0000   0.0000   0.0000   0.0000   0.0000
     0.0000   0.0000   0.0000   0.0000   0.0000   0.0000   0.0000   0.0000
     0.0000   0.0000   0.0000   0.0000   0.0000   0.0000   0.0000   0.0000
     0.0000   0.0000   0.0000   0.0000   0.0000   0.0000   0.0000   0.0000
     0.0000   0.0000   0.0000   0.0000   0.0000   0.0000   0.0000   0.0000
     0.0000   0.0000   0.0000   0.0000   0.0000   0.0000   0.0000   0.0000
     0.0000   0.0000   0.0000   0.0000   0.0000   0.0000   0.0000   0.0000
     0.0000   0.0000   0.0000   0.0000   0.0000   0.0000   0.0000   0.0000
     0.0000   0.0000   0.0000   0.0000   0.0000   0.0000   0.0000   0.0000

[...]

          k = 0.3333-0.3244-0.2344 (  6122 PWs)   bands (ev):

   -24.5117 -24.5094 -24.5076 -24.5057 -21.4065 -21.4058 -13.7335 -13.7318
   -13.7111 -13.7086 -13.3850 -13.3847 -13.3796 -13.3794 -13.3660 -13.3658
    -9.4421  -9.3924  -8.8258  -8.7461  -8.6281  -8.5931  -8.4184  -8.3843
    -7.9146  -7.7798  -7.7403  -7.6533  -6.5632  -6.5505  -6.5074  -6.4895
    -6.4583  -6.4151  -6.4014  -6.3228  -6.2659  -6.1839  -6.1245  -6.0523
    -4.7961  -4.7780  -4.6347  -4.6095  -4.4439  -4.4327  -0.0663  -0.0371
     4.4494   4.4864   4.5982   4.6892   4.9743   5.0527   5.7705   5.8778
     6.1792   6.3400   6.3743   6.4669   6.5169   6.6000   6.6821   6.7388
     6.8346   6.9083   6.9527   7.0173   7.0571   7.0726   7.1707   7.2142
     7.2856   7.3085   7.3826   7.4424   7.5164   7.5842   7.6224   7.7052
     7.7532   7.8756  10.2236  10.2852  13.4140  13.4332  13.5246  13.5922
    13.6677  13.6834  13.6965  13.7141  13.7392  13.7775  13.7963  13.8096
    13.8300  13.8584  13.9079  13.9395  13.9762  14.0416  14.1199  14.2456
    14.4395  14.5898  14.7323  15.0248  15.2020  15.2074  15.5026  15.5656
    15.6903  15.7718  15.8199  15.9777  16.1439  16.2317  16.5707  16.6084
    16.7031  16.7256  16.8546  17.0057  17.1580  17.1895  17.2923  17.5547
    17.6310  17.7193  17.8686  18.1811  18.5458  18.7358  19.0581  19.1580
    19.2504  19.4395  19.4784  19.6923  19.9896  20.2522  20.3487  20.5820
    21.2972  21.6631  21.8464  22.1527  22.1758  22.5491  22.8150  22.9602
    22.9761  23.2137  23.6100  23.8394  23.9438  24.2037  24.3246  24.6022
    24.6664  25.0358  25.2752  25.4081  25.6274  25.8998  26.2291  26.2908
    26.6470  26.7113  26.9435  27.1899  27.2797  27.7684  27.8361  28.1570
    28.1826  28.3551  28.4496  28.6735  28.9779  29.0293  29.1660  29.2288
    29.5708  29.8351  30.0492  30.0907  30.3209  30.4227  30.5400  30.6551
    30.7935  30.9287  31.1059  31.1856  31.2651  31.3321  31.4773  31.7346
    31.8499  31.9193  32.2070  32.4494  32.5174  32.7748  33.0034  33.0877
    33.1960  33.3329  33.5306  33.5738  33.7794  33.8731  34.0911  34.3207
    34.4825  34.5844  34.7803  34.9382  35.2566  35.3965  35.4675  35.4707
    35.4993  35.6524  35.7383  36.0063  36.0610  36.0900  36.2046  36.3300
    36.4252  36.6262  36.7495  36.8738  36.9765  37.1081  37.1615  37.2944
    37.4333  37.4921  37.6811  37.7815  37.9150  38.0193  38.1083  38.2024
    38.2724  38.4952  38.5358  38.7578  38.7637  38.9684  39.0458  39.0895

     occupation numbers
     1.0000   1.0000   1.0000   1.0000   1.0000   1.0000   1.0000   1.0000
     1.0000   1.0000   1.0000   1.0000   1.0000   1.0000   1.0000   1.0000
     1.0000   1.0000   1.0000   1.0000   1.0000   1.0000   1.0000   1.0000
     1.0000   1.0000   1.0000   1.0000   1.0000   1.0000   1.0000   1.0000
     1.0000   1.0000   1.0000   1.0000   1.0000   1.0000   1.0000   1.0000
     1.0000   1.0000   1.0000   1.0000   1.0000   1.0000   1.0000   1.0000
     1.0000   1.0000   1.0000   1.0000   1.0000   1.0000   1.0000   1.0000
     1.0000   1.0000   1.0000   1.0000   1.0000   1.0000   1.0000   1.0000
     1.0000   1.0000   1.0000   1.0000   1.0000   1.0000   1.0000   1.0000
     1.0000   1.0000   1.0000   1.0000   1.0000   1.0000   1.0000   1.0000
     1.0000   1.0000   0.0000   0.0000   0.0000   0.0000   0.0000   0.0000
     0.0000   0.0000   0.0000   0.0000   0.0000   0.0000   0.0000   0.0000
     0.0000   0.0000   0.0000   0.0000   0.0000   0.0000   0.0000   0.0000
     0.0000   0.0000   0.0000   0.0000   0.0000   0.0000   0.0000   0.0000
     0.0000   0.0000   0.0000   0.0000   0.0000   0.0000   0.0000   0.0000
     0.0000   0.0000   0.0000   0.0000   0.0000   0.0000   0.0000   0.0000
     0.0000   0.0000   0.0000   0.0000   0.0000   0.0000   0.0000   0.0000
     0.0000   0.0000   0.0000   0.0000   0.0000   0.0000   0.0000   0.0000
     0.0000   0.0000   0.0000   0.0000   0.0000   0.0000   0.0000   0.0000
     0.0000   0.0000   0.0000   0.0000   0.0000   0.0000   0.0000   0.0000
     0.0000   0.0000   0.0000   0.0000   0.0000   0.0000   0.0000   0.0000
     0.0000   0.0000   0.0000   0.0000   0.0000   0.0000   0.0000   0.0000
     0.0000   0.0000   0.0000   0.0000   0.0000   0.0000   0.0000   0.0000
     0.0000   0.0000   0.0000   0.0000   0.0000   0.0000   0.0000   0.0000
     0.0000   0.0000   0.0000   0.0000   0.0000   0.0000   0.0000   0.0000
     0.0000   0.0000   0.0000   0.0000   0.0000   0.0000   0.0000   0.0000
     0.0000   0.0000   0.0000   0.0000   0.0000   0.0000   0.0000   0.0000
     0.0000   0.0000   0.0000   0.0000   0.0000   0.0000   0.0000   0.0000
     0.0000   0.0000   0.0000   0.0000   0.0000   0.0000   0.0000   0.0000
     0.0000   0.0000   0.0000   0.0000   0.0000   0.0000   0.0000   0.0000
     0.0000   0.0000   0.0000   0.0000   0.0000   0.0000   0.0000   0.0000
     0.0000   0.0000   0.0000   0.0000   0.0000   0.0000   0.0000   0.0000

     highest occupied, lowest unoccupied level (ev):     7.9137    9.6911

!    total energy              =   -2068.58839723 Ry
     estimated scf accuracy    <       0.00000024 Ry

     The total energy is the sum of the following terms:
     one-electron contribution =    -268.44158739 Ry
     hartree contribution      =     237.61973851 Ry
     xc contribution           =    -318.89560722 Ry
     ewald contribution        =    -817.26917002 Ry
     one-center paw contrib.   =    -901.60177111 Ry
      -> PAW hartree energy AE =       0.00000000 Ry
      -> PAW hartree energy PS =       0.00000000 Ry
      -> PAW xc energy AE      =       0.00000000 Ry
      -> PAW xc energy PS      =       0.00000000 Ry
      -> total E_H with PAW    =     237.61973851 Ry
      -> total E_XC with PAW   =    -318.89560722 Ry

     convergence has been achieved in  10 iterations

     Writing all to output data dir bands_nm/myprefix.save/

     General routines

     Parallel routines

     PAW routines

   This run was terminated on:   0:52: 8  17Jul2023

   JOB DONE.