     Program PWSCF v.7.1 starts on 16Jul2023 at 12:55:39

     Reading input from espresso_3640.pwi
Warning: card &CELL ignored
Warning: card / ignored

     Current dimensions of program PWSCF are:
     Max number of different atomic species (ntypx) = 10
     Max number of k-points (npk) =  40000
     Max angular momentum in pseudopotentials (lmaxx) =  4
     file Nd.paw.z_14.atompaw.wentzcovitch.v1.2.upf: wavefunction(s)  6S 0P 5D 0D 0F renormalized
     file O.pbe-n-kjpaw_psl.0.1.UPF: wavefunction(s)  2P renormalized
     Message from routine setup:
     using ibrav=0 with symmetry is DISCOURAGED, use correct ibrav instead

     K-points division:     npool     =       2
     R & G space division:  proc/nbgrp/npool/nimage =       4
     Subspace diagonalization in iterative solution of the eigenvalue problem:
     a serial algorithm will be used

     Using Slab Decomposition

     bravais-lattice index     =            0
     lattice parameter (alat)  =      13.9405  a.u.
     unit-cell volume          =    1637.2492 (a.u.)^3
     number of atoms/cell      =           12
     number of atomic types    =            3
     number of electrons       =       104.00
     number of Kohn-Sham states=           64
     kinetic-energy cutoff     =      30.0000  Ry
     charge density cutoff     =     240.0000  Ry
     scf convergence threshold =      1.0E-06
     mixing beta               =       0.7000
     number of iterations used =            8  plain     mixing
     Exchange-correlation= SLA  PW   PBX  PBC
                           (   1   4   3   4   0   0   0)

     celldm(1)=  13.940474  celldm(2)=   0.000000  celldm(3)=   0.000000
     celldm(4)=   0.000000  celldm(5)=   0.000000  celldm(6)=   0.000000

     crystal axes: (cart. coord. in units of alat)
               a(1) = (   1.000000   0.000000   0.000000 )
               a(2) = (  -0.669064   0.743204   0.000000 )
               a(3) = (   0.000000   0.000000   0.813156 )

     reciprocal axes: (cart. coord. in units 2 pi/alat)
               b(1) = (  1.000000  0.900243  0.000000 )
               b(2) = (  0.000000  1.345525  0.000000 )
               b(3) = (  0.000000  0.000000  1.229776 )

     PseudoPot. # 1 for Nd read from file:
     /lustre07/scratch/pragov/crystal_structure_design/utils/SSSP/Nd.paw.z_14.atompaw.wentzcovitch.v1.2.upf
     MD5 check sum: 8a77231a7dfbac907351543c5ef6bfc9
     Pseudo is Projector augmented-wave + core cor, Zval = 14.0
     Generated using ATOMPAW code
     Shape of augmentation charge: BESSEL
     Using radial grid of 1105 points,  8 beta functions with:
                l(1) =   0
                l(2) =   0
                l(3) =   1
                l(4) =   1
                l(5) =   2
                l(6) =   2
                l(7) =   3
                l(8) =   3
     Q(r) pseudized with 0 coefficients

     PseudoPot. # 2 for Se read from file:
     /lustre07/scratch/pragov/crystal_structure_design/utils/SSSP/Se_pbe_v1.uspp.F.UPF
     MD5 check sum: 1b3568f3a8ae88f9a2a0ad0698632c85
     Pseudo is Ultrasoft + core correction, Zval =  6.0
     Generated by new atomic code, or converted to UPF format
     Using radial grid of  877 points,  6 beta functions with:
                l(1) =   0
                l(2) =   0
                l(3) =   1
                l(4) =   1
                l(5) =   2
                l(6) =   2
     Q(r) pseudized with  8 coefficients,  rinner =    1.300   1.300   1.300
                                                       1.300   1.300

     PseudoPot. # 3 for O  read from file:
     /lustre07/scratch/pragov/crystal_structure_design/utils/SSSP/O.pbe-n-kjpaw_psl.0.1.UPF
     MD5 check sum: 0234752ac141de4415c5fc33072bef88
     Pseudo is Projector augmented-wave + core cor, Zval =  6.0
     Generated using "atomic" code by A. Dal Corso  v.5.0.99 svn rev. 10869
     Shape of augmentation charge: BESSEL
     Using radial grid of 1095 points,  4 beta functions with:
                l(1) =   0
                l(2) =   0
                l(3) =   1
                l(4) =   1
     Q(r) pseudized with 0 coefficients

     atomic species   valence    mass     pseudopotential
        Nd            14.00   144.24200     Nd( 1.00)
        Se             6.00    78.97100     Se( 1.00)
        O              6.00    15.99900     O ( 1.00)

      4 Sym. Ops., with inversion, found ( 2 have fractional translation)

                                    s                        frac. trans.

      isym =  1     identity

 cryst.   s( 1) = (     1          0          0      )
                  (     0          1          0      )
                  (     0          0          1      )

 cart.    s( 1) = (  1.0000000 -0.0000000  0.0000000 )
                  (  0.0000000  1.0000000  0.0000000 )
                  (  0.0000000  0.0000000  1.0000000 )

      isym =  2     180 deg rotation - cart. axis [0,0,1]

 cryst.   s( 2) = (    -1          0          0      )    f =(  0.5000000 )
                  (     0         -1          0      )       (  0.5000000 )
                  (     0          0          1      )       ( -0.5000000 )

 cart.    s( 2) = ( -1.0000000  0.0000000  0.0000000 )    f =(  0.1654678 )
                  (  0.0000000 -1.0000000  0.0000000 )       (  0.3716022 )
                  (  0.0000000  0.0000000  1.0000000 )       ( -0.4065780 )

      isym =  3     inversion

 cryst.   s( 3) = (    -1          0          0      )
                  (     0         -1          0      )
                  (     0          0         -1      )

 cart.    s( 3) = ( -1.0000000  0.0000000  0.0000000 )
                  (  0.0000000 -1.0000000  0.0000000 )
                  (  0.0000000  0.0000000 -1.0000000 )

      isym =  4     inv. 180 deg rotation - cart. axis [0,0,1]

 cryst.   s( 4) = (     1          0          0      )    f =( -0.5000000 )
                  (     0          1          0      )       (  0.5000000 )
                  (     0          0         -1      )       (  0.5000000 )

 cart.    s( 4) = (  1.0000000 -0.0000000  0.0000000 )    f =( -0.8345322 )
                  (  0.0000000  1.0000000  0.0000000 )       (  0.3716022 )
                  (  0.0000000  0.0000000 -1.0000000 )       (  0.4065780 )

   Cartesian axes

     site n.     atom                  positions (alat units)
         1           Nd  tau(   1) = (  -0.1141021   0.4960897   0.0000000  )
         2           Nd  tau(   2) = (  -0.3894944   0.6187170   0.4065780  )
         3           Nd  tau(   3) = (   0.7204301   0.1244875   0.4065780  )
         4           Nd  tau(   4) = (   0.4450378   0.2471147   0.0000000  )
         5           Se  tau(   5) = (   0.2834626   0.6365910   0.6962452  )
         6           Se  tau(   6) = (   0.1179948   0.2649888   0.5234886  )
         7           Se  tau(   7) = (   0.0474730   0.1066134   0.1169107  )
         8           Se  tau(   8) = (   0.2129409   0.4782157   0.2896673  )
         9           O   tau(   9) = (  -0.1708177   0.7392670   0.6098669  )
        10           O   tau(  10) = (  -0.3327789   0.3755397   0.2032890  )
        11           O   tau(  11) = (   0.5017533   0.0039375   0.2032890  )
        12           O   tau(  12) = (   0.6637145   0.3676647   0.6098669  )

   Crystallographic axes

     site n.     atom                  positions (cryst. coord.)
         1           Nd  tau(   1) = (  0.3324990  0.6675010  0.0000000  )
         2           Nd  tau(   2) = (  0.1675010  0.8324990  0.5000000  )
         3           Nd  tau(   3) = (  0.8324990  0.1675010  0.5000000  )
         4           Nd  tau(   4) = (  0.6675010  0.3324990  0.0000000  )
         5           Se  tau(   5) = (  0.8565490  0.8565490  0.8562260  )
         6           Se  tau(   6) = (  0.3565490  0.3565490  0.6437740  )
         7           Se  tau(   7) = (  0.1434510  0.1434510  0.1437740  )
         8           Se  tau(   8) = (  0.6434510  0.6434510  0.3562260  )
         9           O   tau(   9) = (  0.4947020  0.9947020  0.7500000  )
        10           O   tau(  10) = (  0.0052980  0.5052980  0.2500000  )
        11           O   tau(  11) = (  0.5052980  0.0052980  0.2500000  )
        12           O   tau(  12) = (  0.9947020  0.4947020  0.7500000  )

     number of k points=    10
                       cart. coord. in units 2pi/alat
        k(    1) = (   0.0000000   0.0000000   0.0000000), wk =   0.0740741
        k(    2) = (   0.0000000   0.0000000   0.4099255), wk =   0.1481481
        k(    3) = (   0.0000000   0.4485082   0.0000000), wk =   0.1481481
        k(    4) = (   0.0000000   0.4485082   0.4099255), wk =   0.2962963
        k(    5) = (   0.3333333   0.3000809   0.0000000), wk =   0.1481481
        k(    6) = (   0.3333333   0.3000809   0.4099255), wk =   0.2962963
        k(    7) = (   0.3333333   0.7485891   0.0000000), wk =   0.1481481
        k(    8) = (   0.3333333   0.7485891   0.4099255), wk =   0.2962963
        k(    9) = (   0.3333333  -0.1484274   0.0000000), wk =   0.1481481
        k(   10) = (   0.3333333  -0.1484274   0.4099255), wk =   0.2962963

                       cryst. coord.
        k(    1) = (   0.0000000   0.0000000   0.0000000), wk =   0.0740741
        k(    2) = (   0.0000000   0.0000000   0.3333333), wk =   0.1481481
        k(    3) = (   0.0000000   0.3333333   0.0000000), wk =   0.1481481
        k(    4) = (   0.0000000   0.3333333   0.3333333), wk =   0.2962963
        k(    5) = (   0.3333333   0.0000000   0.0000000), wk =   0.1481481
        k(    6) = (   0.3333333   0.0000000   0.3333333), wk =   0.2962963
        k(    7) = (   0.3333333   0.3333333   0.0000000), wk =   0.1481481
        k(    8) = (   0.3333333   0.3333333   0.3333333), wk =   0.2962963
        k(    9) = (   0.3333333  -0.3333333   0.0000000), wk =   0.1481481
        k(   10) = (   0.3333333  -0.3333333   0.3333333), wk =   0.2962963

     Check: negative core charge=   -0.000005

     Initial potential from superposition of free atoms

     starting charge     103.9750, renormalised to     104.0000
     Starting wfcs are  160 randomized atomic wfcs
     Checking if some PAW data can be deallocated...

     Self-consistent Calculation

     iteration #  1     ecut=    30.00 Ry     beta= 0.70
     Davidson diagonalization with overlap

     ethr =  1.00E-02,  avg # of iterations =  1.2

     total energy              =   -2488.65372354 Ry
     estimated scf accuracy    <       3.62792441 Ry

[...]

     c_bands:  1 eigenvalues not converged
     ethr =  1.38E-05,  avg # of iterations = 12.8

[...]

     c_bands:  1 eigenvalues not converged
     ethr =  2.23E-06,  avg # of iterations = 12.5

[...]

     total energy              =   -2491.39608414 Ry
     estimated scf accuracy    <       0.00000162 Ry

     iteration # 63     ecut=    30.00 Ry     beta= 0.70
     Davidson diagonalization with overlap

     ethr =  1.55E-09,  avg # of iterations =  3.1

     End of self-consistent calculation

          k = 0.0000 0.0000 0.0000 (  4521 PWs)   bands (ev):

   -26.7708 -26.6954 -26.6940 -26.6694 -10.1404 -10.1341  -9.6960  -8.1441
    -8.1425  -8.1190  -8.1052  -7.9459  -7.9213  -7.9142  -7.8632  -7.8122
    -7.8110  -6.5413  -5.6190  -5.5861  -4.4908  -3.4460  -1.7126  -1.7040
     4.7127   4.7879   5.2852   5.4172   5.8812   5.8845   6.0327   6.0567
     6.2536   6.2933   6.5264   6.6323   6.6411   6.9319   7.0417   7.0634
     7.2080   7.2262   7.2901   8.1170   8.2842  10.0708  10.2565  10.3393
    10.3671  10.3825  10.3860  10.4079  10.4080  10.4212  10.4733  10.4991
    10.5027  10.5138  10.5472  10.5484  10.5701  10.5929  10.6058  10.6220

     occupation numbers
     1.0000   1.0000   1.0000   1.0000   1.0000   1.0000   1.0000   1.0000
     1.0000   1.0000   1.0000   1.0000   1.0000   1.0000   1.0000   1.0000
     1.0000   1.0000   1.0000   1.0000   1.0000   1.0000   1.0000   1.0000
     1.0000   1.0000   1.0000   1.0000   1.0000   1.0000   1.0000   1.0000
     1.0000   1.0000   1.0000   1.0000   1.0000   1.0000   1.0000   1.0000
     1.0000   1.0000   1.0000   1.0000   1.0000   1.0000   1.0000   1.0000
     1.0000   1.0000   1.0000   1.0000   0.0000   0.0000   0.0000   0.0000
     0.0000   0.0000   0.0000   0.0000   0.0000   0.0000   0.0000   0.0000

[...]

          k = 0.3333-0.1484 0.4099 (  4555 PWs)   bands (ev):

   -26.7507 -26.7131 -26.6891 -26.6770 -10.0214  -9.8837  -9.7871  -9.1559
    -8.2344  -8.2018  -8.0303  -7.9329  -7.8927  -7.8547  -7.8489  -7.8345
    -6.8860  -6.1208  -5.9597  -5.7447  -4.3652  -3.8206  -1.6434  -1.6261
     4.3511   4.8116   5.3638   5.5251   5.6687   5.8791   5.8812   6.1046
     6.1581   6.2011   6.4259   6.5720   6.7643   7.0222   7.0891   7.2488
     7.2773   7.8049   7.9238   8.3829   8.4440   9.3682  10.3186  10.3224
    10.3467  10.3513  10.3612  10.3738  10.4003  10.4409  10.4473  10.4578
    10.4992  10.5060  10.5389  10.5641  10.5918  10.5951  10.6028  10.6115

     occupation numbers
     1.0000   1.0000   1.0000   1.0000   1.0000   1.0000   1.0000   1.0000
     1.0000   1.0000   1.0000   1.0000   1.0000   1.0000   1.0000   1.0000
     1.0000   1.0000   1.0000   1.0000   1.0000   1.0000   1.0000   1.0000
     1.0000   1.0000   1.0000   1.0000   1.0000   1.0000   1.0000   1.0000
     1.0000   1.0000   1.0000   1.0000   1.0000   1.0000   1.0000   1.0000
     1.0000   1.0000   1.0000   1.0000   1.0000   1.0000   1.0000   1.0000
     1.0000   1.0000   1.0000   1.0000   0.0000   0.0000   0.0000   0.0000
     0.0000   0.0000   0.0000   0.0000   0.0000   0.0000   0.0000   0.0000

     highest occupied, lowest unoccupied level (ev):    10.4079   10.3922

!    total energy              =   -2491.39608355 Ry
     estimated scf accuracy    <       0.00000096 Ry

     The total energy is the sum of the following terms:
     one-electron contribution =    -196.23186354 Ry
     hartree contribution      =     175.32845983 Ry
     xc contribution           =    -204.09807700 Ry
     ewald contribution        =    -508.58109715 Ry
     one-center paw contrib.   =   -1757.81350569 Ry
      -> PAW hartree energy AE =     160.11718937 Ry
      -> PAW hartree energy PS =    -159.10552396 Ry
      -> PAW xc energy AE      =    -885.81079405 Ry
      -> PAW xc energy PS      =      24.94469680 Ry
      -> total E_H with PAW    =     176.34012524 Ry
      -> total E_XC with PAW   =   -1064.96417424 Ry

     convergence has been achieved in  63 iterations

     Writing all to output data dir bands_nm/myprefix.save/

     General routines

     Parallel routines

     PAW routines

   This run was terminated on:  12:57: 1  16Jul2023

   JOB DONE.