     Program PWSCF v.7.1 starts on 16Jul2023 at 22:52: 9

     Reading input from espresso_24425.pwi
Warning: card &CELL ignored
Warning: card / ignored

     Current dimensions of program PWSCF are:
     Max number of different atomic species (ntypx) = 10
     Max number of k-points (npk) =  40000
     Max angular momentum in pseudopotentials (lmaxx) =  4
     file Fe.pbe-spn-kjpaw_psl.0.2.1.UPF: wavefunction(s)  3D renormalized
     file O.pbe-n-kjpaw_psl.0.1.UPF: wavefunction(s)  2P renormalized
     Message from routine setup:
     using ibrav=0 with symmetry is DISCOURAGED, use correct ibrav instead

     K-points division:     npool     =       2
     R & G space division:  proc/nbgrp/npool/nimage =       4
     Subspace diagonalization in iterative solution of the eigenvalue problem:
     one sub-group per band group will be used

     Using Slab Decomposition

     bravais-lattice index     =            0
     lattice parameter (alat)  =       6.2049  a.u.
     unit-cell volume          =    1275.2464 (a.u.)^3
     number of atoms/cell      =           18
     number of atomic types    =            3
     number of electrons       =       136.00
     number of Kohn-Sham states=          256
     kinetic-energy cutoff     =      30.0000  Ry
     charge density cutoff     =     240.0000  Ry
     scf convergence threshold =      1.0E-06
     mixing beta               =       0.7000
     number of iterations used =            8  plain     mixing
     Exchange-correlation= SLA  PW   PBX  PBC
                           (   1   4   3   4   0   0   0)

     celldm(1)=   6.204950  celldm(2)=   0.000000  celldm(3)=   0.000000
     celldm(4)=   0.000000  celldm(5)=   0.000000  celldm(6)=   0.000000

     crystal axes: (cart. coord. in units of alat)
               a(1) = (   1.000000   0.000000   0.000000 )
               a(2) = (  -0.059849   1.905079   0.000000 )
               a(3) = (  -0.054288  -0.760147   2.801989 )

     reciprocal axes: (cart. coord. in units 2 pi/alat)
               b(1) = (  1.000000  0.031415  0.027897 )
               b(2) = (  0.000000  0.524913  0.142403 )
               b(3) = (  0.000000  0.000000  0.356889 )

     PseudoPot. # 1 for Fe read from file:
     /lustre07/scratch/pragov/crystal_structure_design/utils/SSSP/Fe.pbe-spn-kjpaw_psl.0.2.1.UPF
     MD5 check sum: e86618425769142926afa95317d90200
     Pseudo is Projector augmented-wave + core cor, Zval = 16.0
     Generated using "atomic" code by A. Dal Corso  v.5.0.99 svn rev. 10869
     Shape of augmentation charge: PSQ
     Using radial grid of 1191 points,  6 beta functions with:
                l(1) =   0
                l(2) =   0
                l(3) =   1
                l(4) =   1
                l(5) =   2
                l(6) =   2
     Q(r) pseudized with 0 coefficients

     PseudoPot. # 2 for B  read from file:
     /lustre07/scratch/pragov/crystal_structure_design/utils/SSSP/b_pbe_v1.4.uspp.F.UPF
     MD5 check sum: cc6de2960df11db49a60e589f9ebb39b
     Pseudo is Ultrasoft + core correction, Zval =  3.0
     Generated by new atomic code, or converted to UPF format
     Using radial grid of  781 points,  4 beta functions with:
                l(1) =   0
                l(2) =   0
                l(3) =   1
                l(4) =   1
     Q(r) pseudized with  8 coefficients,  rinner =    1.100   1.100   1.100

     PseudoPot. # 3 for O  read from file:
     /lustre07/scratch/pragov/crystal_structure_design/utils/SSSP/O.pbe-n-kjpaw_psl.0.1.UPF
     MD5 check sum: 0234752ac141de4415c5fc33072bef88
     Pseudo is Projector augmented-wave + core cor, Zval =  6.0
     Generated using "atomic" code by A. Dal Corso  v.5.0.99 svn rev. 10869
     Shape of augmentation charge: BESSEL
     Using radial grid of 1095 points,  4 beta functions with:
                l(1) =   0
                l(2) =   0
                l(3) =   1
                l(4) =   1
     Q(r) pseudized with 0 coefficients

     atomic species   valence    mass     pseudopotential
        Fe            16.00    55.84500     Fe( 1.00)
        B              3.00    10.81000     B ( 1.00)
        O              6.00    15.99900     O ( 1.00)

      2 Sym. Ops., with inversion, found

                                    s                        frac. trans.

      isym =  1     identity

 cryst.   s( 1) = (     1          0          0      )
                  (     0          1          0      )
                  (     0          0          1      )

 cart.    s( 1) = (  1.0000000  0.0000000  0.0000000 )
                  (  0.0000000  1.0000000 -0.0000000 )
                  (  0.0000000  0.0000000  1.0000000 )

      isym =  2     inversion

 cryst.   s( 2) = (    -1          0          0      )
                  (     0         -1          0      )
                  (     0          0         -1      )

 cart.    s( 2) = ( -1.0000000  0.0000000 -0.0000000 )
                  (  0.0000000 -1.0000000  0.0000000 )
                  (  0.0000000  0.0000000 -1.0000000 )

   Cartesian axes

     site n.     atom                  positions (alat units)
         1           Fe  tau(   1) = (   0.6757960   0.5283995   2.5209603  )
         2           Fe  tau(   2) = (   0.2100655   0.6165327   0.2810282  )
         3           Fe  tau(   3) = (   0.1705558   1.0127567   1.7921799  )
         4           Fe  tau(   4) = (   0.7153056   0.1321755   1.0098086  )
         5           B   tau(   5) = (   0.6021569  -0.3935031   2.3257065  )
         6           B   tau(   6) = (   0.2837076   1.5384353   0.4762820  )
         7           B   tau(   7) = (   0.2516702   0.1182100   1.8099249  )
         8           B   tau(   8) = (   0.6341952   1.0267241   0.9920636  )
         9           O   tau(   9) = (   0.2270110   0.0304742   0.5077063  )
        10           O   tau(  10) = (   0.6713257  -0.1304890   2.6430289  )
        11           O   tau(  11) = (   0.2145387   1.2754211   0.1589596  )
        12           O   tau(  12) = (   0.6588506   1.1144569   2.2942794  )
        13           O   tau(  13) = (   0.6938577   0.7036896   0.7300945  )
        14           O   tau(  14) = (   0.1994806   0.1353566   1.4017480  )
        15           O   tau(  15) = (   0.5037930   1.4061358   0.8283519  )
        16           O   tau(  16) = (   0.3820715  -0.2612036   1.9736366  )
        17           O   tau(  17) = (   0.6863798   1.0095756   1.4002405  )
        18           O   tau(  18) = (   0.1920029   0.4412406   2.0718940  )

   Crystallographic axes

     site n.     atom                  positions (cryst. coord.)
         1           Fe  tau(   1) = (  0.7627240  0.6363550  0.8997040  )
         2           Fe  tau(   2) = (  0.2372740  0.3636450  0.1002960  )
         3           Fe  tau(   3) = (  0.2523690  0.7868200  0.6396100  )
         4           Fe  tau(   4) = (  0.7476290  0.2131800  0.3603900  )
         5           B   tau(   5) = (  0.6546760  0.1246320  0.8300200  )
         6           B   tau(   6) = (  0.3453250  0.8753680  0.1699800  )
         7           B   tau(   7) = (  0.3058760  0.3197880  0.6459430  )
         8           B   tau(   8) = (  0.6941260  0.6802130  0.3540570  )
         9           O   tau(   9) = (  0.2421320  0.0882950  0.1811950  )
        10           O   tau(  10) = (  0.7409600  0.3078790  0.9432690  )
        11           O   tau(  11) = (  0.2590410  0.6921210  0.0567310  )
        12           O   tau(  12) = (  0.7578660  0.9117040  0.8188040  )
        13           O   tau(  13) = (  0.7363320  0.4733430  0.2605630  )
        14           O   tau(  14) = (  0.2428380  0.2706630  0.5002690  )
        15           O   tau(  15) = (  0.5710760  0.8560580  0.2956300  )
        16           O   tau(  16) = (  0.4289250  0.1439420  0.7043700  )
        17           O   tau(  17) = (  0.7571590  0.7293370  0.4997310  )
        18           O   tau(  18) = (  0.2636650  0.5266560  0.7394370  )

     number of k points=    14
                       cart. coord. in units 2pi/alat
        k(    1) = (   0.0000000   0.0000000   0.0000000), wk =   0.0740741
        k(    2) = (   0.0000000   0.0000000   0.1189631), wk =   0.1481481
        k(    3) = (   0.0000000   0.1749709   0.0474675), wk =   0.1481481
        k(    4) = (   0.0000000   0.1749709   0.1664307), wk =   0.1481481
        k(    5) = (   0.0000000   0.1749709  -0.0714956), wk =   0.1481481
        k(    6) = (   0.3333333   0.0104718   0.0092991), wk =   0.1481481
        k(    7) = (   0.3333333   0.0104718   0.1282623), wk =   0.1481481
        k(    8) = (   0.3333333   0.0104718  -0.1096640), wk =   0.1481481
        k(    9) = (   0.3333333   0.1854427   0.0567667), wk =   0.1481481
        k(   10) = (   0.3333333   0.1854427   0.1757298), wk =   0.1481481
        k(   11) = (   0.3333333   0.1854427  -0.0621965), wk =   0.1481481
        k(   12) = (   0.3333333  -0.1644991  -0.0381684), wk =   0.1481481
        k(   13) = (   0.3333333  -0.1644991   0.0807947), wk =   0.1481481
        k(   14) = (   0.3333333  -0.1644991  -0.1571316), wk =   0.1481481

                       cryst. coord.
        k(    1) = (   0.0000000   0.0000000   0.0000000), wk =   0.0740741
        k(    2) = (   0.0000000   0.0000000   0.3333333), wk =   0.1481481
        k(    3) = (   0.0000000   0.3333333   0.0000000), wk =   0.1481481
        k(    4) = (   0.0000000   0.3333333   0.3333333), wk =   0.1481481
        k(    5) = (   0.0000000   0.3333333  -0.3333333), wk =   0.1481481
        k(    6) = (   0.3333333  -0.0000000   0.0000000), wk =   0.1481481
        k(    7) = (   0.3333333  -0.0000000   0.3333333), wk =   0.1481481
        k(    8) = (   0.3333333  -0.0000000  -0.3333333), wk =   0.1481481
        k(    9) = (   0.3333333   0.3333333  -0.0000000), wk =   0.1481481
        k(   10) = (   0.3333333   0.3333333   0.3333333), wk =   0.1481481
        k(   11) = (   0.3333333   0.3333333  -0.3333333), wk =   0.1481481
        k(   12) = (   0.3333333  -0.3333333   0.0000000), wk =   0.1481481
        k(   13) = (   0.3333333  -0.3333333   0.3333333), wk =   0.1481481
        k(   14) = (   0.3333333  -0.3333333  -0.3333333), wk =   0.1481481

     Check: negative core charge=   -0.000133

     Initial potential from superposition of free atoms

     starting charge     135.9971, renormalised to     136.0000
     Starting wfcs are  108 randomized atomic wfcs +  148 random wfcs
     Checking if some PAW data can be deallocated...

     Self-consistent Calculation

     iteration #  1     ecut=    30.00 Ry     beta= 0.70
     Davidson diagonalization with overlap

     ethr =  1.00E-02,  avg # of iterations =  6.9

     total energy              =   -1757.17883382 Ry
     estimated scf accuracy    <       2.71728579 Ry

[...]

     negative rho (up, down):  3.591E-06 0.000E+00

[...]

     total energy              =   -1758.11824691 Ry
     estimated scf accuracy    <       0.00000573 Ry

     iteration # 16     ecut=    30.00 Ry     beta= 0.70
     Davidson diagonalization with overlap

     ethr =  4.21E-09,  avg # of iterations =  2.0

     negative rho (up, down):  1.966E-05 0.000E+00

     End of self-consistent calculation

          k = 0.0000 0.0000 0.0000 (  3555 PWs)   bands (ev):

   -78.9006 -78.8956 -78.7136 -78.7118 -44.5699 -44.5460 -44.5296 -44.5238
   -44.4551 -44.4436 -44.4418 -44.4331 -44.3402 -44.3256 -44.2268 -44.2235
   -14.0593 -13.9510 -12.5190 -12.4638 -12.2459 -12.0155 -11.8487 -11.7877
   -11.4776 -11.3956  -2.0244  -1.9253  -0.6984   0.1427   0.2012   0.7889
     0.8056   1.0669   1.1806   1.5155   2.2851   2.3122   2.5072   2.6035
     2.7470   3.2086   3.4044   3.7580   3.8546   3.9295   3.9659   3.9818
     4.2582   4.2986   4.4000   4.6723   4.6947   4.8203   5.0821   5.4959
     6.9802   7.0752   7.2636   7.3188   7.3256   7.3350   7.3842   7.5398
     7.5675   7.6011   7.8899   8.0994   8.6481   8.7207   8.8382   8.8700
     9.0575   9.1918   9.2953   9.3681  10.5677  12.4551  12.6918  12.7832
    13.1410  14.1320  14.5756  14.8086  15.4625  15.9640  16.2367  16.4851
    16.9653  17.7458  18.0759  18.1598  18.7847  20.1401  20.2121  20.3785
    20.5328  21.1812  21.3118  21.6271  21.6294  21.9554  22.0474  22.8774
    22.9147  23.1623  23.3038  23.5839  23.8588  23.9153  24.2417  24.4204
    24.5106  24.7429  24.9081  25.1941  25.4989  25.7158  26.2586  26.3403
    27.2011  27.4332  27.5224  27.9492  28.5783  28.6791  29.1841  29.3774
    29.7181  29.7985  30.0562  30.2082  30.3247  30.5099  30.7661  31.4870
    31.5593  32.1478  32.3011  32.4872  32.6529  33.1117  33.4257  33.8274
    33.8985  34.1343  34.3562  34.5049  34.7193  34.9326  35.3969  35.5716
    35.8674  35.8748  36.2932  36.6941  37.0030  37.0106  37.3505  37.5983
    37.8660  38.4647  38.5100  38.7460  38.7732  39.2598  39.3841  39.8588
    40.0021  40.0294  40.3225  40.5468  40.9316  41.0952  41.2999  41.5431
    41.5987  41.8305  42.0901  42.7107  42.7974  43.0914  43.4028  43.8881
    43.9633  44.4111  44.4522  44.5383  45.1241  45.1467  45.5669  45.6843
    45.6865  45.9524  46.3604  46.4846  47.0390  47.4777  47.7338  47.8239
    47.8895  48.0674  48.1883  48.4484  48.7200  48.9682  48.9933  49.2684
    49.4658  49.5881  49.8178  50.1734  50.3724  50.4925  50.4997  51.0691
    51.1535  51.4121  51.4679  52.4118  52.4257  52.4825  52.7560  52.9121
    53.1474  53.4032  53.4798  53.8131  53.8348  53.9829  54.0516  54.2649
    54.3743  54.9311  55.0584  55.1289  55.5736  55.8280  55.9702  56.3953
    56.5986  56.6117  56.6362  56.7045  56.8598  57.1437  57.3722  57.4405
    57.7486  57.9834  58.2903  58.6088  58.6423  58.9402  58.9839  59.3764

     occupation numbers
     1.0000   1.0000   1.0000   1.0000   1.0000   1.0000   1.0000   1.0000
     1.0000   1.0000   1.0000   1.0000   1.0000   1.0000   1.0000   1.0000
     1.0000   1.0000   1.0000   1.0000   1.0000   1.0000   1.0000   1.0000
     1.0000   1.0000   1.0000   1.0000   1.0000   1.0000   1.0000   1.0000
     1.0000   1.0000   1.0000   1.0000   1.0000   1.0000   1.0000   1.0000
     1.0000   1.0000   1.0000   1.0000   1.0000   1.0000   1.0000   1.0000
     1.0000   1.0000   1.0000   1.0000   1.0000   1.0000   1.0000   1.0000
     1.0000   1.0000   1.0000   1.0000   1.0000   1.0000   1.0000   1.0000
     1.0000   1.0000   1.0000   1.0000   0.0000   0.0000   0.0000   0.0000
     0.0000   0.0000   0.0000   0.0000   0.0000   0.0000   0.0000   0.0000
     0.0000   0.0000   0.0000   0.0000   0.0000   0.0000   0.0000   0.0000
     0.0000   0.0000   0.0000   0.0000   0.0000   0.0000   0.0000   0.0000
     0.0000   0.0000   0.0000   0.0000   0.0000   0.0000   0.0000   0.0000
     0.0000   0.0000   0.0000   0.0000   0.0000   0.0000   0.0000   0.0000
     0.0000   0.0000   0.0000   0.0000   0.0000   0.0000   0.0000   0.0000
     0.0000   0.0000   0.0000   0.0000   0.0000   0.0000   0.0000   0.0000
     0.0000   0.0000   0.0000   0.0000   0.0000   0.0000   0.0000   0.0000
     0.0000   0.0000   0.0000   0.0000   0.0000   0.0000   0.0000   0.0000
     0.0000   0.0000   0.0000   0.0000   0.0000   0.0000   0.0000   0.0000
     0.0000   0.0000   0.0000   0.0000   0.0000   0.0000   0.0000   0.0000
     0.0000   0.0000   0.0000   0.0000   0.0000   0.0000   0.0000   0.0000
     0.0000   0.0000   0.0000   0.0000   0.0000   0.0000   0.0000   0.0000
     0.0000   0.0000   0.0000   0.0000   0.0000   0.0000   0.0000   0.0000
     0.0000   0.0000   0.0000   0.0000   0.0000   0.0000   0.0000   0.0000
     0.0000   0.0000   0.0000   0.0000   0.0000   0.0000   0.0000   0.0000
     0.0000   0.0000   0.0000   0.0000   0.0000   0.0000   0.0000   0.0000
     0.0000   0.0000   0.0000   0.0000   0.0000   0.0000   0.0000   0.0000
     0.0000   0.0000   0.0000   0.0000   0.0000   0.0000   0.0000   0.0000
     0.0000   0.0000   0.0000   0.0000   0.0000   0.0000   0.0000   0.0000
     0.0000   0.0000   0.0000   0.0000   0.0000   0.0000   0.0000   0.0000
     0.0000   0.0000   0.0000   0.0000   0.0000   0.0000   0.0000   0.0000
     0.0000   0.0000   0.0000   0.0000   0.0000   0.0000   0.0000   0.0000

[...]

          k = 0.3333-0.1645-0.1571 (  3538 PWs)   bands (ev):

   -78.8986 -78.8959 -78.7129 -78.7108 -44.5599 -44.5554 -44.5275 -44.5203
   -44.4516 -44.4491 -44.4434 -44.4312 -44.3354 -44.3263 -44.2330 -44.2206
   -13.7765 -13.7634 -12.5238 -12.4493 -12.1378 -12.0067 -11.6790 -11.6732
   -11.4112 -11.3847  -2.1176  -2.0823   0.0394   0.2608   0.4181   0.4874
     0.5816   0.7962   0.8681   1.0206   1.6174   1.7670   2.0509   2.1806
     2.7360   2.8208   3.1689   3.3770   3.5827   3.7184   3.8160   3.8234
     3.8797   3.9591   4.1457   4.3192   4.6612   4.8520   5.0607   5.4155
     7.1330   7.2383   7.2990   7.3810   7.4014   7.4614   7.4948   7.5114
     7.6038   7.6102   7.8080   7.9388   8.6613   8.8065   8.8753   8.9552
     9.0321   9.1419   9.1719   9.2664  12.6546  12.7139  13.2981  13.5181
    13.9520  14.3019  15.4117  15.9515  16.4486  17.1593  17.2771  17.4246
    17.5633  17.8620  18.2198  18.4204  18.7212  18.9570  19.2563  19.4183
    19.7463  20.2435  20.5276  20.6990  20.9773  21.2705  21.4971  21.8716
    22.0526  22.5038  22.7416  23.3399  23.5224  23.8907  24.4484  24.7151
    24.8441  25.0890  25.6633  25.7436  25.8887  26.2172  26.3109  26.8142
    26.9177  27.3834  27.8374  27.9431  28.4397  28.9540  29.2056  29.6287
    29.9207  30.1106  30.2990  31.0571  31.1880  31.5390  32.0834  32.5310
    32.8071  33.0745  33.1148  33.2833  33.5136  33.8669  34.0721  34.2915
    34.4362  34.7342  34.7447  35.1357  35.4183  35.6189  35.8437  36.0610
    36.2918  36.6462  36.7680  36.8846  37.2061  37.2278  37.3279  37.7147
    38.1843  38.4138  38.4914  38.7717  38.8915  39.1737  39.6350  39.8046
    39.8792  40.3222  40.3775  40.4806  40.8607  41.0840  41.2001  41.6132
    41.9552  42.0722  42.3414  42.4817  42.7318  42.8750  43.1904  43.6464
    43.8221  43.8505  44.3065  44.4237  44.6774  44.8873  45.1485  45.3247
    45.3599  45.7911  46.1855  46.2341  46.4319  46.6551  46.7706  47.1368
    47.2325  47.5726  47.6681  47.8739  47.9856  48.2168  48.3121  48.6276
    49.0637  49.1407  49.4788  49.5884  49.7327  49.7707  49.8306  50.4261
    50.5343  50.6456  50.9234  51.1698  51.3154  51.4040  51.7431  51.9600
    52.1035  52.4970  52.6531  52.9590  53.1065  53.4134  53.5089  53.6616
    53.7949  54.0732  54.4015  54.6335  54.6431  54.9042  55.0710  55.2050
    55.5742  55.8589  56.0318  56.2241  56.3740  56.6867  56.8503  56.8809
    57.1830  57.5707  57.7138  57.8808  58.0042  58.1965  58.4950  58.7486

     occupation numbers
     1.0000   1.0000   1.0000   1.0000   1.0000   1.0000   1.0000   1.0000
     1.0000   1.0000   1.0000   1.0000   1.0000   1.0000   1.0000   1.0000
     1.0000   1.0000   1.0000   1.0000   1.0000   1.0000   1.0000   1.0000
     1.0000   1.0000   1.0000   1.0000   1.0000   1.0000   1.0000   1.0000
     1.0000   1.0000   1.0000   1.0000   1.0000   1.0000   1.0000   1.0000
     1.0000   1.0000   1.0000   1.0000   1.0000   1.0000   1.0000   1.0000
     1.0000   1.0000   1.0000   1.0000   1.0000   1.0000   1.0000   1.0000
     1.0000   1.0000   1.0000   1.0000   1.0000   1.0000   1.0000   1.0000
     1.0000   1.0000   1.0000   1.0000   0.0000   0.0000   0.0000   0.0000
     0.0000   0.0000   0.0000   0.0000   0.0000   0.0000   0.0000   0.0000
     0.0000   0.0000   0.0000   0.0000   0.0000   0.0000   0.0000   0.0000
     0.0000   0.0000   0.0000   0.0000   0.0000   0.0000   0.0000   0.0000
     0.0000   0.0000   0.0000   0.0000   0.0000   0.0000   0.0000   0.0000
     0.0000   0.0000   0.0000   0.0000   0.0000   0.0000   0.0000   0.0000
     0.0000   0.0000   0.0000   0.0000   0.0000   0.0000   0.0000   0.0000
     0.0000   0.0000   0.0000   0.0000   0.0000   0.0000   0.0000   0.0000
     0.0000   0.0000   0.0000   0.0000   0.0000   0.0000   0.0000   0.0000
     0.0000   0.0000   0.0000   0.0000   0.0000   0.0000   0.0000   0.0000
     0.0000   0.0000   0.0000   0.0000   0.0000   0.0000   0.0000   0.0000
     0.0000   0.0000   0.0000   0.0000   0.0000   0.0000   0.0000   0.0000
     0.0000   0.0000   0.0000   0.0000   0.0000   0.0000   0.0000   0.0000
     0.0000   0.0000   0.0000   0.0000   0.0000   0.0000   0.0000   0.0000
     0.0000   0.0000   0.0000   0.0000   0.0000   0.0000   0.0000   0.0000
     0.0000   0.0000   0.0000   0.0000   0.0000   0.0000   0.0000   0.0000
     0.0000   0.0000   0.0000   0.0000   0.0000   0.0000   0.0000   0.0000
     0.0000   0.0000   0.0000   0.0000   0.0000   0.0000   0.0000   0.0000
     0.0000   0.0000   0.0000   0.0000   0.0000   0.0000   0.0000   0.0000
     0.0000   0.0000   0.0000   0.0000   0.0000   0.0000   0.0000   0.0000
     0.0000   0.0000   0.0000   0.0000   0.0000   0.0000   0.0000   0.0000
     0.0000   0.0000   0.0000   0.0000   0.0000   0.0000   0.0000   0.0000
     0.0000   0.0000   0.0000   0.0000   0.0000   0.0000   0.0000   0.0000
     0.0000   0.0000   0.0000   0.0000   0.0000   0.0000   0.0000   0.0000

     highest occupied, lowest unoccupied level (ev):     8.0994    8.6481

!    total energy              =   -1758.11824826 Ry
     estimated scf accuracy    <       0.00000029 Ry

     The total energy is the sum of the following terms:
     one-electron contribution =    -833.48645308 Ry
     hartree contribution      =     483.98336740 Ry
     xc contribution           =    -225.33988643 Ry
     ewald contribution        =    -783.88226260 Ry
     one-center paw contrib.   =    -399.39301355 Ry
      -> PAW hartree energy AE =     623.88414374 Ry
      -> PAW hartree energy PS =    -621.52971146 Ry
      -> PAW xc energy AE      =    -333.40089953 Ry
      -> PAW xc energy PS      =     102.84679539 Ry
      -> total E_H with PAW    =     486.33779968 Ry
      -> total E_XC with PAW   =    -455.89399057 Ry

     convergence has been achieved in  16 iterations

     Writing all to output data dir bands_nm/myprefix.save/

     General routines

     Parallel routines

     PAW routines

   This run was terminated on:  22:53:46  16Jul2023

   JOB DONE.