     Program PWSCF v.7.1 starts on 13Jul2023 at  4: 3: 7

     Reading input from espresso_2681.pwi
Warning: card &CELL ignored
Warning: card / ignored

     Current dimensions of program PWSCF are:
     Max number of different atomic species (ntypx) = 10
     Max number of k-points (npk) =  40000
     Max angular momentum in pseudopotentials (lmaxx) =  4
     Message from routine setup:
     using ibrav=0 with symmetry is DISCOURAGED, use correct ibrav instead

     K-points division:     npool     =       2
     R & G space division:  proc/nbgrp/npool/nimage =       8
     Subspace diagonalization in iterative solution of the eigenvalue problem:
     a serial algorithm will be used

     Using Slab Decomposition

     bravais-lattice index     =            0
     lattice parameter (alat)  =      11.0317  a.u.
     unit-cell volume          =    1255.1043 (a.u.)^3
     number of atoms/cell      =           12
     number of atomic types    =            2
     number of electrons       =       100.00
     number of Kohn-Sham states=           64
     kinetic-energy cutoff     =      30.0000  Ry
     charge density cutoff     =     240.0000  Ry
     scf convergence threshold =      1.0E-06
     mixing beta               =       0.7000
     number of iterations used =            8  plain     mixing
     Exchange-correlation= SLA  PW   PBE  PBE
                           (   1   4   3   4   0   0   0)

     celldm(1)=  11.031684  celldm(2)=   0.000000  celldm(3)=   0.000000
     celldm(4)=   0.000000  celldm(5)=   0.000000  celldm(6)=   0.000000

     crystal axes: (cart. coord. in units of alat)
               a(1) = (   1.000000   0.000000   0.000000 )
               a(2) = (   0.000000   0.992750   0.000000 )
               a(3) = (   0.000000   0.367284   0.941704 )

     reciprocal axes: (cart. coord. in units 2 pi/alat)
               b(1) = (  1.000000  0.000000  0.000000 )
               b(2) = (  0.000000  1.007303 -0.392869 )
               b(3) = (  0.000000  0.000000  1.061905 )

     PseudoPot. # 1 for P  read from file:
     /lustre07/scratch/pragov/crystal_structure_design/utils/SSSP/P.pbe-n-rrkjus_psl.1.0.0.UPF
     MD5 check sum: 8b930f418f0a4573dca56cd030ffe088
     Pseudo is Ultrasoft + core correction, Zval =  5.0
     Generated using "atomic" code by A. Dal Corso  v.5.1
     Using radial grid of 1147 points,  6 beta functions with:
                l(1) =   0
                l(2) =   0
                l(3) =   1
                l(4) =   1
                l(5) =   2
                l(6) =   2
     Q(r) pseudized with 0 coefficients

     PseudoPot. # 2 for Ir read from file:
     /lustre07/scratch/pragov/crystal_structure_design/utils/SSSP/Ir_pbe_v1.2.uspp.F.UPF
     MD5 check sum: 8836f839c3459d2b385c504ce6d91f2c
     Pseudo is Ultrasoft + core correction, Zval = 15.0
     Generated by new atomic code, or converted to UPF format
     Using radial grid of  983 points,  7 beta functions with:
                l(1) =   0
                l(2) =   0
                l(3) =   1
                l(4) =   1
                l(5) =   1
                l(6) =   2
                l(7) =   2
     Q(r) pseudized with  8 coefficients,  rinner =    1.400   1.400   1.400
                                                       1.400   1.400

     atomic species   valence    mass     pseudopotential
        P              5.00    30.97376     P ( 1.00)
        Ir            15.00   192.21700     Ir( 1.00)

      4 Sym. Ops., with inversion, found ( 2 have fractional translation)

                                    s                        frac. trans.

      isym =  1     identity

 cryst.   s( 1) = (     1          0          0      )
                  (     0          1          0      )
                  (     0          0          1      )

 cart.    s( 1) = (  1.0000000  0.0000000  0.0000000 )
                  (  0.0000000  1.0000000  0.0000000 )
                  (  0.0000000  0.0000000  1.0000000 )

      isym =  2     180 deg rotation - cart. axis [1,0,0]

 cryst.   s( 2) = (     1          0          0      )    f =(  0.5000000 )
                  (     0         -1          0      )       (  0.0000000 )
                  (     0          0         -1      )       (  0.5000000 )

 cart.    s( 2) = (  1.0000000  0.0000000  0.0000000 )    f =(  0.5000000 )
                  (  0.0000000 -1.0000000  0.0000000 )       (  0.1836420 )
                  (  0.0000000  0.0000000 -1.0000000 )       (  0.4708521 )

      isym =  3     inversion

 cryst.   s( 3) = (    -1          0          0      )
                  (     0         -1          0      )
                  (     0          0         -1      )

 cart.    s( 3) = ( -1.0000000  0.0000000  0.0000000 )
                  (  0.0000000 -1.0000000  0.0000000 )
                  (  0.0000000  0.0000000 -1.0000000 )

      isym =  4     inv. 180 deg rotation - cart. axis [1,0,0]

 cryst.   s( 4) = (    -1          0          0      )    f =(  0.5000000 )
                  (     0          1          0      )       (  0.0000000 )
                  (     0          0          1      )       ( -0.5000000 )

 cart.    s( 4) = ( -1.0000000  0.0000000  0.0000000 )    f =(  0.5000000 )
                  (  0.0000000  1.0000000  0.0000000 )       ( -0.1836420 )
                  (  0.0000000  0.0000000  1.0000000 )       ( -0.4708521 )

   Cartesian axes

     site n.     atom                  positions (alat units)
         1           P   tau(   1) = (   0.1189300   1.1558653   0.8201406  )
         2           P   tau(   2) = (   0.6189300   0.3878105   0.5924158  )
         3           P   tau(   3) = (   0.8810700   0.2041685   0.1215637  )
         4           P   tau(   4) = (   0.3810700   0.9722233   0.3492885  )
         5           P   tau(   5) = (   0.6235660   0.7304791   0.1779727  )
         6           P   tau(   6) = (   0.1235660   0.4459127   0.2928794  )
         7           P   tau(   7) = (   0.3764340   0.6295547   0.7637316  )
         8           P   tau(   8) = (   0.8764340   0.9141211   0.6488248  )
         9           Ir  tau(   9) = (   0.5007080   1.0138593   0.7456424  )
        10           Ir  tau(  10) = (   0.0007080   0.5298165   0.6669140  )
        11           Ir  tau(  11) = (   0.4992920   0.3461744   0.1960619  )
        12           Ir  tau(  12) = (   0.9992920   0.8302173   0.2747902  )

   Crystallographic axes

     site n.     atom                  positions (cryst. coord.)
         1           P   tau(   1) = (  0.1189300  0.8420990  0.8709110  )
         2           P   tau(   2) = (  0.6189300  0.1579010  0.6290890  )
         3           P   tau(   3) = (  0.8810700  0.1579010  0.1290890  )
         4           P   tau(   4) = (  0.3810700  0.8420990  0.3709110  )
         5           P   tau(   5) = (  0.6235660  0.6658940  0.1889900  )
         6           P   tau(   6) = (  0.1235660  0.3341060  0.3110100  )
         7           P   tau(   7) = (  0.3764340  0.3341060  0.8110100  )
         8           P   tau(   8) = (  0.8764340  0.6658940  0.6889900  )
         9           Ir  tau(   9) = (  0.5007080  0.7283240  0.7918010  )
        10           Ir  tau(  10) = (  0.0007080  0.2716760  0.7081990  )
        11           Ir  tau(  11) = (  0.4992920  0.2716760  0.2081990  )
        12           Ir  tau(  12) = (  0.9992920  0.7283240  0.2918010  )

     number of k points=    10
                       cart. coord. in units 2pi/alat
        k(    1) = (   0.0000000   0.0000000   0.0000000), wk =   0.0740741
        k(    2) = (   0.0000000   0.0000000   0.3539682), wk =   0.1481481
        k(    3) = (   0.0000000   0.3357677  -0.1309563), wk =   0.1481481
        k(    4) = (   0.0000000   0.3357677   0.2230118), wk =   0.1481481
        k(    5) = (   0.0000000   0.3357677  -0.4849245), wk =   0.1481481
        k(    6) = (   0.3333333   0.0000000   0.0000000), wk =   0.1481481
        k(    7) = (   0.3333333   0.0000000   0.3539682), wk =   0.2962963
        k(    8) = (   0.3333333   0.3357677  -0.1309563), wk =   0.2962963
        k(    9) = (   0.3333333   0.3357677   0.2230118), wk =   0.2962963
        k(   10) = (   0.3333333   0.3357677  -0.4849245), wk =   0.2962963

                       cryst. coord.
        k(    1) = (   0.0000000   0.0000000   0.0000000), wk =   0.0740741
        k(    2) = (   0.0000000   0.0000000   0.3333333), wk =   0.1481481
        k(    3) = (   0.0000000   0.3333333  -0.0000000), wk =   0.1481481
        k(    4) = (   0.0000000   0.3333333   0.3333333), wk =   0.1481481
        k(    5) = (   0.0000000   0.3333333  -0.3333333), wk =   0.1481481
        k(    6) = (   0.3333333   0.0000000   0.0000000), wk =   0.1481481
        k(    7) = (   0.3333333   0.0000000   0.3333333), wk =   0.2962963
        k(    8) = (   0.3333333   0.3333333  -0.0000000), wk =   0.2962963
        k(    9) = (   0.3333333   0.3333333   0.3333333), wk =   0.2962963
        k(   10) = (   0.3333333   0.3333333  -0.3333333), wk =   0.2962963

     Initial potential from superposition of free atoms

     starting charge      97.9986, renormalised to     100.0000

     negative rho (up, down):  1.465E+00 0.000E+00
     Starting wfcs are   80 randomized atomic wfcs

     Self-consistent Calculation

     iteration #  1     ecut=    30.00 Ry     beta= 0.70
     Davidson diagonalization with overlap

     ethr =  1.00E-02,  avg # of iterations =  4.4

     negative rho (up, down):  1.124E+00 0.000E+00

     total energy              =    -835.07356995 Ry
     estimated scf accuracy    <       8.35238045 Ry

[...]

     c_bands:  1 eigenvalues not converged
     ethr =  1.33E-07,  avg # of iterations =  6.8

[...]

     total energy              =    -840.09834668 Ry
     estimated scf accuracy    <       0.00001614 Ry

     iteration #  9     ecut=    30.00 Ry     beta= 0.70
     Davidson diagonalization with overlap

     ethr =  1.61E-08,  avg # of iterations =  2.1

     negative rho (up, down):  1.229E+00 0.000E+00

     End of self-consistent calculation

          k = 0.0000 0.0000 0.0000 (  3523 PWs)   bands (ev):

   -35.8123 -35.8120 -35.7119 -35.7099 -35.6961 -35.6960 -35.6899 -35.6888
   -35.5690 -35.5651 -35.5570 -35.5566  -0.7305   1.4151   1.5156   1.5616
     3.9960   4.4919   4.7134   4.7733   6.3261   7.2567   7.2716   7.2766
     7.5614   8.2984   8.3322   8.6083   8.6857   8.8890   8.9882   9.0517
     9.5331   9.7547   9.8465   9.9782  10.2879  10.5217  10.6644  10.8977
    11.0054  11.1029  11.3039  11.3533  11.4109  11.4631  11.4819  11.8791
    12.0781  12.2012  14.0960  14.8929  15.7918  16.1354  16.4289  17.3220
    17.7140  17.7914  18.5890  18.6060  18.7822  18.9076  19.1390  19.3148

     occupation numbers
     1.0000   1.0000   1.0000   1.0000   1.0000   1.0000   1.0000   1.0000
     1.0000   1.0000   1.0000   1.0000   1.0000   1.0000   1.0000   1.0000
     1.0000   1.0000   1.0000   1.0000   1.0000   1.0000   1.0000   1.0000
     1.0000   1.0000   1.0000   1.0000   1.0000   1.0000   1.0000   1.0000
     1.0000   1.0000   1.0000   1.0000   1.0000   1.0000   1.0000   1.0000
     1.0000   1.0000   1.0000   1.0000   1.0000   1.0000   1.0000   1.0000
     1.0000   1.0000   0.0000   0.0000   0.0000   0.0000   0.0000   0.0000
     0.0000   0.0000   0.0000   0.0000   0.0000   0.0000   0.0000   0.0000

[...]

          k = 0.3333 0.3358-0.4849 (  3470 PWs)   bands (ev):

   -35.8077 -35.8072 -35.7108 -35.7104 -35.6964 -35.6963 -35.6935 -35.6934
   -35.5667 -35.5663 -35.5573 -35.5565   0.9082   1.1776   1.2535   1.7879
     2.7450   2.7746   3.8805   4.1871   6.8533   7.0363   7.1689   7.4217
     7.7971   8.0383   8.1168   8.5087   8.8110   9.0034   9.5740   9.7280
     9.7465   9.8644  10.0403  10.2824  10.4212  10.6234  10.7930  10.9183
    11.1583  11.4328  11.5839  11.7867  12.1251  12.3285  12.4812  12.7220
    12.8832  12.9798  14.8416  15.0457  15.3254  15.3881  16.1184  16.5765
    16.6764  16.7190  17.0726  17.3928  18.0926  18.4964  18.7033  18.9615

     occupation numbers
     1.0000   1.0000   1.0000   1.0000   1.0000   1.0000   1.0000   1.0000
     1.0000   1.0000   1.0000   1.0000   1.0000   1.0000   1.0000   1.0000
     1.0000   1.0000   1.0000   1.0000   1.0000   1.0000   1.0000   1.0000
     1.0000   1.0000   1.0000   1.0000   1.0000   1.0000   1.0000   1.0000
     1.0000   1.0000   1.0000   1.0000   1.0000   1.0000   1.0000   1.0000
     1.0000   1.0000   1.0000   1.0000   1.0000   1.0000   1.0000   1.0000
     1.0000   1.0000   0.0000   0.0000   0.0000   0.0000   0.0000   0.0000
     0.0000   0.0000   0.0000   0.0000   0.0000   0.0000   0.0000   0.0000

     highest occupied, lowest unoccupied level (ev):    13.0440   14.0960

!    total energy              =    -840.09834993 Ry
     estimated scf accuracy    <       0.00000005 Ry

     The total energy is the sum of the following terms:
     one-electron contribution =    -181.74364214 Ry
     hartree contribution      =     152.57960292 Ry
     xc contribution           =    -237.20875985 Ry
     ewald contribution        =    -573.72555086 Ry

     convergence has been achieved in   9 iterations

     Writing all to output data dir bands_nm/myprefix.save/

     General routines

     Parallel routines

   This run was terminated on:   4: 3:23  13Jul2023

   JOB DONE.