     Program PWSCF v.7.1 starts on 14Jul2023 at 18:27:20

     Reading input from espresso_20868.pwi
Warning: card &CELL ignored
Warning: card / ignored

     Current dimensions of program PWSCF are:
     Max number of different atomic species (ntypx) = 10
     Max number of k-points (npk) =  40000
     Max angular momentum in pseudopotentials (lmaxx) =  4
     file K.pbe-spn-kjpaw_psl.1.0.0.UPF: wavefunction(s)  3S renormalized
     file Cu.paw.z_11.ld1.psl.v1.0.0-low.upf: wavefunction(s)  4S 3D renormalized
     Message from routine setup:
     using ibrav=0 with symmetry is DISCOURAGED, use correct ibrav instead

     K-points division:     npool     =       2
     R & G space division:  proc/nbgrp/npool/nimage =       4
     Subspace diagonalization in iterative solution of the eigenvalue problem:
     a serial algorithm will be used

     Using Slab Decomposition

     bravais-lattice index     =            0
     lattice parameter (alat)  =      11.9607  a.u.
     unit-cell volume          =    1540.9239 (a.u.)^3
     number of atoms/cell      =            8
     number of atomic types    =            3
     number of electrons       =        68.00
     number of Kohn-Sham states=           64
     kinetic-energy cutoff     =      30.0000  Ry
     charge density cutoff     =     240.0000  Ry
     scf convergence threshold =      1.0E-06
     mixing beta               =       0.7000
     number of iterations used =            8  plain     mixing
     Exchange-correlation= PBE
                           (   1   4   3   4   0   0   0)

     celldm(1)=  11.960681  celldm(2)=   0.000000  celldm(3)=   0.000000
     celldm(4)=   0.000000  celldm(5)=   0.000000  celldm(6)=   0.000000

     crystal axes: (cart. coord. in units of alat)
               a(1) = (   1.000000   0.000000   0.000000 )
               a(2) = (  -0.276628   0.960977   0.000000 )
               a(3) = (   0.000000   0.000000   0.937131 )

     reciprocal axes: (cart. coord. in units 2 pi/alat)
               b(1) = (  1.000000  0.287861  0.000000 )
               b(2) = (  0.000000  1.040608  0.000000 )
               b(3) = (  0.000000  0.000000  1.067086 )

     PseudoPot. # 1 for K  read from file:
     /lustre07/scratch/pragov/crystal_structure_design/utils/SSSP/K.pbe-spn-kjpaw_psl.1.0.0.UPF
     MD5 check sum: 7d58810084cac21f60fbe77ea2b688fd
     Pseudo is Projector augmented-wave + core cor, Zval =  9.0
     Generated using "atomic" code by A. Dal Corso  v.5.1
     Shape of augmentation charge: PSQ
     Using radial grid of 1165 points,  6 beta functions with:
                l(1) =   0
                l(2) =   0
                l(3) =   1
                l(4) =   1
                l(5) =   2
                l(6) =   2
     Q(r) pseudized with 0 coefficients

     PseudoPot. # 2 for Cu read from file:
     /lustre07/scratch/pragov/crystal_structure_design/utils/SSSP/Cu.paw.z_11.ld1.psl.v1.0.0-low.upf
     MD5 check sum: 619f40885d92a09a85a8b37550532d0c
     Pseudo is Projector augmented-wave + core cor, Zval = 11.0
     Generated using &quot;atomic&quot; code by A. Dal Corso  v.6.3MaX
     Shape of augmentation charge: PSQ
     Using radial grid of 1199 points,  6 beta functions with:
                l(1) =   0
                l(2) =   0
                l(3) =   1
                l(4) =   1
                l(5) =   2
                l(6) =   2
     Q(r) pseudized with 0 coefficients

     PseudoPot. # 3 for As read from file:
     /lustre07/scratch/pragov/crystal_structure_design/utils/SSSP/As.pbe-n-rrkjus_psl.0.2.UPF
     MD5 check sum: 767315de957beeeb34f87d97bf945c8f
     Pseudo is Ultrasoft + core correction, Zval =  5.0
     Generated using "atomic" code by A. Dal Corso  v.5.0.99 svn rev. 10869
     Using radial grid of 1209 points,  4 beta functions with:
                l(1) =   0
                l(2) =   0
                l(3) =   1
                l(4) =   1
     Q(r) pseudized with 0 coefficients

     atomic species   valence    mass     pseudopotential
        K              9.00    39.09830     K ( 1.00)
        Cu            11.00    63.54600     Cu( 1.00)
        As             5.00    74.92159     As( 1.00)

      4 Sym. Ops., with inversion, found ( 2 have fractional translation)

                                    s                        frac. trans.

      isym =  1     identity

 cryst.   s( 1) = (     1          0          0      )
                  (     0          1          0      )
                  (     0          0          1      )

 cart.    s( 1) = (  1.0000000 -0.0000000  0.0000000 )
                  (  0.0000000  1.0000000  0.0000000 )
                  (  0.0000000  0.0000000  1.0000000 )

      isym =  2     180 deg rotation - cart. axis [0,0,1]

 cryst.   s( 2) = (    -1          0          0      )    f =(  0.0000000 )
                  (     0         -1          0      )       (  0.0000000 )
                  (     0          0          1      )       (  0.5000000 )

 cart.    s( 2) = ( -1.0000000  0.0000000  0.0000000 )    f =(  0.0000000 )
                  (  0.0000000 -1.0000000  0.0000000 )       (  0.0000000 )
                  (  0.0000000  0.0000000  1.0000000 )       (  0.4685657 )

      isym =  3     inversion

 cryst.   s( 3) = (    -1          0          0      )
                  (     0         -1          0      )
                  (     0          0         -1      )

 cart.    s( 3) = ( -1.0000000  0.0000000  0.0000000 )
                  (  0.0000000 -1.0000000  0.0000000 )
                  (  0.0000000  0.0000000 -1.0000000 )

      isym =  4     inv. 180 deg rotation - cart. axis [0,0,1]

 cryst.   s( 4) = (     1          0          0      )    f =(  0.0000000 )
                  (     0          1          0      )       (  0.0000000 )
                  (     0          0         -1      )       (  0.5000000 )

 cart.    s( 4) = (  1.0000000 -0.0000000  0.0000000 )    f =(  0.0000000 )
                  (  0.0000000  1.0000000  0.0000000 )       (  0.0000000 )
                  (  0.0000000  0.0000000 -1.0000000 )       (  0.4685657 )

   Cartesian axes

     site n.     atom                  positions (alat units)
         1           K   tau(   1) = (   0.8904563   0.3050487   0.7028485  )
         2           K   tau(   2) = (  -0.1670844   0.6559283   0.2342828  )
         3           K   tau(   3) = (   0.6765523   0.0208840   0.2342828  )
         4           K   tau(   4) = (   0.0468196   0.9400931   0.7028485  )
         5           Cu  tau(   5) = (   0.3616860   0.4804885   0.4685657  )
         6           Cu  tau(   6) = (   0.3616860   0.4804885   0.0000000  )
         7           As  tau(   7) = (   0.5356410   0.7115824   0.7028485  )
         8           As  tau(   8) = (   0.1877309   0.2493947   0.2342828  )

   Crystallographic axes

     site n.     atom                  positions (cryst. coord.)
         1           K   tau(   1) = (  0.9782680  0.3174360  0.7500000  )
         2           K   tau(   2) = (  0.0217320  0.6825640  0.2500000  )
         3           K   tau(   3) = (  0.6825640  0.0217320  0.2500000  )
         4           K   tau(   4) = (  0.3174360  0.9782680  0.7500000  )
         5           Cu  tau(   5) = (  0.5000000  0.5000000  0.5000000  )
         6           Cu  tau(   6) = (  0.5000000  0.5000000  0.0000000  )
         7           As  tau(   7) = (  0.7404780  0.7404780  0.7500000  )
         8           As  tau(   8) = (  0.2595220  0.2595220  0.2500000  )

     number of k points=    10
                       cart. coord. in units 2pi/alat
        k(    1) = (   0.0000000   0.0000000   0.0000000), wk =   0.0740741
        k(    2) = (   0.0000000   0.0000000   0.3556954), wk =   0.1481481
        k(    3) = (   0.0000000   0.3468692   0.0000000), wk =   0.1481481
        k(    4) = (   0.0000000   0.3468692   0.3556954), wk =   0.2962963
        k(    5) = (   0.3333333   0.0959538   0.0000000), wk =   0.1481481
        k(    6) = (   0.3333333   0.0959538   0.3556954), wk =   0.2962963
        k(    7) = (   0.3333333   0.4428229   0.0000000), wk =   0.1481481
        k(    8) = (   0.3333333   0.4428229   0.3556954), wk =   0.2962963
        k(    9) = (   0.3333333  -0.2509154   0.0000000), wk =   0.1481481
        k(   10) = (   0.3333333  -0.2509154   0.3556954), wk =   0.2962963

                       cryst. coord.
        k(    1) = (   0.0000000   0.0000000   0.0000000), wk =   0.0740741
        k(    2) = (   0.0000000   0.0000000   0.3333333), wk =   0.1481481
        k(    3) = (   0.0000000   0.3333333   0.0000000), wk =   0.1481481
        k(    4) = (   0.0000000   0.3333333   0.3333333), wk =   0.2962963
        k(    5) = (   0.3333333   0.0000000   0.0000000), wk =   0.1481481
        k(    6) = (   0.3333333   0.0000000   0.3333333), wk =   0.2962963
        k(    7) = (   0.3333333   0.3333333   0.0000000), wk =   0.1481481
        k(    8) = (   0.3333333   0.3333333   0.3333333), wk =   0.2962963
        k(    9) = (   0.3333333  -0.3333333   0.0000000), wk =   0.1481481
        k(   10) = (   0.3333333  -0.3333333   0.3333333), wk =   0.2962963

     Check: negative core charge=   -0.000004

     Initial potential from superposition of free atoms

     starting charge      67.9237, renormalised to      68.0000
     Starting wfcs are   58 randomized atomic wfcs +    6 random wfcs
     Checking if some PAW data can be deallocated...

     Self-consistent Calculation

     iteration #  1     ecut=    30.00 Ry     beta= 0.70
     Davidson diagonalization with overlap

     ethr =  1.00E-02,  avg # of iterations =  8.1

     Threshold (ethr) on eigenvalues was too large:
     Diagonalizing with lowered threshold

     Davidson diagonalization with overlap

[...]

     total energy              =    -914.64861002 Ry
     estimated scf accuracy    <       0.39966909 Ry

[...]

     total energy              =    -914.79713439 Ry
     estimated scf accuracy    <       0.00001815 Ry

     iteration #  7     ecut=    30.00 Ry     beta= 0.70
     Davidson diagonalization with overlap

     ethr =  2.67E-08,  avg # of iterations =  2.0

     End of self-consistent calculation

          k = 0.0000 0.0000 0.0000 (  4275 PWs)   bands (ev):

   -25.7695 -25.7179 -25.7058 -25.7055  -9.4833  -9.4201  -9.3567  -9.3225
    -9.2689  -9.2656  -9.2420  -9.2379  -9.1593  -9.1070  -9.0762  -9.0620
    -4.7117  -4.0918   1.6996   1.9476   2.5392   2.6178   3.1860   3.2208
     3.2634   3.3285   3.3801   3.4500   3.5830   4.0151   4.0591   4.1076
     4.6495   5.0080   6.1697   6.2736   6.8415   7.9058   8.2265   9.0830
     9.7739   9.9324  10.0929  10.2097  10.3170  10.7860  11.0213  11.4284
    11.5148  11.7769  12.1230  12.3619  12.4242  12.6164  12.8030  13.1819
    13.2929  13.3350  13.3520  13.5137  13.6697  14.3642  14.3846  14.4556

     occupation numbers
     1.0000   1.0000   1.0000   1.0000   1.0000   1.0000   1.0000   1.0000
     1.0000   1.0000   1.0000   1.0000   1.0000   1.0000   1.0000   1.0000
     1.0000   1.0000   1.0000   1.0000   1.0000   1.0000   1.0000   1.0000
     1.0000   1.0000   1.0000   1.0000   1.0000   1.0000   1.0000   1.0000
     1.0000   1.0000   0.0000   0.0000   0.0000   0.0000   0.0000   0.0000
     0.0000   0.0000   0.0000   0.0000   0.0000   0.0000   0.0000   0.0000
     0.0000   0.0000   0.0000   0.0000   0.0000   0.0000   0.0000   0.0000
     0.0000   0.0000   0.0000   0.0000   0.0000   0.0000   0.0000   0.0000

[...]

          k = 0.3333-0.2509 0.3557 (  4277 PWs)   bands (ev):

   -25.7448 -25.7350 -25.7175 -25.7015  -9.4581  -9.4555  -9.3889  -9.3879
    -9.3230  -9.2259  -9.2177  -9.1681  -9.1475  -9.1461  -9.0616  -9.0584
    -4.4648  -4.2161   1.9653   2.0402   2.6664   2.8006   2.8674   2.9421
     3.0280   3.2536   3.2853   3.3913   3.3939   3.5152   3.9101   4.2462
     4.3657   4.8669   7.5583   7.6720   7.9819   8.0645   8.1596   8.7242
     9.4099   9.7483   9.8805  10.2661  10.3709  10.4650  10.7757  10.7807
    11.1487  11.3335  11.6422  11.7104  11.9930  12.3494  12.3934  12.5060
    12.9116  13.0562  13.5733  13.7087  14.1511  14.2671  14.5574  14.7012

     occupation numbers
     1.0000   1.0000   1.0000   1.0000   1.0000   1.0000   1.0000   1.0000
     1.0000   1.0000   1.0000   1.0000   1.0000   1.0000   1.0000   1.0000
     1.0000   1.0000   1.0000   1.0000   1.0000   1.0000   1.0000   1.0000
     1.0000   1.0000   1.0000   1.0000   1.0000   1.0000   1.0000   1.0000
     1.0000   1.0000   0.0000   0.0000   0.0000   0.0000   0.0000   0.0000
     0.0000   0.0000   0.0000   0.0000   0.0000   0.0000   0.0000   0.0000
     0.0000   0.0000   0.0000   0.0000   0.0000   0.0000   0.0000   0.0000
     0.0000   0.0000   0.0000   0.0000   0.0000   0.0000   0.0000   0.0000

     highest occupied, lowest unoccupied level (ev):     5.0368    6.1697

!    total energy              =    -914.79713863 Ry
     estimated scf accuracy    <       0.00000060 Ry

     The total energy is the sum of the following terms:
     one-electron contribution =    -235.76305134 Ry
     hartree contribution      =     161.07695364 Ry
     xc contribution           =    -152.70064167 Ry
     ewald contribution        =    -286.08408042 Ry
     one-center paw contrib.   =    -401.32631884 Ry
      -> PAW hartree energy AE =      37.76679725 Ry
      -> PAW hartree energy PS =     -37.55641146 Ry
      -> PAW xc energy AE      =     -66.22594392 Ry
      -> PAW xc energy PS      =      10.59783081 Ry
      -> total E_H with PAW    =     161.28733943 Ry
      -> total E_XC with PAW   =    -208.32875477 Ry

     convergence has been achieved in   7 iterations

     Writing all to output data dir bands_nm/myprefix.save/

     General routines

     Parallel routines

     PAW routines

   This run was terminated on:  18:27:34  14Jul2023

   JOB DONE.