     Program PWSCF v.7.1 starts on 14Jul2023 at 17:13:30

     Reading input from espresso_11698.pwi
Warning: card &CELL ignored
Warning: card / ignored

     Current dimensions of program PWSCF are:
     Max number of different atomic species (ntypx) = 10
     Max number of k-points (npk) =  40000
     Max angular momentum in pseudopotentials (lmaxx) =  4
     file O.pbe-n-kjpaw_psl.0.1.UPF: wavefunction(s)  2P renormalized
     Message from routine setup:
     using ibrav=0 with symmetry is DISCOURAGED, use correct ibrav instead

     K-points division:     npool     =       2
     R & G space division:  proc/nbgrp/npool/nimage =       4
     Subspace diagonalization in iterative solution of the eigenvalue problem:
     a serial algorithm will be used

     Using Slab Decomposition

     bravais-lattice index     =            0
     lattice parameter (alat)  =      10.3930  a.u.
     unit-cell volume          =     745.4570 (a.u.)^3
     number of atoms/cell      =            4
     number of atomic types    =            2
     number of electrons       =        30.00
     number of Kohn-Sham states=           64
     kinetic-energy cutoff     =      30.0000  Ry
     charge density cutoff     =     240.0000  Ry
     scf convergence threshold =      1.0E-06
     mixing beta               =       0.7000
     number of iterations used =            8  plain     mixing
     Exchange-correlation= SLA  PW   PBX  PBC
                           (   1   4   3   4   0   0   0)

     celldm(1)=  10.393024  celldm(2)=   0.000000  celldm(3)=   0.000000
     celldm(4)=   0.000000  celldm(5)=   0.000000  celldm(6)=   0.000000

     crystal axes: (cart. coord. in units of alat)
               a(1) = (   1.000000   0.000000   0.000000 )
               a(2) = (  -0.034608   0.999401   0.000000 )
               a(3) = (  -0.284649  -0.691008   0.664442 )

     reciprocal axes: (cart. coord. in units 2 pi/alat)
               b(1) = (  1.000000  0.034629  0.464417 )
               b(2) = (  0.000000  1.000599  1.040605 )
               b(3) = (  0.000000  0.000000  1.505022 )

     PseudoPot. # 1 for Cs read from file:
     /lustre07/scratch/pragov/crystal_structure_design/utils/SSSP/Cs_pbe_v1.uspp.F.UPF
     MD5 check sum: 3476d69cb178dfad3ffaa59df4e07ca4
     Pseudo is Ultrasoft + core correction, Zval =  9.0
     Generated by new atomic code, or converted to UPF format
     Using radial grid of  905 points,  6 beta functions with:
                l(1) =   0
                l(2) =   0
                l(3) =   1
                l(4) =   1
                l(5) =   2
                l(6) =   2
     Q(r) pseudized with  6 coefficients,  rinner =    1.500   1.500   1.500
                                                       1.500   1.500

     PseudoPot. # 2 for O  read from file:
     /lustre07/scratch/pragov/crystal_structure_design/utils/SSSP/O.pbe-n-kjpaw_psl.0.1.UPF
     MD5 check sum: 0234752ac141de4415c5fc33072bef88
     Pseudo is Projector augmented-wave + core cor, Zval =  6.0
     Generated using "atomic" code by A. Dal Corso  v.5.0.99 svn rev. 10869
     Shape of augmentation charge: BESSEL
     Using radial grid of 1095 points,  4 beta functions with:
                l(1) =   0
                l(2) =   0
                l(3) =   1
                l(4) =   1
     Q(r) pseudized with 0 coefficients

     atomic species   valence    mass     pseudopotential
        Cs             9.00   132.90545     Cs( 1.00)
        O              6.00    15.99900     O ( 1.00)

      2 Sym. Ops., with inversion, found

                                    s                        frac. trans.

      isym =  1     identity

 cryst.   s( 1) = (     1          0          0      )
                  (     0          1          0      )
                  (     0          0          1      )

 cart.    s( 1) = (  1.0000000 -0.0000000  0.0000000 )
                  (  0.0000000  1.0000000  0.0000000 )
                  (  0.0000000  0.0000000  1.0000000 )

      isym =  2     inversion

 cryst.   s( 2) = (    -1          0          0      )
                  (     0         -1          0      )
                  (     0          0         -1      )

 cart.    s( 2) = ( -1.0000000  0.0000000  0.0000000 )
                  (  0.0000000 -1.0000000  0.0000000 )
                  (  0.0000000  0.0000000 -1.0000000 )

   Cartesian axes

     site n.     atom                  positions (alat units)
         1           Cs  tau(   1) = (   0.2474068   0.2561225   0.0000000  )
         2           Cs  tau(   2) = (   0.7179851   0.7432785   0.0000000  )
         3           O   tau(   3) = (   0.4401917  -0.4252122   0.4088651  )
         4           O   tau(   4) = (   0.2405508   0.7336056   0.2555770  )

   Crystallographic axes

     site n.     atom                  positions (cryst. coord.)
         1           Cs  tau(   1) = (  0.2562760  0.2562760  0.0000000  )
         2           Cs  tau(   2) = (  0.7437240  0.7437240  0.0000000  )
         3           O   tau(   3) = (  0.6153510 -0.0000000  0.6153510  )
         4           O   tau(   4) = (  0.3846490  1.0000000  0.3846490  )

     number of k points=    14
                       cart. coord. in units 2pi/alat
        k(    1) = (   0.0000000   0.0000000   0.0000000), wk =   0.0740741
        k(    2) = (   0.0000000   0.0000000   0.5016740), wk =   0.1481481
        k(    3) = (   0.0000000   0.3335331   0.3468684), wk =   0.1481481
        k(    4) = (   0.0000000   0.3335331   0.8485424), wk =   0.1481481
        k(    5) = (   0.0000000   0.3335331  -0.1548057), wk =   0.1481481
        k(    6) = (   0.3333333   0.0115429   0.1548057), wk =   0.1481481
        k(    7) = (   0.3333333   0.0115429   0.6564797), wk =   0.1481481
        k(    8) = (   0.3333333   0.0115429  -0.3468684), wk =   0.1481481
        k(    9) = (   0.3333333   0.3450761   0.5016741), wk =   0.1481481
        k(   10) = (   0.3333333   0.3450761   1.0033481), wk =   0.1481481
        k(   11) = (   0.3333333   0.3450761   0.0000000), wk =   0.1481481
        k(   12) = (   0.3333333  -0.3219902  -0.1920627), wk =   0.1481481
        k(   13) = (   0.3333333  -0.3219902   0.3096114), wk =   0.1481481
        k(   14) = (   0.3333333  -0.3219902  -0.6937367), wk =   0.1481481

                       cryst. coord.
        k(    1) = (   0.0000000   0.0000000   0.0000000), wk =   0.0740741
        k(    2) = (   0.0000000   0.0000000   0.3333333), wk =   0.1481481
        k(    3) = (   0.0000000   0.3333333  -0.0000000), wk =   0.1481481
        k(    4) = (   0.0000000   0.3333333   0.3333333), wk =   0.1481481
        k(    5) = (   0.0000000   0.3333333  -0.3333333), wk =   0.1481481
        k(    6) = (   0.3333333  -0.0000000   0.0000000), wk =   0.1481481
        k(    7) = (   0.3333333  -0.0000000   0.3333333), wk =   0.1481481
        k(    8) = (   0.3333333  -0.0000000  -0.3333333), wk =   0.1481481
        k(    9) = (   0.3333333   0.3333333  -0.0000000), wk =   0.1481481
        k(   10) = (   0.3333333   0.3333333   0.3333333), wk =   0.1481481
        k(   11) = (   0.3333333   0.3333333  -0.3333333), wk =   0.1481481
        k(   12) = (   0.3333333  -0.3333333   0.0000000), wk =   0.1481481
        k(   13) = (   0.3333333  -0.3333333   0.3333333), wk =   0.1481481
        k(   14) = (   0.3333333  -0.3333333  -0.3333333), wk =   0.1481481

     Check: negative core charge=   -0.000006

     Initial potential from superposition of free atoms

     starting charge      29.9212, renormalised to      30.0000
     Starting wfcs are   34 randomized atomic wfcs +   30 random wfcs
     Checking if some PAW data can be deallocated...

     Self-consistent Calculation

     iteration #  1     ecut=    30.00 Ry     beta= 0.70
     Davidson diagonalization with overlap

     ethr =  1.00E-02,  avg # of iterations =  7.8

     total energy              =    -209.06492768 Ry
     estimated scf accuracy    <       0.67830237 Ry

[...]

     total energy              =    -209.34632916 Ry
     estimated scf accuracy    <       0.00000183 Ry

     iteration #  8     ecut=    30.00 Ry     beta= 0.70
     Davidson diagonalization with overlap

     ethr =  6.08E-09,  avg # of iterations =  1.5

     End of self-consistent calculation

          k = 0.0000 0.0000 0.0000 (  2041 PWs)   bands (ev):

   -15.8633 -15.3400 -13.7713  -8.2017  -3.0496  -2.8967  -2.2809  -2.1244
    -1.9675  -1.7928   1.1895   2.6368   2.6651   5.7377   6.3676   8.1209
     8.4732   9.2967  10.5317  11.4203  11.7418  12.3488  12.7552  15.0819
    15.5957  15.9867  16.0801  16.2610  16.4539  17.2967  17.3712  17.8031
    18.3796  18.9742  19.4732  19.7177  20.9704  21.8200  22.1469  22.1939
    22.2403  22.6320  22.6429  23.1863  23.4615  23.7297  23.8208  24.2738
    24.3795  24.6802  25.4122  25.7975  27.4096  27.4528  27.4811  28.3477
    28.4941  29.0013  29.3446  30.1202  31.3834  32.3636  32.5644  32.7048

     occupation numbers
     1.0000   1.0000   1.0000   1.0000   1.0000   1.0000   1.0000   1.0000
     1.0000   1.0000   1.0000   1.0000   1.0000   1.0000   1.0000   0.0000
     0.0000   0.0000   0.0000   0.0000   0.0000   0.0000   0.0000   0.0000
     0.0000   0.0000   0.0000   0.0000   0.0000   0.0000   0.0000   0.0000
     0.0000   0.0000   0.0000   0.0000   0.0000   0.0000   0.0000   0.0000
     0.0000   0.0000   0.0000   0.0000   0.0000   0.0000   0.0000   0.0000
     0.0000   0.0000   0.0000   0.0000   0.0000   0.0000   0.0000   0.0000
     0.0000   0.0000   0.0000   0.0000   0.0000   0.0000   0.0000   0.0000

[...]

          k = 0.3333-0.3220-0.6937 (  2081 PWs)   bands (ev):

   -15.5294 -15.4726 -13.9944  -8.2499  -3.2939  -2.7267  -2.5711  -2.4865
    -1.9864  -1.6287   1.2602   2.9213   2.9764   5.7772   5.8142   8.9932
     9.8198  10.5422  10.8896  11.4517  11.5987  12.1263  13.3486  13.8015
    13.8148  14.6535  14.9300  16.2837  16.4731  16.8938  18.0423  18.2564
    18.6314  18.8717  19.1875  19.2408  20.5527  20.8601  21.6443  21.9680
    22.1253  22.4398  22.5076  22.8156  22.9874  24.3352  24.4246  24.8461
    24.9606  25.9881  26.4961  26.5917  27.3374  27.7255  28.2706  29.1065
    29.4126  29.6247  29.6712  30.4930  30.8751  31.2102  31.4812  32.0551

     occupation numbers
     1.0000   1.0000   1.0000   1.0000   1.0000   1.0000   1.0000   1.0000
     1.0000   1.0000   1.0000   1.0000   1.0000   1.0000   1.0000   0.0000
     0.0000   0.0000   0.0000   0.0000   0.0000   0.0000   0.0000   0.0000
     0.0000   0.0000   0.0000   0.0000   0.0000   0.0000   0.0000   0.0000
     0.0000   0.0000   0.0000   0.0000   0.0000   0.0000   0.0000   0.0000
     0.0000   0.0000   0.0000   0.0000   0.0000   0.0000   0.0000   0.0000
     0.0000   0.0000   0.0000   0.0000   0.0000   0.0000   0.0000   0.0000
     0.0000   0.0000   0.0000   0.0000   0.0000   0.0000   0.0000   0.0000

     highest occupied, lowest unoccupied level (ev):     6.3676    8.1209

!    total energy              =    -209.34632945 Ry
     estimated scf accuracy    <       0.00000007 Ry

     The total energy is the sum of the following terms:
     one-electron contribution =     -52.16823207 Ry
     hartree contribution      =      41.40927001 Ry
     xc contribution           =     -75.36106253 Ry
     ewald contribution        =    -104.15089086 Ry
     one-center paw contrib.   =     -19.07541400 Ry
      -> PAW hartree energy AE =       0.00000000 Ry
      -> PAW hartree energy PS =       0.00000000 Ry
      -> PAW xc energy AE      =       0.00000000 Ry
      -> PAW xc energy PS      =       0.00000000 Ry
      -> total E_H with PAW    =      41.40927001 Ry
      -> total E_XC with PAW   =     -75.36106253 Ry

     convergence has been achieved in   8 iterations

     Writing all to output data dir bands_nm/myprefix.save/

     General routines

     Parallel routines

     PAW routines

   This run was terminated on:  17:13:38  14Jul2023

   JOB DONE.