     Program PWSCF v.7.1 starts on 15Jul2023 at 18:27: 4

     Reading input from espresso_18586.pwi
Warning: card &CELL ignored
Warning: card / ignored

     Current dimensions of program PWSCF are:
     Max number of different atomic species (ntypx) = 10
     Max number of k-points (npk) =  40000
     Max angular momentum in pseudopotentials (lmaxx) =  4
     file Tm.paw.z_23.atompaw.wentzcovitch.v1.2.upf: wavefunction(s)  6S 0P 5D 0D 4F 0F renormalized
     file O.pbe-n-kjpaw_psl.0.1.UPF: wavefunction(s)  2P renormalized
     Message from routine setup:
     using ibrav=0 with symmetry is DISCOURAGED, use correct ibrav instead

     K-points division:     npool     =       2
     R & G space division:  proc/nbgrp/npool/nimage =       4
     Subspace diagonalization in iterative solution of the eigenvalue problem:
     one sub-group per band group will be used

     Using Slab Decomposition

     bravais-lattice index     =            0
     lattice parameter (alat)  =      14.3224  a.u.
     unit-cell volume          =    2591.8571 (a.u.)^3
     number of atoms/cell      =           14
     number of atomic types    =            3
     number of electrons       =       136.00
     number of Kohn-Sham states=          256
     kinetic-energy cutoff     =      30.0000  Ry
     charge density cutoff     =     240.0000  Ry
     scf convergence threshold =      1.0E-06
     mixing beta               =       0.7000
     number of iterations used =            8  plain     mixing
     Exchange-correlation= SLA  PW   PBX  PBC
                           (   1   4   3   4   0   0   0)

     celldm(1)=  14.322438  celldm(2)=   0.000000  celldm(3)=   0.000000
     celldm(4)=   0.000000  celldm(5)=   0.000000  celldm(6)=   0.000000

     crystal axes: (cart. coord. in units of alat)
               a(1) = (   1.000000   0.000000   0.000000 )
               a(2) = (  -0.447901   0.894083   0.000000 )
               a(3) = (   0.105208   0.170377   0.986693 )

     reciprocal axes: (cart. coord. in units 2 pi/alat)
               b(1) = (  1.000000  0.500961 -0.193131 )
               b(2) = (  0.000000  1.118464 -0.193131 )
               b(3) = (  0.000000  0.000000  1.013486 )

     PseudoPot. # 1 for Cs read from file:
     /lustre07/scratch/pragov/crystal_structure_design/utils/SSSP/Cs_pbe_v1.uspp.F.UPF
     MD5 check sum: 3476d69cb178dfad3ffaa59df4e07ca4
     Pseudo is Ultrasoft + core correction, Zval =  9.0
     Generated by new atomic code, or converted to UPF format
     Using radial grid of  905 points,  6 beta functions with:
                l(1) =   0
                l(2) =   0
                l(3) =   1
                l(4) =   1
                l(5) =   2
                l(6) =   2
     Q(r) pseudized with  6 coefficients,  rinner =    1.500   1.500   1.500
                                                       1.500   1.500

     PseudoPot. # 2 for Tm read from file:
     /lustre07/scratch/pragov/crystal_structure_design/utils/SSSP/Tm.paw.z_23.atompaw.wentzcovitch.v1.2.upf
     MD5 check sum: 65ac1a59d66520b67f41930ed0a84655
     Pseudo is Projector augmented-wave + core cor, Zval = 23.0
     Generated using ATOMPAW code
     Shape of augmentation charge: BESSEL
     Using radial grid of 1116 points,  8 beta functions with:
                l(1) =   0
                l(2) =   0
                l(3) =   1
                l(4) =   1
                l(5) =   2
                l(6) =   2
                l(7) =   3
                l(8) =   3
     Q(r) pseudized with 0 coefficients

     PseudoPot. # 3 for O  read from file:
     /lustre07/scratch/pragov/crystal_structure_design/utils/SSSP/O.pbe-n-kjpaw_psl.0.1.UPF
     MD5 check sum: 0234752ac141de4415c5fc33072bef88
     Pseudo is Projector augmented-wave + core cor, Zval =  6.0
     Generated using "atomic" code by A. Dal Corso  v.5.0.99 svn rev. 10869
     Shape of augmentation charge: BESSEL
     Using radial grid of 1095 points,  4 beta functions with:
                l(1) =   0
                l(2) =   0
                l(3) =   1
                l(4) =   1
     Q(r) pseudized with 0 coefficients

     atomic species   valence    mass     pseudopotential
        Cs             9.00   132.90545     Cs( 1.00)
        Tm            23.00   168.93422     Tm( 1.00)
        O              6.00    15.99900     O ( 1.00)

      2 Sym. Ops., with inversion, found

                                    s                        frac. trans.

      isym =  1     identity

 cryst.   s( 1) = (     1          0          0      )
                  (     0          1          0      )
                  (     0          0          1      )

 cart.    s( 1) = (  1.0000000 -0.0000000  0.0000000 )
                  (  0.0000000  1.0000000  0.0000000 )
                  (  0.0000000  0.0000000  1.0000000 )

      isym =  2     inversion

 cryst.   s( 2) = (    -1          0          0      )
                  (     0         -1          0      )
                  (     0          0         -1      )

 cart.    s( 2) = ( -1.0000000  0.0000000 -0.0000000 )
                  (  0.0000000 -1.0000000  0.0000000 )
                  (  0.0000000  0.0000000 -1.0000000 )

   Cartesian axes

     site n.     atom                  positions (alat units)
         1           Cs  tau(   1) = (   0.4222311   0.6837716   0.6421401  )
         2           Cs  tau(   2) = (   0.7478660   0.2733654   0.4933467  )
         3           Cs  tau(   3) = (  -0.0905584   0.7910951   0.4933467  )
         4           Cs  tau(   4) = (   0.6202952   0.2344689   0.0000000  )
         5           Cs  tau(   5) = (  -0.0681961   0.6596144   0.0000000  )
         6           Cs  tau(   6) = (   0.2350765   0.3806889   0.3445533  )
         7           Tm  tau(   7) = (   0.4737946   0.7672750   0.1470015  )
         8           Tm  tau(   8) = (   0.1835130   0.2971855   0.8396919  )
         9           O   tau(   9) = (   0.5871892   0.9509090   0.8476516  )
        10           O   tau(  10) = (   0.2222568   0.7921562   0.2602601  )
        11           O   tau(  11) = (   0.6087045   0.5535236   0.2602601  )
        12           O   tau(  12) = (   0.0486031   0.5109369   0.7264333  )
        13           O   tau(  13) = (   0.4350508   0.2723043   0.7264333  )
        14           O   tau(  14) = (   0.0701184   0.1135515   0.1390419  )

   Crystallographic axes

     site n.     atom                  positions (cryst. coord.)
         1           Cs  tau(   1) = (  0.6407570  0.6407570  0.6508000  )
         2           Cs  tau(   2) = (  0.7895310  0.2104690  0.5000000  )
         3           Cs  tau(   3) = (  0.2104690  0.7895310  0.5000000  )
         4           Cs  tau(   4) = (  0.7377550  0.2622450  0.0000000  )
         5           Cs  tau(   5) = (  0.2622450  0.7377550  0.0000000  )
         6           Cs  tau(   6) = (  0.3592430  0.3592430  0.3492000  )
         7           Tm  tau(   7) = (  0.8297790  0.8297790  0.1489840  )
         8           Tm  tau(   8) = (  0.1702210  0.1702210  0.8510160  )
         9           O   tau(   9) = (  0.8998500  0.8998500  0.8590830  )
        10           O   tau(  10) = (  0.5688320  0.8357340  0.2637700  )
        11           O   tau(  11) = (  0.8357340  0.5688320  0.2637700  )
        12           O   tau(  12) = (  0.1642660  0.4311680  0.7362300  )
        13           O   tau(  13) = (  0.4311680  0.1642660  0.7362300  )
        14           O   tau(  14) = (  0.1001500  0.1001500  0.1409170  )

     number of k points=    14
                       cart. coord. in units 2pi/alat
        k(    1) = (   0.0000000   0.0000000   0.0000000), wk =   0.0740741
        k(    2) = (   0.0000000   0.0000000   0.3378287), wk =   0.1481481
        k(    3) = (   0.0000000   0.3728214  -0.0643769), wk =   0.1481481
        k(    4) = (   0.0000000   0.3728214   0.2734517), wk =   0.1481481
        k(    5) = (   0.0000000   0.3728214  -0.4022056), wk =   0.1481481
        k(    6) = (   0.3333333   0.1669870  -0.0643769), wk =   0.1481481
        k(    7) = (   0.3333333   0.1669870   0.2734517), wk =   0.1481481
        k(    8) = (   0.3333333   0.1669870  -0.4022056), wk =   0.1481481
        k(    9) = (   0.3333333   0.5398084  -0.1287539), wk =   0.1481481
        k(   10) = (   0.3333333   0.5398084   0.2090748), wk =   0.1481481
        k(   11) = (   0.3333333   0.5398084  -0.4665825), wk =   0.1481481
        k(   12) = (   0.3333333  -0.2058343  -0.0000000), wk =   0.1481481
        k(   13) = (   0.3333333  -0.2058343   0.3378287), wk =   0.1481481
        k(   14) = (   0.3333333  -0.2058343  -0.3378287), wk =   0.1481481

                       cryst. coord.
        k(    1) = (   0.0000000   0.0000000   0.0000000), wk =   0.0740741
        k(    2) = (   0.0000000   0.0000000   0.3333333), wk =   0.1481481
        k(    3) = (   0.0000000   0.3333333   0.0000000), wk =   0.1481481
        k(    4) = (   0.0000000   0.3333333   0.3333333), wk =   0.1481481
        k(    5) = (   0.0000000   0.3333333  -0.3333333), wk =   0.1481481
        k(    6) = (   0.3333333   0.0000000   0.0000000), wk =   0.1481481
        k(    7) = (   0.3333333   0.0000000   0.3333333), wk =   0.1481481
        k(    8) = (   0.3333333   0.0000000  -0.3333333), wk =   0.1481481
        k(    9) = (   0.3333333   0.3333333  -0.0000000), wk =   0.1481481
        k(   10) = (   0.3333333   0.3333333   0.3333333), wk =   0.1481481
        k(   11) = (   0.3333333   0.3333333  -0.3333333), wk =   0.1481481
        k(   12) = (   0.3333333  -0.3333333  -0.0000000), wk =   0.1481481
        k(   13) = (   0.3333333  -0.3333333   0.3333333), wk =   0.1481481
        k(   14) = (   0.3333333  -0.3333333  -0.3333333), wk =   0.1481481

     Check: negative core charge=   -0.000006

     Initial potential from superposition of free atoms

     starting charge     135.7549, renormalised to     136.0000
     Starting wfcs are  166 randomized atomic wfcs +   90 random wfcs
     Checking if some PAW data can be deallocated...

     Self-consistent Calculation

     iteration #  1     ecut=    30.00 Ry     beta= 0.70
     Davidson diagonalization with overlap

     ethr =  1.00E-02,  avg # of iterations =  7.0

     total energy              =   -2518.76910621 Ry
     estimated scf accuracy    <       4.84918986 Ry

[...]

     total energy              =   -2521.53329173 Ry
     estimated scf accuracy    <       0.00000315 Ry

     iteration # 60     ecut=    30.00 Ry     beta= 0.70
     Davidson diagonalization with overlap

     ethr =  1.11E-09,  avg # of iterations =  1.0

     End of self-consistent calculation

          k = 0.0000 0.0000 0.0000 (  7227 PWs)   bands (ev):

   -41.8097 -41.7816 -15.6720 -15.3434 -15.2156 -15.1616 -15.0347 -14.9416
   -14.8946 -14.7226 -14.6973 -14.6287 -14.6230 -14.5714  -9.2141  -9.0565
    -8.5612  -8.3485  -8.3107  -8.3060  -2.3751  -2.1903  -2.1813  -2.1251
    -2.0654  -1.9690  -1.8334  -1.7770  -1.6644  -1.4205  -1.3100  -1.2050
    -1.1764  -1.1181  -1.0843  -0.9518  -0.8932  -0.8148   4.3598   4.3667
     4.6793   4.7785   4.9010   5.0135   5.2842   5.3242   5.3886   5.5661
     5.6111   5.6547   5.6876   5.7321   5.8173   5.8581   5.9055   5.9894
     6.7593   6.8847   6.9141   6.9647   6.9762   7.0206   7.0318   7.0472
     7.0717   7.1173   7.1431   7.1538   7.1585   7.1902   8.6348  10.0340
    10.3200  10.4750  10.6657  10.9255  11.0711  11.0714  11.2392  11.3425
    11.4817  11.9270  11.9365  11.9689  12.1421  12.2444  12.7018  12.8436
    12.9591  12.9710  13.1738  13.2524  13.5416  13.6864  13.8609  14.0142
    14.0923  14.2816  14.3500  14.4809  14.5504  14.6457  14.8472  14.8644
    14.8691  15.2730  15.5882  15.8476  16.0953  16.1010  16.3286  16.6426
    16.8289  16.8490  16.9420  17.0025  17.2302  17.2522  17.7978  18.0352
    18.1704  18.6016  18.6738  18.7348  18.7953  19.1298  19.1426  19.2439
    19.4264  19.5301  19.6004  19.7044  19.9265  19.9961  20.2828  20.5522
    20.6420  20.7063  20.8448  20.8522  20.8902  21.1680  21.2442  21.3970
    21.4428  21.4933  21.5346  21.8304  22.0604  22.1715  22.2185  22.2753
    22.3872  22.5417  22.6418  22.7522  22.8788  22.8854  22.9403  22.9759
    22.9825  23.0283  23.0392  23.1622  23.1656  23.1711  23.3786  23.4988
    23.6583  23.6596  23.9318  24.2305  24.3566  24.3831  24.5054  24.8458
    24.9739  24.9912  25.0325  25.3864  25.3890  25.4997  25.8590  26.1907
    26.2630  26.3212  26.4806  26.5272  26.5474  26.6027  26.7471  26.9236
    27.1865  27.2733  27.4609  27.4828  27.5516  27.7813  27.8484  27.9215
    28.2281  28.2703  28.3832  28.6033  28.6697  28.7428  28.8865  29.0463
    29.0512  29.4307  29.6308  29.7629  29.9402  29.9560  30.2015  30.3151
    30.5189  30.5580  30.6985  30.7654  30.8891  31.0308  31.0538  31.1487
    31.3932  31.5214  31.6213  31.6587  31.6986  31.7393  32.0706  32.1101
    32.3137  32.7210  32.7887  32.8353  33.0612  33.0942  33.2508  33.3617
    33.5026  33.6248  33.7150  33.8903  33.9057  33.9958  34.2403  34.2792
    34.5021  34.5318  34.6647  34.7687  35.0277  35.0745  35.1692  35.2017

     occupation numbers
     1.0000   1.0000   1.0000   1.0000   1.0000   1.0000   1.0000   1.0000
     1.0000   1.0000   1.0000   1.0000   1.0000   1.0000   1.0000   1.0000
     1.0000   1.0000   1.0000   1.0000   1.0000   1.0000   1.0000   1.0000
     1.0000   1.0000   1.0000   1.0000   1.0000   1.0000   1.0000   1.0000
     1.0000   1.0000   1.0000   1.0000   1.0000   1.0000   1.0000   1.0000
     1.0000   1.0000   1.0000   1.0000   1.0000   1.0000   1.0000   1.0000
     1.0000   1.0000   1.0000   1.0000   1.0000   1.0000   1.0000   1.0000
     1.0000   1.0000   1.0000   1.0000   1.0000   1.0000   1.0000   1.0000
     1.0000   1.0000   1.0000   1.0000   0.0000   0.0000   0.0000   0.0000
     0.0000   0.0000   0.0000   0.0000   0.0000   0.0000   0.0000   0.0000
     0.0000   0.0000   0.0000   0.0000   0.0000   0.0000   0.0000   0.0000
     0.0000   0.0000   0.0000   0.0000   0.0000   0.0000   0.0000   0.0000
     0.0000   0.0000   0.0000   0.0000   0.0000   0.0000   0.0000   0.0000
     0.0000   0.0000   0.0000   0.0000   0.0000   0.0000   0.0000   0.0000
     0.0000   0.0000   0.0000   0.0000   0.0000   0.0000   0.0000   0.0000
     0.0000   0.0000   0.0000   0.0000   0.0000   0.0000   0.0000   0.0000
     0.0000   0.0000   0.0000   0.0000   0.0000   0.0000   0.0000   0.0000
     0.0000   0.0000   0.0000   0.0000   0.0000   0.0000   0.0000   0.0000
     0.0000   0.0000   0.0000   0.0000   0.0000   0.0000   0.0000   0.0000
     0.0000   0.0000   0.0000   0.0000   0.0000   0.0000   0.0000   0.0000
     0.0000   0.0000   0.0000   0.0000   0.0000   0.0000   0.0000   0.0000
     0.0000   0.0000   0.0000   0.0000   0.0000   0.0000   0.0000   0.0000
     0.0000   0.0000   0.0000   0.0000   0.0000   0.0000   0.0000   0.0000
     0.0000   0.0000   0.0000   0.0000   0.0000   0.0000   0.0000   0.0000
     0.0000   0.0000   0.0000   0.0000   0.0000   0.0000   0.0000   0.0000
     0.0000   0.0000   0.0000   0.0000   0.0000   0.0000   0.0000   0.0000
     0.0000   0.0000   0.0000   0.0000   0.0000   0.0000   0.0000   0.0000
     0.0000   0.0000   0.0000   0.0000   0.0000   0.0000   0.0000   0.0000
     0.0000   0.0000   0.0000   0.0000   0.0000   0.0000   0.0000   0.0000
     0.0000   0.0000   0.0000   0.0000   0.0000   0.0000   0.0000   0.0000
     0.0000   0.0000   0.0000   0.0000   0.0000   0.0000   0.0000   0.0000
     0.0000   0.0000   0.0000   0.0000   0.0000   0.0000   0.0000   0.0000

[...]

          k = 0.3333-0.2058-0.3378 (  7174 PWs)   bands (ev):

   -41.8097 -41.7815 -15.6711 -15.3463 -15.2343 -15.1644 -15.0368 -14.9783
   -14.7837 -14.7307 -14.6824 -14.6646 -14.6215 -14.5893  -9.2459  -9.0605
    -8.5462  -8.3732  -8.2982  -8.2848  -2.1648  -2.1157  -2.1035  -1.9801
    -1.9470  -1.8865  -1.8475  -1.7019  -1.6322  -1.5018  -1.4811  -1.3751
    -1.2744  -1.2113  -1.1198  -1.0855  -1.0198  -0.8719   4.3753   4.4461
     4.6088   4.7837   4.8091   4.9425   5.3221   5.3803   5.4581   5.5620
     5.6439   5.6670   5.6969   5.7215   5.8389   5.8883   5.9122   5.9539
     6.7903   6.8931   6.9114   6.9736   6.9875   7.0231   7.0345   7.0668
     7.0704   7.1004   7.1330   7.1555   7.1656   7.1674   9.5420   9.9676
    10.1990  10.3398  10.6014  10.8220  10.8572  11.1307  11.2674  11.6082
    11.6411  11.8197  11.9526  12.1407  12.3172  12.4335  12.7312  12.7604
    12.8661  12.9046  13.0964  13.2882  13.3804  13.5222  13.7830  13.9067
    14.0350  14.1813  14.3106  14.5127  14.5466  14.8212  14.9234  15.0204
    15.0591  15.2983  15.4321  15.7980  16.0970  16.1540  16.3399  16.5434
    16.6028  16.8085  16.9115  17.1734  17.3727  17.4150  17.7368  17.8686
    17.9821  18.2343  18.5660  18.6146  18.6372  18.7027  18.8798  19.0357
    19.1913  19.3731  19.4670  19.6639  19.8222  19.9431  20.0459  20.1079
    20.3851  20.5510  20.7331  20.7868  21.1091  21.1662  21.3710  21.5199
    21.5913  21.6868  21.7576  21.9180  21.9813  22.1363  22.3277  22.3848
    22.4485  22.7760  22.8925  22.9507  22.9647  22.9936  23.0214  23.0230
    23.0468  23.1146  23.2499  23.3476  23.4048  23.5045  23.7407  23.8575
    23.8992  24.0007  24.0963  24.1443  24.2383  24.3820  24.5233  24.6705
    24.7909  25.0118  25.1698  25.3476  25.5261  25.5618  25.6699  25.9342
    26.0893  26.1345  26.4890  26.5619  26.6956  26.8425  26.8723  27.0418
    27.2363  27.3031  27.5305  27.5781  27.7729  27.8137  27.8853  27.9630
    28.3038  28.5495  28.5796  28.7067  28.8438  28.9280  29.1976  29.3259
    29.4001  29.4821  29.5455  29.6962  29.7691  29.8183  30.0288  30.2992
    30.4389  30.5739  30.6602  30.7171  30.8304  30.8937  30.9096  31.1852
    31.3482  31.5035  31.5718  31.7040  31.7205  31.9387  32.0627  32.1876
    32.3752  32.5149  32.5421  32.7568  32.8704  32.9565  33.0969  33.1804
    33.3030  33.5046  33.5983  33.7149  33.9274  33.9891  34.2296  34.3696
    34.4732  34.4944  34.5785  34.6661  34.7755  35.2035  35.2496  35.2682

     occupation numbers
     1.0000   1.0000   1.0000   1.0000   1.0000   1.0000   1.0000   1.0000
     1.0000   1.0000   1.0000   1.0000   1.0000   1.0000   1.0000   1.0000
     1.0000   1.0000   1.0000   1.0000   1.0000   1.0000   1.0000   1.0000
     1.0000   1.0000   1.0000   1.0000   1.0000   1.0000   1.0000   1.0000
     1.0000   1.0000   1.0000   1.0000   1.0000   1.0000   1.0000   1.0000
     1.0000   1.0000   1.0000   1.0000   1.0000   1.0000   1.0000   1.0000
     1.0000   1.0000   1.0000   1.0000   1.0000   1.0000   1.0000   1.0000
     1.0000   1.0000   1.0000   1.0000   1.0000   1.0000   1.0000   1.0000
     1.0000   1.0000   1.0000   1.0000   0.0000   0.0000   0.0000   0.0000
     0.0000   0.0000   0.0000   0.0000   0.0000   0.0000   0.0000   0.0000
     0.0000   0.0000   0.0000   0.0000   0.0000   0.0000   0.0000   0.0000
     0.0000   0.0000   0.0000   0.0000   0.0000   0.0000   0.0000   0.0000
     0.0000   0.0000   0.0000   0.0000   0.0000   0.0000   0.0000   0.0000
     0.0000   0.0000   0.0000   0.0000   0.0000   0.0000   0.0000   0.0000
     0.0000   0.0000   0.0000   0.0000   0.0000   0.0000   0.0000   0.0000
     0.0000   0.0000   0.0000   0.0000   0.0000   0.0000   0.0000   0.0000
     0.0000   0.0000   0.0000   0.0000   0.0000   0.0000   0.0000   0.0000
     0.0000   0.0000   0.0000   0.0000   0.0000   0.0000   0.0000   0.0000
     0.0000   0.0000   0.0000   0.0000   0.0000   0.0000   0.0000   0.0000
     0.0000   0.0000   0.0000   0.0000   0.0000   0.0000   0.0000   0.0000
     0.0000   0.0000   0.0000   0.0000   0.0000   0.0000   0.0000   0.0000
     0.0000   0.0000   0.0000   0.0000   0.0000   0.0000   0.0000   0.0000
     0.0000   0.0000   0.0000   0.0000   0.0000   0.0000   0.0000   0.0000
     0.0000   0.0000   0.0000   0.0000   0.0000   0.0000   0.0000   0.0000
     0.0000   0.0000   0.0000   0.0000   0.0000   0.0000   0.0000   0.0000
     0.0000   0.0000   0.0000   0.0000   0.0000   0.0000   0.0000   0.0000
     0.0000   0.0000   0.0000   0.0000   0.0000   0.0000   0.0000   0.0000
     0.0000   0.0000   0.0000   0.0000   0.0000   0.0000   0.0000   0.0000
     0.0000   0.0000   0.0000   0.0000   0.0000   0.0000   0.0000   0.0000
     0.0000   0.0000   0.0000   0.0000   0.0000   0.0000   0.0000   0.0000
     0.0000   0.0000   0.0000   0.0000   0.0000   0.0000   0.0000   0.0000
     0.0000   0.0000   0.0000   0.0000   0.0000   0.0000   0.0000   0.0000

     highest occupied, lowest unoccupied level (ev):     7.1601    7.1470

!    total energy              =   -2521.53328982 Ry
     estimated scf accuracy    <       0.00000055 Ry

     The total energy is the sum of the following terms:
     one-electron contribution =   -1133.61137144 Ry
     hartree contribution      =     590.40958619 Ry
     xc contribution           =    -297.63724165 Ry
     ewald contribution        =    -646.71371731 Ry
     one-center paw contrib.   =   -1033.98054560 Ry
      -> PAW hartree energy AE =       0.00000000 Ry
      -> PAW hartree energy PS =       0.00000000 Ry
      -> PAW xc energy AE      =       0.00000000 Ry
      -> PAW xc energy PS      =       0.00000000 Ry
      -> total E_H with PAW    =     590.40958619 Ry
      -> total E_XC with PAW   =    -297.63724165 Ry

     convergence has been achieved in  60 iterations

     Writing all to output data dir bands_nm/myprefix.save/

     General routines

     Parallel routines

     PAW routines

   This run was terminated on:  18:34:40  15Jul2023

   JOB DONE.