     Program PWSCF v.7.1 starts on 17Jul2023 at  0:52:47

     Reading input from espresso_19490.pwi
Warning: card &CELL ignored
Warning: card / ignored

     Current dimensions of program PWSCF are:
     Max number of different atomic species (ntypx) = 10
     Max number of k-points (npk) =  40000
     Max angular momentum in pseudopotentials (lmaxx) =  4
     file O.pbe-n-kjpaw_psl.0.1.UPF: wavefunction(s)  2P renormalized
     Message from routine setup:
     using ibrav=0 with symmetry is DISCOURAGED, use correct ibrav instead

     K-points division:     npool     =       2
     R & G space division:  proc/nbgrp/npool/nimage =       4
     Subspace diagonalization in iterative solution of the eigenvalue problem:
     one sub-group per band group will be used

     Using Slab Decomposition

     bravais-lattice index     =            0
     lattice parameter (alat)  =      11.1040  a.u.
     unit-cell volume          =    1942.4390 (a.u.)^3
     number of atoms/cell      =           20
     number of atomic types    =            3
     number of electrons       =       160.00
     number of Kohn-Sham states=          256
     kinetic-energy cutoff     =      30.0000  Ry
     charge density cutoff     =     240.0000  Ry
     scf convergence threshold =      1.0E-06
     mixing beta               =       0.7000
     number of iterations used =            8  plain     mixing
     Exchange-correlation= SLA  PW   PBX  PBC
                           (   1   4   3   4   0   0   0)

     celldm(1)=  11.104014  celldm(2)=   0.000000  celldm(3)=   0.000000
     celldm(4)=   0.000000  celldm(5)=   0.000000  celldm(6)=   0.000000

     crystal axes: (cart. coord. in units of alat)
               a(1) = (   1.000000   0.000000   0.000000 )
               a(2) = (  -0.009895   0.999951   0.000000 )
               a(3) = (   0.000000   0.000000   1.418824 )

     reciprocal axes: (cart. coord. in units 2 pi/alat)
               b(1) = (  1.000000  0.009895  0.000000 )
               b(2) = (  0.000000  1.000049  0.000000 )
               b(3) = (  0.000000  0.000000  0.704809 )

     PseudoPot. # 1 for Sr read from file:
     /lustre07/scratch/pragov/crystal_structure_design/utils/SSSP/Sr_pbe_v1.uspp.F.UPF
     MD5 check sum: 6b418c05fbe9db5448babca5e47b7a5b
     Pseudo is Ultrasoft + core correction, Zval = 10.0
     Generated by new atomic code, or converted to UPF format
     Using radial grid of  883 points,  6 beta functions with:
                l(1) =   0
                l(2) =   0
                l(3) =   1
                l(4) =   1
                l(5) =   2
                l(6) =   2
     Q(r) pseudized with  6 coefficients,  rinner =    1.400   1.400   1.400
                                                       1.400   1.400

     PseudoPot. # 2 for Zr read from file:
     /lustre07/scratch/pragov/crystal_structure_design/utils/SSSP/Zr_pbe_v1.uspp.F.UPF
     MD5 check sum: 5db81b1e868ab7776c4564c113de050b
     Pseudo is Ultrasoft + core correction, Zval = 12.0
     Generated by new atomic code, or converted to UPF format
     Using radial grid of  887 points,  6 beta functions with:
                l(1) =   0
                l(2) =   0
                l(3) =   1
                l(4) =   1
                l(5) =   2
                l(6) =   2
     Q(r) pseudized with  6 coefficients,  rinner =    1.200   1.200   1.200
                                                       1.200   1.200

     PseudoPot. # 3 for O  read from file:
     /lustre07/scratch/pragov/crystal_structure_design/utils/SSSP/O.pbe-n-kjpaw_psl.0.1.UPF
     MD5 check sum: 0234752ac141de4415c5fc33072bef88
     Pseudo is Projector augmented-wave + core cor, Zval =  6.0
     Generated using "atomic" code by A. Dal Corso  v.5.0.99 svn rev. 10869
     Shape of augmentation charge: BESSEL
     Using radial grid of 1095 points,  4 beta functions with:
                l(1) =   0
                l(2) =   0
                l(3) =   1
                l(4) =   1
     Q(r) pseudized with 0 coefficients

     atomic species   valence    mass     pseudopotential
        Sr            10.00    87.62000     Sr( 1.00)
        Zr            12.00    91.22400     Zr( 1.00)
        O              6.00    15.99900     O ( 1.00)

      4 Sym. Ops., with inversion, found ( 2 have fractional translation)

                                    s                        frac. trans.

      isym =  1     identity

 cryst.   s( 1) = (     1          0          0      )
                  (     0          1          0      )
                  (     0          0          1      )

 cart.    s( 1) = (  1.0000000  0.0000000  0.0000000 )
                  (  0.0000000  1.0000000  0.0000000 )
                  (  0.0000000  0.0000000  1.0000000 )

      isym =  2     180 deg rotation - cart. axis [0,0,1]

 cryst.   s( 2) = (    -1          0          0      )    f =( -0.0000000 )
                  (     0         -1          0      )       (  0.0000000 )
                  (     0          0          1      )       ( -0.5000000 )

 cart.    s( 2) = ( -1.0000000 -0.0000000  0.0000000 )    f =( -0.0000000 )
                  (  0.0000000 -1.0000000  0.0000000 )       (  0.0000000 )
                  (  0.0000000  0.0000000  1.0000000 )       ( -0.7094121 )

      isym =  3     inversion

 cryst.   s( 3) = (    -1          0          0      )
                  (     0         -1          0      )
                  (     0          0         -1      )

 cart.    s( 3) = ( -1.0000000 -0.0000000  0.0000000 )
                  (  0.0000000 -1.0000000  0.0000000 )
                  (  0.0000000  0.0000000 -1.0000000 )

      isym =  4     inv. 180 deg rotation - cart. axis [0,0,1]

 cryst.   s( 4) = (     1          0          0      )    f =(  0.0000000 )
                  (     0          1          0      )       (  0.0000000 )
                  (     0          0         -1      )       ( -0.5000000 )

 cart.    s( 4) = (  1.0000000  0.0000000  0.0000000 )    f =(  0.0000000 )
                  (  0.0000000  1.0000000  0.0000000 )       (  0.0000000 )
                  (  0.0000000  0.0000000 -1.0000000 )       ( -0.7094121 )

   Cartesian axes

     site n.     atom                  positions (alat units)
         1           Sr  tau(   1) = (   0.9874308   0.0124454   1.0641182  )
         2           Sr  tau(   2) = (   0.0026743   0.9875057   0.3547061  )
         3           Sr  tau(   3) = (   0.4898607   0.5051163   1.0641182  )
         4           Sr  tau(   4) = (   0.5002445   0.4948348   0.3547061  )
         5           Zr  tau(   5) = (   0.5000000   0.0000000   0.0000000  )
         6           Zr  tau(   6) = (   0.5000000   0.0000000   0.7094121  )
         7           Zr  tau(   7) = (  -0.0049474   0.4999755   0.0000000  )
         8           Zr  tau(   8) = (  -0.0049474   0.4999755   0.7094121  )
         9           O   tau(   9) = (   0.9536703   0.4472521   1.0641182  )
        10           O   tau(  10) = (   0.0364349   0.5526989   0.3547061  )
        11           O   tau(  11) = (   0.4377938   0.9580491   0.3547061  )
        12           O   tau(  12) = (   0.5523114   0.0419019   1.0641182  )
        13           O   tau(  13) = (   0.2014540   0.7906833   0.7729357  )
        14           O   tau(  14) = (   0.7886512   0.2092678   0.0635236  )
        15           O   tau(  15) = (   0.7886512   0.2092678   0.6458885  )
        16           O   tau(  16) = (   0.2014540   0.7906833   1.3553006  )
        17           O   tau(  17) = (   0.2911563   0.2940516   0.0000000  )
        18           O   tau(  18) = (   0.6989489   0.7058994   0.7094121  )
        19           O   tau(  19) = (   0.6989489   0.7058994   0.0000000  )
        20           O   tau(  20) = (   0.2911563   0.2940516   0.7094121  )

   Crystallographic axes

     site n.     atom                  positions (cryst. coord.)
         1           Sr  tau(   1) = (  0.9875540  0.0124460  0.7500000  )
         2           Sr  tau(   2) = (  0.0124460  0.9875540  0.2500000  )
         3           Sr  tau(   3) = (  0.4948590  0.5051410  0.7500000  )
         4           Sr  tau(   4) = (  0.5051410  0.4948590  0.2500000  )
         5           Zr  tau(   5) = (  0.5000000  0.0000000  0.0000000  )
         6           Zr  tau(   6) = (  0.5000000  0.0000000  0.5000000  )
         7           Zr  tau(   7) = ( -0.0000000  0.5000000  0.0000000  )
         8           Zr  tau(   8) = ( -0.0000000  0.5000000  0.5000000  )
         9           O   tau(   9) = (  0.9580960  0.4472740  0.7500000  )
        10           O   tau(  10) = (  0.0419040  0.5527260  0.2500000  )
        11           O   tau(  11) = (  0.4472740  0.9580960  0.2500000  )
        12           O   tau(  12) = (  0.5527260  0.0419040  0.7500000  )
        13           O   tau(  13) = (  0.2092780  0.7907220  0.5447720  )
        14           O   tau(  14) = (  0.7907220  0.2092780  0.0447720  )
        15           O   tau(  15) = (  0.7907220  0.2092780  0.4552280  )
        16           O   tau(  16) = (  0.2092780  0.7907220  0.9552280  )
        17           O   tau(  17) = (  0.2940660  0.2940660  0.0000000  )
        18           O   tau(  18) = (  0.7059340  0.7059340  0.5000000  )
        19           O   tau(  19) = (  0.7059340  0.7059340  0.0000000  )
        20           O   tau(  20) = (  0.2940660  0.2940660  0.5000000  )

     number of k points=    10
                       cart. coord. in units 2pi/alat
        k(    1) = (   0.0000000   0.0000000   0.0000000), wk =   0.0740741
        k(    2) = (   0.0000000   0.0000000   0.2349363), wk =   0.1481481
        k(    3) = (   0.0000000   0.3333497   0.0000000), wk =   0.1481481
        k(    4) = (   0.0000000   0.3333497   0.2349363), wk =   0.2962963
        k(    5) = (   0.3333333   0.0032984   0.0000000), wk =   0.1481481
        k(    6) = (   0.3333333   0.0032984   0.2349363), wk =   0.2962963
        k(    7) = (   0.3333333   0.3366481   0.0000000), wk =   0.1481481
        k(    8) = (   0.3333333   0.3366481   0.2349363), wk =   0.2962963
        k(    9) = (   0.3333333  -0.3300512   0.0000000), wk =   0.1481481
        k(   10) = (   0.3333333  -0.3300512   0.2349363), wk =   0.2962963

                       cryst. coord.
        k(    1) = (   0.0000000   0.0000000   0.0000000), wk =   0.0740741
        k(    2) = (   0.0000000   0.0000000   0.3333333), wk =   0.1481481
        k(    3) = (   0.0000000   0.3333333   0.0000000), wk =   0.1481481
        k(    4) = (   0.0000000   0.3333333   0.3333333), wk =   0.2962963
        k(    5) = (   0.3333333   0.0000000   0.0000000), wk =   0.1481481
        k(    6) = (   0.3333333   0.0000000   0.3333333), wk =   0.2962963
        k(    7) = (   0.3333333   0.3333333   0.0000000), wk =   0.1481481
        k(    8) = (   0.3333333   0.3333333   0.3333333), wk =   0.2962963
        k(    9) = (   0.3333333  -0.3333333   0.0000000), wk =   0.1481481
        k(   10) = (   0.3333333  -0.3333333   0.3333333), wk =   0.2962963

     Check: negative core charge=   -0.000013

     Initial potential from superposition of free atoms

     starting charge     159.8568, renormalised to     160.0000

     negative rho (up, down):  4.890E-01 0.000E+00
     Starting wfcs are  152 randomized atomic wfcs +  104 random wfcs
     Checking if some PAW data can be deallocated...

     Self-consistent Calculation

     iteration #  1     ecut=    30.00 Ry     beta= 0.70
     Davidson diagonalization with overlap

     ethr =  1.00E-02,  avg # of iterations =  6.0

     negative rho (up, down):  5.021E-01 0.000E+00

     total energy              =   -1176.54219517 Ry
     estimated scf accuracy    <       6.06941126 Ry

[...]

     total energy              =   -1179.55479093 Ry
     estimated scf accuracy    <       0.00002432 Ry

     iteration #  8     ecut=    30.00 Ry     beta= 0.70
     Davidson diagonalization with overlap

     ethr =  1.52E-08,  avg # of iterations =  2.0

     negative rho (up, down):  5.194E-01 0.000E+00

     End of self-consistent calculation

          k = 0.0000 0.0000 0.0000 (  5415 PWs)   bands (ev):

   -38.4235 -38.4202 -38.4168 -38.4136 -23.9494 -23.9406 -23.7616 -23.7534
   -16.7599 -16.7584 -16.7466 -16.7429 -16.7275 -16.7185 -16.5399 -16.5352
   -16.5246 -16.5232 -16.5101 -16.5029  -8.0379  -7.7573  -7.6108  -7.5888
    -7.5116  -7.3655  -7.1724  -7.0019  -6.7607  -6.6075  -6.5663  -6.5347
    -6.0893  -5.9609  -5.9529  -5.8885  -5.7630  -5.7459  -5.6793  -5.6453
    -5.5374  -5.4871  -5.3553  -5.0851   5.0826   5.1385   5.2053   5.2147
     5.2417   5.3468   5.5355   5.7591   5.7673   5.7726   6.5399   6.8388
     6.8829   6.9636   6.9650   7.1036   7.1142   7.1422   7.1606   7.1769
     7.2394   7.5443   7.7170   7.9296   7.9598   8.0369   8.0527   8.3309
     8.3444   8.3919   8.4506   8.5165   8.5217   8.5251   8.5755   8.6758
    12.1672  12.3060  12.4436  12.6996  13.5949  13.9702  14.0213  14.0782
    14.2653  14.6655  14.7220  14.9484  15.0415  15.1354  15.2680  15.2739
    15.3368  15.4117  15.4282  15.7983  15.9991  16.3481  16.4702  16.4919
    16.6714  16.7058  17.2601  17.4537  17.5425  17.5494  17.7247  17.7374
    17.7746  17.8036  18.0044  18.4064  18.4116  18.4751  18.7545  19.0779
    19.2100  19.4797  19.6703  19.9320  20.1095  20.1212  20.2475  21.1139
    22.0543  22.0621  22.1394  22.4181  22.8470  22.9567  23.0210  23.0282
    23.5110  23.6029  23.9301  24.1275  24.5603  24.9955  25.0017  25.1409
    25.2279  25.5948  25.9048  26.1305  26.1983  26.3471  26.4863  26.7642
    26.8259  27.3071  27.3742  27.7043  28.5041  28.5674  29.0483  29.2187
    29.2866  29.2960  29.3202  29.3281  29.5856  29.6049  29.6755  30.5179
    30.5989  30.6817  30.6999  30.7567  30.9014  30.9281  30.9695  31.7182
    31.7420  31.9749  32.1006  32.6661  32.8844  32.8853  32.9147  33.1897
    33.5748  33.6498  33.8164  33.9468  34.0173  34.2216  34.3346  34.4289
    34.6872  34.9006  34.9693  35.0245  35.1271  35.6279  35.7939  35.8048
    35.8069  36.1093  36.3492  36.5672  36.7508  36.9699  37.0368  37.1534
    37.4058  37.4317  37.6390  37.7770  37.8860  38.1809  38.4162  38.5557
    38.6568  38.7116  38.7759  38.8222  38.9684  39.0043  39.0954  39.1967
    39.3503  39.3873  39.4382  39.7038  39.8630  39.8681  40.0846  40.2519
    40.2534  40.2668  40.5387  40.7451  40.7816  40.8428  41.1190  41.3759
    41.5178  41.7527  42.0982  42.1043  42.2625  42.3747  42.3946  42.6434
    42.6624  42.6841  42.7084  43.0141  43.2265  43.3104  43.6063  44.0375

     occupation numbers
     1.0000   1.0000   1.0000   1.0000   1.0000   1.0000   1.0000   1.0000
     1.0000   1.0000   1.0000   1.0000   1.0000   1.0000   1.0000   1.0000
     1.0000   1.0000   1.0000   1.0000   1.0000   1.0000   1.0000   1.0000
     1.0000   1.0000   1.0000   1.0000   1.0000   1.0000   1.0000   1.0000
     1.0000   1.0000   1.0000   1.0000   1.0000   1.0000   1.0000   1.0000
     1.0000   1.0000   1.0000   1.0000   1.0000   1.0000   1.0000   1.0000
     1.0000   1.0000   1.0000   1.0000   1.0000   1.0000   1.0000   1.0000
     1.0000   1.0000   1.0000   1.0000   1.0000   1.0000   1.0000   1.0000
     1.0000   1.0000   1.0000   1.0000   1.0000   1.0000   1.0000   1.0000
     1.0000   1.0000   1.0000   1.0000   1.0000   1.0000   1.0000   1.0000
     0.0000   0.0000   0.0000   0.0000   0.0000   0.0000   0.0000   0.0000
     0.0000   0.0000   0.0000   0.0000   0.0000   0.0000   0.0000   0.0000
     0.0000   0.0000   0.0000   0.0000   0.0000   0.0000   0.0000   0.0000
     0.0000   0.0000   0.0000   0.0000   0.0000   0.0000   0.0000   0.0000
     0.0000   0.0000   0.0000   0.0000   0.0000   0.0000   0.0000   0.0000
     0.0000   0.0000   0.0000   0.0000   0.0000   0.0000   0.0000   0.0000
     0.0000   0.0000   0.0000   0.0000   0.0000   0.0000   0.0000   0.0000
     0.0000   0.0000   0.0000   0.0000   0.0000   0.0000   0.0000   0.0000
     0.0000   0.0000   0.0000   0.0000   0.0000   0.0000   0.0000   0.0000
     0.0000   0.0000   0.0000   0.0000   0.0000   0.0000   0.0000   0.0000
     0.0000   0.0000   0.0000   0.0000   0.0000   0.0000   0.0000   0.0000
     0.0000   0.0000   0.0000   0.0000   0.0000   0.0000   0.0000   0.0000
     0.0000   0.0000   0.0000   0.0000   0.0000   0.0000   0.0000   0.0000
     0.0000   0.0000   0.0000   0.0000   0.0000   0.0000   0.0000   0.0000
     0.0000   0.0000   0.0000   0.0000   0.0000   0.0000   0.0000   0.0000
     0.0000   0.0000   0.0000   0.0000   0.0000   0.0000   0.0000   0.0000
     0.0000   0.0000   0.0000   0.0000   0.0000   0.0000   0.0000   0.0000
     0.0000   0.0000   0.0000   0.0000   0.0000   0.0000   0.0000   0.0000
     0.0000   0.0000   0.0000   0.0000   0.0000   0.0000   0.0000   0.0000
     0.0000   0.0000   0.0000   0.0000   0.0000   0.0000   0.0000   0.0000
     0.0000   0.0000   0.0000   0.0000   0.0000   0.0000   0.0000   0.0000
     0.0000   0.0000   0.0000   0.0000   0.0000   0.0000   0.0000   0.0000

[...]

          k = 0.3333-0.3301 0.2349 (  5386 PWs)   bands (ev):

   -38.4203 -38.4187 -38.4184 -38.4168 -23.9471 -23.9421 -23.7604 -23.7556
   -16.7286 -16.7266 -16.7092 -16.7028 -16.6997 -16.6959 -16.5918 -16.5892
   -16.5852 -16.5767 -16.5037 -16.5006  -7.8637  -7.7400  -7.6471  -7.4261
    -7.3473  -7.2176  -7.1786  -7.1531  -7.0205  -6.9715  -6.8542  -6.7977
    -5.8908  -5.8659  -5.8582  -5.8202  -5.7545  -5.6176  -5.5729  -5.5426
    -5.4911  -5.4144  -5.2592  -5.2170   5.3002   5.3248   5.4608   5.5173
     5.6729   5.6955   5.7530   5.7969   5.9862   6.2054   6.3577   6.3839
     6.4269   6.5556   6.7721   6.7868   6.8684   6.9689   7.0497   7.2357
     7.3394   7.3998   7.5040   7.5533   7.7052   7.7629   7.8813   7.9526
     7.9985   8.0239   8.1157   8.1619   8.2071   8.3070   8.4329   8.5192
    13.0022  13.2755  13.5955  13.7013  13.8111  13.8612  14.0576  14.2050
    14.2087  14.4478  14.5674  14.6833  15.1766  15.5350  15.7504  15.8155
    16.0296  16.1348  16.3492  16.4306  16.5640  16.5811  16.8603  16.8814
    16.9509  17.0195  17.0423  17.3376  17.3535  17.4266  17.5068  17.6563
    17.8381  17.9164  18.0003  18.0713  18.1206  18.3955  18.4930  18.7184
    19.0036  19.1221  19.3491  19.4703  19.4984  19.8288  20.7869  21.0288
    21.1560  21.6725  22.5273  22.7406  23.0084  23.2137  23.2484  23.4818
    23.5716  23.6145  23.7954  23.9073  24.0213  24.3227  24.3521  24.8413
    24.9528  25.1454  25.1933  25.6160  25.9102  26.1944  26.4071  26.6526
    27.0982  27.2726  27.4199  27.6626  27.8170  28.5861  28.6275  28.8113
    28.8192  29.0345  29.2199  29.5174  29.6624  29.7368  30.1501  30.2493
    30.4992  30.5050  30.8411  31.0675  31.2313  31.3436  31.4291  31.4802
    31.5989  31.6973  32.1624  32.1756  32.3503  32.3801  32.6520  33.0766
    33.1408  33.2554  33.3515  33.4579  33.5965  33.8253  34.3211  34.3748
    34.4033  34.6572  34.8551  35.2073  35.3670  35.3961  35.6209  35.7074
    35.9595  36.1382  36.4935  36.9390  37.0526  37.1835  37.2099  37.3977
    37.4435  38.0057  38.1070  38.2115  38.4808  38.5403  38.7870  38.8386
    38.9895  39.0182  39.2960  39.4623  39.4962  39.6949  39.7994  39.8295
    39.8906  40.1267  40.2835  40.3793  40.5616  40.5902  40.7997  40.9118
    41.0246  41.0518  41.1465  41.2219  41.4085  41.4571  41.5384  41.6583
    41.7452  41.8382  41.8978  42.1928  42.3444  42.4210  42.5058  42.6088
    42.7028  42.7997  42.9788  43.1879  43.2390  43.4689  43.5830  43.6619

     occupation numbers
     1.0000   1.0000   1.0000   1.0000   1.0000   1.0000   1.0000   1.0000
     1.0000   1.0000   1.0000   1.0000   1.0000   1.0000   1.0000   1.0000
     1.0000   1.0000   1.0000   1.0000   1.0000   1.0000   1.0000   1.0000
     1.0000   1.0000   1.0000   1.0000   1.0000   1.0000   1.0000   1.0000
     1.0000   1.0000   1.0000   1.0000   1.0000   1.0000   1.0000   1.0000
     1.0000   1.0000   1.0000   1.0000   1.0000   1.0000   1.0000   1.0000
     1.0000   1.0000   1.0000   1.0000   1.0000   1.0000   1.0000   1.0000
     1.0000   1.0000   1.0000   1.0000   1.0000   1.0000   1.0000   1.0000
     1.0000   1.0000   1.0000   1.0000   1.0000   1.0000   1.0000   1.0000
     1.0000   1.0000   1.0000   1.0000   1.0000   1.0000   1.0000   1.0000
     0.0000   0.0000   0.0000   0.0000   0.0000   0.0000   0.0000   0.0000
     0.0000   0.0000   0.0000   0.0000   0.0000   0.0000   0.0000   0.0000
     0.0000   0.0000   0.0000   0.0000   0.0000   0.0000   0.0000   0.0000
     0.0000   0.0000   0.0000   0.0000   0.0000   0.0000   0.0000   0.0000
     0.0000   0.0000   0.0000   0.0000   0.0000   0.0000   0.0000   0.0000
     0.0000   0.0000   0.0000   0.0000   0.0000   0.0000   0.0000   0.0000
     0.0000   0.0000   0.0000   0.0000   0.0000   0.0000   0.0000   0.0000
     0.0000   0.0000   0.0000   0.0000   0.0000   0.0000   0.0000   0.0000
     0.0000   0.0000   0.0000   0.0000   0.0000   0.0000   0.0000   0.0000
     0.0000   0.0000   0.0000   0.0000   0.0000   0.0000   0.0000   0.0000
     0.0000   0.0000   0.0000   0.0000   0.0000   0.0000   0.0000   0.0000
     0.0000   0.0000   0.0000   0.0000   0.0000   0.0000   0.0000   0.0000
     0.0000   0.0000   0.0000   0.0000   0.0000   0.0000   0.0000   0.0000
     0.0000   0.0000   0.0000   0.0000   0.0000   0.0000   0.0000   0.0000
     0.0000   0.0000   0.0000   0.0000   0.0000   0.0000   0.0000   0.0000
     0.0000   0.0000   0.0000   0.0000   0.0000   0.0000   0.0000   0.0000
     0.0000   0.0000   0.0000   0.0000   0.0000   0.0000   0.0000   0.0000
     0.0000   0.0000   0.0000   0.0000   0.0000   0.0000   0.0000   0.0000
     0.0000   0.0000   0.0000   0.0000   0.0000   0.0000   0.0000   0.0000
     0.0000   0.0000   0.0000   0.0000   0.0000   0.0000   0.0000   0.0000
     0.0000   0.0000   0.0000   0.0000   0.0000   0.0000   0.0000   0.0000
     0.0000   0.0000   0.0000   0.0000   0.0000   0.0000   0.0000   0.0000

     highest occupied, lowest unoccupied level (ev):     8.6758   12.1672

!    total energy              =   -1179.55479409 Ry
     estimated scf accuracy    <       0.00000089 Ry

     The total energy is the sum of the following terms:
     one-electron contribution =    -228.93565595 Ry
     hartree contribution      =     202.59963293 Ry
     xc contribution           =    -234.27310963 Ry
     ewald contribution        =    -804.69422544 Ry
     one-center paw contrib.   =    -114.25143600 Ry
      -> PAW hartree energy AE =       0.00000000 Ry
      -> PAW hartree energy PS =       0.00000000 Ry
      -> PAW xc energy AE      =       0.00000000 Ry
      -> PAW xc energy PS      =       0.00000000 Ry
      -> total E_H with PAW    =     202.59963293 Ry
      -> total E_XC with PAW   =    -234.27310963 Ry

     convergence has been achieved in   8 iterations

     Writing all to output data dir bands_nm/myprefix.save/

     General routines

     Parallel routines

     PAW routines

   This run was terminated on:   0:53:30  17Jul2023

   JOB DONE.