     Program PWSCF v.7.1 starts on 17Jul2023 at  0:17:51

     Reading input from espresso_3562.pwi
Warning: card &CELL ignored
Warning: card / ignored

     Current dimensions of program PWSCF are:
     Max number of different atomic species (ntypx) = 10
     Max number of k-points (npk) =  40000
     Max angular momentum in pseudopotentials (lmaxx) =  4
     file Gd.paw.z_18.atompaw.wentzcovitch.v1.2.upf: wavefunction(s)  6S 0P 5D 0D 4F 0F renormalized
     file Cu.paw.z_11.ld1.psl.v1.0.0-low.upf: wavefunction(s)  4S 3D renormalized
     Message from routine setup:
     using ibrav=0 with symmetry is DISCOURAGED, use correct ibrav instead

     K-points division:     npool     =       2
     R & G space division:  proc/nbgrp/npool/nimage =       4
     Subspace diagonalization in iterative solution of the eigenvalue problem:
     one sub-group per band group will be used

     Using Slab Decomposition

     bravais-lattice index     =            0
     lattice parameter (alat)  =      14.2466  a.u.
     unit-cell volume          =    1726.8334 (a.u.)^3
     number of atoms/cell      =           14
     number of atomic types    =            3
     number of electrons       =       138.00
     number of Kohn-Sham states=          256
     kinetic-energy cutoff     =      30.0000  Ry
     charge density cutoff     =     240.0000  Ry
     scf convergence threshold =      1.0E-06
     mixing beta               =       0.7000
     number of iterations used =            8  plain     mixing
     Exchange-correlation=  SLA  PW   PBX  PBC
                           (   1   4   3   4   0   0   0)

     celldm(1)=  14.246646  celldm(2)=   0.000000  celldm(3)=   0.000000
     celldm(4)=   0.000000  celldm(5)=   0.000000  celldm(6)=   0.000000

     crystal axes: (cart. coord. in units of alat)
               a(1) = (   1.000000   0.000000   0.000000 )
               a(2) = (   0.596785   0.802401   0.000000 )
               a(3) = (   0.596785   0.299891   0.744254 )

     reciprocal axes: (cart. coord. in units 2 pi/alat)
               b(1) = (  1.000000 -0.743749 -0.502170 )
               b(2) = (  0.000000  1.246259 -0.502170 )
               b(3) = (  0.000000  0.000000  1.343628 )

     PseudoPot. # 1 for Gd read from file:
     /lustre07/scratch/pragov/crystal_structure_design/utils/SSSP/Gd.paw.z_18.atompaw.wentzcovitch.v1.2.upf
     MD5 check sum: a44f32af2ba180e1a67c5cef9ff7f39b
     Pseudo is Projector augmented-wave + core cor, Zval = 18.0
     Generated using ATOMPAW code
     Shape of augmentation charge: BESSEL
     Using radial grid of 1110 points,  8 beta functions with:
                l(1) =   0
                l(2) =   0
                l(3) =   1
                l(4) =   1
                l(5) =   2
                l(6) =   2
                l(7) =   3
                l(8) =   3
     Q(r) pseudized with 0 coefficients

     PseudoPot. # 2 for Cu read from file:
     /lustre07/scratch/pragov/crystal_structure_design/utils/SSSP/Cu.paw.z_11.ld1.psl.v1.0.0-low.upf
     MD5 check sum: 619f40885d92a09a85a8b37550532d0c
     Pseudo is Projector augmented-wave + core cor, Zval = 11.0
     Generated using &quot;atomic&quot; code by A. Dal Corso  v.6.3MaX
     Shape of augmentation charge: PSQ
     Using radial grid of 1199 points,  6 beta functions with:
                l(1) =   0
                l(2) =   0
                l(3) =   1
                l(4) =   1
                l(5) =   2
                l(6) =   2
     Q(r) pseudized with 0 coefficients

     PseudoPot. # 3 for S  read from file:
     /lustre07/scratch/pragov/crystal_structure_design/utils/SSSP/s_pbe_v1.4.uspp.F.UPF
     MD5 check sum: 88d86576ff6df21479756cfb9bdac1df
     Pseudo is Ultrasoft + core correction, Zval =  6.0
     Generated by new atomic code, or converted to UPF format
     Using radial grid of  907 points,  6 beta functions with:
                l(1) =   0
                l(2) =   0
                l(3) =   1
                l(4) =   1
                l(5) =   2
                l(6) =   2
     Q(r) pseudized with  8 coefficients,  rinner =    1.300   1.300   1.300
                                                       1.300   1.300

     atomic species   valence    mass     pseudopotential
        Gd            18.00   157.25000     Gd( 1.00)
        Cu            11.00    63.54600     Cu( 1.00)
        S              6.00    32.06000     S ( 1.00)

      2 Sym. Ops., with inversion, found

                                    s                        frac. trans.

      isym =  1     identity

 cryst.   s( 1) = (     1          0          0      )
                  (     0          1          0      )
                  (     0          0          1      )

 cart.    s( 1) = (  1.0000000  0.0000000  0.0000000 )
                  (  0.0000000  1.0000000  0.0000000 )
                  (  0.0000000  0.0000000  1.0000000 )

      isym =  2     inversion

 cryst.   s( 2) = (    -1          0          0      )
                  (     0         -1          0      )
                  (     0          0         -1      )

 cart.    s( 2) = ( -1.0000000  0.0000000  0.0000000 )
                  (  0.0000000 -1.0000000  0.0000000 )
                  (  0.0000000  0.0000000 -1.0000000 )

   Cartesian axes

     site n.     atom                  positions (alat units)
         1           Gd  tau(   1) = (   1.4622908   0.7348165   0.4961388  )
         2           Gd  tau(   2) = (   0.7312792   0.3674755   0.2481148  )
         3           Cu  tau(   3) = (   1.1366704   0.4046975   0.0920627  )
         4           Cu  tau(   4) = (   1.0030776   0.3360030   0.5875480  )
         5           Cu  tau(   5) = (   0.8682308   0.7708405   0.3409626  )
         6           Cu  tau(   6) = (   1.3253391   0.3314515   0.4032909  )
         7           Cu  tau(   7) = (   1.1904923   0.7662890   0.1567056  )
         8           Cu  tau(   8) = (   1.0568995   0.6975944   0.6521909  )
         9           S   tau(   9) = (   1.1428856   0.9100227   0.4340211  )
        10           S   tau(  10) = (   1.2779860   0.4738312   0.6818643  )
        11           S   tau(  11) = (   1.4122603   0.5423351   0.1846530  )
        12           S   tau(  12) = (   0.7813097   0.5599568   0.5596005  )
        13           S   tau(  13) = (   0.9155839   0.6284607   0.0623893  )
        14           S   tau(  14) = (   1.0506844   0.1922692   0.3102324  )

   Crystallographic axes

     site n.     atom                  positions (cryst. coord.)
         1           Gd  tau(   1) = (  0.6666260  0.6666260  0.6666260  )
         2           Gd  tau(   2) = (  0.3333740  0.3333740  0.3333740  )
         3           Cu  tau(   3) = (  0.7894460  0.4581270  0.1236980  )
         4           Cu  tau(   4) = (  0.4581270  0.1236980  0.7894460  )
         5           Cu  tau(   5) = (  0.1236980  0.7894460  0.4581270  )
         6           Cu  tau(   6) = (  0.8763020  0.2105540  0.5418730  )
         7           Cu  tau(   7) = (  0.5418730  0.8763020  0.2105540  )
         8           Cu  tau(   8) = (  0.2105540  0.5418730  0.8763020  )
         9           S   tau(   9) = (  0.2481050  0.9161720  0.5831630  )
        10           S   tau(  10) = (  0.5831630  0.2481050  0.9161720  )
        11           S   tau(  11) = (  0.9161720  0.5831630  0.2481050  )
        12           S   tau(  12) = (  0.0838280  0.4168370  0.7518950  )
        13           S   tau(  13) = (  0.4168370  0.7518950  0.0838280  )
        14           S   tau(  14) = (  0.7518950  0.0838280  0.4168370  )

     number of k points=    14
                       cart. coord. in units 2pi/alat
        k(    1) = (   0.0000000   0.0000000   0.0000000), wk =   0.0740741
        k(    2) = (   0.0000000   0.0000000   0.4478760), wk =   0.1481481
        k(    3) = (   0.0000000   0.4154198  -0.1673899), wk =   0.1481481
        k(    4) = (   0.0000000   0.4154198   0.2804861), wk =   0.1481481
        k(    5) = (   0.0000000   0.4154198  -0.6152660), wk =   0.1481481
        k(    6) = (   0.3333333  -0.2479163  -0.1673899), wk =   0.1481481
        k(    7) = (   0.3333333  -0.2479163   0.2804861), wk =   0.1481481
        k(    8) = (   0.3333333  -0.2479163  -0.6152660), wk =   0.1481481
        k(    9) = (   0.3333333   0.1675035  -0.3347798), wk =   0.1481481
        k(   10) = (   0.3333333   0.1675035   0.1130962), wk =   0.1481481
        k(   11) = (   0.3333333   0.1675035  -0.7826559), wk =   0.1481481
        k(   12) = (   0.3333333  -0.6633361  -0.0000000), wk =   0.1481481
        k(   13) = (   0.3333333  -0.6633361   0.4478760), wk =   0.1481481
        k(   14) = (   0.3333333  -0.6633361  -0.4478760), wk =   0.1481481

                       cryst. coord.
        k(    1) = (   0.0000000   0.0000000   0.0000000), wk =   0.0740741
        k(    2) = (   0.0000000   0.0000000   0.3333333), wk =   0.1481481
        k(    3) = (   0.0000000   0.3333333   0.0000000), wk =   0.1481481
        k(    4) = (   0.0000000   0.3333333   0.3333333), wk =   0.1481481
        k(    5) = (   0.0000000   0.3333333  -0.3333333), wk =   0.1481481
        k(    6) = (   0.3333333  -0.0000000  -0.0000000), wk =   0.1481481
        k(    7) = (   0.3333333  -0.0000000   0.3333333), wk =   0.1481481
        k(    8) = (   0.3333333  -0.0000000  -0.3333333), wk =   0.1481481
        k(    9) = (   0.3333333   0.3333333   0.0000000), wk =   0.1481481
        k(   10) = (   0.3333333   0.3333333   0.3333333), wk =   0.1481481
        k(   11) = (   0.3333333   0.3333333  -0.3333333), wk =   0.1481481
        k(   12) = (   0.3333333  -0.3333333  -0.0000000), wk =   0.1481481
        k(   13) = (   0.3333333  -0.3333333   0.3333333), wk =   0.1481481
        k(   14) = (   0.3333333  -0.3333333  -0.3333333), wk =   0.1481481

     Check: negative core charge=   -0.000003

     Initial potential from superposition of free atoms

     starting charge     137.9881, renormalised to     138.0000
     Starting wfcs are  142 randomized atomic wfcs +  114 random wfcs
     Checking if some PAW data can be deallocated...

     Self-consistent Calculation

     iteration #  1     ecut=    30.00 Ry     beta= 0.70
     Davidson diagonalization with overlap

     ethr =  1.00E-02,  avg # of iterations =  8.0

     total energy              =   -2705.81384726 Ry
     estimated scf accuracy    <      79.31282683 Ry

[...]

     total energy              =   -2790.83361568 Ry
     estimated scf accuracy    <       0.00000121 Ry

     iteration # 95     ecut=    30.00 Ry     beta= 0.70
     Davidson diagonalization with overlap

     ethr =  8.75E-10,  avg # of iterations =  2.0

     End of self-consistent calculation

          k = 0.0000 0.0000 0.0000 (  4779 PWs)   bands (ev):

   -32.7464 -32.7309 -10.9725 -10.9404 -10.9267 -10.8039 -10.7664 -10.7328
    -4.5995  -3.6429  -3.6329  -3.5325  -3.4793  -3.4698   3.4923   3.8467
     3.8487   3.9883   3.9915   4.3459   4.7396   5.0544   5.0557   5.0625
     5.1163   5.1684   5.1708   5.2532   5.2558   5.4338   5.6728   5.6779
     6.5564   6.5592   6.6513   6.6568   6.6663   6.6864   7.0124   7.0140
     7.1520   7.1563   7.1666   7.1945   7.2205   7.3365   7.3366   7.3378
     7.3421   7.3889   7.3930   7.9569   7.9620   8.0046   8.0062   8.4109
     8.4642   8.6830   8.6862   8.7586   8.9226   8.9321   9.3043   9.3067
     9.3232   9.3420   9.3662   9.4106   9.4546   9.6085   9.6276   9.6314
     9.7264   9.9716  10.0069  10.0728  10.7820  11.9932  12.0421  12.4407
    12.4496  12.5919  12.5966  13.3396  13.3411  13.3678  14.1099  14.1148
    14.3663  14.5216  14.5231  14.7886  15.7521  15.7530  15.9662  15.9682
    16.3095  16.3154  16.4304  16.5877  16.9929  17.7953  17.7984  18.1038
    18.4543  18.4591  18.8171  19.0032  19.4490  19.4506  19.8220  20.0635
    20.4115  20.4136  20.4844  21.0023  21.0051  21.5426  21.5481  21.5767
    21.5795  21.7591  21.8603  21.8672  22.4112  23.4878  23.7547  24.3396
    24.5063  24.5091  24.6725  24.7038  24.7061  24.7641  24.9415  24.9423
    25.0725  25.4631  25.7240  25.7254  26.7737  26.7756  27.3209  27.3639
    27.3691  27.8387  28.4766  28.4788  28.9029  28.9042  29.3544  29.5028
    30.0722  30.0812  30.1048  30.1081  30.3123  30.4131  31.1488  31.1509
    31.1920  31.5232  31.5273  31.5774  31.9852  31.9900  32.3775  32.3828
    32.4385  32.7364  33.3175  33.8347  33.9441  33.9450  34.1344  34.1362
    34.4107  34.4116  34.4560  34.4580  34.5146  34.7002  35.0608  35.0615
    35.4111  35.4451  35.4461  36.0229  36.0251  36.2127  36.2152  36.8543
    36.8580  37.4882  37.4912  37.6716  37.6734  37.9549  37.9908  38.2545
    38.2547  38.3262  39.1546  39.4192  39.5760  39.5774  39.7563  39.7582
    39.9950  40.3625  40.4050  40.4102  40.5236  40.5338  40.5356  40.5427
    40.8465  40.8501  40.9925  41.0624  41.0663  41.4604  41.6932  41.8726
    41.8748  41.8766  41.8791  42.6663  42.6686  42.7084  43.2174  43.3430
    43.3459  43.6093  44.2256  44.2332  44.4511  44.4542  44.9651  45.2332
    45.5541  45.5553  45.8601  45.9971  45.9995  46.0531  46.0536  46.3811
    46.4324  46.4353  47.4238  47.4534  47.4559  48.6519  48.6963  48.6974

     occupation numbers
     1.0000   1.0000   1.0000   1.0000   1.0000   1.0000   1.0000   1.0000
     1.0000   1.0000   1.0000   1.0000   1.0000   1.0000   1.0000   1.0000
     1.0000   1.0000   1.0000   1.0000   1.0000   1.0000   1.0000   1.0000
     1.0000   1.0000   1.0000   1.0000   1.0000   1.0000   1.0000   1.0000
     1.0000   1.0000   1.0000   1.0000   1.0000   1.0000   1.0000   1.0000
     1.0000   1.0000   1.0000   1.0000   1.0000   1.0000   1.0000   1.0000
     1.0000   1.0000   1.0000   1.0000   1.0000   1.0000   1.0000   1.0000
     1.0000   1.0000   1.0000   1.0000   1.0000   1.0000   1.0000   1.0000
     1.0000   1.0000   1.0000   1.0000   1.0000   0.0000   0.0000   0.0000
     0.0000   0.0000   0.0000   0.0000   0.0000   0.0000   0.0000   0.0000
     0.0000   0.0000   0.0000   0.0000   0.0000   0.0000   0.0000   0.0000
     0.0000   0.0000   0.0000   0.0000   0.0000   0.0000   0.0000   0.0000
     0.0000   0.0000   0.0000   0.0000   0.0000   0.0000   0.0000   0.0000
     0.0000   0.0000   0.0000   0.0000   0.0000   0.0000   0.0000   0.0000
     0.0000   0.0000   0.0000   0.0000   0.0000   0.0000   0.0000   0.0000
     0.0000   0.0000   0.0000   0.0000   0.0000   0.0000   0.0000   0.0000
     0.0000   0.0000   0.0000   0.0000   0.0000   0.0000   0.0000   0.0000
     0.0000   0.0000   0.0000   0.0000   0.0000   0.0000   0.0000   0.0000
     0.0000   0.0000   0.0000   0.0000   0.0000   0.0000   0.0000   0.0000
     0.0000   0.0000   0.0000   0.0000   0.0000   0.0000   0.0000   0.0000
     0.0000   0.0000   0.0000   0.0000   0.0000   0.0000   0.0000   0.0000
     0.0000   0.0000   0.0000   0.0000   0.0000   0.0000   0.0000   0.0000
     0.0000   0.0000   0.0000   0.0000   0.0000   0.0000   0.0000   0.0000
     0.0000   0.0000   0.0000   0.0000   0.0000   0.0000   0.0000   0.0000
     0.0000   0.0000   0.0000   0.0000   0.0000   0.0000   0.0000   0.0000
     0.0000   0.0000   0.0000   0.0000   0.0000   0.0000   0.0000   0.0000
     0.0000   0.0000   0.0000   0.0000   0.0000   0.0000   0.0000   0.0000
     0.0000   0.0000   0.0000   0.0000   0.0000   0.0000   0.0000   0.0000
     0.0000   0.0000   0.0000   0.0000   0.0000   0.0000   0.0000   0.0000
     0.0000   0.0000   0.0000   0.0000   0.0000   0.0000   0.0000   0.0000
     0.0000   0.0000   0.0000   0.0000   0.0000   0.0000   0.0000   0.0000
     0.0000   0.0000   0.0000   0.0000   0.0000   0.0000   0.0000   0.0000

[...]

          k = 0.3333-0.6633-0.4479 (  4775 PWs)   bands (ev):

   -32.7431 -32.7342 -10.9907 -10.9180 -10.9019 -10.8284 -10.7723 -10.7390
    -4.0622  -3.9041  -3.7471  -3.7247  -3.5426  -3.4601   3.4974   3.7519
     3.8981   3.9870   4.1690   4.3305   4.7523   4.9730   5.0380   5.1396
     5.1743   5.2611   5.2910   5.3598   5.4012   5.4515   5.5414   5.5704
     6.5694   6.6008   6.6490   6.7053   6.8412   6.8721   6.8991   6.9490
     7.1285   7.1557   7.1760   7.2643   7.3110   7.3350   7.3408   7.3804
     7.4239   7.5242   7.6099   7.6275   7.8145   8.0156   8.0238   8.1117
     8.3378   8.4410   8.6063   8.6478   8.7032   8.7558   9.2988   9.2996
     9.3131   9.3402   9.3725   9.3942   9.4153   9.4543   9.6078   9.6533
     9.6718   9.7221   9.7476   9.7671  11.6936  12.0523  12.1627  12.4099
    12.5633  12.9140  13.1930  13.4554  13.5432  13.8144  13.9680  14.2385
    14.2734  14.4373  14.5810  14.8484  15.4266  15.5446  15.7710  15.8610
    16.1083  16.2331  16.6698  16.8750  17.1307  17.3734  17.5161  17.7580
    17.9413  18.3389  18.4619  18.6510  19.1919  19.5513  20.0069  20.1832
    20.4339  20.6170  20.6715  20.8533  21.2367  21.5729  21.5939  21.7857
    21.9598  22.1169  22.3447  22.4474  22.6258  23.0807  23.3124  23.6167
    23.7264  24.0300  24.3537  24.5936  24.8144  25.1414  25.2810  25.4672
    26.0982  26.1961  26.2976  26.8312  26.9595  27.2412  27.2869  27.3420
    27.7920  27.8849  28.3244  28.3546  28.5426  28.6788  28.9136  29.1510
    29.4974  29.7134  29.8486  30.0068  30.3246  30.3543  30.4470  30.6658
    30.9170  31.0625  31.2142  31.3144  31.5730  31.6828  32.0509  32.2980
    32.4161  32.6168  32.8512  32.9290  33.1482  33.4055  33.8082  33.8644
    34.0546  34.1229  34.3768  34.7386  34.8570  35.0886  35.3057  35.4240
    35.6997  35.8337  36.2217  36.4006  36.5173  36.7051  36.8655  36.9850
    37.2395  37.3546  37.4617  37.7685  37.8442  38.0730  38.1904  38.3684
    38.4426  38.7900  38.9718  38.9834  39.1196  39.2736  39.4506  39.6511
    39.6789  39.8039  40.0777  40.0962  40.4309  40.4882  40.9587  41.0455
    41.1484  41.4550  41.6661  41.8935  42.2027  42.2438  42.4636  42.5423
    42.7608  43.0025  43.0879  43.1534  43.2378  43.5418  43.6971  43.7648
    43.9155  43.9945  44.2831  44.4002  44.5691  44.7347  44.9113  45.1197
    45.2147  45.4132  45.4257  45.6671  45.7627  45.9092  46.1799  46.4132
    46.4672  46.5757  46.7688  46.9144  47.0391  47.1416  47.3410  47.5187

     occupation numbers
     1.0000   1.0000   1.0000   1.0000   1.0000   1.0000   1.0000   1.0000
     1.0000   1.0000   1.0000   1.0000   1.0000   1.0000   1.0000   1.0000
     1.0000   1.0000   1.0000   1.0000   1.0000   1.0000   1.0000   1.0000
     1.0000   1.0000   1.0000   1.0000   1.0000   1.0000   1.0000   1.0000
     1.0000   1.0000   1.0000   1.0000   1.0000   1.0000   1.0000   1.0000
     1.0000   1.0000   1.0000   1.0000   1.0000   1.0000   1.0000   1.0000
     1.0000   1.0000   1.0000   1.0000   1.0000   1.0000   1.0000   1.0000
     1.0000   1.0000   1.0000   1.0000   1.0000   1.0000   1.0000   1.0000
     1.0000   1.0000   1.0000   1.0000   1.0000   0.0000   0.0000   0.0000
     0.0000   0.0000   0.0000   0.0000   0.0000   0.0000   0.0000   0.0000
     0.0000   0.0000   0.0000   0.0000   0.0000   0.0000   0.0000   0.0000
     0.0000   0.0000   0.0000   0.0000   0.0000   0.0000   0.0000   0.0000
     0.0000   0.0000   0.0000   0.0000   0.0000   0.0000   0.0000   0.0000
     0.0000   0.0000   0.0000   0.0000   0.0000   0.0000   0.0000   0.0000
     0.0000   0.0000   0.0000   0.0000   0.0000   0.0000   0.0000   0.0000
     0.0000   0.0000   0.0000   0.0000   0.0000   0.0000   0.0000   0.0000
     0.0000   0.0000   0.0000   0.0000   0.0000   0.0000   0.0000   0.0000
     0.0000   0.0000   0.0000   0.0000   0.0000   0.0000   0.0000   0.0000
     0.0000   0.0000   0.0000   0.0000   0.0000   0.0000   0.0000   0.0000
     0.0000   0.0000   0.0000   0.0000   0.0000   0.0000   0.0000   0.0000
     0.0000   0.0000   0.0000   0.0000   0.0000   0.0000   0.0000   0.0000
     0.0000   0.0000   0.0000   0.0000   0.0000   0.0000   0.0000   0.0000
     0.0000   0.0000   0.0000   0.0000   0.0000   0.0000   0.0000   0.0000
     0.0000   0.0000   0.0000   0.0000   0.0000   0.0000   0.0000   0.0000
     0.0000   0.0000   0.0000   0.0000   0.0000   0.0000   0.0000   0.0000
     0.0000   0.0000   0.0000   0.0000   0.0000   0.0000   0.0000   0.0000
     0.0000   0.0000   0.0000   0.0000   0.0000   0.0000   0.0000   0.0000
     0.0000   0.0000   0.0000   0.0000   0.0000   0.0000   0.0000   0.0000
     0.0000   0.0000   0.0000   0.0000   0.0000   0.0000   0.0000   0.0000
     0.0000   0.0000   0.0000   0.0000   0.0000   0.0000   0.0000   0.0000
     0.0000   0.0000   0.0000   0.0000   0.0000   0.0000   0.0000   0.0000
     0.0000   0.0000   0.0000   0.0000   0.0000   0.0000   0.0000   0.0000

     highest occupied, lowest unoccupied level (ev):     9.4787    9.4537

!    total energy              =   -2790.83362590 Ry
     estimated scf accuracy    <       0.00000093 Ry

     The total energy is the sum of the following terms:
     one-electron contribution =    -559.44464399 Ry
     hartree contribution      =     415.93951861 Ry
     xc contribution           =    -364.17052241 Ry
     ewald contribution        =    -811.98219465 Ry
     one-center paw contrib.   =   -1471.17578345 Ry
      -> PAW hartree energy AE =     369.31720648 Ry
      -> PAW hartree energy PS =    -350.78507983 Ry
      -> PAW xc energy AE      =    -993.79963760 Ry
      -> PAW xc energy PS      =      42.98955217 Ry
      -> total E_H with PAW    =     434.47164526 Ry
      -> total E_XC with PAW   =   -1314.98060784 Ry

     convergence has been achieved in  95 iterations

     Writing all to output data dir bands_nm/myprefix.save/

     General routines

     Parallel routines

     PAW routines

   This run was terminated on:   0:27:39  17Jul2023

   JOB DONE.