     Program PWSCF v.7.1 starts on 13Jul2023 at  5: 6:59

     Reading input from espresso_7990.pwi
Warning: card &CELL ignored
Warning: card / ignored

     Current dimensions of program PWSCF are:
     Max number of different atomic species (ntypx) = 10
     Max number of k-points (npk) =  40000
     Max angular momentum in pseudopotentials (lmaxx) =  4
     Message from routine setup:
     using ibrav=0 with symmetry is DISCOURAGED, use correct ibrav instead

     K-points division:     npool     =       2
     R & G space division:  proc/nbgrp/npool/nimage =       8
     Subspace diagonalization in iterative solution of the eigenvalue problem:
     a serial algorithm will be used

     Using Slab Decomposition

     bravais-lattice index     =            0
     lattice parameter (alat)  =       7.5876  a.u.
     unit-cell volume          =    1757.4439 (a.u.)^3
     number of atoms/cell      =           12
     number of atomic types    =            2
     number of electrons       =       108.00
     number of Kohn-Sham states=           64
     kinetic-energy cutoff     =      30.0000  Ry
     charge density cutoff     =     240.0000  Ry
     scf convergence threshold =      1.0E-06
     mixing beta               =       0.7000
     number of iterations used =            8  plain     mixing
     Exchange-correlation=  SLA  PW   PBX  PBC
                           (   1   4   3   4   0   0   0)

     celldm(1)=   7.587570  celldm(2)=   0.000000  celldm(3)=   0.000000
     celldm(4)=   0.000000  celldm(5)=   0.000000  celldm(6)=   0.000000

     crystal axes: (cart. coord. in units of alat)
               a(1) = (   1.000000   0.000000   0.000000 )
               a(2) = (   0.000000   1.994112   0.000000 )
               a(3) = (   0.000000   0.003539   2.017548 )

     reciprocal axes: (cart. coord. in units 2 pi/alat)
               b(1) = (  1.000000  0.000000  0.000000 )
               b(2) = (  0.000000  0.501476 -0.000880 )
               b(3) = (  0.000000  0.000000  0.495651 )

     PseudoPot. # 1 for Pm read from file:
     /lustre07/scratch/pragov/crystal_structure_design/utils/SSSP/Pm.GGA-PBE-paw-v1.0.UPF
     MD5 check sum: 4b6c6c601cafc6eebaa7bee0af846dec
     Pseudo is Projector augmented-wave + core cor, Zval = 15.0
     Generated using ATOMPAW code
     Shape of augmentation charge: BESSEL
     Using radial grid of 1106 points,  8 beta functions with:
                l(1) =   0
                l(2) =   0
                l(3) =   1
                l(4) =   1
                l(5) =   2
                l(6) =   2
                l(7) =   3
                l(8) =   3
     Q(r) pseudized with 0 coefficients

     PseudoPot. # 2 for S  read from file:
     /lustre07/scratch/pragov/crystal_structure_design/utils/SSSP/s_pbe_v1.4.uspp.F.UPF
     MD5 check sum: 88d86576ff6df21479756cfb9bdac1df
     Pseudo is Ultrasoft + core correction, Zval =  6.0
     Generated by new atomic code, or converted to UPF format
     Using radial grid of  907 points,  6 beta functions with:
                l(1) =   0
                l(2) =   0
                l(3) =   1
                l(4) =   1
                l(5) =   2
                l(6) =   2
     Q(r) pseudized with  8 coefficients,  rinner =    1.300   1.300   1.300
                                                       1.300   1.300

     atomic species   valence    mass     pseudopotential
        Pm            15.00   144.91276     Pm( 1.00)
        S              6.00    32.06000     S ( 1.00)

      4 Sym. Ops., with inversion, found ( 2 have fractional translation)

                                    s                        frac. trans.

      isym =  1     identity

 cryst.   s( 1) = (     1          0          0      )
                  (     0          1          0      )
                  (     0          0          1      )

 cart.    s( 1) = (  1.0000000  0.0000000  0.0000000 )
                  (  0.0000000  1.0000000 -0.0000000 )
                  (  0.0000000  0.0000000  1.0000000 )

      isym =  2     180 deg rotation - cart. axis [1,0,0]

 cryst.   s( 2) = (     1          0          0      )    f =(  0.5000000 )
                  (     0         -1          0      )       (  0.5000000 )
                  (     0          0         -1      )       ( -0.0000000 )

 cart.    s( 2) = (  1.0000000  0.0000000  0.0000000 )    f =(  0.5000000 )
                  (  0.0000000 -1.0000000  0.0000000 )       (  0.9970559 )
                  (  0.0000000  0.0000000 -1.0000000 )       ( -0.0000000 )

      isym =  3     inversion

 cryst.   s( 3) = (    -1          0          0      )
                  (     0         -1          0      )
                  (     0          0         -1      )

 cart.    s( 3) = ( -1.0000000  0.0000000  0.0000000 )
                  (  0.0000000 -1.0000000  0.0000000 )
                  (  0.0000000  0.0000000 -1.0000000 )

      isym =  4     inv. 180 deg rotation - cart. axis [1,0,0]

 cryst.   s( 4) = (    -1          0          0      )    f =(  0.5000000 )
                  (     0          1          0      )       ( -0.5000000 )
                  (     0          0          1      )       (  0.0000000 )

 cart.    s( 4) = ( -1.0000000  0.0000000  0.0000000 )    f =(  0.5000000 )
                  (  0.0000000  1.0000000 -0.0000000 )       ( -0.9970559 )
                  (  0.0000000  0.0000000  1.0000000 )       (  0.0000000 )

   Cartesian axes

     site n.     atom                  positions (alat units)
         1           Pm  tau(   1) = (   0.2855510   0.2582307   0.4531433  )
         2           Pm  tau(   2) = (   0.7855510   0.7423641   1.5644047  )
         3           Pm  tau(   3) = (   0.7144490   1.7394200   1.5644047  )
         4           Pm  tau(   4) = (   0.2144490   1.2552866   0.4531433  )
         5           S   tau(   5) = (   0.8408970   0.2188535   1.0037119  )
         6           S   tau(   6) = (   0.3408970   0.7817412   1.0138360  )
         7           S   tau(   7) = (   0.1591030   1.7787972   1.0138360  )
         8           S   tau(   8) = (   0.6591030   1.2159094   1.0037119  )
         9           S   tau(   9) = (   0.2599420   0.2526829   1.7502168  )
        10           S   tau(  10) = (   0.7599420   0.7479119   0.2673312  )
        11           S   tau(  11) = (   0.7400580   1.7449678   0.2673312  )
        12           S   tau(  12) = (   0.2400580   1.2497388   1.7502168  )

   Crystallographic axes

     site n.     atom                  positions (cryst. coord.)
         1           Pm  tau(   1) = (  0.2855510  0.1290980  0.2246010  )
         2           Pm  tau(   2) = (  0.7855510  0.3709020  0.7753990  )
         3           Pm  tau(   3) = (  0.7144490  0.8709020  0.7753990  )
         4           Pm  tau(   4) = (  0.2144490  0.6290980  0.2246010  )
         5           S   tau(   5) = (  0.8408970  0.1088670  0.4974910  )
         6           S   tau(   6) = (  0.3408970  0.3911330  0.5025090  )
         7           S   tau(   7) = (  0.1591030  0.8911330  0.5025090  )
         8           S   tau(   8) = (  0.6591030  0.6088670  0.4974910  )
         9           S   tau(   9) = (  0.2599420  0.1251750  0.8674970  )
        10           S   tau(  10) = (  0.7599420  0.3748250  0.1325030  )
        11           S   tau(  11) = (  0.7400580  0.8748250  0.1325030  )
        12           S   tau(  12) = (  0.2400580  0.6251750  0.8674970  )

     number of k points=    10
                       cart. coord. in units 2pi/alat
        k(    1) = (   0.0000000   0.0000000   0.0000000), wk =   0.0740741
        k(    2) = (   0.0000000   0.0000000   0.1652171), wk =   0.1481481
        k(    3) = (   0.0000000   0.1671588  -0.0002932), wk =   0.1481481
        k(    4) = (   0.0000000   0.1671588   0.1649239), wk =   0.1481481
        k(    5) = (   0.0000000   0.1671588  -0.1655103), wk =   0.1481481
        k(    6) = (   0.3333333   0.0000000   0.0000000), wk =   0.1481481
        k(    7) = (   0.3333333   0.0000000   0.1652171), wk =   0.2962963
        k(    8) = (   0.3333333   0.1671588  -0.0002932), wk =   0.2962963
        k(    9) = (   0.3333333   0.1671588   0.1649239), wk =   0.2962963
        k(   10) = (   0.3333333   0.1671588  -0.1655103), wk =   0.2962963

                       cryst. coord.
        k(    1) = (   0.0000000   0.0000000   0.0000000), wk =   0.0740741
        k(    2) = (   0.0000000   0.0000000   0.3333333), wk =   0.1481481
        k(    3) = (   0.0000000   0.3333333   0.0000000), wk =   0.1481481
        k(    4) = (   0.0000000   0.3333333   0.3333333), wk =   0.1481481
        k(    5) = (   0.0000000   0.3333333  -0.3333333), wk =   0.1481481
        k(    6) = (   0.3333333   0.0000000   0.0000000), wk =   0.1481481
        k(    7) = (   0.3333333   0.0000000   0.3333333), wk =   0.2962963
        k(    8) = (   0.3333333   0.3333333   0.0000000), wk =   0.2962963
        k(    9) = (   0.3333333   0.3333333   0.3333333), wk =   0.2962963
        k(   10) = (   0.3333333   0.3333333  -0.3333333), wk =   0.2962963

     Initial potential from superposition of free atoms

     starting charge     107.9790, renormalised to     108.0000
     Starting wfcs are  160 randomized atomic wfcs
     Checking if some PAW data can be deallocated...

     Self-consistent Calculation

     iteration #  1     ecut=    30.00 Ry     beta= 0.70
     Davidson diagonalization with overlap

     ethr =  1.00E-02,  avg # of iterations =  1.3

     total energy              =   -2468.72488515 Ry
     estimated scf accuracy    <       1.60088748 Ry

[...]

     c_bands:  1 eigenvalues not converged
     ethr =  2.06E-04,  avg # of iterations = 19.2

[...]

     c_bands:  1 eigenvalues not converged
     c_bands:  1 eigenvalues not converged
     ethr =  3.84E-08,  avg # of iterations = 17.2

[...]

     total energy              =   -2470.59777093 Ry
     estimated scf accuracy    <       0.00000860 Ry

     iteration # 94     ecut=    30.00 Ry     beta= 0.70
     Davidson diagonalization with overlap

     ethr =  1.13E-09,  avg # of iterations = 12.6

     End of self-consistent calculation

          k = 0.0000 0.0000 0.0000 (  4899 PWs)   bands (ev):

   -28.1226 -28.1169 -28.1068 -28.1066  -8.9370  -8.8776  -8.8707  -8.7169
    -8.6618  -8.6119  -8.5020  -8.4901  -8.4792  -8.4705  -8.4434  -8.4421
    -4.9557  -4.3165  -2.1979  -1.8537  -1.8404  -1.5565  -1.5016  -0.2885
     4.3241   5.1327   5.1492   5.5321   5.7686   6.6118   6.8646   6.9951
     7.2228   7.3127   7.3825   7.5214   7.6519   7.7306   7.8678   7.8893
     8.0181   8.2224   8.3871   8.5896   8.6013   9.2303  10.0425  10.0696
    10.0812  10.1081  10.1177  10.1203  10.1571  10.1575  10.1577  10.1945
    10.2047  10.2067  10.2071  10.2459  10.2566  10.2734  10.2999  10.3218

     occupation numbers
     1.0000   1.0000   1.0000   1.0000   1.0000   1.0000   1.0000   1.0000
     1.0000   1.0000   1.0000   1.0000   1.0000   1.0000   1.0000   1.0000
     1.0000   1.0000   1.0000   1.0000   1.0000   1.0000   1.0000   1.0000
     1.0000   1.0000   1.0000   1.0000   1.0000   1.0000   1.0000   1.0000
     1.0000   1.0000   1.0000   1.0000   1.0000   1.0000   1.0000   1.0000
     1.0000   1.0000   1.0000   1.0000   1.0000   1.0000   1.0000   1.0000
     1.0000   1.0000   1.0000   1.0000   1.0000   1.0000   0.0000   0.0000
     0.0000   0.0000   0.0000   0.0000   0.0000   0.0000   0.0000   0.0000

[...]

          k = 0.3333 0.1672-0.1655 (  4878 PWs)   bands (ev):

   -28.1078 -28.1059 -28.1012 -28.1000  -8.8595  -8.8391  -8.7507  -8.7380
    -8.7055  -8.6717  -8.6426  -8.6195  -8.6056  -8.5962  -8.5395  -8.5257
    -4.4954  -4.3467  -1.8478  -1.8385  -1.7035  -1.5905  -1.4424  -1.1229
     4.0827   4.7126   5.3441   5.4977   5.7008   6.1594   6.4250   6.5749
     6.6728   6.7576   7.1893   7.3959   7.5112   7.5990   7.7697   8.0094
     8.0641   8.2673   8.2991   8.5457   8.8114   9.4616  10.0483  10.0680
    10.0681  10.0787  10.0919  10.1021  10.1248  10.1321  10.1341  10.1528
    10.1942  10.2228  10.2311  10.2443  10.2590  10.2842  10.3056  10.3180

     occupation numbers
     1.0000   1.0000   1.0000   1.0000   1.0000   1.0000   1.0000   1.0000
     1.0000   1.0000   1.0000   1.0000   1.0000   1.0000   1.0000   1.0000
     1.0000   1.0000   1.0000   1.0000   1.0000   1.0000   1.0000   1.0000
     1.0000   1.0000   1.0000   1.0000   1.0000   1.0000   1.0000   1.0000
     1.0000   1.0000   1.0000   1.0000   1.0000   1.0000   1.0000   1.0000
     1.0000   1.0000   1.0000   1.0000   1.0000   1.0000   1.0000   1.0000
     1.0000   1.0000   1.0000   1.0000   1.0000   1.0000   0.0000   0.0000
     0.0000   0.0000   0.0000   0.0000   0.0000   0.0000   0.0000   0.0000

     highest occupied, lowest unoccupied level (ev):    10.1575   10.1341

!    total energy              =   -2470.59777665 Ry
     estimated scf accuracy    <       0.00000050 Ry

     The total energy is the sum of the following terms:
     one-electron contribution =    -140.17945738 Ry
     hartree contribution      =     147.32678642 Ry
     xc contribution           =    -131.17898709 Ry
     ewald contribution        =    -587.00865124 Ry
     one-center paw contrib.   =   -1759.55746736 Ry
      -> PAW hartree energy AE =     101.65765546 Ry
      -> PAW hartree energy PS =    -100.04409236 Ry
      -> PAW xc energy AE      =    -456.04880079 Ry
      -> PAW xc energy PS      =      14.54587087 Ry
      -> total E_H with PAW    =     148.94034951 Ry
      -> total E_XC with PAW   =    -572.68191700 Ry

     convergence has been achieved in  94 iterations

     Writing all to output data dir bands_nm/myprefix.save/

     General routines

     Parallel routines

     PAW routines

   This run was terminated on:   5:10: 9  13Jul2023

   JOB DONE.