     Program PWSCF v.7.0 starts on  4Jun2023 at 17:26:36

     K-points division:     npool     =       2
     R & G space division:  proc/nbgrp/npool/nimage =       4

     Reading input from espresso_8012.pwi
Warning: card &CELL ignored
Warning: card / ignored

     Current dimensions of program PWSCF are:
     Max number of different atomic species (ntypx) = 10
     Max number of k-points (npk) =  40000
     Max angular momentum in pseudopotentials (lmaxx) =  4
     file K.pbe-spn-kjpaw_psl.1.0.0.UPF: wavefunction(s)  3S renormalized
     Message from routine setup:
     using ibrav=0 with symmetry is DISCOURAGED, use correct ibrav instead

     Using Slab Decomposition

     bravais-lattice index     =            0
     lattice parameter (alat)  =      12.0027  a.u.
     unit-cell volume          =    1271.1237 (a.u.)^3
     number of atoms/cell      =            8
     number of atomic types    =            4
     number of electrons       =        76.00
     number of Kohn-Sham states=           64
     kinetic-energy cutoff     =      30.0000  Ry
     charge density cutoff     =     240.0000  Ry
     scf convergence threshold =      1.0E-06
     mixing beta               =       0.7000
     number of iterations used =            8  plain     mixing
     Exchange-correlation=  SLA  PW   PBX  PBC
                           (   1   4   3   4   0   0   0)

     celldm(1)=  12.002731  celldm(2)=   0.000000  celldm(3)=   0.000000
     celldm(4)=   0.000000  celldm(5)=   0.000000  celldm(6)=   0.000000

     crystal axes: (cart. coord. in units of alat)
               a(1) = (   1.000000   0.000000   0.000000 )
               a(2) = (  -0.089471   0.995989   0.000000 )
               a(3) = (  -0.455265  -0.497995   0.738062 )

     reciprocal axes: (cart. coord. in units 2 pi/alat)
               b(1) = (  1.000000  0.089831  0.677450 )
               b(2) = (  0.000000  1.004027  0.677450 )
               b(3) = (  0.000000  0.000000  1.354900 )

     PseudoPot. # 1 for K  read from file:
     /home/pragov/projects/rrg-bengioy-ad/pragov/crystal_structure_design/SSSP/K.pbe-spn-kjpaw_psl.1.0.0.UPF
     MD5 check sum: 7d58810084cac21f60fbe77ea2b688fd
     Pseudo is Projector augmented-wave + core cor, Zval =  9.0
     Generated using "atomic" code by A. Dal Corso  v.5.1
     Shape of augmentation charge: PSQ
     Using radial grid of 1165 points,  6 beta functions with:
                l(1) =   0
                l(2) =   0
                l(3) =   1
                l(4) =   1
                l(5) =   2
                l(6) =   2
     Q(r) pseudized with 0 coefficients

     PseudoPot. # 2 for Ag read from file:
     /home/pragov/projects/rrg-bengioy-ad/pragov/crystal_structure_design/SSSP/Ag_ONCV_PBE-1.0.oncvpsp.upf
     MD5 check sum: 94f47bd0669c641108e45594df92fabc
     Pseudo is Norm-conserving, Zval = 19.0
     Generated using ONCVPSP code by D. R. Hamann
     Using radial grid of 1398 points,  6 beta functions with:
                l(1) =   0
                l(2) =   0
                l(3) =   1
                l(4) =   1
                l(5) =   2
                l(6) =   2

     PseudoPot. # 3 for P  read from file:
     /home/pragov/projects/rrg-bengioy-ad/pragov/crystal_structure_design/SSSP/P.pbe-n-rrkjus_psl.1.0.0.UPF
     MD5 check sum: 8b930f418f0a4573dca56cd030ffe088
     Pseudo is Ultrasoft + core correction, Zval =  5.0
     Generated using "atomic" code by A. Dal Corso  v.5.1
     Using radial grid of 1147 points,  6 beta functions with:
                l(1) =   0
                l(2) =   0
                l(3) =   1
                l(4) =   1
                l(5) =   2
                l(6) =   2
     Q(r) pseudized with 0 coefficients

     PseudoPot. # 4 for S  read from file:
     /home/pragov/projects/rrg-bengioy-ad/pragov/crystal_structure_design/SSSP/s_pbe_v1.4.uspp.F.UPF
     MD5 check sum: 88d86576ff6df21479756cfb9bdac1df
     Pseudo is Ultrasoft + core correction, Zval =  6.0
     Generated by new atomic code, or converted to UPF format
     Using radial grid of  907 points,  6 beta functions with:
                l(1) =   0
                l(2) =   0
                l(3) =   1
                l(4) =   1
                l(5) =   2
                l(6) =   2
     Q(r) pseudized with  8 coefficients,  rinner =    1.300   1.300   1.300
                                                       1.300   1.300

     atomic species   valence    mass     pseudopotential
        K              9.00    39.09830     K ( 1.00)
        Ag            19.00   107.86820     Ag( 1.00)
        P              5.00    30.97376     P ( 1.00)
        S              6.00    32.06000     S ( 1.00)

      2 Sym. Ops. (no inversion) found

                                    s                        frac. trans.

      isym =  1     identity

 cryst.   s( 1) = (     1          0          0      )
                  (     0          1          0      )
                  (     0          0          1      )

 cart.    s( 1) = (  1.0000000 -0.0000000 -0.0000000 )
                  (  0.0000000  1.0000000 -0.0000000 )
                  (  0.0000000  0.0000000  1.0000000 )

      isym =  2     inv. 180 deg rotation - cart. axis [0,0,1]

 cryst.   s( 2) = (     1          0          0      )
                  (     0          1          0      )
                  (    -1         -1         -1      )

 cart.    s( 2) = (  1.0000000 -0.0000000 -0.0000000 )
                  (  0.0000000  1.0000000 -0.0000000 )
                  (  0.0000000  0.0000000 -1.0000000 )

   Cartesian axes

     site n.     atom                  positions (alat units)
         1           K   tau(   1) = (   0.4552646   0.4979947   0.0000000  )
         2           Ag  tau(   2) = (  -0.0447354   0.4979947   0.3690310  )
         3           Ag  tau(   3) = (   0.5000000   0.0000000   0.3690310  )
         4           P   tau(   4) = (   0.0000000   0.0000000   0.0000000  )
         5           S   tau(   5) = (   0.2331237   0.9513880   0.0000000  )
         6           S   tau(   6) = (   0.9267147   0.3173103   0.0000000  )
         7           S   tau(   7) = (   0.3306099   0.3616403   0.4698731  )
         8           S   tau(   8) = (  -0.1246546  -0.1363544   0.2681888  )

   Crystallographic axes

     site n.     atom                  positions (cryst. coord.)
         1           K   tau(   1) = (  0.5000000  0.5000000  0.0000000  )
         2           Ag  tau(   2) = (  0.2500000  0.7500000  0.5000000  )
         3           Ag  tau(   3) = (  0.7500000  0.2500000  0.5000000  )
         4           P   tau(   4) = (  0.0000000  0.0000000  0.0000000  )
         5           S   tau(   5) = (  0.3185880  0.9552190  0.0000000  )
         6           S   tau(   6) = (  0.9552190  0.3185880  0.0000000  )
         7           S   tau(   7) = (  0.6814120  0.6814120  0.6366310  )
         8           S   tau(   8) = (  0.0447810  0.0447810  0.3633690  )

     number of k points=    10
                       cart. coord. in units 2pi/alat
        k(    1) = (   0.0000000   0.0000000   0.0000000), wk =   0.0740741
        k(    2) = (   0.0000000   0.0000000   0.4516333), wk =   0.1481481
        k(    3) = (   0.0000000   0.3346756   0.2258166), wk =   0.2962963
        k(    4) = (   0.0000000   0.3346756   0.6774499), wk =   0.1481481
        k(    5) = (   0.3333333   0.0299437   0.2258166), wk =   0.2962963
        k(    6) = (   0.3333333   0.0299437   0.6774499), wk =   0.1481481
        k(    7) = (   0.3333333   0.3646193   0.4516333), wk =   0.2962963
        k(    8) = (   0.3333333   0.3646193  -0.0000000), wk =   0.1481481
        k(    9) = (   0.3333333  -0.3047319   0.0000000), wk =   0.1481481
        k(   10) = (   0.3333333  -0.3047319   0.4516333), wk =   0.2962963

                       cryst. coord.
        k(    1) = (   0.0000000   0.0000000   0.0000000), wk =   0.0740741
        k(    2) = (   0.0000000   0.0000000   0.3333333), wk =   0.1481481
        k(    3) = (   0.0000000   0.3333333  -0.0000000), wk =   0.2962963
        k(    4) = (   0.0000000   0.3333333   0.3333333), wk =   0.1481481
        k(    5) = (   0.3333333   0.0000000  -0.0000000), wk =   0.2962963
        k(    6) = (   0.3333333   0.0000000   0.3333333), wk =   0.1481481
        k(    7) = (   0.3333333   0.3333333  -0.0000000), wk =   0.2962963
        k(    8) = (   0.3333333   0.3333333  -0.3333333), wk =   0.1481481
        k(    9) = (   0.3333333  -0.3333333   0.0000000), wk =   0.1481481
        k(   10) = (   0.3333333  -0.3333333   0.3333333), wk =   0.2962963

     Check: negative core charge=   -0.000002

     Initial potential from superposition of free atoms

     starting charge      75.9803, renormalised to      76.0000
     Starting wfcs are   48 randomized atomic wfcs +   16 random wfcs
     Checking if some PAW data can be deallocated...

     Self-consistent Calculation

     iteration #  1     ecut=    30.00 Ry     beta= 0.70
     Davidson diagonalization with overlap

     ethr =  1.00E-02,  avg # of iterations =  8.2

     Threshold (ethr) on eigenvalues was too large:
     Diagonalizing with lowered threshold

     Davidson diagonalization with overlap

[...]

     total energy              =    -797.81931368 Ry
     estimated scf accuracy    <       0.31584626 Ry

[...]

     c_bands:  1 eigenvalues not converged
     ethr =  1.47E-06,  avg # of iterations =  9.9

[...]

     total energy              =    -797.90330798 Ry
     estimated scf accuracy    <       0.00001190 Ry

     iteration #  7     ecut=    30.00 Ry     beta= 0.70
     Davidson diagonalization with overlap

     ethr =  1.57E-08,  avg # of iterations =  2.0

     End of self-consistent calculation

          k = 0.0000 0.0000 0.0000 (  3559 PWs)   bands (ev):

   -85.6127 -85.6126 -48.6734 -48.6734 -48.6706 -48.6706 -48.6400 -48.6313
   -23.0731  -9.1377  -6.6675  -6.6675  -6.6077  -6.1699  -6.1699  -6.1511
    -2.5235   0.6166   0.8123   0.8123   1.9008   2.5570   2.5836   2.5836
     2.7716   2.8164   3.1294   3.1294   3.1366   3.6708   3.7677   4.6712
     4.8166   4.8662   4.8662   5.3889   5.3889   5.7118   7.7566   9.8179
    10.1109  10.3001  10.3001  11.4191  11.8239  11.8422  12.2483  12.4313
    12.4313  13.6233  14.7539  14.7686  14.7686  14.9531  15.1171  15.1553
    15.1553  16.1518  16.3537  16.3537  16.7441  17.8405  17.8405  18.4120

     occupation numbers
     1.0000   1.0000   1.0000   1.0000   1.0000   1.0000   1.0000   1.0000
     1.0000   1.0000   1.0000   1.0000   1.0000   1.0000   1.0000   1.0000
     1.0000   1.0000   1.0000   1.0000   1.0000   1.0000   1.0000   1.0000
     1.0000   1.0000   1.0000   1.0000   1.0000   1.0000   1.0000   1.0000
     1.0000   1.0000   1.0000   1.0000   1.0000   1.0000   0.0000   0.0000
     0.0000   0.0000   0.0000   0.0000   0.0000   0.0000   0.0000   0.0000
     0.0000   0.0000   0.0000   0.0000   0.0000   0.0000   0.0000   0.0000
     0.0000   0.0000   0.0000   0.0000   0.0000   0.0000   0.0000   0.0000

[...]

          k = 0.3333-0.3047 0.4516 (  3523 PWs)   bands (ev):

   -85.6126 -85.6126 -48.6711 -48.6709 -48.6708 -48.6667 -48.6352 -48.6321
   -23.0729  -9.0429  -6.8015  -6.7078  -6.6820  -6.2365  -6.2193  -6.0953
    -2.1451   0.7946   0.9998   1.1283   1.9977   2.2655   2.2827   2.5668
     2.7269   3.0840   3.1020   3.2039   3.5124   3.5310   3.6253   3.7072
     4.3147   4.4966   4.7879   5.3928   5.9694   6.0103   8.7551   9.4851
     9.4939  10.2906  10.3290  11.0729  11.6189  12.3942  12.5630  13.1497
    13.3559  13.7794  14.1283  14.1594  14.3377  14.4446  14.8849  14.9277
    15.9138  15.9163  16.1922  16.6954  16.9204  17.1705  17.6305  17.7333

     occupation numbers
     1.0000   1.0000   1.0000   1.0000   1.0000   1.0000   1.0000   1.0000
     1.0000   1.0000   1.0000   1.0000   1.0000   1.0000   1.0000   1.0000
     1.0000   1.0000   1.0000   1.0000   1.0000   1.0000   1.0000   1.0000
     1.0000   1.0000   1.0000   1.0000   1.0000   1.0000   1.0000   1.0000
     1.0000   1.0000   1.0000   1.0000   1.0000   1.0000   0.0000   0.0000
     0.0000   0.0000   0.0000   0.0000   0.0000   0.0000   0.0000   0.0000
     0.0000   0.0000   0.0000   0.0000   0.0000   0.0000   0.0000   0.0000
     0.0000   0.0000   0.0000   0.0000   0.0000   0.0000   0.0000   0.0000

     highest occupied, lowest unoccupied level (ev):     6.1824    7.7566

!    total energy              =    -797.90331070 Ry
     estimated scf accuracy    <       0.00000018 Ry

     The total energy is the sum of the following terms:
     one-electron contribution =    -445.40144585 Ry
     hartree contribution      =     244.79559634 Ry
     xc contribution           =    -103.65854395 Ry
     ewald contribution        =    -438.22187833 Ry
     one-center paw contrib.   =     -55.41703891 Ry
      -> PAW hartree energy AE =      37.72470990 Ry
      -> PAW hartree energy PS =     -37.51452570 Ry
      -> PAW xc energy AE      =     -66.22078311 Ry
      -> PAW xc energy PS      =      10.59356000 Ry
      -> total E_H with PAW    =     245.00578054 Ry
      -> total E_XC with PAW   =    -159.28576706 Ry

     convergence has been achieved in   7 iterations

     Writing all to output data dir calculations_bands/myprefix.save/

     General routines

     Parallel routines

     PAW routines

   This run was terminated on:  17:30:29   4Jun2023

   JOB DONE.