     Program PWSCF v.7.1 starts on 13Jul2023 at  1:35:21

     Reading input from espresso_24771.pwi
Warning: card &CELL ignored
Warning: card / ignored

     Current dimensions of program PWSCF are:
     Max number of different atomic species (ntypx) = 10
     Max number of k-points (npk) =  40000
     Max angular momentum in pseudopotentials (lmaxx) =  4
     file Ba.pbe-spn-kjpaw_psl.1.0.0.UPF: wavefunction(s)  5S 6S renormalized
     Message from routine setup:
     using ibrav=0 with symmetry is DISCOURAGED, use correct ibrav instead

     K-points division:     npool     =       2
     R & G space division:  proc/nbgrp/npool/nimage =       8
     Subspace diagonalization in iterative solution of the eigenvalue problem:
     a serial algorithm will be used

     Using Slab Decomposition

     bravais-lattice index     =            0
     lattice parameter (alat)  =       9.4366  a.u.
     unit-cell volume          =     813.4779 (a.u.)^3
     number of atoms/cell      =            8
     number of atomic types    =            3
     number of electrons       =        64.00
     number of Kohn-Sham states=           64
     kinetic-energy cutoff     =      30.0000  Ry
     charge density cutoff     =     240.0000  Ry
     scf convergence threshold =      1.0E-06
     mixing beta               =       0.7000
     number of iterations used =            8  plain     mixing
     Exchange-correlation=  SLA  PW   PBX  PBC
                           (   1   4   3   4   0   0   0)

     celldm(1)=   9.436591  celldm(2)=   0.000000  celldm(3)=   0.000000
     celldm(4)=   0.000000  celldm(5)=   0.000000  celldm(6)=   0.000000

     crystal axes: (cart. coord. in units of alat)
               a(1) = (   1.000000   0.000000   0.000000 )
               a(2) = (  -0.138508   0.990361   0.000000 )
               a(3) = (  -0.138508  -0.159228   0.977477 )

     reciprocal axes: (cart. coord. in units 2 pi/alat)
               b(1) = (  1.000000  0.139856  0.164482 )
               b(2) = (  0.000000  1.009733  0.164482 )
               b(3) = (  0.000000  0.000000  1.023042 )

     PseudoPot. # 1 for Ba read from file:
     /lustre07/scratch/pragov/crystal_structure_design/utils/SSSP/Ba.pbe-spn-kjpaw_psl.1.0.0.UPF
     MD5 check sum: c432291d3e53af55f19d5e8866385beb
     Pseudo is Projector augmented-wave + core cor, Zval = 10.0
     Generated using "atomic" code by A. Dal Corso  v.5.1
     Shape of augmentation charge: PSQ
     Using radial grid of 1251 points,  7 beta functions with:
                l(1) =   0
                l(2) =   0
                l(3) =   0
                l(4) =   1
                l(5) =   1
                l(6) =   2
                l(7) =   2
     Q(r) pseudized with 0 coefficients

     PseudoPot. # 2 for Ti read from file:
     /lustre07/scratch/pragov/crystal_structure_design/utils/SSSP/ti_pbe_v1.4.uspp.F.UPF
     MD5 check sum: 88a00a6731bd790ddea75d31a80cb452
     Pseudo is Ultrasoft + core correction, Zval = 12.0
     Generated by new atomic code, or converted to UPF format
     Using radial grid of  851 points,  6 beta functions with:
                l(1) =   0
                l(2) =   0
                l(3) =   1
                l(4) =   1
                l(5) =   2
                l(6) =   2
     Q(r) pseudized with  6 coefficients,  rinner =    1.000   1.000   1.000
                                                       1.000   1.000

     PseudoPot. # 3 for F  read from file:
     /lustre07/scratch/pragov/crystal_structure_design/utils/SSSP/f_pbe_v1.4.uspp.F.UPF
     MD5 check sum: 4c38b6a325caf53ec0e86aed9459de46
     Pseudo is Ultrasoft, Zval =  7.0
     Generated by new atomic code, or converted to UPF format
     Using radial grid of  799 points,  4 beta functions with:
                l(1) =   0
                l(2) =   0
                l(3) =   1
                l(4) =   1
     Q(r) pseudized with  8 coefficients,  rinner =    0.950   0.950   0.950

     atomic species   valence    mass     pseudopotential
        Ba            10.00   137.32700     Ba( 1.00)
        Ti            12.00    47.86700     Ti( 1.00)
        F              7.00    18.99840     F ( 1.00)

      2 Sym. Ops., with inversion, found

                                    s                        frac. trans.

      isym =  1     identity

 cryst.   s( 1) = (     1          0          0      )
                  (     0          1          0      )
                  (     0          0          1      )

 cart.    s( 1) = (  1.0000000 -0.0000000  0.0000000 )
                  (  0.0000000  1.0000000  0.0000000 )
                  (  0.0000000  0.0000000  1.0000000 )

      isym =  2     inversion

 cryst.   s( 2) = (    -1          0          0      )
                  (     0         -1          0      )
                  (     0          0         -1      )

 cart.    s( 2) = ( -1.0000000  0.0000000 -0.0000000 )
                  (  0.0000000 -1.0000000  0.0000000 )
                  (  0.0000000  0.0000000 -1.0000000 )

   Cartesian axes

     site n.     atom                  positions (alat units)
         1           Ba  tau(   1) = (   0.0000000   0.0000000   0.0000000  )
         2           Ti  tau(   2) = (   0.3614916   0.4155667   0.4887386  )
         3           F   tau(   3) = (   0.6053414   0.2967588   0.7534072  )
         4           F   tau(   4) = (   0.6053414   0.6958938   0.4140291  )
         5           F   tau(   5) = (   0.1176417   0.5343747   0.2240701  )
         6           F   tau(   6) = (   0.5129296   0.1905232   0.2240701  )
         7           F   tau(   7) = (   0.1176417   0.1352396   0.5634482  )
         8           F   tau(   8) = (   0.2100535   0.6406102   0.7534072  )

   Crystallographic axes

     site n.     atom                  positions (cryst. coord.)
         1           Ba  tau(   1) = (  0.0000000  0.0000000  0.0000000  )
         2           Ti  tau(   2) = (  0.5000000  0.5000000  0.5000000  )
         3           F   tau(   3) = (  0.7707670  0.4235690  0.7707670  )
         4           F   tau(   4) = (  0.7707670  0.7707670  0.4235690  )
         5           F   tau(   5) = (  0.2292330  0.5764310  0.2292330  )
         6           F   tau(   6) = (  0.5764310  0.2292330  0.2292330  )
         7           F   tau(   7) = (  0.2292330  0.2292330  0.5764310  )
         8           F   tau(   8) = (  0.4235690  0.7707670  0.7707670  )

     number of k points=    14
                       cart. coord. in units 2pi/alat
        k(    1) = (   0.0000000   0.0000000   0.0000000), wk =   0.0740741
        k(    2) = (   0.0000000   0.0000000   0.3410139), wk =   0.1481481
        k(    3) = (   0.0000000   0.3365775   0.0548274), wk =   0.1481481
        k(    4) = (   0.0000000   0.3365775   0.3958413), wk =   0.1481481
        k(    5) = (   0.0000000   0.3365775  -0.2861865), wk =   0.1481481
        k(    6) = (   0.3333333   0.0466188   0.0548274), wk =   0.1481481
        k(    7) = (   0.3333333   0.0466188   0.3958413), wk =   0.1481481
        k(    8) = (   0.3333333   0.0466188  -0.2861865), wk =   0.1481481
        k(    9) = (   0.3333333   0.3831963   0.1096547), wk =   0.1481481
        k(   10) = (   0.3333333   0.3831963   0.4506686), wk =   0.1481481
        k(   11) = (   0.3333333   0.3831963  -0.2313592), wk =   0.1481481
        k(   12) = (   0.3333333  -0.2899587  -0.0000000), wk =   0.1481481
        k(   13) = (   0.3333333  -0.2899587   0.3410139), wk =   0.1481481
        k(   14) = (   0.3333333  -0.2899587  -0.3410139), wk =   0.1481481

                       cryst. coord.
        k(    1) = (   0.0000000   0.0000000   0.0000000), wk =   0.0740741
        k(    2) = (   0.0000000   0.0000000   0.3333333), wk =   0.1481481
        k(    3) = (   0.0000000   0.3333333   0.0000000), wk =   0.1481481
        k(    4) = (   0.0000000   0.3333333   0.3333333), wk =   0.1481481
        k(    5) = (   0.0000000   0.3333333  -0.3333333), wk =   0.1481481
        k(    6) = (   0.3333333   0.0000000   0.0000000), wk =   0.1481481
        k(    7) = (   0.3333333   0.0000000   0.3333333), wk =   0.1481481
        k(    8) = (   0.3333333   0.0000000  -0.3333333), wk =   0.1481481
        k(    9) = (   0.3333333   0.3333333   0.0000000), wk =   0.1481481
        k(   10) = (   0.3333333   0.3333333   0.3333333), wk =   0.1481481
        k(   11) = (   0.3333333   0.3333333  -0.3333333), wk =   0.1481481
        k(   12) = (   0.3333333  -0.3333333   0.0000000), wk =   0.1481481
        k(   13) = (   0.3333333  -0.3333333   0.3333333), wk =   0.1481481
        k(   14) = (   0.3333333  -0.3333333  -0.3333333), wk =   0.1481481

     Check: negative core charge=   -0.000003

     Initial potential from superposition of free atoms

     starting charge      62.9830, renormalised to      64.0000

     negative rho (up, down):  1.680E-03 0.000E+00
     Starting wfcs are   39 randomized atomic wfcs +   25 random wfcs
     Checking if some PAW data can be deallocated...

     Self-consistent Calculation

     iteration #  1     ecut=    30.00 Ry     beta= 0.70
     Davidson diagonalization with overlap

     ethr =  1.00E-02,  avg # of iterations =  6.8

     Threshold (ethr) on eigenvalues was too large:
     Diagonalizing with lowered threshold

     Davidson diagonalization with overlap

[...]

     negative rho (up, down):  1.775E-03 0.000E+00

     total energy              =    -848.13888872 Ry
     estimated scf accuracy    <       0.28201531 Ry

[...]

     total energy              =    -848.24092168 Ry
     estimated scf accuracy    <       0.00000148 Ry

     iteration #  8     ecut=    30.00 Ry     beta= 0.70
     Davidson diagonalization with overlap

     ethr =  2.32E-09,  avg # of iterations =  1.1

     negative rho (up, down):  1.693E-03 0.000E+00

     End of self-consistent calculation

          k = 0.0000 0.0000 0.0000 (  2259 PWs)   bands (ev):

   -53.1086 -29.4616 -29.4026 -29.4026 -20.9396 -17.8203 -17.4594 -17.4591
   -17.1557 -17.1554 -17.1350  -6.0562  -6.0475  -6.0474  -0.6747  -0.6180
    -0.6178   0.0360   0.0361   0.1410   0.8090   1.0412   1.0413   1.2135
     1.4739   1.4741   1.7836   1.7837   1.8935   2.1429   2.1430   2.6089
     7.1169   7.1287   7.1287   9.3686   9.3687  10.5371  12.1548  12.1549
    12.6845  12.6846  12.9577  16.4085  16.4085  17.5080  18.4375  18.5136
    18.5137  18.6553  20.8238  20.8238  21.1019  22.1844  22.1845  22.3992
    22.4539  22.4540  23.9558  23.9558  25.1281  25.1462  26.0360  27.6990

     occupation numbers
     1.0000   1.0000   1.0000   1.0000   1.0000   1.0000   1.0000   1.0000
     1.0000   1.0000   1.0000   1.0000   1.0000   1.0000   1.0000   1.0000
     1.0000   1.0000   1.0000   1.0000   1.0000   1.0000   1.0000   1.0000
     1.0000   1.0000   1.0000   1.0000   1.0000   1.0000   1.0000   1.0000
     0.0000   0.0000   0.0000   0.0000   0.0000   0.0000   0.0000   0.0000
     0.0000   0.0000   0.0000   0.0000   0.0000   0.0000   0.0000   0.0000
     0.0000   0.0000   0.0000   0.0000   0.0000   0.0000   0.0000   0.0000
     0.0000   0.0000   0.0000   0.0000   0.0000   0.0000   0.0000   0.0000

[...]

          k = 0.3333-0.2900-0.3410 (  2258 PWs)   bands (ev):

   -53.1087 -29.4622 -29.4030 -29.4029 -20.8904 -17.7344 -17.5534 -17.5071
   -17.2470 -17.1277 -17.1155  -6.1647  -6.0116  -6.0031  -0.4896  -0.4437
    -0.2281   0.0524   0.1567   0.3693   0.4944   0.8698   1.0130   1.4008
     1.4283   1.5068   1.6072   1.6887   1.9603   2.0592   2.0801   2.2096
     7.0951   7.1412   7.1577   9.4816   9.5391  11.5153  11.5691  12.0671
    12.5079  12.6736  13.7775  15.9634  16.4273  17.1014  17.4893  17.4917
    18.0942  19.2020  19.2877  20.4738  20.7730  21.8238  22.5968  23.0199
    23.4371  23.7985  24.1993  24.3571  24.5587  24.6730  25.2904  26.3298

     occupation numbers
     1.0000   1.0000   1.0000   1.0000   1.0000   1.0000   1.0000   1.0000
     1.0000   1.0000   1.0000   1.0000   1.0000   1.0000   1.0000   1.0000
     1.0000   1.0000   1.0000   1.0000   1.0000   1.0000   1.0000   1.0000
     1.0000   1.0000   1.0000   1.0000   1.0000   1.0000   1.0000   1.0000
     0.0000   0.0000   0.0000   0.0000   0.0000   0.0000   0.0000   0.0000
     0.0000   0.0000   0.0000   0.0000   0.0000   0.0000   0.0000   0.0000
     0.0000   0.0000   0.0000   0.0000   0.0000   0.0000   0.0000   0.0000
     0.0000   0.0000   0.0000   0.0000   0.0000   0.0000   0.0000   0.0000

     highest occupied, lowest unoccupied level (ev):     2.6089    7.0526

!    total energy              =    -848.24092185 Ry
     estimated scf accuracy    <       0.00000005 Ry

     The total energy is the sum of the following terms:
     one-electron contribution =    -247.33309719 Ry
     hartree contribution      =     156.46199731 Ry
     xc contribution           =     -94.42627097 Ry
     ewald contribution        =    -287.99144905 Ry
     one-center paw contrib.   =    -374.95210195 Ry
      -> PAW hartree energy AE =      28.38199959 Ry
      -> PAW hartree energy PS =     -28.26740645 Ry
      -> PAW xc energy AE      =    -394.17893925 Ry
      -> PAW xc energy PS      =      19.11224416 Ry
      -> total E_H with PAW    =     156.57659045 Ry
      -> total E_XC with PAW   =    -469.49296606 Ry

     convergence has been achieved in   8 iterations

     Writing all to output data dir bands_nm/myprefix.save/

     General routines

     Parallel routines

     PAW routines

   This run was terminated on:   1:35:34  13Jul2023

   JOB DONE.