     Program PWSCF v.7.1 starts on 16Jul2023 at 14: 3:29

     Reading input from espresso_26825.pwi
Warning: card &CELL ignored
Warning: card / ignored

     Current dimensions of program PWSCF are:
     Max number of different atomic species (ntypx) = 10
     Max number of k-points (npk) =  40000
     Max angular momentum in pseudopotentials (lmaxx) =  4
     file Pb.pbe-dn-kjpaw_psl.0.2.2.UPF: wavefunction(s)  6S renormalized
     Message from routine setup:
     using ibrav=0 with symmetry is DISCOURAGED, use correct ibrav instead

     K-points division:     npool     =       2
     R & G space division:  proc/nbgrp/npool/nimage =       4
     Subspace diagonalization in iterative solution of the eigenvalue problem:
     a serial algorithm will be used

     Using Slab Decomposition

     bravais-lattice index     =            0
     lattice parameter (alat)  =       7.4575  a.u.
     unit-cell volume          =    1365.2966 (a.u.)^3
     number of atoms/cell      =           12
     number of atomic types    =            2
     number of electrons       =       112.00
     number of Kohn-Sham states=           64
     kinetic-energy cutoff     =      30.0000  Ry
     charge density cutoff     =     240.0000  Ry
     scf convergence threshold =      1.0E-06
     mixing beta               =       0.7000
     number of iterations used =            8  plain     mixing
     Exchange-correlation=  SLA  PW   PBX  PBC
                           (   1   4   3   4   0   0   0)

     celldm(1)=   7.457540  celldm(2)=   0.000000  celldm(3)=   0.000000
     celldm(4)=   0.000000  celldm(5)=   0.000000  celldm(6)=   0.000000

     crystal axes: (cart. coord. in units of alat)
               a(1) = (   1.000000   0.000000   0.000000 )
               a(2) = (   0.000000   1.663798   0.000000 )
               a(3) = (   0.000000   0.000000   1.978517 )

     reciprocal axes: (cart. coord. in units 2 pi/alat)
               b(1) = (  1.000000  0.000000  0.000000 )
               b(2) = (  0.000000  0.601035  0.000000 )
               b(3) = (  0.000000  0.000000  0.505429 )

     PseudoPot. # 1 for Pb read from file:
     /lustre07/scratch/pragov/crystal_structure_design/utils/SSSP/Pb.pbe-dn-kjpaw_psl.0.2.2.UPF
     MD5 check sum: 9d431e6316058b74ade52399a6cf67da
     Pseudo is Projector augmented-wave + core cor, Zval = 14.0
     Generated using "atomic" code by A. Dal Corso  v.5.0.99 svn rev. 10869
     Shape of augmentation charge: PSQ
     Using radial grid of 1281 points,  6 beta functions with:
                l(1) =   0
                l(2) =   0
                l(3) =   1
                l(4) =   1
                l(5) =   2
                l(6) =   2
     Q(r) pseudized with 0 coefficients

     PseudoPot. # 2 for F  read from file:
     /lustre07/scratch/pragov/crystal_structure_design/utils/SSSP/f_pbe_v1.4.uspp.F.UPF
     MD5 check sum: 4c38b6a325caf53ec0e86aed9459de46
     Pseudo is Ultrasoft, Zval =  7.0
     Generated by new atomic code, or converted to UPF format
     Using radial grid of  799 points,  4 beta functions with:
                l(1) =   0
                l(2) =   0
                l(3) =   1
                l(4) =   1
     Q(r) pseudized with  8 coefficients,  rinner =    0.950   0.950   0.950

     atomic species   valence    mass     pseudopotential
        Pb            14.00   207.20000     Pb( 1.00)
        F              7.00    18.99840     F ( 1.00)

      8 Sym. Ops., with inversion, found ( 6 have fractional translation)

                                    s                        frac. trans.

      isym =  1     identity

 cryst.   s( 1) = (     1          0          0      )
                  (     0          1          0      )
                  (     0          0          1      )

 cart.    s( 1) = (  1.0000000  0.0000000  0.0000000 )
                  (  0.0000000  1.0000000  0.0000000 )
                  (  0.0000000  0.0000000  1.0000000 )

      isym =  2     180 deg rotation - cart. axis [0,0,1]

 cryst.   s( 2) = (    -1          0          0      )    f =(  0.0000000 )
                  (     0         -1          0      )       ( -0.5000000 )
                  (     0          0          1      )       ( -0.5000000 )

 cart.    s( 2) = ( -1.0000000  0.0000000  0.0000000 )    f =(  0.0000000 )
                  (  0.0000000 -1.0000000  0.0000000 )       ( -0.8318989 )
                  (  0.0000000  0.0000000  1.0000000 )       ( -0.9892585 )

[...]

      isym =  4     180 deg rotation - cart. axis [1,0,0]

[...]

      isym =  5     inversion

 cryst.   s( 5) = (    -1          0          0      )
                  (     0         -1          0      )
                  (     0          0         -1      )

 cart.    s( 5) = ( -1.0000000  0.0000000  0.0000000 )
                  (  0.0000000 -1.0000000  0.0000000 )
                  (  0.0000000  0.0000000 -1.0000000 )

      isym =  6     inv. 180 deg rotation - cart. axis [0,0,1]

[...]

      isym =  8     inv. 180 deg rotation - cart. axis [1,0,0]

 cryst.   s( 8) = (    -1          0          0      )    f =(  0.5000000 )
                  (     0          1          0      )       (  0.0000000 )
                  (     0          0          1      )       (  0.0000000 )

 cart.    s( 8) = ( -1.0000000  0.0000000  0.0000000 )    f =(  0.5000000 )
                  (  0.0000000  1.0000000  0.0000000 )       (  0.0000000 )
                  (  0.0000000  0.0000000  1.0000000 )       (  0.0000000 )

   Cartesian axes

     site n.     atom                  positions (alat units)
         1           Pb  tau(   1) = (   0.2500000   0.4279637   1.7841929  )
         2           Pb  tau(   2) = (   0.7500000   1.2358340   0.1943240  )
         3           Pb  tau(   3) = (   0.2500000   1.2598626   1.1835825  )
         4           Pb  tau(   4) = (   0.7500000   0.4039352   0.7949345  )
         5           F   tau(   5) = (   0.2500000   0.8032450   0.2927433  )
         6           F   tau(   6) = (   0.7500000   0.8605528   1.6857736  )
         7           F   tau(   7) = (   0.2500000   1.6351439   0.6965151  )
         8           F   tau(   8) = (   0.7500000   0.0286539   1.2820018  )
         9           F   tau(   9) = (   0.7500000   1.0672431   0.8489064  )
        10           F   tau(  10) = (   0.2500000   0.5965547   1.1296105  )
        11           F   tau(  11) = (   0.7500000   0.2353442   0.1403520  )
        12           F   tau(  12) = (   0.2500000   1.4284536   1.8381649  )

   Crystallographic axes

     site n.     atom                  positions (cryst. coord.)
         1           Pb  tau(   1) = (  0.2500000  0.2572210  0.9017830  )
         2           Pb  tau(   2) = (  0.7500000  0.7427790  0.0982170  )
         3           Pb  tau(   3) = (  0.2500000  0.7572210  0.5982170  )
         4           Pb  tau(   4) = (  0.7500000  0.2427790  0.4017830  )
         5           F   tau(   5) = (  0.2500000  0.4827780  0.1479610  )
         6           F   tau(   6) = (  0.7500000  0.5172220  0.8520390  )
         7           F   tau(   7) = (  0.2500000  0.9827780  0.3520390  )
         8           F   tau(   8) = (  0.7500000  0.0172220  0.6479610  )
         9           F   tau(   9) = (  0.7500000  0.6414500  0.4290620  )
        10           F   tau(  10) = (  0.2500000  0.3585500  0.5709380  )
        11           F   tau(  11) = (  0.7500000  0.1414500  0.0709380  )
        12           F   tau(  12) = (  0.2500000  0.8585500  0.9290620  )

     number of k points=     8
                       cart. coord. in units 2pi/alat
        k(    1) = (   0.0000000   0.0000000   0.0000000), wk =   0.0740741
        k(    2) = (   0.0000000   0.0000000   0.1684764), wk =   0.1481481
        k(    3) = (   0.0000000   0.2003449   0.0000000), wk =   0.1481481
        k(    4) = (   0.0000000   0.2003449   0.1684764), wk =   0.2962963
        k(    5) = (   0.3333333   0.0000000   0.0000000), wk =   0.1481481
        k(    6) = (   0.3333333   0.0000000   0.1684764), wk =   0.2962963
        k(    7) = (   0.3333333   0.2003449   0.0000000), wk =   0.2962963
        k(    8) = (   0.3333333   0.2003449   0.1684764), wk =   0.5925926

                       cryst. coord.
        k(    1) = (   0.0000000   0.0000000   0.0000000), wk =   0.0740741
        k(    2) = (   0.0000000   0.0000000   0.3333333), wk =   0.1481481
        k(    3) = (   0.0000000   0.3333333   0.0000000), wk =   0.1481481
        k(    4) = (   0.0000000   0.3333333   0.3333333), wk =   0.2962963
        k(    5) = (   0.3333333   0.0000000   0.0000000), wk =   0.1481481
        k(    6) = (   0.3333333   0.0000000   0.3333333), wk =   0.2962963
        k(    7) = (   0.3333333   0.3333333   0.0000000), wk =   0.2962963
        k(    8) = (   0.3333333   0.3333333   0.3333333), wk =   0.5925926

     Check: negative core charge=   -0.000001

     Initial potential from superposition of free atoms

     starting charge     111.9906, renormalised to     112.0000
     Starting wfcs are   68 randomized atomic wfcs
     Checking if some PAW data can be deallocated...

     Self-consistent Calculation

     iteration #  1     ecut=    30.00 Ry     beta= 0.70
     Davidson diagonalization with overlap

     ethr =  1.00E-02,  avg # of iterations =  2.0

     total energy              =   -3870.79060315 Ry
     estimated scf accuracy    <       1.98028796 Ry

[...]

     total energy              =   -3871.79980619 Ry
     estimated scf accuracy    <       0.00001190 Ry

     iteration #  9     ecut=    30.00 Ry     beta= 0.70
     Davidson diagonalization with overlap

     ethr =  1.06E-08,  avg # of iterations =  2.0

     End of self-consistent calculation

          k = 0.0000 0.0000 0.0000 (  3777 PWs)   bands (ev):

   -15.6174 -15.5016 -15.3139 -15.3035 -15.1722 -15.1197 -15.0470 -15.0336
    -9.0892  -9.0659  -9.0633  -9.0522  -9.0473  -9.0400  -9.0358  -9.0317
    -9.0271  -9.0083  -9.0025  -9.0014  -8.9884  -8.9828  -8.9805  -8.9778
    -8.9751  -8.9596  -8.9207  -8.9202  -1.0289  -0.7200  -0.4824   0.3211
     2.1883   2.3209   2.3356   2.5941   2.7194   2.7229   2.8455   2.9581
     3.2113   3.3346   3.3765   3.5448   3.5538   3.5768   3.5898   3.6070
     3.6252   3.6305   3.7026   3.9158   3.9528   5.0430   5.1483   5.2698
     9.8407  10.1717  11.0352  11.3112  11.9957  12.5018  12.6828  13.0057

     occupation numbers
     1.0000   1.0000   1.0000   1.0000   1.0000   1.0000   1.0000   1.0000
     1.0000   1.0000   1.0000   1.0000   1.0000   1.0000   1.0000   1.0000
     1.0000   1.0000   1.0000   1.0000   1.0000   1.0000   1.0000   1.0000
     1.0000   1.0000   1.0000   1.0000   1.0000   1.0000   1.0000   1.0000
     1.0000   1.0000   1.0000   1.0000   1.0000   1.0000   1.0000   1.0000
     1.0000   1.0000   1.0000   1.0000   1.0000   1.0000   1.0000   1.0000
     1.0000   1.0000   1.0000   1.0000   1.0000   1.0000   1.0000   1.0000
     0.0000   0.0000   0.0000   0.0000   0.0000   0.0000   0.0000   0.0000

[...]

          k = 0.3333 0.2003 0.1685 (  3792 PWs)   bands (ev):

   -15.4614 -15.4446 -15.3609 -15.3566 -15.1365 -15.1336 -15.0767 -15.0721
    -9.0559  -9.0487  -9.0452  -9.0409  -9.0280  -9.0262  -9.0179  -9.0153
    -9.0052  -9.0014  -8.9986  -8.9960  -8.9871  -8.9838  -8.9502  -8.9476
    -8.9276  -8.9236  -8.9076  -8.9027  -0.8278  -0.6830  -0.5729  -0.4671
     2.0182   2.0688   2.1691   2.3506   2.3934   2.5892   2.8595   2.8728
     2.9451   3.1011   3.3627   3.4881   3.6314   3.6403   3.7389   3.7642
     3.8036   3.8489   3.8575   3.9183   4.8729   4.9628   5.0230   5.1753
    10.2229  10.4557  10.5580  10.9548  11.7436  12.0455  12.1507  12.3206

     occupation numbers
     1.0000   1.0000   1.0000   1.0000   1.0000   1.0000   1.0000   1.0000
     1.0000   1.0000   1.0000   1.0000   1.0000   1.0000   1.0000   1.0000
     1.0000   1.0000   1.0000   1.0000   1.0000   1.0000   1.0000   1.0000
     1.0000   1.0000   1.0000   1.0000   1.0000   1.0000   1.0000   1.0000
     1.0000   1.0000   1.0000   1.0000   1.0000   1.0000   1.0000   1.0000
     1.0000   1.0000   1.0000   1.0000   1.0000   1.0000   1.0000   1.0000
     1.0000   1.0000   1.0000   1.0000   1.0000   1.0000   1.0000   1.0000
     0.0000   0.0000   0.0000   0.0000   0.0000   0.0000   0.0000   0.0000

     highest occupied, lowest unoccupied level (ev):     5.4365    9.8407

!    total energy              =   -3871.79980820 Ry
     estimated scf accuracy    <       0.00000058 Ry

     The total energy is the sum of the following terms:
     one-electron contribution =    -286.75973823 Ry
     hartree contribution      =     230.04665510 Ry
     xc contribution           =    -252.41934828 Ry
     ewald contribution        =    -648.76027681 Ry
     one-center paw contrib.   =   -2913.90709998 Ry
      -> PAW hartree energy AE =     190.21728846 Ry
      -> PAW hartree energy PS =    -189.78684614 Ry
      -> PAW xc energy AE      =   -1544.52428628 Ry
      -> PAW xc energy PS      =      87.14029397 Ry
      -> total E_H with PAW    =     230.47709742 Ry
      -> total E_XC with PAW   =   -1709.80334059 Ry

     convergence has been achieved in   9 iterations

     Writing all to output data dir bands_nm/myprefix.save/

     General routines

     Parallel routines

     PAW routines

   This run was terminated on:  14: 3:35  16Jul2023

   JOB DONE.