     Program PWSCF v.7.1 starts on 15Jul2023 at 22:49:42

     Reading input from espresso_5973.pwi
Warning: card &CELL ignored
Warning: card / ignored

     Current dimensions of program PWSCF are:
     Max number of different atomic species (ntypx) = 10
     Max number of k-points (npk) =  40000
     Max angular momentum in pseudopotentials (lmaxx) =  4
     file Mg.pbe-n-kjpaw_psl.0.3.0.UPF: wavefunction(s)  3S renormalized
     file O.pbe-n-kjpaw_psl.0.1.UPF: wavefunction(s)  2P renormalized
     Message from routine setup:
     using ibrav=0 with symmetry is DISCOURAGED, use correct ibrav instead

     K-points division:     npool     =       2
     R & G space division:  proc/nbgrp/npool/nimage =       4
     Subspace diagonalization in iterative solution of the eigenvalue problem:
     one sub-group per band group will be used

     Using Slab Decomposition

     bravais-lattice index     =            0
     lattice parameter (alat)  =       9.3208  a.u.
     unit-cell volume          =    1630.6502 (a.u.)^3
     number of atoms/cell      =           18
     number of atomic types    =            3
     number of electrons       =       136.00
     number of Kohn-Sham states=          256
     kinetic-energy cutoff     =      30.0000  Ry
     charge density cutoff     =     240.0000  Ry
     scf convergence threshold =      1.0E-06
     mixing beta               =       0.7000
     number of iterations used =            8  plain     mixing
     Exchange-correlation= SLA  PW   PBX  PBC
                           (   1   4   3   4   0   0   0)

     celldm(1)=   9.320787  celldm(2)=   0.000000  celldm(3)=   0.000000
     celldm(4)=   0.000000  celldm(5)=   0.000000  celldm(6)=   0.000000

     crystal axes: (cart. coord. in units of alat)
               a(1) = (   1.000000   0.000000   0.000000 )
               a(2) = (   0.000000   1.000000   0.000000 )
               a(3) = (   0.000000   0.000000   2.013738 )

     reciprocal axes: (cart. coord. in units 2 pi/alat)
               b(1) = (  1.000000  0.000000  0.000000 )
               b(2) = (  0.000000  1.000000  0.000000 )
               b(3) = (  0.000000  0.000000  0.496589 )

     PseudoPot. # 1 for Mg read from file:
     /lustre07/scratch/pragov/crystal_structure_design/utils/SSSP/Mg.pbe-n-kjpaw_psl.0.3.0.UPF
     MD5 check sum: 24ecedc7f3e3cbe212e682f4413594e4
     Pseudo is Projector augmented-wave + core cor, Zval =  2.0
     Generated using "atomic" code by A. Dal Corso  v.5.0.99 svn rev. 10869
     Shape of augmentation charge: PSQ
     Using radial grid of 1129 points,  4 beta functions with:
                l(1) =   0
                l(2) =   0
                l(3) =   1
                l(4) =   1
     Q(r) pseudized with 0 coefficients

     PseudoPot. # 2 for Bi read from file:
     /lustre07/scratch/pragov/crystal_structure_design/utils/SSSP/Bi_pbe_v1.uspp.F.UPF
     MD5 check sum: cceb9f28ec65b6d7ff33140f5b0b1758
     Pseudo is Ultrasoft + core correction, Zval = 15.0
     Generated by new atomic code, or converted to UPF format
     Using radial grid of  899 points,  6 beta functions with:
                l(1) =   0
                l(2) =   0
                l(3) =   1
                l(4) =   1
                l(5) =   2
                l(6) =   2
     Q(r) pseudized with  6 coefficients,  rinner =    1.000   1.000   1.000
                                                       1.000   1.000

     PseudoPot. # 3 for O  read from file:
     /lustre07/scratch/pragov/crystal_structure_design/utils/SSSP/O.pbe-n-kjpaw_psl.0.1.UPF
     MD5 check sum: 0234752ac141de4415c5fc33072bef88
     Pseudo is Projector augmented-wave + core cor, Zval =  6.0
     Generated using "atomic" code by A. Dal Corso  v.5.0.99 svn rev. 10869
     Shape of augmentation charge: BESSEL
     Using radial grid of 1095 points,  4 beta functions with:
                l(1) =   0
                l(2) =   0
                l(3) =   1
                l(4) =   1
     Q(r) pseudized with 0 coefficients

     atomic species   valence    mass     pseudopotential
        Mg             2.00    24.30500     Mg( 1.00)
        Bi            15.00   208.98040     Bi( 1.00)
        O              6.00    15.99900     O ( 1.00)

     16 Sym. Ops., with inversion, found ( 8 have fractional translation)

                                    s                        frac. trans.

      isym =  1     identity

 cryst.   s( 1) = (     1          0          0      )
                  (     0          1          0      )
                  (     0          0          1      )

 cart.    s( 1) = (  1.0000000  0.0000000  0.0000000 )
                  (  0.0000000  1.0000000  0.0000000 )
                  (  0.0000000  0.0000000  1.0000000 )

      isym =  2     180 deg rotation - cart. axis [0,0,1]

[...]

 cryst.   s( 3) = (    -1          0          0      )    f =(  0.5000000 )
                  (     0          1          0      )       ( -0.5000000 )
                  (     0          0         -1      )       (  0.5000000 )

 cart.    s( 3) = ( -1.0000000  0.0000000  0.0000000 )    f =(  0.5000000 )
                  (  0.0000000  1.0000000  0.0000000 )       ( -0.5000000 )
                  (  0.0000000  0.0000000 -1.0000000 )       (  1.0068692 )

[...]

      isym =  8      90 deg rotation - cart. axis [0,0,1]

 cryst.   s( 8) = (     0          1          0      )    f =(  0.5000000 )
                  (    -1          0          0      )       ( -0.5000000 )
                  (     0          0          1      )       ( -0.5000000 )

 cart.    s( 8) = (  0.0000000 -1.0000000  0.0000000 )    f =(  0.5000000 )
                  (  1.0000000  0.0000000  0.0000000 )       ( -0.5000000 )
                  (  0.0000000  0.0000000  1.0000000 )       ( -1.0068692 )

      isym =  9     inversion

 cryst.   s( 9) = (    -1          0          0      )
                  (     0         -1          0      )
                  (     0          0         -1      )

 cart.    s( 9) = ( -1.0000000  0.0000000  0.0000000 )
                  (  0.0000000 -1.0000000  0.0000000 )
                  (  0.0000000  0.0000000 -1.0000000 )

      isym = 10     inv. 180 deg rotation - cart. axis [0,0,1]

 cryst.   s(10) = (     1          0          0      )
                  (     0          1          0      )
                  (     0          0         -1      )

 cart.    s(10) = (  1.0000000  0.0000000  0.0000000 )
                  (  0.0000000  1.0000000  0.0000000 )
                  (  0.0000000  0.0000000 -1.0000000 )

[...]

 cryst.   s(11) = (     1          0          0      )    f =( -0.5000000 )
                  (     0         -1          0      )       (  0.5000000 )
                  (     0          0          1      )       ( -0.5000000 )

 cart.    s(11) = (  1.0000000  0.0000000  0.0000000 )    f =( -0.5000000 )
                  (  0.0000000 -1.0000000  0.0000000 )       (  0.5000000 )
                  (  0.0000000  0.0000000  1.0000000 )       ( -1.0068692 )

[...]

 cryst.   s(14) = (     0          1          0      )
                  (     1          0          0      )
                  (     0          0          1      )

 cart.    s(14) = (  0.0000000  1.0000000  0.0000000 )
                  (  1.0000000  0.0000000  0.0000000 )
                  (  0.0000000  0.0000000  1.0000000 )

[...]

      isym = 16     inv.  90 deg rotation - cart. axis [0,0,1]

 cryst.   s(16) = (     0         -1          0      )    f =( -0.5000000 )
                  (     1          0          0      )       (  0.5000000 )
                  (     0          0         -1      )       (  0.5000000 )

 cart.    s(16) = (  0.0000000  1.0000000  0.0000000 )    f =( -0.5000000 )
                  ( -1.0000000  0.0000000  0.0000000 )       (  0.5000000 )
                  (  0.0000000  0.0000000 -1.0000000 )       (  1.0068692 )

   Cartesian axes

     site n.     atom                  positions (alat units)
         1           Mg  tau(   1) = (   0.0000000   0.0000000   0.0000000  )
         2           Mg  tau(   2) = (   0.5000000   0.5000000   1.0068692  )
         3           Bi  tau(   3) = (   0.5000000   0.5000000   1.6773556  )
         4           Bi  tau(   4) = (   0.0000000   0.0000000   0.6704863  )
         5           Bi  tau(   5) = (   0.5000000   0.5000000   0.3363829  )
         6           Bi  tau(   6) = (   0.0000000   0.0000000   1.3432522  )
         7           O   tau(   7) = (   0.6912140   0.6912140   1.3376137  )
         8           O   tau(   8) = (   0.3087860   0.3087860   1.3376137  )
         9           O   tau(   9) = (   0.6912140   0.6912140   0.6761248  )
        10           O   tau(  10) = (   0.1912140   0.8087860   0.3307445  )
        11           O   tau(  11) = (   0.8087860   0.1912140   0.3307445  )
        12           O   tau(  12) = (   0.8087860   0.1912140   1.6829940  )
        13           O   tau(  13) = (   0.3026470   0.3026470   0.0000000  )
        14           O   tau(  14) = (   0.1973530   0.8026470   1.0068692  )
        15           O   tau(  15) = (   0.8026470   0.1973530   1.0068692  )
        16           O   tau(  16) = (   0.6973530   0.6973530   0.0000000  )
        17           O   tau(  17) = (   0.3087860   0.3087860   0.6761248  )
        18           O   tau(  18) = (   0.1912140   0.8087860   1.6829940  )

   Crystallographic axes

     site n.     atom                  positions (cryst. coord.)
         1           Mg  tau(   1) = (  0.0000000  0.0000000  0.0000000  )
         2           Mg  tau(   2) = (  0.5000000  0.5000000  0.5000000  )
         3           Bi  tau(   3) = (  0.5000000  0.5000000  0.8329560  )
         4           Bi  tau(   4) = (  0.0000000  0.0000000  0.3329560  )
         5           Bi  tau(   5) = (  0.5000000  0.5000000  0.1670440  )
         6           Bi  tau(   6) = (  0.0000000  0.0000000  0.6670440  )
         7           O   tau(   7) = (  0.6912140  0.6912140  0.6642440  )
         8           O   tau(   8) = (  0.3087860  0.3087860  0.6642440  )
         9           O   tau(   9) = (  0.6912140  0.6912140  0.3357560  )
        10           O   tau(  10) = (  0.1912140  0.8087860  0.1642440  )
        11           O   tau(  11) = (  0.8087860  0.1912140  0.1642440  )
        12           O   tau(  12) = (  0.8087860  0.1912140  0.8357560  )
        13           O   tau(  13) = (  0.3026470  0.3026470  0.0000000  )
        14           O   tau(  14) = (  0.1973530  0.8026470  0.5000000  )
        15           O   tau(  15) = (  0.8026470  0.1973530  0.5000000  )
        16           O   tau(  16) = (  0.6973530  0.6973530  0.0000000  )
        17           O   tau(  17) = (  0.3087860  0.3087860  0.3357560  )
        18           O   tau(  18) = (  0.1912140  0.8087860  0.8357560  )

     number of k points=     6
                       cart. coord. in units 2pi/alat
        k(    1) = (   0.0000000   0.0000000   0.0000000), wk =   0.0740741
        k(    2) = (   0.0000000   0.0000000   0.1655296), wk =   0.1481481
        k(    3) = (   0.0000000   0.3333333   0.0000000), wk =   0.2962963
        k(    4) = (   0.0000000   0.3333333   0.1655296), wk =   0.5925926
        k(    5) = (   0.3333333   0.3333333   0.0000000), wk =   0.2962963
        k(    6) = (   0.3333333   0.3333333   0.1655296), wk =   0.5925926

                       cryst. coord.
        k(    1) = (   0.0000000   0.0000000   0.0000000), wk =   0.0740741
        k(    2) = (   0.0000000   0.0000000   0.3333333), wk =   0.1481481
        k(    3) = (   0.0000000   0.3333333   0.0000000), wk =   0.2962963
        k(    4) = (   0.0000000   0.3333333   0.3333333), wk =   0.5925926
        k(    5) = (   0.3333333   0.3333333   0.0000000), wk =   0.2962963
        k(    6) = (   0.3333333   0.3333333   0.3333333), wk =   0.5925926

     Check: negative core charge=   -0.000010

     Initial potential from superposition of free atoms

     starting charge     131.9980, renormalised to     136.0000

     negative rho (up, down):  1.778E-01 0.000E+00
     Starting wfcs are   92 randomized atomic wfcs +  164 random wfcs
     Checking if some PAW data can be deallocated...

     Self-consistent Calculation

     iteration #  1     ecut=    30.00 Ry     beta= 0.70
     Davidson diagonalization with overlap

     ethr =  1.00E-02,  avg # of iterations =  9.0

     negative rho (up, down):  1.700E-01 0.000E+00

     total energy              =   -1305.96580989 Ry
     estimated scf accuracy    <       3.33419441 Ry

[...]

     c_bands:  1 eigenvalues not converged
     ethr =  1.66E-06,  avg # of iterations = 10.7

[...]

     total energy              =   -1307.47415978 Ry
     estimated scf accuracy    <       0.00009067 Ry

     iteration #  7     ecut=    30.00 Ry     beta= 0.70
     Davidson diagonalization with overlap

     ethr =  6.67E-08,  avg # of iterations =  1.0

     negative rho (up, down):  1.809E-01 0.000E+00

     End of self-consistent calculation

          k = 0.0000 0.0000 0.0000 (  4565 PWs)   bands (ev):

   -15.3448 -15.2528 -15.2528 -15.2217 -15.0683 -15.0051 -15.0051 -14.9121
   -14.8743 -14.8451 -14.7840 -14.7770 -14.7730 -14.7631 -14.7631 -14.7516
   -14.7495 -14.7448 -14.7199 -14.7199 -11.5777 -10.9737 -10.6851  -9.6904
    -9.6904  -9.5875  -9.3228  -9.3228  -8.9411  -8.7907  -8.7907  -8.7271
    -3.4697  -2.6930  -0.6350  -0.3015   2.7883   3.2324   3.2395   3.2395
     3.3360   3.3360   3.4229   3.5521   4.0353   4.0353   4.5567   4.5699
     4.5699   4.5868   4.8073   5.1109   5.1109   5.1582   5.2217   5.2273
     5.6069   5.9030   5.9030   6.2426   6.2426   6.4365   6.4365   6.5084
     6.5475   6.5769   6.6277   6.6277   7.2369   8.6262   9.2753  10.2673
    12.5176  12.5176  13.8947  14.5189  14.5189  15.3855  15.5165  15.8064
    15.8795  15.8795  16.2356  16.2356  16.3443  17.4977  18.7446  18.8009
    18.8377  18.8608  18.9874  19.0659  19.0659  19.3580  19.4873  20.3541
    20.3923  20.4073  20.5026  21.1884  21.1884  21.4195  21.4195  22.9384
    22.9384  23.1705  23.3651  23.4287  24.5279  25.2490  25.5664  25.5759
    25.7501  25.7501  26.1683  26.1683  26.4593  26.4593  26.8441  26.8441
    27.2070  27.2070  27.3140  27.3985  27.4313  27.9632  28.5211  28.7432
    28.7564  29.1721  29.1721  29.3657  29.7428  29.8564  29.9661  30.8684
    30.8684  30.9603  30.9603  30.9785  31.7129  32.1364  32.1364  32.2663
    32.2663  32.6227  32.6745  32.6745  32.7152  33.1024  33.2908  33.9335
    33.9335  33.9909  33.9910  33.9914  34.0614  34.0828  34.4061  34.4072
    34.4072  34.4118  34.4118  34.5966  34.6389  34.6766  35.1211  35.1948
    35.3460  35.3460  35.4333  35.6446  36.0317  36.0317  36.1414  36.2794
    36.4460  36.6673  36.6673  36.8798  37.3335  37.8735  38.4213  38.4244
    38.4244  38.7397  38.7397  38.7962  38.9301  39.2209  39.2209  39.3060
    39.3230  39.5103  39.8096  39.8096  39.8578  40.1502  40.3096  40.3096
    40.6052  40.7584  40.7584  40.8668  41.6836  41.6836  42.1378  42.2749
    42.4197  42.4197  43.2173  43.4973  43.5503  43.5503  44.0586  44.0960
    44.0960  44.6166  44.9343  45.1267  45.3726  45.4627  45.4627  45.4651
    45.4651  46.0383  46.4670  46.4670  46.6657  46.8077  46.8077  46.9016
    47.3013  47.5362  47.7156  47.7370  47.7370  47.9107  48.4562  48.6404
    48.6404  48.6588  48.6588  49.0315  49.1103  49.1930  50.1321  50.1321
    50.3530  50.5044  50.5044  50.5150  51.3122  51.3465  51.3465  52.1653

     occupation numbers
     1.0000   1.0000   1.0000   1.0000   1.0000   1.0000   1.0000   1.0000
     1.0000   1.0000   1.0000   1.0000   1.0000   1.0000   1.0000   1.0000
     1.0000   1.0000   1.0000   1.0000   1.0000   1.0000   1.0000   1.0000
     1.0000   1.0000   1.0000   1.0000   1.0000   1.0000   1.0000   1.0000
     1.0000   1.0000   1.0000   1.0000   1.0000   1.0000   1.0000   1.0000
     1.0000   1.0000   1.0000   1.0000   1.0000   1.0000   1.0000   1.0000
     1.0000   1.0000   1.0000   1.0000   1.0000   1.0000   1.0000   1.0000
     1.0000   1.0000   1.0000   1.0000   1.0000   1.0000   1.0000   1.0000
     1.0000   1.0000   1.0000   1.0000   0.0000   0.0000   0.0000   0.0000
     0.0000   0.0000   0.0000   0.0000   0.0000   0.0000   0.0000   0.0000
     0.0000   0.0000   0.0000   0.0000   0.0000   0.0000   0.0000   0.0000
     0.0000   0.0000   0.0000   0.0000   0.0000   0.0000   0.0000   0.0000
     0.0000   0.0000   0.0000   0.0000   0.0000   0.0000   0.0000   0.0000
     0.0000   0.0000   0.0000   0.0000   0.0000   0.0000   0.0000   0.0000
     0.0000   0.0000   0.0000   0.0000   0.0000   0.0000   0.0000   0.0000
     0.0000   0.0000   0.0000   0.0000   0.0000   0.0000   0.0000   0.0000
     0.0000   0.0000   0.0000   0.0000   0.0000   0.0000   0.0000   0.0000
     0.0000   0.0000   0.0000   0.0000   0.0000   0.0000   0.0000   0.0000
     0.0000   0.0000   0.0000   0.0000   0.0000   0.0000   0.0000   0.0000
     0.0000   0.0000   0.0000   0.0000   0.0000   0.0000   0.0000   0.0000
     0.0000   0.0000   0.0000   0.0000   0.0000   0.0000   0.0000   0.0000
     0.0000   0.0000   0.0000   0.0000   0.0000   0.0000   0.0000   0.0000
     0.0000   0.0000   0.0000   0.0000   0.0000   0.0000   0.0000   0.0000
     0.0000   0.0000   0.0000   0.0000   0.0000   0.0000   0.0000   0.0000
     0.0000   0.0000   0.0000   0.0000   0.0000   0.0000   0.0000   0.0000
     0.0000   0.0000   0.0000   0.0000   0.0000   0.0000   0.0000   0.0000
     0.0000   0.0000   0.0000   0.0000   0.0000   0.0000   0.0000   0.0000
     0.0000   0.0000   0.0000   0.0000   0.0000   0.0000   0.0000   0.0000
     0.0000   0.0000   0.0000   0.0000   0.0000   0.0000   0.0000   0.0000
     0.0000   0.0000   0.0000   0.0000   0.0000   0.0000   0.0000   0.0000
     0.0000   0.0000   0.0000   0.0000   0.0000   0.0000   0.0000   0.0000
     0.0000   0.0000   0.0000   0.0000   0.0000   0.0000   0.0000   0.0000

[...]

          k = 0.3333 0.3333 0.1655 (  4533 PWs)   bands (ev):

   -15.3207 -15.2555 -15.2456 -15.2219 -15.0804 -15.0491 -15.0068 -14.9469
   -14.8646 -14.8559 -14.7731 -14.7689 -14.7650 -14.7642 -14.7609 -14.7562
   -14.7536 -14.7521 -14.7201 -14.7191 -10.9399 -10.7174 -10.3802  -9.9880
    -9.9087  -9.7235  -9.6638  -9.4230  -9.2332  -8.9271  -8.8163  -8.7051
    -2.4783  -2.1317  -1.4301  -1.0830   2.1576   2.5642   2.7404   2.7747
     3.1641   3.5136   3.5583   3.7938   3.8574   4.1882   4.3291   4.4831
     4.5796   5.0079   5.0947   5.1782   5.2099   5.6219   5.8703   5.8882
     5.9589   6.0779   6.1096   6.1703   6.2429   6.3042   6.4082   6.4717
     6.5005   6.5421   6.7029   6.7561   8.4949   8.8224   9.0631   9.2705
    13.2140  13.3666  13.8895  14.0570  14.5082  14.7667  15.1691  15.4003
    15.8518  15.8605  16.3223  17.0196  17.5444  18.2153  18.5417  18.7981
    19.0648  19.0951  19.1389  19.2746  19.3001  19.3938  19.5074  20.1506
    20.2485  20.3257  20.6072  20.9469  21.2332  21.3308  21.8639  21.9482
    22.0233  22.6509  23.0508  23.4290  23.6759  23.7495  24.1899  24.4914
    25.0478  25.1383  25.3114  25.3183  25.3803  25.8465  26.1329  26.2606
    26.7120  27.1135  27.2541  27.5332  27.7532  28.2261  28.4587  28.8754
    28.9582  29.2568  29.3708  29.5174  29.8558  30.2755  30.4126  30.5563
    30.7083  30.9091  31.0895  31.3402  31.5986  31.6978  31.8990  32.2137
    32.3367  32.5861  32.7775  32.8733  32.9146  33.1451  33.2975  33.3952
    33.4937  33.6721  33.8064  33.9498  34.0298  34.0383  34.0473  34.0603
    34.1335  34.3349  34.6289  34.9896  35.1413  35.5998  35.7443  36.0119
    36.0698  36.2904  36.3166  36.4120  36.7873  36.8821  37.1420  37.2040
    37.4435  37.4978  37.8343  37.9517  38.1231  38.1584  38.2319  38.6943
    38.8153  38.8709  39.0791  39.2178  39.3807  39.4847  39.8160  39.8465
    39.9980  40.2590  40.4225  40.5822  40.7507  41.1265  41.4008  41.4010
    41.4478  41.6546  41.7469  42.0530  42.0868  42.2095  42.4361  42.6627
    42.6657  42.9669  43.0502  43.0915  43.5618  43.8542  43.9135  44.0555
    44.1696  44.1889  44.6800  44.8656  44.9696  45.1207  45.3519  45.4801
    45.7324  45.7575  46.1024  46.1247  46.4859  46.5810  46.9072  47.0604
    47.2450  47.3598  47.4805  47.6488  47.8009  47.8226  47.8889  48.2345
    48.2676  48.6467  48.7847  48.9536  49.1276  49.1529  49.5081  49.7012
    49.7695  49.9697  50.0253  50.1157  50.5280  50.6426  50.8191  50.9178

     occupation numbers
     1.0000   1.0000   1.0000   1.0000   1.0000   1.0000   1.0000   1.0000
     1.0000   1.0000   1.0000   1.0000   1.0000   1.0000   1.0000   1.0000
     1.0000   1.0000   1.0000   1.0000   1.0000   1.0000   1.0000   1.0000
     1.0000   1.0000   1.0000   1.0000   1.0000   1.0000   1.0000   1.0000
     1.0000   1.0000   1.0000   1.0000   1.0000   1.0000   1.0000   1.0000
     1.0000   1.0000   1.0000   1.0000   1.0000   1.0000   1.0000   1.0000
     1.0000   1.0000   1.0000   1.0000   1.0000   1.0000   1.0000   1.0000
     1.0000   1.0000   1.0000   1.0000   1.0000   1.0000   1.0000   1.0000
     1.0000   1.0000   1.0000   1.0000   0.0000   0.0000   0.0000   0.0000
     0.0000   0.0000   0.0000   0.0000   0.0000   0.0000   0.0000   0.0000
     0.0000   0.0000   0.0000   0.0000   0.0000   0.0000   0.0000   0.0000
     0.0000   0.0000   0.0000   0.0000   0.0000   0.0000   0.0000   0.0000
     0.0000   0.0000   0.0000   0.0000   0.0000   0.0000   0.0000   0.0000
     0.0000   0.0000   0.0000   0.0000   0.0000   0.0000   0.0000   0.0000
     0.0000   0.0000   0.0000   0.0000   0.0000   0.0000   0.0000   0.0000
     0.0000   0.0000   0.0000   0.0000   0.0000   0.0000   0.0000   0.0000
     0.0000   0.0000   0.0000   0.0000   0.0000   0.0000   0.0000   0.0000
     0.0000   0.0000   0.0000   0.0000   0.0000   0.0000   0.0000   0.0000
     0.0000   0.0000   0.0000   0.0000   0.0000   0.0000   0.0000   0.0000
     0.0000   0.0000   0.0000   0.0000   0.0000   0.0000   0.0000   0.0000
     0.0000   0.0000   0.0000   0.0000   0.0000   0.0000   0.0000   0.0000
     0.0000   0.0000   0.0000   0.0000   0.0000   0.0000   0.0000   0.0000
     0.0000   0.0000   0.0000   0.0000   0.0000   0.0000   0.0000   0.0000
     0.0000   0.0000   0.0000   0.0000   0.0000   0.0000   0.0000   0.0000
     0.0000   0.0000   0.0000   0.0000   0.0000   0.0000   0.0000   0.0000
     0.0000   0.0000   0.0000   0.0000   0.0000   0.0000   0.0000   0.0000
     0.0000   0.0000   0.0000   0.0000   0.0000   0.0000   0.0000   0.0000
     0.0000   0.0000   0.0000   0.0000   0.0000   0.0000   0.0000   0.0000
     0.0000   0.0000   0.0000   0.0000   0.0000   0.0000   0.0000   0.0000
     0.0000   0.0000   0.0000   0.0000   0.0000   0.0000   0.0000   0.0000
     0.0000   0.0000   0.0000   0.0000   0.0000   0.0000   0.0000   0.0000
     0.0000   0.0000   0.0000   0.0000   0.0000   0.0000   0.0000   0.0000

     highest occupied, lowest unoccupied level (ev):     7.1516    7.2369

!    total energy              =   -1307.47417602 Ry
     estimated scf accuracy    <       0.00000084 Ry

     The total energy is the sum of the following terms:
     one-electron contribution =    -346.33463374 Ry
     hartree contribution      =     264.28412885 Ry
     xc contribution           =    -351.35750763 Ry
     ewald contribution        =    -697.14668392 Ry
     one-center paw contrib.   =    -176.91947959 Ry
      -> PAW hartree energy AE =       1.55570263 Ry
      -> PAW hartree energy PS =      -1.55349026 Ry
      -> PAW xc energy AE      =     -65.16129332 Ry
      -> PAW xc energy PS      =       2.60866018 Ry
      -> total E_H with PAW    =     264.28634123 Ry
      -> total E_XC with PAW   =    -413.91014078 Ry

     convergence has been achieved in   7 iterations

     Writing all to output data dir bands_nm/myprefix.save/

     General routines

     Parallel routines

     PAW routines

   This run was terminated on:  22:50:16  15Jul2023

   JOB DONE.