     Program PWSCF v.7.1 starts on 14Jul2023 at 21: 4:13

     Reading input from espresso_21949.pwi
Warning: card &CELL ignored
Warning: card / ignored

     Current dimensions of program PWSCF are:
     Max number of different atomic species (ntypx) = 10
     Max number of k-points (npk) =  40000
     Max angular momentum in pseudopotentials (lmaxx) =  4
     file Cd.pbe-dn-rrkjus_psl.0.3.1.UPF: wavefunction(s)  4D renormalized
     file O.pbe-n-kjpaw_psl.0.1.UPF: wavefunction(s)  2P renormalized
     Message from routine setup:
     using ibrav=0 with symmetry is DISCOURAGED, use correct ibrav instead

     K-points division:     npool     =       2
     R & G space division:  proc/nbgrp/npool/nimage =       4
     Subspace diagonalization in iterative solution of the eigenvalue problem:
     a serial algorithm will be used

     Using Slab Decomposition

     bravais-lattice index     =            0
     lattice parameter (alat)  =      12.9223  a.u.
     unit-cell volume          =    1932.5765 (a.u.)^3
     number of atoms/cell      =           14
     number of atomic types    =            3
     number of electrons       =       120.00
     number of Kohn-Sham states=           64
     kinetic-energy cutoff     =      30.0000  Ry
     charge density cutoff     =     240.0000  Ry
     scf convergence threshold =      1.0E-06
     mixing beta               =       0.7000
     number of iterations used =            8  plain     mixing
     Exchange-correlation= SLA  PW   PBX  PBC
                           (   1   4   3   4   0   0   0)

     celldm(1)=  12.922278  celldm(2)=   0.000000  celldm(3)=   0.000000
     celldm(4)=   0.000000  celldm(5)=   0.000000  celldm(6)=   0.000000

     crystal axes: (cart. coord. in units of alat)
               a(1) = (   1.000000   0.000000   0.000000 )
               a(2) = (   0.000000   0.968974   0.000000 )
               a(3) = (   0.000000   0.474540   0.924288 )

     reciprocal axes: (cart. coord. in units 2 pi/alat)
               b(1) = (  1.000000  0.000000  0.000000 )
               b(2) = (  0.000000  1.032020 -0.529851 )
               b(3) = (  0.000000  0.000000  1.081913 )

     PseudoPot. # 1 for Rb read from file:
     /lustre07/scratch/pragov/crystal_structure_design/utils/SSSP/Rb_ONCV_PBE-1.0.oncvpsp.upf
     MD5 check sum: 55a5172d6bfbce6759a58e35d43f6aa9
     Pseudo is Norm-conserving, Zval =  9.0
     Generated using ONCVPSP code by D. R. Hamann
     Using radial grid of 2308 points,  6 beta functions with:
                l(1) =   0
                l(2) =   0
                l(3) =   1
                l(4) =   1
                l(5) =   2
                l(6) =   2

     PseudoPot. # 2 for Cd read from file:
     /lustre07/scratch/pragov/crystal_structure_design/utils/SSSP/Cd.pbe-dn-rrkjus_psl.0.3.1.UPF
     MD5 check sum: 558e9f355611b531a870a69ef6ace9e2
     Pseudo is Ultrasoft + core correction, Zval = 12.0
     Generated using "atomic" code by A. Dal Corso  v.5.0.99 svn rev. 10869
     Using radial grid of 1239 points,  6 beta functions with:
                l(1) =   0
                l(2) =   0
                l(3) =   1
                l(4) =   1
                l(5) =   2
                l(6) =   2
     Q(r) pseudized with 0 coefficients

     PseudoPot. # 3 for O  read from file:
     /lustre07/scratch/pragov/crystal_structure_design/utils/SSSP/O.pbe-n-kjpaw_psl.0.1.UPF
     MD5 check sum: 0234752ac141de4415c5fc33072bef88
     Pseudo is Projector augmented-wave + core cor, Zval =  6.0
     Generated using "atomic" code by A. Dal Corso  v.5.0.99 svn rev. 10869
     Shape of augmentation charge: BESSEL
     Using radial grid of 1095 points,  4 beta functions with:
                l(1) =   0
                l(2) =   0
                l(3) =   1
                l(4) =   1
     Q(r) pseudized with 0 coefficients

     atomic species   valence    mass     pseudopotential
        Rb             9.00    85.46780     Rb( 1.00)
        Cd            12.00   112.41400     Cd( 1.00)
        O              6.00    15.99900     O ( 1.00)

      4 Sym. Ops., with inversion, found ( 2 have fractional translation)

                                    s                        frac. trans.

      isym =  1     identity

 cryst.   s( 1) = (     1          0          0      )
                  (     0          1          0      )
                  (     0          0          1      )

 cart.    s( 1) = (  1.0000000  0.0000000  0.0000000 )
                  (  0.0000000  1.0000000 -0.0000000 )
                  (  0.0000000  0.0000000  1.0000000 )

      isym =  2     180 deg rotation - cart. axis [1,0,0]

 cryst.   s( 2) = (     1          0          0      )    f =(  0.5000000 )
                  (     0         -1          0      )       (  0.0000000 )
                  (     0          0         -1      )       (  0.5000000 )

 cart.    s( 2) = (  1.0000000  0.0000000  0.0000000 )    f =(  0.5000000 )
                  (  0.0000000 -1.0000000  0.0000000 )       (  0.2372701 )
                  (  0.0000000  0.0000000 -1.0000000 )       (  0.4621442 )

      isym =  3     inversion

 cryst.   s( 3) = (    -1          0          0      )
                  (     0         -1          0      )
                  (     0          0         -1      )

 cart.    s( 3) = ( -1.0000000  0.0000000  0.0000000 )
                  (  0.0000000 -1.0000000  0.0000000 )
                  (  0.0000000  0.0000000 -1.0000000 )

      isym =  4     inv. 180 deg rotation - cart. axis [1,0,0]

 cryst.   s( 4) = (    -1          0          0      )    f =(  0.5000000 )
                  (     0          1          0      )       (  0.0000000 )
                  (     0          0          1      )       (  0.5000000 )

 cart.    s( 4) = ( -1.0000000  0.0000000  0.0000000 )    f =(  0.5000000 )
                  (  0.0000000  1.0000000 -0.0000000 )       (  0.2372701 )
                  (  0.0000000  0.0000000  1.0000000 )       (  0.4621442 )

   Cartesian axes

     site n.     atom                  positions (alat units)
         1           Rb  tau(   1) = (   0.6473020   0.2067331   0.0770625  )
         2           Rb  tau(   2) = (   0.3526980   1.2367807   0.8472259  )
         3           Rb  tau(   3) = (   0.1473020   0.9995106   0.3850817  )
         4           Rb  tau(   4) = (   0.8526980   0.4440032   0.5392068  )
         5           Cd  tau(   5) = (   0.8792300   0.6796659   0.0716065  )
         6           Cd  tau(   6) = (   0.1207700   0.7638479   0.8526820  )
         7           Cd  tau(   7) = (   0.3792300   0.5265778   0.3905377  )
         8           Cd  tau(   8) = (   0.6207700   0.9169360   0.5337507  )
         9           O   tau(   9) = (   0.6181010   0.7255868   0.2607168  )
        10           O   tau(  10) = (   0.3818990   0.7179270   0.6635716  )
        11           O   tau(  11) = (   0.1181010   0.4806569   0.2014274  )
        12           O   tau(  12) = (   0.8818990   0.9628569   0.7228610  )
        13           O   tau(  13) = (   0.0000000   0.0000000   0.0000000  )
        14           O   tau(  14) = (   0.5000000   0.2372701   0.4621442  )

   Crystallographic axes

     site n.     atom                  positions (cryst. coord.)
         1           Rb  tau(   1) = (  0.6473020  0.1725210  0.0833750  )
         2           Rb  tau(   2) = (  0.3526980  0.8274790  0.9166250  )
         3           Rb  tau(   3) = (  0.1473020  0.8274790  0.4166250  )
         4           Rb  tau(   4) = (  0.8526980  0.1725210  0.5833750  )
         5           Cd  tau(   5) = (  0.8792300  0.6634880  0.0774720  )
         6           Cd  tau(   6) = (  0.1207700  0.3365120  0.9225280  )
         7           Cd  tau(   7) = (  0.3792300  0.3365120  0.4225280  )
         8           Cd  tau(   8) = (  0.6207700  0.6634880  0.5774720  )
         9           O   tau(   9) = (  0.6181010  0.6106790  0.2820730  )
        10           O   tau(  10) = (  0.3818990  0.3893210  0.7179270  )
        11           O   tau(  11) = (  0.1181010  0.3893210  0.2179270  )
        12           O   tau(  12) = (  0.8818990  0.6106790  0.7820730  )
        13           O   tau(  13) = (  0.0000000  0.0000000  0.0000000  )
        14           O   tau(  14) = (  0.5000000  0.0000000  0.5000000  )

     number of k points=    10
                       cart. coord. in units 2pi/alat
        k(    1) = (   0.0000000   0.0000000   0.0000000), wk =   0.0740741
        k(    2) = (   0.0000000   0.0000000   0.3606378), wk =   0.1481481
        k(    3) = (   0.0000000   0.3440066  -0.1766169), wk =   0.1481481
        k(    4) = (   0.0000000   0.3440066   0.1840209), wk =   0.1481481
        k(    5) = (   0.0000000   0.3440066  -0.5372547), wk =   0.1481481
        k(    6) = (   0.3333333   0.0000000   0.0000000), wk =   0.1481481
        k(    7) = (   0.3333333   0.0000000   0.3606378), wk =   0.2962963
        k(    8) = (   0.3333333   0.3440066  -0.1766169), wk =   0.2962963
        k(    9) = (   0.3333333   0.3440066   0.1840209), wk =   0.2962963
        k(   10) = (   0.3333333   0.3440066  -0.5372547), wk =   0.2962963

                       cryst. coord.
        k(    1) = (   0.0000000   0.0000000   0.0000000), wk =   0.0740741
        k(    2) = (   0.0000000   0.0000000   0.3333333), wk =   0.1481481
        k(    3) = (   0.0000000   0.3333333   0.0000000), wk =   0.1481481
        k(    4) = (   0.0000000   0.3333333   0.3333333), wk =   0.1481481
        k(    5) = (   0.0000000   0.3333333  -0.3333333), wk =   0.1481481
        k(    6) = (   0.3333333   0.0000000   0.0000000), wk =   0.1481481
        k(    7) = (   0.3333333   0.0000000   0.3333333), wk =   0.2962963
        k(    8) = (   0.3333333   0.3333333   0.0000000), wk =   0.2962963
        k(    9) = (   0.3333333   0.3333333   0.3333333), wk =   0.2962963
        k(   10) = (   0.3333333   0.3333333  -0.3333333), wk =   0.2962963

     Check: negative core charge=   -0.000007

     Initial potential from superposition of free atoms

     starting charge     119.8814, renormalised to     120.0000
     Starting wfcs are   80 randomized atomic wfcs
     Checking if some PAW data can be deallocated...

     Self-consistent Calculation

     iteration #  1     ecut=    30.00 Ry     beta= 0.70
     Davidson diagonalization with overlap

     ethr =  1.00E-02,  avg # of iterations =  2.0

     total energy              =    -932.53675591 Ry
     estimated scf accuracy    <       3.47803154 Ry

[...]

     total energy              =    -934.41848183 Ry
     estimated scf accuracy    <       0.00001120 Ry

     iteration #  9     ecut=    30.00 Ry     beta= 0.70
     Davidson diagonalization with overlap

     ethr =  9.33E-09,  avg # of iterations =  2.0

     End of self-consistent calculation

          k = 0.0000 0.0000 0.0000 (  5377 PWs)   bands (ev):

   -19.9341 -19.8670 -19.8650 -19.8369 -10.4316 -10.2981 -10.2559 -10.2546
    -9.8142  -9.7320  -4.5152  -4.3498  -4.3047  -4.1488  -4.0360  -4.0237
    -3.9539  -3.9391  -3.9105  -3.8665  -3.7536  -3.7376  -1.1162  -1.1033
    -1.0955  -0.9784  -0.9560  -0.9040  -0.8227  -0.7599  -0.6916  -0.6897
    -0.6750  -0.6530  -0.6056  -0.5503  -0.4424  -0.4105  -0.3525  -0.3454
    -0.2827  -0.2006   2.2765   2.6186   2.6348   3.6504   3.9037   4.1347
     4.3851   4.6016   4.6966   5.0120   5.0800   5.1023   5.1877   5.3374
     5.5488   5.6730   5.7441   5.7619   6.3243  10.0491  10.1992  10.3266

     occupation numbers
     1.0000   1.0000   1.0000   1.0000   1.0000   1.0000   1.0000   1.0000
     1.0000   1.0000   1.0000   1.0000   1.0000   1.0000   1.0000   1.0000
     1.0000   1.0000   1.0000   1.0000   1.0000   1.0000   1.0000   1.0000
     1.0000   1.0000   1.0000   1.0000   1.0000   1.0000   1.0000   1.0000
     1.0000   1.0000   1.0000   1.0000   1.0000   1.0000   1.0000   1.0000
     1.0000   1.0000   1.0000   1.0000   1.0000   1.0000   1.0000   1.0000
     1.0000   1.0000   1.0000   1.0000   1.0000   1.0000   1.0000   1.0000
     1.0000   1.0000   1.0000   1.0000   0.0000   0.0000   0.0000   0.0000

[...]

          k = 0.3333 0.3440-0.5373 (  5359 PWs)   bands (ev):

   -19.9053 -19.8903 -19.8578 -19.8492 -10.4005 -10.3612 -10.2525 -10.2407
    -9.7816  -9.7638  -4.4634  -4.3787  -4.1529  -4.0972  -4.0747  -4.0250
    -3.9894  -3.9536  -3.9182  -3.8918  -3.8396  -3.7850  -1.0949  -1.0426
    -0.9717  -0.9557  -0.9152  -0.8955  -0.8019  -0.7738  -0.7052  -0.6786
    -0.6556  -0.6063  -0.5853  -0.5647  -0.5337  -0.4628  -0.4212  -0.3534
    -0.3245  -0.3055   2.3560   2.8403   3.1218   3.2577   4.0761   4.2140
     4.4134   4.4659   4.6986   4.8326   4.9307   5.0432   5.1097   5.3405
     5.3823   5.4833   5.5925   5.7039   8.6572   9.0391   9.5456  10.1265

     occupation numbers
     1.0000   1.0000   1.0000   1.0000   1.0000   1.0000   1.0000   1.0000
     1.0000   1.0000   1.0000   1.0000   1.0000   1.0000   1.0000   1.0000
     1.0000   1.0000   1.0000   1.0000   1.0000   1.0000   1.0000   1.0000
     1.0000   1.0000   1.0000   1.0000   1.0000   1.0000   1.0000   1.0000
     1.0000   1.0000   1.0000   1.0000   1.0000   1.0000   1.0000   1.0000
     1.0000   1.0000   1.0000   1.0000   1.0000   1.0000   1.0000   1.0000
     1.0000   1.0000   1.0000   1.0000   1.0000   1.0000   1.0000   1.0000
     1.0000   1.0000   1.0000   1.0000   0.0000   0.0000   0.0000   0.0000

     highest occupied, lowest unoccupied level (ev):     5.7619    6.3243

!    total energy              =    -934.41848370 Ry
     estimated scf accuracy    <       0.00000037 Ry

     The total energy is the sum of the following terms:
     one-electron contribution =    -309.01490087 Ry
     hartree contribution      =     239.93984731 Ry
     xc contribution           =    -246.21533137 Ry
     ewald contribution        =    -561.94701869 Ry
     one-center paw contrib.   =     -57.18108009 Ry
      -> PAW hartree energy AE =       0.00000000 Ry
      -> PAW hartree energy PS =       0.00000000 Ry
      -> PAW xc energy AE      =       0.00000000 Ry
      -> PAW xc energy PS      =       0.00000000 Ry
      -> total E_H with PAW    =     239.93984731 Ry
      -> total E_XC with PAW   =    -246.21533137 Ry

     convergence has been achieved in   9 iterations

     Writing all to output data dir bands_nm/myprefix.save/

     General routines

     Parallel routines

     PAW routines

   This run was terminated on:  21: 4:37  14Jul2023

   JOB DONE.