     Program PWSCF v.7.1 starts on 16Jul2023 at 21: 0:50

     Reading input from espresso_16148.pwi
Warning: card &CELL ignored
Warning: card / ignored

     Current dimensions of program PWSCF are:
     Max number of different atomic species (ntypx) = 10
     Max number of k-points (npk) =  40000
     Max angular momentum in pseudopotentials (lmaxx) =  4
     file In.pbe-dn-rrkjus_psl.0.2.2.UPF: wavefunction(s)  5S renormalized
     file O.pbe-n-kjpaw_psl.0.1.UPF: wavefunction(s)  2P renormalized
     Message from routine setup:
     using ibrav=0 with symmetry is DISCOURAGED, use correct ibrav instead

     K-points division:     npool     =       2
     R & G space division:  proc/nbgrp/npool/nimage =       4
     Subspace diagonalization in iterative solution of the eigenvalue problem:
     one sub-group per band group will be used

     Using Slab Decomposition

     bravais-lattice index     =            0
     lattice parameter (alat)  =      10.7912  a.u.
     unit-cell volume          =    1964.2710 (a.u.)^3
     number of atoms/cell      =           20
     number of atomic types    =            3
     number of electrons       =       184.00
     number of Kohn-Sham states=          256
     kinetic-energy cutoff     =      30.0000  Ry
     charge density cutoff     =     240.0000  Ry
     scf convergence threshold =      1.0E-06
     mixing beta               =       0.7000
     number of iterations used =            8  plain     mixing
     Exchange-correlation= SLA  PW   PBX  PBC
                           (   1   4   3   4   0   0   0)

     celldm(1)=  10.791209  celldm(2)=   0.000000  celldm(3)=   0.000000
     celldm(4)=   0.000000  celldm(5)=   0.000000  celldm(6)=   0.000000

     crystal axes: (cart. coord. in units of alat)
               a(1) = (   1.000000   0.000000   0.000000 )
               a(2) = (   0.000000   1.060303   0.000000 )
               a(3) = (   0.000000   0.000000   1.474216 )

     reciprocal axes: (cart. coord. in units 2 pi/alat)
               b(1) = (  1.000000  0.000000  0.000000 )
               b(2) = (  0.000000  0.943127  0.000000 )
               b(3) = (  0.000000  0.000000  0.678327 )

     PseudoPot. # 1 for In read from file:
     /lustre07/scratch/pragov/crystal_structure_design/utils/SSSP/In.pbe-dn-rrkjus_psl.0.2.2.UPF
     MD5 check sum: 25e7c42c3b55b68f4bf926be2e7201a4
     Pseudo is Ultrasoft + core correction, Zval = 13.0
     Generated using "atomic" code by A. Dal Corso  v.5.0.99 svn rev. 10869
     Using radial grid of 1241 points,  6 beta functions with:
                l(1) =   0
                l(2) =   0
                l(3) =   1
                l(4) =   1
                l(5) =   2
                l(6) =   2
     Q(r) pseudized with 0 coefficients

     PseudoPot. # 2 for Bi read from file:
     /lustre07/scratch/pragov/crystal_structure_design/utils/SSSP/Bi_pbe_v1.uspp.F.UPF
     MD5 check sum: cceb9f28ec65b6d7ff33140f5b0b1758
     Pseudo is Ultrasoft + core correction, Zval = 15.0
     Generated by new atomic code, or converted to UPF format
     Using radial grid of  899 points,  6 beta functions with:
                l(1) =   0
                l(2) =   0
                l(3) =   1
                l(4) =   1
                l(5) =   2
                l(6) =   2
     Q(r) pseudized with  6 coefficients,  rinner =    1.000   1.000   1.000
                                                       1.000   1.000

     PseudoPot. # 3 for O  read from file:
     /lustre07/scratch/pragov/crystal_structure_design/utils/SSSP/O.pbe-n-kjpaw_psl.0.1.UPF
     MD5 check sum: 0234752ac141de4415c5fc33072bef88
     Pseudo is Projector augmented-wave + core cor, Zval =  6.0
     Generated using "atomic" code by A. Dal Corso  v.5.0.99 svn rev. 10869
     Shape of augmentation charge: BESSEL
     Using radial grid of 1095 points,  4 beta functions with:
                l(1) =   0
                l(2) =   0
                l(3) =   1
                l(4) =   1
     Q(r) pseudized with 0 coefficients

     atomic species   valence    mass     pseudopotential
        In            13.00   114.81800     In( 1.00)
        Bi            15.00   208.98040     Bi( 1.00)
        O              6.00    15.99900     O ( 1.00)

      4 Sym. Ops. (no inversion) found ( 3 have fractional translation)

                                    s                        frac. trans.

      isym =  1     identity

 cryst.   s( 1) = (     1          0          0      )
                  (     0          1          0      )
                  (     0          0          1      )

 cart.    s( 1) = (  1.0000000  0.0000000  0.0000000 )
                  (  0.0000000  1.0000000  0.0000000 )
                  (  0.0000000  0.0000000  1.0000000 )

      isym =  2     180 deg rotation - cart. axis [0,0,1]

 cryst.   s( 2) = (    -1          0          0      )    f =(  0.0000000 )
                  (     0         -1          0      )       (  0.0000000 )
                  (     0          0          1      )       (  0.5000000 )

 cart.    s( 2) = ( -1.0000000  0.0000000  0.0000000 )    f =(  0.0000000 )
                  (  0.0000000 -1.0000000  0.0000000 )       (  0.0000000 )
                  (  0.0000000  0.0000000  1.0000000 )       (  0.7371080 )

      isym =  3     inv. 180 deg rotation - cart. axis [0,1,0]

[...]

      isym =  4     inv. 180 deg rotation - cart. axis [1,0,0]

 cryst.   s( 4) = (    -1          0          0      )    f =(  0.5000000 )
                  (     0          1          0      )       (  0.5000000 )
                  (     0          0          1      )       (  0.0000000 )

 cart.    s( 4) = ( -1.0000000  0.0000000  0.0000000 )    f =(  0.5000000 )
                  (  0.0000000  1.0000000  0.0000000 )       (  0.5301514 )
                  (  0.0000000  0.0000000  1.0000000 )       (  0.0000000 )

   Cartesian axes

     site n.     atom                  positions (alat units)
         1           In  tau(   1) = (   0.9995100   0.5307685   0.7595117  )
         2           In  tau(   2) = (   0.0004900   0.5295343   0.0224037  )
         3           In  tau(   3) = (   0.4995100   1.0596857   0.0224037  )
         4           In  tau(   4) = (   0.5004900   0.0006171   0.7595117  )
         5           Bi  tau(   5) = (   0.9983220   0.9954452   1.1690932  )
         6           Bi  tau(   6) = (   0.5016780   0.4652937   1.1690932  )
         7           Bi  tau(   7) = (   0.4983220   0.5950091   0.4319851  )
         8           Bi  tau(   8) = (   0.0016780   0.0648577   0.4319851  )
         9           O   tau(   9) = (   0.8022180   0.8407512   0.6411646  )
        10           O   tau(  10) = (   0.1162940   0.4762106   0.3797772  )
        11           O   tau(  11) = (   0.8837060   0.5840922   1.1168853  )
        12           O   tau(  12) = (   0.1591670   0.1716503   0.7797763  )
        13           O   tau(  13) = (   0.6591670   0.3585011   0.0426682  )
        14           O   tau(  14) = (   0.3408330   0.7018017   0.7797763  )
        15           O   tau(  15) = (   0.8408330   0.8886525   0.0426682  )
        16           O   tau(  16) = (   0.6162940   0.0539408   1.1168853  )
        17           O   tau(  17) = (   0.1977820   0.2195516   1.3782726  )
        18           O   tau(  18) = (   0.6977820   0.3105998   0.6411646  )
        19           O   tau(  19) = (   0.3837060   1.0063620   0.3797772  )
        20           O   tau(  20) = (   0.3022180   0.7497030   1.3782726  )

   Crystallographic axes

     site n.     atom                  positions (cryst. coord.)
         1           In  tau(   1) = (  0.9995100  0.5005820  0.5151970  )
         2           In  tau(   2) = (  0.0004900  0.4994180  0.0151970  )
         3           In  tau(   3) = (  0.4995100  0.9994180  0.0151970  )
         4           In  tau(   4) = (  0.5004900  0.0005820  0.5151970  )
         5           Bi  tau(   5) = (  0.9983220  0.9388310  0.7930270  )
         6           Bi  tau(   6) = (  0.5016780  0.4388310  0.7930270  )
         7           Bi  tau(   7) = (  0.4983220  0.5611690  0.2930270  )
         8           Bi  tau(   8) = (  0.0016780  0.0611690  0.2930270  )
         9           O   tau(   9) = (  0.8022180  0.7929350  0.4349190  )
        10           O   tau(  10) = (  0.1162940  0.4491270  0.2576130  )
        11           O   tau(  11) = (  0.8837060  0.5508730  0.7576130  )
        12           O   tau(  12) = (  0.1591670  0.1618880  0.5289430  )
        13           O   tau(  13) = (  0.6591670  0.3381120  0.0289430  )
        14           O   tau(  14) = (  0.3408330  0.6618880  0.5289430  )
        15           O   tau(  15) = (  0.8408330  0.8381120  0.0289430  )
        16           O   tau(  16) = (  0.6162940  0.0508730  0.7576130  )
        17           O   tau(  17) = (  0.1977820  0.2070650  0.9349190  )
        18           O   tau(  18) = (  0.6977820  0.2929350  0.4349190  )
        19           O   tau(  19) = (  0.3837060  0.9491270  0.2576130  )
        20           O   tau(  20) = (  0.3022180  0.7070650  0.9349190  )

     number of k points=     8
                       cart. coord. in units 2pi/alat
        k(    1) = (   0.0000000   0.0000000   0.0000000), wk =   0.0740741
        k(    2) = (   0.0000000   0.0000000   0.2261089), wk =   0.1481481
        k(    3) = (   0.0000000   0.3143756   0.0000000), wk =   0.1481481
        k(    4) = (   0.0000000   0.3143756   0.2261089), wk =   0.2962963
        k(    5) = (   0.3333333   0.0000000   0.0000000), wk =   0.1481481
        k(    6) = (   0.3333333   0.0000000   0.2261089), wk =   0.2962963
        k(    7) = (   0.3333333   0.3143756   0.0000000), wk =   0.2962963
        k(    8) = (   0.3333333   0.3143756   0.2261089), wk =   0.5925926

                       cryst. coord.
        k(    1) = (   0.0000000   0.0000000   0.0000000), wk =   0.0740741
        k(    2) = (   0.0000000   0.0000000   0.3333333), wk =   0.1481481
        k(    3) = (   0.0000000   0.3333333   0.0000000), wk =   0.1481481
        k(    4) = (   0.0000000   0.3333333   0.3333333), wk =   0.2962963
        k(    5) = (   0.3333333   0.0000000   0.0000000), wk =   0.1481481
        k(    6) = (   0.3333333   0.0000000   0.3333333), wk =   0.2962963
        k(    7) = (   0.3333333   0.3333333   0.0000000), wk =   0.2962963
        k(    8) = (   0.3333333   0.3333333   0.3333333), wk =   0.5925926

     Check: negative core charge=   -0.000009

     Initial potential from superposition of free atoms

     starting charge     179.9849, renormalised to     184.0000

     negative rho (up, down):  1.678E-01 0.000E+00
     Starting wfcs are  120 randomized atomic wfcs +  136 random wfcs
     Checking if some PAW data can be deallocated...

     Self-consistent Calculation

     iteration #  1     ecut=    30.00 Ry     beta= 0.70
     Davidson diagonalization with overlap

     ethr =  1.00E-02,  avg # of iterations =  7.8

     negative rho (up, down):  1.541E-01 0.000E+00

     total energy              =   -1817.71010038 Ry
     estimated scf accuracy    <       4.50734124 Ry

[...]

     total energy              =   -1819.91632065 Ry
     estimated scf accuracy    <       0.00000277 Ry

     iteration #  9     ecut=    30.00 Ry     beta= 0.70
     Davidson diagonalization with overlap

     ethr =  1.51E-09,  avg # of iterations =  1.0

     negative rho (up, down):  1.606E-01 0.000E+00

     End of self-consistent calculation

          k = 0.0000 0.0000 0.0000 (  5435 PWs)   bands (ev):

   -12.5335 -12.5254 -12.4930 -12.4638 -12.4474 -12.4356 -12.4342 -12.4191
   -12.4179 -12.4120 -12.4100 -12.4091 -12.4084 -12.3987 -12.3985 -12.3930
   -12.3552 -12.3456 -12.3451 -12.3411  -8.7000  -8.2971  -7.7630  -7.6399
    -7.5909  -7.5609  -7.4868  -7.4490  -7.1907  -7.1540  -7.1135  -6.9881
    -3.5264  -3.5177  -3.5133  -3.4112  -3.3662  -3.3383  -3.3321  -3.3304
    -3.3196  -3.3068  -3.2989  -3.2798  -3.2695  -3.2458  -3.2358  -3.2148
    -2.9483  -2.6082  -2.5832  -2.5811  -0.1756   0.0376   0.7008   1.3090
     3.1464   4.0792   4.6887   4.9061   4.9398   5.1853   5.3205   5.5024
     5.5491   5.7077   5.8467   6.5092   6.6498   6.7089   6.8598   6.9637
     7.2741   7.4410   7.5735   7.7081   7.7944   7.9639   7.9761   7.9821
     7.9843   8.0181   8.2298   8.3767   8.4998   8.5609   8.6371   8.7148
     8.7498   9.2318   9.2360   9.4131  12.3173  12.5646  13.3019  13.4159
    13.4659  14.5376  14.6775  14.8178  14.8846  15.0172  15.1547  15.2204
    15.6398  15.7815  16.0385  16.1021  16.9663  17.2940  17.3635  17.6199
    18.9600  19.0717  19.1877  19.4072  19.7999  19.8510  20.0931  20.1100
    20.2754  20.4054  20.5170  21.1315  21.5980  21.6508  21.7553  22.5578
    22.7728  22.9041  23.4311  23.4811  23.8408  23.8610  24.0579  24.5484
    24.6095  24.9281  25.2731  25.5231  25.6137  25.7005  26.5288  26.6230
    26.8436  26.8671  27.0175  27.2032  27.2267  27.2671  27.3980  27.9205
    28.1784  28.2647  28.2767  28.2906  28.3905  28.8476  28.9936  29.3046
    29.4630  29.6126  29.7670  29.8934  30.0860  30.2308  30.3382  30.4212
    30.7204  30.9786  31.0015  31.6427  31.7991  31.9191  32.0495  32.1866
    32.2243  32.4277  33.1215  33.1360  33.2267  33.2973  33.6599  33.6609
    33.6910  33.7859  34.0485  34.0630  34.1740  34.5281  34.5996  35.1129
    35.6432  35.9684  36.0116  36.0999  36.1372  36.3708  36.4548  36.4736
    36.4879  36.4978  36.5185  36.5723  36.5826  36.7821  36.8406  37.0554
    37.1958  37.4070  37.5891  37.7778  37.9708  38.0824  38.1345  38.3881
    38.4416  38.4441  38.6864  38.8581  39.2237  39.2641  39.3117  39.4038
    39.4802  39.5976  39.7933  39.8358  39.8405  40.0776  40.6060  40.6717
    40.9026  40.9681  40.9985  41.1939  41.2599  41.4918  41.7424  41.9121
    42.0921  42.1697  42.2283  42.5109  42.5327  42.8508  42.9324  43.0504
    43.2419  43.3793  43.4183  43.4394  43.6620  43.7381  43.9379  43.9574

     occupation numbers
     1.0000   1.0000   1.0000   1.0000   1.0000   1.0000   1.0000   1.0000
     1.0000   1.0000   1.0000   1.0000   1.0000   1.0000   1.0000   1.0000
     1.0000   1.0000   1.0000   1.0000   1.0000   1.0000   1.0000   1.0000
     1.0000   1.0000   1.0000   1.0000   1.0000   1.0000   1.0000   1.0000
     1.0000   1.0000   1.0000   1.0000   1.0000   1.0000   1.0000   1.0000
     1.0000   1.0000   1.0000   1.0000   1.0000   1.0000   1.0000   1.0000
     1.0000   1.0000   1.0000   1.0000   1.0000   1.0000   1.0000   1.0000
     1.0000   1.0000   1.0000   1.0000   1.0000   1.0000   1.0000   1.0000
     1.0000   1.0000   1.0000   1.0000   1.0000   1.0000   1.0000   1.0000
     1.0000   1.0000   1.0000   1.0000   1.0000   1.0000   1.0000   1.0000
     1.0000   1.0000   1.0000   1.0000   1.0000   1.0000   1.0000   1.0000
     1.0000   1.0000   1.0000   1.0000   0.0000   0.0000   0.0000   0.0000
     0.0000   0.0000   0.0000   0.0000   0.0000   0.0000   0.0000   0.0000
     0.0000   0.0000   0.0000   0.0000   0.0000   0.0000   0.0000   0.0000
     0.0000   0.0000   0.0000   0.0000   0.0000   0.0000   0.0000   0.0000
     0.0000   0.0000   0.0000   0.0000   0.0000   0.0000   0.0000   0.0000
     0.0000   0.0000   0.0000   0.0000   0.0000   0.0000   0.0000   0.0000
     0.0000   0.0000   0.0000   0.0000   0.0000   0.0000   0.0000   0.0000
     0.0000   0.0000   0.0000   0.0000   0.0000   0.0000   0.0000   0.0000
     0.0000   0.0000   0.0000   0.0000   0.0000   0.0000   0.0000   0.0000
     0.0000   0.0000   0.0000   0.0000   0.0000   0.0000   0.0000   0.0000
     0.0000   0.0000   0.0000   0.0000   0.0000   0.0000   0.0000   0.0000
     0.0000   0.0000   0.0000   0.0000   0.0000   0.0000   0.0000   0.0000
     0.0000   0.0000   0.0000   0.0000   0.0000   0.0000   0.0000   0.0000
     0.0000   0.0000   0.0000   0.0000   0.0000   0.0000   0.0000   0.0000
     0.0000   0.0000   0.0000   0.0000   0.0000   0.0000   0.0000   0.0000
     0.0000   0.0000   0.0000   0.0000   0.0000   0.0000   0.0000   0.0000
     0.0000   0.0000   0.0000   0.0000   0.0000   0.0000   0.0000   0.0000
     0.0000   0.0000   0.0000   0.0000   0.0000   0.0000   0.0000   0.0000
     0.0000   0.0000   0.0000   0.0000   0.0000   0.0000   0.0000   0.0000
     0.0000   0.0000   0.0000   0.0000   0.0000   0.0000   0.0000   0.0000
     0.0000   0.0000   0.0000   0.0000   0.0000   0.0000   0.0000   0.0000

[...]

          k = 0.3333 0.3144 0.2261 (  5450 PWs)   bands (ev):

   -12.5017 -12.4954 -12.4815 -12.4731 -12.4539 -12.4413 -12.4366 -12.4276
   -12.4211 -12.4183 -12.4134 -12.4114 -12.4053 -12.4047 -12.4009 -12.3984
   -12.3537 -12.3519 -12.3487 -12.3467  -8.2400  -8.0965  -7.8836  -7.8251
    -7.6735  -7.6119  -7.4501  -7.4003  -7.3380  -7.2725  -7.2101  -7.1697
    -3.4360  -3.4148  -3.3875  -3.3566  -3.3465  -3.3282  -3.3220  -3.3134
    -3.2942  -3.2885  -3.2793  -3.2732  -3.2534  -3.2452  -3.2234  -3.0975
    -3.0006  -2.8578  -2.8075  -2.7060   0.1483   0.2949   0.4073   0.5908
     3.8969   4.2963   4.3879   4.7884   5.3170   5.4864   5.6992   5.7366
     5.9173   6.0022   6.1567   6.2729   6.5898   6.7716   6.8554   6.9547
     7.1377   7.2861   7.4378   7.4690   7.6024   7.7403   7.8090   7.9614
     8.0541   8.1092   8.1552   8.2167   8.3039   8.4062   8.5041   8.5799
     9.0573   9.1812   9.3243   9.4127  12.5461  12.6239  13.1146  13.2219
    13.5547  13.8030  14.3103  14.5660  14.7244  14.8567  15.0174  15.1392
    15.3811  15.5980  15.6891  15.7441  18.0309  18.2622  18.3843  18.4817
    18.7458  18.9886  19.3166  19.4574  19.6575  19.7855  19.9585  20.0739
    20.4487  20.6532  20.7683  20.8424  21.2327  21.5666  21.6128  21.9597
    22.1389  22.5120  22.6412  22.7146  23.4068  23.5642  23.8946  24.2712
    24.5876  24.8003  25.1686  25.2254  25.4360  25.7241  25.8629  26.1485
    26.3013  26.7393  27.2542  27.3306  27.6753  27.8413  28.0608  28.2047
    28.3767  28.6533  28.7666  28.9925  29.3128  29.5197  29.6017  29.7772
    29.9596  30.1548  30.2715  30.5307  30.7016  30.7839  30.9092  31.1521
    31.3197  31.4665  31.5933  31.8259  31.9910  32.1451  32.2830  32.3536
    32.4933  32.6519  32.8344  32.9318  33.1852  33.2617  33.5569  33.6838
    33.9210  34.1377  34.2709  34.4223  34.6748  34.8788  35.0292  35.0873
    35.2190  35.3794  35.4604  35.6656  35.8761  36.0302  36.1302  36.1903
    36.4630  36.4677  36.4766  36.4823  36.5186  36.7141  36.7583  36.8429
    37.0154  37.0509  37.3073  37.4608  37.6520  37.8877  37.9315  38.0726
    38.1459  38.2228  38.4423  38.5254  38.6866  38.8484  39.0146  39.0721
    39.1773  39.4458  39.5210  39.6088  39.9141  40.0199  40.1554  40.3013
    40.4333  40.5409  40.6359  40.7059  40.9051  41.0721  41.2803  41.3860
    41.6463  41.6873  41.9157  41.9852  42.2582  42.3023  42.4560  42.6399
    42.7100  42.8114  43.0417  43.2456  43.3571  43.6255  43.7084  43.7857

     occupation numbers
     1.0000   1.0000   1.0000   1.0000   1.0000   1.0000   1.0000   1.0000
     1.0000   1.0000   1.0000   1.0000   1.0000   1.0000   1.0000   1.0000
     1.0000   1.0000   1.0000   1.0000   1.0000   1.0000   1.0000   1.0000
     1.0000   1.0000   1.0000   1.0000   1.0000   1.0000   1.0000   1.0000
     1.0000   1.0000   1.0000   1.0000   1.0000   1.0000   1.0000   1.0000
     1.0000   1.0000   1.0000   1.0000   1.0000   1.0000   1.0000   1.0000
     1.0000   1.0000   1.0000   1.0000   1.0000   1.0000   1.0000   1.0000
     1.0000   1.0000   1.0000   1.0000   1.0000   1.0000   1.0000   1.0000
     1.0000   1.0000   1.0000   1.0000   1.0000   1.0000   1.0000   1.0000
     1.0000   1.0000   1.0000   1.0000   1.0000   1.0000   1.0000   1.0000
     1.0000   1.0000   1.0000   1.0000   1.0000   1.0000   1.0000   1.0000
     1.0000   1.0000   1.0000   1.0000   0.0000   0.0000   0.0000   0.0000
     0.0000   0.0000   0.0000   0.0000   0.0000   0.0000   0.0000   0.0000
     0.0000   0.0000   0.0000   0.0000   0.0000   0.0000   0.0000   0.0000
     0.0000   0.0000   0.0000   0.0000   0.0000   0.0000   0.0000   0.0000
     0.0000   0.0000   0.0000   0.0000   0.0000   0.0000   0.0000   0.0000
     0.0000   0.0000   0.0000   0.0000   0.0000   0.0000   0.0000   0.0000
     0.0000   0.0000   0.0000   0.0000   0.0000   0.0000   0.0000   0.0000
     0.0000   0.0000   0.0000   0.0000   0.0000   0.0000   0.0000   0.0000
     0.0000   0.0000   0.0000   0.0000   0.0000   0.0000   0.0000   0.0000
     0.0000   0.0000   0.0000   0.0000   0.0000   0.0000   0.0000   0.0000
     0.0000   0.0000   0.0000   0.0000   0.0000   0.0000   0.0000   0.0000
     0.0000   0.0000   0.0000   0.0000   0.0000   0.0000   0.0000   0.0000
     0.0000   0.0000   0.0000   0.0000   0.0000   0.0000   0.0000   0.0000
     0.0000   0.0000   0.0000   0.0000   0.0000   0.0000   0.0000   0.0000
     0.0000   0.0000   0.0000   0.0000   0.0000   0.0000   0.0000   0.0000
     0.0000   0.0000   0.0000   0.0000   0.0000   0.0000   0.0000   0.0000
     0.0000   0.0000   0.0000   0.0000   0.0000   0.0000   0.0000   0.0000
     0.0000   0.0000   0.0000   0.0000   0.0000   0.0000   0.0000   0.0000
     0.0000   0.0000   0.0000   0.0000   0.0000   0.0000   0.0000   0.0000
     0.0000   0.0000   0.0000   0.0000   0.0000   0.0000   0.0000   0.0000
     0.0000   0.0000   0.0000   0.0000   0.0000   0.0000   0.0000   0.0000

     highest occupied, lowest unoccupied level (ev):     9.4717   12.2100

!    total energy              =   -1819.91632101 Ry
     estimated scf accuracy    <       0.00000048 Ry

     The total energy is the sum of the following terms:
     one-electron contribution =    -394.97990033 Ry
     hartree contribution      =     346.83426170 Ry
     xc contribution           =    -538.87207948 Ry
     ewald contribution        =   -1118.53787389 Ry
     one-center paw contrib.   =    -114.36072902 Ry
      -> PAW hartree energy AE =       0.00000000 Ry
      -> PAW hartree energy PS =       0.00000000 Ry
      -> PAW xc energy AE      =       0.00000000 Ry
      -> PAW xc energy PS      =       0.00000000 Ry
      -> total E_H with PAW    =     346.83426170 Ry
      -> total E_XC with PAW   =    -538.87207948 Ry

     convergence has been achieved in   9 iterations

     Writing all to output data dir bands_nm/myprefix.save/

     General routines

     Parallel routines

     PAW routines

   This run was terminated on:  21: 1:32  16Jul2023

   JOB DONE.