     Program PWSCF v.7.1 starts on 16Jul2023 at 13:27:54

     Reading input from espresso_3600.pwi
Warning: card &CELL ignored
Warning: card / ignored

     Current dimensions of program PWSCF are:
     Max number of different atomic species (ntypx) = 10
     Max number of k-points (npk) =  40000
     Max angular momentum in pseudopotentials (lmaxx) =  4
     file Mg.pbe-n-kjpaw_psl.0.3.0.UPF: wavefunction(s)  3S renormalized
     Message from routine setup:
     using ibrav=0 with symmetry is DISCOURAGED, use correct ibrav instead

     K-points division:     npool     =       2
     R & G space division:  proc/nbgrp/npool/nimage =       4
     Subspace diagonalization in iterative solution of the eigenvalue problem:
     a serial algorithm will be used

     Using Slab Decomposition

     bravais-lattice index     =            0
     lattice parameter (alat)  =      10.5243  a.u.
     unit-cell volume          =     788.7236 (a.u.)^3
     number of atoms/cell      =            8
     number of atomic types    =            3
     number of electrons       =        58.00
     number of Kohn-Sham states=           64
     kinetic-energy cutoff     =      30.0000  Ry
     charge density cutoff     =     240.0000  Ry
     scf convergence threshold =      1.0E-06
     mixing beta               =       0.7000
     number of iterations used =            8  plain     mixing
     Exchange-correlation=  SLA  PW   PBX  PBC
                           (   1   4   3   4   0   0   0)

     celldm(1)=  10.524346  celldm(2)=   0.000000  celldm(3)=   0.000000
     celldm(4)=   0.000000  celldm(5)=   0.000000  celldm(6)=   0.000000

     crystal axes: (cart. coord. in units of alat)
               a(1) = (   1.000000   0.000000   0.000000 )
               a(2) = (   0.528161   0.849144   0.000000 )
               a(3) = (   0.528161   0.293480   0.796816 )

     reciprocal axes: (cart. coord. in units 2 pi/alat)
               b(1) = (  1.000000 -0.621992 -0.433750 )
               b(2) = (  0.000000  1.177656 -0.433750 )
               b(3) = (  0.000000  0.000000  1.254995 )

     PseudoPot. # 1 for Mg read from file:
     /lustre07/scratch/pragov/crystal_structure_design/utils/SSSP/Mg.pbe-n-kjpaw_psl.0.3.0.UPF
     MD5 check sum: 24ecedc7f3e3cbe212e682f4413594e4
     Pseudo is Projector augmented-wave + core cor, Zval =  2.0
     Generated using "atomic" code by A. Dal Corso  v.5.0.99 svn rev. 10869
     Shape of augmentation charge: PSQ
     Using radial grid of 1129 points,  4 beta functions with:
                l(1) =   0
                l(2) =   0
                l(3) =   1
                l(4) =   1
     Q(r) pseudized with 0 coefficients

     PseudoPot. # 2 for Sn read from file:
     /lustre07/scratch/pragov/crystal_structure_design/utils/SSSP/Sn_pbe_v1.uspp.F.UPF
     MD5 check sum: 4cf58ce39ec5d5d420df3dd08604eb00
     Pseudo is Ultrasoft + core correction, Zval = 14.0
     Generated by new atomic code, or converted to UPF format
     Using radial grid of  891 points,  6 beta functions with:
                l(1) =   0
                l(2) =   0
                l(3) =   1
                l(4) =   1
                l(5) =   2
                l(6) =   2
     Q(r) pseudized with  6 coefficients,  rinner =    1.200   1.200   1.200
                                                       1.200   1.200

     PseudoPot. # 3 for F  read from file:
     /lustre07/scratch/pragov/crystal_structure_design/utils/SSSP/f_pbe_v1.4.uspp.F.UPF
     MD5 check sum: 4c38b6a325caf53ec0e86aed9459de46
     Pseudo is Ultrasoft, Zval =  7.0
     Generated by new atomic code, or converted to UPF format
     Using radial grid of  799 points,  4 beta functions with:
                l(1) =   0
                l(2) =   0
                l(3) =   1
                l(4) =   1
     Q(r) pseudized with  8 coefficients,  rinner =    0.950   0.950   0.950

     atomic species   valence    mass     pseudopotential
        Mg             2.00    24.30500     Mg( 1.00)
        Sn            14.00   118.71000     Sn( 1.00)
        F              7.00    18.99840     F ( 1.00)

      2 Sym. Ops., with inversion, found

                                    s                        frac. trans.

      isym =  1     identity

 cryst.   s( 1) = (     1          0          0      )
                  (     0          1          0      )
                  (     0          0          1      )

 cart.    s( 1) = (  1.0000000  0.0000000  0.0000000 )
                  (  0.0000000  1.0000000  0.0000000 )
                  (  0.0000000  0.0000000  1.0000000 )

      isym =  2     inversion

 cryst.   s( 2) = (    -1          0          0      )
                  (     0         -1          0      )
                  (     0          0         -1      )

 cart.    s( 2) = ( -1.0000000  0.0000000  0.0000000 )
                  (  0.0000000 -1.0000000  0.0000000 )
                  (  0.0000000  0.0000000 -1.0000000 )

   Cartesian axes

     site n.     atom                  positions (alat units)
         1           Mg  tau(   1) = (   1.0281609   0.5713122   0.3984079  )
         2           Sn  tau(   2) = (   0.0000000   0.0000000   0.0000000  )
         3           F   tau(   3) = (   1.2354915   0.7860661   0.1976868  )
         4           F   tau(   4) = (   1.3200218   0.4046062   0.5265502  )
         5           F   tau(   5) = (   1.0155688   0.3349804   0.1275152  )
         6           F   tau(   6) = (   0.7363000   0.7380181   0.2702656  )
         7           F   tau(   7) = (   0.8208304   0.3565582   0.5991290  )
         8           F   tau(   8) = (   1.0407531   0.8076440   0.6693006  )

   Crystallographic axes

     site n.     atom                  positions (cryst. coord.)
         1           Mg  tau(   1) = (  0.5000000  0.5000000  0.5000000  )
         2           Sn  tau(   2) = (  0.0000000  0.0000000  0.0000000  )
         3           F   tau(   3) = (  0.6608180  0.8399690  0.2480960  )
         4           F   tau(   4) = (  0.8399690  0.2480960  0.6608180  )
         5           F   tau(   5) = (  0.7519040  0.3391820  0.1600310  )
         6           F   tau(   6) = (  0.1600310  0.7519040  0.3391820  )
         7           F   tau(   7) = (  0.3391820  0.1600310  0.7519040  )
         8           F   tau(   8) = (  0.2480960  0.6608180  0.8399690  )

     number of k points=    14
                       cart. coord. in units 2pi/alat
        k(    1) = (   0.0000000   0.0000000   0.0000000), wk =   0.0740741
        k(    2) = (   0.0000000   0.0000000   0.4183317), wk =   0.1481481
        k(    3) = (   0.0000000   0.3925521  -0.1445832), wk =   0.1481481
        k(    4) = (   0.0000000   0.3925521   0.2737485), wk =   0.1481481
        k(    5) = (   0.0000000   0.3925521  -0.5629149), wk =   0.1481481
        k(    6) = (   0.3333333  -0.2073307  -0.1445832), wk =   0.1481481
        k(    7) = (   0.3333333  -0.2073307   0.2737485), wk =   0.1481481
        k(    8) = (   0.3333333  -0.2073307  -0.5629149), wk =   0.1481481
        k(    9) = (   0.3333333   0.1852214  -0.2891665), wk =   0.1481481
        k(   10) = (   0.3333333   0.1852214   0.1291653), wk =   0.1481481
        k(   11) = (   0.3333333   0.1852214  -0.7074982), wk =   0.1481481
        k(   12) = (   0.3333333  -0.5998828  -0.0000000), wk =   0.1481481
        k(   13) = (   0.3333333  -0.5998828   0.4183317), wk =   0.1481481
        k(   14) = (   0.3333333  -0.5998828  -0.4183317), wk =   0.1481481

                       cryst. coord.
        k(    1) = (   0.0000000   0.0000000   0.0000000), wk =   0.0740741
        k(    2) = (   0.0000000   0.0000000   0.3333333), wk =   0.1481481
        k(    3) = (   0.0000000   0.3333333   0.0000000), wk =   0.1481481
        k(    4) = (   0.0000000   0.3333333   0.3333333), wk =   0.1481481
        k(    5) = (   0.0000000   0.3333333  -0.3333333), wk =   0.1481481
        k(    6) = (   0.3333333   0.0000000   0.0000000), wk =   0.1481481
        k(    7) = (   0.3333333   0.0000000   0.3333333), wk =   0.1481481
        k(    8) = (   0.3333333   0.0000000  -0.3333333), wk =   0.1481481
        k(    9) = (   0.3333333   0.3333333   0.0000000), wk =   0.1481481
        k(   10) = (   0.3333333   0.3333333   0.3333333), wk =   0.1481481
        k(   11) = (   0.3333333   0.3333333  -0.3333333), wk =   0.1481481
        k(   12) = (   0.3333333  -0.3333333   0.0000000), wk =   0.1481481
        k(   13) = (   0.3333333  -0.3333333   0.3333333), wk =   0.1481481
        k(   14) = (   0.3333333  -0.3333333  -0.3333333), wk =   0.1481481

     Initial potential from superposition of free atoms

     starting charge      56.9990, renormalised to      58.0000
     Starting wfcs are   37 randomized atomic wfcs +   27 random wfcs
     Checking if some PAW data can be deallocated...

     Self-consistent Calculation

     iteration #  1     ecut=    30.00 Ry     beta= 0.70
     Davidson diagonalization with overlap

     ethr =  1.00E-02,  avg # of iterations =  6.6

     Threshold (ethr) on eigenvalues was too large:
     Diagonalizing with lowered threshold

     Davidson diagonalization with overlap

[...]

     total energy              =    -488.99724141 Ry
     estimated scf accuracy    <       0.54965405 Ry

[...]

     total energy              =    -489.21238741 Ry
     estimated scf accuracy    <       0.00000821 Ry

     iteration #  6     ecut=    30.00 Ry     beta= 0.70
     Davidson diagonalization with overlap

     ethr =  1.42E-08,  avg # of iterations =  2.0

     End of self-consistent calculation

          k = 0.0000 0.0000 0.0000 (  2181 PWs)   bands (ev):

   -20.9540 -20.9539 -20.8235 -20.1374 -20.1298 -20.1297 -18.5851 -18.5851
   -18.5785 -17.5294 -17.5294  -6.0454  -3.5193  -3.5192  -3.3580  -1.9076
    -1.8294  -1.8294  -1.3190  -1.3189  -0.9813  -0.7345  -0.7345  -0.6289
    -0.6006  -0.6005  -0.5910  -0.2166  -0.2165   4.6984  10.4550  11.0122
    11.3152  11.3152  12.8808  14.8040  15.0710  15.1231  15.1231  15.8606
    16.0484  16.0484  17.0173  17.0173  18.8956  19.9881  19.9881  20.5113
    21.8987  21.8987  21.9901  23.2816  24.2411  24.2411  25.1770  25.8289
    25.8289  25.8944  26.3021  26.3021  26.3834  27.6668  27.6668  28.0991

     occupation numbers
     1.0000   1.0000   1.0000   1.0000   1.0000   1.0000   1.0000   1.0000
     1.0000   1.0000   1.0000   1.0000   1.0000   1.0000   1.0000   1.0000
     1.0000   1.0000   1.0000   1.0000   1.0000   1.0000   1.0000   1.0000
     1.0000   1.0000   1.0000   1.0000   1.0000   0.0000   0.0000   0.0000
     0.0000   0.0000   0.0000   0.0000   0.0000   0.0000   0.0000   0.0000
     0.0000   0.0000   0.0000   0.0000   0.0000   0.0000   0.0000   0.0000
     0.0000   0.0000   0.0000   0.0000   0.0000   0.0000   0.0000   0.0000
     0.0000   0.0000   0.0000   0.0000   0.0000   0.0000   0.0000   0.0000

[...]

          k = 0.3333-0.5999-0.4183 (  2197 PWs)   bands (ev):

   -21.0441 -20.9755 -20.5622 -20.2392 -20.1716 -20.1002 -18.5848 -18.5844
   -18.5778 -17.6031 -17.5538  -5.5015  -3.6816  -3.1810  -3.0574  -2.1339
    -1.8215  -1.7491  -1.7036  -1.3306  -1.0819  -0.9990  -0.9587  -0.7990
    -0.7690  -0.5966  -0.5646  -0.5255  -0.3666   6.0999   9.8636  10.3827
    11.2855  12.4045  13.7044  13.8222  14.4352  15.0047  15.7200  16.0438
    16.4939  17.1566  18.0657  18.2873  18.6869  19.2584  19.5707  20.2702
    20.4693  20.5829  21.3901  21.5292  21.9844  23.3592  23.9556  24.4951
    24.9171  25.9858  26.8214  27.0109  27.3428  27.8939  28.1637  28.6353

     occupation numbers
     1.0000   1.0000   1.0000   1.0000   1.0000   1.0000   1.0000   1.0000
     1.0000   1.0000   1.0000   1.0000   1.0000   1.0000   1.0000   1.0000
     1.0000   1.0000   1.0000   1.0000   1.0000   1.0000   1.0000   1.0000
     1.0000   1.0000   1.0000   1.0000   1.0000   0.0000   0.0000   0.0000
     0.0000   0.0000   0.0000   0.0000   0.0000   0.0000   0.0000   0.0000
     0.0000   0.0000   0.0000   0.0000   0.0000   0.0000   0.0000   0.0000
     0.0000   0.0000   0.0000   0.0000   0.0000   0.0000   0.0000   0.0000
     0.0000   0.0000   0.0000   0.0000   0.0000   0.0000   0.0000   0.0000

     highest occupied, lowest unoccupied level (ev):    -0.2165    4.6984

!    total energy              =    -489.21238913 Ry
     estimated scf accuracy    <       0.00000022 Ry

     The total energy is the sum of the following terms:
     one-electron contribution =    -277.17941382 Ry
     hartree contribution      =     171.39061469 Ry
     xc contribution           =    -105.78054838 Ry
     ewald contribution        =    -246.37888443 Ry
     one-center paw contrib.   =     -31.26415719 Ry
      -> PAW hartree energy AE =       0.69479343 Ry
      -> PAW hartree energy PS =      -0.69400543 Ry
      -> PAW xc energy AE      =     -32.52527335 Ry
      -> PAW xc energy PS      =       1.26032815 Ry
      -> total E_H with PAW    =     171.39140269 Ry
      -> total E_XC with PAW   =    -137.04549357 Ry

     convergence has been achieved in   6 iterations

     Writing all to output data dir bands_nm/myprefix.save/

     General routines

     Parallel routines

     PAW routines

   This run was terminated on:  13:28: 4  16Jul2023

   JOB DONE.