     Program PWSCF v.7.1 starts on 14Jul2023 at  2:47:57

     Reading input from espresso_17660.pwi
Warning: card &CELL ignored
Warning: card / ignored

     Current dimensions of program PWSCF are:
     Max number of different atomic species (ntypx) = 10
     Max number of k-points (npk) =  40000
     Max angular momentum in pseudopotentials (lmaxx) =  4
     file Nd.paw.z_14.atompaw.wentzcovitch.v1.2.upf: wavefunction(s)  6S 0P 5D 0D 0F renormalized
     file O.pbe-n-kjpaw_psl.0.1.UPF: wavefunction(s)  2P renormalized
     Message from routine setup:
     using ibrav=0 with symmetry is DISCOURAGED, use correct ibrav instead

     K-points division:     npool     =       2
     R & G space division:  proc/nbgrp/npool/nimage =       4
     Subspace diagonalization in iterative solution of the eigenvalue problem:
     a serial algorithm will be used

     Using Slab Decomposition

     bravais-lattice index     =            0
     lattice parameter (alat)  =       7.8986  a.u.
     unit-cell volume          =     871.2361 (a.u.)^3
     number of atoms/cell      =            9
     number of atomic types    =            3
     number of electrons       =        70.00
     number of Kohn-Sham states=           64
     kinetic-energy cutoff     =      30.0000  Ry
     charge density cutoff     =     240.0000  Ry
     scf convergence threshold =      1.0E-06
     mixing beta               =       0.7000
     number of iterations used =            8  plain     mixing
     Exchange-correlation= SLA  PW   PBX  PBC
                           (   1   4   3   4   0   0   0)

     celldm(1)=   7.898615  celldm(2)=   0.000000  celldm(3)=   0.000000
     celldm(4)=   0.000000  celldm(5)=   0.000000  celldm(6)=   0.000000

     crystal axes: (cart. coord. in units of alat)
               a(1) = (   1.000000   0.000000   0.000000 )
               a(2) = (   0.000000   1.003125   0.000000 )
               a(3) = (  -0.500000  -0.501562   1.762496 )

     reciprocal axes: (cart. coord. in units 2 pi/alat)
               b(1) = (  1.000000  0.000000  0.283689 )
               b(2) = (  0.000000  0.996885  0.283689 )
               b(3) = (  0.000000  0.000000  0.567377 )

     PseudoPot. # 1 for Nd read from file:
     /lustre07/scratch/pragov/crystal_structure_design/utils/SSSP/Nd.paw.z_14.atompaw.wentzcovitch.v1.2.upf
     MD5 check sum: 8a77231a7dfbac907351543c5ef6bfc9
     Pseudo is Projector augmented-wave + core cor, Zval = 14.0
     Generated using ATOMPAW code
     Shape of augmentation charge: BESSEL
     Using radial grid of 1105 points,  8 beta functions with:
                l(1) =   0
                l(2) =   0
                l(3) =   1
                l(4) =   1
                l(5) =   2
                l(6) =   2
                l(7) =   3
                l(8) =   3
     Q(r) pseudized with 0 coefficients

     PseudoPot. # 2 for S  read from file:
     /lustre07/scratch/pragov/crystal_structure_design/utils/SSSP/s_pbe_v1.4.uspp.F.UPF
     MD5 check sum: 88d86576ff6df21479756cfb9bdac1df
     Pseudo is Ultrasoft + core correction, Zval =  6.0
     Generated by new atomic code, or converted to UPF format
     Using radial grid of  907 points,  6 beta functions with:
                l(1) =   0
                l(2) =   0
                l(3) =   1
                l(4) =   1
                l(5) =   2
                l(6) =   2
     Q(r) pseudized with  8 coefficients,  rinner =    1.300   1.300   1.300
                                                       1.300   1.300

     PseudoPot. # 3 for O  read from file:
     /lustre07/scratch/pragov/crystal_structure_design/utils/SSSP/O.pbe-n-kjpaw_psl.0.1.UPF
     MD5 check sum: 0234752ac141de4415c5fc33072bef88
     Pseudo is Projector augmented-wave + core cor, Zval =  6.0
     Generated using "atomic" code by A. Dal Corso  v.5.0.99 svn rev. 10869
     Shape of augmentation charge: BESSEL
     Using radial grid of 1095 points,  4 beta functions with:
                l(1) =   0
                l(2) =   0
                l(3) =   1
                l(4) =   1
     Q(r) pseudized with 0 coefficients

     atomic species   valence    mass     pseudopotential
        Nd            14.00   144.24200     Nd( 1.00)
        S              6.00    32.06000     S ( 1.00)
        O              6.00    15.99900     O ( 1.00)

      4 Sym. Ops. (no inversion) found

                                    s                        frac. trans.

      isym =  1     identity

 cryst.   s( 1) = (     1          0          0      )
                  (     0          1          0      )
                  (     0          0          1      )

 cart.    s( 1) = (  1.0000000  0.0000000 -0.0000000 )
                  (  0.0000000  1.0000000 -0.0000000 )
                  (  0.0000000  0.0000000  1.0000000 )

      isym =  2     180 deg rotation - cart. axis [0,0,1]

[...]

      isym =  4     180 deg rotation - cart. axis [1,0,0]

 cryst.   s( 4) = (     1          0          0      )
                  (     0         -1          0      )
                  (    -1          0         -1      )

 cart.    s( 4) = (  1.0000000  0.0000000 -0.0000001 )
                  (  0.0000000 -1.0000000  0.0000000 )
                  (  0.0000000  0.0000000 -1.0000000 )

   Cartesian axes

     site n.     atom                  positions (alat units)
         1           Nd  tau(   1) = (   0.4999996  -0.0000005   1.1508761  )
         2           Nd  tau(   2) = (   0.0000005   0.5015629   0.6116195  )
         3           S   tau(   3) = (   0.5000000   0.0000000   0.0000000  )
         4           O   tau(   4) = (  -0.2023794   0.2991163   1.5525982  )
         5           O   tau(   5) = (   0.2023796  -0.2991163   1.5525982  )
         6           O   tau(   6) = (   0.2976205   0.2024461   0.2098974  )
         7           O   tau(   7) = (   0.7023795   0.8006787   0.2098974  )
         8           O   tau(   8) = (   0.5000001   0.5015624   0.8813747  )
         9           O   tau(   9) = (   0.0000001   0.0000000   0.8811209  )

   Crystallographic axes

     site n.     atom                  positions (cryst. coord.)
         1           Nd  tau(   1) = (  0.8264900  0.3264900  0.6529810  )
         2           Nd  tau(   2) = (  0.1735100  0.6735100  0.3470190  )
         3           S   tau(   3) = (  0.5000000  0.0000000  0.0000000  )
         4           O   tau(   4) = (  0.2380750  0.7386390  0.8809090  )
         5           O   tau(   5) = (  0.6428340  0.1422700  0.8809090  )
         6           O   tau(   6) = (  0.3571660  0.2613610  0.1190910  )
         7           O   tau(   7) = (  0.7619250  0.8577300  0.1190910  )
         8           O   tau(   8) = (  0.7500360  0.7500360  0.5000720  )
         9           O   tau(   9) = (  0.2499640  0.2499640  0.4999280  )

     number of k points=     8
                       cart. coord. in units 2pi/alat
        k(    1) = (   0.0000000   0.0000000   0.0000000), wk =   0.0740741
        k(    2) = (   0.0000000   0.0000000   0.1891258), wk =   0.1481481
        k(    3) = (   0.0000000   0.3322950   0.0945629), wk =   0.2962963
        k(    4) = (   0.0000000   0.3322950   0.2836886), wk =   0.1481481
        k(    5) = (   0.3333333   0.0000000   0.0945629), wk =   0.2962963
        k(    6) = (   0.3333333   0.0000000   0.2836886), wk =   0.1481481
        k(    7) = (   0.3333333   0.3322950   0.1891257), wk =   0.5925926
        k(    8) = (   0.3333333   0.3322950  -0.0000000), wk =   0.2962963

                       cryst. coord.
        k(    1) = (   0.0000000   0.0000000   0.0000000), wk =   0.0740741
        k(    2) = (   0.0000000   0.0000000   0.3333333), wk =   0.1481481
        k(    3) = (   0.0000000   0.3333333   0.0000000), wk =   0.2962963
        k(    4) = (   0.0000000   0.3333333   0.3333333), wk =   0.1481481
        k(    5) = (   0.3333333   0.0000000  -0.0000000), wk =   0.2962963
        k(    6) = (   0.3333333   0.0000000   0.3333333), wk =   0.1481481
        k(    7) = (   0.3333333   0.3333333   0.0000000), wk =   0.5925926
        k(    8) = (   0.3333333   0.3333333  -0.3333333), wk =   0.2962963

     Check: negative core charge=   -0.000012

     Initial potential from superposition of free atoms

     starting charge      69.9876, renormalised to      70.0000
     Starting wfcs are   92 randomized atomic wfcs
     Checking if some PAW data can be deallocated...

     Self-consistent Calculation

     iteration #  1     ecut=    30.00 Ry     beta= 0.70
     Davidson diagonalization with overlap

     ethr =  1.00E-02,  avg # of iterations =  7.2

     total energy              =   -1347.59271362 Ry
     estimated scf accuracy    <       2.45997378 Ry

[...]

     total energy              =   -1349.01210345 Ry
     estimated scf accuracy    <       0.00000317 Ry

     iteration # 26     ecut=    30.00 Ry     beta= 0.70
     Davidson diagonalization with overlap

     ethr =  1.87E-09,  avg # of iterations =  2.0

     End of self-consistent calculation

          k = 0.0000 0.0000 0.0000 (  2401 PWs)   bands (ev):

   -27.3207 -27.2163 -15.8977 -11.8330 -11.5584 -11.5544 -10.2936  -8.6699
    -8.6698  -8.4497  -8.3304  -8.3223  -8.3196  -6.8254  -1.5153   1.1644
     1.1678   1.3394   3.5458   3.7637   4.0417   4.9498   4.9516   5.6379
     5.6380   5.6382   5.7186   6.0433   6.5139   6.5150   6.8852   6.8920
     9.7926   9.8896   9.8957   9.9390   9.9720   9.9783  10.0460  10.1064
    10.1183  10.1209  10.1312  10.1348  10.2982  10.3581  12.5999  12.7854
    13.5308  14.0364  14.4930  14.5048  14.7647  14.9083  16.2764  16.5070
    16.8655  16.8891  16.9407  18.2347  18.2475  18.8466  19.2555  21.4002

     occupation numbers
     1.0000   1.0000   1.0000   1.0000   1.0000   1.0000   1.0000   1.0000
     1.0000   1.0000   1.0000   1.0000   1.0000   1.0000   1.0000   1.0000
     1.0000   1.0000   1.0000   1.0000   1.0000   1.0000   1.0000   1.0000
     1.0000   1.0000   1.0000   1.0000   1.0000   1.0000   1.0000   1.0000
     1.0000   1.0000   1.0000   0.0000   0.0000   0.0000   0.0000   0.0000
     0.0000   0.0000   0.0000   0.0000   0.0000   0.0000   0.0000   0.0000
     0.0000   0.0000   0.0000   0.0000   0.0000   0.0000   0.0000   0.0000
     0.0000   0.0000   0.0000   0.0000   0.0000   0.0000   0.0000   0.0000

[...]

          k = 0.3333 0.3323-0.0000 (  2414 PWs)   bands (ev):

   -27.2597 -27.2333 -15.7780 -11.8164 -11.7189 -11.6882 -10.5628 -10.3911
    -8.6697  -8.5455  -8.4296  -8.4051  -6.4021  -6.1947  -1.3630   0.9201
     0.9746   0.9972   3.9302   4.0633   4.3220   4.5539   5.2322   5.2946
     5.6369   5.7848   5.9606   6.2123   6.7305   6.7582   6.8991   7.0136
     9.8274   9.8580   9.9085   9.9469   9.9847  10.0223  10.0655  10.1141
    10.1204  10.1815  10.2415  10.2579  10.2775  10.3327  13.0201  13.0551
    13.8609  14.2293  14.3488  14.6589  15.2258  15.4457  15.7110  16.1985
    16.6426  16.8490  17.3583  17.7602  17.9142  18.7857  19.1888  20.2359

     occupation numbers
     1.0000   1.0000   1.0000   1.0000   1.0000   1.0000   1.0000   1.0000
     1.0000   1.0000   1.0000   1.0000   1.0000   1.0000   1.0000   1.0000
     1.0000   1.0000   1.0000   1.0000   1.0000   1.0000   1.0000   1.0000
     1.0000   1.0000   1.0000   1.0000   1.0000   1.0000   1.0000   1.0000
     1.0000   1.0000   1.0000   0.0000   0.0000   0.0000   0.0000   0.0000
     0.0000   0.0000   0.0000   0.0000   0.0000   0.0000   0.0000   0.0000
     0.0000   0.0000   0.0000   0.0000   0.0000   0.0000   0.0000   0.0000
     0.0000   0.0000   0.0000   0.0000   0.0000   0.0000   0.0000   0.0000

     highest occupied, lowest unoccupied level (ev):     9.9123    9.9167

!    total energy              =   -1349.01210548 Ry
     estimated scf accuracy    <       0.00000045 Ry

     The total energy is the sum of the following terms:
     one-electron contribution =    -115.36971640 Ry
     hartree contribution      =     108.94340890 Ry
     xc contribution           =     -81.35725551 Ry
     ewald contribution        =    -344.23544579 Ry
     one-center paw contrib.   =    -916.99309668 Ry
      -> PAW hartree energy AE =     159.95620232 Ry
      -> PAW hartree energy PS =    -158.92011142 Ry
      -> PAW xc energy AE      =    -885.83069530 Ry
      -> PAW xc energy PS      =      24.93495533 Ry
      -> total E_H with PAW    =     109.97949980 Ry
      -> total E_XC with PAW   =    -942.25299548 Ry

     convergence has been achieved in  26 iterations

     Writing all to output data dir bands_nm/myprefix.save/

     General routines

     Parallel routines

     PAW routines

   This run was terminated on:   2:48:24  14Jul2023

   JOB DONE.