     Program PWSCF v.7.1 starts on 12Jul2023 at 16:11:25

     Reading input from espresso_22607.pwi
Warning: card &CELL ignored
Warning: card / ignored

     Current dimensions of program PWSCF are:
     Max number of different atomic species (ntypx) = 10
     Max number of k-points (npk) =  40000
     Max angular momentum in pseudopotentials (lmaxx) =  4

     K-points division:     npool     =       2
     R & G space division:  proc/nbgrp/npool/nimage =       8
     Subspace diagonalization in iterative solution of the eigenvalue problem:
     a serial algorithm will be used

     Using Slab Decomposition

     bravais-lattice index     =            0
     lattice parameter (alat)  =       7.7866  a.u.
     unit-cell volume          =     129.0258 (a.u.)^3
     number of atoms/cell      =            2
     number of atomic types    =            2
     number of electrons       =         8.00
     number of Kohn-Sham states=           64
     kinetic-energy cutoff     =      30.0000  Ry
     charge density cutoff     =     240.0000  Ry
     scf convergence threshold =      1.0E-06
     mixing beta               =       0.7000
     number of iterations used =            8  plain     mixing
     Exchange-correlation= PBE
                           (   1   4   3   4   0   0   0)

     celldm(1)=   7.786641  celldm(2)=   0.000000  celldm(3)=   0.000000
     celldm(4)=   0.000000  celldm(5)=   0.000000  celldm(6)=   0.000000

     crystal axes: (cart. coord. in units of alat)
               a(1) = (   1.000000   0.000000   0.000000 )
               a(2) = (   0.720975   0.542206   0.000000 )
               a(3) = (   0.279025  -0.199837   0.504036 )

     reciprocal axes: (cart. coord. in units 2 pi/alat)
               b(1) = (  1.000000 -1.329707 -1.080774 )
               b(2) = (  0.000000  1.844317  0.731222 )
               b(3) = (  0.000000  0.000000  1.983984 )

     PseudoPot. # 1 for B  read from file:
     /lustre07/scratch/pragov/crystal_structure_design/utils/SSSP/b_pbe_v1.4.uspp.F.UPF
     MD5 check sum: cc6de2960df11db49a60e589f9ebb39b
     Pseudo is Ultrasoft + core correction, Zval =  3.0
     Generated by new atomic code, or converted to UPF format
     Using radial grid of  781 points,  4 beta functions with:
                l(1) =   0
                l(2) =   0
                l(3) =   1
                l(4) =   1
     Q(r) pseudized with  8 coefficients,  rinner =    1.100   1.100   1.100

     PseudoPot. # 2 for N  read from file:
     /lustre07/scratch/pragov/crystal_structure_design/utils/SSSP/N.pbe-n-radius_5.UPF
     MD5 check sum: 16739722b17309cd8fe442a2ace49922
     Pseudo is Ultrasoft + core correction, Zval =  5.0
     Generated using "atomic" code by A. Dal Corso  v.5.1
     Using radial grid of 1085 points,  4 beta functions with:
                l(1) =   0
                l(2) =   0
                l(3) =   1
                l(4) =   1
     Q(r) pseudized with 0 coefficients

     atomic species   valence    mass     pseudopotential
        B              3.00    10.81000     B ( 1.00)
        N              5.00    14.00700     N ( 1.00)

     No symmetry found

                                    s                        frac. trans.

      isym =  1     identity

 cryst.   s( 1) = (     1          0          0      )
                  (     0          1          0      )
                  (     0          0          1      )

 cart.    s( 1) = (  1.0000000  0.0000000 -0.0000000 )
                  (  0.0000000  1.0000000  0.0000000 )
                  (  0.0000000  0.0000000  1.0000000 )

   Cartesian axes

     site n.     atom                  positions (alat units)
         1           B   tau(   1) = (   0.7210727   0.5420762   0.0000882  )
         2           N   tau(   2) = (   1.0929293   0.0476160   0.3359528  )

   Crystallographic axes

     site n.     atom                  positions (cryst. coord.)
         1           B   tau(   1) = (  0.0001750  0.9998250  0.0001750  )
         2           N   tau(   2) = (  0.6665250  0.3334750  0.6665250  )

     number of k points=    14
                       cart. coord. in units 2pi/alat
        k(    1) = (   0.0000000   0.0000000   0.0000000), wk =   0.0740741
        k(    2) = (   0.0000000   0.0000000   0.6613280), wk =   0.1481481
        k(    3) = (   0.0000000   0.6147725   0.2437406), wk =   0.1481481
        k(    4) = (   0.0000000   0.6147725   0.9050686), wk =   0.1481481
        k(    5) = (   0.0000000   0.6147725  -0.4175873), wk =   0.1481481
        k(    6) = (   0.3333333  -0.4432356  -0.3602579), wk =   0.1481481
        k(    7) = (   0.3333333  -0.4432356   0.3010700), wk =   0.1481481
        k(    8) = (   0.3333333  -0.4432356  -1.0215859), wk =   0.1481481
        k(    9) = (   0.3333333   0.1715369  -0.1165173), wk =   0.1481481
        k(   10) = (   0.3333333   0.1715369   0.5448107), wk =   0.1481481
        k(   11) = (   0.3333333   0.1715369  -0.7778453), wk =   0.1481481
        k(   12) = (   0.3333333  -1.0580081  -0.6039985), wk =   0.1481481
        k(   13) = (   0.3333333  -1.0580081   0.0573294), wk =   0.1481481
        k(   14) = (   0.3333333  -1.0580081  -1.2653265), wk =   0.1481481

                       cryst. coord.
        k(    1) = (   0.0000000   0.0000000   0.0000000), wk =   0.0740741
        k(    2) = (   0.0000000   0.0000000   0.3333333), wk =   0.1481481
        k(    3) = (   0.0000000   0.3333333   0.0000000), wk =   0.1481481
        k(    4) = (   0.0000000   0.3333333   0.3333333), wk =   0.1481481
        k(    5) = (   0.0000000   0.3333333  -0.3333333), wk =   0.1481481
        k(    6) = (   0.3333333   0.0000000  -0.0000000), wk =   0.1481481
        k(    7) = (   0.3333333   0.0000000   0.3333333), wk =   0.1481481
        k(    8) = (   0.3333333   0.0000000  -0.3333333), wk =   0.1481481
        k(    9) = (   0.3333333   0.3333333  -0.0000000), wk =   0.1481481
        k(   10) = (   0.3333333   0.3333333   0.3333333), wk =   0.1481481
        k(   11) = (   0.3333333   0.3333333  -0.3333333), wk =   0.1481481
        k(   12) = (   0.3333333  -0.3333333  -0.0000000), wk =   0.1481481
        k(   13) = (   0.3333333  -0.3333333   0.3333333), wk =   0.1481481
        k(   14) = (   0.3333333  -0.3333333  -0.3333333), wk =   0.1481481

     Check: negative core charge=   -0.000002

     Initial potential from superposition of free atoms

     starting charge       7.9997, renormalised to       8.0000
     Starting wfcs are    8 randomized atomic wfcs +   56 random wfcs

     Self-consistent Calculation

     iteration #  1     ecut=    30.00 Ry     beta= 0.70
     Davidson diagonalization with overlap

     ethr =  1.00E-02,  avg # of iterations =  6.2

     total energy              =     -26.62401394 Ry
     estimated scf accuracy    <       0.38245111 Ry

[...]

     total energy              =     -26.74844329 Ry
     estimated scf accuracy    <       0.00005602 Ry

     iteration #  5     ecut=    30.00 Ry     beta= 0.70
     Davidson diagonalization with overlap

     ethr =  7.00E-07,  avg # of iterations =  3.9

     End of self-consistent calculation

          k = 0.0000 0.0000 0.0000 (   345 PWs)   bands (ev):

   -13.5260  -0.1370   2.8924   2.9020   9.1079  15.6402  15.7798  17.1397
    18.4985  29.6658  30.9032  32.5411  34.3066  35.3790  37.5881  40.2699
    40.5976  41.1699  43.8105  46.9808  47.0130  51.0386  51.8492  51.9941
    54.7875  55.1203  55.4326  59.2819  61.3572  69.2028  71.4914  72.7430
    76.3733  77.2006  77.6415  83.7127  84.6357  87.3343  91.1401  91.3822
    95.7769  95.8477  96.1488  97.6347  98.0805  98.9888  99.3842 100.2522
   101.4633 101.5556 103.4795 104.0422 104.6996 104.8007 105.8301 106.9709
   107.7443 108.1540 111.0697 113.9371 114.0547 115.6224 115.9399 117.2540

     occupation numbers
     1.0000   1.0000   1.0000   1.0000   0.0000   0.0000   0.0000   0.0000
     0.0000   0.0000   0.0000   0.0000   0.0000   0.0000   0.0000   0.0000
     0.0000   0.0000   0.0000   0.0000   0.0000   0.0000   0.0000   0.0000
     0.0000   0.0000   0.0000   0.0000   0.0000   0.0000   0.0000   0.0000
     0.0000   0.0000   0.0000   0.0000   0.0000   0.0000   0.0000   0.0000
     0.0000   0.0000   0.0000   0.0000   0.0000   0.0000   0.0000   0.0000
     0.0000   0.0000   0.0000   0.0000   0.0000   0.0000   0.0000   0.0000
     0.0000   0.0000   0.0000   0.0000   0.0000   0.0000   0.0000   0.0000

[...]

          k = 0.3333-1.0580-1.2653 (   361 PWs)   bands (ev):

   -11.4676  -2.6299   0.6285   1.2848  10.9148  14.1947  16.9794  20.8857
    22.6183  24.6114  28.3029  28.9304  32.1784  34.5828  35.4354  36.6536
    42.6856  45.4193  45.8252  49.5130  50.3314  53.2302  55.9228  57.0163
    58.7831  59.9087  62.4052  67.1639  67.7344  68.3987  70.3697  71.5092
    74.2298  74.5543  74.9698  77.3802  79.4081  79.4928  81.2367  81.7227
    83.4882  87.0709  87.5534  89.9855  92.1322  94.0491  96.4755  97.3400
    98.9728 100.5432 101.1504 102.0612 104.6607 105.8459 109.3397 109.6949
   111.4692 111.5421 114.8646 115.2221 115.6350 116.1750 116.2982 117.7666

     occupation numbers
     1.0000   1.0000   1.0000   1.0000   0.0000   0.0000   0.0000   0.0000
     0.0000   0.0000   0.0000   0.0000   0.0000   0.0000   0.0000   0.0000
     0.0000   0.0000   0.0000   0.0000   0.0000   0.0000   0.0000   0.0000
     0.0000   0.0000   0.0000   0.0000   0.0000   0.0000   0.0000   0.0000
     0.0000   0.0000   0.0000   0.0000   0.0000   0.0000   0.0000   0.0000
     0.0000   0.0000   0.0000   0.0000   0.0000   0.0000   0.0000   0.0000
     0.0000   0.0000   0.0000   0.0000   0.0000   0.0000   0.0000   0.0000
     0.0000   0.0000   0.0000   0.0000   0.0000   0.0000   0.0000   0.0000

     highest occupied, lowest unoccupied level (ev):     4.2680    8.5517

!    total energy              =     -26.74844554 Ry
     estimated scf accuracy    <       0.00000010 Ry

     The total energy is the sum of the following terms:
     one-electron contribution =     -10.03924625 Ry
     hartree contribution      =       9.04123903 Ry
     xc contribution           =      -8.53154108 Ry
     ewald contribution        =     -17.21889724 Ry

     convergence has been achieved in   5 iterations

     Writing all to output data dir bands_nm/myprefix.save/

     General routines

     Parallel routines

   This run was terminated on:  16:11:29  12Jul2023

   JOB DONE.