     Program PWSCF v.7.1 starts on 14Jul2023 at 19: 9: 7

     Reading input from espresso_21570.pwi
Warning: card &CELL ignored
Warning: card / ignored

     Current dimensions of program PWSCF are:
     Max number of different atomic species (ntypx) = 10
     Max number of k-points (npk) =  40000
     Max angular momentum in pseudopotentials (lmaxx) =  4
     file O.pbe-n-kjpaw_psl.0.1.UPF: wavefunction(s)  2P renormalized

     K-points division:     npool     =       2
     R & G space division:  proc/nbgrp/npool/nimage =       4
     Subspace diagonalization in iterative solution of the eigenvalue problem:
     a serial algorithm will be used

     Using Slab Decomposition

     bravais-lattice index     =            0
     lattice parameter (alat)  =       5.9802  a.u.
     unit-cell volume          =     547.6347 (a.u.)^3
     number of atoms/cell      =           10
     number of atomic types    =            3
     number of electrons       =        64.00
     number of Kohn-Sham states=           64
     kinetic-energy cutoff     =      30.0000  Ry
     charge density cutoff     =     240.0000  Ry
     scf convergence threshold =      1.0E-06
     mixing beta               =       0.7000
     number of iterations used =            8  plain     mixing
     Exchange-correlation= SLA  PW   PBX  PBC
                           (   1   4   3   4   0   0   0)

     celldm(1)=   5.980241  celldm(2)=   0.000000  celldm(3)=   0.000000
     celldm(4)=   0.000000  celldm(5)=   0.000000  celldm(6)=   0.000000

     crystal axes: (cart. coord. in units of alat)
               a(1) = (   1.000000   0.000000   0.000000 )
               a(2) = (   0.499444   0.866346   0.000000 )
               a(3) = (  -0.025378  -0.014664   2.955586 )

     reciprocal axes: (cart. coord. in units 2 pi/alat)
               b(1) = (  1.000000 -0.576495  0.005726 )
               b(2) = (  0.000000  1.154273  0.005727 )
               b(3) = (  0.000000  0.000000  0.338342 )

     PseudoPot. # 1 for Ni read from file:
     /lustre07/scratch/pragov/crystal_structure_design/utils/SSSP/ni_pbe_v1.4.uspp.F.UPF
     MD5 check sum: 1ee80287db30b12d2bc1f57a5b5d6409
     Pseudo is Ultrasoft + core correction, Zval = 18.0
     Generated by new atomic code, or converted to UPF format
     Using radial grid of  865 points,  6 beta functions with:
                l(1) =   0
                l(2) =   0
                l(3) =   1
                l(4) =   1
                l(5) =   2
                l(6) =   2
     Q(r) pseudized with 10 coefficients,  rinner =    0.980   0.980   0.980
                                                       0.980   0.980

     PseudoPot. # 2 for H  read from file:
     /lustre07/scratch/pragov/crystal_structure_design/utils/SSSP/H.pbe-rrkjus_psl.1.0.0.UPF
     MD5 check sum: f52b6d4d1c606e5624b1dc7b2218f220
     Pseudo is Ultrasoft, Zval =  1.0
     Generated using "atomic" code by A. Dal Corso  v.5.1
     Using radial grid of  929 points,  2 beta functions with:
                l(1) =   0
                l(2) =   0
     Q(r) pseudized with 0 coefficients

     PseudoPot. # 3 for O  read from file:
     /lustre07/scratch/pragov/crystal_structure_design/utils/SSSP/O.pbe-n-kjpaw_psl.0.1.UPF
     MD5 check sum: 0234752ac141de4415c5fc33072bef88
     Pseudo is Projector augmented-wave + core cor, Zval =  6.0
     Generated using "atomic" code by A. Dal Corso  v.5.0.99 svn rev. 10869
     Shape of augmentation charge: BESSEL
     Using radial grid of 1095 points,  4 beta functions with:
                l(1) =   0
                l(2) =   0
                l(3) =   1
                l(4) =   1
     Q(r) pseudized with 0 coefficients

     atomic species   valence    mass     pseudopotential
        Ni            18.00    58.69340     Ni( 1.00)
        H              1.00     1.00800     H ( 1.00)
        O              6.00    15.99900     O ( 1.00)

     No symmetry found

                                    s                        frac. trans.

      isym =  1     identity

 cryst.   s( 1) = (     1          0          0      )
                  (     0          1          0      )
                  (     0          0          1      )

 cart.    s( 1) = (  1.0000000  0.0000000  0.0000000 )
                  (  0.0000000  1.0000000  0.0000000 )
                  (  0.0000000  0.0000000  1.0000000 )

   Cartesian axes

     site n.     atom                  positions (alat units)
         1           Ni  tau(   1) = (   0.5521143   0.7751864   0.0000000  )
         2           Ni  tau(   2) = (   0.5394368   0.7678361   1.4777929  )
         3           H   tau(   3) = (   0.5450666   0.1925780   0.8472866  )
         4           H   tau(   4) = (   0.5323796   0.1852632   2.3250854  )
         5           H   tau(   5) = (   1.0476699   0.4829863   0.6305003  )
         6           H   tau(   6) = (   1.0349954   0.4756463   2.1083021  )
         7           O   tau(   7) = (   0.5404618   0.1906118   1.1547001  )
         8           O   tau(   8) = (   0.5277660   0.1833029   2.6325255  )
         9           O   tau(   9) = (   1.0516718   0.4860052   0.3230603  )
        10           O   tau(  10) = (   1.0390010   0.4786565   1.8008857  )

   Crystallographic axes

     site n.     atom                  positions (cryst. coord.)
         1           Ni  tau(   1) = (  0.1052230  0.8947770  0.0000000  )
         2           Ni  tau(   2) = (  0.1052450  0.8947560  0.5000000  )
         3           H   tau(   3) = (  0.4388980  0.2271400  0.2866730  )
         4           H   tau(   4) = (  0.4388900  0.2271600  0.7866750  )
         5           H   tau(   5) = (  0.7728410  0.5611090  0.2133250  )
         6           H   tau(   6) = (  0.7728600  0.5611000  0.7133280  )
         7           O   tau(   7) = (  0.4371870  0.2266310  0.3906840  )
         8           O   tau(   8) = (  0.4371670  0.2266580  0.8906950  )
         9           O   tau(   9) = (  0.7733420  0.5628330  0.1093050  )
        10           O   tau(  10) = (  0.7733700  0.5628140  0.6093160  )

     number of k points=    14
                       cart. coord. in units 2pi/alat
        k(    1) = (   0.0000000   0.0000000   0.0000000), wk =   0.0740741
        k(    2) = (   0.0000000   0.0000000   0.1127808), wk =   0.1481481
        k(    3) = (   0.0000000   0.3847578   0.0019090), wk =   0.1481481
        k(    4) = (   0.0000000   0.3847578   0.1146898), wk =   0.1481481
        k(    5) = (   0.0000000   0.3847578  -0.1108718), wk =   0.1481481
        k(    6) = (   0.3333333  -0.1921651   0.0019087), wk =   0.1481481
        k(    7) = (   0.3333333  -0.1921651   0.1146895), wk =   0.1481481
        k(    8) = (   0.3333333  -0.1921651  -0.1108721), wk =   0.1481481
        k(    9) = (   0.3333333   0.1925927   0.0038177), wk =   0.1481481
        k(   10) = (   0.3333333   0.1925927   0.1165985), wk =   0.1481481
        k(   11) = (   0.3333333   0.1925927  -0.1089631), wk =   0.1481481
        k(   12) = (   0.3333333  -0.5769229  -0.0000003), wk =   0.1481481
        k(   13) = (   0.3333333  -0.5769229   0.1127805), wk =   0.1481481
        k(   14) = (   0.3333333  -0.5769229  -0.1127811), wk =   0.1481481

                       cryst. coord.
        k(    1) = (   0.0000000   0.0000000   0.0000000), wk =   0.0740741
        k(    2) = (   0.0000000   0.0000000   0.3333333), wk =   0.1481481
        k(    3) = (   0.0000000   0.3333333   0.0000000), wk =   0.1481481
        k(    4) = (   0.0000000   0.3333333   0.3333333), wk =   0.1481481
        k(    5) = (   0.0000000   0.3333333  -0.3333333), wk =   0.1481481
        k(    6) = (   0.3333333   0.0000000   0.0000000), wk =   0.1481481
        k(    7) = (   0.3333333   0.0000000   0.3333333), wk =   0.1481481
        k(    8) = (   0.3333333   0.0000000  -0.3333333), wk =   0.1481481
        k(    9) = (   0.3333333   0.3333333   0.0000000), wk =   0.1481481
        k(   10) = (   0.3333333   0.3333333   0.3333333), wk =   0.1481481
        k(   11) = (   0.3333333   0.3333333  -0.3333333), wk =   0.1481481
        k(   12) = (   0.3333333  -0.3333333   0.0000000), wk =   0.1481481
        k(   13) = (   0.3333333  -0.3333333   0.3333333), wk =   0.1481481
        k(   14) = (   0.3333333  -0.3333333  -0.3333333), wk =   0.1481481

     Check: negative core charge=   -0.000017

     Initial potential from superposition of free atoms

     starting charge      60.0000, renormalised to      64.0000
     Starting wfcs are   46 randomized atomic wfcs +   18 random wfcs
     Checking if some PAW data can be deallocated...

     Self-consistent Calculation

     iteration #  1     ecut=    30.00 Ry     beta= 0.70
     Davidson diagonalization with overlap

     ethr =  1.00E-02,  avg # of iterations =  6.0

     total energy              =    -797.83361893 Ry
     estimated scf accuracy    <      77.69621319 Ry

[...]

     total energy              =    -857.24589827 Ry
     estimated scf accuracy    <       0.00000250 Ry

     iteration # 28     ecut=    30.00 Ry     beta= 0.70
     Davidson diagonalization with overlap

     ethr =  3.91E-09,  avg # of iterations =  1.0

     End of self-consistent calculation

          k = 0.0000 0.0000 0.0000 (  1521 PWs)   bands (ev):

   -95.9218 -95.9172 -56.3360 -56.3216 -56.2284 -56.2210 -56.2210 -56.2074
   -14.0127 -13.4724 -13.4567 -12.8185  -2.4720  -1.3556  -0.3275   1.2249
     2.4575   2.4768   2.5335   2.5374   4.1404   4.1681   4.3231   4.3300
     6.0626   6.0679   6.1151   6.1189   6.1479   6.1791   7.9656   7.9665
     8.0118   8.0142   8.6633  10.6206  12.6422  13.0898  16.3503  16.6283
    18.0973  21.3793  21.4537  21.5842  21.6254  22.0476  22.0797  23.8024
    23.8656  24.6371  24.9935  25.1160  26.8743  26.8917  27.0448  27.3243
    27.4622  27.4701  27.5363  28.0339  28.7847  29.0370  31.2574  31.3394

     occupation numbers
     1.0000   1.0000   1.0000   1.0000   1.0000   1.0000   1.0000   1.0000
     1.0000   1.0000   1.0000   1.0000   1.0000   1.0000   1.0000   1.0000
     1.0000   1.0000   1.0000   1.0000   1.0000   1.0000   1.0000   1.0000
     1.0000   1.0000   1.0000   1.0000   1.0000   1.0000   1.0000   1.0000
     0.0000   0.0000   0.0000   0.0000   0.0000   0.0000   0.0000   0.0000
     0.0000   0.0000   0.0000   0.0000   0.0000   0.0000   0.0000   0.0000
     0.0000   0.0000   0.0000   0.0000   0.0000   0.0000   0.0000   0.0000
     0.0000   0.0000   0.0000   0.0000   0.0000   0.0000   0.0000   0.0000

[...]

          k = 0.3333-0.5769-0.1128 (  1518 PWs)   bands (ev):

   -95.9207 -95.9197 -56.3276 -56.3221 -56.2371 -56.2360 -56.2286 -56.2270
   -13.0704 -13.0678 -13.0566 -13.0514  -0.7778  -0.7659  -0.6173  -0.5930
     1.4757   1.6982   2.0766   2.0966   2.2836   2.3124   2.9408   3.2409
     6.1104   6.1701   6.4273   6.4330   6.4341   6.4402   7.3154   7.3303
     7.4592   7.4676  14.1758  14.2762  14.2784  14.3571  15.1257  15.2942
    16.3596  16.5105  18.9440  18.9703  19.5710  19.5951  20.2836  21.9025
    24.9418  25.0414  25.1728  25.2625  26.9953  27.0498  27.1263  27.9757
    28.1054  29.4086  32.3275  32.4906  33.1993  33.5041  33.6980  33.8785

     occupation numbers
     1.0000   1.0000   1.0000   1.0000   1.0000   1.0000   1.0000   1.0000
     1.0000   1.0000   1.0000   1.0000   1.0000   1.0000   1.0000   1.0000
     1.0000   1.0000   1.0000   1.0000   1.0000   1.0000   1.0000   1.0000
     1.0000   1.0000   1.0000   1.0000   1.0000   1.0000   1.0000   1.0000
     0.0000   0.0000   0.0000   0.0000   0.0000   0.0000   0.0000   0.0000
     0.0000   0.0000   0.0000   0.0000   0.0000   0.0000   0.0000   0.0000
     0.0000   0.0000   0.0000   0.0000   0.0000   0.0000   0.0000   0.0000
     0.0000   0.0000   0.0000   0.0000   0.0000   0.0000   0.0000   0.0000

     highest occupied, lowest unoccupied level (ev):     7.9957    7.4592

!    total energy              =    -857.24589778 Ry
     estimated scf accuracy    <       0.00000056 Ry

     The total energy is the sum of the following terms:
     one-electron contribution =    -673.03119663 Ry
     hartree contribution      =     363.96295937 Ry
     xc contribution           =    -103.41773389 Ry
     ewald contribution        =    -406.66132657 Ry
     one-center paw contrib.   =     -38.09860006 Ry
      -> PAW hartree energy AE =       0.00000000 Ry
      -> PAW hartree energy PS =       0.00000000 Ry
      -> PAW xc energy AE      =       0.00000000 Ry
      -> PAW xc energy PS      =       0.00000000 Ry
      -> total E_H with PAW    =     363.96295937 Ry
      -> total E_XC with PAW   =    -103.41773389 Ry

     convergence has been achieved in  28 iterations

     Writing all to output data dir bands_nm/myprefix.save/

     General routines

     Parallel routines

     PAW routines

   This run was terminated on:  19: 9:22  14Jul2023

   JOB DONE.