     Program PWSCF v.7.1 starts on 13Jul2023 at  3: 6:51

     Reading input from espresso_24887.pwi
Warning: card &CELL ignored
Warning: card / ignored

     Current dimensions of program PWSCF are:
     Max number of different atomic species (ntypx) = 10
     Max number of k-points (npk) =  40000
     Max angular momentum in pseudopotentials (lmaxx) =  4
     file K.pbe-spn-kjpaw_psl.1.0.0.UPF: wavefunction(s)  3S renormalized
     Message from routine setup:
     using ibrav=0 with symmetry is DISCOURAGED, use correct ibrav instead

     K-points division:     npool     =       2
     R & G space division:  proc/nbgrp/npool/nimage =       8
     Subspace diagonalization in iterative solution of the eigenvalue problem:
     a serial algorithm will be used

     Using Slab Decomposition

     bravais-lattice index     =            0
     lattice parameter (alat)  =      14.8469  a.u.
     unit-cell volume          =     888.9302 (a.u.)^3
     number of atoms/cell      =           12
     number of atomic types    =            4
     number of electrons       =        32.00
     number of Kohn-Sham states=           64
     kinetic-energy cutoff     =      30.0000  Ry
     charge density cutoff     =     240.0000  Ry
     scf convergence threshold =      1.0E-06
     mixing beta               =       0.7000
     number of iterations used =            8  plain     mixing
     Exchange-correlation= PBE
                           (   1   4   3   4   0   0   0)

     celldm(1)=  14.846919  celldm(2)=   0.000000  celldm(3)=   0.000000
     celldm(4)=   0.000000  celldm(5)=   0.000000  celldm(6)=   0.000000

     crystal axes: (cart. coord. in units of alat)
               a(1) = (   1.000000   0.000000   0.000000 )
               a(2) = (   0.833691   0.552231   0.000000 )
               a(3) = (   0.833691   0.251073   0.491856 )

     reciprocal axes: (cart. coord. in units 2 pi/alat)
               b(1) = (  1.000000 -1.509676 -0.924361 )
               b(2) = (  0.000000  1.810835 -0.924361 )
               b(3) = (  0.000000  0.000000  2.033117 )

     PseudoPot. # 1 for K  read from file:
     /lustre07/scratch/pragov/crystal_structure_design/utils/SSSP/K.pbe-spn-kjpaw_psl.1.0.0.UPF
     MD5 check sum: 7d58810084cac21f60fbe77ea2b688fd
     Pseudo is Projector augmented-wave + core cor, Zval =  9.0
     Generated using "atomic" code by A. Dal Corso  v.5.1
     Shape of augmentation charge: PSQ
     Using radial grid of 1165 points,  6 beta functions with:
                l(1) =   0
                l(2) =   0
                l(3) =   1
                l(4) =   1
                l(5) =   2
                l(6) =   2
     Q(r) pseudized with 0 coefficients

     PseudoPot. # 2 for Na read from file:
     /lustre07/scratch/pragov/crystal_structure_design/utils/SSSP/na_pbe_v1.5.uspp.F.UPF
     MD5 check sum: 44600605ef58000f06b90626533354dc
     Pseudo is Ultrasoft, Zval =  9.0
     Generated by new atomic code, or converted to UPF format
     Using radial grid of  819 points,  5 beta functions with:
                l(1) =   0
                l(2) =   0
                l(3) =   1
                l(4) =   1
                l(5) =   2
     Q(r) pseudized with  8 coefficients,  rinner =    1.250   1.250   1.250
                                                       1.250   1.250

     PseudoPot. # 3 for B  read from file:
     /lustre07/scratch/pragov/crystal_structure_design/utils/SSSP/b_pbe_v1.4.uspp.F.UPF
     MD5 check sum: cc6de2960df11db49a60e589f9ebb39b
     Pseudo is Ultrasoft + core correction, Zval =  3.0
     Generated by new atomic code, or converted to UPF format
     Using radial grid of  781 points,  4 beta functions with:
                l(1) =   0
                l(2) =   0
                l(3) =   1
                l(4) =   1
     Q(r) pseudized with  8 coefficients,  rinner =    1.100   1.100   1.100

     PseudoPot. # 4 for H  read from file:
     /lustre07/scratch/pragov/crystal_structure_design/utils/SSSP/H.pbe-rrkjus_psl.1.0.0.UPF
     MD5 check sum: f52b6d4d1c606e5624b1dc7b2218f220
     Pseudo is Ultrasoft, Zval =  1.0
     Generated using "atomic" code by A. Dal Corso  v.5.1
     Using radial grid of  929 points,  2 beta functions with:
                l(1) =   0
                l(2) =   0
     Q(r) pseudized with 0 coefficients

     atomic species   valence    mass     pseudopotential
        K              9.00    39.09830     K ( 1.00)
        Na             9.00    22.98977     Na( 1.00)
        B              3.00    10.81000     B ( 1.00)
        H              1.00     1.00800     H ( 1.00)

      2 Sym. Ops., with inversion, found

                                    s                        frac. trans.

      isym =  1     identity

 cryst.   s( 1) = (     1          0          0      )
                  (     0          1          0      )
                  (     0          0          1      )

 cart.    s( 1) = (  1.0000000 -0.0000000  0.0000000 )
                  (  0.0000000  1.0000000  0.0000000 )
                  (  0.0000000  0.0000000  1.0000000 )

      isym =  2     inversion

 cryst.   s( 2) = (    -1          0          0      )
                  (     0         -1          0      )
                  (     0          0         -1      )

 cart.    s( 2) = ( -1.0000000  0.0000000  0.0000000 )
                  (  0.0000000 -1.0000000 -0.0000000 )
                  (  0.0000000  0.0000000 -1.0000000 )

   Cartesian axes

     site n.     atom                  positions (alat units)
         1           K   tau(   1) = (   1.3336909   0.4016523   0.2459278  )
         2           Na  tau(   2) = (   0.0000000   0.0000000   0.0000000  )
         3           B   tau(   3) = (   0.6822842   0.2054757   0.1258107  )
         4           B   tau(   4) = (   1.9850975   0.5978289   0.3660448  )
         5           H   tau(   5) = (   2.1331505   0.6424163   0.3933452  )
         6           H   tau(   6) = (   0.9846718   0.4512112   0.3123337  )
         7           H   tau(   7) = (   1.6827099   0.3520933   0.1795218  )
         8           H   tau(   8) = (   1.5972969   0.4489206   0.4845859  )
         9           H   tau(   9) = (   1.0700848   0.3543839   0.0072696  )
        10           H   tau(  10) = (   0.5342312   0.1608882   0.0985103  )
        11           H   tau(  11) = (   1.0878219   0.1408189   0.2598768  )
        12           H   tau(  12) = (   1.5795599   0.6624856   0.2319787  )

   Crystallographic axes

     site n.     atom                  positions (cryst. coord.)
         1           K   tau(   1) = (  0.5000000  0.5000000  0.5000000  )
         2           Na  tau(   2) = (  0.0000000  0.0000000  0.0000000  )
         3           B   tau(   3) = (  0.2557880  0.2557880  0.2557880  )
         4           B   tau(   4) = (  0.7442120  0.7442120  0.7442120  )
         5           H   tau(   5) = (  0.7997170  0.7997170  0.7997170  )
         6           H   tau(   6) = (  0.0147800  0.5283600  0.6350110  )
         7           H   tau(   7) = (  0.9852200  0.4716400  0.3649890  )
         8           H   tau(   8) = (  0.4716400  0.3649890  0.9852200  )
         9           H   tau(   9) = (  0.5283600  0.6350110  0.0147800  )
        10           H   tau(  10) = (  0.2002830  0.2002830  0.2002830  )
        11           H   tau(  11) = (  0.6350110  0.0147800  0.5283600  )
        12           H   tau(  12) = (  0.3649890  0.9852200  0.4716400  )

     number of k points=    14
                       cart. coord. in units 2pi/alat
        k(    1) = (   0.0000000   0.0000000   0.0000000), wk =   0.0740741
        k(    2) = (   0.0000000   0.0000000   0.6777058), wk =   0.1481481
        k(    3) = (   0.0000000   0.6036116  -0.3081202), wk =   0.1481481
        k(    4) = (   0.0000000   0.6036116   0.3695856), wk =   0.1481481
        k(    5) = (   0.0000000   0.6036116  -0.9858260), wk =   0.1481481
        k(    6) = (   0.3333333  -0.5032255  -0.3081202), wk =   0.1481481
        k(    7) = (   0.3333333  -0.5032255   0.3695856), wk =   0.1481481
        k(    8) = (   0.3333333  -0.5032255  -0.9858260), wk =   0.1481481
        k(    9) = (   0.3333333   0.1003861  -0.6162404), wk =   0.1481481
        k(   10) = (   0.3333333   0.1003861   0.0614654), wk =   0.1481481
        k(   11) = (   0.3333333   0.1003861  -1.2939462), wk =   0.1481481
        k(   12) = (   0.3333333  -1.1068371   0.0000000), wk =   0.1481481
        k(   13) = (   0.3333333  -1.1068371   0.6777058), wk =   0.1481481
        k(   14) = (   0.3333333  -1.1068371  -0.6777058), wk =   0.1481481

                       cryst. coord.
        k(    1) = (   0.0000000   0.0000000   0.0000000), wk =   0.0740741
        k(    2) = (   0.0000000   0.0000000   0.3333333), wk =   0.1481481
        k(    3) = (   0.0000000   0.3333333   0.0000000), wk =   0.1481481
        k(    4) = (   0.0000000   0.3333333   0.3333333), wk =   0.1481481
        k(    5) = (   0.0000000   0.3333333  -0.3333333), wk =   0.1481481
        k(    6) = (   0.3333333   0.0000000   0.0000000), wk =   0.1481481
        k(    7) = (   0.3333333   0.0000000   0.3333333), wk =   0.1481481
        k(    8) = (   0.3333333   0.0000000  -0.3333333), wk =   0.1481481
        k(    9) = (   0.3333333   0.3333333   0.0000000), wk =   0.1481481
        k(   10) = (   0.3333333   0.3333333   0.3333333), wk =   0.1481481
        k(   11) = (   0.3333333   0.3333333  -0.3333333), wk =   0.1481481
        k(   12) = (   0.3333333  -0.3333333   0.0000000), wk =   0.1481481
        k(   13) = (   0.3333333  -0.3333333   0.3333333), wk =   0.1481481
        k(   14) = (   0.3333333  -0.3333333  -0.3333333), wk =   0.1481481

     Check: negative core charge=   -0.000002

     Initial potential from superposition of free atoms

     starting charge      31.9742, renormalised to      32.0000
     Starting wfcs are   29 randomized atomic wfcs +   35 random wfcs
     Checking if some PAW data can be deallocated...

     Self-consistent Calculation

     iteration #  1     ecut=    30.00 Ry     beta= 0.70
     Davidson diagonalization with overlap

     ethr =  1.00E-02,  avg # of iterations =  7.8

     total energy              =    -230.43466320 Ry
     estimated scf accuracy    <       1.24203968 Ry

[...]

     total energy              =    -230.76029050 Ry
     estimated scf accuracy    <       0.00001376 Ry

     iteration #  6     ecut=    30.00 Ry     beta= 0.70
     Davidson diagonalization with overlap

     ethr =  4.30E-08,  avg # of iterations =  1.1

     End of self-consistent calculation

          k = 0.0000 0.0000 0.0000 (  2467 PWs)   bands (ev):

   -50.4777 -28.3836 -22.3879 -22.3710 -22.3710 -11.9273 -11.8657 -11.8657
    -7.5341  -6.7838  -2.9352  -1.6136  -1.6136  -1.4451  -1.1940  -1.1940
     5.2418   5.9239   6.8041   6.9114   6.9114   8.0899   8.0899   8.2041
     8.8645   8.8645   9.7019  10.6677  10.6677  10.7103  12.3427  13.1177
    13.1177  13.6263  14.0779  14.0779  14.3795  14.3795  14.7429  17.0412
    17.0412  17.8275  19.0424  19.2267  19.4284  19.4284  20.8327  20.8327
    20.8784  22.0508  22.1246  22.1246  22.6223  22.6223  22.6801  24.6119
    24.6119  24.8562  24.8563  25.7596  25.9681  26.3045  26.3046  26.7279

     occupation numbers
     1.0000   1.0000   1.0000   1.0000   1.0000   1.0000   1.0000   1.0000
     1.0000   1.0000   1.0000   1.0000   1.0000   1.0000   1.0000   1.0000
     0.0000   0.0000   0.0000   0.0000   0.0000   0.0000   0.0000   0.0000
     0.0000   0.0000   0.0000   0.0000   0.0000   0.0000   0.0000   0.0000
     0.0000   0.0000   0.0000   0.0000   0.0000   0.0000   0.0000   0.0000
     0.0000   0.0000   0.0000   0.0000   0.0000   0.0000   0.0000   0.0000
     0.0000   0.0000   0.0000   0.0000   0.0000   0.0000   0.0000   0.0000
     0.0000   0.0000   0.0000   0.0000   0.0000   0.0000   0.0000   0.0000

[...]

          k = 0.3333-1.1068-0.6777 (  2490 PWs)   bands (ev):

   -50.4780 -28.3795 -22.3903 -22.3740 -22.3722 -11.9685 -11.8995 -11.8824
    -6.9910  -6.7806  -2.6571  -2.4627  -1.9515  -1.7522  -1.5621  -1.4165
     5.2811   6.0713   6.3843   7.3430   7.9395   8.5293   8.7922   9.1544
     9.4933   9.6296   9.8303  10.5453  10.7012  11.1225  11.2355  12.6218
    13.7151  13.7870  14.1913  14.4010  14.8751  15.1504  16.0325  16.1110
    16.5622  17.2355  17.7928  17.9843  18.2923  18.9027  19.8955  20.0913
    20.6048  21.7139  22.2419  22.3762  22.6189  23.0594  23.7597  24.1933
    24.3792  24.5993  24.6722  25.0711  25.4765  25.5428  26.1300  26.5300

     occupation numbers
     1.0000   1.0000   1.0000   1.0000   1.0000   1.0000   1.0000   1.0000
     1.0000   1.0000   1.0000   1.0000   1.0000   1.0000   1.0000   1.0000
     0.0000   0.0000   0.0000   0.0000   0.0000   0.0000   0.0000   0.0000
     0.0000   0.0000   0.0000   0.0000   0.0000   0.0000   0.0000   0.0000
     0.0000   0.0000   0.0000   0.0000   0.0000   0.0000   0.0000   0.0000
     0.0000   0.0000   0.0000   0.0000   0.0000   0.0000   0.0000   0.0000
     0.0000   0.0000   0.0000   0.0000   0.0000   0.0000   0.0000   0.0000
     0.0000   0.0000   0.0000   0.0000   0.0000   0.0000   0.0000   0.0000

     highest occupied, lowest unoccupied level (ev):    -1.1940    5.2418

!    total energy              =    -230.76029399 Ry
     estimated scf accuracy    <       0.00000076 Ry

     The total energy is the sum of the following terms:
     one-electron contribution =    -114.04045183 Ry
     hartree contribution      =      64.16465918 Ry
     xc contribution           =     -37.36082708 Ry
     ewald contribution        =     -88.10612081 Ry
     one-center paw contrib.   =     -55.41755345 Ry
      -> PAW hartree energy AE =      37.74241916 Ry
      -> PAW hartree energy PS =     -37.53205030 Ry
      -> PAW xc energy AE      =     -66.22439762 Ry
      -> PAW xc energy PS      =      10.59647530 Ry
      -> total E_H with PAW    =      64.37502805 Ry
      -> total E_XC with PAW   =     -92.98874940 Ry

     convergence has been achieved in   6 iterations

     Writing all to output data dir bands_nm/myprefix.save/

     General routines

     Parallel routines

     PAW routines

   This run was terminated on:   3: 7: 8  13Jul2023

   JOB DONE.