     Program PWSCF v.7.1 starts on 13Jul2023 at  3:29:41

     Reading input from espresso_7775.pwi
Warning: card &CELL ignored
Warning: card / ignored

     Current dimensions of program PWSCF are:
     Max number of different atomic species (ntypx) = 10
     Max number of k-points (npk) =  40000
     Max angular momentum in pseudopotentials (lmaxx) =  4
     Message from routine setup:
     using ibrav=0 with symmetry is DISCOURAGED, use correct ibrav instead

     K-points division:     npool     =       2
     R & G space division:  proc/nbgrp/npool/nimage =       8
     Subspace diagonalization in iterative solution of the eigenvalue problem:
     a serial algorithm will be used

     Using Slab Decomposition

     bravais-lattice index     =            0
     lattice parameter (alat)  =      11.6074  a.u.
     unit-cell volume          =    1368.5637 (a.u.)^3
     number of atoms/cell      =            8
     number of atomic types    =            2
     number of electrons       =        72.00
     number of Kohn-Sham states=           64
     kinetic-energy cutoff     =      30.0000  Ry
     charge density cutoff     =     240.0000  Ry
     scf convergence threshold =      1.0E-06
     mixing beta               =       0.7000
     number of iterations used =            8  plain     mixing
     Exchange-correlation=  SLA  PW   PBX  PBC
                           (   1   4   3   4   0   0   0)

     celldm(1)=  11.607401  celldm(2)=   0.000000  celldm(3)=   0.000000
     celldm(4)=   0.000000  celldm(5)=   0.000000  celldm(6)=   0.000000

     crystal axes: (cart. coord. in units of alat)
               a(1) = (   1.000000   0.000000   0.000000 )
               a(2) = (  -0.499698   0.866200   0.000000 )
               a(3) = (   0.161611   0.279806   1.010280 )

     reciprocal axes: (cart. coord. in units 2 pi/alat)
               b(1) = (  1.000000  0.576885 -0.319740 )
               b(2) = (  0.000000  1.154468 -0.319740 )
               b(3) = (  0.000000  0.000000  0.989824 )

     PseudoPot. # 1 for Ir read from file:
     /lustre07/scratch/pragov/crystal_structure_design/utils/SSSP/Ir_pbe_v1.2.uspp.F.UPF
     MD5 check sum: 8836f839c3459d2b385c504ce6d91f2c
     Pseudo is Ultrasoft + core correction, Zval = 15.0
     Generated by new atomic code, or converted to UPF format
     Using radial grid of  983 points,  7 beta functions with:
                l(1) =   0
                l(2) =   0
                l(3) =   1
                l(4) =   1
                l(5) =   1
                l(6) =   2
                l(7) =   2
     Q(r) pseudized with  8 coefficients,  rinner =    1.400   1.400   1.400
                                                       1.400   1.400

     PseudoPot. # 2 for Cl read from file:
     /lustre07/scratch/pragov/crystal_structure_design/utils/SSSP/cl_pbe_v1.4.uspp.F.UPF
     MD5 check sum: fc6f6913ecf08c9257cb748ef0700058
     Pseudo is Ultrasoft + core correction, Zval =  7.0
     Generated by new atomic code, or converted to UPF format
     Using radial grid of  909 points,  6 beta functions with:
                l(1) =   0
                l(2) =   0
                l(3) =   1
                l(4) =   1
                l(5) =   2
                l(6) =   2
     Q(r) pseudized with  8 coefficients,  rinner =    1.300   1.300   1.300
                                                       1.300   1.300

     atomic species   valence    mass     pseudopotential
        Ir            15.00   192.21700     Ir( 1.00)
        Cl             7.00    35.45000     Cl( 1.00)

      2 Sym. Ops., with inversion, found

                                    s                        frac. trans.

      isym =  1     identity

 cryst.   s( 1) = (     1          0          0      )
                  (     0          1          0      )
                  (     0          0          1      )

 cart.    s( 1) = (  1.0000000 -0.0000000  0.0000000 )
                  (  0.0000000  1.0000000  0.0000000 )
                  (  0.0000000  0.0000000  1.0000000 )

      isym =  2     inversion

 cryst.   s( 2) = (    -1          0          0      )
                  (     0         -1          0      )
                  (     0          0         -1      )

 cart.    s( 2) = ( -1.0000000  0.0000000  0.0000000 )
                  (  0.0000000 -1.0000000  0.0000000 )
                  (  0.0000000  0.0000000 -1.0000000 )

   Cartesian axes

     site n.     atom                  positions (alat units)
         1           Ir  tau(   1) = (  -0.2497309   0.7218235   0.0000000  )
         2           Ir  tau(   2) = (   0.7500334   0.1443765   0.0000000  )
         3           Cl  tau(   3) = (   0.4270141   0.1264271   0.2105616  )
         4           Cl  tau(   4) = (   0.7657805   0.7129511   0.7997186  )
         5           Cl  tau(   5) = (   0.2346165   0.4062039   0.7994438  )
         6           Cl  tau(   6) = (   0.4272973   0.7398022   0.2108364  )
         7           Cl  tau(   7) = (  -0.1038668   0.4330549   0.2105616  )
         8           Cl  tau(   8) = (   0.2348996   1.0195790   0.7997186  )

   Crystallographic axes

     site n.     atom                  positions (cryst. coord.)
         1           Ir  tau(   1) = (  0.1666780  0.8333220  0.0000000  )
         2           Ir  tau(   2) = (  0.8333220  0.1666780  0.0000000  )
         3           Cl  tau(   3) = (  0.4326230  0.0786310  0.2084190  )
         4           Cl  tau(   4) = (  0.9213690  0.5673770  0.7915810  )
         5           Cl  tau(   5) = (  0.2133350  0.2133350  0.7913090  )
         6           Cl  tau(   6) = (  0.7866650  0.7866650  0.2086910  )
         7           Cl  tau(   7) = (  0.0786310  0.4326230  0.2084190  )
         8           Cl  tau(   8) = (  0.5673770  0.9213690  0.7915810  )

     number of k points=    14
                       cart. coord. in units 2pi/alat
        k(    1) = (   0.0000000   0.0000000   0.0000000), wk =   0.0740741
        k(    2) = (   0.0000000   0.0000000   0.3299415), wk =   0.1481481
        k(    3) = (   0.0000000   0.3848226  -0.1065800), wk =   0.1481481
        k(    4) = (   0.0000000   0.3848226   0.2233614), wk =   0.1481481
        k(    5) = (   0.0000000   0.3848226  -0.4365215), wk =   0.1481481
        k(    6) = (   0.3333333   0.1922949  -0.1065800), wk =   0.1481481
        k(    7) = (   0.3333333   0.1922949   0.2233614), wk =   0.1481481
        k(    8) = (   0.3333333   0.1922949  -0.4365215), wk =   0.1481481
        k(    9) = (   0.3333333   0.5771175  -0.2131601), wk =   0.1481481
        k(   10) = (   0.3333333   0.5771175   0.1167814), wk =   0.1481481
        k(   11) = (   0.3333333   0.5771175  -0.5431016), wk =   0.1481481
        k(   12) = (   0.3333333  -0.1925277  -0.0000000), wk =   0.1481481
        k(   13) = (   0.3333333  -0.1925277   0.3299415), wk =   0.1481481
        k(   14) = (   0.3333333  -0.1925277  -0.3299415), wk =   0.1481481

                       cryst. coord.
        k(    1) = (   0.0000000   0.0000000   0.0000000), wk =   0.0740741
        k(    2) = (   0.0000000   0.0000000   0.3333333), wk =   0.1481481
        k(    3) = (   0.0000000   0.3333333   0.0000000), wk =   0.1481481
        k(    4) = (   0.0000000   0.3333333   0.3333333), wk =   0.1481481
        k(    5) = (   0.0000000   0.3333333  -0.3333333), wk =   0.1481481
        k(    6) = (   0.3333333  -0.0000000  -0.0000000), wk =   0.1481481
        k(    7) = (   0.3333333  -0.0000000   0.3333333), wk =   0.1481481
        k(    8) = (   0.3333333  -0.0000000  -0.3333333), wk =   0.1481481
        k(    9) = (   0.3333333   0.3333333   0.0000000), wk =   0.1481481
        k(   10) = (   0.3333333   0.3333333   0.3333333), wk =   0.1481481
        k(   11) = (   0.3333333   0.3333333  -0.3333333), wk =   0.1481481
        k(   12) = (   0.3333333  -0.3333333  -0.0000000), wk =   0.1481481
        k(   13) = (   0.3333333  -0.3333333   0.3333333), wk =   0.1481481
        k(   14) = (   0.3333333  -0.3333333  -0.3333333), wk =   0.1481481

     Check: negative core charge=   -0.000001

     Initial potential from superposition of free atoms

     starting charge      70.9999, renormalised to      72.0000

     negative rho (up, down):  8.333E-01 0.000E+00
     Starting wfcs are   48 randomized atomic wfcs +   16 random wfcs

     Self-consistent Calculation

     iteration #  1     ecut=    30.00 Ry     beta= 0.70
     Davidson diagonalization with overlap

     ethr =  1.00E-02,  avg # of iterations =  7.4

     negative rho (up, down):  7.060E-01 0.000E+00

     total energy              =    -562.21466189 Ry
     estimated scf accuracy    <       2.40526355 Ry

[...]

     c_bands:  2 eigenvalues not converged
     ethr =  6.80E-06,  avg # of iterations = 14.2

[...]

     total energy              =    -563.58390168 Ry
     estimated scf accuracy    <       0.00000596 Ry

     iteration #  8     ecut=    30.00 Ry     beta= 0.70
     Davidson diagonalization with overlap

     ethr =  8.28E-09,  avg # of iterations =  3.9

     negative rho (up, down):  7.385E-01 0.000E+00

     End of self-consistent calculation

          k = 0.0000 0.0000 0.0000 (  3803 PWs)   bands (ev):

   -44.0063 -44.0055 -43.9894 -43.9886 -43.9350 -43.9308 -11.6208 -10.5483
   -10.5462 -10.5456 -10.5449 -10.4866  -1.6981  -1.2534  -0.8386  -0.8204
    -0.6184  -0.5715  -0.3393  -0.3267   0.4440   0.5546   0.5682   0.7597
     1.8915   2.2500   2.2760   2.3871   2.3925   2.4931   3.3454   3.8692
     3.9188   4.1172   4.3862   4.4100   6.5712   6.6587   6.8961   6.9264
     9.2671  11.0950  11.2356  12.8206  13.0966  13.1303  13.2529  13.6529
    13.9318  14.2659  14.4917  14.5523  14.6057  14.6166  14.9740  15.4021
    15.6348  15.8936  16.1890  16.1899  16.7146  16.7341  17.3233  17.3999

     occupation numbers
     1.0000   1.0000   1.0000   1.0000   1.0000   1.0000   1.0000   1.0000
     1.0000   1.0000   1.0000   1.0000   1.0000   1.0000   1.0000   1.0000
     1.0000   1.0000   1.0000   1.0000   1.0000   1.0000   1.0000   1.0000
     1.0000   1.0000   1.0000   1.0000   1.0000   1.0000   1.0000   1.0000
     1.0000   1.0000   1.0000   1.0000   0.0000   0.0000   0.0000   0.0000
     0.0000   0.0000   0.0000   0.0000   0.0000   0.0000   0.0000   0.0000
     0.0000   0.0000   0.0000   0.0000   0.0000   0.0000   0.0000   0.0000
     0.0000   0.0000   0.0000   0.0000   0.0000   0.0000   0.0000   0.0000

[...]

          k = 0.3333-0.1925-0.3299 (  3784 PWs)   bands (ev):

   -44.0071 -44.0025 -43.9916 -43.9886 -43.9340 -43.9316 -11.3683 -10.7858
   -10.6202 -10.5877 -10.5147 -10.4856  -1.6290  -1.1601  -0.9860  -0.8294
    -0.7095  -0.3712  -0.1085  -0.0622   0.0425   0.6755   1.0690   1.2814
     1.4498   1.5987   1.9209   1.9977   2.3689   2.5102   3.4750   3.9104
     3.9303   4.3447   4.4543   4.4904   6.5335   6.6170   6.7165   6.8243
    10.7518  10.9848  12.0415  12.1805  12.5296  12.5755  13.2122  13.6002
    13.7765  13.9504  14.1408  14.3584  14.6496  15.2450  15.4009  15.5291
    15.6907  15.8329  15.9472  16.1887  16.1900  16.2274  16.6206  17.1834

     occupation numbers
     1.0000   1.0000   1.0000   1.0000   1.0000   1.0000   1.0000   1.0000
     1.0000   1.0000   1.0000   1.0000   1.0000   1.0000   1.0000   1.0000
     1.0000   1.0000   1.0000   1.0000   1.0000   1.0000   1.0000   1.0000
     1.0000   1.0000   1.0000   1.0000   1.0000   1.0000   1.0000   1.0000
     1.0000   1.0000   1.0000   1.0000   0.0000   0.0000   0.0000   0.0000
     0.0000   0.0000   0.0000   0.0000   0.0000   0.0000   0.0000   0.0000
     0.0000   0.0000   0.0000   0.0000   0.0000   0.0000   0.0000   0.0000
     0.0000   0.0000   0.0000   0.0000   0.0000   0.0000   0.0000   0.0000

     highest occupied, lowest unoccupied level (ev):     4.5578    6.4486

!    total energy              =    -563.58390330 Ry
     estimated scf accuracy    <       0.00000012 Ry

     The total energy is the sum of the following terms:
     one-electron contribution =    -315.60090325 Ry
     hartree contribution      =     185.12469390 Ry
     xc contribution           =    -157.27468992 Ry
     ewald contribution        =    -275.83300403 Ry

     convergence has been achieved in   8 iterations

     Writing all to output data dir bands_nm/myprefix.save/

     General routines

     Parallel routines

   This run was terminated on:   3:29:56  13Jul2023

   JOB DONE.