     Program PWSCF v.7.1 starts on 15Jul2023 at 22: 1:24

     Reading input from espresso_22296.pwi
Warning: card &CELL ignored
Warning: card / ignored

     Current dimensions of program PWSCF are:
     Max number of different atomic species (ntypx) = 10
     Max number of k-points (npk) =  40000
     Max angular momentum in pseudopotentials (lmaxx) =  4
     file O.pbe-n-kjpaw_psl.0.1.UPF: wavefunction(s)  2P renormalized
     Message from routine setup:
     using ibrav=0 with symmetry is DISCOURAGED, use correct ibrav instead

     K-points division:     npool     =       2
     R & G space division:  proc/nbgrp/npool/nimage =       4
     Subspace diagonalization in iterative solution of the eigenvalue problem:
     one sub-group per band group will be used

     Using Slab Decomposition

     bravais-lattice index     =            0
     lattice parameter (alat)  =      12.8151  a.u.
     unit-cell volume          =    3072.1569 (a.u.)^3
     number of atoms/cell      =           20
     number of atomic types    =            4
     number of electrons       =       136.00
     number of Kohn-Sham states=          256
     kinetic-energy cutoff     =      30.0000  Ry
     charge density cutoff     =     240.0000  Ry
     scf convergence threshold =      1.0E-06
     mixing beta               =       0.7000
     number of iterations used =            8  plain     mixing
     Exchange-correlation=  SLA  PW   PBX  PBC
                           (   1   4   3   4   0   0   0)

     celldm(1)=  12.815083  celldm(2)=   0.000000  celldm(3)=   0.000000
     celldm(4)=   0.000000  celldm(5)=   0.000000  celldm(6)=   0.000000

     crystal axes: (cart. coord. in units of alat)
               a(1) = (   1.000000   0.000000   0.000000 )
               a(2) = (   0.000000   1.201954   0.000000 )
               a(3) = (   0.000000   0.000000   1.214483 )

     reciprocal axes: (cart. coord. in units 2 pi/alat)
               b(1) = (  1.000000  0.000000  0.000000 )
               b(2) = (  0.000000  0.831979  0.000000 )
               b(3) = (  0.000000  0.000000  0.823396 )

     PseudoPot. # 1 for Cs read from file:
     /lustre07/scratch/pragov/crystal_structure_design/utils/SSSP/Cs_pbe_v1.uspp.F.UPF
     MD5 check sum: 3476d69cb178dfad3ffaa59df4e07ca4
     Pseudo is Ultrasoft + core correction, Zval =  9.0
     Generated by new atomic code, or converted to UPF format
     Using radial grid of  905 points,  6 beta functions with:
                l(1) =   0
                l(2) =   0
                l(3) =   1
                l(4) =   1
                l(5) =   2
                l(6) =   2
     Q(r) pseudized with  6 coefficients,  rinner =    1.500   1.500   1.500
                                                       1.500   1.500

     PseudoPot. # 2 for S  read from file:
     /lustre07/scratch/pragov/crystal_structure_design/utils/SSSP/s_pbe_v1.4.uspp.F.UPF
     MD5 check sum: 88d86576ff6df21479756cfb9bdac1df
     Pseudo is Ultrasoft + core correction, Zval =  6.0
     Generated by new atomic code, or converted to UPF format
     Using radial grid of  907 points,  6 beta functions with:
                l(1) =   0
                l(2) =   0
                l(3) =   1
                l(4) =   1
                l(5) =   2
                l(6) =   2
     Q(r) pseudized with  8 coefficients,  rinner =    1.300   1.300   1.300
                                                       1.300   1.300

     PseudoPot. # 3 for O  read from file:
     /lustre07/scratch/pragov/crystal_structure_design/utils/SSSP/O.pbe-n-kjpaw_psl.0.1.UPF
     MD5 check sum: 0234752ac141de4415c5fc33072bef88
     Pseudo is Projector augmented-wave + core cor, Zval =  6.0
     Generated using "atomic" code by A. Dal Corso  v.5.0.99 svn rev. 10869
     Shape of augmentation charge: BESSEL
     Using radial grid of 1095 points,  4 beta functions with:
                l(1) =   0
                l(2) =   0
                l(3) =   1
                l(4) =   1
     Q(r) pseudized with 0 coefficients

     PseudoPot. # 4 for F  read from file:
     /lustre07/scratch/pragov/crystal_structure_design/utils/SSSP/f_pbe_v1.4.uspp.F.UPF
     MD5 check sum: 4c38b6a325caf53ec0e86aed9459de46
     Pseudo is Ultrasoft, Zval =  7.0
     Generated by new atomic code, or converted to UPF format
     Using radial grid of  799 points,  4 beta functions with:
                l(1) =   0
                l(2) =   0
                l(3) =   1
                l(4) =   1
     Q(r) pseudized with  8 coefficients,  rinner =    0.950   0.950   0.950

     atomic species   valence    mass     pseudopotential
        Cs             9.00   132.90545     Cs( 1.00)
        S              6.00    32.06000     S ( 1.00)
        O              6.00    15.99900     O ( 1.00)
        F              7.00    18.99840     F ( 1.00)

      8 Sym. Ops., with inversion, found ( 6 have fractional translation)

                                    s                        frac. trans.

      isym =  1     identity

 cryst.   s( 1) = (     1          0          0      )
                  (     0          1          0      )
                  (     0          0          1      )

 cart.    s( 1) = (  1.0000000  0.0000000  0.0000000 )
                  (  0.0000000  1.0000000  0.0000000 )
                  (  0.0000000  0.0000000  1.0000000 )

      isym =  2     180 deg rotation - cart. axis [0,0,1]

 cryst.   s( 2) = (    -1          0          0      )    f =(  0.5000000 )
                  (     0         -1          0      )       (  0.5000000 )
                  (     0          0          1      )       (  0.5000000 )

 cart.    s( 2) = ( -1.0000000  0.0000000  0.0000000 )    f =(  0.5000000 )
                  (  0.0000000 -1.0000000  0.0000000 )       (  0.6009769 )
                  (  0.0000000  0.0000000  1.0000000 )       (  0.6072413 )

[...]

      isym =  4     180 deg rotation - cart. axis [1,0,0]

[...]

      isym =  5     inversion

 cryst.   s( 5) = (    -1          0          0      )
                  (     0         -1          0      )
                  (     0          0         -1      )

 cart.    s( 5) = ( -1.0000000  0.0000000  0.0000000 )
                  (  0.0000000 -1.0000000  0.0000000 )
                  (  0.0000000  0.0000000 -1.0000000 )

      isym =  6     inv. 180 deg rotation - cart. axis [0,0,1]

[...]

      isym =  8     inv. 180 deg rotation - cart. axis [1,0,0]

 cryst.   s( 8) = (    -1          0          0      )    f =(  0.5000000 )
                  (     0          1          0      )       (  0.0000000 )
                  (     0          0          1      )       (  0.0000000 )

 cart.    s( 8) = ( -1.0000000  0.0000000  0.0000000 )    f =(  0.5000000 )
                  (  0.0000000  1.0000000  0.0000000 )       (  0.0000000 )
                  (  0.0000000  0.0000000  1.0000000 )       (  0.0000000 )

   Cartesian axes

     site n.     atom                  positions (alat units)
         1           Cs  tau(   1) = (   0.7500000   1.0619947   0.7833000  )
         2           Cs  tau(   2) = (   0.2500000   0.1399591   0.4311826  )
         3           Cs  tau(   3) = (   0.7500000   0.7409360   0.1760587  )
         4           Cs  tau(   4) = (   0.2500000   0.4610178   1.0384239  )
         5           S   tau(   5) = (   0.7500000   0.1649129   0.0801048  )
         6           S   tau(   6) = (   0.2500000   1.0370410   1.1343778  )
         7           S   tau(   7) = (   0.7500000   0.4360641   0.6873461  )
         8           S   tau(   8) = (   0.2500000   0.7658898   0.5271365  )
         9           O   tau(   9) = (   0.0693380   0.9201498   1.0973154  )
        10           O   tau(  10) = (   0.5693380   0.2818041   0.1171672  )
        11           O   tau(  11) = (   0.9306620   0.3191728   0.7244085  )
        12           O   tau(  12) = (   0.4306620   0.8827810   0.4900741  )
        13           O   tau(  13) = (   0.4306620   0.9201498   1.0973154  )
        14           O   tau(  14) = (   0.9306620   0.2818041   0.1171672  )
        15           O   tau(  15) = (   0.0693380   0.8827810   0.4900741  )
        16           O   tau(  16) = (   0.5693380   0.3191728   0.7244085  )
        17           F   tau(  17) = (   0.2500000   0.6123486   0.3092413  )
        18           F   tau(  18) = (   0.7500000   0.5896052   0.9052413  )
        19           F   tau(  19) = (   0.7500000   0.0113717   0.2980000  )
        20           F   tau(  20) = (   0.2500000   1.1905822   0.9164826  )

   Crystallographic axes

     site n.     atom                  positions (cryst. coord.)
         1           Cs  tau(   1) = (  0.7500000  0.8835570  0.6449660  )
         2           Cs  tau(   2) = (  0.2500000  0.1164430  0.3550340  )
         3           Cs  tau(   3) = (  0.7500000  0.6164430  0.1449660  )
         4           Cs  tau(   4) = (  0.2500000  0.3835570  0.8550340  )
         5           S   tau(   5) = (  0.7500000  0.1372040  0.0659580  )
         6           S   tau(   6) = (  0.2500000  0.8627960  0.9340420  )
         7           S   tau(   7) = (  0.7500000  0.3627960  0.5659580  )
         8           S   tau(   8) = (  0.2500000  0.6372040  0.4340420  )
         9           O   tau(   9) = (  0.0693380  0.7655450  0.9035250  )
        10           O   tau(  10) = (  0.5693380  0.2344550  0.0964750  )
        11           O   tau(  11) = (  0.9306620  0.2655450  0.5964750  )
        12           O   tau(  12) = (  0.4306620  0.7344550  0.4035250  )
        13           O   tau(  13) = (  0.4306620  0.7655450  0.9035250  )
        14           O   tau(  14) = (  0.9306620  0.2344550  0.0964750  )
        15           O   tau(  15) = (  0.0693380  0.7344550  0.4035250  )
        16           O   tau(  16) = (  0.5693380  0.2655450  0.5964750  )
        17           F   tau(  17) = (  0.2500000  0.5094610  0.2546280  )
        18           F   tau(  18) = (  0.7500000  0.4905390  0.7453720  )
        19           F   tau(  19) = (  0.7500000  0.0094610  0.2453720  )
        20           F   tau(  20) = (  0.2500000  0.9905390  0.7546280  )

     number of k points=     8
                       cart. coord. in units 2pi/alat
        k(    1) = (   0.0000000   0.0000000   0.0000000), wk =   0.0740741
        k(    2) = (   0.0000000   0.0000000   0.2744653), wk =   0.1481481
        k(    3) = (   0.0000000   0.2773262   0.0000000), wk =   0.1481481
        k(    4) = (   0.0000000   0.2773262   0.2744653), wk =   0.2962963
        k(    5) = (   0.3333333   0.0000000   0.0000000), wk =   0.1481481
        k(    6) = (   0.3333333   0.0000000   0.2744653), wk =   0.2962963
        k(    7) = (   0.3333333   0.2773262   0.0000000), wk =   0.2962963
        k(    8) = (   0.3333333   0.2773262   0.2744653), wk =   0.5925926

                       cryst. coord.
        k(    1) = (   0.0000000   0.0000000   0.0000000), wk =   0.0740741
        k(    2) = (   0.0000000   0.0000000   0.3333333), wk =   0.1481481
        k(    3) = (   0.0000000   0.3333333   0.0000000), wk =   0.1481481
        k(    4) = (   0.0000000   0.3333333   0.3333333), wk =   0.2962963
        k(    5) = (   0.3333333   0.0000000   0.0000000), wk =   0.1481481
        k(    6) = (   0.3333333   0.0000000   0.3333333), wk =   0.2962963
        k(    7) = (   0.3333333   0.3333333   0.0000000), wk =   0.2962963
        k(    8) = (   0.3333333   0.3333333   0.3333333), wk =   0.5925926

     Check: negative core charge=   -0.000007

     Initial potential from superposition of free atoms

     starting charge     135.8423, renormalised to     136.0000
     Starting wfcs are  116 randomized atomic wfcs +  140 random wfcs
     Checking if some PAW data can be deallocated...

     Self-consistent Calculation

     iteration #  1     ecut=    30.00 Ry     beta= 0.70
     Davidson diagonalization with overlap

     ethr =  1.00E-02,  avg # of iterations =  7.0

     total energy              =    -875.10344986 Ry
     estimated scf accuracy    <       3.46267356 Ry

[...]

     total energy              =    -876.76107038 Ry
     estimated scf accuracy    <       0.00000257 Ry

     iteration #  8     ecut=    30.00 Ry     beta= 0.70
     Davidson diagonalization with overlap

     ethr =  1.89E-09,  avg # of iterations =  4.0

     End of self-consistent calculation

          k = 0.0000 0.0000 0.0000 (  8515 PWs)   bands (ev):

   -20.7151 -20.6939 -20.6929 -20.6899 -18.8746 -18.8705 -18.8589 -18.8542
   -17.2642 -17.2587 -17.2522 -17.2395 -16.8025 -16.7902 -16.7901 -16.7816
    -7.5211  -7.4326  -7.3817  -7.3721  -4.7097  -4.4487  -4.4182  -4.4134
    -4.3322  -4.3096  -4.2631  -4.1250  -4.1141  -4.1084  -4.1050  -4.0661
    -3.8629  -3.8506  -3.7181  -3.6703  -3.1813  -3.1468  -3.1352  -3.0017
    -2.9225  -2.9188  -2.8347  -2.8301  -1.2097  -1.1465  -1.0884  -1.0879
    -1.0863  -1.0582  -0.9268  -0.9160  -0.3828  -0.3677  -0.3264  -0.2690
     0.3041   0.4090   0.4409   0.4644   0.6974   0.7845   0.8425   0.9241
     1.4710   1.5552   1.5735   1.8088   6.2884   6.5115   6.5258   6.6048
     7.9667   8.2683   8.2745   8.6150   8.7383   8.8135   8.9564   9.0036
     9.0541   9.1759   9.5410   9.6957   9.7375   9.9004  10.0007  10.1249
    10.5840  10.6474  10.7666  10.7909  10.8070  10.9002  10.9432  10.9570
    11.1368  11.4053  11.4712  11.4787  11.6260  11.8806  11.9906  12.6926
    12.7754  12.9352  13.1621  13.7462  13.7716  13.9008  13.9460  14.1279
    14.2476  14.4438  14.6973  14.7451  14.9980  14.9980  15.0172  15.0272
    15.5809  15.6272  15.6652  15.7668  15.8067  16.0865  16.1079  16.2710
    16.4105  16.4118  16.5304  16.7825  16.8887  16.9532  17.0914  17.2166
    17.2779  17.3184  17.7350  17.7749  18.0031  18.0814  18.3894  18.4250
    18.4696  18.4790  18.7793  18.9184  19.1777  19.1857  19.2148  19.3492
    19.3993  19.4019  19.5310  19.7115  19.7434  19.8699  20.0364  20.1205
    20.1900  20.2879  20.3255  20.3322  20.4141  20.4185  20.4385  20.6316
    21.0685  21.0786  21.1142  21.2426  21.3420  21.3701  21.5216  21.7627
    21.8524  21.8804  21.9202  22.0852  22.1268  22.3461  22.6196  22.7949
    22.9314  22.9533  22.9852  23.0568  23.2150  23.4768  23.6981  23.9870
    24.1763  24.1952  24.3450  24.5078  24.5962  24.7798  24.8045  24.9519
    24.9888  25.1509  25.1981  25.4945  25.5743  25.6395  25.6696  25.8661
    25.8787  25.9566  26.2101  26.2650  26.3605  26.4315  26.4827  26.5580
    26.6139  26.6223  26.8551  26.9181  27.1332  27.1412  27.1524  27.1789
    27.3733  27.3909  27.7908  27.7966  27.8970  27.9368  28.0685  28.1595
    28.2861  28.4210  28.5066  28.6167  28.6344  28.7781  28.8494  28.8681
    28.9227  29.0485  29.3066  29.5454  29.5496  29.7427  29.8446  30.1418
    30.2767  30.3834  30.4420  30.4604  30.6944  30.8089  31.0361  31.0569

     occupation numbers
     1.0000   1.0000   1.0000   1.0000   1.0000   1.0000   1.0000   1.0000
     1.0000   1.0000   1.0000   1.0000   1.0000   1.0000   1.0000   1.0000
     1.0000   1.0000   1.0000   1.0000   1.0000   1.0000   1.0000   1.0000
     1.0000   1.0000   1.0000   1.0000   1.0000   1.0000   1.0000   1.0000
     1.0000   1.0000   1.0000   1.0000   1.0000   1.0000   1.0000   1.0000
     1.0000   1.0000   1.0000   1.0000   1.0000   1.0000   1.0000   1.0000
     1.0000   1.0000   1.0000   1.0000   1.0000   1.0000   1.0000   1.0000
     1.0000   1.0000   1.0000   1.0000   1.0000   1.0000   1.0000   1.0000
     1.0000   1.0000   1.0000   1.0000   0.0000   0.0000   0.0000   0.0000
     0.0000   0.0000   0.0000   0.0000   0.0000   0.0000   0.0000   0.0000
     0.0000   0.0000   0.0000   0.0000   0.0000   0.0000   0.0000   0.0000
     0.0000   0.0000   0.0000   0.0000   0.0000   0.0000   0.0000   0.0000
     0.0000   0.0000   0.0000   0.0000   0.0000   0.0000   0.0000   0.0000
     0.0000   0.0000   0.0000   0.0000   0.0000   0.0000   0.0000   0.0000
     0.0000   0.0000   0.0000   0.0000   0.0000   0.0000   0.0000   0.0000
     0.0000   0.0000   0.0000   0.0000   0.0000   0.0000   0.0000   0.0000
     0.0000   0.0000   0.0000   0.0000   0.0000   0.0000   0.0000   0.0000
     0.0000   0.0000   0.0000   0.0000   0.0000   0.0000   0.0000   0.0000
     0.0000   0.0000   0.0000   0.0000   0.0000   0.0000   0.0000   0.0000
     0.0000   0.0000   0.0000   0.0000   0.0000   0.0000   0.0000   0.0000
     0.0000   0.0000   0.0000   0.0000   0.0000   0.0000   0.0000   0.0000
     0.0000   0.0000   0.0000   0.0000   0.0000   0.0000   0.0000   0.0000
     0.0000   0.0000   0.0000   0.0000   0.0000   0.0000   0.0000   0.0000
     0.0000   0.0000   0.0000   0.0000   0.0000   0.0000   0.0000   0.0000
     0.0000   0.0000   0.0000   0.0000   0.0000   0.0000   0.0000   0.0000
     0.0000   0.0000   0.0000   0.0000   0.0000   0.0000   0.0000   0.0000
     0.0000   0.0000   0.0000   0.0000   0.0000   0.0000   0.0000   0.0000
     0.0000   0.0000   0.0000   0.0000   0.0000   0.0000   0.0000   0.0000
     0.0000   0.0000   0.0000   0.0000   0.0000   0.0000   0.0000   0.0000
     0.0000   0.0000   0.0000   0.0000   0.0000   0.0000   0.0000   0.0000
     0.0000   0.0000   0.0000   0.0000   0.0000   0.0000   0.0000   0.0000
     0.0000   0.0000   0.0000   0.0000   0.0000   0.0000   0.0000   0.0000

[...]

          k = 0.3333 0.2773 0.2745 (  8522 PWs)   bands (ev):

   -20.7027 -20.6985 -20.6951 -20.6929 -18.8672 -18.8650 -18.8618 -18.8606
   -17.2911 -17.2873 -17.2649 -17.2602 -16.7800 -16.7777 -16.7622 -16.7596
    -7.4350  -7.4291  -7.4200  -7.4041  -4.5583  -4.5038  -4.4376  -4.4133
    -4.3211  -4.2985  -4.2379  -4.2314  -4.1434  -4.1170  -4.0905  -4.0771
    -3.8789  -3.8693  -3.7021  -3.6941  -3.1487  -3.0891  -3.0672  -2.9896
    -2.9805  -2.9461  -2.8996  -2.8792  -1.2507  -1.2142  -1.1934  -1.1816
    -0.9320  -0.9136  -0.8883  -0.8719  -0.4386  -0.4125  -0.3771  -0.3519
     0.3753   0.4044   0.4378   0.4454   0.7572   0.7763   0.8189   0.8224
     1.6116   1.6439   1.6739   1.7246   6.3671   6.4012   6.5035   6.5231
     8.2117   8.2436   8.5822   8.6886   8.7596   8.8525   9.1270   9.1753
     9.4175   9.5076   9.5258   9.7433   9.8135   9.9468  10.1105  10.1666
    10.2354  10.3770  10.5818  10.6796  10.7088  10.8146  10.8803  10.9550
    11.2170  11.3171  11.4632  11.5265  11.6487  11.6926  11.7288  11.9830
    12.2344  12.3947  12.8403  13.2212  13.5131  13.6538  14.0193  14.2307
    14.2502  14.4142  14.6611  14.8529  14.8811  15.0755  15.2277  15.4380
    15.5121  15.6714  15.8125  15.8908  15.9831  16.0327  16.2366  16.4005
    16.4218  16.6039  16.8823  16.9675  17.0866  17.2117  17.2876  17.4034
    17.6511  17.7608  17.8727  18.0229  18.0919  18.2059  18.2560  18.4033
    18.4281  18.6223  18.7127  18.7543  18.9130  19.0270  19.0584  19.2063
    19.4682  19.5283  19.6297  19.6851  19.7701  19.7800  19.8634  20.1289
    20.1664  20.3129  20.3529  20.3821  20.4134  20.4243  20.5011  20.7114
    20.8236  20.9570  21.0396  21.0997  21.3263  21.5778  21.6088  21.9190
    22.0027  22.0433  22.2049  22.2499  22.6237  22.6393  22.8466  22.9142
    23.0174  23.1785  23.3117  23.4609  23.5132  23.6096  23.6239  23.8074
    23.8774  24.0745  24.1705  24.2647  24.3157  24.4471  24.5709  24.6617
    24.7307  24.9356  25.0430  25.1138  25.2673  25.3829  25.4616  25.5499
    25.6610  25.8272  26.0031  26.1225  26.1945  26.2319  26.3764  26.5337
    26.5637  26.6879  26.8018  26.8517  27.0471  27.1687  27.2452  27.3078
    27.4366  27.6530  27.7768  27.8776  27.9252  28.0129  28.0917  28.2075
    28.3384  28.3664  28.5440  28.6568  28.7892  28.8402  28.9665  29.0681
    29.2391  29.3065  29.3620  29.4275  29.4457  29.6632  29.8271  29.9029
    29.9420  30.1983  30.2659  30.3973  30.4383  30.5724  30.7200  30.9674

     occupation numbers
     1.0000   1.0000   1.0000   1.0000   1.0000   1.0000   1.0000   1.0000
     1.0000   1.0000   1.0000   1.0000   1.0000   1.0000   1.0000   1.0000
     1.0000   1.0000   1.0000   1.0000   1.0000   1.0000   1.0000   1.0000
     1.0000   1.0000   1.0000   1.0000   1.0000   1.0000   1.0000   1.0000
     1.0000   1.0000   1.0000   1.0000   1.0000   1.0000   1.0000   1.0000
     1.0000   1.0000   1.0000   1.0000   1.0000   1.0000   1.0000   1.0000
     1.0000   1.0000   1.0000   1.0000   1.0000   1.0000   1.0000   1.0000
     1.0000   1.0000   1.0000   1.0000   1.0000   1.0000   1.0000   1.0000
     1.0000   1.0000   1.0000   1.0000   0.0000   0.0000   0.0000   0.0000
     0.0000   0.0000   0.0000   0.0000   0.0000   0.0000   0.0000   0.0000
     0.0000   0.0000   0.0000   0.0000   0.0000   0.0000   0.0000   0.0000
     0.0000   0.0000   0.0000   0.0000   0.0000   0.0000   0.0000   0.0000
     0.0000   0.0000   0.0000   0.0000   0.0000   0.0000   0.0000   0.0000
     0.0000   0.0000   0.0000   0.0000   0.0000   0.0000   0.0000   0.0000
     0.0000   0.0000   0.0000   0.0000   0.0000   0.0000   0.0000   0.0000
     0.0000   0.0000   0.0000   0.0000   0.0000   0.0000   0.0000   0.0000
     0.0000   0.0000   0.0000   0.0000   0.0000   0.0000   0.0000   0.0000
     0.0000   0.0000   0.0000   0.0000   0.0000   0.0000   0.0000   0.0000
     0.0000   0.0000   0.0000   0.0000   0.0000   0.0000   0.0000   0.0000
     0.0000   0.0000   0.0000   0.0000   0.0000   0.0000   0.0000   0.0000
     0.0000   0.0000   0.0000   0.0000   0.0000   0.0000   0.0000   0.0000
     0.0000   0.0000   0.0000   0.0000   0.0000   0.0000   0.0000   0.0000
     0.0000   0.0000   0.0000   0.0000   0.0000   0.0000   0.0000   0.0000
     0.0000   0.0000   0.0000   0.0000   0.0000   0.0000   0.0000   0.0000
     0.0000   0.0000   0.0000   0.0000   0.0000   0.0000   0.0000   0.0000
     0.0000   0.0000   0.0000   0.0000   0.0000   0.0000   0.0000   0.0000
     0.0000   0.0000   0.0000   0.0000   0.0000   0.0000   0.0000   0.0000
     0.0000   0.0000   0.0000   0.0000   0.0000   0.0000   0.0000   0.0000
     0.0000   0.0000   0.0000   0.0000   0.0000   0.0000   0.0000   0.0000
     0.0000   0.0000   0.0000   0.0000   0.0000   0.0000   0.0000   0.0000
     0.0000   0.0000   0.0000   0.0000   0.0000   0.0000   0.0000   0.0000
     0.0000   0.0000   0.0000   0.0000   0.0000   0.0000   0.0000   0.0000

     highest occupied, lowest unoccupied level (ev):     1.8088    6.2558

!    total energy              =    -876.76107135 Ry
     estimated scf accuracy    <       0.00000031 Ry

     The total energy is the sum of the following terms:
     one-electron contribution =    -377.81016962 Ry
     hartree contribution      =     252.12544303 Ry
     xc contribution           =    -252.10129042 Ry
     ewald contribution        =    -422.73793340 Ry
     one-center paw contrib.   =     -76.23712094 Ry
      -> PAW hartree energy AE =       0.00000000 Ry
      -> PAW hartree energy PS =       0.00000000 Ry
      -> PAW xc energy AE      =       0.00000000 Ry
      -> PAW xc energy PS      =       0.00000000 Ry
      -> total E_H with PAW    =     252.12544303 Ry
      -> total E_XC with PAW   =    -252.10129042 Ry

     convergence has been achieved in   8 iterations

     Writing all to output data dir bands_nm/myprefix.save/

     General routines

     Parallel routines

     PAW routines

   This run was terminated on:  22: 2:43  15Jul2023

   JOB DONE.