     Program PWSCF v.7.1 starts on 15Jul2023 at 21:14:58

     Reading input from espresso_25055.pwi
Warning: card &CELL ignored
Warning: card / ignored

     Current dimensions of program PWSCF are:
     Max number of different atomic species (ntypx) = 10
     Max number of k-points (npk) =  40000
     Max angular momentum in pseudopotentials (lmaxx) =  4
     file Ho.paw.z_21.atompaw.wentzcovitch.v1.2.upf: wavefunction(s)  6S 0P 5D 0D 4F 0F renormalized
     Message from routine setup:
     using ibrav=0 with symmetry is DISCOURAGED, use correct ibrav instead

     K-points division:     npool     =       2
     R & G space division:  proc/nbgrp/npool/nimage =       4
     Subspace diagonalization in iterative solution of the eigenvalue problem:
     one sub-group per band group will be used

     Using Slab Decomposition

     bravais-lattice index     =            0
     lattice parameter (alat)  =       7.5655  a.u.
     unit-cell volume          =    1442.6075 (a.u.)^3
     number of atoms/cell      =           12
     number of atomic types    =            3
     number of electrons       =       176.00
     number of Kohn-Sham states=          256
     kinetic-energy cutoff     =      30.0000  Ry
     charge density cutoff     =     240.0000  Ry
     scf convergence threshold =      1.0E-06
     mixing beta               =       0.7000
     number of iterations used =            8  plain     mixing
     Exchange-correlation= PBE
                           (   1   4   3   4   0   0   0)

     celldm(1)=   7.565502  celldm(2)=   0.000000  celldm(3)=   0.000000
     celldm(4)=   0.000000  celldm(5)=   0.000000  celldm(6)=   0.000000

     crystal axes: (cart. coord. in units of alat)
               a(1) = (   1.000000   0.000000   0.000000 )
               a(2) = (   0.000000   1.722377   0.000000 )
               a(3) = (   0.000000   0.000000   1.934225 )

     reciprocal axes: (cart. coord. in units 2 pi/alat)
               b(1) = (  1.000000  0.000000  0.000000 )
               b(2) = (  0.000000  0.580593  0.000000 )
               b(3) = (  0.000000  0.000000  0.517003 )

     PseudoPot. # 1 for Ho read from file:
     /lustre07/scratch/pragov/crystal_structure_design/utils/SSSP/Ho.paw.z_21.atompaw.wentzcovitch.v1.2.upf
     MD5 check sum: f900adcc49abc9ab8113872cdbacec3e
     Pseudo is Projector augmented-wave + core cor, Zval = 21.0
     Generated using ATOMPAW code
     Shape of augmentation charge: BESSEL
     Using radial grid of 1114 points,  8 beta functions with:
                l(1) =   0
                l(2) =   0
                l(3) =   1
                l(4) =   1
                l(5) =   2
                l(6) =   2
                l(7) =   3
                l(8) =   3
     Q(r) pseudized with 0 coefficients

     PseudoPot. # 2 for P  read from file:
     /lustre07/scratch/pragov/crystal_structure_design/utils/SSSP/P.pbe-n-rrkjus_psl.1.0.0.UPF
     MD5 check sum: 8b930f418f0a4573dca56cd030ffe088
     Pseudo is Ultrasoft + core correction, Zval =  5.0
     Generated using "atomic" code by A. Dal Corso  v.5.1
     Using radial grid of 1147 points,  6 beta functions with:
                l(1) =   0
                l(2) =   0
                l(3) =   1
                l(4) =   1
                l(5) =   2
                l(6) =   2
     Q(r) pseudized with 0 coefficients

     PseudoPot. # 3 for Pd read from file:
     /lustre07/scratch/pragov/crystal_structure_design/utils/SSSP/Pd_ONCV_PBE-1.0.oncvpsp.upf
     MD5 check sum: eb77f42b51d86fb18e25f68156a31cf1
     Pseudo is Norm-conserving, Zval = 18.0
     Generated using ONCVPSP code by D. R. Hamann
     Using radial grid of 1410 points,  6 beta functions with:
                l(1) =   0
                l(2) =   0
                l(3) =   1
                l(4) =   1
                l(5) =   2
                l(6) =   2

     atomic species   valence    mass     pseudopotential
        Ho            21.00   164.93033     Ho( 1.00)
        P              5.00    30.97376     P ( 1.00)
        Pd            18.00   106.42000     Pd( 1.00)

      8 Sym. Ops., with inversion, found ( 6 have fractional translation)

                                    s                        frac. trans.

      isym =  1     identity

 cryst.   s( 1) = (     1          0          0      )
                  (     0          1          0      )
                  (     0          0          1      )

 cart.    s( 1) = (  1.0000000  0.0000000  0.0000000 )
                  (  0.0000000  1.0000000  0.0000000 )
                  (  0.0000000  0.0000000  1.0000000 )

      isym =  2     180 deg rotation - cart. axis [0,0,1]

 cryst.   s( 2) = (    -1          0          0      )    f =(  0.0000000 )
                  (     0         -1          0      )       (  0.5000000 )
                  (     0          0          1      )       ( -0.5000000 )

 cart.    s( 2) = ( -1.0000000  0.0000000  0.0000000 )    f =(  0.0000000 )
                  (  0.0000000 -1.0000000  0.0000000 )       (  0.8611883 )
                  (  0.0000000  0.0000000  1.0000000 )       ( -0.9671123 )

[...]

      isym =  4     180 deg rotation - cart. axis [1,0,0]

[...]

      isym =  5     inversion

 cryst.   s( 5) = (    -1          0          0      )
                  (     0         -1          0      )
                  (     0          0         -1      )

 cart.    s( 5) = ( -1.0000000  0.0000000  0.0000000 )
                  (  0.0000000 -1.0000000  0.0000000 )
                  (  0.0000000  0.0000000 -1.0000000 )

      isym =  6     inv. 180 deg rotation - cart. axis [0,0,1]

[...]

      isym =  8     inv. 180 deg rotation - cart. axis [1,0,0]

 cryst.   s( 8) = (    -1          0          0      )    f =(  0.5000000 )
                  (     0          1          0      )       (  0.0000000 )
                  (     0          0          1      )       (  0.0000000 )

 cart.    s( 8) = ( -1.0000000  0.0000000  0.0000000 )    f =(  0.5000000 )
                  (  0.0000000  1.0000000  0.0000000 )       (  0.0000000 )
                  (  0.0000000  0.0000000  1.0000000 )       (  0.0000000 )

   Cartesian axes

     site n.     atom                  positions (alat units)
         1           Ho  tau(   1) = (   0.2500000   0.9109288   0.3613809  )
         2           Ho  tau(   2) = (   0.7500000   0.8114478   1.5728438  )
         3           Ho  tau(   3) = (   0.7500000   1.6726360   1.3284932  )
         4           Ho  tau(   4) = (   0.2500000   0.0497405   0.6057315  )
         5           P   tau(   5) = (   0.2500000   1.2962244   1.6968392  )
         6           P   tau(   6) = (   0.7500000   0.4261521   0.2373855  )
         7           P   tau(   7) = (   0.7500000   1.2873404   0.7297269  )
         8           P   tau(   8) = (   0.2500000   0.4350361   1.2044978  )
         9           Pd  tau(   9) = (   0.2500000   1.1166374   1.0859762  )
        10           Pd  tau(  10) = (   0.7500000   0.6057392   0.8482484  )
        11           Pd  tau(  11) = (   0.7500000   1.4669274   0.1188639  )
        12           Pd  tau(  12) = (   0.2500000   0.2554491   1.8153607  )

   Crystallographic axes

     site n.     atom                  positions (cryst. coord.)
         1           Ho  tau(   1) = (  0.2500000  0.5288790  0.1868350  )
         2           Ho  tau(   2) = (  0.7500000  0.4711210  0.8131650  )
         3           Ho  tau(   3) = (  0.7500000  0.9711210  0.6868350  )
         4           Ho  tau(   4) = (  0.2500000  0.0288790  0.3131650  )
         5           P   tau(   5) = (  0.2500000  0.7525790  0.8772710  )
         6           P   tau(   6) = (  0.7500000  0.2474210  0.1227290  )
         7           P   tau(   7) = (  0.7500000  0.7474210  0.3772710  )
         8           P   tau(   8) = (  0.2500000  0.2525790  0.6227290  )
         9           Pd  tau(   9) = (  0.2500000  0.6483120  0.5614530  )
        10           Pd  tau(  10) = (  0.7500000  0.3516880  0.4385470  )
        11           Pd  tau(  11) = (  0.7500000  0.8516880  0.0614530  )
        12           Pd  tau(  12) = (  0.2500000  0.1483120  0.9385470  )

     number of k points=     8
                       cart. coord. in units 2pi/alat
        k(    1) = (   0.0000000   0.0000000   0.0000000), wk =   0.0740741
        k(    2) = (   0.0000000   0.0000000   0.1723343), wk =   0.1481481
        k(    3) = (   0.0000000   0.1935310   0.0000000), wk =   0.1481481
        k(    4) = (   0.0000000   0.1935310   0.1723343), wk =   0.2962963
        k(    5) = (   0.3333333   0.0000000   0.0000000), wk =   0.1481481
        k(    6) = (   0.3333333   0.0000000   0.1723343), wk =   0.2962963
        k(    7) = (   0.3333333   0.1935310   0.0000000), wk =   0.2962963
        k(    8) = (   0.3333333   0.1935310   0.1723343), wk =   0.5925926

                       cryst. coord.
        k(    1) = (   0.0000000   0.0000000   0.0000000), wk =   0.0740741
        k(    2) = (   0.0000000   0.0000000   0.3333333), wk =   0.1481481
        k(    3) = (   0.0000000   0.3333333   0.0000000), wk =   0.1481481
        k(    4) = (   0.0000000   0.3333333   0.3333333), wk =   0.2962963
        k(    5) = (   0.3333333   0.0000000   0.0000000), wk =   0.1481481
        k(    6) = (   0.3333333   0.0000000   0.3333333), wk =   0.2962963
        k(    7) = (   0.3333333   0.3333333   0.0000000), wk =   0.2962963
        k(    8) = (   0.3333333   0.3333333   0.3333333), wk =   0.5925926

     Initial potential from superposition of free atoms

     starting charge     175.9808, renormalised to     176.0000
     Starting wfcs are  184 randomized atomic wfcs +   72 random wfcs
     Checking if some PAW data can be deallocated...

     Self-consistent Calculation

     iteration #  1     ecut=    30.00 Ry     beta= 0.70
     Davidson diagonalization with overlap

     ethr =  1.00E-02,  avg # of iterations =  9.4

     total energy              =   -4363.50875594 Ry
     estimated scf accuracy    <      18.67282056 Ry

[...]

     total energy              =   -4386.80850394 Ry
     estimated scf accuracy    <       0.00000153 Ry

     iteration # 37     ecut=    30.00 Ry     beta= 0.70
     Davidson diagonalization with overlap

     ethr =  7.08E-10,  avg # of iterations =  1.0

     End of self-consistent calculation

          k = 0.0000 0.0000 0.0000 (  4027 PWs)   bands (ev):

   -69.6101 -69.6100 -69.6054 -69.6053 -35.0793 -35.0752 -35.0742 -35.0729
   -35.0225 -35.0207 -34.9922 -34.9909 -34.9789 -34.9749 -34.9397 -34.9380
   -30.4083 -30.3909 -30.3883 -30.3727  -5.9751  -5.9196  -5.8298  -5.8116
    -5.6794  -5.6305  -5.6079  -5.5829  -5.5627  -5.5400  -5.5328  -5.5324
     4.5601   5.4815   5.8621   5.8829  10.5742  10.6269  11.1176  11.2786
    11.3230  11.3886  11.3974  11.4377  11.7523  12.0002  12.4178  12.4532
    12.4929  12.6691  12.7821  12.9368  13.1103  13.1563  13.1817  13.3371
    13.5477  13.7718  13.9274  14.0883  14.5574  14.7753  15.1865  15.2027
    15.3480  15.3769  15.5392  15.6358  15.7698  15.8259  15.8368  15.8403
    15.8459  15.8675  15.8740  15.8945  15.9047  15.9238  15.9248  15.9300
    15.9371  15.9510  15.9547  15.9658  15.9673  15.9675  15.9845  16.0109
    16.0116  16.0569  16.0748  16.1828  16.2454  16.2802  16.6823  17.0621
    17.3175  17.7092  17.8598  18.0563  18.1607  18.3811  18.8891  18.9767
    19.9936  20.2375  20.3392  20.6922  20.8719  21.2181  21.2852  21.4823
    21.5970  21.8883  21.9147  22.2847  22.6183  22.6706  23.0560  23.4855
    23.8526  23.9911  24.2251  24.5678  24.7053  25.1055  25.3254  25.4097
    25.5059  25.8606  25.9596  26.9852  27.1032  27.2372  27.5345  28.0178
    28.2210  28.3413  28.7472  28.8555  29.0500  29.7230  30.2178  30.3257
    30.8122  31.4512  31.4901  31.5749  31.8509  32.1570  32.6397  32.6686
    32.6968  32.7559  33.1240  34.0860  34.4451  34.6389  34.6811  34.8112
    34.8272  34.8316  35.3533  35.4435  36.0725  36.1770  36.2572  36.9624
    37.0232  37.3747  37.5139  37.7876  37.9099  38.4133  38.7109  38.8898
    38.9450  39.0523  39.0896  39.5512  39.5607  39.6816  39.9278  40.1193
    40.7619  40.8694  40.9621  41.3043  41.9972  42.0100  42.0910  42.1214
    42.2022  42.5997  42.8636  42.8695  42.9542  43.2299  43.3699  43.4749
    43.6853  43.7390  44.1741  44.3075  44.7050  44.8873  44.9581  45.0067
    45.4860  45.4911  45.7054  45.9373  46.6258  46.8290  47.0957  47.3307
    47.4933  47.6837  47.6908  48.2273  48.3326  48.5969  48.7433  48.8805
    48.9873  49.0718  49.1072  49.2736  49.6209  49.7867  49.7874  49.8503
    49.9951  50.0633  50.1684  50.3859  50.5263  50.7724  50.9669  51.0166
    51.1755  51.9857  52.0002  52.0264  52.1745  52.4230  52.5062  52.7730
    52.9114  53.3633  53.4251  53.5420  53.5646  53.6768  53.8236  54.0418

     occupation numbers
     1.0000   1.0000   1.0000   1.0000   1.0000   1.0000   1.0000   1.0000
     1.0000   1.0000   1.0000   1.0000   1.0000   1.0000   1.0000   1.0000
     1.0000   1.0000   1.0000   1.0000   1.0000   1.0000   1.0000   1.0000
     1.0000   1.0000   1.0000   1.0000   1.0000   1.0000   1.0000   1.0000
     1.0000   1.0000   1.0000   1.0000   1.0000   1.0000   1.0000   1.0000
     1.0000   1.0000   1.0000   1.0000   1.0000   1.0000   1.0000   1.0000
     1.0000   1.0000   1.0000   1.0000   1.0000   1.0000   1.0000   1.0000
     1.0000   1.0000   1.0000   1.0000   1.0000   1.0000   1.0000   1.0000
     1.0000   1.0000   1.0000   1.0000   1.0000   1.0000   1.0000   1.0000
     1.0000   1.0000   1.0000   1.0000   1.0000   1.0000   1.0000   1.0000
     1.0000   1.0000   1.0000   1.0000   1.0000   1.0000   1.0000   1.0000
     0.0000   0.0000   0.0000   0.0000   0.0000   0.0000   0.0000   0.0000
     0.0000   0.0000   0.0000   0.0000   0.0000   0.0000   0.0000   0.0000
     0.0000   0.0000   0.0000   0.0000   0.0000   0.0000   0.0000   0.0000
     0.0000   0.0000   0.0000   0.0000   0.0000   0.0000   0.0000   0.0000
     0.0000   0.0000   0.0000   0.0000   0.0000   0.0000   0.0000   0.0000
     0.0000   0.0000   0.0000   0.0000   0.0000   0.0000   0.0000   0.0000
     0.0000   0.0000   0.0000   0.0000   0.0000   0.0000   0.0000   0.0000
     0.0000   0.0000   0.0000   0.0000   0.0000   0.0000   0.0000   0.0000
     0.0000   0.0000   0.0000   0.0000   0.0000   0.0000   0.0000   0.0000
     0.0000   0.0000   0.0000   0.0000   0.0000   0.0000   0.0000   0.0000
     0.0000   0.0000   0.0000   0.0000   0.0000   0.0000   0.0000   0.0000
     0.0000   0.0000   0.0000   0.0000   0.0000   0.0000   0.0000   0.0000
     0.0000   0.0000   0.0000   0.0000   0.0000   0.0000   0.0000   0.0000
     0.0000   0.0000   0.0000   0.0000   0.0000   0.0000   0.0000   0.0000
     0.0000   0.0000   0.0000   0.0000   0.0000   0.0000   0.0000   0.0000
     0.0000   0.0000   0.0000   0.0000   0.0000   0.0000   0.0000   0.0000
     0.0000   0.0000   0.0000   0.0000   0.0000   0.0000   0.0000   0.0000
     0.0000   0.0000   0.0000   0.0000   0.0000   0.0000   0.0000   0.0000
     0.0000   0.0000   0.0000   0.0000   0.0000   0.0000   0.0000   0.0000
     0.0000   0.0000   0.0000   0.0000   0.0000   0.0000   0.0000   0.0000
     0.0000   0.0000   0.0000   0.0000   0.0000   0.0000   0.0000   0.0000

[...]

          k = 0.3333 0.1935 0.1723 (  3991 PWs)   bands (ev):

   -69.6088 -69.6088 -69.6065 -69.6065 -35.0758 -35.0756 -35.0732 -35.0729
   -35.0193 -35.0186 -35.0066 -35.0062 -34.9597 -34.9594 -34.9442 -34.9434
   -30.3948 -30.3914 -30.3830 -30.3799  -5.8694  -5.8515  -5.8213  -5.8064
    -5.8009  -5.7789  -5.6688  -5.6466  -5.6152  -5.6076  -5.5516  -5.5434
     5.5384   5.6702   5.6985   5.7741  10.6667  10.8371  10.9596  11.2489
    11.4482  11.5936  11.6536  11.8398  12.0502  12.0975  12.2261  12.3088
    12.5410  12.6486  12.7994  12.8427  13.0661  13.1101  13.3666  13.4921
    13.6245  13.7614  13.8617  13.9414  14.1411  14.4645  14.5211  14.7677
    15.0226  15.2074  15.3161  15.4464  15.8148  15.8268  15.8399  15.8498
    15.8616  15.8650  15.8737  15.8776  15.8935  15.8967  15.9061  15.9103
    15.9144  15.9269  15.9442  15.9490  15.9574  15.9676  15.9733  15.9836
    15.9919  15.9956  16.0137  16.0313  16.0902  16.1344  16.1512  16.1538
    17.4350  17.8232  18.1631  18.2900  18.6786  19.0042  19.3707  19.7904
    20.1097  20.1876  20.7339  20.9304  21.1908  21.3940  21.6366  21.7893
    22.0158  22.1939  22.3942  22.5836  22.6195  23.1282  23.2803  23.5854
    23.8228  24.1944  24.6678  24.7570  24.9368  25.3505  25.4223  25.6129
    25.8792  26.1191  26.2130  26.6351  26.8072  27.0131  27.1049  27.2725
    27.7367  28.1871  28.3070  28.8615  29.0381  29.7449  29.8739  30.0064
    30.5438  30.9008  31.2987  31.5385  31.7490  32.1187  32.2632  32.3950
    32.7136  32.9599  33.1344  33.4061  33.5832  33.9289  34.1283  34.4975
    34.6000  34.9024  35.2505  35.4408  35.7156  35.8745  36.0540  36.4739
    36.8519  37.1411  37.3519  37.4966  37.5348  37.7560  37.9237  38.1493
    38.5433  38.7894  39.0517  39.2980  39.5237  39.8057  39.9934  40.2228
    40.5743  40.7496  40.9853  41.3517  41.3922  41.4404  41.6212  41.9013
    42.1256  42.3809  42.6549  42.9338  43.1414  43.2948  43.4492  43.7379
    43.8629  44.0221  44.3218  44.3851  44.5691  44.8919  45.1700  45.1863
    45.2494  45.7112  45.7816  46.1346  46.4418  46.5484  46.7447  46.9488
    47.1518  47.3167  47.4897  47.7564  48.0502  48.2303  48.4026  48.4453
    48.8523  49.0819  49.1263  49.3535  49.6041  49.7812  49.9538  50.1611
    50.2526  50.4095  50.5655  50.8941  50.9620  51.0371  51.3285  51.4602
    51.6907  51.8976  51.9544  52.2439  52.3881  52.5311  52.7387  52.9650
    53.0419  53.3317  53.4545  53.8607  53.9705  54.1631  54.2527  54.5615

     occupation numbers
     1.0000   1.0000   1.0000   1.0000   1.0000   1.0000   1.0000   1.0000
     1.0000   1.0000   1.0000   1.0000   1.0000   1.0000   1.0000   1.0000
     1.0000   1.0000   1.0000   1.0000   1.0000   1.0000   1.0000   1.0000
     1.0000   1.0000   1.0000   1.0000   1.0000   1.0000   1.0000   1.0000
     1.0000   1.0000   1.0000   1.0000   1.0000   1.0000   1.0000   1.0000
     1.0000   1.0000   1.0000   1.0000   1.0000   1.0000   1.0000   1.0000
     1.0000   1.0000   1.0000   1.0000   1.0000   1.0000   1.0000   1.0000
     1.0000   1.0000   1.0000   1.0000   1.0000   1.0000   1.0000   1.0000
     1.0000   1.0000   1.0000   1.0000   1.0000   1.0000   1.0000   1.0000
     1.0000   1.0000   1.0000   1.0000   1.0000   1.0000   1.0000   1.0000
     1.0000   1.0000   1.0000   1.0000   1.0000   1.0000   1.0000   1.0000
     0.0000   0.0000   0.0000   0.0000   0.0000   0.0000   0.0000   0.0000
     0.0000   0.0000   0.0000   0.0000   0.0000   0.0000   0.0000   0.0000
     0.0000   0.0000   0.0000   0.0000   0.0000   0.0000   0.0000   0.0000
     0.0000   0.0000   0.0000   0.0000   0.0000   0.0000   0.0000   0.0000
     0.0000   0.0000   0.0000   0.0000   0.0000   0.0000   0.0000   0.0000
     0.0000   0.0000   0.0000   0.0000   0.0000   0.0000   0.0000   0.0000
     0.0000   0.0000   0.0000   0.0000   0.0000   0.0000   0.0000   0.0000
     0.0000   0.0000   0.0000   0.0000   0.0000   0.0000   0.0000   0.0000
     0.0000   0.0000   0.0000   0.0000   0.0000   0.0000   0.0000   0.0000
     0.0000   0.0000   0.0000   0.0000   0.0000   0.0000   0.0000   0.0000
     0.0000   0.0000   0.0000   0.0000   0.0000   0.0000   0.0000   0.0000
     0.0000   0.0000   0.0000   0.0000   0.0000   0.0000   0.0000   0.0000
     0.0000   0.0000   0.0000   0.0000   0.0000   0.0000   0.0000   0.0000
     0.0000   0.0000   0.0000   0.0000   0.0000   0.0000   0.0000   0.0000
     0.0000   0.0000   0.0000   0.0000   0.0000   0.0000   0.0000   0.0000
     0.0000   0.0000   0.0000   0.0000   0.0000   0.0000   0.0000   0.0000
     0.0000   0.0000   0.0000   0.0000   0.0000   0.0000   0.0000   0.0000
     0.0000   0.0000   0.0000   0.0000   0.0000   0.0000   0.0000   0.0000
     0.0000   0.0000   0.0000   0.0000   0.0000   0.0000   0.0000   0.0000
     0.0000   0.0000   0.0000   0.0000   0.0000   0.0000   0.0000   0.0000
     0.0000   0.0000   0.0000   0.0000   0.0000   0.0000   0.0000   0.0000

     highest occupied, lowest unoccupied level (ev):    16.0338   15.9830

!    total energy              =   -4386.80850193 Ry
     estimated scf accuracy    <       0.00000073 Ry

     The total energy is the sum of the following terms:
     one-electron contribution =   -1175.27752558 Ry
     hartree contribution      =     669.69720009 Ry
     xc contribution           =    -238.76964722 Ry
     ewald contribution        =   -1702.41661648 Ry
     one-center paw contrib.   =   -1940.04191274 Ry
      -> PAW hartree energy AE =     595.68417148 Ry
      -> PAW hartree energy PS =    -545.13269183 Ry
      -> PAW xc energy AE      =   -1079.12182078 Ry
      -> PAW xc energy PS      =      58.54938476 Ry
      -> total E_H with PAW    =     720.24867974 Ry
      -> total E_XC with PAW   =   -1259.34208324 Ry

     convergence has been achieved in  37 iterations

     Writing all to output data dir bands_nm/myprefix.save/

     General routines

     Parallel routines

     PAW routines

   This run was terminated on:  21:16:54  15Jul2023

   JOB DONE.