     Program PWSCF v.7.1 starts on 15Jul2023 at 21:18:40

     Reading input from espresso_23113.pwi
Warning: card &CELL ignored
Warning: card / ignored

     Current dimensions of program PWSCF are:
     Max number of different atomic species (ntypx) = 10
     Max number of k-points (npk) =  40000
     Max angular momentum in pseudopotentials (lmaxx) =  4
     file Cu.paw.z_11.ld1.psl.v1.0.0-low.upf: wavefunction(s)  4S 3D renormalized
     file O.pbe-n-kjpaw_psl.0.1.UPF: wavefunction(s)  2P renormalized
     Message from routine setup:
     using ibrav=0 with symmetry is DISCOURAGED, use correct ibrav instead

     K-points division:     npool     =       2
     R & G space division:  proc/nbgrp/npool/nimage =       4
     Subspace diagonalization in iterative solution of the eigenvalue problem:
     one sub-group per band group will be used

     Using Slab Decomposition

     bravais-lattice index     =            0
     lattice parameter (alat)  =      10.5736  a.u.
     unit-cell volume          =    1364.1792 (a.u.)^3
     number of atoms/cell      =           16
     number of atomic types    =            5
     number of electrons       =       114.00
     number of Kohn-Sham states=          256
     kinetic-energy cutoff     =      30.0000  Ry
     charge density cutoff     =     240.0000  Ry
     scf convergence threshold =      1.0E-06
     mixing beta               =       0.7000
     number of iterations used =            8  plain     mixing
     Exchange-correlation=  SLA  PW   PBX  PBC
                           (   1   4   3   4   0   0   0)

     celldm(1)=  10.573632  celldm(2)=   0.000000  celldm(3)=   0.000000
     celldm(4)=   0.000000  celldm(5)=   0.000000  celldm(6)=   0.000000

     crystal axes: (cart. coord. in units of alat)
               a(1) = (   1.000000   0.000000   0.000000 )
               a(2) = (  -0.173516   0.984831   0.000000 )
               a(3) = (  -0.266719  -0.317820   1.171756 )

     reciprocal axes: (cart. coord. in units 2 pi/alat)
               b(1) = (  1.000000  0.176189  0.275412 )
               b(2) = (  0.000000  1.015403  0.275412 )
               b(3) = (  0.000000  0.000000  0.853420 )

     PseudoPot. # 1 for Na read from file:
     /lustre07/scratch/pragov/crystal_structure_design/utils/SSSP/na_pbe_v1.5.uspp.F.UPF
     MD5 check sum: 44600605ef58000f06b90626533354dc
     Pseudo is Ultrasoft, Zval =  9.0
     Generated by new atomic code, or converted to UPF format
     Using radial grid of  819 points,  5 beta functions with:
                l(1) =   0
                l(2) =   0
                l(3) =   1
                l(4) =   1
                l(5) =   2
     Q(r) pseudized with  8 coefficients,  rinner =    1.250   1.250   1.250
                                                       1.250   1.250

     PseudoPot. # 2 for Cu read from file:
     /lustre07/scratch/pragov/crystal_structure_design/utils/SSSP/Cu.paw.z_11.ld1.psl.v1.0.0-low.upf
     MD5 check sum: 619f40885d92a09a85a8b37550532d0c
     Pseudo is Projector augmented-wave + core cor, Zval = 11.0
     Generated using &quot;atomic&quot; code by A. Dal Corso  v.6.3MaX
     Shape of augmentation charge: PSQ
     Using radial grid of 1199 points,  6 beta functions with:
                l(1) =   0
                l(2) =   0
                l(3) =   1
                l(4) =   1
                l(5) =   2
                l(6) =   2
     Q(r) pseudized with 0 coefficients

     PseudoPot. # 3 for S  read from file:
     /lustre07/scratch/pragov/crystal_structure_design/utils/SSSP/s_pbe_v1.4.uspp.F.UPF
     MD5 check sum: 88d86576ff6df21479756cfb9bdac1df
     Pseudo is Ultrasoft + core correction, Zval =  6.0
     Generated by new atomic code, or converted to UPF format
     Using radial grid of  907 points,  6 beta functions with:
                l(1) =   0
                l(2) =   0
                l(3) =   1
                l(4) =   1
                l(5) =   2
                l(6) =   2
     Q(r) pseudized with  8 coefficients,  rinner =    1.300   1.300   1.300
                                                       1.300   1.300

     PseudoPot. # 4 for O  read from file:
     /lustre07/scratch/pragov/crystal_structure_design/utils/SSSP/O.pbe-n-kjpaw_psl.0.1.UPF
     MD5 check sum: 0234752ac141de4415c5fc33072bef88
     Pseudo is Projector augmented-wave + core cor, Zval =  6.0
     Generated using "atomic" code by A. Dal Corso  v.5.0.99 svn rev. 10869
     Shape of augmentation charge: BESSEL
     Using radial grid of 1095 points,  4 beta functions with:
                l(1) =   0
                l(2) =   0
                l(3) =   1
                l(4) =   1
     Q(r) pseudized with 0 coefficients

     PseudoPot. # 5 for F  read from file:
     /lustre07/scratch/pragov/crystal_structure_design/utils/SSSP/f_pbe_v1.4.uspp.F.UPF
     MD5 check sum: 4c38b6a325caf53ec0e86aed9459de46
     Pseudo is Ultrasoft, Zval =  7.0
     Generated by new atomic code, or converted to UPF format
     Using radial grid of  799 points,  4 beta functions with:
                l(1) =   0
                l(2) =   0
                l(3) =   1
                l(4) =   1
     Q(r) pseudized with  8 coefficients,  rinner =    0.950   0.950   0.950

     atomic species   valence    mass     pseudopotential
        Na             9.00    22.98977     Na( 1.00)
        Cu            11.00    63.54600     Cu( 1.00)
        S              6.00    32.06000     S ( 1.00)
        O              6.00    15.99900     O ( 1.00)
        F              7.00    18.99840     F ( 1.00)

      2 Sym. Ops., with inversion, found

                                    s                        frac. trans.

      isym =  1     identity

 cryst.   s( 1) = (     1          0          0      )
                  (     0          1          0      )
                  (     0          0          1      )

 cart.    s( 1) = (  1.0000000  0.0000000 -0.0000000 )
                  (  0.0000000  1.0000000 -0.0000000 )
                  (  0.0000000  0.0000000  1.0000000 )

      isym =  2     inversion

 cryst.   s( 2) = (    -1          0          0      )
                  (     0         -1          0      )
                  (     0          0         -1      )

 cart.    s( 2) = ( -1.0000000 -0.0000000  0.0000000 )
                  (  0.0000000 -1.0000000  0.0000000 )
                  (  0.0000000  0.0000000 -1.0000000 )

   Cartesian axes

     site n.     atom                  positions (alat units)
         1           Na  tau(   1) = (   0.1702049   0.5609619   0.2929389  )
         2           Na  tau(   2) = (   0.3895598   0.1060491   0.8788168  )
         3           Cu  tau(   3) = (  -0.1333595  -0.1589100   0.5858779  )
         4           Cu  tau(   4) = (   0.0000000   0.0000000   0.0000000  )
         5           S   tau(   5) = (   0.5771041   0.2194865   0.2929389  )
         6           S   tau(   6) = (  -0.0173393   0.4475244   0.8788168  )
         7           O   tau(   7) = (   0.5838148  -0.0179409   0.4234866  )
         8           O   tau(   8) = (   0.8120943   0.2540751   0.1623913  )
         9           O   tau(   9) = (  -0.0240501   0.6849518   0.7482692  )
        10           O   tau(  10) = (  -0.2523296   0.4129358   1.0093645  )
        11           O   tau(  11) = (   0.5442123   0.4153927   0.4657249  )
        12           O   tau(  12) = (   0.3784623   0.2178864   0.1201530  )
        13           O   tau(  13) = (   0.0155524   0.2516182   0.7060309  )
        14           O   tau(  14) = (   0.1813025   0.4491245   1.0516028  )
        15           F   tau(  15) = (  -0.1307657   0.8135405   0.2929389  )
        16           F   tau(  16) = (   0.6905304  -0.1465296   0.8788168  )

   Crystallographic axes

     site n.     atom                  positions (cryst. coord.)
         1           Na  tau(   1) = (  0.3497190  0.6502810  0.2500000  )
         2           Na  tau(   2) = (  0.6502810  0.3497190  0.7500000  )
         3           Cu  tau(   3) = (  0.0000000  0.0000000  0.5000000  )
         4           Cu  tau(   4) = (  0.0000000  0.0000000  0.0000000  )
         5           S   tau(   5) = (  0.6964540  0.3035460  0.2500000  )
         6           S   tau(   6) = (  0.3035460  0.6964540  0.7500000  )
         7           O   tau(   7) = (  0.6972870  0.0984160  0.3614120  )
         8           O   tau(   8) = (  0.9015840  0.3027130  0.1385880  )
         9           O   tau(   9) = (  0.3027130  0.9015840  0.6385880  )
        10           O   tau(  10) = (  0.0984160  0.6972870  0.8614120  )
        11           O   tau(  11) = (  0.7456660  0.5500570  0.3974590  )
        12           O   tau(  12) = (  0.4499430  0.2543340  0.1025410  )
        13           O   tau(  13) = (  0.2543340  0.4499430  0.6025410  )
        14           O   tau(  14) = (  0.5500570  0.7456660  0.8974590  )
        15           F   tau(  15) = (  0.0932500  0.9067500  0.2500000  )
        16           F   tau(  16) = (  0.9067500  0.0932500  0.7500000  )

     number of k points=    14
                       cart. coord. in units 2pi/alat
        k(    1) = (   0.0000000   0.0000000   0.0000000), wk =   0.0740741
        k(    2) = (   0.0000000   0.0000000   0.2844734), wk =   0.1481481
        k(    3) = (   0.0000000   0.3384675   0.0918039), wk =   0.1481481
        k(    4) = (   0.0000000   0.3384675   0.3762773), wk =   0.1481481
        k(    5) = (   0.0000000   0.3384675  -0.1926695), wk =   0.1481481
        k(    6) = (   0.3333333   0.0587296   0.0918039), wk =   0.1481481
        k(    7) = (   0.3333333   0.0587296   0.3762773), wk =   0.1481481
        k(    8) = (   0.3333333   0.0587296  -0.1926695), wk =   0.1481481
        k(    9) = (   0.3333333   0.3971972   0.1836078), wk =   0.1481481
        k(   10) = (   0.3333333   0.3971972   0.4680812), wk =   0.1481481
        k(   11) = (   0.3333333   0.3971972  -0.1008655), wk =   0.1481481
        k(   12) = (   0.3333333  -0.2797379  -0.0000000), wk =   0.1481481
        k(   13) = (   0.3333333  -0.2797379   0.2844734), wk =   0.1481481
        k(   14) = (   0.3333333  -0.2797379  -0.2844734), wk =   0.1481481

                       cryst. coord.
        k(    1) = (   0.0000000   0.0000000   0.0000000), wk =   0.0740741
        k(    2) = (   0.0000000   0.0000000   0.3333333), wk =   0.1481481
        k(    3) = (   0.0000000   0.3333333   0.0000000), wk =   0.1481481
        k(    4) = (   0.0000000   0.3333333   0.3333333), wk =   0.1481481
        k(    5) = (   0.0000000   0.3333333  -0.3333333), wk =   0.1481481
        k(    6) = (   0.3333333   0.0000000   0.0000000), wk =   0.1481481
        k(    7) = (   0.3333333   0.0000000   0.3333333), wk =   0.1481481
        k(    8) = (   0.3333333   0.0000000  -0.3333333), wk =   0.1481481
        k(    9) = (   0.3333333   0.3333333   0.0000000), wk =   0.1481481
        k(   10) = (   0.3333333   0.3333333   0.3333333), wk =   0.1481481
        k(   11) = (   0.3333333   0.3333333  -0.3333333), wk =   0.1481481
        k(   12) = (   0.3333333  -0.3333333   0.0000000), wk =   0.1481481
        k(   13) = (   0.3333333  -0.3333333   0.3333333), wk =   0.1481481
        k(   14) = (   0.3333333  -0.3333333  -0.3333333), wk =   0.1481481

     Check: negative core charge=   -0.000011

     Initial potential from superposition of free atoms

     starting charge     113.9869, renormalised to     114.0000
     Starting wfcs are   76 randomized atomic wfcs +  180 random wfcs
     Checking if some PAW data can be deallocated...

     Self-consistent Calculation

     iteration #  1     ecut=    30.00 Ry     beta= 0.70
     Davidson diagonalization with overlap

     ethr =  1.00E-02,  avg # of iterations =  7.4

     total energy              =   -1093.96168614 Ry
     estimated scf accuracy    <       2.83098264 Ry

[...]

     total energy              =   -1095.30525551 Ry
     estimated scf accuracy    <       0.00000608 Ry

     iteration # 13     ecut=    30.00 Ry     beta= 0.70
     Davidson diagonalization with overlap

     ethr =  5.34E-09,  avg # of iterations =  1.1

     End of self-consistent calculation

          k = 0.0000 0.0000 0.0000 (  3781 PWs)   bands (ev):

   -45.8614 -45.8611 -19.7314 -19.6248 -18.8938 -18.7895 -17.7969 -17.7874
   -17.7731 -17.7689 -17.6759 -17.6599 -15.6652 -15.6131 -15.5918 -15.5726
   -15.4852 -15.3737  -5.8909  -5.5132  -3.9070  -3.3160  -2.8569  -2.6935
    -2.4309  -2.3649  -2.2640  -1.1924  -1.0451  -0.7340  -0.4897  -0.3600
    -0.0472   0.0828   0.3068   0.4703   0.5732   0.5989   0.8213   1.1705
     1.1908   1.3396   1.5042   2.1287   2.2855   2.4806   2.4963   2.6471
     2.8106   2.9067   2.9092   2.9902   3.1196   3.2906   3.4138   3.6033
     3.8717   4.5445   8.0075  10.7029  10.8628  11.5030  11.8110  11.9172
    12.0111  12.3882  12.5080  12.5327  13.3632  13.6402  13.7631  13.7805
    14.1041  14.3631  14.9621  15.6206  15.9995  16.3057  16.5760  16.8178
    17.2744  17.8921  18.4148  18.4657  18.4923  19.0187  19.0739  19.1112
    19.6848  19.8607  20.3626  20.6814  21.0301  21.4923  21.5830  21.5870
    21.7705  21.9384  23.1894  23.2923  23.5043  23.9635  24.1049  24.6161
    24.9607  24.9832  25.1276  25.3895  25.8601  26.0836  26.5391  26.6058
    26.9551  27.1075  27.2953  27.6410  27.7502  28.2924  28.3608  28.6034
    29.4621  29.4725  29.5011  29.7905  30.3528  30.6812  30.7137  30.7866
    31.1581  31.2548  31.3184  31.5885  31.7450  31.9993  32.0626  32.3191
    32.6677  32.8060  32.9636  33.3216  33.4530  33.6359  33.8745  34.6178
    35.2874  35.3472  35.3690  35.4570  35.9315  36.1087  36.1965  36.4379
    36.4650  36.5666  36.6833  37.0311  37.0888  37.5529  38.1634  38.6421
    38.7080  38.8997  39.2404  39.2555  39.4653  39.8641  40.0557  40.1788
    40.5261  40.9914  41.0230  41.1382  41.8898  42.0090  42.0436  42.7138
    42.8317  42.9854  43.0064  43.3606  43.4959  43.5184  43.6642  43.7560
    43.9283  43.9950  44.0402  44.1154  44.5949  44.8398  45.0037  45.1132
    45.1814  45.4547  45.5670  45.7486  46.3055  46.3389  46.4709  46.5263
    47.1287  47.1559  47.4961  47.6302  47.7800  47.9356  48.1329  48.3395
    48.5931  48.8517  48.9338  49.0308  49.4064  49.4908  49.6972  49.7313
    50.0144  50.0577  50.6064  50.6813  50.7261  50.8552  51.2982  51.5008
    51.7828  51.9058  52.0279  52.3993  52.4407  52.5273  52.8352  53.2350
    53.2388  53.4851  53.5180  53.6536  53.7938  54.2560  54.5573  54.7776
    54.8722  54.8733  55.2941  55.3087  55.4433  55.5623  55.9850  56.3148
    56.3983  56.5404  56.6653  56.6939  57.0027  57.1161  57.6470  57.6495

     occupation numbers
     1.0000   1.0000   1.0000   1.0000   1.0000   1.0000   1.0000   1.0000
     1.0000   1.0000   1.0000   1.0000   1.0000   1.0000   1.0000   1.0000
     1.0000   1.0000   1.0000   1.0000   1.0000   1.0000   1.0000   1.0000
     1.0000   1.0000   1.0000   1.0000   1.0000   1.0000   1.0000   1.0000
     1.0000   1.0000   1.0000   1.0000   1.0000   1.0000   1.0000   1.0000
     1.0000   1.0000   1.0000   1.0000   1.0000   1.0000   1.0000   1.0000
     1.0000   1.0000   1.0000   1.0000   1.0000   1.0000   1.0000   1.0000
     1.0000   0.0000   0.0000   0.0000   0.0000   0.0000   0.0000   0.0000
     0.0000   0.0000   0.0000   0.0000   0.0000   0.0000   0.0000   0.0000
     0.0000   0.0000   0.0000   0.0000   0.0000   0.0000   0.0000   0.0000
     0.0000   0.0000   0.0000   0.0000   0.0000   0.0000   0.0000   0.0000
     0.0000   0.0000   0.0000   0.0000   0.0000   0.0000   0.0000   0.0000
     0.0000   0.0000   0.0000   0.0000   0.0000   0.0000   0.0000   0.0000
     0.0000   0.0000   0.0000   0.0000   0.0000   0.0000   0.0000   0.0000
     0.0000   0.0000   0.0000   0.0000   0.0000   0.0000   0.0000   0.0000
     0.0000   0.0000   0.0000   0.0000   0.0000   0.0000   0.0000   0.0000
     0.0000   0.0000   0.0000   0.0000   0.0000   0.0000   0.0000   0.0000
     0.0000   0.0000   0.0000   0.0000   0.0000   0.0000   0.0000   0.0000
     0.0000   0.0000   0.0000   0.0000   0.0000   0.0000   0.0000   0.0000
     0.0000   0.0000   0.0000   0.0000   0.0000   0.0000   0.0000   0.0000
     0.0000   0.0000   0.0000   0.0000   0.0000   0.0000   0.0000   0.0000
     0.0000   0.0000   0.0000   0.0000   0.0000   0.0000   0.0000   0.0000
     0.0000   0.0000   0.0000   0.0000   0.0000   0.0000   0.0000   0.0000
     0.0000   0.0000   0.0000   0.0000   0.0000   0.0000   0.0000   0.0000
     0.0000   0.0000   0.0000   0.0000   0.0000   0.0000   0.0000   0.0000
     0.0000   0.0000   0.0000   0.0000   0.0000   0.0000   0.0000   0.0000
     0.0000   0.0000   0.0000   0.0000   0.0000   0.0000   0.0000   0.0000
     0.0000   0.0000   0.0000   0.0000   0.0000   0.0000   0.0000   0.0000
     0.0000   0.0000   0.0000   0.0000   0.0000   0.0000   0.0000   0.0000
     0.0000   0.0000   0.0000   0.0000   0.0000   0.0000   0.0000   0.0000
     0.0000   0.0000   0.0000   0.0000   0.0000   0.0000   0.0000   0.0000
     0.0000   0.0000   0.0000   0.0000   0.0000   0.0000   0.0000   0.0000

[...]

          k = 0.3333-0.2797-0.2845 (  3786 PWs)   bands (ev):

   -45.8616 -45.8613 -19.6860 -19.6518 -18.8693 -18.8161 -17.7903 -17.7859
   -17.7746 -17.7712 -17.6753 -17.6719 -15.6567 -15.6371 -15.6178 -15.5930
   -15.4549 -15.4062  -5.5604  -5.5068  -3.6260  -3.3908  -2.9019  -2.7361
    -2.5296  -2.3494  -2.0127  -1.4921  -1.0389  -0.7346  -0.4578  -0.2520
    -0.1320  -0.0786   0.3258   0.4370   0.5390   0.6731   0.8143   0.9027
     0.9538   1.0258   1.8196   1.9957   2.1548   2.1914   2.5674   2.6412
     2.7302   2.7939   2.8595   3.1136   3.1331   3.2501   3.4421   3.4660
     4.0136   4.3924   9.8779  10.7347  11.1969  11.5379  11.9089  12.1106
    12.2625  12.4193  12.5408  12.7263  13.0041  13.3150  13.5465  13.7661
    14.0135  14.4991  15.2793  15.5288  15.7190  16.0193  16.3219  16.6238
    17.3436  17.6266  18.0899  18.3396  18.9729  19.0634  19.2760  19.3560
    19.7051  20.1364  20.2279  20.5308  20.6102  20.9044  21.0011  21.2541
    21.7275  22.1927  22.7180  22.8414  23.2372  23.5855  23.8957  23.9740
    24.1711  24.3555  24.8705  25.4234  25.7158  26.0523  26.6111  27.1307
    27.3612  27.4567  27.6731  27.8859  28.0857  28.4444  28.6002  29.0954
    29.2452  29.4197  29.7989  30.1788  30.4925  30.6114  30.8629  31.6631
    31.6677  31.8772  32.0069  32.1791  32.2239  32.5022  32.7026  32.9226
    33.0030  33.4857  33.5508  33.8657  34.0919  34.4099  34.4677  34.5902
    34.8432  35.2493  35.4021  35.5771  35.6793  35.8988  36.0347  36.2794
    36.5034  36.8873  36.8913  37.3644  37.5167  37.8039  38.0149  38.2300
    38.2556  38.4419  38.5460  38.8045  39.0170  39.3517  39.5348  39.8564
    40.4339  40.6760  40.7357  40.8426  41.2087  41.4046  41.6275  41.6928
    42.0413  42.0986  42.1728  42.4265  42.7514  42.8212  43.0886  43.2364
    43.5148  43.7971  43.9660  44.0206  44.2709  44.4348  44.7375  45.0347
    45.1421  45.2531  45.6560  45.7734  46.0192  46.3358  46.3850  46.5470
    46.8328  46.9989  47.1952  47.3013  47.4865  47.7272  47.8840  48.1760
    48.2516  48.7317  48.9410  49.0724  49.2115  49.3575  49.6507  49.7015
    49.9007  50.3697  50.5212  50.6988  50.8879  51.1400  51.2387  51.3940
    51.7683  52.0696  52.3555  52.4330  52.6653  52.9817  53.0803  53.1965
    53.5322  53.6161  53.7564  53.9544  54.2597  54.5634  54.7766  54.9047
    55.0287  55.1187  55.3160  55.5520  55.6233  55.8472  56.0187  56.1210
    56.3903  56.7358  56.8277  56.8653  57.2487  57.4665  57.7224  57.7980

     occupation numbers
     1.0000   1.0000   1.0000   1.0000   1.0000   1.0000   1.0000   1.0000
     1.0000   1.0000   1.0000   1.0000   1.0000   1.0000   1.0000   1.0000
     1.0000   1.0000   1.0000   1.0000   1.0000   1.0000   1.0000   1.0000
     1.0000   1.0000   1.0000   1.0000   1.0000   1.0000   1.0000   1.0000
     1.0000   1.0000   1.0000   1.0000   1.0000   1.0000   1.0000   1.0000
     1.0000   1.0000   1.0000   1.0000   1.0000   1.0000   1.0000   1.0000
     1.0000   1.0000   1.0000   1.0000   1.0000   1.0000   1.0000   1.0000
     1.0000   0.0000   0.0000   0.0000   0.0000   0.0000   0.0000   0.0000
     0.0000   0.0000   0.0000   0.0000   0.0000   0.0000   0.0000   0.0000
     0.0000   0.0000   0.0000   0.0000   0.0000   0.0000   0.0000   0.0000
     0.0000   0.0000   0.0000   0.0000   0.0000   0.0000   0.0000   0.0000
     0.0000   0.0000   0.0000   0.0000   0.0000   0.0000   0.0000   0.0000
     0.0000   0.0000   0.0000   0.0000   0.0000   0.0000   0.0000   0.0000
     0.0000   0.0000   0.0000   0.0000   0.0000   0.0000   0.0000   0.0000
     0.0000   0.0000   0.0000   0.0000   0.0000   0.0000   0.0000   0.0000
     0.0000   0.0000   0.0000   0.0000   0.0000   0.0000   0.0000   0.0000
     0.0000   0.0000   0.0000   0.0000   0.0000   0.0000   0.0000   0.0000
     0.0000   0.0000   0.0000   0.0000   0.0000   0.0000   0.0000   0.0000
     0.0000   0.0000   0.0000   0.0000   0.0000   0.0000   0.0000   0.0000
     0.0000   0.0000   0.0000   0.0000   0.0000   0.0000   0.0000   0.0000
     0.0000   0.0000   0.0000   0.0000   0.0000   0.0000   0.0000   0.0000
     0.0000   0.0000   0.0000   0.0000   0.0000   0.0000   0.0000   0.0000
     0.0000   0.0000   0.0000   0.0000   0.0000   0.0000   0.0000   0.0000
     0.0000   0.0000   0.0000   0.0000   0.0000   0.0000   0.0000   0.0000
     0.0000   0.0000   0.0000   0.0000   0.0000   0.0000   0.0000   0.0000
     0.0000   0.0000   0.0000   0.0000   0.0000   0.0000   0.0000   0.0000
     0.0000   0.0000   0.0000   0.0000   0.0000   0.0000   0.0000   0.0000
     0.0000   0.0000   0.0000   0.0000   0.0000   0.0000   0.0000   0.0000
     0.0000   0.0000   0.0000   0.0000   0.0000   0.0000   0.0000   0.0000
     0.0000   0.0000   0.0000   0.0000   0.0000   0.0000   0.0000   0.0000
     0.0000   0.0000   0.0000   0.0000   0.0000   0.0000   0.0000   0.0000
     0.0000   0.0000   0.0000   0.0000   0.0000   0.0000   0.0000   0.0000

     highest occupied, lowest unoccupied level (ev):     4.0417    4.3815

!    total energy              =   -1095.30525568 Ry
     estimated scf accuracy    <       0.00000007 Ry

     The total energy is the sum of the following terms:
     one-electron contribution =    -440.34966638 Ry
     hartree contribution      =     294.59907069 Ry
     xc contribution           =    -213.82346517 Ry
     ewald contribution        =    -479.89044440 Ry
     one-center paw contrib.   =    -255.84075042 Ry
      -> PAW hartree energy AE =       0.00000000 Ry
      -> PAW hartree energy PS =       0.00000000 Ry
      -> PAW xc energy AE      =       0.00000000 Ry
      -> PAW xc energy PS      =       0.00000000 Ry
      -> total E_H with PAW    =     294.59907069 Ry
      -> total E_XC with PAW   =    -213.82346517 Ry

     convergence has been achieved in  13 iterations

     Writing all to output data dir bands_nm/myprefix.save/

     General routines

     Parallel routines

     PAW routines

   This run was terminated on:  21:20: 7  15Jul2023

   JOB DONE.