     Program PWSCF v.7.1 starts on 15Jul2023 at 21:57:42

     Reading input from espresso_22240.pwi
Warning: card &CELL ignored
Warning: card / ignored

     Current dimensions of program PWSCF are:
     Max number of different atomic species (ntypx) = 10
     Max number of k-points (npk) =  40000
     Max angular momentum in pseudopotentials (lmaxx) =  4
     file Pb.pbe-dn-kjpaw_psl.0.2.2.UPF: wavefunction(s)  6S renormalized
     file O.pbe-n-kjpaw_psl.0.1.UPF: wavefunction(s)  2P renormalized
     Message from routine setup:
     using ibrav=0 with symmetry is DISCOURAGED, use correct ibrav instead

     K-points division:     npool     =       2
     R & G space division:  proc/nbgrp/npool/nimage =       4
     Subspace diagonalization in iterative solution of the eigenvalue problem:
     one sub-group per band group will be used

     Using Slab Decomposition

     bravais-lattice index     =            0
     lattice parameter (alat)  =       7.0192  a.u.
     unit-cell volume          =    1863.8047 (a.u.)^3
     number of atoms/cell      =           18
     number of atomic types    =            3
     number of electrons       =       152.00
     number of Kohn-Sham states=          256
     kinetic-energy cutoff     =      30.0000  Ry
     charge density cutoff     =     240.0000  Ry
     scf convergence threshold =      1.0E-06
     mixing beta               =       0.7000
     number of iterations used =            8  plain     mixing
     Exchange-correlation= SLA  PW   PBX  PBC
                           (   1   4   3   4   0   0   0)

     celldm(1)=   7.019155  celldm(2)=   0.000000  celldm(3)=   0.000000
     celldm(4)=   0.000000  celldm(5)=   0.000000  celldm(6)=   0.000000

     crystal axes: (cart. coord. in units of alat)
               a(1) = (   1.000000   0.000000   0.000000 )
               a(2) = (  -0.500000   2.188087   0.000000 )
               a(3) = (   0.000000  -0.845350   2.463096 )

     reciprocal axes: (cart. coord. in units 2 pi/alat)
               b(1) = (  1.000000  0.228510  0.078426 )
               b(2) = (  0.000000  0.457020  0.156852 )
               b(3) = (  0.000000  0.000000  0.405993 )

     PseudoPot. # 1 for V  read from file:
     /lustre07/scratch/pragov/crystal_structure_design/utils/SSSP/v_pbe_v1.4.uspp.F.UPF
     MD5 check sum: 22b79981416ebb76fdaf5b1b8640f6fb
     Pseudo is Ultrasoft + core correction, Zval = 13.0
     Generated by new atomic code, or converted to UPF format
     Using radial grid of  853 points,  6 beta functions with:
                l(1) =   0
                l(2) =   0
                l(3) =   1
                l(4) =   1
                l(5) =   2
                l(6) =   2
     Q(r) pseudized with  8 coefficients,  rinner =    1.100   1.100   1.100
                                                       1.100   1.100

     PseudoPot. # 2 for Pb read from file:
     /lustre07/scratch/pragov/crystal_structure_design/utils/SSSP/Pb.pbe-dn-kjpaw_psl.0.2.2.UPF
     MD5 check sum: 9d431e6316058b74ade52399a6cf67da
     Pseudo is Projector augmented-wave + core cor, Zval = 14.0
     Generated using "atomic" code by A. Dal Corso  v.5.0.99 svn rev. 10869
     Shape of augmentation charge: PSQ
     Using radial grid of 1281 points,  6 beta functions with:
                l(1) =   0
                l(2) =   0
                l(3) =   1
                l(4) =   1
                l(5) =   2
                l(6) =   2
     Q(r) pseudized with 0 coefficients

     PseudoPot. # 3 for O  read from file:
     /lustre07/scratch/pragov/crystal_structure_design/utils/SSSP/O.pbe-n-kjpaw_psl.0.1.UPF
     MD5 check sum: 0234752ac141de4415c5fc33072bef88
     Pseudo is Projector augmented-wave + core cor, Zval =  6.0
     Generated using "atomic" code by A. Dal Corso  v.5.0.99 svn rev. 10869
     Shape of augmentation charge: BESSEL
     Using radial grid of 1095 points,  4 beta functions with:
                l(1) =   0
                l(2) =   0
                l(3) =   1
                l(4) =   1
     Q(r) pseudized with 0 coefficients

     atomic species   valence    mass     pseudopotential
        V             13.00    50.94150     V ( 1.00)
        Pb            14.00   207.20000     Pb( 1.00)
        O              6.00    15.99900     O ( 1.00)

      4 Sym. Ops., with inversion, found

                                    s                        frac. trans.

      isym =  1     identity

 cryst.   s( 1) = (     1          0          0      )
                  (     0          1          0      )
                  (     0          0          1      )

 cart.    s( 1) = (  1.0000000  0.0000000  0.0000000 )
                  (  0.0000000  1.0000000  0.0000000 )
                  (  0.0000000  0.0000000  1.0000000 )

      isym =  2     180 deg rotation - cart. axis [1,0,0]

[...]

      isym =  3     inversion

[...]

      isym =  4     inv. 180 deg rotation - cart. axis [1,0,0]

 cryst.   s( 4) = (    -1          0          0      )
                  (     1          1          0      )
                  (     0          0          1      )

 cart.    s( 4) = ( -1.0000000 -0.0000001 -0.0000000 )
                  (  0.0000000  1.0000000  0.0000000 )
                  (  0.0000000  0.0000000  1.0000000 )

   Cartesian axes

     site n.     atom                  positions (alat units)
         1           V   tau(   1) = (   0.5000005  -0.2823774   2.0734243  )
         2           V   tau(   2) = (  -0.0000006   1.6251142   0.3896716  )
         3           V   tau(   3) = (   0.4999999   1.1610921   0.8896998  )
         4           V   tau(   4) = (  -0.0000000   0.1816456   1.5733936  )
         5           Pb  tau(   5) = (   0.4999994   0.9892804   1.9019164  )
         6           Pb  tau(   6) = (   0.0000005   0.3534564   0.5611795  )
         7           O   tau(   7) = (   0.5000005   0.1225171   1.7136398  )
         8           O   tau(   8) = (  -0.0000006   1.2202189   0.7494585  )
         9           O   tau(   9) = (   0.4999999   1.5425165   0.5108165  )
        10           O   tau(  10) = (  -0.0000000  -0.1997796   1.9522794  )
        11           O   tau(  11) = (   0.5000000   0.6474781   0.0508974  )
        12           O   tau(  12) = (  -0.0000001   0.6952587   2.4121985  )
        13           O   tau(  13) = (  -0.0000000   0.0540253   1.1430464  )
        14           O   tau(  14) = (   0.4999999   1.2887107   1.3200519  )
        15           O   tau(  15) = (  -0.0000001   1.4479760   2.0141228  )
        16           O   tau(  16) = (   0.4999999   0.7000838   0.8673866  )
        17           O   tau(  17) = (   0.0000004   0.6426509   1.5957093  )
        18           O   tau(  18) = (   0.5000000  -0.1052383   0.4489707  )

   Crystallographic axes

     site n.     atom                  positions (cryst. coord.)
         1           V   tau(   1) = (  0.5980850  0.1961690  0.8417960  )
         2           V   tau(   2) = (  0.4019150  0.8038310  0.1582040  )
         3           V   tau(   3) = (  0.8350970  0.6701940  0.3612120  )
         4           V   tau(   4) = (  0.1649030  0.3298060  0.6387870  )
         5           Pb  tau(   5) = (  0.8752200  0.7504410  0.7721650  )
         6           Pb  tau(   6) = (  0.1247800  0.2495590  0.2278350  )
         7           O   tau(   7) = (  0.6623910  0.3247810  0.6957260  )
         8           O   tau(   8) = (  0.3376090  0.6752190  0.3042750  )
         9           O   tau(   9) = (  0.8925420  0.7850840  0.2073880  )
        10           O   tau(  10) = (  0.1074580  0.2149160  0.7926120  )
        11           O   tau(  11) = (  0.6519470  0.3038940  0.0206640  )
        12           O   tau(  12) = (  0.3480530  0.6961060  0.9793360  )
        13           O   tau(  13) = (  0.1019900  0.2039800  0.4640690  )
        14           O   tau(  14) = (  0.8980100  0.7960200  0.5359320  )
        15           O   tau(  15) = (  0.4888370  0.9776740  0.8177200  )
        16           O   tau(  16) = (  0.7280020  0.4560040  0.3521530  )
        17           O   tau(  17) = (  0.2719980  0.5439950  0.6478470  )
        18           O   tau(  18) = (  0.5111630  0.0223260  0.1822790  )

     number of k points=    10
                       cart. coord. in units 2pi/alat
        k(    1) = (   0.0000000   0.0000000   0.0000000), wk =   0.0740741
        k(    2) = (   0.0000000   0.0000000   0.1353310), wk =   0.1481481
        k(    3) = (   0.0000000   0.1523401   0.0522841), wk =   0.1481481
        k(    4) = (   0.0000000   0.1523401   0.1876151), wk =   0.1481481
        k(    5) = (   0.0000000   0.1523401  -0.0830470), wk =   0.1481481
        k(    6) = (   0.3333333   0.0761701   0.0261420), wk =   0.2962963
        k(    7) = (   0.3333333   0.0761701   0.1614731), wk =   0.2962963
        k(    8) = (   0.3333333   0.0761701  -0.1091890), wk =   0.2962963
        k(    9) = (   0.3333333   0.2285102   0.0784261), wk =   0.1481481
        k(   10) = (   0.3333333   0.2285102   0.2137572), wk =   0.2962963

                       cryst. coord.
        k(    1) = (   0.0000000   0.0000000   0.0000000), wk =   0.0740741
        k(    2) = (   0.0000000   0.0000000   0.3333333), wk =   0.1481481
        k(    3) = (   0.0000000   0.3333333   0.0000000), wk =   0.1481481
        k(    4) = (   0.0000000   0.3333333   0.3333333), wk =   0.1481481
        k(    5) = (   0.0000000   0.3333333  -0.3333333), wk =   0.1481481
        k(    6) = (   0.3333333   0.0000000   0.0000000), wk =   0.2962963
        k(    7) = (   0.3333333   0.0000000   0.3333333), wk =   0.2962963
        k(    8) = (   0.3333333   0.0000000  -0.3333333), wk =   0.2962963
        k(    9) = (   0.3333333   0.3333333   0.0000000), wk =   0.1481481
        k(   10) = (   0.3333333   0.3333333   0.3333333), wk =   0.2962963

     Check: negative core charge=   -0.000013

     Initial potential from superposition of free atoms

     starting charge     151.9904, renormalised to     152.0000

     negative rho (up, down):  2.419E-03 0.000E+00
     Starting wfcs are  106 randomized atomic wfcs +  150 random wfcs
     Checking if some PAW data can be deallocated...

     Self-consistent Calculation

     iteration #  1     ecut=    30.00 Ry     beta= 0.70
     Davidson diagonalization with overlap

     ethr =  1.00E-02,  avg # of iterations =  7.0

     negative rho (up, down):  1.033E-02 0.000E+00

     total energy              =   -2816.55468089 Ry
     estimated scf accuracy    <       8.43263381 Ry

[...]

     total energy              =   -2821.70243167 Ry
     estimated scf accuracy    <       0.00000237 Ry

     iteration # 14     ecut=    30.00 Ry     beta= 0.70
     Davidson diagonalization with overlap

     ethr =  1.56E-09,  avg # of iterations =  1.5

     negative rho (up, down):  5.964E-03 0.000E+00

     End of self-consistent calculation

          k = 0.0000 0.0000 0.0000 (  5145 PWs)   bands (ev):

   -59.4852 -59.4848 -59.4206 -59.4204 -33.4065 -33.4059 -33.3859 -33.3847
   -33.3279 -33.3263 -33.3104 -33.3096 -33.2772 -33.2767 -33.2500 -33.2498
   -13.0333 -12.9988 -11.9286 -11.9023 -11.8525 -11.7650 -11.6679 -11.6489
   -11.5812 -11.5556 -11.3360 -11.3309 -10.1840 -10.1791 -10.1273 -10.1270
   -10.1093 -10.1053 -10.0781 -10.0781  -9.8766  -9.8566  -1.7788  -1.7504
     0.1475   0.1551   0.5304   0.5500   0.8395   1.2643   1.3251   1.8890
     1.8949   1.9703   2.1444   2.2203   2.2686   2.2804   2.3135   2.3190
     2.6221   2.7084   2.7672   2.8425   2.8494   2.8757   3.2219   3.2322
     3.2778   3.2928   3.5090   3.5283   3.5418   3.5917   3.7362   4.0302
     4.1162   4.2898   4.3727   4.5248   7.0847   7.1237   7.5214   7.5408
     7.8580   8.1595   8.1749   8.1868   8.5579   8.5754   8.6991   8.7815
     8.8632   9.2563   9.3137   9.4534   9.4782   9.6464   9.6996   9.9674
    10.3548  10.5097  11.1692  11.2177  11.8403  13.1160  13.1454  13.7455
    14.5821  14.8410  15.5647  16.7061  16.8464  16.8843  17.2760  17.6076
    18.0890  18.4760  18.7028  19.1725  19.4714  19.5390  19.6347  20.0838
    20.2823  20.3603  20.5823  20.9661  21.2458  21.3220  21.4873  21.7176
    21.7928  22.6383  22.7316  22.7962  23.0480  23.1943  23.2685  23.5339
    23.6454  23.8425  24.0617  24.1360  24.4009  24.4222  24.6052  24.7000
    25.0410  25.2352  25.3203  25.7353  26.1850  26.3265  26.5231  26.6773
    26.6982  26.7987  26.9878  27.3253  27.4377  27.6187  27.6863  27.7695
    27.8638  28.2679  28.3748  28.6955  28.7667  28.7888  29.4907  29.8707
    29.8768  29.9313  30.3303  30.4681  30.5846  30.5883  30.7133  31.1475
    31.2945  31.3430  31.5021  31.6662  32.0431  32.0496  32.1463  32.5507
    32.7283  33.2886  33.3307  33.4495  33.5780  33.8156  33.8397  33.8657
    33.9895  34.3129  34.4299  34.6820  35.3270  35.4754  36.1143  36.3414
    36.5798  36.8536  37.0779  37.1381  37.1699  37.2609  37.4605  37.5313
    37.7406  38.1811  38.5597  38.5849  38.8414  38.8548  38.9564  39.1076
    39.3549  39.6721  39.7866  39.7961  39.8755  39.8847  39.9120  40.4296
    40.5815  40.6076  41.0980  41.2138  41.3547  41.4009  41.5287  41.9786
    42.3054  42.4493  42.4538  42.4621  42.5007  42.5093  42.8987  43.0266
    43.1616  43.2173  43.4627  43.5473  43.7748  43.7970  44.0427  44.1610
    44.1650  44.1771  44.4161  44.6116  44.7659  44.8668  44.9168  45.2048

     occupation numbers
     1.0000   1.0000   1.0000   1.0000   1.0000   1.0000   1.0000   1.0000
     1.0000   1.0000   1.0000   1.0000   1.0000   1.0000   1.0000   1.0000
     1.0000   1.0000   1.0000   1.0000   1.0000   1.0000   1.0000   1.0000
     1.0000   1.0000   1.0000   1.0000   1.0000   1.0000   1.0000   1.0000
     1.0000   1.0000   1.0000   1.0000   1.0000   1.0000   1.0000   1.0000
     1.0000   1.0000   1.0000   1.0000   1.0000   1.0000   1.0000   1.0000
     1.0000   1.0000   1.0000   1.0000   1.0000   1.0000   1.0000   1.0000
     1.0000   1.0000   1.0000   1.0000   1.0000   1.0000   1.0000   1.0000
     1.0000   1.0000   1.0000   1.0000   1.0000   1.0000   1.0000   1.0000
     1.0000   1.0000   1.0000   1.0000   0.0000   0.0000   0.0000   0.0000
     0.0000   0.0000   0.0000   0.0000   0.0000   0.0000   0.0000   0.0000
     0.0000   0.0000   0.0000   0.0000   0.0000   0.0000   0.0000   0.0000
     0.0000   0.0000   0.0000   0.0000   0.0000   0.0000   0.0000   0.0000
     0.0000   0.0000   0.0000   0.0000   0.0000   0.0000   0.0000   0.0000
     0.0000   0.0000   0.0000   0.0000   0.0000   0.0000   0.0000   0.0000
     0.0000   0.0000   0.0000   0.0000   0.0000   0.0000   0.0000   0.0000
     0.0000   0.0000   0.0000   0.0000   0.0000   0.0000   0.0000   0.0000
     0.0000   0.0000   0.0000   0.0000   0.0000   0.0000   0.0000   0.0000
     0.0000   0.0000   0.0000   0.0000   0.0000   0.0000   0.0000   0.0000
     0.0000   0.0000   0.0000   0.0000   0.0000   0.0000   0.0000   0.0000
     0.0000   0.0000   0.0000   0.0000   0.0000   0.0000   0.0000   0.0000
     0.0000   0.0000   0.0000   0.0000   0.0000   0.0000   0.0000   0.0000
     0.0000   0.0000   0.0000   0.0000   0.0000   0.0000   0.0000   0.0000
     0.0000   0.0000   0.0000   0.0000   0.0000   0.0000   0.0000   0.0000
     0.0000   0.0000   0.0000   0.0000   0.0000   0.0000   0.0000   0.0000
     0.0000   0.0000   0.0000   0.0000   0.0000   0.0000   0.0000   0.0000
     0.0000   0.0000   0.0000   0.0000   0.0000   0.0000   0.0000   0.0000
     0.0000   0.0000   0.0000   0.0000   0.0000   0.0000   0.0000   0.0000
     0.0000   0.0000   0.0000   0.0000   0.0000   0.0000   0.0000   0.0000
     0.0000   0.0000   0.0000   0.0000   0.0000   0.0000   0.0000   0.0000
     0.0000   0.0000   0.0000   0.0000   0.0000   0.0000   0.0000   0.0000
     0.0000   0.0000   0.0000   0.0000   0.0000   0.0000   0.0000   0.0000

[...]

          k = 0.3333 0.2285 0.2138 (  5179 PWs)   bands (ev):

   -59.4842 -59.4837 -59.4201 -59.4199 -33.4050 -33.4043 -33.3836 -33.3831
   -33.3554 -33.3550 -33.3268 -33.3259 -33.2723 -33.2719 -33.2683 -33.2680
   -12.5000 -12.4947 -11.8599 -11.8487 -11.8320 -11.7789 -11.7330 -11.6665
   -11.5915 -11.5633 -11.3585 -11.3152 -10.1297 -10.1271 -10.1146 -10.1133
   -10.0619 -10.0596  -9.9444  -9.9260  -9.8240  -9.8197  -1.6682  -1.6168
    -0.3237  -0.2868   0.6393   0.7045   1.0381   1.1236   1.1868   1.2746
     1.4135   1.4275   1.6431   1.7771   1.8131   1.8374   1.9003   2.0886
     2.1199   2.1878   2.2630   2.3509   2.6656   2.7726   2.9796   3.1414
     3.3122   3.3843   3.5858   3.6917   3.7763   3.8717   4.1153   4.1835
     4.2207   4.2968   4.5768   4.7993   7.0069   7.0508   7.2027   7.2649
     7.7109   7.7924   7.8165   7.9456   8.4919   8.5889   8.6381   8.8966
     9.2350   9.3587   9.4115   9.4793   9.8206   9.8460  10.4033  10.4771
    10.8425  11.2716  11.4351  11.5577  11.6409  11.6730  13.8427  14.5241
    15.1018  15.4896  16.2152  16.4216  16.6632  16.8065  16.9624  16.9860
    17.6092  17.6718  17.8988  18.4586  18.7628  19.0039  19.1138  19.6395
    19.9451  20.1683  20.6722  20.8433  21.0717  21.3832  21.5783  21.8198
    21.9915  22.2914  22.4585  22.7975  23.0012  23.1440  23.2333  23.5198
    23.7618  24.2514  24.3511  24.6121  24.6514  24.8246  25.0679  25.6108
    25.7033  26.1936  26.3279  26.6388  26.7041  26.9195  27.1274  27.1564
    27.4778  27.7498  27.8237  28.0473  28.1565  28.5465  28.6767  28.7591
    28.9179  29.0316  29.2758  29.3828  29.4541  29.8327  30.0104  30.2049
    30.4186  30.6465  30.7165  30.9352  31.1426  31.2430  31.3344  31.5077
    31.6994  31.7966  32.2309  32.2874  32.4560  32.6789  32.7284  32.8747
    33.0880  33.2857  33.5396  33.6542  33.7539  34.1648  34.2633  34.5955
    34.6813  34.7855  34.9589  35.0075  35.2011  35.3334  35.5267  35.8594
    36.1271  36.3187  36.3568  36.4700  36.6799  36.7705  36.9885  37.1793
    37.2547  37.6194  37.7942  38.0282  38.1293  38.2861  38.5763  38.6354
    38.8461  38.9535  39.0370  39.1563  39.3789  39.5145  39.7148  39.8721
    39.9798  40.1496  40.2542  40.4115  40.4443  40.7129  40.9900  41.0401
    41.1060  41.1605  41.4581  41.6169  41.7959  41.8938  42.1174  42.2923
    42.3789  42.5694  42.6937  42.8659  42.9883  43.0487  43.2527  43.3099
    43.3800  43.7438  43.8371  43.9168  44.1650  44.3420  44.4158  44.5868

     occupation numbers
     1.0000   1.0000   1.0000   1.0000   1.0000   1.0000   1.0000   1.0000
     1.0000   1.0000   1.0000   1.0000   1.0000   1.0000   1.0000   1.0000
     1.0000   1.0000   1.0000   1.0000   1.0000   1.0000   1.0000   1.0000
     1.0000   1.0000   1.0000   1.0000   1.0000   1.0000   1.0000   1.0000
     1.0000   1.0000   1.0000   1.0000   1.0000   1.0000   1.0000   1.0000
     1.0000   1.0000   1.0000   1.0000   1.0000   1.0000   1.0000   1.0000
     1.0000   1.0000   1.0000   1.0000   1.0000   1.0000   1.0000   1.0000
     1.0000   1.0000   1.0000   1.0000   1.0000   1.0000   1.0000   1.0000
     1.0000   1.0000   1.0000   1.0000   1.0000   1.0000   1.0000   1.0000
     1.0000   1.0000   1.0000   1.0000   0.0000   0.0000   0.0000   0.0000
     0.0000   0.0000   0.0000   0.0000   0.0000   0.0000   0.0000   0.0000
     0.0000   0.0000   0.0000   0.0000   0.0000   0.0000   0.0000   0.0000
     0.0000   0.0000   0.0000   0.0000   0.0000   0.0000   0.0000   0.0000
     0.0000   0.0000   0.0000   0.0000   0.0000   0.0000   0.0000   0.0000
     0.0000   0.0000   0.0000   0.0000   0.0000   0.0000   0.0000   0.0000
     0.0000   0.0000   0.0000   0.0000   0.0000   0.0000   0.0000   0.0000
     0.0000   0.0000   0.0000   0.0000   0.0000   0.0000   0.0000   0.0000
     0.0000   0.0000   0.0000   0.0000   0.0000   0.0000   0.0000   0.0000
     0.0000   0.0000   0.0000   0.0000   0.0000   0.0000   0.0000   0.0000
     0.0000   0.0000   0.0000   0.0000   0.0000   0.0000   0.0000   0.0000
     0.0000   0.0000   0.0000   0.0000   0.0000   0.0000   0.0000   0.0000
     0.0000   0.0000   0.0000   0.0000   0.0000   0.0000   0.0000   0.0000
     0.0000   0.0000   0.0000   0.0000   0.0000   0.0000   0.0000   0.0000
     0.0000   0.0000   0.0000   0.0000   0.0000   0.0000   0.0000   0.0000
     0.0000   0.0000   0.0000   0.0000   0.0000   0.0000   0.0000   0.0000
     0.0000   0.0000   0.0000   0.0000   0.0000   0.0000   0.0000   0.0000
     0.0000   0.0000   0.0000   0.0000   0.0000   0.0000   0.0000   0.0000
     0.0000   0.0000   0.0000   0.0000   0.0000   0.0000   0.0000   0.0000
     0.0000   0.0000   0.0000   0.0000   0.0000   0.0000   0.0000   0.0000
     0.0000   0.0000   0.0000   0.0000   0.0000   0.0000   0.0000   0.0000
     0.0000   0.0000   0.0000   0.0000   0.0000   0.0000   0.0000   0.0000
     0.0000   0.0000   0.0000   0.0000   0.0000   0.0000   0.0000   0.0000

     highest occupied, lowest unoccupied level (ev):     4.8503    7.0069

!    total energy              =   -2821.70243185 Ry
     estimated scf accuracy    <       0.00000037 Ry

     The total energy is the sum of the following terms:
     one-electron contribution =    -711.86460240 Ry
     hartree contribution      =     426.32085967 Ry
     xc contribution           =    -255.19385057 Ry
     ewald contribution        =    -709.63881739 Ry
     one-center paw contrib.   =   -1571.32602116 Ry
      -> PAW hartree energy AE =       0.00000000 Ry
      -> PAW hartree energy PS =       0.00000000 Ry
      -> PAW xc energy AE      =       0.00000000 Ry
      -> PAW xc energy PS      =       0.00000000 Ry
      -> total E_H with PAW    =     426.32085967 Ry
      -> total E_XC with PAW   =    -255.19385057 Ry

     convergence has been achieved in  14 iterations

     Writing all to output data dir bands_nm/myprefix.save/

     General routines

     Parallel routines

     PAW routines

   This run was terminated on:  21:59: 6  15Jul2023

   JOB DONE.