     Program PWSCF v.7.0 starts on  7Jun2023 at  5:56:12

     K-points division:     npool     =       2
     R & G space division:  proc/nbgrp/npool/nimage =       4

     Reading input from espresso_25081.pwi
Warning: card &CELL ignored
Warning: card / ignored

     Current dimensions of program PWSCF are:
     Max number of different atomic species (ntypx) = 10
     Max number of k-points (npk) =  40000
     Max angular momentum in pseudopotentials (lmaxx) =  4
     Message from routine setup:
     using ibrav=0 with symmetry is DISCOURAGED, use correct ibrav instead

     Using Slab Decomposition

     bravais-lattice index     =            0
     lattice parameter (alat)  =       6.4979  a.u.
     unit-cell volume          =    1683.6567 (a.u.)^3
     number of atoms/cell      =            6
     number of atomic types    =            3
     number of electrons       =        52.00
     number of Kohn-Sham states=           64
     kinetic-energy cutoff     =      30.0000  Ry
     charge density cutoff     =     240.0000  Ry
     scf convergence threshold =      1.0E-06
     mixing beta               =       0.7000
     number of iterations used =            8  plain     mixing
     Exchange-correlation= SLA  PW   PBE  PBE
                           (   1   4   3   4   0   0   0)

     celldm(1)=   6.497949  celldm(2)=   0.000000  celldm(3)=   0.000000
     celldm(4)=   0.000000  celldm(5)=   0.000000  celldm(6)=   0.000000

     crystal axes: (cart. coord. in units of alat)
               a(1) = (   1.000000   0.000000   0.000000 )
               a(2) = (  -0.500000   0.866025   0.000000 )
               a(3) = (   0.000000   0.000000   7.085885 )

     reciprocal axes: (cart. coord. in units 2 pi/alat)
               b(1) = (  1.000000  0.577350  0.000000 )
               b(2) = (  0.000000  1.154701  0.000000 )
               b(3) = (  0.000000  0.000000  0.141126 )

     PseudoPot. # 1 for Te read from file:
     /home/pragov/projects/rrg-bengioy-ad/pragov/crystal_structure_design/SSSP/Te_pbe_v1.uspp.F.UPF
     MD5 check sum: c319670d6894cc26e93307826a071b75
     Pseudo is Ultrasoft + core correction, Zval =  6.0
     Generated by new atomic code, or converted to UPF format
     Using radial grid of  891 points,  5 beta functions with:
                l(1) =   0
                l(2) =   0
                l(3) =   1
                l(4) =   1
                l(5) =   2
     Q(r) pseudized with  6 coefficients,  rinner =    1.800   1.800   1.800
                                                       1.800   1.800

     PseudoPot. # 2 for Mo read from file:
     /home/pragov/projects/rrg-bengioy-ad/pragov/crystal_structure_design/SSSP/Mo_ONCV_PBE-1.0.oncvpsp.upf
     MD5 check sum: 1b5d28e075c9ccadda658a603575cd1f
     Pseudo is Norm-conserving, Zval = 14.0
     Generated using ONCVPSP code by D. R. Hamann
     Using radial grid of 1526 points,  6 beta functions with:
                l(1) =   0
                l(2) =   0
                l(3) =   1
                l(4) =   1
                l(5) =   2
                l(6) =   2

     PseudoPot. # 3 for Se read from file:
     /home/pragov/projects/rrg-bengioy-ad/pragov/crystal_structure_design/SSSP/Se_pbe_v1.uspp.F.UPF
     MD5 check sum: 1b3568f3a8ae88f9a2a0ad0698632c85
     Pseudo is Ultrasoft + core correction, Zval =  6.0
     Generated by new atomic code, or converted to UPF format
     Using radial grid of  877 points,  6 beta functions with:
                l(1) =   0
                l(2) =   0
                l(3) =   1
                l(4) =   1
                l(5) =   2
                l(6) =   2
     Q(r) pseudized with  8 coefficients,  rinner =    1.300   1.300   1.300
                                                       1.300   1.300

     atomic species   valence    mass     pseudopotential
        Te             6.00   127.60000     Te( 1.00)
        Mo            14.00    95.95000     Mo( 1.00)
        Se             6.00    78.97100     Se( 1.00)

      6 Sym. Ops. (no inversion) found

                                    s                        frac. trans.

      isym =  1     identity

 cryst.   s( 1) = (     1          0          0      )
                  (     0          1          0      )
                  (     0          0          1      )

 cart.    s( 1) = (  1.0000000  0.0000000  0.0000000 )
                  (  0.0000000  1.0000000  0.0000000 )
                  (  0.0000000  0.0000000  1.0000000 )

      isym =  2     120 deg rotation - cryst. axis [0,0,1]

[...]

      isym =  3     120 deg rotation - cryst. axis [0,0,-1]

[...]

      isym =  4     inv. 180 deg rotation - cart. axis [1,0,0]

[...]

      isym =  5     inv. 180 deg rotation - cryst. axis [0,1,0]

[...]

      isym =  6     inv. 180 deg rotation - cryst. axis [1,1,0]

 cryst.   s( 6) = (     0         -1          0      )
                  (    -1          0          0      )
                  (     0          0          1      )

 cart.    s( 6) = (  0.5000001 -0.8660253  0.0000000 )
                  ( -0.8660253 -0.5000001  0.0000000 )
                  (  0.0000000  0.0000000  1.0000000 )

   Cartesian axes

     site n.     atom                  positions (alat units)
         1           Te  tau(   1) = (  -0.0000006   0.5773505   3.7385978  )
         2           Te  tau(   2) = (  -0.0000006   0.5773505   2.6586452  )
         3           Mo  tau(   3) = (  -0.0000006   0.5773505   1.0659296  )
         4           Mo  tau(   4) = (   0.5000005   0.2886748   3.1986817  )
         5           Se  tau(   5) = (   0.5000005   0.2886748   0.5901337  )
         6           Se  tau(   6) = (   0.5000005   0.2886748   1.5423066  )

   Crystallographic axes

     site n.     atom                  positions (cryst. coord.)
         1           Te  tau(   1) = (  0.3333330  0.6666670  0.5276120  )
         2           Te  tau(   2) = (  0.3333330  0.6666670  0.3752030  )
         3           Mo  tau(   3) = (  0.3333330  0.6666670  0.1504300  )
         4           Mo  tau(   4) = (  0.6666670  0.3333330  0.4514160  )
         5           Se  tau(   5) = (  0.6666670  0.3333330  0.0832830  )
         6           Se  tau(   6) = (  0.6666670  0.3333330  0.2176590  )

     number of k points=     7
                       cart. coord. in units 2pi/alat
        k(    1) = (   0.0000000   0.0000000   0.0000000), wk =   0.0740741
        k(    2) = (   0.0000000   0.0000000   0.0470419), wk =   0.1481481
        k(    3) = (   0.0000000   0.3849002   0.0000000), wk =   0.4444444
        k(    4) = (   0.0000000   0.3849002   0.0470419), wk =   0.4444444
        k(    5) = (   0.3333333   0.5773504   0.0000000), wk =   0.1481481
        k(    6) = (   0.3333333   0.5773504   0.0470419), wk =   0.2962963
        k(    7) = (   0.0000000  -0.3849002   0.0470419), wk =   0.4444444

                       cryst. coord.
        k(    1) = (   0.0000000   0.0000000   0.0000000), wk =   0.0740741
        k(    2) = (   0.0000000   0.0000000   0.3333333), wk =   0.1481481
        k(    3) = (   0.0000000   0.3333333   0.0000000), wk =   0.4444444
        k(    4) = (   0.0000000   0.3333333   0.3333333), wk =   0.4444444
        k(    5) = (   0.3333333   0.3333333   0.0000000), wk =   0.1481481
        k(    6) = (   0.3333333   0.3333333   0.3333333), wk =   0.2962963
        k(    7) = (   0.0000000  -0.3333333   0.3333333), wk =   0.4444444

     Initial potential from superposition of free atoms

     starting charge      51.9975, renormalised to      52.0000

     negative rho (up, down):  1.054E-04 0.000E+00
     Starting wfcs are   36 randomized atomic wfcs +   28 random wfcs

     Self-consistent Calculation

     iteration #  1     ecut=    30.00 Ry     beta= 0.70
     Davidson diagonalization with overlap

     ethr =  1.00E-02,  avg # of iterations =  8.4

     negative rho (up, down):  3.893E-06 0.000E+00

     total energy              =    -413.89584606 Ry
     estimated scf accuracy    <       1.11596709 Ry

[...]

     total energy              =    -414.68600161 Ry
     estimated scf accuracy    <       0.00004264 Ry

     iteration # 14     ecut=    30.00 Ry     beta= 0.70
     Davidson diagonalization with overlap

     ethr =  7.71E-08,  avg # of iterations =  1.0

     negative rho (up, down):  4.172E-05 0.000E+00

     End of self-consistent calculation

          k = 0.0000 0.0000 0.0000 (  4701 PWs)   bands (ev):

   -58.0805 -57.0159 -32.2022 -32.0593 -32.0593 -31.2945 -30.9724 -30.9724
   -11.1100 -10.1016  -9.4570  -8.6289  -2.3421  -1.6858   0.5410   0.5410
     0.9316   1.4469   1.4470   1.6635   2.1837   2.1837   2.6688   2.9015
     2.9015   3.0385   5.3291   5.3292   5.6133   5.6134   6.8761   6.8761
     7.1117   7.1118   7.4146   7.6637   8.1471   9.0700   9.8249  10.4962
    10.6648  10.8831  11.9985  12.6747  12.9996  12.9996  13.2004  13.2004
    13.6946  14.6281  14.6767  14.6767  15.0923  15.3885  15.3885  15.7775
    16.2594  16.7981  16.9342  17.8997  18.2315  18.2315  18.5192  18.5192

     occupation numbers
     1.0000   1.0000   1.0000   1.0000   1.0000   1.0000   1.0000   1.0000
     1.0000   1.0000   1.0000   1.0000   1.0000   1.0000   1.0000   1.0000
     1.0000   1.0000   1.0000   1.0000   1.0000   1.0000   1.0000   1.0000
     1.0000   1.0000   0.0000   0.0000   0.0000   0.0000   0.0000   0.0000
     0.0000   0.0000   0.0000   0.0000   0.0000   0.0000   0.0000   0.0000
     0.0000   0.0000   0.0000   0.0000   0.0000   0.0000   0.0000   0.0000
     0.0000   0.0000   0.0000   0.0000   0.0000   0.0000   0.0000   0.0000
     0.0000   0.0000   0.0000   0.0000   0.0000   0.0000   0.0000   0.0000

[...]

          k = 0.0000-0.3849 0.0470 (  4660 PWs)   bands (ev):

   -58.0704 -57.0058 -32.1836 -32.1766 -32.0882 -31.2688 -31.0950 -31.0013
   -10.1189  -9.5939  -7.9645  -7.5406  -1.8881  -1.0699  -0.9663  -0.9315
    -0.4312  -0.0859   0.2927   1.3427   1.4813   1.6569   1.7451   2.0049
     2.4865   3.1828   4.6062   4.6852   4.9761   5.5179   5.5887   6.2652
     6.3871   7.2266   9.0876   9.1825   9.3275   9.6424   9.9254  10.2342
    10.5022  10.8016  11.2224  11.5601  12.1055  12.6507  13.7097  13.8395
    13.9881  14.4221  14.5000  14.9795  15.0941  15.6755  16.1620  16.5332
    16.6392  16.9258  17.0477  17.3402  17.4566  17.8750  17.9665  18.3891

     occupation numbers
     1.0000   1.0000   1.0000   1.0000   1.0000   1.0000   1.0000   1.0000
     1.0000   1.0000   1.0000   1.0000   1.0000   1.0000   1.0000   1.0000
     1.0000   1.0000   1.0000   1.0000   1.0000   1.0000   1.0000   1.0000
     1.0000   1.0000   0.0000   0.0000   0.0000   0.0000   0.0000   0.0000
     0.0000   0.0000   0.0000   0.0000   0.0000   0.0000   0.0000   0.0000
     0.0000   0.0000   0.0000   0.0000   0.0000   0.0000   0.0000   0.0000
     0.0000   0.0000   0.0000   0.0000   0.0000   0.0000   0.0000   0.0000
     0.0000   0.0000   0.0000   0.0000   0.0000   0.0000   0.0000   0.0000

     highest occupied, lowest unoccupied level (ev):     3.6548    3.9219

!    total energy              =    -414.68600697 Ry
     estimated scf accuracy    <       0.00000013 Ry

     The total energy is the sum of the following terms:
     one-electron contribution =   -1640.65144316 Ry
     hartree contribution      =     828.05344036 Ry
     xc contribution           =    -119.65715880 Ry
     ewald contribution        =     517.56915463 Ry

     convergence has been achieved in  14 iterations

     Writing all to output data dir calculations_bands/myprefix.save/

     General routines

     Parallel routines

   This run was terminated on:   5:56:25   7Jun2023

   JOB DONE.