     Program PWSCF v.7.0 starts on  7Jun2023 at  1:36:26

     K-points division:     npool     =       2
     R & G space division:  proc/nbgrp/npool/nimage =       4

     Reading input from espresso_1148.pwi
Warning: card &CELL ignored
Warning: card / ignored

     Current dimensions of program PWSCF are:
     Max number of different atomic species (ntypx) = 10
     Max number of k-points (npk) =  40000
     Max angular momentum in pseudopotentials (lmaxx) =  4
     file Mg.pbe-n-kjpaw_psl.0.3.0.UPF: wavefunction(s)  3S renormalized
     file In.pbe-dn-rrkjus_psl.0.2.2.UPF: wavefunction(s)  5S renormalized
     file Ga.pbe-dn-kjpaw_psl.1.0.0.UPF: wavefunction(s)  4S renormalized
     file O.pbe-n-kjpaw_psl.0.1.UPF: wavefunction(s)  2P renormalized
     Message from routine setup:
     using ibrav=0 with symmetry is DISCOURAGED, use correct ibrav instead

     Using Slab Decomposition

     bravais-lattice index     =            0
     lattice parameter (alat)  =       6.3981  a.u.
     unit-cell volume          =     570.3704 (a.u.)^3
     number of atoms/cell      =            7
     number of atomic types    =            4
     number of electrons       =        52.00
     number of Kohn-Sham states=           64
     kinetic-energy cutoff     =      30.0000  Ry
     charge density cutoff     =     240.0000  Ry
     scf convergence threshold =      1.0E-06
     mixing beta               =       0.7000
     number of iterations used =            8  plain     mixing
     Exchange-correlation= SLA  PW   PBX  PBC
                           (   1   4   3   4   0   0   0)

     celldm(1)=   6.398127  celldm(2)=   0.000000  celldm(3)=   0.000000
     celldm(4)=   0.000000  celldm(5)=   0.000000  celldm(6)=   0.000000

     crystal axes: (cart. coord. in units of alat)
               a(1) = (   1.000000   0.000000   0.000000 )
               a(2) = (  -0.500000   0.866026   0.000000 )
               a(3) = (  -0.500000   0.288675   2.514592 )

     reciprocal axes: (cart. coord. in units 2 pi/alat)
               b(1) = (  1.000000  0.577350  0.132560 )
               b(2) = (  0.000000  1.154700 -0.132560 )
               b(3) = (  0.000000  0.000000  0.397679 )

     PseudoPot. # 1 for Mg read from file:
     /home/pragov/projects/rrg-bengioy-ad/pragov/crystal_structure_design/SSSP/Mg.pbe-n-kjpaw_psl.0.3.0.UPF
     MD5 check sum: 24ecedc7f3e3cbe212e682f4413594e4
     Pseudo is Projector augmented-wave + core cor, Zval =  2.0
     Generated using "atomic" code by A. Dal Corso  v.5.0.99 svn rev. 10869
     Shape of augmentation charge: PSQ
     Using radial grid of 1129 points,  4 beta functions with:
                l(1) =   0
                l(2) =   0
                l(3) =   1
                l(4) =   1
     Q(r) pseudized with 0 coefficients

     PseudoPot. # 2 for In read from file:
     /home/pragov/projects/rrg-bengioy-ad/pragov/crystal_structure_design/SSSP/In.pbe-dn-rrkjus_psl.0.2.2.UPF
     MD5 check sum: 25e7c42c3b55b68f4bf926be2e7201a4
     Pseudo is Ultrasoft + core correction, Zval = 13.0
     Generated using "atomic" code by A. Dal Corso  v.5.0.99 svn rev. 10869
     Using radial grid of 1241 points,  6 beta functions with:
                l(1) =   0
                l(2) =   0
                l(3) =   1
                l(4) =   1
                l(5) =   2
                l(6) =   2
     Q(r) pseudized with 0 coefficients

     PseudoPot. # 3 for Ga read from file:
     /home/pragov/projects/rrg-bengioy-ad/pragov/crystal_structure_design/SSSP/Ga.pbe-dn-kjpaw_psl.1.0.0.UPF
     MD5 check sum: a27b4342b1af7e5f338de752e9ed7044
     Pseudo is Projector augmented-wave + core cor, Zval = 13.0
     Generated using "atomic" code by A. Dal Corso  v.5.1
     Shape of augmentation charge: PSQ
     Using radial grid of 1205 points,  6 beta functions with:
                l(1) =   0
                l(2) =   0
                l(3) =   1
                l(4) =   1
                l(5) =   2
                l(6) =   2
     Q(r) pseudized with 0 coefficients

     PseudoPot. # 4 for O  read from file:
     /home/pragov/projects/rrg-bengioy-ad/pragov/crystal_structure_design/SSSP/O.pbe-n-kjpaw_psl.0.1.UPF
     MD5 check sum: 0234752ac141de4415c5fc33072bef88
     Pseudo is Projector augmented-wave + core cor, Zval =  6.0
     Generated using "atomic" code by A. Dal Corso  v.5.0.99 svn rev. 10869
     Shape of augmentation charge: BESSEL
     Using radial grid of 1095 points,  4 beta functions with:
                l(1) =   0
                l(2) =   0
                l(3) =   1
                l(4) =   1
     Q(r) pseudized with 0 coefficients

     atomic species   valence    mass     pseudopotential
        Mg             2.00    24.30500     Mg( 1.00)
        In            13.00   114.81800     In( 1.00)
        Ga            13.00    69.72300     Ga( 1.00)
        O              6.00    15.99900     O ( 1.00)

      6 Sym. Ops. (no inversion) found

                                    s                        frac. trans.

      isym =  1     identity

 cryst.   s( 1) = (     1          0          0      )
                  (     0          1          0      )
                  (     0          0          1      )

 cart.    s( 1) = (  1.0000000  0.0000000  0.0000000 )
                  (  0.0000000  1.0000000  0.0000000 )
                  (  0.0000000  0.0000000  1.0000000 )

      isym =  2     120 deg rotation - cryst. axis [0,0,1]

[...]

      isym =  3     120 deg rotation - cryst. axis [0,0,-1]

[...]

      isym =  4     inv. 180 deg rotation - cart. axis [1,0,0]

[...]

      isym =  5     inv. 180 deg rotation - cryst. axis [0,1,0]

[...]

      isym =  6     inv. 180 deg rotation - cryst. axis [1,1,0]

 cryst.   s( 6) = (     0         -1          0      )
                  (    -1          0          0      )
                  (     0          0          1      )

 cart.    s( 6) = (  0.4999999 -0.8660252 -0.0000000 )
                  ( -0.8660257 -0.4999999 -0.0000001 )
                  (  0.0000000  0.0000000  1.0000000 )

   Cartesian axes

     site n.     atom                  positions (alat units)
         1           Mg  tau(   1) = (   0.5000001   0.2886752   0.8925670  )
         2           In  tau(   2) = (   0.5000001   0.2886751   2.5022957  )
         3           Ga  tau(   3) = (  -0.5000004   0.8660259   1.6012444  )
         4           O   tau(   4) = (   0.5000001   0.2886751   1.5739586  )
         5           O   tau(   5) = (  -0.4999994   0.8660253   1.0169739  )
         6           O   tau(   6) = (   0.4999995   0.2886755   0.2953212  )
         7           O   tau(   7) = (  -0.4999998   0.8660256   2.1760098  )

   Crystallographic axes

     site n.     atom                  positions (cryst. coord.)
         1           Mg  tau(   1) = (  0.7849850  0.2150150  0.3549550  )
         2           In  tau(   2) = (  0.9983700  0.0016300  0.9951100  )
         3           Ga  tau(   3) = (  0.2122600  0.7877400  0.6367810  )
         4           O   tau(   4) = (  0.8753100  0.1246900  0.6259300  )
         5           O   tau(   5) = (  0.1348100  0.8651900  0.4044290  )
         6           O   tau(   6) = (  0.7058140  0.2941860  0.1174430  )
         7           O   tau(   7) = (  0.2884510  0.7115490  0.8653530  )

     number of k points=     6
                       cart. coord. in units 2pi/alat
        k(    1) = (   0.0000000   0.0000000   0.0000000), wk =   0.0740741
        k(    2) = (   0.0000000   0.0000000   0.1325596), wk =   0.1481481
        k(    3) = (   0.0000000   0.3849000  -0.0441865), wk =   0.4444444
        k(    4) = (   0.0000000   0.3849000   0.0883731), wk =   0.4444444
        k(    5) = (   0.0000000   0.3849000  -0.1767461), wk =   0.4444444
        k(    6) = (   0.3333333   0.5773500   0.0000000), wk =   0.4444444

                       cryst. coord.
        k(    1) = (   0.0000000   0.0000000   0.0000000), wk =   0.0740741
        k(    2) = (   0.0000000   0.0000000   0.3333333), wk =   0.1481481
        k(    3) = (   0.0000000   0.3333333   0.0000000), wk =   0.4444444
        k(    4) = (   0.0000000   0.3333333   0.3333333), wk =   0.4444444
        k(    5) = (   0.0000000   0.3333333  -0.3333333), wk =   0.4444444
        k(    6) = (   0.3333333   0.3333333   0.0000000), wk =   0.4444444

     Check: negative core charge=   -0.000007

     Initial potential from superposition of free atoms

     starting charge      51.9924, renormalised to      52.0000
     Starting wfcs are   38 randomized atomic wfcs +   26 random wfcs
     Checking if some PAW data can be deallocated...

     Self-consistent Calculation

     iteration #  1     ecut=    30.00 Ry     beta= 0.70
     Davidson diagonalization with overlap

     ethr =  1.00E-02,  avg # of iterations =  6.2

     total energy              =    -622.34409901 Ry
     estimated scf accuracy    <       1.63573544 Ry

[...]

     total energy              =    -623.11086425 Ry
     estimated scf accuracy    <       0.00000111 Ry

     iteration # 10     ecut=    30.00 Ry     beta= 0.70
     Davidson diagonalization with overlap

     ethr =  2.13E-09,  avg # of iterations =  2.0

     End of self-consistent calculation

          k = 0.0000 0.0000 0.0000 (  1607 PWs)   bands (ev):

   -11.5095 -10.5516  -9.7311  -9.4738  -6.7097  -6.7097  -6.3816  -6.3816
    -5.8890  -5.6409  -5.6409  -5.4888  -5.3385  -5.3385   2.2906   3.6471
     4.1163   4.7200   4.7201   5.7342   5.7342   6.0367   6.0367   6.3506
     6.3506   6.3848   8.3792  11.4147  12.5537  13.8875  17.1052  17.1053
    18.6534  18.9024  18.9024  19.8774  21.1831  21.1831  22.2262  23.5089
    23.5089  23.5796  24.3333  25.9031  26.0641  26.0641  26.9079  26.9079
    27.7742  28.9599  28.9599  30.2047  30.5440  30.5440  32.0293  32.7765
    32.7765  34.2873  35.0105  35.0106  35.8248  35.8592  35.8592  36.9886

     occupation numbers
     1.0000   1.0000   1.0000   1.0000   1.0000   1.0000   1.0000   1.0000
     1.0000   1.0000   1.0000   1.0000   1.0000   1.0000   1.0000   1.0000
     1.0000   1.0000   1.0000   1.0000   1.0000   1.0000   1.0000   1.0000
     1.0000   1.0000   0.0000   0.0000   0.0000   0.0000   0.0000   0.0000
     0.0000   0.0000   0.0000   0.0000   0.0000   0.0000   0.0000   0.0000
     0.0000   0.0000   0.0000   0.0000   0.0000   0.0000   0.0000   0.0000
     0.0000   0.0000   0.0000   0.0000   0.0000   0.0000   0.0000   0.0000
     0.0000   0.0000   0.0000   0.0000   0.0000   0.0000   0.0000   0.0000

[...]

          k = 0.3333 0.5774 0.0000 (  1578 PWs)   bands (ev):

   -10.7084 -10.2525  -9.7445  -9.4383  -6.5238  -6.4514  -6.4195  -6.3116
    -5.9764  -5.4139  -5.4102  -5.3308  -4.9783  -4.8671   0.6708   1.8055
     2.1527   3.5310   3.7058   4.1210   4.5631   4.8974   5.4632   5.9938
     6.3932   6.7077  13.1560  14.2013  15.1684  15.6210  16.2629  16.4744
    16.8293  17.2307  17.8043  19.0316  19.5993  20.6465  21.5746  22.2680
    23.4275  23.8814  25.3724  25.7593  27.2379  27.8248  28.8640  29.0836
    31.0066  31.3707  31.8683  32.1437  32.4110  32.9977  33.4478  34.0070
    34.8406  34.8757  36.6615  37.3445  37.3992  37.7943  38.8732  39.0950

     occupation numbers
     1.0000   1.0000   1.0000   1.0000   1.0000   1.0000   1.0000   1.0000
     1.0000   1.0000   1.0000   1.0000   1.0000   1.0000   1.0000   1.0000
     1.0000   1.0000   1.0000   1.0000   1.0000   1.0000   1.0000   1.0000
     1.0000   1.0000   0.0000   0.0000   0.0000   0.0000   0.0000   0.0000
     0.0000   0.0000   0.0000   0.0000   0.0000   0.0000   0.0000   0.0000
     0.0000   0.0000   0.0000   0.0000   0.0000   0.0000   0.0000   0.0000
     0.0000   0.0000   0.0000   0.0000   0.0000   0.0000   0.0000   0.0000
     0.0000   0.0000   0.0000   0.0000   0.0000   0.0000   0.0000   0.0000

     highest occupied, lowest unoccupied level (ev):     6.7077    8.3792

!    total energy              =    -623.11086444 Ry
     estimated scf accuracy    <       0.00000002 Ry

     The total energy is the sum of the following terms:
     one-electron contribution =    -237.92465193 Ry
     hartree contribution      =     163.55214525 Ry
     xc contribution           =    -117.67320510 Ry
     ewald contribution        =    -250.65916741 Ry
     one-center paw contrib.   =    -180.40598525 Ry
      -> PAW hartree energy AE =       1.08819931 Ry
      -> PAW hartree energy PS =      -1.08652028 Ry
      -> PAW xc energy AE      =     -32.75431276 Ry
      -> PAW xc energy PS      =       1.45491661 Ry
      -> total E_H with PAW    =     163.55382428 Ry
      -> total E_XC with PAW   =    -148.97260125 Ry

     convergence has been achieved in  10 iterations

     Writing all to output data dir calculations_bands/myprefix.save/

     General routines

     Parallel routines

     PAW routines

   This run was terminated on:   1:36:37   7Jun2023

   JOB DONE.