     Program PWSCF v.7.0 starts on 23Jun2023 at  5:27: 0

     K-points division:     npool     =       2
     R & G space division:  proc/nbgrp/npool/nimage =       4

     Reading input from espresso_272.pwi
Warning: card &CELL ignored
Warning: card / ignored

     Current dimensions of program PWSCF are:
     Max number of different atomic species (ntypx) = 10
     Max number of k-points (npk) =  40000
     Max angular momentum in pseudopotentials (lmaxx) =  4
     file O.pbe-n-kjpaw_psl.0.1.UPF: wavefunction(s)  2P renormalized

     Using Slab Decomposition

     bravais-lattice index     =            0
     lattice parameter (alat)  =      31.9377  a.u.
     unit-cell volume          =    1669.8227 (a.u.)^3
     number of atoms/cell      =           19
     number of atomic types    =            4
     number of electrons       =       160.00
     number of Kohn-Sham states=           90
     kinetic-energy cutoff     =      30.0000  Ry
     charge density cutoff     =     240.0000  Ry
     scf convergence threshold =      1.0E-06
     mixing beta               =       0.7000
     number of iterations used =            8  plain     mixing
     Exchange-correlation= SLA  PW   PBX  PBC
                           (   1   4   3   4   0   0   0)

     celldm(1)=  31.937665  celldm(2)=   0.000000  celldm(3)=   0.000000
     celldm(4)=   0.000000  celldm(5)=   0.000000  celldm(6)=   0.000000

     crystal axes: (cart. coord. in units of alat)
               a(1) = (   1.000000   0.000000   0.000000 )
               a(2) = (   0.973996   0.226410   0.000000 )
               a(3) = (   0.026004   0.002674   0.226394 )

     reciprocal axes: (cart. coord. in units 2 pi/alat)
               b(1) = (  1.000000 -4.301912 -0.064054 )
               b(2) = (  0.000000  4.416766 -0.052165 )
               b(3) = (  0.000000  0.000000  4.417074 )

     PseudoPot. # 1 for La read from file:
     /home/pragov/projects/rrg-bengioy-ad/pragov/crystal_structure_design/SSSP/La.GGA-PBE-paw-v1.0.UPF
     MD5 check sum: 436541e95c1ad8901025bd0b0ed42ae2
     Pseudo is Projector augmented-wave + core cor, Zval = 11.0
     Generated using ATOMPAW code
     Shape of augmentation charge: BESSEL
     Using radial grid of 1101 points,  8 beta functions with:
                l(1) =   0
                l(2) =   0
                l(3) =   1
                l(4) =   1
                l(5) =   2
                l(6) =   2
                l(7) =   3
                l(8) =   3
     Q(r) pseudized with 0 coefficients

     PseudoPot. # 2 for Ti read from file:
     /home/pragov/projects/rrg-bengioy-ad/pragov/crystal_structure_design/SSSP/ti_pbe_v1.4.uspp.F.UPF
     MD5 check sum: 88a00a6731bd790ddea75d31a80cb452
     Pseudo is Ultrasoft + core correction, Zval = 12.0
     Generated by new atomic code, or converted to UPF format
     Using radial grid of  851 points,  6 beta functions with:
                l(1) =   0
                l(2) =   0
                l(3) =   1
                l(4) =   1
                l(5) =   2
                l(6) =   2
     Q(r) pseudized with  6 coefficients,  rinner =    1.000   1.000   1.000
                                                       1.000   1.000

     PseudoPot. # 3 for Bi read from file:
     /home/pragov/projects/rrg-bengioy-ad/pragov/crystal_structure_design/SSSP/Bi_pbe_v1.uspp.F.UPF
     MD5 check sum: cceb9f28ec65b6d7ff33140f5b0b1758
     Pseudo is Ultrasoft + core correction, Zval = 15.0
     Generated by new atomic code, or converted to UPF format
     Using radial grid of  899 points,  6 beta functions with:
                l(1) =   0
                l(2) =   0
                l(3) =   1
                l(4) =   1
                l(5) =   2
                l(6) =   2
     Q(r) pseudized with  6 coefficients,  rinner =    1.000   1.000   1.000
                                                       1.000   1.000

     PseudoPot. # 4 for O  read from file:
     /home/pragov/projects/rrg-bengioy-ad/pragov/crystal_structure_design/SSSP/O.pbe-n-kjpaw_psl.0.1.UPF
     MD5 check sum: 0234752ac141de4415c5fc33072bef88
     Pseudo is Projector augmented-wave + core cor, Zval =  6.0
     Generated using "atomic" code by A. Dal Corso  v.5.0.99 svn rev. 10869
     Shape of augmentation charge: BESSEL
     Using radial grid of 1095 points,  4 beta functions with:
                l(1) =   0
                l(2) =   0
                l(3) =   1
                l(4) =   1
     Q(r) pseudized with 0 coefficients

     atomic species   valence    mass     pseudopotential
        La            11.00   138.90547     La( 1.00)
        Ti            12.00    47.86700     Ti( 1.00)
        Bi            15.00   208.98040     Bi( 1.00)
        O              6.00    15.99900     O ( 1.00)

     No symmetry found

                                    s                        frac. trans.

      isym =  1     identity

 cryst.   s( 1) = (     1          0          0      )
                  (     0          1          0      )
                  (     0          0          1      )

 cart.    s( 1) = (  1.0000000 -0.0000000 -0.0000000 )
                  (  0.0000000  1.0000000 -0.0000000 )
                  (  0.0000000  0.0000000  1.0000000 )

   Cartesian axes

     site n.     atom                  positions (alat units)
         1           La  tau(   1) = (   1.1289999   0.1302480   0.0990841  )
         2           La  tau(   2) = (   0.8710001   0.1006154   0.1290687  )
         3           Ti  tau(   3) = (   1.0000000   0.2279039   0.2252280  )
         4           Ti  tau(   4) = (   1.7231928   0.1976990   0.0292420  )
         5           Ti  tau(   5) = (   0.2768072   0.0315748   0.1973399  )
         6           Bi  tau(   6) = (   1.4122505   0.1619084   0.0653030  )
         7           Bi  tau(   7) = (   0.5877495   0.0672105   0.1611259  )
         8           O   tau(   8) = (   1.7608572   0.2016365   0.1394618  )
         9           O   tau(   9) = (   0.7608305   0.0872097   0.0261481  )
        10           O   tau(  10) = (   0.2391695   0.0271762   0.0868948  )
        11           O   tau(  11) = (   1.2391428   0.1418334   0.1999754  )
        12           O   tau(  12) = (   1.8594538   0.2127354   0.0127992  )
        13           O   tau(  13) = (   0.1405462   0.0153107   0.2125694  )
        14           O   tau(  14) = (   1.5000000   0.1718269   0.1698095  )
        15           O   tau(  15) = (   0.5000000   0.0572849   0.0566124  )
        16           O   tau(  16) = (   1.6184737   0.1856043   0.0413459  )
        17           O   tau(  17) = (   0.3815263   0.0435350   0.1851031  )
        18           O   tau(  18) = (   0.9877165   0.2176600   0.1094120  )
        19           O   tau(  19) = (   1.0122835   0.1119749   0.2163527  )

   Crystallographic axes

     site n.     atom                  positions (cryst. coord.)
         1           La  tau(   1) = (  0.5623380  0.5701060  0.4376620  )
         2           La  tau(   2) = (  0.4298940  0.4376620  0.5701060  )
         3           Ti  tau(   3) = (  0.0051510  0.9948490  0.9948490  )
         4           Ti  tau(   4) = (  0.8708360  0.8716650  0.1291640  )
         5           Ti  tau(   5) = (  0.1283350  0.1291640  0.8716650  )
         6           Bi  tau(   6) = (  0.7115520  0.7117050  0.2884480  )
         7           Bi  tau(   7) = (  0.2882950  0.2884480  0.7117050  )
         8           O   tau(   8) = (  0.8845020  0.8833060  0.6160130  )
         9           O   tau(   9) = (  0.3839870  0.3838210  0.1154980  )
        10           O   tau(  10) = (  0.1166940  0.1154980  0.3838210  )
        11           O   tau(  11) = (  0.6161790  0.6160130  0.8833060  )
        12           O   tau(  12) = (  0.9434650  0.9389350  0.0565350  )
        13           O   tau(  13) = (  0.0610650  0.0565350  0.9389350  )
        14           O   tau(  14) = (  0.7499390  0.7500610  0.7500610  )
        15           O   tau(  15) = (  0.2499390  0.2500610  0.2500610  )
        16           O   tau(  16) = (  0.8173720  0.8176140  0.1826280  )
        17           O   tau(  17) = (  0.1823860  0.1826280  0.8176140  )
        18           O   tau(  18) = (  0.0443540  0.9556460  0.4832810  )
        19           O   tau(  19) = (  0.5167190  0.4832810  0.9556460  )

     number of k points=    14
                       cart. coord. in units 2pi/alat
        k(    1) = (   0.0000000   0.0000000   0.0000000), wk =   0.0740741
        k(    2) = (   0.0000000   0.0000000   1.4723581), wk =   0.1481481
        k(    3) = (   0.0000000   1.4722554  -0.0173885), wk =   0.1481481
        k(    4) = (   0.0000000   1.4722554   1.4549696), wk =   0.1481481
        k(    5) = (   0.0000000   1.4722554  -1.4897466), wk =   0.1481481
        k(    6) = (   0.3333333  -1.4339705  -0.0213513), wk =   0.1481481
        k(    7) = (   0.3333333  -1.4339705   1.4510068), wk =   0.1481481
        k(    8) = (   0.3333333  -1.4339705  -1.4937094), wk =   0.1481481
        k(    9) = (   0.3333333   0.0382849  -0.0387398), wk =   0.1481481
        k(   10) = (   0.3333333   0.0382849   1.4336183), wk =   0.1481481
        k(   11) = (   0.3333333   0.0382849  -1.5110979), wk =   0.1481481
        k(   12) = (   0.3333333  -2.9062259  -0.0039628), wk =   0.1481481
        k(   13) = (   0.3333333  -2.9062259   1.4683953), wk =   0.1481481
        k(   14) = (   0.3333333  -2.9062259  -1.4763209), wk =   0.1481481

                       cryst. coord.
        k(    1) = (   0.0000000   0.0000000   0.0000000), wk =   0.0740741
        k(    2) = (   0.0000000   0.0000000   0.3333333), wk =   0.1481481
        k(    3) = (   0.0000000   0.3333333  -0.0000000), wk =   0.1481481
        k(    4) = (   0.0000000   0.3333333   0.3333333), wk =   0.1481481
        k(    5) = (   0.0000000   0.3333333  -0.3333333), wk =   0.1481481
        k(    6) = (   0.3333333   0.0000000   0.0000000), wk =   0.1481481
        k(    7) = (   0.3333333   0.0000000   0.3333333), wk =   0.1481481
        k(    8) = (   0.3333333   0.0000000  -0.3333333), wk =   0.1481481
        k(    9) = (   0.3333333   0.3333333  -0.0000000), wk =   0.1481481
        k(   10) = (   0.3333333   0.3333333   0.3333333), wk =   0.1481481
        k(   11) = (   0.3333333   0.3333333  -0.3333333), wk =   0.1481481
        k(   12) = (   0.3333333  -0.3333333   0.0000000), wk =   0.1481481
        k(   13) = (   0.3333333  -0.3333333   0.3333333), wk =   0.1481481
        k(   14) = (   0.3333333  -0.3333333  -0.3333333), wk =   0.1481481

     Check: negative core charge=   -0.000013

     Initial potential from superposition of free atoms

     starting charge     154.9827, renormalised to     160.0000

     negative rho (up, down):  8.810E-02 0.000E+00
     Starting wfcs are  160 randomized atomic wfcs
     Checking if some PAW data can be deallocated...

     Self-consistent Calculation

     iteration #  1     ecut=    30.00 Ry     beta= 0.70
     Davidson diagonalization with overlap

     ethr =  1.00E-02,  avg # of iterations =  2.0

     negative rho (up, down):  1.004E-01 0.000E+00

     total energy              =   -1945.85251938 Ry
     estimated scf accuracy    <     227.19788599 Ry

[...]

     c_bands:  2 eigenvalues not converged
     c_bands:  1 eigenvalues not converged
     c_bands:  4 eigenvalues not converged
     c_bands:  5 eigenvalues not converged
     c_bands:  1 eigenvalues not converged
     ethr =  5.68E-05,  avg # of iterations = 19.6

[...]

     c_bands:  1 eigenvalues not converged
     ethr =  1.27E-07,  avg # of iterations =  5.1

[...]

     total energy              =   -2146.09091540 Ry
     estimated scf accuracy    <       0.00000345 Ry

     iteration # 26     ecut=    30.00 Ry     beta= 0.70
     Davidson diagonalization with overlap

     ethr =  2.15E-09,  avg # of iterations =  4.6

     negative rho (up, down):  8.353E-02 0.000E+00

     End of self-consistent calculation

          k = 0.0000 0.0000 0.0000 (  4643 PWs)   bands (ev):

   -45.9674 -45.9627 -45.8941 -22.2907 -22.2862 -22.2382 -22.2373 -22.2337
   -22.2328 -22.2074 -22.1975 -22.1781 -20.2988 -20.2844 -12.2461 -12.0458
   -12.0453 -12.0437 -12.0407 -12.0091 -11.9762 -11.9759 -11.9698 -11.9453
    -8.8276  -7.6825  -7.4956  -7.2350  -6.3803  -6.3591  -6.3419  -6.2139
    -6.0064  -5.9907  -5.8073  -5.7871  -3.8174  -3.8072  -3.8040  -3.8028
    -3.3471  -3.1146   0.2906   2.7099   5.3929   5.3947   6.5179   6.9291
     6.9353   6.9372   6.9764   6.9869   7.3676   7.4245   7.6125   7.7646
     7.9155   7.9938   8.0534   8.1347   8.1503   8.1521   8.1579   8.2131
     8.5581   8.5717   8.6018   8.6523   8.6934   8.7793   8.9002   8.9013
     9.2491   9.3399   9.4357   9.5645   9.5730   9.8450   9.8987   9.9967
    12.4783  12.4825  12.6672  12.8684  12.9235  13.2144  13.2275  14.0419
    14.1193  14.1246

     occupation numbers
     1.0000   1.0000   1.0000   1.0000   1.0000   1.0000   1.0000   1.0000
     1.0000   1.0000   1.0000   1.0000   1.0000   1.0000   1.0000   1.0000
     1.0000   1.0000   1.0000   1.0000   1.0000   1.0000   1.0000   1.0000
     1.0000   1.0000   1.0000   1.0000   1.0000   1.0000   1.0000   1.0000
     1.0000   1.0000   1.0000   1.0000   1.0000   1.0000   1.0000   1.0000
     1.0000   1.0000   1.0000   1.0000   1.0000   1.0000   1.0000   1.0000
     1.0000   1.0000   1.0000   1.0000   1.0000   1.0000   1.0000   1.0000
     1.0000   1.0000   1.0000   1.0000   1.0000   1.0000   1.0000   1.0000
     1.0000   1.0000   1.0000   1.0000   1.0000   1.0000   1.0000   1.0000
     1.0000   1.0000   1.0000   1.0000   1.0000   1.0000   1.0000   1.0000
     0.0000   0.0000   0.0000   0.0000   0.0000   0.0000   0.0000   0.0000
     0.0000   0.0000

[...]

          k = 0.3333-2.9062-1.4763 (  4618 PWs)   bands (ev):

   -45.9647 -45.9600 -45.8913 -22.2959 -22.2922 -22.2915 -22.2877 -22.2779
   -22.2735 -22.2731 -22.2596 -22.1690 -20.1998 -20.1948 -12.2356 -12.1913
   -12.0246 -12.0070 -11.9938 -11.9881 -11.9817 -11.9795 -11.9753 -11.9721
    -7.5680  -7.1072  -7.0109  -6.8254  -6.6754  -6.6046  -6.5779  -6.1577
    -5.9828  -5.9456  -5.7854  -5.7416  -3.9274  -3.8209  -3.7612  -3.6025
    -3.3311  -3.3086   0.0791   0.8360   5.0506   5.8749   5.8774   5.8819
     5.9997   6.1458   6.2202   6.5342   6.6306   6.6455   6.7887   6.9321
     6.9744   7.1214   7.1357   7.1567   7.3516   7.7728   7.9314   8.1203
     8.1617   8.2288   8.5418   8.7158   8.9001   8.9557   9.0538   9.1530
     9.2883   9.4270   9.5196   9.5583   9.5760   9.6536   9.8438   9.8811
    13.2956  13.6020  13.7926  13.8196  14.0268  14.0937  14.1498  14.2497
    14.3017  14.3198

     occupation numbers
     1.0000   1.0000   1.0000   1.0000   1.0000   1.0000   1.0000   1.0000
     1.0000   1.0000   1.0000   1.0000   1.0000   1.0000   1.0000   1.0000
     1.0000   1.0000   1.0000   1.0000   1.0000   1.0000   1.0000   1.0000
     1.0000   1.0000   1.0000   1.0000   1.0000   1.0000   1.0000   1.0000
     1.0000   1.0000   1.0000   1.0000   1.0000   1.0000   1.0000   1.0000
     1.0000   1.0000   1.0000   1.0000   1.0000   1.0000   1.0000   1.0000
     1.0000   1.0000   1.0000   1.0000   1.0000   1.0000   1.0000   1.0000
     1.0000   1.0000   1.0000   1.0000   1.0000   1.0000   1.0000   1.0000
     1.0000   1.0000   1.0000   1.0000   1.0000   1.0000   1.0000   1.0000
     1.0000   1.0000   1.0000   1.0000   1.0000   1.0000   1.0000   1.0000
     0.0000   0.0000   0.0000   0.0000   0.0000   0.0000   0.0000   0.0000
     0.0000   0.0000

     highest occupied, lowest unoccupied level (ev):     9.9967   12.4783

!    total energy              =   -2146.09091543 Ry
     estimated scf accuracy    <       0.00000089 Ry

     The total energy is the sum of the following terms:
     one-electron contribution =    -319.43045065 Ry
     hartree contribution      =     263.71081568 Ry
     xc contribution           =    -290.44472342 Ry
     ewald contribution        =    -889.44751869 Ry
     one-center paw contrib.   =    -910.47903835 Ry
      -> PAW hartree energy AE =      69.07203649 Ry
      -> PAW hartree energy PS =     -69.17462963 Ry
      -> PAW xc energy AE      =    -810.59498665 Ry
      -> PAW xc energy PS      =      14.51663401 Ry
      -> total E_H with PAW    =     263.60822254 Ry
      -> total E_XC with PAW   =   -1086.52307606 Ry

     convergence has been achieved in  26 iterations

     Writing all to output data dir calculations_bands/myprefix.save/

     General routines

     Parallel routines

     PAW routines

   This run was terminated on:   5:29:50  23Jun2023

   JOB DONE.