     Program PWSCF v.7.0 starts on  6Jun2023 at 20:36:41

     K-points division:     npool     =       2
     R & G space division:  proc/nbgrp/npool/nimage =       4

     Reading input from espresso_304.pwi
Warning: card &CELL ignored
Warning: card / ignored

     Current dimensions of program PWSCF are:
     Max number of different atomic species (ntypx) = 10
     Max number of k-points (npk) =  40000
     Max angular momentum in pseudopotentials (lmaxx) =  4
     file Cd.pbe-dn-rrkjus_psl.0.3.1.UPF: wavefunction(s)  4D renormalized
     file Ga.pbe-dn-kjpaw_psl.1.0.0.UPF: wavefunction(s)  4S renormalized
     Message from routine setup:
     using ibrav=0 with symmetry is DISCOURAGED, use correct ibrav instead

     Using Slab Decomposition

     bravais-lattice index     =            0
     lattice parameter (alat)  =      14.6978  a.u.
     unit-cell volume          =    1723.5512 (a.u.)^3
     number of atoms/cell      =            8
     number of atomic types    =            4
     number of electrons       =        80.00
     number of Kohn-Sham states=           64
     kinetic-energy cutoff     =      30.0000  Ry
     charge density cutoff     =     240.0000  Ry
     scf convergence threshold =      1.0E-06
     mixing beta               =       0.7000
     number of iterations used =            8  plain     mixing
     Exchange-correlation= SLA  PW   PBE  PBE
                           (   1   4   3   4   0   0   0)

     celldm(1)=  14.697795  celldm(2)=   0.000000  celldm(3)=   0.000000
     celldm(4)=   0.000000  celldm(5)=   0.000000  celldm(6)=   0.000000

     crystal axes: (cart. coord. in units of alat)
               a(1) = (   1.000000   0.000000   0.000000 )
               a(2) = (   0.335773   0.941943   0.000000 )
               a(3) = (  -0.667887  -0.470971   0.576293 )

     reciprocal axes: (cart. coord. in units 2 pi/alat)
               b(1) = (  1.000000 -0.356469  0.867615 )
               b(2) = (  0.000000  1.061636  0.867615 )
               b(3) = (  0.000000  0.000000  1.735229 )

     PseudoPot. # 1 for Cd read from file:
     /home/pragov/projects/rrg-bengioy-ad/pragov/crystal_structure_design/SSSP/Cd.pbe-dn-rrkjus_psl.0.3.1.UPF
     MD5 check sum: 558e9f355611b531a870a69ef6ace9e2
     Pseudo is Ultrasoft + core correction, Zval = 12.0
     Generated using "atomic" code by A. Dal Corso  v.5.0.99 svn rev. 10869
     Using radial grid of 1239 points,  6 beta functions with:
                l(1) =   0
                l(2) =   0
                l(3) =   1
                l(4) =   1
                l(5) =   2
                l(6) =   2
     Q(r) pseudized with 0 coefficients

     PseudoPot. # 2 for Ga read from file:
     /home/pragov/projects/rrg-bengioy-ad/pragov/crystal_structure_design/SSSP/Ga.pbe-dn-kjpaw_psl.1.0.0.UPF
     MD5 check sum: a27b4342b1af7e5f338de752e9ed7044
     Pseudo is Projector augmented-wave + core cor, Zval = 13.0
     Generated using "atomic" code by A. Dal Corso  v.5.1
     Shape of augmentation charge: PSQ
     Using radial grid of 1205 points,  6 beta functions with:
                l(1) =   0
                l(2) =   0
                l(3) =   1
                l(4) =   1
                l(5) =   2
                l(6) =   2
     Q(r) pseudized with 0 coefficients

     PseudoPot. # 3 for Cu read from file:
     /home/pragov/projects/rrg-bengioy-ad/pragov/crystal_structure_design/SSSP/Cu_pbe_v1.2.uspp.F.UPF
     MD5 check sum: 6e991ff952a84172a2a52a1c1e996048
     Pseudo is Ultrasoft + core correction, Zval = 19.0
     Generated by new atomic code, or converted to UPF format
     Using radial grid of  867 points,  6 beta functions with:
                l(1) =   0
                l(2) =   0
                l(3) =   1
                l(4) =   1
                l(5) =   2
                l(6) =   2
     Q(r) pseudized with  8 coefficients,  rinner =    1.150   1.150   1.150
                                                       1.150   1.150

     PseudoPot. # 4 for Te read from file:
     /home/pragov/projects/rrg-bengioy-ad/pragov/crystal_structure_design/SSSP/Te_pbe_v1.uspp.F.UPF
     MD5 check sum: c319670d6894cc26e93307826a071b75
     Pseudo is Ultrasoft + core correction, Zval =  6.0
     Generated by new atomic code, or converted to UPF format
     Using radial grid of  891 points,  5 beta functions with:
                l(1) =   0
                l(2) =   0
                l(3) =   1
                l(4) =   1
                l(5) =   2
     Q(r) pseudized with  6 coefficients,  rinner =    1.800   1.800   1.800
                                                       1.800   1.800

     atomic species   valence    mass     pseudopotential
        Cd            12.00   112.41400     Cd( 1.00)
        Ga            13.00    69.72300     Ga( 1.00)
        Cu            19.00    63.54600     Cu( 1.00)
        Te             6.00   127.60000     Te( 1.00)

      2 Sym. Ops. (no inversion) found

                                    s                        frac. trans.

      isym =  1     identity

 cryst.   s( 1) = (     1          0          0      )
                  (     0          1          0      )
                  (     0          0          1      )

 cart.    s( 1) = (  1.0000000 -0.0000000 -0.0000000 )
                  (  0.0000000  1.0000000 -0.0000000 )
                  (  0.0000000  0.0000000  1.0000000 )

      isym =  2     inv. 180 deg rotation - cart. axis [0,0,1]

 cryst.   s( 2) = (     1          0          0      )
                  (     0          1          0      )
                  (    -1         -1         -1      )

 cart.    s( 2) = (  1.0000000 -0.0000000 -0.0000000 )
                  (  0.0000000  1.0000000 -0.0000000 )
                  (  0.0000000  0.0000000 -1.0000000 )

   Cartesian axes

     site n.     atom                  positions (alat units)
         1           Cd  tau(   1) = (   0.5000000   0.0000000   0.2881463  )
         2           Cd  tau(   2) = (   0.1678867   0.4709714   0.2881463  )
         3           Ga  tau(   3) = (   0.6678867   0.4709714   0.0000000  )
         4           Cu  tau(   4) = (   0.0000000   0.0000000   0.0000000  )
         5           Te  tau(   5) = (   0.5186441   0.3657305   0.2920876  )
         6           Te  tau(   6) = (   0.6488014   0.8149190   0.0000000  )
         7           Te  tau(   7) = (  -0.1492426  -0.1052409   0.2842051  )
         8           Te  tau(   8) = (   0.9854573   0.3375056   0.0000000  )

   Crystallographic axes

     site n.     atom                  positions (cryst. coord.)
         1           Cd  tau(   1) = (  0.7500000  0.2500000  0.5000000  )
         2           Cd  tau(   2) = (  0.2500000  0.7500000  0.5000000  )
         3           Ga  tau(   3) = (  0.5000000  0.5000000  0.0000000  )
         4           Cu  tau(   4) = (  0.0000000  0.0000000  0.0000000  )
         5           Te  tau(   5) = (  0.6416920  0.6416920  0.5068390  )
         6           Te  tau(   6) = (  0.3583080  0.8651470  0.0000000  )
         7           Te  tau(   7) = (  0.1348530  0.1348530  0.4931610  )
         8           Te  tau(   8) = (  0.8651470  0.3583080  0.0000000  )

     number of k points=    10
                       cart. coord. in units 2pi/alat
        k(    1) = (   0.0000000   0.0000000   0.0000000), wk =   0.0740741
        k(    2) = (   0.0000000   0.0000000   0.5784098), wk =   0.1481481
        k(    3) = (   0.0000000   0.3538785   0.2892049), wk =   0.2962963
        k(    4) = (   0.0000000   0.3538785   0.8676147), wk =   0.1481481
        k(    5) = (   0.3333333  -0.1188230   0.2892049), wk =   0.2962963
        k(    6) = (   0.3333333  -0.1188230   0.8676147), wk =   0.1481481
        k(    7) = (   0.3333333   0.2350555   0.5784098), wk =   0.2962963
        k(    8) = (   0.3333333   0.2350555  -0.0000000), wk =   0.1481481
        k(    9) = (   0.3333333  -0.4727016   0.0000000), wk =   0.1481481
        k(   10) = (   0.3333333  -0.4727016   0.5784098), wk =   0.2962963

                       cryst. coord.
        k(    1) = (   0.0000000   0.0000000   0.0000000), wk =   0.0740741
        k(    2) = (   0.0000000   0.0000000   0.3333333), wk =   0.1481481
        k(    3) = (   0.0000000   0.3333333  -0.0000000), wk =   0.2962963
        k(    4) = (   0.0000000   0.3333333   0.3333333), wk =   0.1481481
        k(    5) = (   0.3333333  -0.0000000   0.0000000), wk =   0.2962963
        k(    6) = (   0.3333333  -0.0000000   0.3333333), wk =   0.1481481
        k(    7) = (   0.3333333   0.3333333   0.0000000), wk =   0.2962963
        k(    8) = (   0.3333333   0.3333333  -0.3333333), wk =   0.1481481
        k(    9) = (   0.3333333  -0.3333333   0.0000000), wk =   0.1481481
        k(   10) = (   0.3333333  -0.3333333   0.3333333), wk =   0.2962963

     Initial potential from superposition of free atoms

     starting charge      78.9864, renormalised to      80.0000
     Starting wfcs are   56 randomized atomic wfcs +    8 random wfcs
     Checking if some PAW data can be deallocated...

     Self-consistent Calculation

     iteration #  1     ecut=    30.00 Ry     beta= 0.70
     Davidson diagonalization with overlap

     ethr =  1.00E-02,  avg # of iterations =  6.1

     total energy              =   -1030.71223209 Ry
     estimated scf accuracy    <       2.51700562 Ry

[...]

     total energy              =   -1032.22557289 Ry
     estimated scf accuracy    <       0.00001232 Ry

     iteration # 12     ecut=    30.00 Ry     beta= 0.70
     Davidson diagonalization with overlap

     ethr =  1.54E-08,  avg # of iterations =  2.0

     End of self-consistent calculation

          k = 0.0000 0.0000 0.0000 (  4813 PWs)   bands (ev):

  -106.1560 -63.5737 -63.5363 -63.5363  -9.8296  -9.8214  -9.8214  -9.7766
    -9.7714  -6.3874  -5.3984  -5.3984  -5.3391  -2.9068  -2.9068  -2.8153
    -2.7944  -2.7934  -2.7420  -2.7393  -2.6892  -2.5618  -2.5618  -0.9708
     0.9871   1.2191   2.1673   2.3255   2.4393   2.4393   2.8771   2.8771
     3.3948   3.6233   3.6656   3.6656   3.9646   5.4291   5.4291   5.4405
     5.6765   7.3540   7.5684   9.1657   9.2112   9.2112   9.3866   9.7587
     9.9451   9.9451  10.8252  10.8252  11.3265  11.4174  12.7623  13.8883
    14.1322  14.1322  14.6458  14.6566  15.3979  15.5112  15.7501  15.8149

     occupation numbers
     1.0000   1.0000   1.0000   1.0000   1.0000   1.0000   1.0000   1.0000
     1.0000   1.0000   1.0000   1.0000   1.0000   1.0000   1.0000   1.0000
     1.0000   1.0000   1.0000   1.0000   1.0000   1.0000   1.0000   1.0000
     1.0000   1.0000   1.0000   1.0000   1.0000   1.0000   1.0000   1.0000
     1.0000   1.0000   1.0000   1.0000   1.0000   1.0000   1.0000   1.0000
     0.0000   0.0000   0.0000   0.0000   0.0000   0.0000   0.0000   0.0000
     0.0000   0.0000   0.0000   0.0000   0.0000   0.0000   0.0000   0.0000
     0.0000   0.0000   0.0000   0.0000   0.0000   0.0000   0.0000   0.0000

[...]

          k = 0.3333-0.4727 0.5784 (  4810 PWs)   bands (ev):

  -106.1558 -63.5732 -63.5363 -63.5359  -9.8301  -9.8214  -9.8213  -9.7765
    -9.7711  -6.0399  -5.6397  -5.5393  -5.3793  -2.9095  -2.8548  -2.8505
    -2.8467  -2.7952  -2.7819  -2.7599  -2.7453  -2.6929  -2.5854  -0.4812
     1.2340   1.3487   1.8729   2.3999   2.4831   2.6709   3.0129   3.1403
     3.2743   3.4362   3.7484   3.8266   3.8667   4.3416   4.7452   4.8621
     7.0820   7.9607   7.9762   8.0980   8.8854   9.0654   9.5715   9.8174
    10.1830  10.3813  11.1399  11.2719  11.7700  12.2459  12.6313  12.7813
    12.8529  13.1117  13.3384  14.8899  15.1632  15.5434  15.7313  15.7868

     occupation numbers
     1.0000   1.0000   1.0000   1.0000   1.0000   1.0000   1.0000   1.0000
     1.0000   1.0000   1.0000   1.0000   1.0000   1.0000   1.0000   1.0000
     1.0000   1.0000   1.0000   1.0000   1.0000   1.0000   1.0000   1.0000
     1.0000   1.0000   1.0000   1.0000   1.0000   1.0000   1.0000   1.0000
     1.0000   1.0000   1.0000   1.0000   1.0000   1.0000   1.0000   1.0000
     0.0000   0.0000   0.0000   0.0000   0.0000   0.0000   0.0000   0.0000
     0.0000   0.0000   0.0000   0.0000   0.0000   0.0000   0.0000   0.0000
     0.0000   0.0000   0.0000   0.0000   0.0000   0.0000   0.0000   0.0000

     highest occupied, lowest unoccupied level (ev):     5.4405    5.6765

!    total energy              =   -1032.22557505 Ry
     estimated scf accuracy    <       0.00000011 Ry

     The total energy is the sum of the following terms:
     one-electron contribution =    -693.09855675 Ry
     hartree contribution      =     395.45911606 Ry
     xc contribution           =    -220.42984025 Ry
     ewald contribution        =    -403.23397270 Ry
     one-center paw contrib.   =    -110.92232140 Ry
      -> PAW hartree energy AE =       0.00000000 Ry
      -> PAW hartree energy PS =       0.00000000 Ry
      -> PAW xc energy AE      =       0.00000000 Ry
      -> PAW xc energy PS      =       0.00000000 Ry
      -> total E_H with PAW    =     395.45911606 Ry
      -> total E_XC with PAW   =    -220.42984025 Ry

     convergence has been achieved in  12 iterations

     Writing all to output data dir calculations_bands/myprefix.save/

     General routines

     Parallel routines

     PAW routines

   This run was terminated on:  20:37: 2   6Jun2023

   JOB DONE.