     Program PWSCF v.7.1 starts on 14Jul2023 at  2:23:35

     Reading input from espresso_7532.pwi
Warning: card &CELL ignored
Warning: card / ignored

     Current dimensions of program PWSCF are:
     Max number of different atomic species (ntypx) = 10
     Max number of k-points (npk) =  40000
     Max angular momentum in pseudopotentials (lmaxx) =  4
     file Ga.pbe-dn-kjpaw_psl.1.0.0.UPF: wavefunction(s)  4S renormalized
     file O.pbe-n-kjpaw_psl.0.1.UPF: wavefunction(s)  2P renormalized
     Message from routine setup:
     using ibrav=0 with symmetry is DISCOURAGED, use correct ibrav instead

     K-points division:     npool     =       2
     R & G space division:  proc/nbgrp/npool/nimage =       4
     Subspace diagonalization in iterative solution of the eigenvalue problem:
     a serial algorithm will be used

     Using Slab Decomposition

     bravais-lattice index     =            0
     lattice parameter (alat)  =      12.3163  a.u.
     unit-cell volume          =     338.3747 (a.u.)^3
     number of atoms/cell      =            4
     number of atomic types    =            3
     number of electrons       =        44.00
     number of Kohn-Sham states=           64
     kinetic-energy cutoff     =      30.0000  Ry
     charge density cutoff     =     240.0000  Ry
     scf convergence threshold =      1.0E-06
     mixing beta               =       0.7000
     number of iterations used =            8  plain     mixing
     Exchange-correlation= SLA  PW   PBX  PBC
                           (   1   4   3   4   0   0   0)

     celldm(1)=  12.316311  celldm(2)=   0.000000  celldm(3)=   0.000000
     celldm(4)=   0.000000  celldm(5)=   0.000000  celldm(6)=   0.000000

     crystal axes: (cart. coord. in units of alat)
               a(1) = (   1.000000   0.000000   0.000000 )
               a(2) = (   0.891430   0.453159   0.000000 )
               a(3) = (   0.891430   0.213573   0.399674 )

     reciprocal axes: (cart. coord. in units 2 pi/alat)
               b(1) = (  1.000000 -1.967147 -1.179210 )
               b(2) = (  0.000000  2.206733 -1.179210 )
               b(3) = (  0.000000  0.000000  2.502041 )

     PseudoPot. # 1 for Ga read from file:
     /lustre07/scratch/pragov/crystal_structure_design/utils/SSSP/Ga.pbe-dn-kjpaw_psl.1.0.0.UPF
     MD5 check sum: a27b4342b1af7e5f338de752e9ed7044
     Pseudo is Projector augmented-wave + core cor, Zval = 13.0
     Generated using "atomic" code by A. Dal Corso  v.5.1
     Shape of augmentation charge: PSQ
     Using radial grid of 1205 points,  6 beta functions with:
                l(1) =   0
                l(2) =   0
                l(3) =   1
                l(4) =   1
                l(5) =   2
                l(6) =   2
     Q(r) pseudized with 0 coefficients

     PseudoPot. # 2 for Ag read from file:
     /lustre07/scratch/pragov/crystal_structure_design/utils/SSSP/Ag_ONCV_PBE-1.0.oncvpsp.upf
     MD5 check sum: 94f47bd0669c641108e45594df92fabc
     Pseudo is Norm-conserving, Zval = 19.0
     Generated using ONCVPSP code by D. R. Hamann
     Using radial grid of 1398 points,  6 beta functions with:
                l(1) =   0
                l(2) =   0
                l(3) =   1
                l(4) =   1
                l(5) =   2
                l(6) =   2

     PseudoPot. # 3 for O  read from file:
     /lustre07/scratch/pragov/crystal_structure_design/utils/SSSP/O.pbe-n-kjpaw_psl.0.1.UPF
     MD5 check sum: 0234752ac141de4415c5fc33072bef88
     Pseudo is Projector augmented-wave + core cor, Zval =  6.0
     Generated using "atomic" code by A. Dal Corso  v.5.0.99 svn rev. 10869
     Shape of augmentation charge: BESSEL
     Using radial grid of 1095 points,  4 beta functions with:
                l(1) =   0
                l(2) =   0
                l(3) =   1
                l(4) =   1
     Q(r) pseudized with 0 coefficients

     atomic species   valence    mass     pseudopotential
        Ga            13.00    69.72300     Ga( 1.00)
        Ag            19.00   107.86820     Ag( 1.00)
        O              6.00    15.99900     O ( 1.00)

      2 Sym. Ops., with inversion, found

                                    s                        frac. trans.

      isym =  1     identity

 cryst.   s( 1) = (     1          0          0      )
                  (     0          1          0      )
                  (     0          0          1      )

 cart.    s( 1) = (  1.0000000  0.0000000  0.0000000 )
                  (  0.0000000  1.0000000  0.0000000 )
                  (  0.0000000  0.0000000  1.0000000 )

      isym =  2     inversion

 cryst.   s( 2) = (    -1          0          0      )
                  (     0         -1          0      )
                  (     0          0         -1      )

 cart.    s( 2) = ( -1.0000000 -0.0000000 -0.0000000 )
                  (  0.0000000 -1.0000000  0.0000000 )
                  (  0.0000000  0.0000000 -1.0000000 )

   Cartesian axes

     site n.     atom                  positions (alat units)
         1           Ga  tau(   1) = (   1.3914299   0.3333661   0.1998369  )
         2           Ag  tau(   2) = (   0.0000000   0.0000000   0.0000000  )
         3           O   tau(   3) = (   2.4683354   0.5913767   0.3545018  )
         4           O   tau(   4) = (   0.3145244   0.0753554   0.0451719  )

   Crystallographic axes

     site n.     atom                  positions (cryst. coord.)
         1           Ga  tau(   1) = (  0.5000000  0.5000000  0.5000000  )
         2           Ag  tau(   2) = (  0.0000000  0.0000000  0.0000000  )
         3           O   tau(   3) = (  0.8869780  0.8869780  0.8869780  )
         4           O   tau(   4) = (  0.1130220  0.1130220  0.1130220  )

     number of k points=    14
                       cart. coord. in units 2pi/alat
        k(    1) = (   0.0000000   0.0000000   0.0000000), wk =   0.0740741
        k(    2) = (   0.0000000   0.0000000   0.8340136), wk =   0.1481481
        k(    3) = (   0.0000000   0.7355775  -0.3930702), wk =   0.1481481
        k(    4) = (   0.0000000   0.7355775   0.4409434), wk =   0.1481481
        k(    5) = (   0.0000000   0.7355775  -1.2270838), wk =   0.1481481
        k(    6) = (   0.3333333  -0.6557158  -0.3930702), wk =   0.1481481
        k(    7) = (   0.3333333  -0.6557158   0.4409434), wk =   0.1481481
        k(    8) = (   0.3333333  -0.6557158  -1.2270838), wk =   0.1481481
        k(    9) = (   0.3333333   0.0798617  -0.7861403), wk =   0.1481481
        k(   10) = (   0.3333333   0.0798617   0.0478733), wk =   0.1481481
        k(   11) = (   0.3333333   0.0798617  -1.6201539), wk =   0.1481481
        k(   12) = (   0.3333333  -1.3912933  -0.0000000), wk =   0.1481481
        k(   13) = (   0.3333333  -1.3912933   0.8340136), wk =   0.1481481
        k(   14) = (   0.3333333  -1.3912933  -0.8340136), wk =   0.1481481

                       cryst. coord.
        k(    1) = (   0.0000000   0.0000000   0.0000000), wk =   0.0740741
        k(    2) = (   0.0000000   0.0000000   0.3333333), wk =   0.1481481
        k(    3) = (   0.0000000   0.3333333   0.0000000), wk =   0.1481481
        k(    4) = (   0.0000000   0.3333333   0.3333333), wk =   0.1481481
        k(    5) = (   0.0000000   0.3333333  -0.3333333), wk =   0.1481481
        k(    6) = (   0.3333333   0.0000000  -0.0000000), wk =   0.1481481
        k(    7) = (   0.3333333   0.0000000   0.3333333), wk =   0.1481481
        k(    8) = (   0.3333333   0.0000000  -0.3333333), wk =   0.1481481
        k(    9) = (   0.3333333   0.3333333   0.0000000), wk =   0.1481481
        k(   10) = (   0.3333333   0.3333333   0.3333333), wk =   0.1481481
        k(   11) = (   0.3333333   0.3333333  -0.3333333), wk =   0.1481481
        k(   12) = (   0.3333333  -0.3333333  -0.0000000), wk =   0.1481481
        k(   13) = (   0.3333333  -0.3333333   0.3333333), wk =   0.1481481
        k(   14) = (   0.3333333  -0.3333333  -0.3333333), wk =   0.1481481

     Check: negative core charge=   -0.000010

     Initial potential from superposition of free atoms

     starting charge      43.9968, renormalised to      44.0000
     Starting wfcs are   27 randomized atomic wfcs +   37 random wfcs
     Checking if some PAW data can be deallocated...

     Self-consistent Calculation

     iteration #  1     ecut=    30.00 Ry     beta= 0.70
     Davidson diagonalization with overlap

     ethr =  1.00E-02,  avg # of iterations =  7.2

     total energy              =    -647.86781393 Ry
     estimated scf accuracy    <       0.64991396 Ry

[...]

     total energy              =    -648.16132271 Ry
     estimated scf accuracy    <       0.00000791 Ry

     iteration #  7     ecut=    30.00 Ry     beta= 0.70
     Davidson diagonalization with overlap

     ethr =  1.80E-08,  avg # of iterations =  2.4

     End of self-consistent calculation

          k = 0.0000 0.0000 0.0000 (   915 PWs)   bands (ev):

   -81.1882 -44.3398 -44.1192 -44.1192  -8.7784  -6.9393  -3.4296  -3.4296
    -3.3224  -3.1742  -3.1742   4.1198   6.4200   7.6596   7.6596   7.8617
     7.8617   8.1492   8.9182   8.9182  10.0009  10.0009  11.1695  15.9310
    16.1373  20.6623  22.7180  22.7180  27.2243  27.6776  30.5087  30.5087
    30.8273  30.8273  31.0398  31.8293  33.6629  33.6629  35.1809  35.1809
    37.7747  39.1236  39.1354  39.1354  39.9315  41.1446  41.9914  41.9914
    43.2822  43.2822  44.9581  45.2435  45.2435  46.1555  51.0969  51.0970
    54.0732  54.0945  54.0945  56.2763  57.4517  57.4517  59.3778  60.4073

     occupation numbers
     1.0000   1.0000   1.0000   1.0000   1.0000   1.0000   1.0000   1.0000
     1.0000   1.0000   1.0000   1.0000   1.0000   1.0000   1.0000   1.0000
     1.0000   1.0000   1.0000   1.0000   1.0000   1.0000   0.0000   0.0000
     0.0000   0.0000   0.0000   0.0000   0.0000   0.0000   0.0000   0.0000
     0.0000   0.0000   0.0000   0.0000   0.0000   0.0000   0.0000   0.0000
     0.0000   0.0000   0.0000   0.0000   0.0000   0.0000   0.0000   0.0000
     0.0000   0.0000   0.0000   0.0000   0.0000   0.0000   0.0000   0.0000
     0.0000   0.0000   0.0000   0.0000   0.0000   0.0000   0.0000   0.0000

[...]

          k = 0.3333-1.3913-0.8340 (   930 PWs)   bands (ev):

   -81.1845 -44.3330 -44.1711 -44.1303  -7.7948  -7.1561  -3.3333  -3.3235
    -3.1886  -3.1337  -2.7296   4.4169   5.4642   6.4662   6.8772   6.9909
     7.1850   8.2950   8.5339   8.7646   9.5554   9.9552  13.5302  16.2420
    18.8589  20.6721  20.8378  22.7750  23.8568  23.8835  25.6043  28.2613
    29.3794  30.3558  32.5067  32.6616  34.6717  34.7031  37.2920  38.3836
    39.1706  40.8587  41.3575  41.5887  42.7498  43.2805  44.6159  44.8825
    45.0141  46.3065  46.9900  47.6593  49.1143  49.6798  50.8695  51.8390
    53.0476  53.7451  55.2668  55.2695  55.9659  56.2406  57.1855  57.6203

     occupation numbers
     1.0000   1.0000   1.0000   1.0000   1.0000   1.0000   1.0000   1.0000
     1.0000   1.0000   1.0000   1.0000   1.0000   1.0000   1.0000   1.0000
     1.0000   1.0000   1.0000   1.0000   1.0000   1.0000   0.0000   0.0000
     0.0000   0.0000   0.0000   0.0000   0.0000   0.0000   0.0000   0.0000
     0.0000   0.0000   0.0000   0.0000   0.0000   0.0000   0.0000   0.0000
     0.0000   0.0000   0.0000   0.0000   0.0000   0.0000   0.0000   0.0000
     0.0000   0.0000   0.0000   0.0000   0.0000   0.0000   0.0000   0.0000
     0.0000   0.0000   0.0000   0.0000   0.0000   0.0000   0.0000   0.0000

     highest occupied, lowest unoccupied level (ev):    10.6192   11.1695

!    total energy              =    -648.16132510 Ry
     estimated scf accuracy    <       0.00000017 Ry

     The total energy is the sum of the following terms:
     one-electron contribution =    -237.27833207 Ry
     hartree contribution      =     149.14184230 Ry
     xc contribution           =     -80.16640746 Ry
     ewald contribution        =    -349.79693470 Ry
     one-center paw contrib.   =    -130.06149317 Ry
      -> PAW hartree energy AE =     138.33928556 Ry
      -> PAW hartree energy PS =    -136.22426780 Ry
      -> PAW xc energy AE      =    -150.68183466 Ry
      -> PAW xc energy PS      =      37.55319137 Ry
      -> total E_H with PAW    =     151.25686005 Ry
      -> total E_XC with PAW   =    -193.29505075 Ry

     convergence has been achieved in   7 iterations

     Writing all to output data dir bands_nm/myprefix.save/

     General routines

     Parallel routines

     PAW routines

   This run was terminated on:   2:23:41  14Jul2023

   JOB DONE.