     Program PWSCF v.7.0 starts on  6Jun2023 at 11:18: 9

     K-points division:     npool     =       2
     R & G space division:  proc/nbgrp/npool/nimage =       4

     Reading input from espresso_16422.pwi
Warning: card &CELL ignored
Warning: card / ignored

     Current dimensions of program PWSCF are:
     Max number of different atomic species (ntypx) = 10
     Max number of k-points (npk) =  40000
     Max angular momentum in pseudopotentials (lmaxx) =  4
     Message from routine setup:
     using ibrav=0 with symmetry is DISCOURAGED, use correct ibrav instead

     Using Slab Decomposition

     bravais-lattice index     =            0
     lattice parameter (alat)  =      12.4005  a.u.
     unit-cell volume          =    1104.0743 (a.u.)^3
     number of atoms/cell      =           12
     number of atomic types    =            3
     number of electrons       =        84.00
     number of Kohn-Sham states=           64
     kinetic-energy cutoff     =      30.0000  Ry
     charge density cutoff     =     240.0000  Ry
     scf convergence threshold =      1.0E-06
     mixing beta               =       0.7000
     number of iterations used =            8  plain     mixing
     Exchange-correlation= PBE
                           (   1   4   3   4   0   0   0)

     celldm(1)=  12.400488  celldm(2)=   0.000000  celldm(3)=   0.000000
     celldm(4)=   0.000000  celldm(5)=   0.000000  celldm(6)=   0.000000

     crystal axes: (cart. coord. in units of alat)
               a(1) = (   1.000000   0.000000   0.000000 )
               a(2) = (  -0.488436   0.872600   0.000000 )
               a(3) = (   0.000000   0.000000   0.663540 )

     reciprocal axes: (cart. coord. in units 2 pi/alat)
               b(1) = (  1.000000  0.559748  0.000000 )
               b(2) = (  0.000000  1.146001  0.000000 )
               b(3) = (  0.000000  0.000000  1.507069 )

     PseudoPot. # 1 for Li read from file:
     /home/pragov/projects/rrg-bengioy-ad/pragov/crystal_structure_design/SSSP/li_pbe_v1.4.uspp.F.UPF
     MD5 check sum: e912e257baa3777c20ea3d68f190483c
     Pseudo is Ultrasoft, Zval =  3.0
     Generated by new atomic code, or converted to UPF format
     Using radial grid of  751 points,  5 beta functions with:
                l(1) =   0
                l(2) =   0
                l(3) =   0
                l(4) =   1
                l(5) =   1
     Q(r) pseudized with 10 coefficients,  rinner =    1.150   1.150   1.150

     PseudoPot. # 2 for Hf read from file:
     /home/pragov/projects/rrg-bengioy-ad/pragov/crystal_structure_design/SSSP/Hf-sp.oncvpsp.upf
     MD5 check sum: 417ed15784afe83d2e06dacf143de3f8
     Pseudo is Norm-conserving + core correction, Zval = 12.0
     Generated using ONCVPSP code by D. R. Hamann
     Using radial grid of 1656 points,  8 beta functions with:
                l(1) =   0
                l(2) =   0
                l(3) =   1
                l(4) =   1
                l(5) =   2
                l(6) =   2
                l(7) =   3
                l(8) =   3

     PseudoPot. # 3 for N  read from file:
     /home/pragov/projects/rrg-bengioy-ad/pragov/crystal_structure_design/SSSP/N.pbe-n-radius_5.UPF
     MD5 check sum: 16739722b17309cd8fe442a2ace49922
     Pseudo is Ultrasoft + core correction, Zval =  5.0
     Generated using "atomic" code by A. Dal Corso  v.5.1
     Using radial grid of 1085 points,  4 beta functions with:
                l(1) =   0
                l(2) =   0
                l(3) =   1
                l(4) =   1
     Q(r) pseudized with 0 coefficients

     atomic species   valence    mass     pseudopotential
        Li             3.00     6.94000     Li( 1.00)
        Hf            12.00   178.49000     Hf( 1.00)
        N              5.00    14.00700     N ( 1.00)

      4 Sym. Ops., with inversion, found ( 2 have fractional translation)

                                    s                        frac. trans.

      isym =  1     identity

 cryst.   s( 1) = (     1          0          0      )
                  (     0          1          0      )
                  (     0          0          1      )

 cart.    s( 1) = (  1.0000000  0.0000000  0.0000000 )
                  (  0.0000000  1.0000000  0.0000000 )
                  (  0.0000000  0.0000000  1.0000000 )

      isym =  2     180 deg rotation - cart. axis [0,0,1]

 cryst.   s( 2) = (    -1          0          0      )    f =(  0.0000000 )
                  (     0         -1          0      )       ( -0.0000000 )
                  (     0          0          1      )       (  0.5000000 )

 cart.    s( 2) = ( -1.0000000 -0.0000000  0.0000000 )    f =(  0.0000000 )
                  (  0.0000000 -1.0000000  0.0000000 )       ( -0.0000000 )
                  (  0.0000000  0.0000000  1.0000000 )       (  0.3317699 )

      isym =  3     inversion

 cryst.   s( 3) = (    -1          0          0      )
                  (     0         -1          0      )
                  (     0          0         -1      )

 cart.    s( 3) = ( -1.0000000 -0.0000000  0.0000000 )
                  (  0.0000000 -1.0000000  0.0000000 )
                  (  0.0000000  0.0000000 -1.0000000 )

      isym =  4     inv. 180 deg rotation - cart. axis [0,0,1]

 cryst.   s( 4) = (     1          0          0      )    f =(  0.0000000 )
                  (     0          1          0      )       (  0.0000000 )
                  (     0          0         -1      )       (  0.5000000 )

 cart.    s( 4) = (  1.0000000  0.0000000  0.0000000 )    f =(  0.0000000 )
                  (  0.0000000  1.0000000  0.0000000 )       (  0.0000000 )
                  (  0.0000000  0.0000000 -1.0000000 )       (  0.3317699 )

   Cartesian axes

     site n.     atom                  positions (alat units)
         1           Li  tau(   1) = (   0.3233170   0.5514978   0.4976549  )
         2           Li  tau(   2) = (   0.1882468   0.3211018   0.1658850  )
         3           Hf  tau(   3) = (  -0.1479192   0.2926586   0.4976549  )
         4           Hf  tau(   4) = (   0.3276228   0.0138708   0.4976549  )
         5           Hf  tau(   5) = (   0.6594830   0.5799410   0.1658850  )
         6           Hf  tau(   6) = (   0.1839410   0.8587288   0.1658850  )
         7           N   tau(   7) = (   0.8021169   0.2886263   0.1658850  )
         8           N   tau(   8) = (  -0.1399278   0.8409024   0.1658850  )
         9           N   tau(   9) = (  -0.2905531   0.5839733   0.4976549  )
        10           N   tau(  10) = (   0.6514916   0.0316972   0.4976549  )
        11           N   tau(  11) = (   0.3534783   0.6029454   0.1658850  )
        12           N   tau(  12) = (   0.1580855   0.2696542   0.4976549  )

   Crystallographic axes

     site n.     atom                  positions (cryst. coord.)
         1           Li  tau(   1) = (  0.6320170  0.6320170  0.7500000  )
         2           Li  tau(   2) = (  0.3679830  0.3679830  0.2500000  )
         3           Hf  tau(   3) = (  0.0158960  0.3353870  0.7500000  )
         4           Hf  tau(   4) = (  0.3353870  0.0158960  0.7500000  )
         5           Hf  tau(   5) = (  0.9841040  0.6646130  0.2500000  )
         6           Hf  tau(   6) = (  0.6646130  0.9841040  0.2500000  )
         7           N   tau(   7) = (  0.9636750  0.3307660  0.2500000  )
         8           N   tau(   8) = (  0.3307660  0.9636750  0.2500000  )
         9           N   tau(   9) = (  0.0363250  0.6692340  0.7500000  )
        10           N   tau(  10) = (  0.6692340  0.0363250  0.7500000  )
        11           N   tau(  11) = (  0.6909760  0.6909760  0.2500000  )
        12           N   tau(  12) = (  0.3090240  0.3090240  0.7500000  )

     number of k points=    10
                       cart. coord. in units 2pi/alat
        k(    1) = (   0.0000000   0.0000000   0.0000000), wk =   0.0740741
        k(    2) = (   0.0000000   0.0000000   0.5023562), wk =   0.1481481
        k(    3) = (   0.0000000   0.3820003   0.0000000), wk =   0.1481481
        k(    4) = (   0.0000000   0.3820003   0.5023562), wk =   0.2962963
        k(    5) = (   0.3333333   0.1865828   0.0000000), wk =   0.1481481
        k(    6) = (   0.3333333   0.1865828   0.5023562), wk =   0.2962963
        k(    7) = (   0.3333333   0.5685831   0.0000000), wk =   0.1481481
        k(    8) = (   0.3333333   0.5685831   0.5023562), wk =   0.2962963
        k(    9) = (   0.3333333  -0.1954175   0.0000000), wk =   0.1481481
        k(   10) = (   0.3333333  -0.1954175   0.5023562), wk =   0.2962963

                       cryst. coord.
        k(    1) = (   0.0000000   0.0000000   0.0000000), wk =   0.0740741
        k(    2) = (   0.0000000   0.0000000   0.3333333), wk =   0.1481481
        k(    3) = (   0.0000000   0.3333333   0.0000000), wk =   0.1481481
        k(    4) = (   0.0000000   0.3333333   0.3333333), wk =   0.2962963
        k(    5) = (   0.3333333  -0.0000000   0.0000000), wk =   0.1481481
        k(    6) = (   0.3333333  -0.0000000   0.3333333), wk =   0.2962963
        k(    7) = (   0.3333333   0.3333333   0.0000000), wk =   0.1481481
        k(    8) = (   0.3333333   0.3333333   0.3333333), wk =   0.2962963
        k(    9) = (   0.3333333  -0.3333333   0.0000000), wk =   0.1481481
        k(   10) = (   0.3333333  -0.3333333   0.3333333), wk =   0.2962963

     Check: negative core charge=   -0.000002

     Initial potential from superposition of free atoms

     starting charge      83.0911, renormalised to      84.0000
     Starting wfcs are   74 randomized atomic wfcs

     Self-consistent Calculation

     iteration #  1     ecut=    30.00 Ry     beta= 0.70
     Davidson diagonalization with overlap

     ethr =  1.00E-02,  avg # of iterations =  2.2

     total energy              =    -599.63173664 Ry
     estimated scf accuracy    <       5.19962129 Ry

[...]

     c_bands:  1 eigenvalues not converged
     ethr =  4.25E-05,  avg # of iterations = 10.8

[...]

     total energy              =    -602.30361863 Ry
     estimated scf accuracy    <       0.00000156 Ry

     iteration # 11     ecut=    30.00 Ry     beta= 0.70
     Davidson diagonalization with overlap

     ethr =  1.86E-09,  avg # of iterations =  2.0

     End of self-consistent calculation

          k = 0.0000 0.0000 0.0000 (  3035 PWs)   bands (ev):

   -51.3640 -51.3442 -51.3439 -51.3396 -34.8727 -34.8543 -20.4858 -20.4447
   -20.4277 -20.3583 -20.3202 -20.2392 -20.2041 -20.1992 -20.1053 -20.0932
   -20.0895 -20.0234  -4.8433  -3.9233  -3.9178  -3.8588  -2.5228  -2.4709
     5.6993   5.9141   6.0390   6.0858   6.1337   6.5902   6.6237   6.6933
     6.8080   7.1944   7.2755   7.3458   7.3830   7.6596   7.8835   8.8561
     9.0542   9.1435   9.7776  11.3659  11.9326  12.1000  12.5322  13.4245
    14.1360  14.2088  14.2659  14.7608  14.8318  15.0882  15.8286  16.1065
    16.3715  16.8943  16.9498  17.3329  17.5348  17.6490  18.0224  18.6738

     occupation numbers
     1.0000   1.0000   1.0000   1.0000   1.0000   1.0000   1.0000   1.0000
     1.0000   1.0000   1.0000   1.0000   1.0000   1.0000   1.0000   1.0000
     1.0000   1.0000   1.0000   1.0000   1.0000   1.0000   1.0000   1.0000
     1.0000   1.0000   1.0000   1.0000   1.0000   1.0000   1.0000   1.0000
     1.0000   1.0000   1.0000   1.0000   1.0000   1.0000   1.0000   1.0000
     1.0000   1.0000   0.0000   0.0000   0.0000   0.0000   0.0000   0.0000
     0.0000   0.0000   0.0000   0.0000   0.0000   0.0000   0.0000   0.0000
     0.0000   0.0000   0.0000   0.0000   0.0000   0.0000   0.0000   0.0000

[...]

          k = 0.3333-0.1954 0.5024 (  3058 PWs)   bands (ev):

   -51.3643 -51.3551 -51.3528 -51.3458 -34.8686 -34.8590 -20.5615 -20.5511
   -20.4554 -20.4009 -20.3194 -20.2524 -20.2301 -20.1772 -20.0632 -20.0525
   -20.0353 -20.0231  -4.0287  -3.5491  -3.3993  -3.3581  -2.6181  -2.5446
     4.6326   4.7133   4.9750   5.5893   5.6492   6.0205   6.2400   6.3561
     6.4216   6.7298   6.8000   7.1993   7.3218   7.5634   7.8890   8.1771
     8.5305   8.7789  11.9902  12.7393  12.8246  12.9144  13.1897  13.9699
    14.5116  14.5502  14.6883  14.8727  14.9982  15.3939  15.6771  15.8052
    16.2160  16.2675  16.6216  16.8020  17.6776  17.9622  18.0733  18.6366

     occupation numbers
     1.0000   1.0000   1.0000   1.0000   1.0000   1.0000   1.0000   1.0000
     1.0000   1.0000   1.0000   1.0000   1.0000   1.0000   1.0000   1.0000
     1.0000   1.0000   1.0000   1.0000   1.0000   1.0000   1.0000   1.0000
     1.0000   1.0000   1.0000   1.0000   1.0000   1.0000   1.0000   1.0000
     1.0000   1.0000   1.0000   1.0000   1.0000   1.0000   1.0000   1.0000
     1.0000   1.0000   0.0000   0.0000   0.0000   0.0000   0.0000   0.0000
     0.0000   0.0000   0.0000   0.0000   0.0000   0.0000   0.0000   0.0000
     0.0000   0.0000   0.0000   0.0000   0.0000   0.0000   0.0000   0.0000

     highest occupied, lowest unoccupied level (ev):     9.1435    9.7776

!    total energy              =    -602.30361896 Ry
     estimated scf accuracy    <       0.00000004 Ry

     The total energy is the sum of the following terms:
     one-electron contribution =    -185.68309148 Ry
     hartree contribution      =     123.49383534 Ry
     xc contribution           =    -153.96087582 Ry
     ewald contribution        =    -386.15348699 Ry

     convergence has been achieved in  11 iterations

     Writing all to output data dir calculations_bands/myprefix.save/

     General routines

     Parallel routines

   This run was terminated on:  11:18:22   6Jun2023

   JOB DONE.