     Program PWSCF v.7.1 starts on 14Jul2023 at 13:12:11

     Reading input from espresso_18347.pwi
Warning: card &CELL ignored
Warning: card / ignored

     Current dimensions of program PWSCF are:
     Max number of different atomic species (ntypx) = 10
     Max number of k-points (npk) =  40000
     Max angular momentum in pseudopotentials (lmaxx) =  4
     file Nb.pbe-spn-kjpaw_psl.0.3.0.UPF: wavefunction(s)  4S 4P renormalized
     file O.pbe-n-kjpaw_psl.0.1.UPF: wavefunction(s)  2P renormalized

     K-points division:     npool     =       2
     R & G space division:  proc/nbgrp/npool/nimage =       4
     Subspace diagonalization in iterative solution of the eigenvalue problem:
     a serial algorithm will be used

     Using Slab Decomposition

     bravais-lattice index     =            0
     lattice parameter (alat)  =      10.7316  a.u.
     unit-cell volume          =     849.6181 (a.u.)^3
     number of atoms/cell      =           10
     number of atomic types    =            3
     number of electrons       =        80.00
     number of Kohn-Sham states=           64
     kinetic-energy cutoff     =      30.0000  Ry
     charge density cutoff     =     240.0000  Ry
     scf convergence threshold =      1.0E-06
     mixing beta               =       0.7000
     number of iterations used =            8  plain     mixing
     Exchange-correlation= SLA  PW   PBX  PBC
                           (   1   4   3   4   0   0   0)

     celldm(1)=  10.731640  celldm(2)=   0.000000  celldm(3)=   0.000000
     celldm(4)=   0.000000  celldm(5)=   0.000000  celldm(6)=   0.000000

     crystal axes: (cart. coord. in units of alat)
               a(1) = (   1.000000   0.000000   0.000000 )
               a(2) = (   0.518306   0.855195   0.000000 )
               a(3) = (   0.518306   0.291939   0.803822 )

     reciprocal axes: (cart. coord. in units 2 pi/alat)
               b(1) = (  1.000000 -0.606067 -0.424685 )
               b(2) = (  0.000000  1.169324 -0.424685 )
               b(3) = (  0.000000  0.000000  1.244056 )

     PseudoPot. # 1 for Na read from file:
     /lustre07/scratch/pragov/crystal_structure_design/utils/SSSP/na_pbe_v1.5.uspp.F.UPF
     MD5 check sum: 44600605ef58000f06b90626533354dc
     Pseudo is Ultrasoft, Zval =  9.0
     Generated by new atomic code, or converted to UPF format
     Using radial grid of  819 points,  5 beta functions with:
                l(1) =   0
                l(2) =   0
                l(3) =   1
                l(4) =   1
                l(5) =   2
     Q(r) pseudized with  8 coefficients,  rinner =    1.250   1.250   1.250
                                                       1.250   1.250

     PseudoPot. # 2 for Nb read from file:
     /lustre07/scratch/pragov/crystal_structure_design/utils/SSSP/Nb.pbe-spn-kjpaw_psl.0.3.0.UPF
     MD5 check sum: 411d72ad547312f8017e2943ceca08cc
     Pseudo is Projector augmented-wave + core cor, Zval = 13.0
     Generated using "atomic" code by A. Dal Corso  v.5.0.99 svn rev. 10869
     Shape of augmentation charge: PSQ
     Using radial grid of 1227 points,  6 beta functions with:
                l(1) =   0
                l(2) =   0
                l(3) =   1
                l(4) =   1
                l(5) =   2
                l(6) =   2
     Q(r) pseudized with 0 coefficients

     PseudoPot. # 3 for O  read from file:
     /lustre07/scratch/pragov/crystal_structure_design/utils/SSSP/O.pbe-n-kjpaw_psl.0.1.UPF
     MD5 check sum: 0234752ac141de4415c5fc33072bef88
     Pseudo is Projector augmented-wave + core cor, Zval =  6.0
     Generated using "atomic" code by A. Dal Corso  v.5.0.99 svn rev. 10869
     Shape of augmentation charge: BESSEL
     Using radial grid of 1095 points,  4 beta functions with:
                l(1) =   0
                l(2) =   0
                l(3) =   1
                l(4) =   1
     Q(r) pseudized with 0 coefficients

     atomic species   valence    mass     pseudopotential
        Na             9.00    22.98977     Na( 1.00)
        Nb            13.00    92.90637     Nb( 1.00)
        O              6.00    15.99900     O ( 1.00)

     No symmetry found

                                    s                        frac. trans.

      isym =  1     identity

 cryst.   s( 1) = (     1          0          0      )
                  (     0          1          0      )
                  (     0          0          1      )

 cart.    s( 1) = (  1.0000000  0.0000000  0.0000000 )
                  (  0.0000000  1.0000000  0.0000000 )
                  (  0.0000000  0.0000000  1.0000000 )

   Cartesian axes

     site n.     atom                  positions (alat units)
         1           Na  tau(   1) = (   1.4774926   0.8322069   0.5831458  )
         2           Na  tau(   2) = (   0.4591867   0.2586398   0.1812346  )
         3           Nb  tau(   3) = (   2.0084352   1.1312637   0.7927016  )
         4           Nb  tau(   4) = (   0.9901294   0.5576965   0.3907903  )
         5           O   tau(   5) = (   0.7413445   0.4946457   0.6078554  )
         6           O   tau(   6) = (   0.8072620   0.7002481   0.1474283  )
         7           O   tau(   7) = (   1.0172575   0.2503451   0.2574274  )
         8           O   tau(   8) = (   1.2413445   0.4585703   0.6593386  )
         9           O   tau(   9) = (   1.3072620   0.6592447   0.2059441  )
        10           O   tau(  10) = (   1.0355634   0.9009911   0.5493395  )

   Crystallographic axes

     site n.     atom                  positions (cryst. coord.)
         1           Na  tau(   1) = (  0.7254660  0.7254660  0.7254660  )
         2           Na  tau(   2) = (  0.2254660  0.2254660  0.2254660  )
         3           Nb  tau(   3) = (  0.9861650  0.9861650  0.9861650  )
         4           Nb  tau(   4) = (  0.4861650  0.4861650  0.4861650  )
         5           O   tau(   5) = (  0.1834090  0.3202540  0.7562060  )
         6           O   tau(   6) = (  0.3202540  0.7562060  0.1834090  )
         7           O   tau(   7) = (  0.7562060  0.1834090  0.3202540  )
         8           O   tau(   8) = (  0.6834090  0.2562060  0.8202540  )
         9           O   tau(   9) = (  0.8202540  0.6834090  0.2562060  )
        10           O   tau(  10) = (  0.2562060  0.8202540  0.6834090  )

     number of k points=    14
                       cart. coord. in units 2pi/alat
        k(    1) = (   0.0000000   0.0000000   0.0000000), wk =   0.0740741
        k(    2) = (   0.0000000   0.0000000   0.4146853), wk =   0.1481481
        k(    3) = (   0.0000000   0.3897745  -0.1415616), wk =   0.1481481
        k(    4) = (   0.0000000   0.3897745   0.2731237), wk =   0.1481481
        k(    5) = (   0.0000000   0.3897745  -0.5562469), wk =   0.1481481
        k(    6) = (   0.3333333  -0.2020224  -0.1415616), wk =   0.1481481
        k(    7) = (   0.3333333  -0.2020224   0.2731237), wk =   0.1481481
        k(    8) = (   0.3333333  -0.2020224  -0.5562469), wk =   0.1481481
        k(    9) = (   0.3333333   0.1877521  -0.2831232), wk =   0.1481481
        k(   10) = (   0.3333333   0.1877521   0.1315621), wk =   0.1481481
        k(   11) = (   0.3333333   0.1877521  -0.6978085), wk =   0.1481481
        k(   12) = (   0.3333333  -0.5917970   0.0000000), wk =   0.1481481
        k(   13) = (   0.3333333  -0.5917970   0.4146853), wk =   0.1481481
        k(   14) = (   0.3333333  -0.5917970  -0.4146853), wk =   0.1481481

                       cryst. coord.
        k(    1) = (   0.0000000   0.0000000   0.0000000), wk =   0.0740741
        k(    2) = (   0.0000000   0.0000000   0.3333333), wk =   0.1481481
        k(    3) = (   0.0000000   0.3333333   0.0000000), wk =   0.1481481
        k(    4) = (   0.0000000   0.3333333   0.3333333), wk =   0.1481481
        k(    5) = (   0.0000000   0.3333333  -0.3333333), wk =   0.1481481
        k(    6) = (   0.3333333   0.0000000   0.0000000), wk =   0.1481481
        k(    7) = (   0.3333333   0.0000000   0.3333333), wk =   0.1481481
        k(    8) = (   0.3333333   0.0000000  -0.3333333), wk =   0.1481481
        k(    9) = (   0.3333333   0.3333333   0.0000000), wk =   0.1481481
        k(   10) = (   0.3333333   0.3333333   0.3333333), wk =   0.1481481
        k(   11) = (   0.3333333   0.3333333  -0.3333333), wk =   0.1481481
        k(   12) = (   0.3333333  -0.3333333   0.0000000), wk =   0.1481481
        k(   13) = (   0.3333333  -0.3333333   0.3333333), wk =   0.1481481
        k(   14) = (   0.3333333  -0.3333333  -0.3333333), wk =   0.1481481

     Check: negative core charge=   -0.000020

     Initial potential from superposition of free atoms

     starting charge      79.9832, renormalised to      80.0000
     Starting wfcs are   54 randomized atomic wfcs +   10 random wfcs
     Checking if some PAW data can be deallocated...

     Self-consistent Calculation

     iteration #  1     ecut=    30.00 Ry     beta= 0.70
     Davidson diagonalization with overlap

     ethr =  1.00E-02,  avg # of iterations =  6.0

     total energy              =   -1107.45387010 Ry
     estimated scf accuracy    <       4.44065259 Ry

[...]

     total energy              =   -1109.79396740 Ry
     estimated scf accuracy    <       0.00000459 Ry

     iteration # 11     ecut=    30.00 Ry     beta= 0.70
     Davidson diagonalization with overlap

     ethr =  5.10E-09,  avg # of iterations =  1.1

     End of self-consistent calculation

          k = 0.0000 0.0000 0.0000 (  2343 PWs)   bands (ev):

   -47.9602 -47.9521 -42.5117 -42.5093 -24.1786 -24.1786 -24.1265 -24.0660
   -24.0659 -24.0099 -14.4477 -14.4349 -14.4341 -14.4341 -14.4221 -14.4221
   -10.3674  -9.7938  -9.7935  -9.0353  -8.9778  -8.9775   2.0661   2.0663
     2.5840   2.6768   2.6769   2.9710   4.5328   4.5329   4.5492   5.5647
     5.5673   5.5674   5.6962   5.7994   5.7997   6.5334   6.6696   6.6698
     9.4914   9.4914   9.8502  11.6699  11.6700  11.6703  12.1359  13.0676
    13.0677  15.4678  16.4184  16.4186  18.3331  18.8683  18.8684  19.1405
    19.1406  19.7022  19.7022  19.8150  20.3195  21.9206  21.9207  22.0108

     occupation numbers
     1.0000   1.0000   1.0000   1.0000   1.0000   1.0000   1.0000   1.0000
     1.0000   1.0000   1.0000   1.0000   1.0000   1.0000   1.0000   1.0000
     1.0000   1.0000   1.0000   1.0000   1.0000   1.0000   1.0000   1.0000
     1.0000   1.0000   1.0000   1.0000   1.0000   1.0000   1.0000   1.0000
     1.0000   1.0000   1.0000   1.0000   1.0000   1.0000   1.0000   1.0000
     0.0000   0.0000   0.0000   0.0000   0.0000   0.0000   0.0000   0.0000
     0.0000   0.0000   0.0000   0.0000   0.0000   0.0000   0.0000   0.0000
     0.0000   0.0000   0.0000   0.0000   0.0000   0.0000   0.0000   0.0000

[...]

          k = 0.3333-0.5918-0.4147 (  2355 PWs)   bands (ev):

   -47.9566 -47.9558 -42.5109 -42.5109 -24.1747 -24.1550 -24.1281 -24.0913
   -24.0496 -24.0329 -14.4524 -14.4491 -14.4359 -14.4313 -14.4256 -14.4221
    -9.9517  -9.8456  -9.5927  -9.3217  -9.2219  -9.0529   2.0673   2.5860
     2.7518   3.1184   3.4021   3.4329   4.1546   4.2095   4.4124   4.6178
     4.8657   5.1942   5.3840   5.6624   5.7822   5.8825   6.0599   6.4240
    10.2038  10.5518  10.7173  11.2179  11.2190  11.3967  13.4759  13.8656
    14.8535  15.0946  15.4378  15.8989  16.7449  17.6177  18.1578  19.1190
    19.3925  20.1971  20.9153  21.7106  21.9487  22.4674  22.8391  23.0315

     occupation numbers
     1.0000   1.0000   1.0000   1.0000   1.0000   1.0000   1.0000   1.0000
     1.0000   1.0000   1.0000   1.0000   1.0000   1.0000   1.0000   1.0000
     1.0000   1.0000   1.0000   1.0000   1.0000   1.0000   1.0000   1.0000
     1.0000   1.0000   1.0000   1.0000   1.0000   1.0000   1.0000   1.0000
     1.0000   1.0000   1.0000   1.0000   1.0000   1.0000   1.0000   1.0000
     0.0000   0.0000   0.0000   0.0000   0.0000   0.0000   0.0000   0.0000
     0.0000   0.0000   0.0000   0.0000   0.0000   0.0000   0.0000   0.0000
     0.0000   0.0000   0.0000   0.0000   0.0000   0.0000   0.0000   0.0000

     highest occupied, lowest unoccupied level (ev):     6.6698    9.4914

!    total energy              =   -1109.79396733 Ry
     estimated scf accuracy    <       0.00000071 Ry

     The total energy is the sum of the following terms:
     one-electron contribution =    -253.53882810 Ry
     hartree contribution      =     166.51142927 Ry
     xc contribution           =    -131.05848261 Ry
     ewald contribution        =    -417.59596190 Ry
     one-center paw contrib.   =    -474.11212399 Ry
      -> PAW hartree energy AE =       0.00000000 Ry
      -> PAW hartree energy PS =       0.00000000 Ry
      -> PAW xc energy AE      =       0.00000000 Ry
      -> PAW xc energy PS      =       0.00000000 Ry
      -> total E_H with PAW    =     166.51142927 Ry
      -> total E_XC with PAW   =    -131.05848261 Ry

     convergence has been achieved in  11 iterations

     Writing all to output data dir bands_nm/myprefix.save/

     General routines

     Parallel routines

     PAW routines

   This run was terminated on:  13:13:22  14Jul2023

   JOB DONE.