     Program PWSCF v.7.1 starts on 14Jul2023 at  2:49: 7

     Reading input from espresso_17740.pwi
Warning: card &CELL ignored
Warning: card / ignored

     Current dimensions of program PWSCF are:
     Max number of different atomic species (ntypx) = 10
     Max number of k-points (npk) =  40000
     Max angular momentum in pseudopotentials (lmaxx) =  4
     file Tb.paw.z_19.atompaw.wentzcovitch.v1.2.upf: wavefunction(s)  6S 0P 5D 0D 4F 0F renormalized
     file O.pbe-n-kjpaw_psl.0.1.UPF: wavefunction(s)  2P renormalized
     Message from routine setup:
     using ibrav=0 with symmetry is DISCOURAGED, use correct ibrav instead

     K-points division:     npool     =       2
     R & G space division:  proc/nbgrp/npool/nimage =       4
     Subspace diagonalization in iterative solution of the eigenvalue problem:
     a serial algorithm will be used

     Using Slab Decomposition

     bravais-lattice index     =            0
     lattice parameter (alat)  =       7.5687  a.u.
     unit-cell volume          =     832.1680 (a.u.)^3
     number of atoms/cell      =           10
     number of atomic types    =            3
     number of electrons       =        80.00
     number of Kohn-Sham states=           64
     kinetic-energy cutoff     =      30.0000  Ry
     charge density cutoff     =     240.0000  Ry
     scf convergence threshold =      1.0E-06
     mixing beta               =       0.7000
     number of iterations used =            8  plain     mixing
     Exchange-correlation= SLA  PW   PBX  PBC
                           (   1   4   3   4   0   0   0)

     celldm(1)=   7.568688  celldm(2)=   0.000000  celldm(3)=   0.000000
     celldm(4)=   0.000000  celldm(5)=   0.000000  celldm(6)=   0.000000

     crystal axes: (cart. coord. in units of alat)
               a(1) = (   1.000000   0.000000   0.000000 )
               a(2) = (   0.598177   0.895549   0.000000 )
               a(3) = (   0.000000   0.000000   2.143185 )

     reciprocal axes: (cart. coord. in units 2 pi/alat)
               b(1) = (  1.000000 -0.667944  0.000000 )
               b(2) = (  0.000000  1.116633  0.000000 )
               b(3) = (  0.000000  0.000000  0.466595 )

     PseudoPot. # 1 for Tb read from file:
     /lustre07/scratch/pragov/crystal_structure_design/utils/SSSP/Tb.paw.z_19.atompaw.wentzcovitch.v1.2.upf
     MD5 check sum: 9e397ff4c8e7fcf344a3e57e25721bc0
     Pseudo is Projector augmented-wave + core cor, Zval = 19.0
     Generated using ATOMPAW code
     Shape of augmentation charge: BESSEL
     Using radial grid of 1111 points,  8 beta functions with:
                l(1) =   0
                l(2) =   0
                l(3) =   1
                l(4) =   1
                l(5) =   2
                l(6) =   2
                l(7) =   3
                l(8) =   3
     Q(r) pseudized with 0 coefficients

     PseudoPot. # 2 for B  read from file:
     /lustre07/scratch/pragov/crystal_structure_design/utils/SSSP/b_pbe_v1.4.uspp.F.UPF
     MD5 check sum: cc6de2960df11db49a60e589f9ebb39b
     Pseudo is Ultrasoft + core correction, Zval =  3.0
     Generated by new atomic code, or converted to UPF format
     Using radial grid of  781 points,  4 beta functions with:
                l(1) =   0
                l(2) =   0
                l(3) =   1
                l(4) =   1
     Q(r) pseudized with  8 coefficients,  rinner =    1.100   1.100   1.100

     PseudoPot. # 3 for O  read from file:
     /lustre07/scratch/pragov/crystal_structure_design/utils/SSSP/O.pbe-n-kjpaw_psl.0.1.UPF
     MD5 check sum: 0234752ac141de4415c5fc33072bef88
     Pseudo is Projector augmented-wave + core cor, Zval =  6.0
     Generated using "atomic" code by A. Dal Corso  v.5.0.99 svn rev. 10869
     Shape of augmentation charge: BESSEL
     Using radial grid of 1095 points,  4 beta functions with:
                l(1) =   0
                l(2) =   0
                l(3) =   1
                l(4) =   1
     Q(r) pseudized with 0 coefficients

     atomic species   valence    mass     pseudopotential
        Tb            19.00   158.92535     Tb( 1.00)
        B              3.00    10.81000     B ( 1.00)
        O              6.00    15.99900     O ( 1.00)

      2 Sym. Ops. (no inversion) found ( 1 have fractional translation)

                                    s                        frac. trans.

      isym =  1     identity

 cryst.   s( 1) = (     1          0          0      )
                  (     0          1          0      )
                  (     0          0          1      )

 cart.    s( 1) = (  1.0000000  0.0000000  0.0000000 )
                  (  0.0000000  1.0000000  0.0000000 )
                  (  0.0000000  0.0000000  1.0000000 )

      isym =  2     inv. 180 deg rotation - cart. axis [0,0,1]

 cryst.   s( 2) = (     1          0          0      )    f =(  0.0000000 )
                  (     0          1          0      )       (  0.0000000 )
                  (     0          0         -1      )       (  0.5000000 )

 cart.    s( 2) = (  1.0000000  0.0000000  0.0000000 )    f =(  0.0000000 )
                  (  0.0000000  1.0000000  0.0000000 )       (  0.0000000 )
                  (  0.0000000  0.0000000 -1.0000000 )       (  1.0715927 )

   Cartesian axes

     site n.     atom                  positions (alat units)
         1           Tb  tau(   1) = (   1.5370275   0.8827275   1.0709648  )
         2           Tb  tau(   2) = (   1.5370275   0.8827275   0.0006280  )
         3           B   tau(   3) = (   1.0096070   0.4920218   1.6073891  )
         4           B   tau(   4) = (   0.3921129   0.2595561   0.5357964  )
         5           O   tau(   5) = (   1.0380784   0.6412489   1.2939439  )
         6           O   tau(   6) = (   0.5240825   0.3405173   0.2239672  )
         7           O   tau(   7) = (   0.5240825   0.3405173   0.8476256  )
         8           O   tau(   8) = (   1.0380784   0.6412489   1.9208343  )
         9           O   tau(   9) = (   0.9337159   0.1563199   1.6073891  )
        10           O   tau(  10) = (   0.1054036   0.0719126   0.5357964  )

   Crystallographic axes

     site n.     atom                  positions (cryst. coord.)
         1           Tb  tau(   1) = (  0.9474150  0.9856830  0.4997070  )
         2           Tb  tau(   2) = (  0.9474150  0.9856830  0.0002930  )
         3           B   tau(   3) = (  0.6809640  0.5494080  0.7500000  )
         4           B   tau(   4) = (  0.2187440  0.2898290  0.2500000  )
         5           O   tau(   5) = (  0.6097600  0.7160400  0.6037480  )
         6           O   tau(   6) = (  0.2966360  0.3802330  0.1045020  )
         7           O   tau(   7) = (  0.2966360  0.3802330  0.3954980  )
         8           O   tau(   8) = (  0.6097600  0.7160400  0.8962520  )
         9           O   tau(   9) = (  0.8293030  0.1745520  0.7500000  )
        10           O   tau(  10) = (  0.0573700  0.0803000  0.2500000  )

     number of k points=    10
                       cart. coord. in units 2pi/alat
        k(    1) = (   0.0000000   0.0000000   0.0000000), wk =   0.0740741
        k(    2) = (   0.0000000   0.0000000   0.1555317), wk =   0.1481481
        k(    3) = (   0.0000000   0.3722111   0.0000000), wk =   0.1481481
        k(    4) = (   0.0000000   0.3722111   0.1555317), wk =   0.2962963
        k(    5) = (   0.3333333  -0.2226480   0.0000000), wk =   0.1481481
        k(    6) = (   0.3333333  -0.2226480   0.1555317), wk =   0.2962963
        k(    7) = (   0.3333333   0.1495631   0.0000000), wk =   0.1481481
        k(    8) = (   0.3333333   0.1495631   0.1555317), wk =   0.2962963
        k(    9) = (   0.3333333  -0.5948591   0.0000000), wk =   0.1481481
        k(   10) = (   0.3333333  -0.5948591   0.1555317), wk =   0.2962963

                       cryst. coord.
        k(    1) = (   0.0000000   0.0000000   0.0000000), wk =   0.0740741
        k(    2) = (   0.0000000   0.0000000   0.3333333), wk =   0.1481481
        k(    3) = (   0.0000000   0.3333333   0.0000000), wk =   0.1481481
        k(    4) = (   0.0000000   0.3333333   0.3333333), wk =   0.2962963
        k(    5) = (   0.3333333   0.0000000   0.0000000), wk =   0.1481481
        k(    6) = (   0.3333333   0.0000000   0.3333333), wk =   0.2962963
        k(    7) = (   0.3333333   0.3333333   0.0000000), wk =   0.1481481
        k(    8) = (   0.3333333   0.3333333   0.3333333), wk =   0.2962963
        k(    9) = (   0.3333333  -0.3333333   0.0000000), wk =   0.1481481
        k(   10) = (   0.3333333  -0.3333333   0.3333333), wk =   0.2962963

     Check: negative core charge=   -0.000012

     Initial potential from superposition of free atoms

     starting charge      79.9906, renormalised to      80.0000
     Starting wfcs are   96 randomized atomic wfcs
     Checking if some PAW data can be deallocated...

     Self-consistent Calculation

     iteration #  1     ecut=    30.00 Ry     beta= 0.70
     Davidson diagonalization with overlap

     ethr =  1.00E-02,  avg # of iterations =  6.2

     total energy              =   -1718.25535293 Ry
     estimated scf accuracy    <       2.33867069 Ry

[...]

     total energy              =   -1720.39181947 Ry
     estimated scf accuracy    <       0.00000148 Ry

     iteration # 59     ecut=    30.00 Ry     beta= 0.70
     Davidson diagonalization with overlap

     ethr =  1.85E-09,  avg # of iterations =  1.0

     End of self-consistent calculation

          k = 0.0000 0.0000 0.0000 (  2299 PWs)   bands (ev):

   -34.3450 -34.3407 -12.8431 -11.7268 -11.5096 -11.3594 -11.3112 -11.2387
   -11.1869  -9.7838  -9.6518  -9.1316  -9.0615  -8.7263   2.1253   2.4497
     2.6113   2.9052   3.0059   3.4123   4.0319   4.6595   5.1215   5.4138
     5.8943   6.1198   6.1347   6.3763   6.6835   6.7215   6.8989   7.0023
     8.5724   8.5793   8.5899   8.6371   8.6635   8.7346   8.7567   8.8014
     9.0002   9.0530   9.0593   9.0707   9.0850   9.1238  12.5316  13.5996
    14.1174  14.4094  14.5006  15.1396  15.1726  15.5359  15.8613  16.5379
    16.8563  17.2938  17.6685  18.1083  19.3500  19.4119  20.3318  21.1609

     occupation numbers
     1.0000   1.0000   1.0000   1.0000   1.0000   1.0000   1.0000   1.0000
     1.0000   1.0000   1.0000   1.0000   1.0000   1.0000   1.0000   1.0000
     1.0000   1.0000   1.0000   1.0000   1.0000   1.0000   1.0000   1.0000
     1.0000   1.0000   1.0000   1.0000   1.0000   1.0000   1.0000   1.0000
     1.0000   1.0000   1.0000   1.0000   1.0000   1.0000   1.0000   1.0000
     0.0000   0.0000   0.0000   0.0000   0.0000   0.0000   0.0000   0.0000
     0.0000   0.0000   0.0000   0.0000   0.0000   0.0000   0.0000   0.0000
     0.0000   0.0000   0.0000   0.0000   0.0000   0.0000   0.0000   0.0000

[...]

          k = 0.3333-0.5949 0.1555 (  2295 PWs)   bands (ev):

   -34.3306 -34.3284 -12.3591 -12.1640 -12.0094 -11.9412 -11.7671 -11.6288
   -10.1016  -9.9342  -9.2792  -9.2103  -8.8962  -8.5548   2.0583   2.1726
     2.9528   3.0015   3.4183   3.4891   4.0893   4.2463   5.2950   5.3770
     5.6884   5.8350   6.2233   6.3609   6.7589   6.9778   7.2712   7.4593
     8.5680   8.5809   8.5913   8.6024   8.6882   8.7253   8.7421   8.7879
     8.9377   8.9409   8.9619   8.9809   9.1863   9.2422  13.4038  13.5271
    14.4747  14.5630  15.1199  15.3314  16.0379  16.2298  16.3297  16.4954
    17.7332  17.9657  18.4353  18.8689  19.7585  20.0378  20.4787  20.6652

     occupation numbers
     1.0000   1.0000   1.0000   1.0000   1.0000   1.0000   1.0000   1.0000
     1.0000   1.0000   1.0000   1.0000   1.0000   1.0000   1.0000   1.0000
     1.0000   1.0000   1.0000   1.0000   1.0000   1.0000   1.0000   1.0000
     1.0000   1.0000   1.0000   1.0000   1.0000   1.0000   1.0000   1.0000
     1.0000   1.0000   1.0000   1.0000   1.0000   1.0000   1.0000   1.0000
     0.0000   0.0000   0.0000   0.0000   0.0000   0.0000   0.0000   0.0000
     0.0000   0.0000   0.0000   0.0000   0.0000   0.0000   0.0000   0.0000
     0.0000   0.0000   0.0000   0.0000   0.0000   0.0000   0.0000   0.0000

     highest occupied, lowest unoccupied level (ev):     8.8267    8.9341

!    total energy              =   -1720.39181586 Ry
     estimated scf accuracy    <       0.00000097 Ry

     The total energy is the sum of the following terms:
     one-electron contribution =    -343.56863257 Ry
     hartree contribution      =     223.57519883 Ry
     xc contribution           =    -101.29656339 Ry
     ewald contribution        =    -493.61700724 Ry
     one-center paw contrib.   =   -1005.48481148 Ry
      -> PAW hartree energy AE =     429.27285557 Ry
      -> PAW hartree energy PS =    -404.02309716 Ry
      -> PAW xc energy AE      =   -1021.29282283 Ry
      -> PAW xc energy PS      =      47.65082267 Ry
      -> total E_H with PAW    =     248.82495724 Ry
      -> total E_XC with PAW   =   -1074.93856355 Ry

     convergence has been achieved in  59 iterations

     Writing all to output data dir bands_nm/myprefix.save/

     General routines

     Parallel routines

     PAW routines

   This run was terminated on:   2:49:48  14Jul2023

   JOB DONE.