     Program PWSCF v.7.1 starts on 13Jul2023 at  7:45:25

     Reading input from espresso_3228.pwi
Warning: card &CELL ignored
Warning: card / ignored

     Current dimensions of program PWSCF are:
     Max number of different atomic species (ntypx) = 10
     Max number of k-points (npk) =  40000
     Max angular momentum in pseudopotentials (lmaxx) =  4
     Message from routine setup:
     using ibrav=0 with symmetry is DISCOURAGED, use correct ibrav instead

     K-points division:     npool     =       2
     R & G space division:  proc/nbgrp/npool/nimage =       8
     Subspace diagonalization in iterative solution of the eigenvalue problem:
     a serial algorithm will be used

     Using Slab Decomposition

     bravais-lattice index     =            0
     lattice parameter (alat)  =       8.4733  a.u.
     unit-cell volume          =    2263.1589 (a.u.)^3
     number of atoms/cell      =           12
     number of atomic types    =            3
     number of electrons       =       100.00
     number of Kohn-Sham states=           64
     kinetic-energy cutoff     =      30.0000  Ry
     charge density cutoff     =     240.0000  Ry
     scf convergence threshold =      1.0E-06
     mixing beta               =       0.7000
     number of iterations used =            8  plain     mixing
     Exchange-correlation=  SLA  PW   PBX  PBC
                           (   1   4   3   4   0   0   0)

     celldm(1)=   8.473262  celldm(2)=   0.000000  celldm(3)=   0.000000
     celldm(4)=   0.000000  celldm(5)=   0.000000  celldm(6)=   0.000000

     crystal axes: (cart. coord. in units of alat)
               a(1) = (   1.000000   0.000000   0.000000 )
               a(2) = (   0.000000   1.768231   0.000000 )
               a(3) = (   0.000000   0.000000   2.103896 )

     reciprocal axes: (cart. coord. in units 2 pi/alat)
               b(1) = (  1.000000  0.000000  0.000000 )
               b(2) = (  0.000000  0.565537  0.000000 )
               b(3) = (  0.000000  0.000000  0.475309 )

     PseudoPot. # 1 for Ce read from file:
     /lustre07/scratch/pragov/crystal_structure_design/utils/SSSP/Ce.GGA-PBE-paw-v1.0.UPF
     MD5 check sum: f2b950f613061344c13339c8d844425d
     Pseudo is Projector augmented-wave + core cor, Zval = 12.0
     Generated using ATOMPAW code
     Shape of augmentation charge: BESSEL
     Using radial grid of 1102 points,  8 beta functions with:
                l(1) =   0
                l(2) =   0
                l(3) =   1
                l(4) =   1
                l(5) =   2
                l(6) =   2
                l(7) =   3
                l(8) =   3
     Q(r) pseudized with 0 coefficients

     PseudoPot. # 2 for Te read from file:
     /lustre07/scratch/pragov/crystal_structure_design/utils/SSSP/Te_pbe_v1.uspp.F.UPF
     MD5 check sum: c319670d6894cc26e93307826a071b75
     Pseudo is Ultrasoft + core correction, Zval =  6.0
     Generated by new atomic code, or converted to UPF format
     Using radial grid of  891 points,  5 beta functions with:
                l(1) =   0
                l(2) =   0
                l(3) =   1
                l(4) =   1
                l(5) =   2
     Q(r) pseudized with  6 coefficients,  rinner =    1.800   1.800   1.800
                                                       1.800   1.800

     PseudoPot. # 3 for Cl read from file:
     /lustre07/scratch/pragov/crystal_structure_design/utils/SSSP/cl_pbe_v1.4.uspp.F.UPF
     MD5 check sum: fc6f6913ecf08c9257cb748ef0700058
     Pseudo is Ultrasoft + core correction, Zval =  7.0
     Generated by new atomic code, or converted to UPF format
     Using radial grid of  909 points,  6 beta functions with:
                l(1) =   0
                l(2) =   0
                l(3) =   1
                l(4) =   1
                l(5) =   2
                l(6) =   2
     Q(r) pseudized with  8 coefficients,  rinner =    1.300   1.300   1.300
                                                       1.300   1.300

     atomic species   valence    mass     pseudopotential
        Ce            12.00   140.11600     Ce( 1.00)
        Te             6.00   127.60000     Te( 1.00)
        Cl             7.00    35.45000     Cl( 1.00)

      8 Sym. Ops., with inversion, found ( 6 have fractional translation)

                                    s                        frac. trans.

      isym =  1     identity

 cryst.   s( 1) = (     1          0          0      )
                  (     0          1          0      )
                  (     0          0          1      )

 cart.    s( 1) = (  1.0000000  0.0000000  0.0000000 )
                  (  0.0000000  1.0000000  0.0000000 )
                  (  0.0000000  0.0000000  1.0000000 )

      isym =  2     180 deg rotation - cart. axis [0,0,1]

 cryst.   s( 2) = (    -1          0          0      )    f =(  0.0000000 )
                  (     0         -1          0      )       (  0.5000000 )
                  (     0          0          1      )       (  0.5000000 )

 cart.    s( 2) = ( -1.0000000  0.0000000  0.0000000 )    f =(  0.0000000 )
                  (  0.0000000 -1.0000000  0.0000000 )       (  0.8841155 )
                  (  0.0000000  0.0000000  1.0000000 )       (  1.0519478 )

[...]

      isym =  4     180 deg rotation - cart. axis [1,0,0]

[...]

      isym =  5     inversion

 cryst.   s( 5) = (    -1          0          0      )
                  (     0         -1          0      )
                  (     0          0         -1      )

 cart.    s( 5) = ( -1.0000000  0.0000000  0.0000000 )
                  (  0.0000000 -1.0000000  0.0000000 )
                  (  0.0000000  0.0000000 -1.0000000 )

      isym =  6     inv. 180 deg rotation - cart. axis [0,0,1]

[...]

      isym =  8     inv. 180 deg rotation - cart. axis [1,0,0]

 cryst.   s( 8) = (    -1          0          0      )    f =(  0.5000000 )
                  (     0          1          0      )       (  0.0000000 )
                  (     0          0          1      )       (  0.0000000 )

 cart.    s( 8) = ( -1.0000000  0.0000000  0.0000000 )    f =(  0.5000000 )
                  (  0.0000000  1.0000000  0.0000000 )       (  0.0000000 )
                  (  0.0000000  0.0000000  1.0000000 )       (  0.0000000 )

   Cartesian axes

     site n.     atom                  positions (alat units)
         1           Ce  tau(   1) = (   0.2500000   0.4213359   1.3319153  )
         2           Ce  tau(   2) = (   0.2500000   1.3054514   1.8239281  )
         3           Ce  tau(   3) = (   0.7500000   1.3468952   0.7719803  )
         4           Ce  tau(   4) = (   0.7500000   0.4627797   0.2799675  )
         5           Te  tau(   5) = (   0.2500000   0.8165090   0.6988594  )
         6           Te  tau(   6) = (   0.2500000   1.7006245   0.3530884  )
         7           Te  tau(   7) = (   0.7500000   0.9517221   1.4050362  )
         8           Te  tau(   8) = (   0.7500000   0.0676065   1.7508072  )
         9           Cl  tau(   9) = (   0.2500000   1.5287418   1.1793155  )
        10           Cl  tau(  10) = (   0.2500000   0.6446263   1.9765279  )
        11           Cl  tau(  11) = (   0.7500000   0.2394892   0.9245801  )
        12           Cl  tau(  12) = (   0.7500000   1.1236047   0.1273677  )

   Crystallographic axes

     site n.     atom                  positions (cryst. coord.)
         1           Ce  tau(   1) = (  0.2500000  0.2382810  0.6330710  )
         2           Ce  tau(   2) = (  0.2500000  0.7382810  0.8669290  )
         3           Ce  tau(   3) = (  0.7500000  0.7617190  0.3669290  )
         4           Ce  tau(   4) = (  0.7500000  0.2617190  0.1330710  )
         5           Te  tau(   5) = (  0.2500000  0.4617660  0.3321740  )
         6           Te  tau(   6) = (  0.2500000  0.9617660  0.1678260  )
         7           Te  tau(   7) = (  0.7500000  0.5382340  0.6678260  )
         8           Te  tau(   8) = (  0.7500000  0.0382340  0.8321740  )
         9           Cl  tau(   9) = (  0.2500000  0.8645600  0.5605390  )
        10           Cl  tau(  10) = (  0.2500000  0.3645600  0.9394610  )
        11           Cl  tau(  11) = (  0.7500000  0.1354400  0.4394610  )
        12           Cl  tau(  12) = (  0.7500000  0.6354400  0.0605390  )

     number of k points=     8
                       cart. coord. in units 2pi/alat
        k(    1) = (   0.0000000   0.0000000   0.0000000), wk =   0.0740741
        k(    2) = (   0.0000000   0.0000000   0.1584363), wk =   0.1481481
        k(    3) = (   0.0000000   0.1885123   0.0000000), wk =   0.1481481
        k(    4) = (   0.0000000   0.1885123   0.1584363), wk =   0.2962963
        k(    5) = (   0.3333333   0.0000000   0.0000000), wk =   0.1481481
        k(    6) = (   0.3333333   0.0000000   0.1584363), wk =   0.2962963
        k(    7) = (   0.3333333   0.1885123   0.0000000), wk =   0.2962963
        k(    8) = (   0.3333333   0.1885123   0.1584363), wk =   0.5925926

                       cryst. coord.
        k(    1) = (   0.0000000   0.0000000   0.0000000), wk =   0.0740741
        k(    2) = (   0.0000000   0.0000000   0.3333333), wk =   0.1481481
        k(    3) = (   0.0000000   0.3333333   0.0000000), wk =   0.1481481
        k(    4) = (   0.0000000   0.3333333   0.3333333), wk =   0.2962963
        k(    5) = (   0.3333333   0.0000000   0.0000000), wk =   0.1481481
        k(    6) = (   0.3333333   0.0000000   0.3333333), wk =   0.2962963
        k(    7) = (   0.3333333   0.3333333   0.0000000), wk =   0.2962963
        k(    8) = (   0.3333333   0.3333333   0.3333333), wk =   0.5925926

     Initial potential from superposition of free atoms

     starting charge      99.9711, renormalised to     100.0000

     negative rho (up, down):  5.719E-02 0.000E+00
     Starting wfcs are  160 randomized atomic wfcs
     Checking if some PAW data can be deallocated...

     Self-consistent Calculation

     iteration #  1     ecut=    30.00 Ry     beta= 0.70
     Davidson diagonalization with overlap

     ethr =  1.00E-02,  avg # of iterations =  1.1

     Threshold (ethr) on eigenvalues was too large:
     Diagonalizing with lowered threshold

     Davidson diagonalization with overlap

[...]

     negative rho (up, down):  5.896E-02 0.000E+00

     total energy              =   -2168.94069244 Ry
     estimated scf accuracy    <       0.17662982 Ry

[...]

     c_bands:  1 eigenvalues not converged
     ethr =  1.77E-04,  avg # of iterations = 13.1

[...]

     c_bands:  1 eigenvalues not converged
     ethr =  2.39E-08,  avg # of iterations = 11.1

[...]

     total energy              =   -2168.80283240 Ry
     estimated scf accuracy    <       0.00003312 Ry

     iteration # 26     ecut=    30.00 Ry     beta= 0.70
     Davidson diagonalization with overlap

     ethr =  1.11E-08,  avg # of iterations =  9.8

     negative rho (up, down):  5.805E-02 0.000E+00

     End of self-consistent calculation

          k = 0.0000 0.0000 0.0000 (  6267 PWs)   bands (ev):

   -25.8686 -25.8639 -25.8609 -25.8606  -9.2655  -8.9903  -8.8670  -8.8040
    -8.7996  -8.6870  -8.6869  -8.6592  -8.6508  -8.6342  -8.6279  -8.6261
    -7.2490  -6.9571  -6.6914  -6.6768  -1.7757  -1.3660  -1.2984  -1.0715
     3.6633   3.7067   3.8496   3.8688   3.9037   4.1161   4.1628   4.2596
     4.4731   4.6204   5.0131   5.0433   5.8251   6.4613   6.5351   6.5969
     6.7240   7.3162   7.3242   7.6531   7.9294   8.2717   8.2810   8.5174
     9.2242   9.4420   9.4722   9.4810   9.4862   9.5116   9.5567   9.5589
     9.5602   9.5631   9.6105   9.6109   9.6178   9.6375   9.6570   9.6602

     occupation numbers
     1.0000   1.0000   1.0000   1.0000   1.0000   1.0000   1.0000   1.0000
     1.0000   1.0000   1.0000   1.0000   1.0000   1.0000   1.0000   1.0000
     1.0000   1.0000   1.0000   1.0000   1.0000   1.0000   1.0000   1.0000
     1.0000   1.0000   1.0000   1.0000   1.0000   1.0000   1.0000   1.0000
     1.0000   1.0000   1.0000   1.0000   1.0000   1.0000   1.0000   1.0000
     1.0000   1.0000   1.0000   1.0000   1.0000   1.0000   1.0000   1.0000
     1.0000   1.0000   0.0000   0.0000   0.0000   0.0000   0.0000   0.0000
     0.0000   0.0000   0.0000   0.0000   0.0000   0.0000   0.0000   0.0000

[...]

          k = 0.3333 0.1885 0.1584 (  6277 PWs)   bands (ev):

   -25.8605 -25.8597 -25.8575 -25.8572  -9.1023  -9.0503  -8.9634  -8.9355
    -8.7768  -8.7548  -8.7514  -8.7404  -8.6969  -8.6822  -8.6652  -8.6577
    -6.9311  -6.8518  -6.7990  -6.7495  -1.4532  -1.4072  -1.2056  -1.1975
     3.4693   3.5783   3.6243   3.7436   3.9871   4.0292   4.1594   4.2463
     4.6605   4.7083   4.9065   4.9551   6.2955   6.3767   6.4512   6.5360
     6.7739   6.9548   7.1685   7.3262   7.3925   7.5104   7.8096   7.8899
     9.4773   9.4921   9.5040   9.5087   9.5176   9.5328   9.5401   9.5529
     9.5667   9.5763   9.5848   9.5990   9.6043   9.6127   9.6206   9.6223

     occupation numbers
     1.0000   1.0000   1.0000   1.0000   1.0000   1.0000   1.0000   1.0000
     1.0000   1.0000   1.0000   1.0000   1.0000   1.0000   1.0000   1.0000
     1.0000   1.0000   1.0000   1.0000   1.0000   1.0000   1.0000   1.0000
     1.0000   1.0000   1.0000   1.0000   1.0000   1.0000   1.0000   1.0000
     1.0000   1.0000   1.0000   1.0000   1.0000   1.0000   1.0000   1.0000
     1.0000   1.0000   1.0000   1.0000   1.0000   1.0000   1.0000   1.0000
     1.0000   1.0000   0.0000   0.0000   0.0000   0.0000   0.0000   0.0000
     0.0000   0.0000   0.0000   0.0000   0.0000   0.0000   0.0000   0.0000

     highest occupied, lowest unoccupied level (ev):     9.4980    9.4722

!    total energy              =   -2168.80283857 Ry
     estimated scf accuracy    <       0.00000095 Ry

     The total energy is the sum of the following terms:
     one-electron contribution =     -39.86401438 Ry
     hartree contribution      =      74.73965648 Ry
     xc contribution           =    -136.93914609 Ry
     ewald contribution        =    -433.06539167 Ry
     one-center paw contrib.   =   -1633.67394292 Ry
      -> PAW hartree energy AE =      43.97395338 Ry
      -> PAW hartree energy PS =     -43.67390171 Ry
      -> PAW xc energy AE      =    -417.27533934 Ry
      -> PAW xc energy PS      =       8.55680193 Ry
      -> total E_H with PAW    =      75.03970816 Ry
      -> total E_XC with PAW   =    -545.65768349 Ry

     convergence has been achieved in  26 iterations

     Writing all to output data dir bands_nm/myprefix.save/

     General routines

     Parallel routines

     PAW routines

   This run was terminated on:   7:46:10  13Jul2023

   JOB DONE.