     Program PWSCF v.7.1 starts on 15Jul2023 at 21:19:32

     Reading input from espresso_20869.pwi
Warning: card &CELL ignored
Warning: card / ignored

     Current dimensions of program PWSCF are:
     Max number of different atomic species (ntypx) = 10
     Max number of k-points (npk) =  40000
     Max angular momentum in pseudopotentials (lmaxx) =  4
     file Tb.paw.z_19.atompaw.wentzcovitch.v1.2.upf: wavefunction(s)  6S 0P 5D 0D 4F 0F renormalized
     Message from routine setup:
     using ibrav=0 with symmetry is DISCOURAGED, use correct ibrav instead

     K-points division:     npool     =       2
     R & G space division:  proc/nbgrp/npool/nimage =       4
     Subspace diagonalization in iterative solution of the eigenvalue problem:
     one sub-group per band group will be used

     Using Slab Decomposition

     bravais-lattice index     =            0
     lattice parameter (alat)  =      14.5022  a.u.
     unit-cell volume          =    3711.3709 (a.u.)^3
     number of atoms/cell      =           20
     number of atomic types    =            4
     number of electrons       =       156.00
     number of Kohn-Sham states=          256
     kinetic-energy cutoff     =      30.0000  Ry
     charge density cutoff     =     240.0000  Ry
     scf convergence threshold =      1.0E-06
     mixing beta               =       0.7000
     number of iterations used =            8  plain     mixing
     Exchange-correlation= SLA  PW   PBE  PBE
                           (   1   4   3   4   0   0   0)

     celldm(1)=  14.502155  celldm(2)=   0.000000  celldm(3)=   0.000000
     celldm(4)=   0.000000  celldm(5)=   0.000000  celldm(6)=   0.000000

     crystal axes: (cart. coord. in units of alat)
               a(1) = (   1.000000   0.000000   0.000000 )
               a(2) = (   0.000000   0.896837   0.000000 )
               a(3) = (   0.000000   0.025544   1.356823 )

     reciprocal axes: (cart. coord. in units 2 pi/alat)
               b(1) = (  1.000000  0.000000  0.000000 )
               b(2) = (  0.000000  1.115030 -0.020992 )
               b(3) = (  0.000000  0.000000  0.737016 )

     PseudoPot. # 1 for Tb read from file:
     /lustre07/scratch/pragov/crystal_structure_design/utils/SSSP/Tb.paw.z_19.atompaw.wentzcovitch.v1.2.upf
     MD5 check sum: 9e397ff4c8e7fcf344a3e57e25721bc0
     Pseudo is Projector augmented-wave + core cor, Zval = 19.0
     Generated using ATOMPAW code
     Shape of augmentation charge: BESSEL
     Using radial grid of 1111 points,  8 beta functions with:
                l(1) =   0
                l(2) =   0
                l(3) =   1
                l(4) =   1
                l(5) =   2
                l(6) =   2
                l(7) =   3
                l(8) =   3
     Q(r) pseudized with 0 coefficients

     PseudoPot. # 2 for Tl read from file:
     /lustre07/scratch/pragov/crystal_structure_design/utils/SSSP/Tl_pbe_v1.2.uspp.F.UPF
     MD5 check sum: b76cf1f7e72655a2b2c53cf6385d7059
     Pseudo is Ultrasoft + core correction, Zval = 13.0
     Generated by new atomic code, or converted to UPF format
     Using radial grid of  899 points,  6 beta functions with:
                l(1) =   0
                l(2) =   0
                l(3) =   1
                l(4) =   1
                l(5) =   2
                l(6) =   2
     Q(r) pseudized with  6 coefficients,  rinner =    1.100   1.100   1.100
                                                       1.100   1.100

     PseudoPot. # 3 for P  read from file:
     /lustre07/scratch/pragov/crystal_structure_design/utils/SSSP/P.pbe-n-rrkjus_psl.1.0.0.UPF
     MD5 check sum: 8b930f418f0a4573dca56cd030ffe088
     Pseudo is Ultrasoft + core correction, Zval =  5.0
     Generated using "atomic" code by A. Dal Corso  v.5.1
     Using radial grid of 1147 points,  6 beta functions with:
                l(1) =   0
                l(2) =   0
                l(3) =   1
                l(4) =   1
                l(5) =   2
                l(6) =   2
     Q(r) pseudized with 0 coefficients

     PseudoPot. # 4 for Se read from file:
     /lustre07/scratch/pragov/crystal_structure_design/utils/SSSP/Se_pbe_v1.uspp.F.UPF
     MD5 check sum: 1b3568f3a8ae88f9a2a0ad0698632c85
     Pseudo is Ultrasoft + core correction, Zval =  6.0
     Generated by new atomic code, or converted to UPF format
     Using radial grid of  877 points,  6 beta functions with:
                l(1) =   0
                l(2) =   0
                l(3) =   1
                l(4) =   1
                l(5) =   2
                l(6) =   2
     Q(r) pseudized with  8 coefficients,  rinner =    1.300   1.300   1.300
                                                       1.300   1.300

     atomic species   valence    mass     pseudopotential
        Tb            19.00   158.92535     Tb( 1.00)
        Tl            13.00   204.38000     Tl( 1.00)
        P              5.00    30.97376     P ( 1.00)
        Se             6.00    78.97100     Se( 1.00)

      2 Sym. Ops. (no inversion) found ( 1 have fractional translation)

                                    s                        frac. trans.

      isym =  1     identity

 cryst.   s( 1) = (     1          0          0      )
                  (     0          1          0      )
                  (     0          0          1      )

 cart.    s( 1) = (  1.0000000  0.0000000  0.0000000 )
                  (  0.0000000  1.0000000  0.0000000 )
                  (  0.0000000  0.0000000  1.0000000 )

      isym =  2     180 deg rotation - cart. axis [1,0,0]

 cryst.   s( 2) = (     1          0          0      )    f =( -0.5000000 )
                  (     0         -1          0      )       (  0.0000000 )
                  (     0          0         -1      )       (  0.0000000 )

 cart.    s( 2) = (  1.0000000  0.0000000  0.0000000 )    f =( -0.5000000 )
                  (  0.0000000 -1.0000000  0.0000000 )       (  0.0000000 )
                  (  0.0000000  0.0000000 -1.0000000 )       (  0.0000000 )

   Cartesian axes

     site n.     atom                  positions (alat units)
         1           Tb  tau(   1) = (   0.4968950   0.2668423   0.6814155  )
         2           Tb  tau(   2) = (   0.9968950   0.6555386   0.6754075  )
         3           Tl  tau(   3) = (   0.2192700   0.7563962   1.3465355  )
         4           Tl  tau(   4) = (   0.7192700   0.1659848   0.0102874  )
         5           P   tau(   5) = (   0.2271570   0.2980959   1.0778398  )
         6           P   tau(   6) = (   0.7271570   0.6242850   0.2789831  )
         7           P   tau(   7) = (   0.0089670   0.1848871   0.9143399  )
         8           P   tau(   8) = (   0.5089670   0.7374938   0.4424830  )
         9           Se  tau(   9) = (   0.4377870   0.1096527   1.0401703  )
        10           Se  tau(  10) = (   0.9377870   0.8127282   0.3166526  )
        11           Se  tau(  11) = (   0.4127030   0.0870883   0.3340851  )
        12           Se  tau(  12) = (   0.9127030   0.8352926   1.0227378  )
        13           Se  tau(  13) = (   0.3049200   0.5249056   0.9088950  )
        14           Se  tau(  14) = (   0.8049200   0.3974753   0.4479279  )
        15           Se  tau(  15) = (   0.1348530   0.3358742   1.3410322  )
        16           Se  tau(  16) = (   0.6348530   0.5865068   0.0157907  )
        17           Se  tau(  17) = (   0.1338960   0.1276454   0.6552736  )
        18           Se  tau(  18) = (   0.6338960   0.7947356   0.7015494  )
        19           Se  tau(  19) = (   0.8097530   0.3970210   0.9059846  )
        20           Se  tau(  20) = (   0.3097530   0.5253599   0.4508383  )

   Crystallographic axes

     site n.     atom                  positions (cryst. coord.)
         1           Tb  tau(   1) = (  0.4968950  0.2832330  0.5022140  )
         2           Tb  tau(   2) = (  0.9968950  0.7167670  0.4977860  )
         3           Tl  tau(   3) = (  0.2192700  0.8151380  0.9924180  )
         4           Tl  tau(   4) = (  0.7192700  0.1848620  0.0075820  )
         5           P   tau(   5) = (  0.2271570  0.3097600  0.7943850  )
         6           P   tau(   6) = (  0.7271570  0.6902400  0.2056150  )
         7           P   tau(   7) = (  0.0089670  0.1869610  0.6738830  )
         8           P   tau(   8) = (  0.5089670  0.8130390  0.3261170  )
         9           Se  tau(   9) = (  0.4377870  0.1004310  0.7666220  )
        10           Se  tau(  10) = (  0.9377870  0.8995690  0.2333780  )
        11           Se  tau(  11) = (  0.4127030  0.0900930  0.2462260  )
        12           Se  tau(  12) = (  0.9127030  0.9099070  0.7537740  )
        13           Se  tau(  13) = (  0.3049200  0.5662060  0.6698700  )
        14           Se  tau(  14) = (  0.8049200  0.4337940  0.3301300  )
        15           Se  tau(  15) = (  0.1348530  0.3463590  0.9883620  )
        16           Se  tau(  16) = (  0.6348530  0.6536410  0.0116380  )
        17           Se  tau(  17) = (  0.1338960  0.1285730  0.4829470  )
        18           Se  tau(  18) = (  0.6338960  0.8714270  0.5170530  )
        19           Se  tau(  19) = (  0.8097530  0.4236720  0.6677250  )
        20           Se  tau(  20) = (  0.3097530  0.5763280  0.3322750  )

     number of k points=    10
                       cart. coord. in units 2pi/alat
        k(    1) = (   0.0000000   0.0000000   0.0000000), wk =   0.0740741
        k(    2) = (   0.0000000   0.0000000   0.2456720), wk =   0.1481481
        k(    3) = (   0.0000000   0.3716766  -0.0069973), wk =   0.1481481
        k(    4) = (   0.0000000   0.3716766   0.2386747), wk =   0.1481481
        k(    5) = (   0.0000000   0.3716766  -0.2526692), wk =   0.1481481
        k(    6) = (   0.3333333   0.0000000   0.0000000), wk =   0.1481481
        k(    7) = (   0.3333333   0.0000000   0.2456720), wk =   0.2962963
        k(    8) = (   0.3333333   0.3716766  -0.0069973), wk =   0.2962963
        k(    9) = (   0.3333333   0.3716766   0.2386747), wk =   0.2962963
        k(   10) = (   0.3333333   0.3716766  -0.2526692), wk =   0.2962963

                       cryst. coord.
        k(    1) = (   0.0000000   0.0000000   0.0000000), wk =   0.0740741
        k(    2) = (   0.0000000   0.0000000   0.3333333), wk =   0.1481481
        k(    3) = (   0.0000000   0.3333333   0.0000000), wk =   0.1481481
        k(    4) = (   0.0000000   0.3333333   0.3333333), wk =   0.1481481
        k(    5) = (   0.0000000   0.3333333  -0.3333333), wk =   0.1481481
        k(    6) = (   0.3333333   0.0000000   0.0000000), wk =   0.1481481
        k(    7) = (   0.3333333   0.0000000   0.3333333), wk =   0.2962963
        k(    8) = (   0.3333333   0.3333333   0.0000000), wk =   0.2962963
        k(    9) = (   0.3333333   0.3333333   0.3333333), wk =   0.2962963
        k(   10) = (   0.3333333   0.3333333  -0.3333333), wk =   0.2962963

     Check: negative core charge=   -0.000002

     Initial potential from superposition of free atoms

     starting charge     155.9799, renormalised to     156.0000

     negative rho (up, down):  1.006E-01 0.000E+00
     Starting wfcs are  146 randomized atomic wfcs +  110 random wfcs
     Checking if some PAW data can be deallocated...

     Self-consistent Calculation

     iteration #  1     ecut=    30.00 Ry     beta= 0.70
     Davidson diagonalization with overlap

     ethr =  1.00E-02,  avg # of iterations =  7.1

     negative rho (up, down):  1.050E-01 0.000E+00

     total energy              =   -2269.33772777 Ry
     estimated scf accuracy    <      52.23149350 Ry

[...]

     total energy              =   -2326.96845337 Ry
     estimated scf accuracy    <       0.00000312 Ry

     iteration # 57     ecut=    30.00 Ry     beta= 0.70
     Davidson diagonalization with overlap

     ethr =  2.00E-09,  avg # of iterations =  1.0

     negative rho (up, down):  9.981E-02 0.000E+00

     End of self-consistent calculation

          k = 0.0000 0.0000 0.0000 ( 10297 PWs)   bands (ev):

   -38.0245 -38.0241 -15.1259 -15.1251 -15.0951 -15.0854 -15.0734 -15.0584
    -9.4522  -9.2533  -8.3081  -8.3025  -7.0430  -6.9605  -6.9046  -6.8351
    -6.7812  -6.6540  -6.6052  -6.5664  -4.6701  -4.6545  -4.6454  -4.6411
    -4.6352  -4.6291  -4.6279  -4.6233  -4.6145  -4.5960  -4.5640  -3.9519
    -2.4669  -2.3494   0.2404   0.3682   0.4902   0.5383   0.5764   0.7970
     0.8099   1.0171   1.1719   1.4448   1.6714   1.8255   2.3838   2.8446
     3.2926   3.4163   3.4674   3.4703   3.5888   3.7079   3.7814   3.8112
     3.9339   4.0972   4.2259   4.2580   4.4206   4.4553   4.6480   4.6912
     4.7927   4.7976   4.9112   4.9336   5.1204   5.2891   5.3059   5.3319
     5.3852   5.4001   5.4049   5.4221   5.4726   5.4912   5.6845   5.6881
     5.7128   5.7383   5.7986   5.8088   7.3444   7.6347   7.6354   8.0282
     8.3560   8.3951   8.7124   8.7567   8.8861   9.1388   9.2337   9.2497
     9.3621   9.5690   9.9054  10.0282  10.0725  10.0834  10.1968  10.2542
    10.4456  10.5736  10.6235  10.7951  10.9385  10.9650  11.0055  11.1035
    11.1904  11.4606  11.5308  11.9087  12.3785  12.5914  12.7905  12.9607
    13.0298  13.1833  13.2896  13.5678  13.6126  13.6266  14.0005  14.0012
    14.2145  14.2276  14.4361  14.5473  14.5473  14.8504  14.8927  14.9173
    15.2008  15.3215  15.5573  15.5893  15.6944  15.9053  16.0684  16.1763
    16.2107  16.4576  16.4588  16.6070  16.6266  16.8204  16.8801  17.1045
    17.1421  17.3087  17.4777  17.6586  17.8663  17.9597  17.9864  18.1873
    18.2818  18.3192  18.4751  18.5373  18.9597  18.9925  19.0694  19.0980
    19.1569  19.2634  19.2843  19.4020  19.7925  19.8193  20.0205  20.0538
    20.2192  20.3130  20.3893  20.5348  20.6484  20.6507  20.8336  20.9786
    21.0594  21.3786  21.4024  21.4496  21.4941  21.5115  21.6518  21.8103
    22.0065  22.0516  22.3010  22.3044  22.3860  22.4887  22.6023  22.6283
    22.8479  22.8798  22.9973  23.0790  23.0865  23.1906  23.2903  23.4384
    23.5226  23.6323  23.8026  23.8927  23.9589  24.0985  24.1976  24.2037
    24.4179  24.5343  24.5599  24.5945  24.7619  24.8106  24.8755  24.9605
    25.0829  25.2396  25.3432  25.4784  25.5160  25.7706  25.7823  25.8628
    25.9637  25.9713  26.1130  26.2276  26.3013  26.4319  26.4723  26.4886
    26.5559  26.7894  26.9527  27.0053  27.0713  27.2219  27.2257  27.2950
    27.3145  27.4512  27.7145  27.8253  27.8261  27.9319  28.0298  28.1189

     occupation numbers
     1.0000   1.0000   1.0000   1.0000   1.0000   1.0000   1.0000   1.0000
     1.0000   1.0000   1.0000   1.0000   1.0000   1.0000   1.0000   1.0000
     1.0000   1.0000   1.0000   1.0000   1.0000   1.0000   1.0000   1.0000
     1.0000   1.0000   1.0000   1.0000   1.0000   1.0000   1.0000   1.0000
     1.0000   1.0000   1.0000   1.0000   1.0000   1.0000   1.0000   1.0000
     1.0000   1.0000   1.0000   1.0000   1.0000   1.0000   1.0000   1.0000
     1.0000   1.0000   1.0000   1.0000   1.0000   1.0000   1.0000   1.0000
     1.0000   1.0000   1.0000   1.0000   1.0000   1.0000   1.0000   1.0000
     1.0000   1.0000   1.0000   1.0000   1.0000   1.0000   1.0000   1.0000
     1.0000   1.0000   1.0000   1.0000   1.0000   1.0000   0.0000   0.0000
     0.0000   0.0000   0.0000   0.0000   0.0000   0.0000   0.0000   0.0000
     0.0000   0.0000   0.0000   0.0000   0.0000   0.0000   0.0000   0.0000
     0.0000   0.0000   0.0000   0.0000   0.0000   0.0000   0.0000   0.0000
     0.0000   0.0000   0.0000   0.0000   0.0000   0.0000   0.0000   0.0000
     0.0000   0.0000   0.0000   0.0000   0.0000   0.0000   0.0000   0.0000
     0.0000   0.0000   0.0000   0.0000   0.0000   0.0000   0.0000   0.0000
     0.0000   0.0000   0.0000   0.0000   0.0000   0.0000   0.0000   0.0000
     0.0000   0.0000   0.0000   0.0000   0.0000   0.0000   0.0000   0.0000
     0.0000   0.0000   0.0000   0.0000   0.0000   0.0000   0.0000   0.0000
     0.0000   0.0000   0.0000   0.0000   0.0000   0.0000   0.0000   0.0000
     0.0000   0.0000   0.0000   0.0000   0.0000   0.0000   0.0000   0.0000
     0.0000   0.0000   0.0000   0.0000   0.0000   0.0000   0.0000   0.0000
     0.0000   0.0000   0.0000   0.0000   0.0000   0.0000   0.0000   0.0000
     0.0000   0.0000   0.0000   0.0000   0.0000   0.0000   0.0000   0.0000
     0.0000   0.0000   0.0000   0.0000   0.0000   0.0000   0.0000   0.0000
     0.0000   0.0000   0.0000   0.0000   0.0000   0.0000   0.0000   0.0000
     0.0000   0.0000   0.0000   0.0000   0.0000   0.0000   0.0000   0.0000
     0.0000   0.0000   0.0000   0.0000   0.0000   0.0000   0.0000   0.0000
     0.0000   0.0000   0.0000   0.0000   0.0000   0.0000   0.0000   0.0000
     0.0000   0.0000   0.0000   0.0000   0.0000   0.0000   0.0000   0.0000
     0.0000   0.0000   0.0000   0.0000   0.0000   0.0000   0.0000   0.0000
     0.0000   0.0000   0.0000   0.0000   0.0000   0.0000   0.0000   0.0000

[...]

          k = 0.3333 0.3717-0.2527 ( 10272 PWs)   bands (ev):

   -38.0244 -38.0242 -15.1285 -15.1228 -15.0947 -15.0892 -15.0687 -15.0625
    -9.3133  -9.2678  -8.3444  -8.3122  -7.1378  -7.0924  -6.9176  -6.8558
    -6.7351  -6.7076  -6.6185  -6.6013  -4.6557  -4.6516  -4.6465  -4.6417
    -4.6369  -4.6327  -4.6288  -4.6246  -4.6232  -4.6107  -4.1209  -4.0082
    -2.3856  -2.3677   0.0383   0.2271   0.3613   0.6157   0.6456   0.7795
     0.9097   0.9512   1.3868   1.4747   1.6014   1.6842   2.5501   2.8327
     3.1446   3.2637   3.3442   3.3871   3.5365   3.7880   3.8583   3.9076
     4.0328   4.0798   4.2417   4.3570   4.3840   4.5426   4.6034   4.7125
     4.7692   4.8322   4.9372   5.0257   5.1337   5.2464   5.3100   5.3466
     5.3772   5.3925   5.4093   5.4272   5.4696   5.4931   5.6693   5.6824
     5.7362   5.7636   5.7820   5.7891   7.4424   7.6765   8.0010   8.1376
     8.2512   8.3978   8.6231   8.6876   8.8089   8.9542   9.0100   9.1931
     9.3116   9.4550   9.5847   9.7153   9.8602   9.9692  10.0686  10.2357
    10.3250  10.5746  10.6437  10.6833  10.8771  10.9739  11.1131  11.2408
    11.3746  11.5285  12.1305  12.1681  12.3204  12.5344  12.6519  12.9607
    13.0958  13.1800  13.4016  13.5789  13.7322  13.7903  13.9054  14.0285
    14.1032  14.3293  14.4633  14.5811  14.7905  14.9256  15.0087  15.0979
    15.3208  15.3480  15.5666  15.7513  15.8517  15.9362  15.9951  16.0819
    16.3119  16.4613  16.5910  16.7006  16.7556  16.9661  17.0555  17.1154
    17.3081  17.3607  17.5599  17.6210  17.7068  17.9872  18.1032  18.1527
    18.3466  18.4516  18.4788  18.5831  18.6693  18.7402  18.8752  19.0765
    19.2451  19.2831  19.4107  19.4980  19.6295  19.7726  19.8899  19.9883
    20.0736  20.2566  20.3981  20.4375  20.6308  20.6658  20.7263  20.8596
    20.9272  21.0649  21.2449  21.3178  21.4353  21.5021  21.5754  21.6896
    21.8168  21.8902  22.0235  22.1374  22.2974  22.3831  22.4858  22.5499
    22.6506  22.7868  22.8570  23.1034  23.1618  23.2267  23.3639  23.4475
    23.4979  23.6907  23.7437  23.8779  23.9268  24.0740  24.2318  24.2875
    24.4163  24.5054  24.5762  24.5981  24.7108  24.8455  24.9760  25.0918
    25.2015  25.2276  25.3479  25.4655  25.5798  25.6143  25.6835  25.7457
    25.9021  26.0053  26.0911  26.2449  26.3439  26.4092  26.4740  26.5429
    26.6501  26.7729  26.8685  27.0295  27.0844  27.2292  27.2753  27.4067
    27.5244  27.5848  27.7448  27.8125  27.9870  28.0114  28.0986  28.1159

     occupation numbers
     1.0000   1.0000   1.0000   1.0000   1.0000   1.0000   1.0000   1.0000
     1.0000   1.0000   1.0000   1.0000   1.0000   1.0000   1.0000   1.0000
     1.0000   1.0000   1.0000   1.0000   1.0000   1.0000   1.0000   1.0000
     1.0000   1.0000   1.0000   1.0000   1.0000   1.0000   1.0000   1.0000
     1.0000   1.0000   1.0000   1.0000   1.0000   1.0000   1.0000   1.0000
     1.0000   1.0000   1.0000   1.0000   1.0000   1.0000   1.0000   1.0000
     1.0000   1.0000   1.0000   1.0000   1.0000   1.0000   1.0000   1.0000
     1.0000   1.0000   1.0000   1.0000   1.0000   1.0000   1.0000   1.0000
     1.0000   1.0000   1.0000   1.0000   1.0000   1.0000   1.0000   1.0000
     1.0000   1.0000   1.0000   1.0000   1.0000   1.0000   0.0000   0.0000
     0.0000   0.0000   0.0000   0.0000   0.0000   0.0000   0.0000   0.0000
     0.0000   0.0000   0.0000   0.0000   0.0000   0.0000   0.0000   0.0000
     0.0000   0.0000   0.0000   0.0000   0.0000   0.0000   0.0000   0.0000
     0.0000   0.0000   0.0000   0.0000   0.0000   0.0000   0.0000   0.0000
     0.0000   0.0000   0.0000   0.0000   0.0000   0.0000   0.0000   0.0000
     0.0000   0.0000   0.0000   0.0000   0.0000   0.0000   0.0000   0.0000
     0.0000   0.0000   0.0000   0.0000   0.0000   0.0000   0.0000   0.0000
     0.0000   0.0000   0.0000   0.0000   0.0000   0.0000   0.0000   0.0000
     0.0000   0.0000   0.0000   0.0000   0.0000   0.0000   0.0000   0.0000
     0.0000   0.0000   0.0000   0.0000   0.0000   0.0000   0.0000   0.0000
     0.0000   0.0000   0.0000   0.0000   0.0000   0.0000   0.0000   0.0000
     0.0000   0.0000   0.0000   0.0000   0.0000   0.0000   0.0000   0.0000
     0.0000   0.0000   0.0000   0.0000   0.0000   0.0000   0.0000   0.0000
     0.0000   0.0000   0.0000   0.0000   0.0000   0.0000   0.0000   0.0000
     0.0000   0.0000   0.0000   0.0000   0.0000   0.0000   0.0000   0.0000
     0.0000   0.0000   0.0000   0.0000   0.0000   0.0000   0.0000   0.0000
     0.0000   0.0000   0.0000   0.0000   0.0000   0.0000   0.0000   0.0000
     0.0000   0.0000   0.0000   0.0000   0.0000   0.0000   0.0000   0.0000
     0.0000   0.0000   0.0000   0.0000   0.0000   0.0000   0.0000   0.0000
     0.0000   0.0000   0.0000   0.0000   0.0000   0.0000   0.0000   0.0000
     0.0000   0.0000   0.0000   0.0000   0.0000   0.0000   0.0000   0.0000
     0.0000   0.0000   0.0000   0.0000   0.0000   0.0000   0.0000   0.0000

     highest occupied, lowest unoccupied level (ev):     5.5391    5.6693

!    total energy              =   -2326.96845642 Ry
     estimated scf accuracy    <       0.00000089 Ry

     The total energy is the sum of the following terms:
     one-electron contribution =    -520.15365513 Ry
     hartree contribution      =     339.11467147 Ry
     xc contribution           =    -548.40766519 Ry
     ewald contribution        =    -649.45066162 Ry
     one-center paw contrib.   =    -948.07114596 Ry
      -> PAW hartree energy AE =     432.67578157 Ry
      -> PAW hartree energy PS =    -406.95201403 Ry
      -> PAW xc energy AE      =   -1021.66482209 Ry
      -> PAW xc energy PS      =      47.86990859 Ry
      -> total E_H with PAW    =     364.83843901 Ry
      -> total E_XC with PAW   =   -1522.20257868 Ry

     convergence has been achieved in  57 iterations

     Writing all to output data dir bands_nm/myprefix.save/

     General routines

     Parallel routines

     PAW routines

   This run was terminated on:  21:27:11  15Jul2023

   JOB DONE.