     Program PWSCF v.7.1 starts on 15Jul2023 at 22: 0:27

     Reading input from espresso_20895.pwi
Warning: card &CELL ignored
Warning: card / ignored

     Current dimensions of program PWSCF are:
     Max number of different atomic species (ntypx) = 10
     Max number of k-points (npk) =  40000
     Max angular momentum in pseudopotentials (lmaxx) =  4
     Message from routine setup:
     using ibrav=0 with symmetry is DISCOURAGED, use correct ibrav instead

     K-points division:     npool     =       2
     R & G space division:  proc/nbgrp/npool/nimage =       4
     Subspace diagonalization in iterative solution of the eigenvalue problem:
     one sub-group per band group will be used

     Using Slab Decomposition

     bravais-lattice index     =            0
     lattice parameter (alat)  =      14.7553  a.u.
     unit-cell volume          =    4775.7541 (a.u.)^3
     number of atoms/cell      =           18
     number of atomic types    =            3
     number of electrons       =       168.00
     number of Kohn-Sham states=          256
     kinetic-energy cutoff     =      30.0000  Ry
     charge density cutoff     =     240.0000  Ry
     scf convergence threshold =      1.0E-06
     mixing beta               =       0.7000
     number of iterations used =            8  plain     mixing
     Exchange-correlation= SLA  PW   PBX  PBC
                           (   1   4   3   4   0   0   0)

     celldm(1)=  14.755331  celldm(2)=   0.000000  celldm(3)=   0.000000
     celldm(4)=   0.000000  celldm(5)=   0.000000  celldm(6)=   0.000000

     crystal axes: (cart. coord. in units of alat)
               a(1) = (   1.000000   0.000000   0.000000 )
               a(2) = (   0.000000   1.000000   0.000000 )
               a(3) = (   0.000000   0.000000   1.486603 )

     reciprocal axes: (cart. coord. in units 2 pi/alat)
               b(1) = (  1.000000  0.000000  0.000000 )
               b(2) = (  0.000000  1.000000  0.000000 )
               b(3) = (  0.000000  0.000000  0.672674 )

     PseudoPot. # 1 for Tl read from file:
     /lustre07/scratch/pragov/crystal_structure_design/utils/SSSP/Tl_pbe_v1.2.uspp.F.UPF
     MD5 check sum: b76cf1f7e72655a2b2c53cf6385d7059
     Pseudo is Ultrasoft + core correction, Zval = 13.0
     Generated by new atomic code, or converted to UPF format
     Using radial grid of  899 points,  6 beta functions with:
                l(1) =   0
                l(2) =   0
                l(3) =   1
                l(4) =   1
                l(5) =   2
                l(6) =   2
     Q(r) pseudized with  6 coefficients,  rinner =    1.100   1.100   1.100
                                                       1.100   1.100

     PseudoPot. # 2 for Pt read from file:
     /lustre07/scratch/pragov/crystal_structure_design/utils/SSSP/pt_pbe_v1.4.uspp.F.UPF
     MD5 check sum: f09d6de1a584b5a045c4fc126da2d0c4
     Pseudo is Ultrasoft + core correction, Zval = 16.0
     Generated by new atomic code, or converted to UPF format
     Using radial grid of  985 points,  6 beta functions with:
                l(1) =   0
                l(2) =   0
                l(3) =   1
                l(4) =   1
                l(5) =   2
                l(6) =   2
     Q(r) pseudized with  8 coefficients,  rinner =    1.300   1.300   1.300
                                                       1.300   1.300

     PseudoPot. # 3 for I  read from file:
     /lustre07/scratch/pragov/crystal_structure_design/utils/SSSP/I.pbe-n-kjpaw_psl.0.2.UPF
     MD5 check sum: d4ef18d9c8f18dc85e5843bca1e50dc0
     Pseudo is Projector augmented-wave + core cor, Zval =  7.0
     Generated using "atomic" code by A. Dal Corso  v.5.0.99 svn rev. 10869
     Shape of augmentation charge: PSQ
     Using radial grid of 1247 points,  4 beta functions with:
                l(1) =   0
                l(2) =   0
                l(3) =   1
                l(4) =   1
     Q(r) pseudized with 0 coefficients

     atomic species   valence    mass     pseudopotential
        Tl            13.00   204.38000     Tl( 1.00)
        Pt            16.00   195.08400     Pt( 1.00)
        I              7.00   126.90447     I ( 1.00)

     16 Sym. Ops., with inversion, found ( 8 have fractional translation)

                                    s                        frac. trans.

      isym =  1     identity

 cryst.   s( 1) = (     1          0          0      )
                  (     0          1          0      )
                  (     0          0          1      )

 cart.    s( 1) = (  1.0000000  0.0000000  0.0000000 )
                  (  0.0000000  1.0000000  0.0000000 )
                  (  0.0000000  0.0000000  1.0000000 )

      isym =  2     180 deg rotation - cart. axis [0,0,1]

[...]

 cryst.   s( 3) = (    -1          0          0      )    f =(  0.5000000 )
                  (     0          1          0      )       (  0.5000000 )
                  (     0          0         -1      )       ( -0.5000000 )

 cart.    s( 3) = ( -1.0000000  0.0000000  0.0000000 )    f =(  0.5000000 )
                  (  0.0000000  1.0000000  0.0000000 )       (  0.5000000 )
                  (  0.0000000  0.0000000 -1.0000000 )       ( -0.7433016 )

[...]

 cryst.   s( 6) = (     0         -1          0      )    f =(  0.5000000 )
                  (    -1          0          0      )       (  0.5000000 )
                  (     0          0         -1      )       ( -0.5000000 )

 cart.    s( 6) = (  0.0000000 -1.0000000  0.0000000 )    f =(  0.5000000 )
                  ( -1.0000000  0.0000000  0.0000000 )       (  0.5000000 )
                  (  0.0000000  0.0000000 -1.0000000 )       ( -0.7433016 )

[...]

      isym =  8      90 deg rotation - cart. axis [0,0,1]

[...]

      isym =  9     inversion

 cryst.   s( 9) = (    -1          0          0      )
                  (     0         -1          0      )
                  (     0          0         -1      )

 cart.    s( 9) = ( -1.0000000  0.0000000  0.0000000 )
                  (  0.0000000 -1.0000000  0.0000000 )
                  (  0.0000000  0.0000000 -1.0000000 )

      isym = 10     inv. 180 deg rotation - cart. axis [0,0,1]

 cryst.   s(10) = (     1          0          0      )
                  (     0          1          0      )
                  (     0          0         -1      )

 cart.    s(10) = (  1.0000000  0.0000000  0.0000000 )
                  (  0.0000000  1.0000000  0.0000000 )
                  (  0.0000000  0.0000000 -1.0000000 )

[...]

 cryst.   s(11) = (     1          0          0      )    f =( -0.5000000 )
                  (     0         -1          0      )       (  0.5000000 )
                  (     0          0          1      )       ( -0.5000000 )

 cart.    s(11) = (  1.0000000  0.0000000  0.0000000 )    f =( -0.5000000 )
                  (  0.0000000 -1.0000000  0.0000000 )       (  0.5000000 )
                  (  0.0000000  0.0000000  1.0000000 )       ( -0.7433016 )

[...]

 cryst.   s(14) = (     0          1          0      )    f =( -0.5000000 )
                  (     1          0          0      )       (  0.5000000 )
                  (     0          0          1      )       ( -0.5000000 )

 cart.    s(14) = (  0.0000000  1.0000000  0.0000000 )    f =( -0.5000000 )
                  (  1.0000000  0.0000000  0.0000000 )       (  0.5000000 )
                  (  0.0000000  0.0000000  1.0000000 )       ( -0.7433016 )

[...]

      isym = 16     inv.  90 deg rotation - cart. axis [0,0,1]

 cryst.   s(16) = (     0         -1          0      )
                  (     1          0          0      )
                  (     0          0         -1      )

 cart.    s(16) = (  0.0000000  1.0000000  0.0000000 )
                  ( -1.0000000  0.0000000  0.0000000 )
                  (  0.0000000  0.0000000 -1.0000000 )

   Cartesian axes

     site n.     atom                  positions (alat units)
         1           Tl  tau(   1) = (   0.0000000   0.5000000   0.3716508  )
         2           Tl  tau(   2) = (   0.0000000   0.5000000   1.1149524  )
         3           Tl  tau(   3) = (   0.5000000   0.0000000   0.3716508  )
         4           Tl  tau(   4) = (   0.5000000   0.0000000   1.1149524  )
         5           Pt  tau(   5) = (   0.0000000   0.0000000   0.0000000  )
         6           Pt  tau(   6) = (   0.5000000   0.5000000   0.7433016  )
         7           I   tau(   7) = (   0.2044660   0.2789340   0.0000000  )
         8           I   tau(   8) = (   0.7955340   0.7210660   0.0000000  )
         9           I   tau(   9) = (   0.7210660   0.2044660   0.0000000  )
        10           I   tau(  10) = (   0.2955340   0.7789340   0.7433016  )
        11           I   tau(  11) = (   0.2789340   0.7955340   0.0000000  )
        12           I   tau(  12) = (   0.7044660   0.2210660   0.7433016  )
        13           I   tau(  13) = (   0.7789340   0.7044660   0.7433016  )
        14           I   tau(  14) = (   0.2210660   0.2955340   0.7433016  )
        15           I   tau(  15) = (   0.0000000   0.0000000   0.3464796  )
        16           I   tau(  16) = (   0.0000000   0.0000000   1.1401236  )
        17           I   tau(  17) = (   0.5000000   0.5000000   0.3968220  )
        18           I   tau(  18) = (   0.5000000   0.5000000   1.0897813  )

   Crystallographic axes

     site n.     atom                  positions (cryst. coord.)
         1           Tl  tau(   1) = (  0.0000000  0.5000000  0.2500000  )
         2           Tl  tau(   2) = (  0.0000000  0.5000000  0.7500000  )
         3           Tl  tau(   3) = (  0.5000000  0.0000000  0.2500000  )
         4           Tl  tau(   4) = (  0.5000000  0.0000000  0.7500000  )
         5           Pt  tau(   5) = (  0.0000000  0.0000000  0.0000000  )
         6           Pt  tau(   6) = (  0.5000000  0.5000000  0.5000000  )
         7           I   tau(   7) = (  0.2044660  0.2789340  0.0000000  )
         8           I   tau(   8) = (  0.7955340  0.7210660  0.0000000  )
         9           I   tau(   9) = (  0.7210660  0.2044660  0.0000000  )
        10           I   tau(  10) = (  0.2955340  0.7789340  0.5000000  )
        11           I   tau(  11) = (  0.2789340  0.7955340  0.0000000  )
        12           I   tau(  12) = (  0.7044660  0.2210660  0.5000000  )
        13           I   tau(  13) = (  0.7789340  0.7044660  0.5000000  )
        14           I   tau(  14) = (  0.2210660  0.2955340  0.5000000  )
        15           I   tau(  15) = (  0.0000000  0.0000000  0.2330680  )
        16           I   tau(  16) = (  0.0000000  0.0000000  0.7669320  )
        17           I   tau(  17) = (  0.5000000  0.5000000  0.2669320  )
        18           I   tau(  18) = (  0.5000000  0.5000000  0.7330680  )

     number of k points=     6
                       cart. coord. in units 2pi/alat
        k(    1) = (   0.0000000   0.0000000   0.0000000), wk =   0.0740741
        k(    2) = (   0.0000000   0.0000000   0.2242248), wk =   0.1481481
        k(    3) = (   0.0000000   0.3333333   0.0000000), wk =   0.2962963
        k(    4) = (   0.0000000   0.3333333   0.2242248), wk =   0.5925926
        k(    5) = (   0.3333333   0.3333333   0.0000000), wk =   0.2962963
        k(    6) = (   0.3333333   0.3333333   0.2242248), wk =   0.5925926

                       cryst. coord.
        k(    1) = (   0.0000000   0.0000000   0.0000000), wk =   0.0740741
        k(    2) = (   0.0000000   0.0000000   0.3333333), wk =   0.1481481
        k(    3) = (   0.0000000   0.3333333   0.0000000), wk =   0.2962963
        k(    4) = (   0.0000000   0.3333333   0.3333333), wk =   0.5925926
        k(    5) = (   0.3333333   0.3333333   0.0000000), wk =   0.2962963
        k(    6) = (   0.3333333   0.3333333   0.3333333), wk =   0.5925926

     Check: negative core charge=   -0.000002

     Initial potential from superposition of free atoms

     starting charge     166.9796, renormalised to     168.0000

     negative rho (up, down):  5.612E-01 0.000E+00
     Starting wfcs are  108 randomized atomic wfcs +  148 random wfcs
     Checking if some PAW data can be deallocated...

     Self-consistent Calculation

     iteration #  1     ecut=    30.00 Ry     beta= 0.70
     Davidson diagonalization with overlap

     ethr =  1.00E-02,  avg # of iterations =  7.0

     negative rho (up, down):  5.292E-01 0.000E+00

     total energy              =   -5547.29160638 Ry
     estimated scf accuracy    <       2.36388601 Ry

[...]

     total energy              =   -5548.65344620 Ry
     estimated scf accuracy    <       0.00000722 Ry

     iteration #  8     ecut=    30.00 Ry     beta= 0.70
     Davidson diagonalization with overlap

     ethr =  4.30E-09,  avg # of iterations =  3.2

     negative rho (up, down):  5.385E-01 0.000E+00

     End of self-consistent calculation

          k = 0.0000 0.0000 0.0000 ( 13211 PWs)   bands (ev):

   -48.6210 -48.6209 -48.6202 -48.6202 -48.6202 -48.6202  -8.3050  -8.1356
    -7.5244  -7.5169  -7.4845  -7.4454  -7.4454  -7.4359  -7.4359  -7.3393
    -7.2924  -7.2695  -6.0926  -6.0830  -6.0806  -6.0805  -6.0804  -6.0804
    -6.0803  -6.0803  -6.0781  -6.0754  -6.0654  -6.0654  -6.0587  -6.0570
    -6.0546  -6.0528  -6.0478  -6.0446  -6.0314  -6.0314  -0.9818  -0.6476
    -0.4639  -0.4462  -0.2009  -0.1024   0.0504   0.0638   0.0982   0.1809
     0.3553   0.3553   0.3972   0.6111   0.6111   0.8996   1.0371   1.1273
     1.1273   1.4584   1.4584   1.8504   2.5157   2.5157   2.5625   2.5625
     2.5863   3.1319   3.1319   3.1427   3.1598   3.2582   3.2607   3.2607
     3.4253   3.5010   3.5010   3.5871   3.7728   3.7728   3.7996   3.7996
     3.8265   4.1492   4.1835   4.1835   4.7879   5.8551   5.9108   5.9299
     7.3028   7.4157   7.4437   8.2978   8.2978   8.3128   8.3128   8.7825
     8.7825   8.8956   9.0650   9.1089   9.1689   9.1689   9.9251  10.1953
    10.2574  10.3441  10.3441  10.8969  10.8969  11.0104  11.2529  11.2529
    11.4627  11.4932  11.9313  12.0692  12.1562  12.1673  12.4319  12.4925
    12.5872  12.5872  12.7239  12.9538  12.9538  12.9624  13.1330  13.1388
    13.3843  13.5609  13.5609  13.6025  13.7095  13.7095  13.7764  13.8051
    13.8588  13.8588  14.1742  14.1742  14.2656  14.2867  14.8346  14.8346
    14.9177  14.9353  15.2286  15.2286  15.3165  15.3420  15.3722  15.3722
    15.5345  15.6783  15.7852  16.3545  16.6479  16.7023  16.8782  17.0503
    17.0503  17.5561  17.5857  17.7359  17.7359  17.8482  17.8482  17.8989
    17.9456  18.0424  18.0424  18.1911  18.5159  18.5659  18.5659  18.7904
    19.2372  19.2372  19.2646  19.2834  19.3044  19.5546  19.5547  19.6046
    19.6046  19.8397  19.8486  19.8984  19.8984  20.2412  20.3040  20.3583
    20.3583  20.4270  20.4797  20.5963  20.5963  20.6262  20.8093  20.8093
    20.8438  20.8841  20.9716  21.0489  21.0489  21.0510  21.0910  21.0910
    21.3628  21.3628  21.3715  21.3807  21.6955  21.7384  21.7384  21.8570
    21.8570  21.8673  21.9646  21.9819  22.1382  22.2075  22.2228  22.3474
    22.4789  22.4789  23.0254  23.0372  23.1172  23.1172  23.1751  23.1751
    23.3578  23.4081  23.4081  23.4397  23.4397  23.4705  23.5341  23.6945
    23.7534  23.9170  23.9170  24.0683  24.0683  24.1021  24.1495  24.6279
    24.6401  24.9632  25.4334  25.5549  25.6092  25.6099  25.6854  25.8348

     occupation numbers
     1.0000   1.0000   1.0000   1.0000   1.0000   1.0000   1.0000   1.0000
     1.0000   1.0000   1.0000   1.0000   1.0000   1.0000   1.0000   1.0000
     1.0000   1.0000   1.0000   1.0000   1.0000   1.0000   1.0000   1.0000
     1.0000   1.0000   1.0000   1.0000   1.0000   1.0000   1.0000   1.0000
     1.0000   1.0000   1.0000   1.0000   1.0000   1.0000   1.0000   1.0000
     1.0000   1.0000   1.0000   1.0000   1.0000   1.0000   1.0000   1.0000
     1.0000   1.0000   1.0000   1.0000   1.0000   1.0000   1.0000   1.0000
     1.0000   1.0000   1.0000   1.0000   1.0000   1.0000   1.0000   1.0000
     1.0000   1.0000   1.0000   1.0000   1.0000   1.0000   1.0000   1.0000
     1.0000   1.0000   1.0000   1.0000   1.0000   1.0000   1.0000   1.0000
     1.0000   1.0000   1.0000   1.0000   0.0000   0.0000   0.0000   0.0000
     0.0000   0.0000   0.0000   0.0000   0.0000   0.0000   0.0000   0.0000
     0.0000   0.0000   0.0000   0.0000   0.0000   0.0000   0.0000   0.0000
     0.0000   0.0000   0.0000   0.0000   0.0000   0.0000   0.0000   0.0000
     0.0000   0.0000   0.0000   0.0000   0.0000   0.0000   0.0000   0.0000
     0.0000   0.0000   0.0000   0.0000   0.0000   0.0000   0.0000   0.0000
     0.0000   0.0000   0.0000   0.0000   0.0000   0.0000   0.0000   0.0000
     0.0000   0.0000   0.0000   0.0000   0.0000   0.0000   0.0000   0.0000
     0.0000   0.0000   0.0000   0.0000   0.0000   0.0000   0.0000   0.0000
     0.0000   0.0000   0.0000   0.0000   0.0000   0.0000   0.0000   0.0000
     0.0000   0.0000   0.0000   0.0000   0.0000   0.0000   0.0000   0.0000
     0.0000   0.0000   0.0000   0.0000   0.0000   0.0000   0.0000   0.0000
     0.0000   0.0000   0.0000   0.0000   0.0000   0.0000   0.0000   0.0000
     0.0000   0.0000   0.0000   0.0000   0.0000   0.0000   0.0000   0.0000
     0.0000   0.0000   0.0000   0.0000   0.0000   0.0000   0.0000   0.0000
     0.0000   0.0000   0.0000   0.0000   0.0000   0.0000   0.0000   0.0000
     0.0000   0.0000   0.0000   0.0000   0.0000   0.0000   0.0000   0.0000
     0.0000   0.0000   0.0000   0.0000   0.0000   0.0000   0.0000   0.0000
     0.0000   0.0000   0.0000   0.0000   0.0000   0.0000   0.0000   0.0000
     0.0000   0.0000   0.0000   0.0000   0.0000   0.0000   0.0000   0.0000
     0.0000   0.0000   0.0000   0.0000   0.0000   0.0000   0.0000   0.0000
     0.0000   0.0000   0.0000   0.0000   0.0000   0.0000   0.0000   0.0000

[...]

          k = 0.3333 0.3333 0.2242 ( 13257 PWs)   bands (ev):

   -48.6210 -48.6209 -48.6203 -48.6202 -48.6202 -48.6202  -8.1423  -8.1125
    -7.6052  -7.5814  -7.4766  -7.4657  -7.4414  -7.4238  -7.4004  -7.3672
    -7.3322  -7.3191  -6.0878  -6.0859  -6.0842  -6.0839  -6.0832  -6.0821
    -6.0799  -6.0799  -6.0787  -6.0785  -6.0772  -6.0768  -6.0589  -6.0579
    -6.0558  -6.0555  -6.0536  -6.0530  -6.0429  -6.0426  -0.6742  -0.6205
    -0.6182  -0.5170  -0.3015  -0.2829  -0.1568  -0.0751  -0.0109   0.0243
     0.5542   0.5613   0.6361   0.7496   0.7839   0.8261   1.3828   1.4220
     1.5171   1.6863   1.7282   1.7535   2.5506   2.5535   2.6756   2.6825
     2.7068   2.8817   3.0210   3.1517   3.2507   3.3308   3.3712   3.3761
     3.4629   3.4859   3.4929   3.4981   3.5932   3.6286   3.6480   3.6876
     3.7323   3.8031   3.8794   3.9801   5.1801   5.2079   5.5770   5.6565
     7.1970   7.2432   7.4999   7.5391   7.7907   7.9094   7.9950   8.0822
     8.3114   8.3968   8.4097   8.4826   8.7306   8.9885  10.5749  10.5863
    11.1338  11.1850  11.4949  11.5057  11.5902  11.8181  11.8293  12.0024
    12.0326  12.0795  12.1847  12.2940  12.3003  12.4557  12.5261  12.5838
    12.6101  12.7189  12.7435  12.7660  13.0430  13.0473  13.1990  13.4087
    13.4423  13.5836  13.5913  13.8609  14.0053  14.0207  14.1044  14.1493
    14.2433  14.4510  14.4749  14.5749  14.6359  14.6811  14.8902  14.9555
    15.0809  15.0940  15.2631  15.3199  15.3345  15.4464  15.5042  15.6112
    15.7386  15.7493  15.9243  15.9754  16.1839  16.2179  16.4749  16.5676
    16.6341  16.7380  16.7661  16.8766  16.9534  17.3074  17.5869  17.7007
    17.7481  17.8780  18.0710  18.1112  18.1732  18.2527  18.2856  18.5711
    18.7251  18.7261  18.8131  18.9857  19.0104  19.0418  19.0973  19.1697
    19.2529  19.3111  19.4288  19.4618  19.5687  19.5735  19.6017  19.6846
    19.7619  19.8544  19.9835  19.9942  20.0377  20.0873  20.3446  20.4815
    20.6035  20.7951  20.8328  20.9059  20.9941  21.1266  21.2053  21.2865
    21.4118  21.5016  21.5554  21.6566  21.7574  21.8077  21.9207  21.9579
    22.0738  22.0794  22.1797  22.3635  22.3811  22.4494  22.7013  22.8093
    22.8767  22.8842  22.8858  23.0941  23.0991  23.2941  23.3296  23.4734
    23.5971  23.6288  23.6561  23.9162  23.9296  24.0508  24.2506  24.3419
    24.3576  24.4561  24.4980  24.5482  24.5817  24.6438  24.7020  24.7312
    24.8495  24.9590  24.9708  24.9720  25.1604  25.3218  25.5377  25.5555

     occupation numbers
     1.0000   1.0000   1.0000   1.0000   1.0000   1.0000   1.0000   1.0000
     1.0000   1.0000   1.0000   1.0000   1.0000   1.0000   1.0000   1.0000
     1.0000   1.0000   1.0000   1.0000   1.0000   1.0000   1.0000   1.0000
     1.0000   1.0000   1.0000   1.0000   1.0000   1.0000   1.0000   1.0000
     1.0000   1.0000   1.0000   1.0000   1.0000   1.0000   1.0000   1.0000
     1.0000   1.0000   1.0000   1.0000   1.0000   1.0000   1.0000   1.0000
     1.0000   1.0000   1.0000   1.0000   1.0000   1.0000   1.0000   1.0000
     1.0000   1.0000   1.0000   1.0000   1.0000   1.0000   1.0000   1.0000
     1.0000   1.0000   1.0000   1.0000   1.0000   1.0000   1.0000   1.0000
     1.0000   1.0000   1.0000   1.0000   1.0000   1.0000   1.0000   1.0000
     1.0000   1.0000   1.0000   1.0000   0.0000   0.0000   0.0000   0.0000
     0.0000   0.0000   0.0000   0.0000   0.0000   0.0000   0.0000   0.0000
     0.0000   0.0000   0.0000   0.0000   0.0000   0.0000   0.0000   0.0000
     0.0000   0.0000   0.0000   0.0000   0.0000   0.0000   0.0000   0.0000
     0.0000   0.0000   0.0000   0.0000   0.0000   0.0000   0.0000   0.0000
     0.0000   0.0000   0.0000   0.0000   0.0000   0.0000   0.0000   0.0000
     0.0000   0.0000   0.0000   0.0000   0.0000   0.0000   0.0000   0.0000
     0.0000   0.0000   0.0000   0.0000   0.0000   0.0000   0.0000   0.0000
     0.0000   0.0000   0.0000   0.0000   0.0000   0.0000   0.0000   0.0000
     0.0000   0.0000   0.0000   0.0000   0.0000   0.0000   0.0000   0.0000
     0.0000   0.0000   0.0000   0.0000   0.0000   0.0000   0.0000   0.0000
     0.0000   0.0000   0.0000   0.0000   0.0000   0.0000   0.0000   0.0000
     0.0000   0.0000   0.0000   0.0000   0.0000   0.0000   0.0000   0.0000
     0.0000   0.0000   0.0000   0.0000   0.0000   0.0000   0.0000   0.0000
     0.0000   0.0000   0.0000   0.0000   0.0000   0.0000   0.0000   0.0000
     0.0000   0.0000   0.0000   0.0000   0.0000   0.0000   0.0000   0.0000
     0.0000   0.0000   0.0000   0.0000   0.0000   0.0000   0.0000   0.0000
     0.0000   0.0000   0.0000   0.0000   0.0000   0.0000   0.0000   0.0000
     0.0000   0.0000   0.0000   0.0000   0.0000   0.0000   0.0000   0.0000
     0.0000   0.0000   0.0000   0.0000   0.0000   0.0000   0.0000   0.0000
     0.0000   0.0000   0.0000   0.0000   0.0000   0.0000   0.0000   0.0000
     0.0000   0.0000   0.0000   0.0000   0.0000   0.0000   0.0000   0.0000

     highest occupied, lowest unoccupied level (ev):     4.2119    4.7879

!    total energy              =   -5548.65344758 Ry
     estimated scf accuracy    <       0.00000036 Ry

     The total energy is the sum of the following terms:
     one-electron contribution =    -475.93512755 Ry
     hartree contribution      =     325.57682563 Ry
     xc contribution           =    -862.36165535 Ry
     ewald contribution        =    -689.64980387 Ry
     one-center paw contrib.   =   -3846.28368643 Ry
      -> PAW hartree energy AE =       0.00000000 Ry
      -> PAW hartree energy PS =       0.00000000 Ry
      -> PAW xc energy AE      =       0.00000000 Ry
      -> PAW xc energy PS      =       0.00000000 Ry
      -> total E_H with PAW    =     325.57682563 Ry
      -> total E_XC with PAW   =    -862.36165535 Ry

     convergence has been achieved in   8 iterations

     Writing all to output data dir bands_nm/myprefix.save/

     General routines

     Parallel routines

     PAW routines

   This run was terminated on:  22: 1:23  15Jul2023

   JOB DONE.