     Program PWSCF v.7.0 starts on  5Jun2023 at 19:17:44

     K-points division:     npool     =       2
     R & G space division:  proc/nbgrp/npool/nimage =       4

     Reading input from espresso_11212.pwi
Warning: card &CELL ignored
Warning: card / ignored

     Current dimensions of program PWSCF are:
     Max number of different atomic species (ntypx) = 10
     Max number of k-points (npk) =  40000
     Max angular momentum in pseudopotentials (lmaxx) =  4
     Message from routine setup:
     using ibrav=0 with symmetry is DISCOURAGED, use correct ibrav instead

     Using Slab Decomposition

     bravais-lattice index     =            0
     lattice parameter (alat)  =      16.1138  a.u.
     unit-cell volume          =    2496.7364 (a.u.)^3
     number of atoms/cell      =           12
     number of atomic types    =            3
     number of electrons       =       100.00
     number of Kohn-Sham states=           64
     kinetic-energy cutoff     =      30.0000  Ry
     charge density cutoff     =     240.0000  Ry
     scf convergence threshold =      1.0E-06
     mixing beta               =       0.7000
     number of iterations used =            8  plain     mixing
     Exchange-correlation= SLA  PW   PBE  PBE
                           (   1   4   3   4   0   0   0)

     celldm(1)=  16.113790  celldm(2)=   0.000000  celldm(3)=   0.000000
     celldm(4)=   0.000000  celldm(5)=   0.000000  celldm(6)=   0.000000

     crystal axes: (cart. coord. in units of alat)
               a(1) = (   1.000000   0.000000   0.000000 )
               a(2) = (  -0.888927   0.458050   0.000000 )
               a(3) = (   0.000000   0.000000   1.302768 )

     reciprocal axes: (cart. coord. in units 2 pi/alat)
               b(1) = (  1.000000  1.940677  0.000000 )
               b(2) = (  0.000000  2.183169  0.000000 )
               b(3) = (  0.000000  0.000000  0.767596 )

     PseudoPot. # 1 for Hf read from file:
     /home/pragov/projects/rrg-bengioy-ad/pragov/crystal_structure_design/SSSP/Hf-sp.oncvpsp.upf
     MD5 check sum: 417ed15784afe83d2e06dacf143de3f8
     Pseudo is Norm-conserving + core correction, Zval = 12.0
     Generated using ONCVPSP code by D. R. Hamann
     Using radial grid of 1656 points,  8 beta functions with:
                l(1) =   0
                l(2) =   0
                l(3) =   1
                l(4) =   1
                l(5) =   2
                l(6) =   2
                l(7) =   3
                l(8) =   3

     PseudoPot. # 2 for Ge read from file:
     /home/pragov/projects/rrg-bengioy-ad/pragov/crystal_structure_design/SSSP/ge_pbe_v1.4.uspp.F.UPF
     MD5 check sum: 9c9eaa91e581c3f09632fb3098b2c6b2
     Pseudo is Ultrasoft + core correction, Zval = 14.0
     Generated by new atomic code, or converted to UPF format
     Using radial grid of  873 points,  6 beta functions with:
                l(1) =   0
                l(2) =   0
                l(3) =   1
                l(4) =   1
                l(5) =   2
                l(6) =   2
     Q(r) pseudized with  8 coefficients,  rinner =    1.400   1.400   1.400
                                                       1.400   1.400

     PseudoPot. # 3 for Te read from file:
     /home/pragov/projects/rrg-bengioy-ad/pragov/crystal_structure_design/SSSP/Te_pbe_v1.uspp.F.UPF
     MD5 check sum: c319670d6894cc26e93307826a071b75
     Pseudo is Ultrasoft + core correction, Zval =  6.0
     Generated by new atomic code, or converted to UPF format
     Using radial grid of  891 points,  5 beta functions with:
                l(1) =   0
                l(2) =   0
                l(3) =   1
                l(4) =   1
                l(5) =   2
     Q(r) pseudized with  6 coefficients,  rinner =    1.800   1.800   1.800
                                                       1.800   1.800

     atomic species   valence    mass     pseudopotential
        Hf            12.00   178.49000     Hf( 1.00)
        Ge            14.00    72.63000     Ge( 1.00)
        Te             6.00   127.60000     Te( 1.00)

      2 Sym. Ops. (no inversion) found ( 1 have fractional translation)

                                    s                        frac. trans.

      isym =  1     identity

 cryst.   s( 1) = (     1          0          0      )
                  (     0          1          0      )
                  (     0          0          1      )

 cart.    s( 1) = (  1.0000000 -0.0000000  0.0000000 )
                  (  0.0000000  1.0000000  0.0000000 )
                  (  0.0000000  0.0000000  1.0000000 )

      isym =  2     180 deg rotation - cart. axis [0,0,1]

 cryst.   s( 2) = (    -1          0          0      )    f =(  0.0000000 )
                  (     0         -1          0      )       (  0.0000000 )
                  (     0          0          1      )       ( -0.5000000 )

 cart.    s( 2) = ( -1.0000000  0.0000000  0.0000000 )    f =( -0.0000000 )
                  (  0.0000000 -1.0000000  0.0000000 )       (  0.0000000 )
                  (  0.0000000  0.0000000  1.0000000 )       ( -0.6513839 )

   Cartesian axes

     site n.     atom                  positions (alat units)
         1           Hf  tau(   1) = (   0.3448409   0.1588709   0.3543854  )
         2           Hf  tau(   2) = (  -0.2337675   0.2991788   1.0057694  )
         3           Ge  tau(   3) = (   0.5678684   0.1047885   0.6004652  )
         4           Ge  tau(   4) = (  -0.4567950   0.3532612   1.2518492  )
         5           Te  tau(   5) = (   0.4811024   0.1258285   0.9097606  )
         6           Te  tau(   6) = (   0.2853756   0.1732907   0.0012402  )
         7           Te  tau(   7) = (  -0.3700290   0.3322211   0.2583766  )
         8           Te  tau(   8) = (  -0.8469905   0.4478805   0.3140556  )
         9           Te  tau(   9) = (   0.8044130   0.0474283   1.2491863  )
        10           Te  tau(  10) = (  -0.6933396   0.4106214   0.5978024  )
        11           Te  tau(  11) = (   0.9580639   0.0101692   0.9654396  )
        12           Te  tau(  12) = (  -0.1743022   0.2847590   0.6526242  )

   Crystallographic axes

     site n.     atom                  positions (cryst. coord.)
         1           Hf  tau(   1) = (  0.6531580  0.3468420  0.2720250  )
         2           Hf  tau(   2) = (  0.3468420  0.6531580  0.7720250  )
         3           Ge  tau(   3) = (  0.7712290  0.2287710  0.4609150  )
         4           Ge  tau(   4) = (  0.2287710  0.7712290  0.9609150  )
         5           Te  tau(   5) = (  0.7252950  0.2747050  0.6983290  )
         6           Te  tau(   6) = (  0.6216770  0.3783230  0.0009520  )
         7           Te  tau(   7) = (  0.2747050  0.7252950  0.1983290  )
         8           Te  tau(   8) = (  0.0222010  0.9777990  0.2410680  )
         9           Te  tau(   9) = (  0.8964560  0.1035440  0.9588710  )
        10           Te  tau(  10) = (  0.1035440  0.8964560  0.4588710  )
        11           Te  tau(  11) = (  0.9777990  0.0222010  0.7410680  )
        12           Te  tau(  12) = (  0.3783230  0.6216770  0.5009520  )

     number of k points=    10
                       cart. coord. in units 2pi/alat
        k(    1) = (   0.0000000   0.0000000   0.0000000), wk =   0.0740741
        k(    2) = (   0.0000000   0.0000000   0.2558655), wk =   0.1481481
        k(    3) = (   0.0000000   0.7277231   0.0000000), wk =   0.1481481
        k(    4) = (   0.0000000   0.7277231   0.2558655), wk =   0.2962963
        k(    5) = (   0.3333333   0.6468924   0.0000000), wk =   0.1481481
        k(    6) = (   0.3333333   0.6468924   0.2558655), wk =   0.2962963
        k(    7) = (   0.3333333   1.3746155   0.0000000), wk =   0.1481481
        k(    8) = (   0.3333333   1.3746155   0.2558655), wk =   0.2962963
        k(    9) = (   0.3333333  -0.0808307   0.0000000), wk =   0.1481481
        k(   10) = (   0.3333333  -0.0808307   0.2558655), wk =   0.2962963

                       cryst. coord.
        k(    1) = (   0.0000000   0.0000000   0.0000000), wk =   0.0740741
        k(    2) = (   0.0000000   0.0000000   0.3333333), wk =   0.1481481
        k(    3) = (   0.0000000   0.3333333   0.0000000), wk =   0.1481481
        k(    4) = (   0.0000000   0.3333333   0.3333333), wk =   0.2962963
        k(    5) = (   0.3333333   0.0000000   0.0000000), wk =   0.1481481
        k(    6) = (   0.3333333   0.0000000   0.3333333), wk =   0.2962963
        k(    7) = (   0.3333333   0.3333333   0.0000000), wk =   0.1481481
        k(    8) = (   0.3333333   0.3333333   0.3333333), wk =   0.2962963
        k(    9) = (   0.3333333  -0.3333333   0.0000000), wk =   0.1481481
        k(   10) = (   0.3333333  -0.3333333   0.3333333), wk =   0.2962963

     Initial potential from superposition of free atoms

     starting charge      99.9928, renormalised to     100.0000
     Starting wfcs are   70 randomized atomic wfcs

     Self-consistent Calculation

     iteration #  1     ecut=    30.00 Ry     beta= 0.70
     Davidson diagonalization with overlap

     ethr =  1.00E-02,  avg # of iterations =  2.1

     Threshold (ethr) on eigenvalues was too large:
     Diagonalizing with lowered threshold

     Davidson diagonalization with overlap

[...]

     total energy              =    -865.08530461 Ry
     estimated scf accuracy    <       0.22914793 Ry

[...]

     total energy              =    -865.15025630 Ry
     estimated scf accuracy    <       0.00000140 Ry

     iteration #  9     ecut=    30.00 Ry     beta= 0.70
     Davidson diagonalization with overlap

     ethr =  1.40E-09,  avg # of iterations =  5.0

     End of self-consistent calculation

          k = 0.0000 0.0000 0.0000 (  6917 PWs)   bands (ev):

   -55.6296 -55.6231 -24.3793 -24.3772 -24.3195 -24.3193 -24.2196 -24.2192
   -17.7793 -17.7791 -17.7727 -17.7724 -17.7417 -17.7408 -17.7273 -17.7266
   -17.7218 -17.7217  -6.0443  -5.6280  -5.0304  -4.9317  -4.0221  -3.7549
    -3.4649  -3.0943  -0.9507   0.1338   1.6067   2.2529   2.9567   3.0697
     3.3571   4.1161   4.4172   4.5461   4.5817   4.7377   4.8267   4.8326
     4.9352   5.3348   5.7336   5.8138   5.9877   6.0961   6.1584   6.4722
     6.6399   6.7745   7.5681   7.6342   7.6959   8.2057   8.2436   8.7771
     9.2125   9.4107   9.4196   9.5997   9.8826   9.8960  10.2165  10.6236

     occupation numbers
     1.0000   1.0000   1.0000   1.0000   1.0000   1.0000   1.0000   1.0000
     1.0000   1.0000   1.0000   1.0000   1.0000   1.0000   1.0000   1.0000
     1.0000   1.0000   1.0000   1.0000   1.0000   1.0000   1.0000   1.0000
     1.0000   1.0000   1.0000   1.0000   1.0000   1.0000   1.0000   1.0000
     1.0000   1.0000   1.0000   1.0000   1.0000   1.0000   1.0000   1.0000
     1.0000   1.0000   1.0000   1.0000   1.0000   1.0000   1.0000   1.0000
     1.0000   1.0000   0.0000   0.0000   0.0000   0.0000   0.0000   0.0000
     0.0000   0.0000   0.0000   0.0000   0.0000   0.0000   0.0000   0.0000

[...]

          k = 0.3333-0.0808 0.2559 (  6962 PWs)   bands (ev):

   -55.6339 -55.6306 -24.3817 -24.3799 -24.3216 -24.3200 -24.2208 -24.2192
   -17.7810 -17.7794 -17.7742 -17.7736 -17.7442 -17.7440 -17.7282 -17.7271
   -17.7233 -17.7217  -5.8769  -5.7622  -5.0844  -5.0240  -3.8839  -3.7975
    -3.3500  -3.2489  -0.6134  -0.1656   2.0834   2.3505   2.6567   2.8535
     3.3088   3.9167   4.4473   4.4784   4.4968   4.7419   4.8314   4.8520
     5.0271   5.1467   5.5880   5.9263   6.0207   6.0796   6.2760   6.5097
     6.5586   6.7011   7.5286   7.7039   7.7867   8.0598   8.4849   8.8745
     9.1140   9.4949   9.5134   9.6053   9.8315  10.0096  10.2467  10.2688

     occupation numbers
     1.0000   1.0000   1.0000   1.0000   1.0000   1.0000   1.0000   1.0000
     1.0000   1.0000   1.0000   1.0000   1.0000   1.0000   1.0000   1.0000
     1.0000   1.0000   1.0000   1.0000   1.0000   1.0000   1.0000   1.0000
     1.0000   1.0000   1.0000   1.0000   1.0000   1.0000   1.0000   1.0000
     1.0000   1.0000   1.0000   1.0000   1.0000   1.0000   1.0000   1.0000
     1.0000   1.0000   1.0000   1.0000   1.0000   1.0000   1.0000   1.0000
     1.0000   1.0000   0.0000   0.0000   0.0000   0.0000   0.0000   0.0000
     0.0000   0.0000   0.0000   0.0000   0.0000   0.0000   0.0000   0.0000

     highest occupied, lowest unoccupied level (ev):     6.8403    7.3647

!    total energy              =    -865.15025717 Ry
     estimated scf accuracy    <       0.00000036 Ry

     The total energy is the sum of the following terms:
     one-electron contribution =    -509.62855781 Ry
     hartree contribution      =     304.03924448 Ry
     xc contribution           =    -289.01157321 Ry
     ewald contribution        =    -370.54937064 Ry

     convergence has been achieved in   9 iterations

     Writing all to output data dir calculations_bands/myprefix.save/

     General routines

     Parallel routines

   This run was terminated on:  19:18: 4   5Jun2023

   JOB DONE.