     Program PWSCF v.7.1 starts on 15Jul2023 at 21: 5:28

     Reading input from espresso_7480.pwi
Warning: card &CELL ignored
Warning: card / ignored

     Current dimensions of program PWSCF are:
     Max number of different atomic species (ntypx) = 10
     Max number of k-points (npk) =  40000
     Max angular momentum in pseudopotentials (lmaxx) =  4
     file O.pbe-n-kjpaw_psl.0.1.UPF: wavefunction(s)  2P renormalized
     Message from routine setup:
     using ibrav=0 with symmetry is DISCOURAGED, use correct ibrav instead

     K-points division:     npool     =       2
     R & G space division:  proc/nbgrp/npool/nimage =       4
     Subspace diagonalization in iterative solution of the eigenvalue problem:
     one sub-group per band group will be used

     Using Slab Decomposition

     bravais-lattice index     =            0
     lattice parameter (alat)  =      15.2137  a.u.
     unit-cell volume          =    1766.9940 (a.u.)^3
     number of atoms/cell      =           20
     number of atomic types    =            4
     number of electrons       =       168.00
     number of Kohn-Sham states=          256
     kinetic-energy cutoff     =      30.0000  Ry
     charge density cutoff     =     240.0000  Ry
     scf convergence threshold =      1.0E-06
     mixing beta               =       0.7000
     number of iterations used =            8  plain     mixing
     Exchange-correlation= SLA  PW   PBX  PBC
                           (   1   4   3   4   0   0   0)

     celldm(1)=  15.213669  celldm(2)=   0.000000  celldm(3)=   0.000000
     celldm(4)=   0.000000  celldm(5)=   0.000000  celldm(6)=   0.000000

     crystal axes: (cart. coord. in units of alat)
               a(1) = (   1.000000   0.000000   0.000000 )
               a(2) = (   0.000000   0.700345   0.000000 )
               a(3) = (   0.000000   0.000330   0.716508 )

     reciprocal axes: (cart. coord. in units 2 pi/alat)
               b(1) = (  1.000000  0.000000  0.000000 )
               b(2) = (  0.000000  1.427868 -0.000657 )
               b(3) = (  0.000000  0.000000  1.395657 )

     PseudoPot. # 1 for Sr read from file:
     /lustre07/scratch/pragov/crystal_structure_design/utils/SSSP/Sr_pbe_v1.uspp.F.UPF
     MD5 check sum: 6b418c05fbe9db5448babca5e47b7a5b
     Pseudo is Ultrasoft + core correction, Zval = 10.0
     Generated by new atomic code, or converted to UPF format
     Using radial grid of  883 points,  6 beta functions with:
                l(1) =   0
                l(2) =   0
                l(3) =   1
                l(4) =   1
                l(5) =   2
                l(6) =   2
     Q(r) pseudized with  6 coefficients,  rinner =    1.400   1.400   1.400
                                                       1.400   1.400

     PseudoPot. # 2 for Ca read from file:
     /lustre07/scratch/pragov/crystal_structure_design/utils/SSSP/Ca_pbe_v1.uspp.F.UPF
     MD5 check sum: 403a4c14b9e4d4dfdc3024c9a3812218
     Pseudo is Ultrasoft + core correction, Zval = 10.0
     Generated by new atomic code, or converted to UPF format
     Using radial grid of  845 points,  6 beta functions with:
                l(1) =   0
                l(2) =   0
                l(3) =   1
                l(4) =   1
                l(5) =   2
                l(6) =   2
     Q(r) pseudized with  8 coefficients,  rinner =    1.500   1.500   1.500
                                                       1.500   1.500

     PseudoPot. # 3 for Sn read from file:
     /lustre07/scratch/pragov/crystal_structure_design/utils/SSSP/Sn_pbe_v1.uspp.F.UPF
     MD5 check sum: 4cf58ce39ec5d5d420df3dd08604eb00
     Pseudo is Ultrasoft + core correction, Zval = 14.0
     Generated by new atomic code, or converted to UPF format
     Using radial grid of  891 points,  6 beta functions with:
                l(1) =   0
                l(2) =   0
                l(3) =   1
                l(4) =   1
                l(5) =   2
                l(6) =   2
     Q(r) pseudized with  6 coefficients,  rinner =    1.200   1.200   1.200
                                                       1.200   1.200

     PseudoPot. # 4 for O  read from file:
     /lustre07/scratch/pragov/crystal_structure_design/utils/SSSP/O.pbe-n-kjpaw_psl.0.1.UPF
     MD5 check sum: 0234752ac141de4415c5fc33072bef88
     Pseudo is Projector augmented-wave + core cor, Zval =  6.0
     Generated using "atomic" code by A. Dal Corso  v.5.0.99 svn rev. 10869
     Shape of augmentation charge: BESSEL
     Using radial grid of 1095 points,  4 beta functions with:
                l(1) =   0
                l(2) =   0
                l(3) =   1
                l(4) =   1
     Q(r) pseudized with 0 coefficients

     atomic species   valence    mass     pseudopotential
        Sr            10.00    87.62000     Sr( 1.00)
        Ca            10.00    40.07800     Ca( 1.00)
        Sn            14.00   118.71000     Sn( 1.00)
        O              6.00    15.99900     O ( 1.00)

      2 Sym. Ops. (no inversion) found

                                    s                        frac. trans.

      isym =  1     identity

 cryst.   s( 1) = (     1          0          0      )
                  (     0          1          0      )
                  (     0          0          1      )

 cart.    s( 1) = (  1.0000000  0.0000000  0.0000000 )
                  (  0.0000000  1.0000000  0.0000000 )
                  (  0.0000000  0.0000000  1.0000000 )

      isym =  2     inv. 180 deg rotation - cart. axis [1,0,0]

 cryst.   s( 2) = (    -1          0          0      )
                  (     0          1          0      )
                  (     0          0          1      )

 cart.    s( 2) = ( -1.0000000  0.0000000  0.0000000 )
                  (  0.0000000  1.0000000  0.0000000 )
                  (  0.0000000  0.0000000  1.0000000 )

   Cartesian axes

     site n.     atom                  positions (alat units)
         1           Sr  tau(   1) = (   0.0000000   0.3426729   0.3279845  )
         2           Ca  tau(   2) = (   0.0000000   0.0097924   0.6804370  )
         3           Ca  tau(   3) = (   0.5000000   0.3577488   0.3956673  )
         4           Ca  tau(   4) = (   0.5000000   0.6937830   0.0339976  )
         5           Sn  tau(   5) = (   0.2521530   0.3498717   0.0009007  )
         6           Sn  tau(   6) = (   0.7472720   0.0003925   0.3583430  )
         7           Sn  tau(   7) = (   0.7478470   0.3498717   0.0009007  )
         8           Sn  tau(   8) = (   0.2527280   0.0003925   0.3583430  )
         9           O   tau(   9) = (   0.0000000   0.4220239   0.0157453  )
        10           O   tau(  10) = (   0.0000000   0.6436480   0.3869424  )
        11           O   tau(  11) = (   0.5000000   0.2789623   0.6897889  )
        12           O   tau(  12) = (   0.5000000   0.0730730   0.3279652  )
        13           O   tau(  13) = (   0.1993010   0.1368660   0.1424418  )
        14           O   tau(  14) = (   0.7943770   0.2067745   0.5076289  )
        15           O   tau(  15) = (   0.6946400   0.5595618   0.5709395  )
        16           O   tau(  16) = (   0.3046780   0.4887176   0.2147705  )
        17           O   tau(  17) = (   0.3053600   0.5595618   0.5709395  )
        18           O   tau(  18) = (   0.6953220   0.4887176   0.2147705  )
        19           O   tau(  19) = (   0.8006990   0.1368660   0.1424418  )
        20           O   tau(  20) = (   0.2056230   0.2067745   0.5076289  )

   Crystallographic axes

     site n.     atom                  positions (cryst. coord.)
         1           Sr  tau(   1) = (  0.0000000  0.4890760  0.4577540  )
         2           Ca  tau(   2) = (  0.0000000  0.0135350  0.9496570  )
         3           Ca  tau(   3) = (  0.5000000  0.5105580  0.5522160  )
         4           Ca  tau(   4) = (  0.5000000  0.9906080  0.0474490  )
         5           Sn  tau(   5) = (  0.2521530  0.4995700  0.0012570  )
         6           Sn  tau(   6) = (  0.7472720  0.0003250  0.5001240  )
         7           Sn  tau(   7) = (  0.7478470  0.4995700  0.0012570  )
         8           Sn  tau(   8) = (  0.2527280  0.0003250  0.5001240  )
         9           O   tau(   9) = (  0.0000000  0.6025840  0.0219750  )
        10           O   tau(  10) = (  0.0000000  0.9187900  0.5400390  )
        11           O   tau(  11) = (  0.5000000  0.3978680  0.9627090  )
        12           O   tau(  12) = (  0.5000000  0.1041230  0.4577270  )
        13           O   tau(  13) = (  0.1993010  0.1953330  0.1988000  )
        14           O   tau(  14) = (  0.7943770  0.2949130  0.7084760  )
        15           O   tau(  15) = (  0.6946400  0.7986050  0.7968360  )
        16           O   tau(  16) = (  0.3046780  0.6976830  0.2997460  )
        17           O   tau(  17) = (  0.3053600  0.7986050  0.7968360  )
        18           O   tau(  18) = (  0.6953220  0.6976830  0.2997460  )
        19           O   tau(  19) = (  0.8006990  0.1953330  0.1988000  )
        20           O   tau(  20) = (  0.2056230  0.2949130  0.7084760  )

     number of k points=    10
                       cart. coord. in units 2pi/alat
        k(    1) = (   0.0000000   0.0000000   0.0000000), wk =   0.0740741
        k(    2) = (   0.0000000   0.0000000   0.4652191), wk =   0.1481481
        k(    3) = (   0.0000000   0.4759559  -0.0002191), wk =   0.1481481
        k(    4) = (   0.0000000   0.4759559   0.4650001), wk =   0.1481481
        k(    5) = (   0.0000000   0.4759559  -0.4654382), wk =   0.1481481
        k(    6) = (   0.3333333   0.0000000   0.0000000), wk =   0.1481481
        k(    7) = (   0.3333333   0.0000000   0.4652191), wk =   0.2962963
        k(    8) = (   0.3333333   0.4759559  -0.0002191), wk =   0.2962963
        k(    9) = (   0.3333333   0.4759559   0.4650001), wk =   0.2962963
        k(   10) = (   0.3333333   0.4759559  -0.4654382), wk =   0.2962963

                       cryst. coord.
        k(    1) = (   0.0000000   0.0000000   0.0000000), wk =   0.0740741
        k(    2) = (   0.0000000   0.0000000   0.3333333), wk =   0.1481481
        k(    3) = (   0.0000000   0.3333333   0.0000000), wk =   0.1481481
        k(    4) = (   0.0000000   0.3333333   0.3333333), wk =   0.1481481
        k(    5) = (   0.0000000   0.3333333  -0.3333333), wk =   0.1481481
        k(    6) = (   0.3333333   0.0000000   0.0000000), wk =   0.1481481
        k(    7) = (   0.3333333   0.0000000   0.3333333), wk =   0.2962963
        k(    8) = (   0.3333333   0.3333333   0.0000000), wk =   0.2962963
        k(    9) = (   0.3333333   0.3333333   0.3333333), wk =   0.2962963
        k(   10) = (   0.3333333   0.3333333  -0.3333333), wk =   0.2962963

     Check: negative core charge=   -0.000011

     Initial potential from superposition of free atoms

     starting charge     163.9498, renormalised to     168.0000

     negative rho (up, down):  6.579E-02 0.000E+00
     Starting wfcs are  127 randomized atomic wfcs +  129 random wfcs
     Checking if some PAW data can be deallocated...

     Self-consistent Calculation

     iteration #  1     ecut=    30.00 Ry     beta= 0.70
     Davidson diagonalization with overlap

     ethr =  1.00E-02,  avg # of iterations =  6.0

     negative rho (up, down):  6.484E-02 0.000E+00

     total energy              =   -1446.82339909 Ry
     estimated scf accuracy    <       4.01914023 Ry

[...]

     total energy              =   -1448.64648221 Ry
     estimated scf accuracy    <       0.00000411 Ry

     iteration #  9     ecut=    30.00 Ry     beta= 0.70
     Davidson diagonalization with overlap

     ethr =  2.44E-09,  avg # of iterations =  1.0

     negative rho (up, down):  6.728E-02 0.000E+00

     End of self-consistent calculation

          k = 0.0000 0.0000 0.0000 (  4903 PWs)   bands (ev):

   -29.2952 -29.2644 -29.2603 -23.1958 -11.8376 -11.8096 -11.7912 -11.6847
   -11.5392 -11.2589 -11.2567 -11.2507 -11.1332 -11.1283 -11.1251 -11.1048
   -11.1005 -11.0915 -11.0902 -11.0847 -11.0763 -11.0632 -11.0578 -11.0524
   -10.5518 -10.5326 -10.5138 -10.3653 -10.3593 -10.3470 -10.3309 -10.3171
   -10.2924  -9.0661  -8.0575  -7.9161  -7.8495  -7.7783  -7.7574  -7.7060
    -7.5909  -7.2904  -6.4103  -6.3317  -6.3092  -5.1401  -5.0765  -4.9323
     0.5051   2.0979   3.8004   4.0559   4.2843   4.3592   4.3661   4.5676
     4.9483   5.7668   6.1895   6.3786   6.3956   6.4304   6.5179   6.8105
     7.0863   7.2691   7.5081   7.5131   7.6298   7.6686   7.6985   7.7233
     7.7637   7.7641   7.9003   7.9527   7.9536   8.0156   8.0827   8.1660
     8.2004   8.2317   8.2655   8.3547  10.5594  13.0564  14.5824  14.6219
    14.7998  14.9292  15.2450  15.3453  15.5620  15.9616  15.9937  16.0566
    16.1952  16.2647  16.3288  16.4780  16.6767  16.7138  16.7716  16.8523
    16.9323  17.1221  17.1453  17.2437  17.5273  17.5833  17.9059  18.2061
    18.3527  18.5049  18.9428  19.0677  19.5008  19.7154  19.9940  20.4228
    20.4729  20.9660  21.0584  21.1046  21.3837  21.5411  21.5828  21.7473
    22.4068  22.6922  22.8717  23.2780  23.3766  23.5594  24.0955  24.5963
    24.6945  24.8550  25.0761  25.2020  25.4864  25.5815  25.7743  26.0147
    26.3036  26.3216  27.1224  27.1908  27.4246  27.6782  28.2897  28.4393
    28.7576  28.8918  29.0377  29.2264  29.3190  29.4294  29.4868  29.4987
    29.5013  29.5135  29.6900  30.4358  30.5116  30.7875  30.9183  31.0540
    31.2601  31.5964  31.8172  31.8340  32.1211  32.2559  32.5539  32.6059
    32.8496  32.9453  32.9618  33.6001  33.8995  33.9276  34.4024  34.7564
    34.8541  34.8837  35.1925  35.2840  35.6135  35.8858  35.9069  35.9542
    36.0773  36.3158  36.3328  36.3603  36.6916  36.7301  36.9128  36.9229
    36.9985  37.5145  37.6608  37.9248  38.0400  38.3153  38.3777  38.4154
    38.7163  38.7937  38.8098  39.0773  39.2511  39.5590  39.6140  39.8359
    40.0849  40.1150  40.5483  40.6120  40.7884  40.9580  40.9879  41.2863
    41.3886  41.5829  41.6424  41.6905  41.7683  41.8557  42.3409  42.3552
    42.4494  42.5430  42.5968  42.6335  42.8551  43.1306  43.2554  43.2929
    43.4169  43.5402  43.5423  43.7472  43.8752  43.9527  44.0500  44.1514
    44.5529  44.8155  44.8588  44.9472  45.1878  45.2166  45.6373  45.6928

     occupation numbers
     1.0000   1.0000   1.0000   1.0000   1.0000   1.0000   1.0000   1.0000
     1.0000   1.0000   1.0000   1.0000   1.0000   1.0000   1.0000   1.0000
     1.0000   1.0000   1.0000   1.0000   1.0000   1.0000   1.0000   1.0000
     1.0000   1.0000   1.0000   1.0000   1.0000   1.0000   1.0000   1.0000
     1.0000   1.0000   1.0000   1.0000   1.0000   1.0000   1.0000   1.0000
     1.0000   1.0000   1.0000   1.0000   1.0000   1.0000   1.0000   1.0000
     1.0000   1.0000   1.0000   1.0000   1.0000   1.0000   1.0000   1.0000
     1.0000   1.0000   1.0000   1.0000   1.0000   1.0000   1.0000   1.0000
     1.0000   1.0000   1.0000   1.0000   1.0000   1.0000   1.0000   1.0000
     1.0000   1.0000   1.0000   1.0000   1.0000   1.0000   1.0000   1.0000
     1.0000   1.0000   1.0000   1.0000   0.0000   0.0000   0.0000   0.0000
     0.0000   0.0000   0.0000   0.0000   0.0000   0.0000   0.0000   0.0000
     0.0000   0.0000   0.0000   0.0000   0.0000   0.0000   0.0000   0.0000
     0.0000   0.0000   0.0000   0.0000   0.0000   0.0000   0.0000   0.0000
     0.0000   0.0000   0.0000   0.0000   0.0000   0.0000   0.0000   0.0000
     0.0000   0.0000   0.0000   0.0000   0.0000   0.0000   0.0000   0.0000
     0.0000   0.0000   0.0000   0.0000   0.0000   0.0000   0.0000   0.0000
     0.0000   0.0000   0.0000   0.0000   0.0000   0.0000   0.0000   0.0000
     0.0000   0.0000   0.0000   0.0000   0.0000   0.0000   0.0000   0.0000
     0.0000   0.0000   0.0000   0.0000   0.0000   0.0000   0.0000   0.0000
     0.0000   0.0000   0.0000   0.0000   0.0000   0.0000   0.0000   0.0000
     0.0000   0.0000   0.0000   0.0000   0.0000   0.0000   0.0000   0.0000
     0.0000   0.0000   0.0000   0.0000   0.0000   0.0000   0.0000   0.0000
     0.0000   0.0000   0.0000   0.0000   0.0000   0.0000   0.0000   0.0000
     0.0000   0.0000   0.0000   0.0000   0.0000   0.0000   0.0000   0.0000
     0.0000   0.0000   0.0000   0.0000   0.0000   0.0000   0.0000   0.0000
     0.0000   0.0000   0.0000   0.0000   0.0000   0.0000   0.0000   0.0000
     0.0000   0.0000   0.0000   0.0000   0.0000   0.0000   0.0000   0.0000
     0.0000   0.0000   0.0000   0.0000   0.0000   0.0000   0.0000   0.0000
     0.0000   0.0000   0.0000   0.0000   0.0000   0.0000   0.0000   0.0000
     0.0000   0.0000   0.0000   0.0000   0.0000   0.0000   0.0000   0.0000
     0.0000   0.0000   0.0000   0.0000   0.0000   0.0000   0.0000   0.0000

[...]

          k = 0.3333 0.4760-0.4654 (  4902 PWs)   bands (ev):

   -29.2943 -29.2650 -29.2603 -23.1953 -11.7587 -11.7043 -11.6744 -11.5827
   -11.5689 -11.4776 -11.4288 -11.3512 -11.1193 -11.1115 -11.1060 -11.1013
   -11.0975 -11.0914 -11.0884 -11.0867 -11.0846 -11.0750 -11.0668 -11.0599
   -10.5704 -10.5438 -10.4863 -10.4507 -10.4203 -10.3908 -10.3709 -10.3256
   -10.2910  -8.4909  -8.2593  -7.9811  -7.8812  -7.8069  -7.7521  -7.3618
    -7.1820  -7.0901  -6.8665  -6.6953  -6.5337  -5.0863  -5.0793  -4.9385
     1.7410   2.3724   2.5787   3.1354   4.4188   4.6291   5.0476   5.2359
     5.5678   5.6950   6.0244   6.1217   6.1689   6.2367   6.3838   6.4778
     6.7914   6.9377   7.1433   7.2841   7.3775   7.4411   7.5155   7.6906
     7.7137   7.8240   7.8367   7.8831   7.9274   7.9616   7.9991   8.1092
     8.1429   8.2013   8.3149   8.3659  12.5921  13.4012  13.6694  14.3717
    15.2801  15.3438  15.5025  15.6230  15.7489  15.8957  16.0366  16.0912
    16.2052  16.2585  16.3768  16.4634  16.5541  16.6737  16.8664  16.9258
    17.0883  17.2023  17.3460  17.5621  17.7319  17.8683  17.9930  18.1966
    18.4739  18.8304  19.1131  19.4537  19.5524  19.8574  20.0805  20.3032
    20.5464  20.6929  20.8247  20.9896  21.2683  21.3997  21.6899  21.7983
    22.1789  22.2970  22.4167  22.5947  22.8244  23.1355  23.5224  23.7676
    24.1252  24.3339  24.5489  24.8647  24.9973  25.3436  25.6820  25.8563
    26.2980  26.4923  27.0482  27.2924  27.8443  28.0227  28.4330  28.5801
    28.6726  28.9917  29.1212  29.4875  29.4915  29.5033  29.5069  29.7523
    29.8815  30.0824  30.3370  30.4382  30.6869  30.8771  31.2640  31.4403
    31.5643  31.7547  32.0587  32.3068  32.3762  32.7268  32.8659  32.9789
    33.1052  33.5217  33.6328  33.7561  33.9320  34.0532  34.1141  34.2364
    34.4616  34.6097  34.7187  34.8898  34.9860  35.2907  35.3632  35.5009
    35.6696  35.9491  36.0805  36.2904  36.4525  36.6208  36.8065  36.9666
    37.2074  37.3786  37.6054  37.7246  37.9769  38.2871  38.5205  38.8182
    39.0458  39.2433  39.4438  39.5658  39.7104  39.7828  39.8436  40.1935
    40.2726  40.3661  40.5800  40.6805  40.9586  41.0586  41.1955  41.2468
    41.4520  41.4786  41.5640  41.7723  41.9094  41.9883  42.0940  42.2344
    42.2924  42.4552  42.4920  42.6062  42.7390  42.8219  42.9681  43.0603
    43.3524  43.5380  43.6551  43.8018  44.0194  44.1789  44.2908  44.4798
    44.5751  44.6591  44.9296  45.0326  45.1889  45.3485  45.5301  45.6031

     occupation numbers
     1.0000   1.0000   1.0000   1.0000   1.0000   1.0000   1.0000   1.0000
     1.0000   1.0000   1.0000   1.0000   1.0000   1.0000   1.0000   1.0000
     1.0000   1.0000   1.0000   1.0000   1.0000   1.0000   1.0000   1.0000
     1.0000   1.0000   1.0000   1.0000   1.0000   1.0000   1.0000   1.0000
     1.0000   1.0000   1.0000   1.0000   1.0000   1.0000   1.0000   1.0000
     1.0000   1.0000   1.0000   1.0000   1.0000   1.0000   1.0000   1.0000
     1.0000   1.0000   1.0000   1.0000   1.0000   1.0000   1.0000   1.0000
     1.0000   1.0000   1.0000   1.0000   1.0000   1.0000   1.0000   1.0000
     1.0000   1.0000   1.0000   1.0000   1.0000   1.0000   1.0000   1.0000
     1.0000   1.0000   1.0000   1.0000   1.0000   1.0000   1.0000   1.0000
     1.0000   1.0000   1.0000   1.0000   0.0000   0.0000   0.0000   0.0000
     0.0000   0.0000   0.0000   0.0000   0.0000   0.0000   0.0000   0.0000
     0.0000   0.0000   0.0000   0.0000   0.0000   0.0000   0.0000   0.0000
     0.0000   0.0000   0.0000   0.0000   0.0000   0.0000   0.0000   0.0000
     0.0000   0.0000   0.0000   0.0000   0.0000   0.0000   0.0000   0.0000
     0.0000   0.0000   0.0000   0.0000   0.0000   0.0000   0.0000   0.0000
     0.0000   0.0000   0.0000   0.0000   0.0000   0.0000   0.0000   0.0000
     0.0000   0.0000   0.0000   0.0000   0.0000   0.0000   0.0000   0.0000
     0.0000   0.0000   0.0000   0.0000   0.0000   0.0000   0.0000   0.0000
     0.0000   0.0000   0.0000   0.0000   0.0000   0.0000   0.0000   0.0000
     0.0000   0.0000   0.0000   0.0000   0.0000   0.0000   0.0000   0.0000
     0.0000   0.0000   0.0000   0.0000   0.0000   0.0000   0.0000   0.0000
     0.0000   0.0000   0.0000   0.0000   0.0000   0.0000   0.0000   0.0000
     0.0000   0.0000   0.0000   0.0000   0.0000   0.0000   0.0000   0.0000
     0.0000   0.0000   0.0000   0.0000   0.0000   0.0000   0.0000   0.0000
     0.0000   0.0000   0.0000   0.0000   0.0000   0.0000   0.0000   0.0000
     0.0000   0.0000   0.0000   0.0000   0.0000   0.0000   0.0000   0.0000
     0.0000   0.0000   0.0000   0.0000   0.0000   0.0000   0.0000   0.0000
     0.0000   0.0000   0.0000   0.0000   0.0000   0.0000   0.0000   0.0000
     0.0000   0.0000   0.0000   0.0000   0.0000   0.0000   0.0000   0.0000
     0.0000   0.0000   0.0000   0.0000   0.0000   0.0000   0.0000   0.0000
     0.0000   0.0000   0.0000   0.0000   0.0000   0.0000   0.0000   0.0000

     highest occupied, lowest unoccupied level (ev):     8.4400   10.5594

!    total energy              =   -1448.64648300 Ry
     estimated scf accuracy    <       0.00000032 Ry

     The total energy is the sum of the following terms:
     one-electron contribution =    -358.40172299 Ry
     hartree contribution      =     294.70247799 Ry
     xc contribution           =    -335.17256123 Ry
     ewald contribution        =    -935.50678195 Ry
     one-center paw contrib.   =    -114.26789482 Ry
      -> PAW hartree energy AE =       0.00000000 Ry
      -> PAW hartree energy PS =       0.00000000 Ry
      -> PAW xc energy AE      =       0.00000000 Ry
      -> PAW xc energy PS      =       0.00000000 Ry
      -> total E_H with PAW    =     294.70247799 Ry
      -> total E_XC with PAW   =    -335.17256123 Ry

     convergence has been achieved in   9 iterations

     Writing all to output data dir bands_nm/myprefix.save/

     General routines

     Parallel routines

     PAW routines

   This run was terminated on:  21: 6:12  15Jul2023

   JOB DONE.