     Program PWSCF v.7.0 starts on  6Jun2023 at 19:16:37

     K-points division:     npool     =       2
     R & G space division:  proc/nbgrp/npool/nimage =       4

     Reading input from espresso_19870.pwi
Warning: card &CELL ignored
Warning: card / ignored

     Current dimensions of program PWSCF are:
     Max number of different atomic species (ntypx) = 10
     Max number of k-points (npk) =  40000
     Max angular momentum in pseudopotentials (lmaxx) =  4
     file K.pbe-spn-kjpaw_psl.1.0.0.UPF: wavefunction(s)  3S renormalized
     file O.pbe-n-kjpaw_psl.0.1.UPF: wavefunction(s)  2P renormalized

     Using Slab Decomposition

     bravais-lattice index     =            0
     lattice parameter (alat)  =      12.4842  a.u.
     unit-cell volume          =    1833.6371 (a.u.)^3
     number of atoms/cell      =           20
     number of atomic types    =            4
     number of electrons       =       112.00
     number of Kohn-Sham states=           64
     kinetic-energy cutoff     =      30.0000  Ry
     charge density cutoff     =     240.0000  Ry
     scf convergence threshold =      1.0E-06
     mixing beta               =       0.7000
     number of iterations used =            8  plain     mixing
     Exchange-correlation= SLA  PW   PBX  PBC
                           (   1   4   3   4   0   0   0)

     celldm(1)=  12.484241  celldm(2)=   0.000000  celldm(3)=   0.000000
     celldm(4)=   0.000000  celldm(5)=   0.000000  celldm(6)=   0.000000

     crystal axes: (cart. coord. in units of alat)
               a(1) = (   1.000000   0.000000   0.000000 )
               a(2) = (  -0.182377   0.983229   0.000000 )
               a(3) = (  -0.182377  -0.219317   0.958457 )

     reciprocal axes: (cart. coord. in units 2 pi/alat)
               b(1) = (  1.000000  0.185488  0.232726 )
               b(2) = (  0.000000  1.017057  0.232726 )
               b(3) = (  0.000000  0.000000  1.043344 )

     PseudoPot. # 1 for K  read from file:
     /home/pragov/projects/rrg-bengioy-ad/pragov/crystal_structure_design/SSSP/K.pbe-spn-kjpaw_psl.1.0.0.UPF
     MD5 check sum: 7d58810084cac21f60fbe77ea2b688fd
     Pseudo is Projector augmented-wave + core cor, Zval =  9.0
     Generated using "atomic" code by A. Dal Corso  v.5.1
     Shape of augmentation charge: PSQ
     Using radial grid of 1165 points,  6 beta functions with:
                l(1) =   0
                l(2) =   0
                l(3) =   1
                l(4) =   1
                l(5) =   2
                l(6) =   2
     Q(r) pseudized with 0 coefficients

     PseudoPot. # 2 for B  read from file:
     /home/pragov/projects/rrg-bengioy-ad/pragov/crystal_structure_design/SSSP/b_pbe_v1.4.uspp.F.UPF
     MD5 check sum: cc6de2960df11db49a60e589f9ebb39b
     Pseudo is Ultrasoft + core correction, Zval =  3.0
     Generated by new atomic code, or converted to UPF format
     Using radial grid of  781 points,  4 beta functions with:
                l(1) =   0
                l(2) =   0
                l(3) =   1
                l(4) =   1
     Q(r) pseudized with  8 coefficients,  rinner =    1.100   1.100   1.100

     PseudoPot. # 3 for Cl read from file:
     /home/pragov/projects/rrg-bengioy-ad/pragov/crystal_structure_design/SSSP/cl_pbe_v1.4.uspp.F.UPF
     MD5 check sum: fc6f6913ecf08c9257cb748ef0700058
     Pseudo is Ultrasoft + core correction, Zval =  7.0
     Generated by new atomic code, or converted to UPF format
     Using radial grid of  909 points,  6 beta functions with:
                l(1) =   0
                l(2) =   0
                l(3) =   1
                l(4) =   1
                l(5) =   2
                l(6) =   2
     Q(r) pseudized with  8 coefficients,  rinner =    1.300   1.300   1.300
                                                       1.300   1.300

     PseudoPot. # 4 for O  read from file:
     /home/pragov/projects/rrg-bengioy-ad/pragov/crystal_structure_design/SSSP/O.pbe-n-kjpaw_psl.0.1.UPF
     MD5 check sum: 0234752ac141de4415c5fc33072bef88
     Pseudo is Projector augmented-wave + core cor, Zval =  6.0
     Generated using "atomic" code by A. Dal Corso  v.5.0.99 svn rev. 10869
     Shape of augmentation charge: BESSEL
     Using radial grid of 1095 points,  4 beta functions with:
                l(1) =   0
                l(2) =   0
                l(3) =   1
                l(4) =   1
     Q(r) pseudized with 0 coefficients

     atomic species   valence    mass     pseudopotential
        K              9.00    39.09830     K ( 1.00)
        B              3.00    10.81000     B ( 1.00)
        Cl             7.00    35.45000     Cl( 1.00)
        O              6.00    15.99900     O ( 1.00)

     No symmetry found

                                    s                        frac. trans.

      isym =  1     identity

 cryst.   s( 1) = (     1          0          0      )
                  (     0          1          0      )
                  (     0          0          1      )

 cart.    s( 1) = (  1.0000000 -0.0000000  0.0000000 )
                  (  0.0000000  1.0000000  0.0000000 )
                  (  0.0000000  0.0000000  1.0000000 )

   Cartesian axes

     site n.     atom                  positions (alat units)
         1           K   tau(   1) = (   0.1462663   0.8226664   0.3686828  )
         2           K   tau(   2) = (   0.1462662   0.1758917   0.8841771  )
         3           K   tau(   3) = (   0.7821936   0.2938486   0.3686828  )
         4           B   tau(   4) = (   0.6503425  -0.1039618   0.7784910  )
         5           B   tau(   5) = (   0.6503427   0.7820665   0.0723060  )
         6           B   tau(   6) = (  -0.2208257   0.6204752   0.7784910  )
         7           B   tau(   7) = (   0.6735661   0.8099937   0.4643914  )
         8           B   tau(   8) = (   0.1446107   0.7118788   0.8931722  )
         9           B   tau(   9) = (   0.6735660   0.2720157   0.8931722  )
        10           Cl  tau(  10) = (   0.2782866   0.3346522   0.4198778  )
        11           O   tau(  11) = (   0.7026076  -0.0750886   0.5639050  )
        12           O   tau(  12) = (   0.4288071   0.7941309   0.0525867  )
        13           O   tau(  13) = (  -0.2019687   0.3986585   0.7858529  )
        14           O   tau(  14) = (   0.4288069  -0.1258753   0.7858529  )
        15           O   tau(  15) = (   0.7026077   0.5664466   0.0525867  )
        16           O   tau(  16) = (  -0.2019687   0.6771296   0.5639050  )
        17           O   tau(  17) = (   0.7167743   0.8619535   0.2671458  )
        18           O   tau(  18) = (  -0.0637164   0.7171819   0.8998258  )
        19           O   tau(  19) = (   0.7167742   0.0681497   0.8998258  )
        20           O   tau(  20) = (   0.5697361   0.6851335   0.8596157  )

   Crystallographic axes

     site n.     atom                  positions (cryst. coord.)
         1           K   tau(   1) = (  0.3846630  0.9225010  0.3846630  )
         2           K   tau(   2) = (  0.3846630  0.3846630  0.9225010  )
         3           K   tau(   3) = (  0.9225010  0.3846630  0.3846630  )
         4           B   tau(   4) = (  0.8122340  0.0754400  0.8122340  )
         5           B   tau(   5) = (  0.8122340  0.8122340  0.0754400  )
         6           B   tau(   6) = (  0.0754400  0.8122340  0.8122340  )
         7           B   tau(   7) = (  0.9318860  0.9318860  0.4845200  )
         8           B   tau(   8) = (  0.4845200  0.9318860  0.9318860  )
         9           B   tau(   9) = (  0.9318860  0.4845200  0.9318860  )
        10           Cl  tau(  10) = (  0.4380770  0.4380770  0.4380770  )
        11           O   tau(  11) = (  0.8199150  0.0548660  0.5883470  )
        12           O   tau(  12) = (  0.5883470  0.8199150  0.0548660  )
        13           O   tau(  13) = (  0.0548660  0.5883470  0.8199150  )
        14           O   tau(  14) = (  0.5883470  0.0548660  0.8199150  )
        15           O   tau(  15) = (  0.8199150  0.5883470  0.0548660  )
        16           O   tau(  16) = (  0.0548660  0.8199150  0.5883470  )
        17           O   tau(  17) = (  0.9388280  0.9388280  0.2787250  )
        18           O   tau(  18) = (  0.2787250  0.9388280  0.9388280  )
        19           O   tau(  19) = (  0.9388280  0.2787250  0.9388280  )
        20           O   tau(  20) = (  0.8968750  0.8968750  0.8968750  )

     number of k points=    14
                       cart. coord. in units 2pi/alat
        k(    1) = (   0.0000000   0.0000000   0.0000000), wk =   0.0740741
        k(    2) = (   0.0000000   0.0000000   0.3477814), wk =   0.1481481
        k(    3) = (   0.0000000   0.3390191   0.0775753), wk =   0.1481481
        k(    4) = (   0.0000000   0.3390191   0.4253567), wk =   0.1481481
        k(    5) = (   0.0000000   0.3390191  -0.2702060), wk =   0.1481481
        k(    6) = (   0.3333333   0.0618293   0.0775753), wk =   0.1481481
        k(    7) = (   0.3333333   0.0618293   0.4253567), wk =   0.1481481
        k(    8) = (   0.3333333   0.0618293  -0.2702060), wk =   0.1481481
        k(    9) = (   0.3333333   0.4008484   0.1551507), wk =   0.1481481
        k(   10) = (   0.3333333   0.4008484   0.5029321), wk =   0.1481481
        k(   11) = (   0.3333333   0.4008484  -0.1926307), wk =   0.1481481
        k(   12) = (   0.3333333  -0.2771898  -0.0000000), wk =   0.1481481
        k(   13) = (   0.3333333  -0.2771898   0.3477814), wk =   0.1481481
        k(   14) = (   0.3333333  -0.2771898  -0.3477814), wk =   0.1481481

                       cryst. coord.
        k(    1) = (   0.0000000   0.0000000   0.0000000), wk =   0.0740741
        k(    2) = (   0.0000000   0.0000000   0.3333333), wk =   0.1481481
        k(    3) = (   0.0000000   0.3333333  -0.0000000), wk =   0.1481481
        k(    4) = (   0.0000000   0.3333333   0.3333333), wk =   0.1481481
        k(    5) = (   0.0000000   0.3333333  -0.3333333), wk =   0.1481481
        k(    6) = (   0.3333333   0.0000000   0.0000000), wk =   0.1481481
        k(    7) = (   0.3333333   0.0000000   0.3333333), wk =   0.1481481
        k(    8) = (   0.3333333   0.0000000  -0.3333333), wk =   0.1481481
        k(    9) = (   0.3333333   0.3333333   0.0000000), wk =   0.1481481
        k(   10) = (   0.3333333   0.3333333   0.3333333), wk =   0.1481481
        k(   11) = (   0.3333333   0.3333333  -0.3333333), wk =   0.1481481
        k(   12) = (   0.3333333  -0.3333333  -0.0000000), wk =   0.1481481
        k(   13) = (   0.3333333  -0.3333333   0.3333333), wk =   0.1481481
        k(   14) = (   0.3333333  -0.3333333  -0.3333333), wk =   0.1481481

     Check: negative core charge=   -0.000011

     Initial potential from superposition of free atoms

     starting charge     111.9418, renormalised to     112.0000

     negative rho (up, down):  1.467E-02 0.000E+00
     Starting wfcs are   92 randomized atomic wfcs
     Checking if some PAW data can be deallocated...

     Self-consistent Calculation

     iteration #  1     ecut=    30.00 Ry     beta= 0.70
     Davidson diagonalization with overlap

     ethr =  1.00E-02,  avg # of iterations =  4.1

     negative rho (up, down):  1.526E-02 0.000E+00

     total energy              =    -827.79228137 Ry
     estimated scf accuracy    <       2.48363321 Ry

[...]

     total energy              =    -828.76181622 Ry
     estimated scf accuracy    <       0.00000138 Ry

     iteration #  9     ecut=    30.00 Ry     beta= 0.70
     Davidson diagonalization with overlap

     ethr =  1.23E-09,  avg # of iterations =  3.1

     negative rho (up, down):  1.447E-02 0.000E+00

     End of self-consistent calculation

          k = 0.0000 0.0000 0.0000 (  5075 PWs)   bands (ev):

   -24.6714 -24.6591 -24.6591 -17.9231 -16.5443 -16.5443 -16.2825 -16.2825
   -15.8694 -15.2438 -15.1966 -15.1756 -15.1756  -9.0723  -8.2569  -8.2569
    -8.1992  -8.1760  -8.1746  -8.1746  -8.1536  -8.1536  -8.1333  -6.1895
    -5.2802  -5.2802  -4.5114  -4.5114  -3.9497  -3.9497  -3.3967  -2.8071
    -2.8071  -2.5625  -1.4608  -1.1022  -1.1022  -0.4307   0.0126   0.4204
     0.4204   0.6419   0.8490   0.8490   1.3070   1.3070   1.4406   1.6060
     1.6061   1.6992   2.1350   2.1350   2.5039   2.6076   2.6076   2.6780
     8.0223   9.6255   9.6984   9.6984  10.1189  10.1189  11.4085  11.4892

     occupation numbers
     1.0000   1.0000   1.0000   1.0000   1.0000   1.0000   1.0000   1.0000
     1.0000   1.0000   1.0000   1.0000   1.0000   1.0000   1.0000   1.0000
     1.0000   1.0000   1.0000   1.0000   1.0000   1.0000   1.0000   1.0000
     1.0000   1.0000   1.0000   1.0000   1.0000   1.0000   1.0000   1.0000
     1.0000   1.0000   1.0000   1.0000   1.0000   1.0000   1.0000   1.0000
     1.0000   1.0000   1.0000   1.0000   1.0000   1.0000   1.0000   1.0000
     1.0000   1.0000   1.0000   1.0000   1.0000   1.0000   1.0000   1.0000
     0.0000   0.0000   0.0000   0.0000   0.0000   0.0000   0.0000   0.0000

[...]

          k = 0.3333-0.2772-0.3478 (  5090 PWs)   bands (ev):

   -24.6669 -24.6640 -24.6581 -17.7122 -17.0083 -16.9249 -16.2386 -15.7721
   -15.7065 -15.3121 -15.1809 -15.1573 -15.1524  -9.2110  -8.2373  -8.2349
    -8.1902  -8.1836  -8.1640  -8.1578  -8.1451  -8.1406  -8.0410  -6.3015
    -6.1401  -5.2529  -4.4481  -4.1816  -4.0772  -3.3937  -3.1284  -3.0359
    -2.4487  -2.3435  -1.4087  -1.0842  -0.8404  -0.7201  -0.0814   0.0113
     0.3397   0.4536   0.9925   1.0713   1.1654   1.2780   1.3347   1.4136
     1.6295   1.8616   1.9717   2.0876   2.4474   2.4613   2.5027   2.6114
     9.1874   9.4303   9.7604   9.8630  10.0025  10.3788  11.5592  11.7485

     occupation numbers
     1.0000   1.0000   1.0000   1.0000   1.0000   1.0000   1.0000   1.0000
     1.0000   1.0000   1.0000   1.0000   1.0000   1.0000   1.0000   1.0000
     1.0000   1.0000   1.0000   1.0000   1.0000   1.0000   1.0000   1.0000
     1.0000   1.0000   1.0000   1.0000   1.0000   1.0000   1.0000   1.0000
     1.0000   1.0000   1.0000   1.0000   1.0000   1.0000   1.0000   1.0000
     1.0000   1.0000   1.0000   1.0000   1.0000   1.0000   1.0000   1.0000
     1.0000   1.0000   1.0000   1.0000   1.0000   1.0000   1.0000   1.0000
     0.0000   0.0000   0.0000   0.0000   0.0000   0.0000   0.0000   0.0000

     highest occupied, lowest unoccupied level (ev):     2.6780    8.0223

!    total energy              =    -828.76181671 Ry
     estimated scf accuracy    <       0.00000017 Ry

     The total energy is the sum of the following terms:
     one-electron contribution =    -309.47822088 Ry
     hartree contribution      =     209.40445820 Ry
     xc contribution           =    -136.58903495 Ry
     ewald contribution        =    -330.77932229 Ry
     one-center paw contrib.   =    -261.31969680 Ry
      -> PAW hartree energy AE =     113.29856691 Ry
      -> PAW hartree energy PS =    -112.66730673 Ry
      -> PAW xc energy AE      =    -198.68333481 Ry
      -> PAW xc energy PS      =      31.79900095 Ry
      -> total E_H with PAW    =     210.03571838 Ry
      -> total E_XC with PAW   =    -303.47336880 Ry

     convergence has been achieved in   9 iterations

     Writing all to output data dir calculations_bands/myprefix.save/

     General routines

     Parallel routines

     PAW routines

   This run was terminated on:  19:16:59   6Jun2023

   JOB DONE.