     Program PWSCF v.7.1 starts on 13Jul2023 at  7:44:12

     Reading input from espresso_5859.pwi
Warning: card &CELL ignored
Warning: card / ignored

     Current dimensions of program PWSCF are:
     Max number of different atomic species (ntypx) = 10
     Max number of k-points (npk) =  40000
     Max angular momentum in pseudopotentials (lmaxx) =  4
     file K.pbe-spn-kjpaw_psl.1.0.0.UPF: wavefunction(s)  3S renormalized
     file O.pbe-n-kjpaw_psl.0.1.UPF: wavefunction(s)  2P renormalized
     Message from routine setup:
     using ibrav=0 with symmetry is DISCOURAGED, use correct ibrav instead

     K-points division:     npool     =       2
     R & G space division:  proc/nbgrp/npool/nimage =       8
     Subspace diagonalization in iterative solution of the eigenvalue problem:
     a serial algorithm will be used

     Using Slab Decomposition

     bravais-lattice index     =            0
     lattice parameter (alat)  =      11.0245  a.u.
     unit-cell volume          =    1489.1837 (a.u.)^3
     number of atoms/cell      =           14
     number of atomic types    =            4
     number of electrons       =       112.00
     number of Kohn-Sham states=           64
     kinetic-energy cutoff     =      30.0000  Ry
     charge density cutoff     =     240.0000  Ry
     scf convergence threshold =      1.0E-06
     mixing beta               =       0.7000
     number of iterations used =            8  plain     mixing
     Exchange-correlation= SLA  PW   PBX  PBC
                           (   1   4   3   4   0   0   0)

     celldm(1)=  11.024515  celldm(2)=   0.000000  celldm(3)=   0.000000
     celldm(4)=   0.000000  celldm(5)=   0.000000  celldm(6)=   0.000000

     crystal axes: (cart. coord. in units of alat)
               a(1) = (   1.000000   0.000000   0.000000 )
               a(2) = (  -0.500000   0.866025   0.000000 )
               a(3) = (   0.000000   0.000000   1.283332 )

     reciprocal axes: (cart. coord. in units 2 pi/alat)
               b(1) = (  1.000000  0.577350  0.000000 )
               b(2) = (  0.000000  1.154701  0.000000 )
               b(3) = (  0.000000  0.000000  0.779221 )

     PseudoPot. # 1 for K  read from file:
     /lustre07/scratch/pragov/crystal_structure_design/utils/SSSP/K.pbe-spn-kjpaw_psl.1.0.0.UPF
     MD5 check sum: 7d58810084cac21f60fbe77ea2b688fd
     Pseudo is Projector augmented-wave + core cor, Zval =  9.0
     Generated using "atomic" code by A. Dal Corso  v.5.1
     Shape of augmentation charge: PSQ
     Using radial grid of 1165 points,  6 beta functions with:
                l(1) =   0
                l(2) =   0
                l(3) =   1
                l(4) =   1
                l(5) =   2
                l(6) =   2
     Q(r) pseudized with 0 coefficients

     PseudoPot. # 2 for Sc read from file:
     /lustre07/scratch/pragov/crystal_structure_design/utils/SSSP/Sc_ONCV_PBE-1.0.oncvpsp.upf
     MD5 check sum: e21af8023abb52e52cb7cd3133e4a229
     Pseudo is Norm-conserving, Zval = 11.0
     Generated using ONCVPSP code by D. R. Hamann
     Using radial grid of 1662 points,  6 beta functions with:
                l(1) =   0
                l(2) =   0
                l(3) =   1
                l(4) =   1
                l(5) =   2
                l(6) =   2

     PseudoPot. # 3 for V  read from file:
     /lustre07/scratch/pragov/crystal_structure_design/utils/SSSP/v_pbe_v1.4.uspp.F.UPF
     MD5 check sum: 22b79981416ebb76fdaf5b1b8640f6fb
     Pseudo is Ultrasoft + core correction, Zval = 13.0
     Generated by new atomic code, or converted to UPF format
     Using radial grid of  853 points,  6 beta functions with:
                l(1) =   0
                l(2) =   0
                l(3) =   1
                l(4) =   1
                l(5) =   2
                l(6) =   2
     Q(r) pseudized with  8 coefficients,  rinner =    1.100   1.100   1.100
                                                       1.100   1.100

     PseudoPot. # 4 for O  read from file:
     /lustre07/scratch/pragov/crystal_structure_design/utils/SSSP/O.pbe-n-kjpaw_psl.0.1.UPF
     MD5 check sum: 0234752ac141de4415c5fc33072bef88
     Pseudo is Projector augmented-wave + core cor, Zval =  6.0
     Generated using "atomic" code by A. Dal Corso  v.5.0.99 svn rev. 10869
     Shape of augmentation charge: BESSEL
     Using radial grid of 1095 points,  4 beta functions with:
                l(1) =   0
                l(2) =   0
                l(3) =   1
                l(4) =   1
     Q(r) pseudized with 0 coefficients

     atomic species   valence    mass     pseudopotential
        K              9.00    39.09830     K ( 1.00)
        Sc            11.00    44.95591     Sc( 1.00)
        V             13.00    50.94150     V ( 1.00)
        O              6.00    15.99900     O ( 1.00)

     12 Sym. Ops., with inversion, found

                                    s                        frac. trans.

      isym =  1     identity

 cryst.   s( 1) = (     1          0          0      )
                  (     0          1          0      )
                  (     0          0          1      )

 cart.    s( 1) = (  1.0000000  0.0000000  0.0000000 )
                  (  0.0000000  1.0000000  0.0000000 )
                  (  0.0000000  0.0000000  1.0000000 )

      isym =  2     180 deg rotation - cart. axis [1,0,0]

[...]

      isym =  3     120 deg rotation - cryst. axis [0,0,1]

[...]

      isym =  6     180 deg rotation - cryst. axis [1,1,0]

[...]

      isym =  7     inversion

[...]

      isym =  8     inv. 180 deg rotation - cart. axis [1,0,0]

[...]

      isym =  9     inv. 120 deg rotation - cryst. axis [0,0,1]

 cryst.   s( 9) = (     0         -1          0      )
                  (     1          1          0      )
                  (     0          0         -1      )

 cart.    s( 9) = (  0.5000001  0.8660254  0.0000000 )
                  ( -0.8660254  0.4999999  0.0000000 )
                  (  0.0000000  0.0000000 -1.0000000 )

[...]

 cryst.   s(10) = (     1          1          0      )
                  (    -1          0          0      )
                  (     0          0         -1      )

 cart.    s(10) = (  0.4999999 -0.8660254  0.0000000 )
                  (  0.8660254  0.5000001  0.0000000 )
                  (  0.0000000  0.0000000 -1.0000000 )

[...]

      isym = 12     inv. 180 deg rotation - cryst. axis [1,1,0]

 cryst.   s(12) = (     0         -1          0      )
                  (    -1          0          0      )
                  (     0          0          1      )

 cart.    s(12) = (  0.5000001 -0.8660254  0.0000000 )
                  ( -0.8660254 -0.5000001  0.0000000 )
                  (  0.0000000  0.0000000  1.0000000 )

   Cartesian axes

     site n.     atom                  positions (alat units)
         1           K   tau(   1) = (  -0.0000005   0.5773505   0.8681243  )
         2           K   tau(   2) = (   0.5000005   0.2886748   0.4152081  )
         3           K   tau(   3) = (   0.0000000   0.0000000   0.0000000  )
         4           Sc  tau(   4) = (   0.0000000   0.0000000   0.6416662  )
         5           V   tau(   5) = (  -0.0000005   0.5773505   0.3159500  )
         6           V   tau(   6) = (   0.5000005   0.2886748   0.9673823  )
         7           O   tau(   7) = (  -0.0000005   0.5773505   0.0278380  )
         8           O   tau(   8) = (   0.5000005   0.2886748   1.2554943  )
         9           O   tau(   9) = (  -0.2456720   0.7191890   0.4237679  )
        10           O   tau(  10) = (   0.7456720   0.1468363   0.8595644  )
        11           O   tau(  11) = (  -0.0000000   0.2936727   0.4237679  )
        12           O   tau(  12) = (   0.5000000   0.5723527   0.8595644  )
        13           O   tau(  13) = (   0.2456720   0.7191890   0.4237679  )
        14           O   tau(  14) = (   0.2543280   0.1468363   0.8595644  )

   Crystallographic axes

     site n.     atom                  positions (cryst. coord.)
         1           K   tau(   1) = (  0.3333330  0.6666670  0.6764610  )
         2           K   tau(   2) = (  0.6666670  0.3333330  0.3235390  )
         3           K   tau(   3) = (  0.0000000  0.0000000  0.0000000  )
         4           Sc  tau(   4) = (  0.0000000  0.0000000  0.5000000  )
         5           V   tau(   5) = (  0.3333330  0.6666670  0.2461950  )
         6           V   tau(   6) = (  0.6666670  0.3333330  0.7538050  )
         7           O   tau(   7) = (  0.3333330  0.6666670  0.0216920  )
         8           O   tau(   8) = (  0.6666670  0.3333330  0.9783080  )
         9           O   tau(   9) = (  0.1695520  0.8304480  0.3302090  )
        10           O   tau(  10) = (  0.8304480  0.1695520  0.6697910  )
        11           O   tau(  11) = (  0.1695520  0.3391040  0.3302090  )
        12           O   tau(  12) = (  0.8304480  0.6608960  0.6697910  )
        13           O   tau(  13) = (  0.6608960  0.8304480  0.3302090  )
        14           O   tau(  14) = (  0.3391040  0.1695520  0.6697910  )

     number of k points=     7
                       cart. coord. in units 2pi/alat
        k(    1) = (   0.0000000   0.0000000   0.0000000), wk =   0.0740741
        k(    2) = (   0.0000000   0.0000000   0.2597405), wk =   0.1481481
        k(    3) = (   0.0000000   0.3849002   0.0000000), wk =   0.4444444
        k(    4) = (   0.0000000   0.3849002   0.2597405), wk =   0.4444444
        k(    5) = (   0.3333333   0.5773503   0.0000000), wk =   0.1481481
        k(    6) = (   0.3333333   0.5773503   0.2597405), wk =   0.2962963
        k(    7) = (   0.0000000   0.3849002  -0.2597405), wk =   0.4444444

                       cryst. coord.
        k(    1) = (   0.0000000   0.0000000   0.0000000), wk =   0.0740741
        k(    2) = (   0.0000000   0.0000000   0.3333333), wk =   0.1481481
        k(    3) = (   0.0000000   0.3333333   0.0000000), wk =   0.4444444
        k(    4) = (   0.0000000   0.3333333   0.3333333), wk =   0.4444444
        k(    5) = (   0.3333333   0.3333333   0.0000000), wk =   0.1481481
        k(    6) = (   0.3333333   0.3333333   0.3333333), wk =   0.2962963
        k(    7) = (   0.0000000   0.3333333  -0.3333333), wk =   0.4444444

     Check: negative core charge=   -0.000013

     Initial potential from superposition of free atoms

     starting charge     111.9384, renormalised to     112.0000

     negative rho (up, down):  2.003E-03 0.000E+00
     Starting wfcs are   86 randomized atomic wfcs
     Checking if some PAW data can be deallocated...

     Self-consistent Calculation

     iteration #  1     ecut=    30.00 Ry     beta= 0.70
     Davidson diagonalization with overlap

     ethr =  1.00E-02,  avg # of iterations =  2.0

     negative rho (up, down):  5.030E-03 0.000E+00

     total energy              =   -1051.90697341 Ry
     estimated scf accuracy    <       5.63217256 Ry

[...]

     c_bands:  1 eigenvalues not converged
     ethr =  1.22E-06,  avg # of iterations = 10.1

[...]

     total energy              =   -1055.33707522 Ry
     estimated scf accuracy    <       0.00000483 Ry

     iteration # 11     ecut=    30.00 Ry     beta= 0.70
     Davidson diagonalization with overlap

     ethr =  4.31E-09,  avg # of iterations =  4.0

     negative rho (up, down):  3.485E-03 0.000E+00

     End of self-consistent calculation

          k = 0.0000 0.0000 0.0000 (  4189 PWs)   bands (ev):

   -59.1860 -59.1859 -43.2405 -33.1057 -33.1057 -33.1046 -33.1046 -33.1040
   -33.1038 -23.1873 -22.9915 -22.9820 -21.8876 -21.8876 -21.8691 -12.0736
   -11.7353 -11.5227 -11.5225 -11.3914 -11.3912 -11.1778 -11.0323  -6.6919
    -6.6919  -6.6483  -6.5994  -6.5994  -6.5530  -6.5378  -6.5378  -6.4955
     0.9746   1.2923   1.2924   1.6504   1.6504   1.7412   1.8727   1.9149
     1.9150   2.1536   2.1537   2.1906   2.6672   2.6673   2.8088   2.9372
     2.9372   3.0818   4.0765   4.2528   4.2528   4.2939   4.2940   4.3664
     7.4055   7.4055   8.1573   8.1573   8.9341   9.1974   9.1975   9.4307

     occupation numbers
     1.0000   1.0000   1.0000   1.0000   1.0000   1.0000   1.0000   1.0000
     1.0000   1.0000   1.0000   1.0000   1.0000   1.0000   1.0000   1.0000
     1.0000   1.0000   1.0000   1.0000   1.0000   1.0000   1.0000   1.0000
     1.0000   1.0000   1.0000   1.0000   1.0000   1.0000   1.0000   1.0000
     1.0000   1.0000   1.0000   1.0000   1.0000   1.0000   1.0000   1.0000
     1.0000   1.0000   1.0000   1.0000   1.0000   1.0000   1.0000   1.0000
     1.0000   1.0000   1.0000   1.0000   1.0000   1.0000   1.0000   1.0000
     0.0000   0.0000   0.0000   0.0000   0.0000   0.0000   0.0000   0.0000

[...]

          k = 0.0000 0.3849-0.2597 (  4127 PWs)   bands (ev):

   -59.1856 -59.1856 -43.2404 -33.1041 -33.1035 -33.1033 -33.1033 -33.1027
   -33.1025 -23.1870 -22.9896 -22.9830 -21.8874 -21.8865 -21.8687 -11.9831
   -11.8109 -11.5842 -11.5212 -11.4387 -11.4039 -11.1298 -11.0545  -6.6964
    -6.6824  -6.6593  -6.5549  -6.5195  -6.5161  -6.4935  -6.4845  -6.4701
     0.9133   1.2448   1.2788   1.5394   1.5742   1.6053   1.7153   1.9765
     1.9963   2.1236   2.1907   2.3353   2.4916   2.8952   2.9834   3.0611
     3.1285   3.4053   3.5062   3.8265   4.0065   4.2058   4.2328   4.3261
     7.6850   7.9522   7.9611   8.2224   8.8613   9.0638   9.1096   9.3519

     occupation numbers
     1.0000   1.0000   1.0000   1.0000   1.0000   1.0000   1.0000   1.0000
     1.0000   1.0000   1.0000   1.0000   1.0000   1.0000   1.0000   1.0000
     1.0000   1.0000   1.0000   1.0000   1.0000   1.0000   1.0000   1.0000
     1.0000   1.0000   1.0000   1.0000   1.0000   1.0000   1.0000   1.0000
     1.0000   1.0000   1.0000   1.0000   1.0000   1.0000   1.0000   1.0000
     1.0000   1.0000   1.0000   1.0000   1.0000   1.0000   1.0000   1.0000
     1.0000   1.0000   1.0000   1.0000   1.0000   1.0000   1.0000   1.0000
     0.0000   0.0000   0.0000   0.0000   0.0000   0.0000   0.0000   0.0000

     highest occupied, lowest unoccupied level (ev):     4.4610    7.4055

!    total energy              =   -1055.33707577 Ry
     estimated scf accuracy    <       0.00000051 Ry

     The total energy is the sum of the following terms:
     one-electron contribution =    -431.36728459 Ry
     hartree contribution      =     260.27315602 Ry
     xc contribution           =    -144.18526613 Ry
     ewald contribution        =    -497.59150168 Ry
     one-center paw contrib.   =    -242.46617939 Ry
      -> PAW hartree energy AE =      37.88468151 Ry
      -> PAW hartree energy PS =     -37.67406776 Ry
      -> PAW xc energy AE      =     -66.24246860 Ry
      -> PAW xc energy PS      =      10.61383974 Ry
      -> total E_H with PAW    =     260.48376978 Ry
      -> total E_XC with PAW   =    -199.81389499 Ry

     convergence has been achieved in  11 iterations

     Writing all to output data dir bands_nm/myprefix.save/

     General routines

     Parallel routines

     PAW routines

   This run was terminated on:   7:44:19  13Jul2023

   JOB DONE.