     Program PWSCF v.7.1 starts on 13Jul2023 at  8: 8:58

     Reading input from espresso_5900.pwi
Warning: card &CELL ignored
Warning: card / ignored

     Current dimensions of program PWSCF are:
     Max number of different atomic species (ntypx) = 10
     Max number of k-points (npk) =  40000
     Max angular momentum in pseudopotentials (lmaxx) =  4
     file O.pbe-n-kjpaw_psl.0.1.UPF: wavefunction(s)  2P renormalized
     Message from routine setup:
     using ibrav=0 with symmetry is DISCOURAGED, use correct ibrav instead

     K-points division:     npool     =       2
     R & G space division:  proc/nbgrp/npool/nimage =       8
     Subspace diagonalization in iterative solution of the eigenvalue problem:
     a serial algorithm will be used

     Using Slab Decomposition

     bravais-lattice index     =            0
     lattice parameter (alat)  =       9.5229  a.u.
     unit-cell volume          =    1199.7260 (a.u.)^3
     number of atoms/cell      =           16
     number of atomic types    =            3
     number of electrons       =        92.00
     number of Kohn-Sham states=           64
     kinetic-energy cutoff     =      30.0000  Ry
     charge density cutoff     =     240.0000  Ry
     scf convergence threshold =      1.0E-06
     mixing beta               =       0.7000
     number of iterations used =            8  plain     mixing
     Exchange-correlation= SLA  PW   PBX  PBC
                           (   1   4   3   4   0   0   0)

     celldm(1)=   9.522940  celldm(2)=   0.000000  celldm(3)=   0.000000
     celldm(4)=   0.000000  celldm(5)=   0.000000  celldm(6)=   0.000000

     crystal axes: (cart. coord. in units of alat)
               a(1) = (   1.000000   0.000000   0.000000 )
               a(2) = (   0.000000   1.094251   0.000000 )
               a(3) = (   0.000000   0.000000   1.269556 )

     reciprocal axes: (cart. coord. in units 2 pi/alat)
               b(1) = (  1.000000  0.000000  0.000000 )
               b(2) = (  0.000000  0.913867  0.000000 )
               b(3) = (  0.000000  0.000000  0.787677 )

     PseudoPot. # 1 for Li read from file:
     /lustre07/scratch/pragov/crystal_structure_design/utils/SSSP/li_pbe_v1.4.uspp.F.UPF
     MD5 check sum: e912e257baa3777c20ea3d68f190483c
     Pseudo is Ultrasoft, Zval =  3.0
     Generated by new atomic code, or converted to UPF format
     Using radial grid of  751 points,  5 beta functions with:
                l(1) =   0
                l(2) =   0
                l(3) =   0
                l(4) =   1
                l(5) =   1
     Q(r) pseudized with 10 coefficients,  rinner =    1.150   1.150   1.150

     PseudoPot. # 2 for V  read from file:
     /lustre07/scratch/pragov/crystal_structure_design/utils/SSSP/v_pbe_v1.4.uspp.F.UPF
     MD5 check sum: 22b79981416ebb76fdaf5b1b8640f6fb
     Pseudo is Ultrasoft + core correction, Zval = 13.0
     Generated by new atomic code, or converted to UPF format
     Using radial grid of  853 points,  6 beta functions with:
                l(1) =   0
                l(2) =   0
                l(3) =   1
                l(4) =   1
                l(5) =   2
                l(6) =   2
     Q(r) pseudized with  8 coefficients,  rinner =    1.100   1.100   1.100
                                                       1.100   1.100

     PseudoPot. # 3 for O  read from file:
     /lustre07/scratch/pragov/crystal_structure_design/utils/SSSP/O.pbe-n-kjpaw_psl.0.1.UPF
     MD5 check sum: 0234752ac141de4415c5fc33072bef88
     Pseudo is Projector augmented-wave + core cor, Zval =  6.0
     Generated using "atomic" code by A. Dal Corso  v.5.0.99 svn rev. 10869
     Shape of augmentation charge: BESSEL
     Using radial grid of 1095 points,  4 beta functions with:
                l(1) =   0
                l(2) =   0
                l(3) =   1
                l(4) =   1
     Q(r) pseudized with 0 coefficients

     atomic species   valence    mass     pseudopotential
        Li             3.00     6.94000     Li( 1.00)
        V             13.00    50.94150     V ( 1.00)
        O              6.00    15.99900     O ( 1.00)

      4 Sym. Ops. (no inversion) found ( 2 have fractional translation)

                                    s                        frac. trans.

      isym =  1     identity

 cryst.   s( 1) = (     1          0          0      )
                  (     0          1          0      )
                  (     0          0          1      )

 cart.    s( 1) = (  1.0000000  0.0000000  0.0000000 )
                  (  0.0000000  1.0000000  0.0000000 )
                  (  0.0000000  0.0000000  1.0000000 )

      isym =  2     180 deg rotation - cart. axis [1,0,0]

 cryst.   s( 2) = (     1          0          0      )    f =( -0.5000000 )
                  (     0         -1          0      )       (  0.0000000 )
                  (     0          0         -1      )       (  0.5000000 )

 cart.    s( 2) = (  1.0000000  0.0000000  0.0000000 )    f =( -0.5000000 )
                  (  0.0000000 -1.0000000  0.0000000 )       (  0.0000000 )
                  (  0.0000000  0.0000000 -1.0000000 )       (  0.6347781 )

      isym =  3     inv. 180 deg rotation - cart. axis [0,0,1]

 cryst.   s( 3) = (     1          0          0      )
                  (     0          1          0      )
                  (     0          0         -1      )

 cart.    s( 3) = (  1.0000000  0.0000000  0.0000000 )
                  (  0.0000000  1.0000000  0.0000000 )
                  (  0.0000000  0.0000000 -1.0000000 )

      isym =  4     inv. 180 deg rotation - cart. axis [0,1,0]

 cryst.   s( 4) = (     1          0          0      )    f =( -0.5000000 )
                  (     0         -1          0      )       (  0.0000000 )
                  (     0          0          1      )       (  0.5000000 )

 cart.    s( 4) = (  1.0000000  0.0000000  0.0000000 )    f =( -0.5000000 )
                  (  0.0000000 -1.0000000  0.0000000 )       (  0.0000000 )
                  (  0.0000000  0.0000000  1.0000000 )       (  0.6347781 )

   Cartesian axes

     site n.     atom                  positions (alat units)
         1           Li  tau(   1) = (   0.0087920   0.7313295   0.3143015  )
         2           Li  tau(   2) = (   0.5087920   0.3629215   0.3204766  )
         3           Li  tau(   3) = (   0.5087920   0.3629215   0.9490796  )
         4           Li  tau(   4) = (   0.0087920   0.7313295   0.9552547  )
         5           Li  tau(   5) = (   0.0093210   0.1811445   0.6347781  )
         6           Li  tau(   6) = (   0.5093210   0.9131065   0.0000000  )
         7           V   tau(   7) = (   0.0013630   0.1864593   0.0000000  )
         8           V   tau(   8) = (   0.5013630   0.9077917   0.6347781  )
         9           O   tau(   9) = (   0.1112580   0.3505050   0.2857289  )
        10           O   tau(  10) = (   0.6554390   0.1898219   0.0000000  )
        11           O   tau(  11) = (   0.1112580   0.3505050   0.9838274  )
        12           O   tau(  12) = (   0.6112580   0.7437460   0.3490493  )
        13           O   tau(  13) = (   0.6112580   0.7437460   0.9205070  )
        14           O   tau(  14) = (   0.6095760   0.1430821   0.6347781  )
        15           O   tau(  15) = (   0.1095760   0.9511689   0.0000000  )
        16           O   tau(  16) = (   0.1554390   0.9044291   0.6347781  )

   Crystallographic axes

     site n.     atom                  positions (cryst. coord.)
         1           Li  tau(   1) = (  0.0087920  0.6683380  0.2475680  )
         2           Li  tau(   2) = (  0.5087920  0.3316620  0.2524320  )
         3           Li  tau(   3) = (  0.5087920  0.3316620  0.7475680  )
         4           Li  tau(   4) = (  0.0087920  0.6683380  0.7524320  )
         5           Li  tau(   5) = (  0.0093210  0.1655420  0.5000000  )
         6           Li  tau(   6) = (  0.5093210  0.8344580  0.0000000  )
         7           V   tau(   7) = (  0.0013630  0.1703990  0.0000000  )
         8           V   tau(   8) = (  0.5013630  0.8296010  0.5000000  )
         9           O   tau(   9) = (  0.1112580  0.3203150  0.2250620  )
        10           O   tau(  10) = (  0.6554390  0.1734720  0.0000000  )
        11           O   tau(  11) = (  0.1112580  0.3203150  0.7749380  )
        12           O   tau(  12) = (  0.6112580  0.6796850  0.2749380  )
        13           O   tau(  13) = (  0.6112580  0.6796850  0.7250620  )
        14           O   tau(  14) = (  0.6095760  0.1307580  0.5000000  )
        15           O   tau(  15) = (  0.1095760  0.8692420  0.0000000  )
        16           O   tau(  16) = (  0.1554390  0.8265280  0.5000000  )

     number of k points=     8
                       cart. coord. in units 2pi/alat
        k(    1) = (   0.0000000   0.0000000   0.0000000), wk =   0.0740741
        k(    2) = (   0.0000000   0.0000000   0.2625589), wk =   0.1481481
        k(    3) = (   0.0000000   0.3046224   0.0000000), wk =   0.1481481
        k(    4) = (   0.0000000   0.3046224   0.2625589), wk =   0.2962963
        k(    5) = (   0.3333333   0.0000000   0.0000000), wk =   0.1481481
        k(    6) = (   0.3333333   0.0000000   0.2625589), wk =   0.2962963
        k(    7) = (   0.3333333   0.3046224   0.0000000), wk =   0.2962963
        k(    8) = (   0.3333333   0.3046224   0.2625589), wk =   0.5925926

                       cryst. coord.
        k(    1) = (   0.0000000   0.0000000   0.0000000), wk =   0.0740741
        k(    2) = (   0.0000000   0.0000000   0.3333333), wk =   0.1481481
        k(    3) = (   0.0000000   0.3333333   0.0000000), wk =   0.1481481
        k(    4) = (   0.0000000   0.3333333   0.3333333), wk =   0.2962963
        k(    5) = (   0.3333333   0.0000000   0.0000000), wk =   0.1481481
        k(    6) = (   0.3333333   0.0000000   0.3333333), wk =   0.2962963
        k(    7) = (   0.3333333   0.3333333   0.0000000), wk =   0.2962963
        k(    8) = (   0.3333333   0.3333333   0.3333333), wk =   0.5925926

     Check: negative core charge=   -0.000015

     Initial potential from superposition of free atoms

     starting charge      89.2931, renormalised to      92.0000

     negative rho (up, down):  3.092E-03 0.000E+00
     Starting wfcs are   82 randomized atomic wfcs
     Checking if some PAW data can be deallocated...

     Self-consistent Calculation

     iteration #  1     ecut=    30.00 Ry     beta= 0.70
     Davidson diagonalization with overlap

     ethr =  1.00E-02,  avg # of iterations =  2.2

     negative rho (up, down):  7.213E-03 0.000E+00

     total energy              =    -706.74407524 Ry
     estimated scf accuracy    <       7.76536767 Ry

[...]

     total energy              =    -711.44899556 Ry
     estimated scf accuracy    <       0.00005990 Ry

     iteration # 11     ecut=    30.00 Ry     beta= 0.70
     Davidson diagonalization with overlap

     ethr =  6.51E-08,  avg # of iterations =  1.0

     negative rho (up, down):  4.753E-03 0.000E+00

     End of self-consistent calculation

          k = 0.0000 0.0000 0.0000 (  3331 PWs)   bands (ev):

   -60.6819 -60.6818 -39.5312 -39.5310 -39.3872 -39.3821 -39.3807 -39.3748
   -34.6018 -34.6010 -34.5891 -34.5869 -34.5843 -34.5837 -13.5099 -13.2015
   -12.9260 -12.9148 -12.8980 -12.8477 -12.8127 -12.8074  -0.1775  -0.1081
    -0.0998   0.0479   0.1135   0.4992   0.5400   0.5565   0.5734   0.6071
     0.6961   0.9772   1.1761   1.2038   1.2209   1.4914   1.5667   1.8315
     2.0497   2.1686   2.2738   2.3084   2.4200   2.5639   6.5565   6.5678
     6.5969   6.6925   7.4287   7.7738   7.8613   7.9775   8.0009   8.1238
     8.7469  12.0393  12.5031  12.9638  12.9658  13.5928  13.8184  14.1797

     occupation numbers
     1.0000   1.0000   1.0000   1.0000   1.0000   1.0000   1.0000   1.0000
     1.0000   1.0000   1.0000   1.0000   1.0000   1.0000   1.0000   1.0000
     1.0000   1.0000   1.0000   1.0000   1.0000   1.0000   1.0000   1.0000
     1.0000   1.0000   1.0000   1.0000   1.0000   1.0000   1.0000   1.0000
     1.0000   1.0000   1.0000   1.0000   1.0000   1.0000   1.0000   1.0000
     1.0000   1.0000   1.0000   1.0000   1.0000   1.0000   0.0000   0.0000
     0.0000   0.0000   0.0000   0.0000   0.0000   0.0000   0.0000   0.0000
     0.0000   0.0000   0.0000   0.0000   0.0000   0.0000   0.0000   0.0000

[...]

          k = 0.3333 0.3046 0.2626 (  3318 PWs)   bands (ev):

   -60.6818 -60.6818 -39.5310 -39.5308 -39.3841 -39.3813 -39.3808 -39.3784
   -34.6015 -34.6010 -34.5888 -34.5885 -34.5837 -34.5836 -13.3055 -13.2418
   -12.9445 -12.9300 -12.9136 -12.8924 -12.8412 -12.8372  -0.3209  -0.2356
    -0.1770  -0.1300  -0.0204   0.1016   0.2681   0.3796   0.5402   0.5593
     0.8345   0.8649   1.3304   1.4419   1.5624   1.6720   1.8439   1.9755
     2.2110   2.2699   2.3756   2.4160   2.5323   2.5732   6.4789   6.5224
     6.5807   6.6135   7.7029   7.7550   7.8906   7.9316   8.1381   8.1768
    10.5715  11.1316  11.8424  12.2476  12.6011  12.6563  13.1388  13.2882

     occupation numbers
     1.0000   1.0000   1.0000   1.0000   1.0000   1.0000   1.0000   1.0000
     1.0000   1.0000   1.0000   1.0000   1.0000   1.0000   1.0000   1.0000
     1.0000   1.0000   1.0000   1.0000   1.0000   1.0000   1.0000   1.0000
     1.0000   1.0000   1.0000   1.0000   1.0000   1.0000   1.0000   1.0000
     1.0000   1.0000   1.0000   1.0000   1.0000   1.0000   1.0000   1.0000
     1.0000   1.0000   1.0000   1.0000   1.0000   1.0000   0.0000   0.0000
     0.0000   0.0000   0.0000   0.0000   0.0000   0.0000   0.0000   0.0000
     0.0000   0.0000   0.0000   0.0000   0.0000   0.0000   0.0000   0.0000

     highest occupied, lowest unoccupied level (ev):     2.6522    6.4757

!    total energy              =    -711.44900295 Ry
     estimated scf accuracy    <       0.00000038 Ry

     The total energy is the sum of the following terms:
     one-electron contribution =    -374.74325865 Ry
     hartree contribution      =     213.92567481 Ry
     xc contribution           =    -119.25577402 Ry
     ewald contribution        =    -355.18165241 Ry
     one-center paw contrib.   =     -76.19399269 Ry
      -> PAW hartree energy AE =       0.00000000 Ry
      -> PAW hartree energy PS =       0.00000000 Ry
      -> PAW xc energy AE      =       0.00000000 Ry
      -> PAW xc energy PS      =       0.00000000 Ry
      -> total E_H with PAW    =     213.92567481 Ry
      -> total E_XC with PAW   =    -119.25577402 Ry

     convergence has been achieved in  11 iterations

     Writing all to output data dir bands_nm/myprefix.save/

     General routines

     Parallel routines

     PAW routines

   This run was terminated on:   8: 9: 2  13Jul2023

   JOB DONE.