     Program PWSCF v.7.0 starts on  7Jun2023 at 12:17:16

     K-points division:     npool     =       2
     R & G space division:  proc/nbgrp/npool/nimage =       4

     Reading input from espresso_8795.pwi
Warning: card &CELL ignored
Warning: card / ignored

     Current dimensions of program PWSCF are:
     Max number of different atomic species (ntypx) = 10
     Max number of k-points (npk) =  40000
     Max angular momentum in pseudopotentials (lmaxx) =  4
     Message from routine setup:
     using ibrav=0 with symmetry is DISCOURAGED, use correct ibrav instead

     Using Slab Decomposition

     bravais-lattice index     =            0
     lattice parameter (alat)  =       9.0827  a.u.
     unit-cell volume          =     490.0756 (a.u.)^3
     number of atoms/cell      =            3
     number of atomic types    =            2
     number of electrons       =        32.00
     number of Kohn-Sham states=           64
     kinetic-energy cutoff     =      30.0000  Ry
     charge density cutoff     =     240.0000  Ry
     scf convergence threshold =      1.0E-06
     mixing beta               =       0.7000
     number of iterations used =            8  plain     mixing
     Exchange-correlation=  SLA  PW   PBX  PBC
                           (   1   4   3   4   0   0   0)

     celldm(1)=   9.082727  celldm(2)=   0.000000  celldm(3)=   0.000000
     celldm(4)=   0.000000  celldm(5)=   0.000000  celldm(6)=   0.000000

     crystal axes: (cart. coord. in units of alat)
               a(1) = (   1.000000   0.000000   0.000000 )
               a(2) = (   0.129769   0.991544   0.000000 )
               a(3) = (  -0.564885  -0.495772   0.659633 )

     reciprocal axes: (cart. coord. in units 2 pi/alat)
               b(1) = (  1.000000 -0.130876  0.757998 )
               b(2) = (  0.000000  1.008528  0.757998 )
               b(3) = (  0.000000  0.000000  1.515995 )

     PseudoPot. # 1 for Xe read from file:
     /home/pragov/projects/rrg-bengioy-ad/pragov/crystal_structure_design/SSSP/Xe_ONCV_PBE-1.1.oncvpsp.upf
     MD5 check sum: f6ea899d5a535d3f5731d9e48edfe3e3
     Pseudo is Norm-conserving, Zval = 18.0
     Generated using ONCVPSP code by D. R. Hamann
     Using radial grid of 1106 points,  6 beta functions with:
                l(1) =   0
                l(2) =   0
                l(3) =   1
                l(4) =   1
                l(5) =   2
                l(6) =   2

     PseudoPot. # 2 for F  read from file:
     /home/pragov/projects/rrg-bengioy-ad/pragov/crystal_structure_design/SSSP/f_pbe_v1.4.uspp.F.UPF
     MD5 check sum: 4c38b6a325caf53ec0e86aed9459de46
     Pseudo is Ultrasoft, Zval =  7.0
     Generated by new atomic code, or converted to UPF format
     Using radial grid of  799 points,  4 beta functions with:
                l(1) =   0
                l(2) =   0
                l(3) =   1
                l(4) =   1
     Q(r) pseudized with  8 coefficients,  rinner =    0.950   0.950   0.950

     atomic species   valence    mass     pseudopotential
        Xe            18.00   131.29300     Xe( 1.00)
        F              7.00    18.99840     F ( 1.00)

      4 Sym. Ops., with inversion, found

                                    s                        frac. trans.

      isym =  1     identity

 cryst.   s( 1) = (     1          0          0      )
                  (     0          1          0      )
                  (     0          0          1      )

 cart.    s( 1) = (  1.0000000  0.0000000 -0.0000000 )
                  (  0.0000000  1.0000000  0.0000000 )
                  (  0.0000000  0.0000000  1.0000000 )

      isym =  2     180 deg rotation - cart. axis [0,0,1]

[...]

      isym =  3     inversion

[...]

      isym =  4     inv. 180 deg rotation - cart. axis [0,0,1]

 cryst.   s( 4) = (     1          0          0      )
                  (     0          1          0      )
                  (    -1         -1         -1      )

 cart.    s( 4) = (  1.0000000  0.0000000  0.0000000 )
                  (  0.0000000  1.0000000  0.0000000 )
                  (  0.0000000  0.0000000 -1.0000000 )

   Cartesian axes

     site n.     atom                  positions (alat units)
         1           Xe  tau(   1) = (   0.0000000   0.0000000   0.0000000  )
         2           F   tau(   2) = (   0.8047358   0.7062779   0.0000000  )
         3           F   tau(   3) = (   0.3250335   0.2852663   0.0000000  )

   Crystallographic axes

     site n.     atom                  positions (cryst. coord.)
         1           Xe  tau(   1) = (  0.0000000  0.0000000  0.0000000  )
         2           F   tau(   2) = (  0.7123010  0.7123010  0.0000000  )
         3           F   tau(   3) = (  0.2876990  0.2876990  0.0000000  )

     number of k points=    10
                       cart. coord. in units 2pi/alat
        k(    1) = (   0.0000000   0.0000000   0.0000000), wk =   0.0740741
        k(    2) = (   0.0000000   0.0000000   0.5053317), wk =   0.1481481
        k(    3) = (   0.0000000   0.3361760   0.2526658), wk =   0.2962963
        k(    4) = (   0.0000000   0.3361760   0.7579975), wk =   0.1481481
        k(    5) = (   0.3333333  -0.0436253   0.2526658), wk =   0.2962963
        k(    6) = (   0.3333333  -0.0436253   0.7579975), wk =   0.1481481
        k(    7) = (   0.3333333   0.2925507   0.5053317), wk =   0.2962963
        k(    8) = (   0.3333333   0.2925507   0.0000000), wk =   0.1481481
        k(    9) = (   0.3333333  -0.3798013   0.0000000), wk =   0.1481481
        k(   10) = (   0.3333333  -0.3798013   0.5053317), wk =   0.2962963

                       cryst. coord.
        k(    1) = (   0.0000000   0.0000000   0.0000000), wk =   0.0740741
        k(    2) = (   0.0000000   0.0000000   0.3333333), wk =   0.1481481
        k(    3) = (   0.0000000   0.3333333  -0.0000000), wk =   0.2962963
        k(    4) = (   0.0000000   0.3333333   0.3333333), wk =   0.1481481
        k(    5) = (   0.3333333  -0.0000000  -0.0000000), wk =   0.2962963
        k(    6) = (   0.3333333  -0.0000000   0.3333333), wk =   0.1481481
        k(    7) = (   0.3333333   0.3333333   0.0000000), wk =   0.2962963
        k(    8) = (   0.3333333   0.3333333  -0.3333333), wk =   0.1481481
        k(    9) = (   0.3333333  -0.3333333   0.0000000), wk =   0.1481481
        k(   10) = (   0.3333333  -0.3333333   0.3333333), wk =   0.2962963

     Initial potential from superposition of free atoms

     starting charge      32.0000, renormalised to      32.0000
     Starting wfcs are   17 randomized atomic wfcs +   47 random wfcs

     Self-consistent Calculation

     iteration #  1     ecut=    30.00 Ry     beta= 0.70
     Davidson diagonalization with overlap

     ethr =  1.00E-02,  avg # of iterations =  6.9

     total energy              =    -328.11065000 Ry
     estimated scf accuracy    <       0.62254140 Ry

[...]

     total energy              =    -328.40334253 Ry
     estimated scf accuracy    <       0.00001374 Ry

     iteration #  6     ecut=    30.00 Ry     beta= 0.70
     Davidson diagonalization with overlap

     ethr =  4.30E-08,  avg # of iterations =  1.0

     End of self-consistent calculation

          k = 0.0000 0.0000 0.0000 (  1347 PWs)   bands (ev):

   -53.1524 -52.9026 -52.9026 -52.4506 -52.4381 -19.4205 -19.0517 -12.1271
    -3.5432  -0.6791  -0.5787  -0.5787  -0.2728  -0.2728   0.9585   0.9585
     5.2139   8.9267  11.4301  14.0498  14.2618  14.6893  14.6893  16.9144
    18.0660  18.0660  19.6052  20.7780  25.1650  25.1650  25.2083  25.2083
    25.5982  25.7262  27.0571  28.1888  28.1888  28.7989  29.4659  31.6419
    33.3373  33.4026  33.4026  33.7932  33.7932  35.4748  36.6058  36.6058
    36.7631  37.1037  37.4396  37.6819  38.7470  39.0516  39.2242  39.5129
    39.5129  40.6545  41.6536  41.6536  42.1807  42.2570  42.7919  42.7919

     occupation numbers
     1.0000   1.0000   1.0000   1.0000   1.0000   1.0000   1.0000   1.0000
     1.0000   1.0000   1.0000   1.0000   1.0000   1.0000   1.0000   1.0000
     0.0000   0.0000   0.0000   0.0000   0.0000   0.0000   0.0000   0.0000
     0.0000   0.0000   0.0000   0.0000   0.0000   0.0000   0.0000   0.0000
     0.0000   0.0000   0.0000   0.0000   0.0000   0.0000   0.0000   0.0000
     0.0000   0.0000   0.0000   0.0000   0.0000   0.0000   0.0000   0.0000
     0.0000   0.0000   0.0000   0.0000   0.0000   0.0000   0.0000   0.0000
     0.0000   0.0000   0.0000   0.0000   0.0000   0.0000   0.0000   0.0000

[...]

          k = 0.3333-0.3798 0.5053 (  1352 PWs)   bands (ev):

   -53.1213 -52.9758 -52.9557 -52.4127 -52.3866 -19.2637 -19.1629 -12.2813
    -3.3412  -1.6972  -1.3666  -0.2772   0.1676   0.2278   1.2732   1.4729
     4.7086  10.3967  12.1047  12.4347  13.6166  15.2457  15.7905  16.7558
    18.4539  19.7583  20.2033  21.0264  21.6670  22.7746  23.9210  24.2162
    24.7530  25.8427  27.7001  27.7978  27.8080  28.2444  29.8059  31.0485
    31.1043  32.7697  33.4635  33.6234  33.7241  34.2867  34.8950  35.7874
    35.8229  37.8864  38.6080  38.9380  38.9668  39.4884  40.5044  41.2899
    42.7694  43.6906  43.7996  43.8817  43.9321  44.4055  46.1209  46.1952

     occupation numbers
     1.0000   1.0000   1.0000   1.0000   1.0000   1.0000   1.0000   1.0000
     1.0000   1.0000   1.0000   1.0000   1.0000   1.0000   1.0000   1.0000
     0.0000   0.0000   0.0000   0.0000   0.0000   0.0000   0.0000   0.0000
     0.0000   0.0000   0.0000   0.0000   0.0000   0.0000   0.0000   0.0000
     0.0000   0.0000   0.0000   0.0000   0.0000   0.0000   0.0000   0.0000
     0.0000   0.0000   0.0000   0.0000   0.0000   0.0000   0.0000   0.0000
     0.0000   0.0000   0.0000   0.0000   0.0000   0.0000   0.0000   0.0000
     0.0000   0.0000   0.0000   0.0000   0.0000   0.0000   0.0000   0.0000

     highest occupied, lowest unoccupied level (ev):     1.4903    4.2961

!    total energy              =    -328.40334529 Ry
     estimated scf accuracy    <       0.00000022 Ry

     The total energy is the sum of the following terms:
     one-electron contribution =    -203.52314684 Ry
     hartree contribution      =     104.45628933 Ry
     xc contribution           =     -40.16730273 Ry
     ewald contribution        =    -189.16918506 Ry

     convergence has been achieved in   6 iterations

     Writing all to output data dir calculations_bands/myprefix.save/

     General routines

     Parallel routines

   This run was terminated on:  12:17:20   7Jun2023

   JOB DONE.