     Program PWSCF v.7.1 starts on 15Jul2023 at 20:53:54

     Reading input from espresso_15050.pwi
Warning: card &CELL ignored
Warning: card / ignored

     Current dimensions of program PWSCF are:
     Max number of different atomic species (ntypx) = 10
     Max number of k-points (npk) =  40000
     Max angular momentum in pseudopotentials (lmaxx) =  4
     file K.pbe-spn-kjpaw_psl.1.0.0.UPF: wavefunction(s)  3S renormalized
     Message from routine setup:
     using ibrav=0 with symmetry is DISCOURAGED, use correct ibrav instead

     K-points division:     npool     =       2
     R & G space division:  proc/nbgrp/npool/nimage =       4
     Subspace diagonalization in iterative solution of the eigenvalue problem:
     one sub-group per band group will be used

     Using Slab Decomposition

     bravais-lattice index     =            0
     lattice parameter (alat)  =      12.7769  a.u.
     unit-cell volume          =    1862.2804 (a.u.)^3
     number of atoms/cell      =           18
     number of atomic types    =            3
     number of electrons       =       144.00
     number of Kohn-Sham states=          256
     kinetic-energy cutoff     =      30.0000  Ry
     charge density cutoff     =     240.0000  Ry
     scf convergence threshold =      1.0E-06
     mixing beta               =       0.7000
     number of iterations used =            8  plain     mixing
     Exchange-correlation=  SLA  PW   PBX  PBC
                           (   1   4   3   4   0   0   0)

     celldm(1)=  12.776920  celldm(2)=   0.000000  celldm(3)=   0.000000
     celldm(4)=   0.000000  celldm(5)=   0.000000  celldm(6)=   0.000000

     crystal axes: (cart. coord. in units of alat)
               a(1) = (   1.000000   0.000000   0.000000 )
               a(2) = (  -0.509591   0.860417   0.000000 )
               a(3) = (   0.000000   0.000000   1.037666 )

     reciprocal axes: (cart. coord. in units 2 pi/alat)
               b(1) = (  1.000000  0.592260  0.000000 )
               b(2) = (  0.000000  1.162227  0.000000 )
               b(3) = (  0.000000  0.000000  0.963701 )

     PseudoPot. # 1 for K  read from file:
     /lustre07/scratch/pragov/crystal_structure_design/utils/SSSP/K.pbe-spn-kjpaw_psl.1.0.0.UPF
     MD5 check sum: 7d58810084cac21f60fbe77ea2b688fd
     Pseudo is Projector augmented-wave + core cor, Zval =  9.0
     Generated using "atomic" code by A. Dal Corso  v.5.1
     Shape of augmentation charge: PSQ
     Using radial grid of 1165 points,  6 beta functions with:
                l(1) =   0
                l(2) =   0
                l(3) =   1
                l(4) =   1
                l(5) =   2
                l(6) =   2
     Q(r) pseudized with 0 coefficients

     PseudoPot. # 2 for Zr read from file:
     /lustre07/scratch/pragov/crystal_structure_design/utils/SSSP/Zr_pbe_v1.uspp.F.UPF
     MD5 check sum: 5db81b1e868ab7776c4564c113de050b
     Pseudo is Ultrasoft + core correction, Zval = 12.0
     Generated by new atomic code, or converted to UPF format
     Using radial grid of  887 points,  6 beta functions with:
                l(1) =   0
                l(2) =   0
                l(3) =   1
                l(4) =   1
                l(5) =   2
                l(6) =   2
     Q(r) pseudized with  6 coefficients,  rinner =    1.200   1.200   1.200
                                                       1.200   1.200

     PseudoPot. # 3 for F  read from file:
     /lustre07/scratch/pragov/crystal_structure_design/utils/SSSP/f_pbe_v1.4.uspp.F.UPF
     MD5 check sum: 4c38b6a325caf53ec0e86aed9459de46
     Pseudo is Ultrasoft, Zval =  7.0
     Generated by new atomic code, or converted to UPF format
     Using radial grid of  799 points,  4 beta functions with:
                l(1) =   0
                l(2) =   0
                l(3) =   1
                l(4) =   1
     Q(r) pseudized with  8 coefficients,  rinner =    0.950   0.950   0.950

     atomic species   valence    mass     pseudopotential
        K              9.00    39.09830     K ( 1.00)
        Zr            12.00    91.22400     Zr( 1.00)
        F              7.00    18.99840     F ( 1.00)

      4 Sym. Ops., with inversion, found ( 2 have fractional translation)

                                    s                        frac. trans.

      isym =  1     identity

 cryst.   s( 1) = (     1          0          0      )
                  (     0          1          0      )
                  (     0          0          1      )

 cart.    s( 1) = (  1.0000000  0.0000000  0.0000000 )
                  (  0.0000000  1.0000000  0.0000000 )
                  (  0.0000000  0.0000000  1.0000000 )

      isym =  2     180 deg rotation - cart. axis [0,0,1]

 cryst.   s( 2) = (    -1          0          0      )    f =(  0.0000000 )
                  (     0         -1          0      )       (  0.0000000 )
                  (     0          0          1      )       (  0.5000000 )

 cart.    s( 2) = ( -1.0000000  0.0000000  0.0000000 )    f =(  0.0000000 )
                  (  0.0000000 -1.0000000  0.0000000 )       (  0.0000000 )
                  (  0.0000000  0.0000000  1.0000000 )       (  0.5188330 )

      isym =  3     inversion

 cryst.   s( 3) = (    -1          0          0      )
                  (     0         -1          0      )
                  (     0          0         -1      )

 cart.    s( 3) = ( -1.0000000  0.0000000  0.0000000 )
                  (  0.0000000 -1.0000000  0.0000000 )
                  (  0.0000000  0.0000000 -1.0000000 )

      isym =  4     inv. 180 deg rotation - cart. axis [0,0,1]

 cryst.   s( 4) = (     1          0          0      )    f =(  0.0000000 )
                  (     0          1          0      )       (  0.0000000 )
                  (     0          0         -1      )       ( -0.5000000 )

 cart.    s( 4) = (  1.0000000  0.0000000  0.0000000 )    f =(  0.0000000 )
                  (  0.0000000  1.0000000  0.0000000 )       (  0.0000000 )
                  (  0.0000000  0.0000000 -1.0000000 )       ( -0.5188330 )

   Cartesian axes

     site n.     atom                  positions (alat units)
         1           K   tau(   1) = (   0.4823070   0.2950679   0.5197679  )
         2           K   tau(   2) = (   0.0081023   0.5653490   0.5178980  )
         3           K   tau(   3) = (   0.0081023   0.5653490   0.0009349  )
         4           K   tau(   4) = (   0.4823070   0.2950679   1.0367310  )
         5           Zr  tau(   5) = (  -0.4328431   0.8166734   0.2594165  )
         6           Zr  tau(   6) = (   0.9232524   0.0437436   0.7782494  )
         7           F   tau(   7) = (   0.8503316   0.0853060   0.0476984  )
         8           F   tau(   8) = (  -0.3599223   0.7751109   0.9899675  )
         9           F   tau(   9) = (  -0.3599223   0.7751109   0.5665314  )
        10           F   tau(  10) = (   0.8503316   0.0853060   0.4711346  )
        11           F   tau(  11) = (   0.7958337   0.3326837   0.7782494  )
        12           F   tau(  12) = (  -0.1193028   0.8542813   0.2594165  )
        13           F   tau(  13) = (   0.3617544   0.6020355   0.7782494  )
        14           F   tau(  14) = (   0.3336549   0.6180513   0.2594165  )
        15           F   tau(  15) = (   0.1286549   0.2583815   0.2594165  )
        16           F   tau(  16) = (   0.1567545   0.2423657   0.7782494  )
        17           F   tau(  17) = (   0.6097121   0.0061356   0.7782494  )
        18           F   tau(  18) = (  -0.3054244   0.5277333   0.2594165  )

   Crystallographic axes

     site n.     atom                  positions (cryst. coord.)
         1           K   tau(   1) = (  0.6570640  0.3429360  0.5009010  )
         2           K   tau(   2) = (  0.3429360  0.6570640  0.4990990  )
         3           K   tau(   3) = (  0.3429360  0.6570640  0.0009010  )
         4           K   tau(   4) = (  0.6570640  0.3429360  0.9990990  )
         5           Zr  tau(   5) = (  0.0508400  0.9491600  0.2500000  )
         6           Zr  tau(   6) = (  0.9491600  0.0508400  0.7500000  )
         7           F   tau(   7) = (  0.9008550  0.0991450  0.0459670  )
         8           F   tau(   8) = (  0.0991450  0.9008550  0.9540330  )
         9           F   tau(   9) = (  0.0991450  0.9008550  0.5459670  )
        10           F   tau(  10) = (  0.9008550  0.0991450  0.4540330  )
        11           F   tau(  11) = (  0.9928690  0.3866540  0.7500000  )
        12           F   tau(  12) = (  0.3866540  0.9928690  0.2500000  )
        13           F   tau(  13) = (  0.7183160  0.6997020  0.7500000  )
        14           F   tau(  14) = (  0.6997020  0.7183160  0.2500000  )
        15           F   tau(  15) = (  0.2816840  0.3002980  0.2500000  )
        16           F   tau(  16) = (  0.3002980  0.2816840  0.7500000  )
        17           F   tau(  17) = (  0.6133460  0.0071310  0.7500000  )
        18           F   tau(  18) = (  0.0071310  0.6133460  0.2500000  )

     number of k points=    10
                       cart. coord. in units 2pi/alat
        k(    1) = (   0.0000000   0.0000000   0.0000000), wk =   0.0740741
        k(    2) = (   0.0000000   0.0000000   0.3212338), wk =   0.1481481
        k(    3) = (   0.0000000   0.3874091   0.0000000), wk =   0.1481481
        k(    4) = (   0.0000000   0.3874091   0.3212338), wk =   0.2962963
        k(    5) = (   0.3333333   0.1974201   0.0000000), wk =   0.1481481
        k(    6) = (   0.3333333   0.1974201   0.3212338), wk =   0.2962963
        k(    7) = (   0.3333333   0.5848291   0.0000000), wk =   0.1481481
        k(    8) = (   0.3333333   0.5848291   0.3212338), wk =   0.2962963
        k(    9) = (   0.3333333  -0.1899890   0.0000000), wk =   0.1481481
        k(   10) = (   0.3333333  -0.1899890   0.3212338), wk =   0.2962963

                       cryst. coord.
        k(    1) = (   0.0000000   0.0000000   0.0000000), wk =   0.0740741
        k(    2) = (   0.0000000   0.0000000   0.3333333), wk =   0.1481481
        k(    3) = (   0.0000000   0.3333333   0.0000000), wk =   0.1481481
        k(    4) = (   0.0000000   0.3333333   0.3333333), wk =   0.2962963
        k(    5) = (   0.3333333   0.0000000   0.0000000), wk =   0.1481481
        k(    6) = (   0.3333333   0.0000000   0.3333333), wk =   0.2962963
        k(    7) = (   0.3333333   0.3333333   0.0000000), wk =   0.1481481
        k(    8) = (   0.3333333   0.3333333   0.3333333), wk =   0.2962963
        k(    9) = (   0.3333333  -0.3333333   0.0000000), wk =   0.1481481
        k(   10) = (   0.3333333  -0.3333333   0.3333333), wk =   0.2962963

     Check: negative core charge=   -0.000004

     Initial potential from superposition of free atoms

     starting charge     143.9204, renormalised to     144.0000

     negative rho (up, down):  1.228E-01 0.000E+00
     Starting wfcs are  106 randomized atomic wfcs +  150 random wfcs
     Checking if some PAW data can be deallocated...

     Self-consistent Calculation

     iteration #  1     ecut=    30.00 Ry     beta= 0.70
     Davidson diagonalization with overlap

     ethr =  1.00E-02,  avg # of iterations =  7.0

     negative rho (up, down):  1.287E-01 0.000E+00

     total energy              =   -1234.98160371 Ry
     estimated scf accuracy    <       2.51451629 Ry

[...]

     total energy              =   -1236.14617495 Ry
     estimated scf accuracy    <       0.00000326 Ry

     iteration #  9     ecut=    30.00 Ry     beta= 0.70
     Davidson diagonalization with overlap

     ethr =  2.27E-09,  avg # of iterations =  1.0

     negative rho (up, down):  1.333E-01 0.000E+00

     End of self-consistent calculation

          k = 0.0000 0.0000 0.0000 (  5123 PWs)   bands (ev):

   -44.3782 -44.3660 -23.4231 -23.3837 -23.3622 -23.3344 -22.9324 -22.6958
   -22.6796 -22.6255 -22.5157 -22.4401 -18.2502 -17.6712 -17.6353 -17.3470
   -17.3387 -17.3295 -16.9133 -16.9027 -16.7309 -16.7289 -16.5757 -16.5617
    -7.1847  -7.0967  -6.9842  -6.9780  -6.9068  -6.8942  -6.8450  -6.8143
    -6.8025  -6.7589  -6.6971  -6.6452  -0.9760  -0.9686  -0.9401  -0.3445
    -0.1982  -0.1416   0.0791   0.1166   0.3527   0.4770   0.5209   0.5285
     0.6860   0.7167   0.8740   1.0027   1.0561   1.2815   1.3077   1.3626
     1.3718   1.4287   1.4870   1.6856   1.7060   1.8386   1.9116   1.9639
     2.0681   2.0916   2.1260   2.2243   2.2544   2.2881   2.5401   2.6313
     8.4609   8.6817   8.9612   9.1484   9.6558   9.8946  10.3294  10.6381
    10.8578  10.9904  11.1008  12.4216  12.7241  12.7532  13.0885  13.4429
    13.4984  13.5898  13.8233  13.9422  14.0177  14.2223  14.3379  14.3764
    14.4719  14.6490  14.7219  15.6710  15.8065  15.9453  15.9755  15.9913
    16.3289  16.4098  16.6803  16.9515  17.0684  17.3658  17.4627  17.5631
    17.9664  18.5079  18.5479  18.6709  18.7301  18.9384  19.0509  19.3294
    19.4919  20.5229  21.2214  21.3027  21.3143  22.0664  22.3394  22.4080
    22.9942  23.3592  23.4229  23.4719  23.6761  23.9776  24.1583  24.4230
    24.4651  24.6553  24.6913  25.0536  25.0750  25.4512  25.4553  25.5549
    25.5852  25.9059  26.0555  26.3984  26.5906  26.6757  27.0620  27.2085
    27.2286  27.2548  27.3103  27.7826  28.3571  28.4346  28.5007  28.8135
    28.9201  28.9227  29.1727  29.3442  29.3496  29.3935  29.4470  29.9107
    30.7632  30.9443  31.3258  31.4263  31.5477  31.5906  31.6306  31.6910
    32.0186  32.1988  32.3786  32.7022  32.7584  32.7926  32.8221  32.8297
    32.9349  32.9428  33.7780  34.2298  34.2440  34.2895  34.5332  34.6949
    34.9827  35.0378  35.1024  35.1035  35.7768  35.7811  35.7867  36.0518
    36.1028  36.1273  36.1519  36.2017  36.4386  36.7127  37.0695  37.0953
    37.1576  37.4602  37.5427  37.6232  37.7480  37.7643  37.7974  38.3773
    38.5728  38.7686  39.0600  39.1825  39.2349  39.5241  39.7396  39.8261
    40.0151  40.0306  40.2061  40.4985  40.6280  40.6405  40.6538  41.1708
    41.1830  41.3309  41.3429  41.5681  41.7913  41.8223  41.9082  42.2367
    42.3664  42.3733  42.7090  43.2757  43.4267  43.5348  43.7628  43.8737
    43.9691  44.1166  44.2871  44.3073  44.4584  44.5392  44.6017  44.8243

     occupation numbers
     1.0000   1.0000   1.0000   1.0000   1.0000   1.0000   1.0000   1.0000
     1.0000   1.0000   1.0000   1.0000   1.0000   1.0000   1.0000   1.0000
     1.0000   1.0000   1.0000   1.0000   1.0000   1.0000   1.0000   1.0000
     1.0000   1.0000   1.0000   1.0000   1.0000   1.0000   1.0000   1.0000
     1.0000   1.0000   1.0000   1.0000   1.0000   1.0000   1.0000   1.0000
     1.0000   1.0000   1.0000   1.0000   1.0000   1.0000   1.0000   1.0000
     1.0000   1.0000   1.0000   1.0000   1.0000   1.0000   1.0000   1.0000
     1.0000   1.0000   1.0000   1.0000   1.0000   1.0000   1.0000   1.0000
     1.0000   1.0000   1.0000   1.0000   1.0000   1.0000   1.0000   1.0000
     0.0000   0.0000   0.0000   0.0000   0.0000   0.0000   0.0000   0.0000
     0.0000   0.0000   0.0000   0.0000   0.0000   0.0000   0.0000   0.0000
     0.0000   0.0000   0.0000   0.0000   0.0000   0.0000   0.0000   0.0000
     0.0000   0.0000   0.0000   0.0000   0.0000   0.0000   0.0000   0.0000
     0.0000   0.0000   0.0000   0.0000   0.0000   0.0000   0.0000   0.0000
     0.0000   0.0000   0.0000   0.0000   0.0000   0.0000   0.0000   0.0000
     0.0000   0.0000   0.0000   0.0000   0.0000   0.0000   0.0000   0.0000
     0.0000   0.0000   0.0000   0.0000   0.0000   0.0000   0.0000   0.0000
     0.0000   0.0000   0.0000   0.0000   0.0000   0.0000   0.0000   0.0000
     0.0000   0.0000   0.0000   0.0000   0.0000   0.0000   0.0000   0.0000
     0.0000   0.0000   0.0000   0.0000   0.0000   0.0000   0.0000   0.0000
     0.0000   0.0000   0.0000   0.0000   0.0000   0.0000   0.0000   0.0000
     0.0000   0.0000   0.0000   0.0000   0.0000   0.0000   0.0000   0.0000
     0.0000   0.0000   0.0000   0.0000   0.0000   0.0000   0.0000   0.0000
     0.0000   0.0000   0.0000   0.0000   0.0000   0.0000   0.0000   0.0000
     0.0000   0.0000   0.0000   0.0000   0.0000   0.0000   0.0000   0.0000
     0.0000   0.0000   0.0000   0.0000   0.0000   0.0000   0.0000   0.0000
     0.0000   0.0000   0.0000   0.0000   0.0000   0.0000   0.0000   0.0000
     0.0000   0.0000   0.0000   0.0000   0.0000   0.0000   0.0000   0.0000
     0.0000   0.0000   0.0000   0.0000   0.0000   0.0000   0.0000   0.0000
     0.0000   0.0000   0.0000   0.0000   0.0000   0.0000   0.0000   0.0000
     0.0000   0.0000   0.0000   0.0000   0.0000   0.0000   0.0000   0.0000
     0.0000   0.0000   0.0000   0.0000   0.0000   0.0000   0.0000   0.0000

[...]

          k = 0.3333-0.1900 0.3212 (  5160 PWs)   bands (ev):

   -44.3752 -44.3691 -23.4002 -23.3812 -23.3694 -23.3545 -22.8517 -22.6922
   -22.6839 -22.6563 -22.5631 -22.4595 -18.0658 -17.7242 -17.6324 -17.5308
   -17.3160 -17.2858 -16.8980 -16.8907 -16.7386 -16.7318 -16.5897 -16.5751
    -7.0537  -7.0048  -6.9589  -6.9486  -6.9230  -6.9001  -6.8358  -6.8335
    -6.8036  -6.7950  -6.7949  -6.7774  -0.8972  -0.7124  -0.4970  -0.3837
    -0.2278  -0.1300  -0.0782   0.0208   0.0660   0.1353   0.1713   0.4984
     0.7850   0.8599   1.1308   1.1344   1.2226   1.2468   1.3199   1.3733
     1.3806   1.4032   1.5479   1.5671   1.6555   1.7732   1.8721   1.8848
     1.9171   2.0794   2.1759   2.1780   2.1936   2.2009   2.6471   2.6691
     8.5077   8.6005   9.1506   9.3469   9.7957  10.1248  10.6536  10.7895
    11.0193  11.0888  11.1467  12.2437  12.6142  12.9930  13.0859  13.2673
    13.3172  13.3370  13.4884  13.6876  13.8143  13.8555  14.2280  14.3734
    14.6700  15.0021  15.0160  15.2061  15.2846  15.2860  15.6153  15.6306
    15.8983  15.9936  16.0085  16.4106  17.0378  17.4054  18.0298  18.2927
    18.5674  18.7776  18.8283  19.2821  19.4167  19.8370  20.0129  20.3483
    20.7347  20.8012  20.8520  20.9258  21.1375  21.7548  21.9137  22.0839
    22.2200  22.9925  23.0073  23.5820  23.6175  24.0491  24.0557  24.3676
    24.4662  24.6814  24.9331  24.9398  25.0627  25.1750  25.4567  25.5609
    25.9266  26.1334  26.2331  26.4415  26.5150  26.6891  26.9251  26.9467
    27.2138  27.4168  27.7142  27.9400  28.0642  28.3400  28.3628  28.4511
    28.5157  28.6275  29.0170  29.1133  29.6339  29.6995  29.7686  30.1002
    30.2687  30.5380  30.5828  30.8093  31.0103  31.2336  31.4627  31.7806
    31.8436  32.0640  32.1982  32.4561  32.6228  32.7554  32.8171  33.0102
    33.4122  33.4162  33.7015  33.7616  33.9985  34.0239  34.4515  34.5105
    34.7258  34.8524  34.8686  34.9286  35.2569  35.3608  35.5110  35.8518
    36.2771  36.4476  36.6575  36.8475  36.9686  37.0185  37.1401  37.2653
    37.5628  37.6737  37.9162  37.9910  38.4205  38.4309  38.4800  38.7387
    38.8979  39.0498  39.1699  39.2017  39.4974  39.5146  39.7695  39.8313
    39.9852  40.0586  40.4865  40.5319  40.6973  40.7791  40.8636  41.3248
    41.4169  41.7047  41.7286  41.7341  42.0470  42.1359  42.5638  42.5840
    42.8803  42.9810  43.0651  43.0653  43.2913  43.5399  43.7319  43.8388
    43.8689  44.2084  44.3480  44.4717  44.5262  44.6962  44.7543  44.9569

     occupation numbers
     1.0000   1.0000   1.0000   1.0000   1.0000   1.0000   1.0000   1.0000
     1.0000   1.0000   1.0000   1.0000   1.0000   1.0000   1.0000   1.0000
     1.0000   1.0000   1.0000   1.0000   1.0000   1.0000   1.0000   1.0000
     1.0000   1.0000   1.0000   1.0000   1.0000   1.0000   1.0000   1.0000
     1.0000   1.0000   1.0000   1.0000   1.0000   1.0000   1.0000   1.0000
     1.0000   1.0000   1.0000   1.0000   1.0000   1.0000   1.0000   1.0000
     1.0000   1.0000   1.0000   1.0000   1.0000   1.0000   1.0000   1.0000
     1.0000   1.0000   1.0000   1.0000   1.0000   1.0000   1.0000   1.0000
     1.0000   1.0000   1.0000   1.0000   1.0000   1.0000   1.0000   1.0000
     0.0000   0.0000   0.0000   0.0000   0.0000   0.0000   0.0000   0.0000
     0.0000   0.0000   0.0000   0.0000   0.0000   0.0000   0.0000   0.0000
     0.0000   0.0000   0.0000   0.0000   0.0000   0.0000   0.0000   0.0000
     0.0000   0.0000   0.0000   0.0000   0.0000   0.0000   0.0000   0.0000
     0.0000   0.0000   0.0000   0.0000   0.0000   0.0000   0.0000   0.0000
     0.0000   0.0000   0.0000   0.0000   0.0000   0.0000   0.0000   0.0000
     0.0000   0.0000   0.0000   0.0000   0.0000   0.0000   0.0000   0.0000
     0.0000   0.0000   0.0000   0.0000   0.0000   0.0000   0.0000   0.0000
     0.0000   0.0000   0.0000   0.0000   0.0000   0.0000   0.0000   0.0000
     0.0000   0.0000   0.0000   0.0000   0.0000   0.0000   0.0000   0.0000
     0.0000   0.0000   0.0000   0.0000   0.0000   0.0000   0.0000   0.0000
     0.0000   0.0000   0.0000   0.0000   0.0000   0.0000   0.0000   0.0000
     0.0000   0.0000   0.0000   0.0000   0.0000   0.0000   0.0000   0.0000
     0.0000   0.0000   0.0000   0.0000   0.0000   0.0000   0.0000   0.0000
     0.0000   0.0000   0.0000   0.0000   0.0000   0.0000   0.0000   0.0000
     0.0000   0.0000   0.0000   0.0000   0.0000   0.0000   0.0000   0.0000
     0.0000   0.0000   0.0000   0.0000   0.0000   0.0000   0.0000   0.0000
     0.0000   0.0000   0.0000   0.0000   0.0000   0.0000   0.0000   0.0000
     0.0000   0.0000   0.0000   0.0000   0.0000   0.0000   0.0000   0.0000
     0.0000   0.0000   0.0000   0.0000   0.0000   0.0000   0.0000   0.0000
     0.0000   0.0000   0.0000   0.0000   0.0000   0.0000   0.0000   0.0000
     0.0000   0.0000   0.0000   0.0000   0.0000   0.0000   0.0000   0.0000
     0.0000   0.0000   0.0000   0.0000   0.0000   0.0000   0.0000   0.0000

     highest occupied, lowest unoccupied level (ev):     2.6733    8.4571

!    total energy              =   -1236.14617552 Ry
     estimated scf accuracy    <       0.00000003 Ry

     The total energy is the sum of the following terms:
     one-electron contribution =    -476.80551726 Ry
     hartree contribution      =     311.90247011 Ry
     xc contribution           =    -193.46310662 Ry
     ewald contribution        =    -656.10933151 Ry
     one-center paw contrib.   =    -221.67069024 Ry
      -> PAW hartree energy AE =     113.24715087 Ry
      -> PAW hartree energy PS =    -112.61593658 Ry
      -> PAW xc energy AE      =    -198.67768029 Ry
      -> PAW xc energy PS      =      31.79344831 Ry
      -> total E_H with PAW    =     312.53368440 Ry
      -> total E_XC with PAW   =    -360.34733859 Ry

     convergence has been achieved in   9 iterations

     Writing all to output data dir bands_nm/myprefix.save/

     General routines

     Parallel routines

     PAW routines

   This run was terminated on:  20:55: 8  15Jul2023

   JOB DONE.