     Program PWSCF v.7.1 starts on 15Jul2023 at 21:14:33

     Reading input from espresso_25342.pwi
Warning: card &CELL ignored
Warning: card / ignored

     Current dimensions of program PWSCF are:
     Max number of different atomic species (ntypx) = 10
     Max number of k-points (npk) =  40000
     Max angular momentum in pseudopotentials (lmaxx) =  4
     file Mg.pbe-n-kjpaw_psl.0.3.0.UPF: wavefunction(s)  3S renormalized
     file Fe.pbe-spn-kjpaw_psl.0.2.1.UPF: wavefunction(s)  3D renormalized
     file O.pbe-n-kjpaw_psl.0.1.UPF: wavefunction(s)  2P renormalized

     K-points division:     npool     =       2
     R & G space division:  proc/nbgrp/npool/nimage =       4
     Subspace diagonalization in iterative solution of the eigenvalue problem:
     one sub-group per band group will be used

     Using Slab Decomposition

     bravais-lattice index     =            0
     lattice parameter (alat)  =      10.0250  a.u.
     unit-cell volume          =    1353.0648 (a.u.)^3
     number of atoms/cell      =           20
     number of atomic types    =            3
     number of electrons       =       136.00
     number of Kohn-Sham states=          256
     kinetic-energy cutoff     =      30.0000  Ry
     charge density cutoff     =     240.0000  Ry
     scf convergence threshold =      1.0E-06
     mixing beta               =       0.7000
     number of iterations used =            8  plain     mixing
     Exchange-correlation= SLA  PW   PBX  PBC
                           (   1   4   3   4   0   0   0)

     celldm(1)=  10.025031  celldm(2)=   0.000000  celldm(3)=   0.000000
     celldm(4)=   0.000000  celldm(5)=   0.000000  celldm(6)=   0.000000

     crystal axes: (cart. coord. in units of alat)
               a(1) = (   1.000000   0.000000   0.000000 )
               a(2) = (  -0.154745   0.988739   0.000000 )
               a(3) = (   0.368434   0.537815   1.358250 )

     reciprocal axes: (cart. coord. in units 2 pi/alat)
               b(1) = (  1.000000  0.156508 -0.333227 )
               b(2) = (  0.000000  1.011389 -0.400471 )
               b(3) = (  0.000000  0.000000  0.736241 )

     PseudoPot. # 1 for Mg read from file:
     /lustre07/scratch/pragov/crystal_structure_design/utils/SSSP/Mg.pbe-n-kjpaw_psl.0.3.0.UPF
     MD5 check sum: 24ecedc7f3e3cbe212e682f4413594e4
     Pseudo is Projector augmented-wave + core cor, Zval =  2.0
     Generated using "atomic" code by A. Dal Corso  v.5.0.99 svn rev. 10869
     Shape of augmentation charge: PSQ
     Using radial grid of 1129 points,  4 beta functions with:
                l(1) =   0
                l(2) =   0
                l(3) =   1
                l(4) =   1
     Q(r) pseudized with 0 coefficients

     PseudoPot. # 2 for Fe read from file:
     /lustre07/scratch/pragov/crystal_structure_design/utils/SSSP/Fe.pbe-spn-kjpaw_psl.0.2.1.UPF
     MD5 check sum: e86618425769142926afa95317d90200
     Pseudo is Projector augmented-wave + core cor, Zval = 16.0
     Generated using "atomic" code by A. Dal Corso  v.5.0.99 svn rev. 10869
     Shape of augmentation charge: PSQ
     Using radial grid of 1191 points,  6 beta functions with:
                l(1) =   0
                l(2) =   0
                l(3) =   1
                l(4) =   1
                l(5) =   2
                l(6) =   2
     Q(r) pseudized with 0 coefficients

     PseudoPot. # 3 for O  read from file:
     /lustre07/scratch/pragov/crystal_structure_design/utils/SSSP/O.pbe-n-kjpaw_psl.0.1.UPF
     MD5 check sum: 0234752ac141de4415c5fc33072bef88
     Pseudo is Projector augmented-wave + core cor, Zval =  6.0
     Generated using "atomic" code by A. Dal Corso  v.5.0.99 svn rev. 10869
     Shape of augmentation charge: BESSEL
     Using radial grid of 1095 points,  4 beta functions with:
                l(1) =   0
                l(2) =   0
                l(3) =   1
                l(4) =   1
     Q(r) pseudized with 0 coefficients

     atomic species   valence    mass     pseudopotential
        Mg             2.00    24.30500     Mg( 1.00)
        Fe            16.00    55.84500     Fe( 1.00)
        O              6.00    15.99900     O ( 1.00)

     No symmetry found

                                    s                        frac. trans.

      isym =  1     identity

 cryst.   s( 1) = (     1          0          0      )
                  (     0          1          0      )
                  (     0          0          1      )

 cart.    s( 1) = (  1.0000000 -0.0000000  0.0000000 )
                  (  0.0000000  1.0000000 -0.0000000 )
                  (  0.0000000  0.0000000  1.0000000 )

   Cartesian axes

     site n.     atom                  positions (alat units)
         1           Mg  tau(   1) = (   1.0345753   1.1667821   0.9501978  )
         2           Mg  tau(   2) = (   0.3503622   0.8978724   0.2710741  )
         3           Mg  tau(   3) = (   0.5237427   1.2510092   0.6780941  )
         4           Mg  tau(   4) = (   1.2079723   1.5199210   1.3572354  )
         5           Mg  tau(   5) = (   0.8613211   0.8134305   0.5429849  )
         6           Mg  tau(   6) = (   0.5455532   1.0823369   1.2221249  )
         7           Fe  tau(   7) = (   0.8592599   0.6276113   1.0836418  )
         8           Fe  tau(   8) = (   0.3644438   0.7170765   0.8166166  )
         9           Fe  tau(   9) = (   0.1750059   0.3586861   0.4044991  )
        10           Fe  tau(  10) = (   0.6803108   0.4481898   0.1374889  )
        11           O   tau(  11) = (   0.1924275   1.0323554   0.6105959  )
        12           O   tau(  12) = (   0.8766369   1.3012733   1.2897426  )
        13           O   tau(  13) = (   1.0119468   0.4895648   0.7427889  )
        14           O   tau(  14) = (   0.3277805   0.2207355   0.0637712  )
        15           O   tau(  15) = (   1.2119280   0.8551442   1.1575455  )
        16           O   tau(  16) = (   0.5276580   0.5861532   0.4783240  )
        17           O   tau(  17) = (   0.3637728   1.3770375   1.0201354  )
        18           O   tau(  18) = (   0.6795127   1.1081345   0.3410539  )
        19           O   tau(  19) = (   0.0213242   0.6873386   0.2009354  )
        20           O   tau(  20) = (   0.7055026   0.9562489   0.8801053  )

   Crystallographic axes

     site n.     atom                  positions (cryst. coord.)
         1           Mg  tau(   1) = (  0.9005540  0.7995440  0.6995750  )
         2           Mg  tau(   2) = (  0.4005570  0.7995410  0.1995760  )
         3           Mg  tau(   3) = (  0.4935760  0.9937000  0.4992410  )
         4           Mg  tau(   4) = (  0.9935840  0.9936980  0.9992530  )
         5           Mg  tau(   5) = (  0.8076920  0.6052450  0.3997680  )
         6           Mg  tau(   6) = (  0.3077020  0.6052380  0.8997790  )
         7           Fe  tau(   7) = (  0.5963870  0.2007920  0.7978220  )
         8           Fe  tau(   8) = (  0.2045530  0.3982120  0.6012270  )
         9           Fe  tau(   9) = (  0.0963530  0.2007810  0.2978090  )
        10           Fe  tau(  10) = (  0.7046410  0.3982340  0.1012250  )
        11           O   tau(  11) = (  0.1505320  0.7995870  0.4495460  )
        12           O   tau(  12) = (  0.6505190  0.7995890  0.9495620  )
        13           O   tau(  13) = (  0.8410500  0.1976750  0.5468720  )
        14           O   tau(  14) = (  0.3410770  0.1977110  0.0469510  )
        15           O   tau(  15) = (  0.9600390  0.4013200  0.8522330  )
        16           O   tau(  16) = (  0.4600050  0.4012740  0.3521620  )
        17           O   tau(  17) = (  0.2393530  0.9841860  0.7510660  )
        18           O   tau(  18) = (  0.7392960  0.9841730  0.2510980  )
        19           O   tau(  19) = (  0.0619410  0.6146980  0.1479370  )
        20           O   tau(  20) = (  0.5618880  0.6146830  0.6479700  )

     number of k points=    14
                       cart. coord. in units 2pi/alat
        k(    1) = (   0.0000000   0.0000000   0.0000000), wk =   0.0740741
        k(    2) = (   0.0000000   0.0000000   0.2454138), wk =   0.1481481
        k(    3) = (   0.0000000   0.3371297  -0.1334904), wk =   0.1481481
        k(    4) = (   0.0000000   0.3371297   0.1119234), wk =   0.1481481
        k(    5) = (   0.0000000   0.3371297  -0.3789042), wk =   0.1481481
        k(    6) = (   0.3333333   0.0521693  -0.1110758), wk =   0.1481481
        k(    7) = (   0.3333333   0.0521693   0.1343380), wk =   0.1481481
        k(    8) = (   0.3333333   0.0521693  -0.3564896), wk =   0.1481481
        k(    9) = (   0.3333333   0.3892990  -0.2445662), wk =   0.1481481
        k(   10) = (   0.3333333   0.3892990   0.0008476), wk =   0.1481481
        k(   11) = (   0.3333333   0.3892990  -0.4899800), wk =   0.1481481
        k(   12) = (   0.3333333  -0.2849604   0.0224146), wk =   0.1481481
        k(   13) = (   0.3333333  -0.2849604   0.2678284), wk =   0.1481481
        k(   14) = (   0.3333333  -0.2849604  -0.2229992), wk =   0.1481481

                       cryst. coord.
        k(    1) = (   0.0000000   0.0000000   0.0000000), wk =   0.0740741
        k(    2) = (   0.0000000   0.0000000   0.3333333), wk =   0.1481481
        k(    3) = (   0.0000000   0.3333333   0.0000000), wk =   0.1481481
        k(    4) = (   0.0000000   0.3333333   0.3333333), wk =   0.1481481
        k(    5) = (   0.0000000   0.3333333  -0.3333333), wk =   0.1481481
        k(    6) = (   0.3333333   0.0000000   0.0000000), wk =   0.1481481
        k(    7) = (   0.3333333   0.0000000   0.3333333), wk =   0.1481481
        k(    8) = (   0.3333333   0.0000000  -0.3333333), wk =   0.1481481
        k(    9) = (   0.3333333   0.3333333   0.0000000), wk =   0.1481481
        k(   10) = (   0.3333333   0.3333333   0.3333333), wk =   0.1481481
        k(   11) = (   0.3333333   0.3333333  -0.3333333), wk =   0.1481481
        k(   12) = (   0.3333333  -0.3333333  -0.0000000), wk =   0.1481481
        k(   13) = (   0.3333333  -0.3333333   0.3333333), wk =   0.1481481
        k(   14) = (   0.3333333  -0.3333333  -0.3333333), wk =   0.1481481

     Check: negative core charge=   -0.000102

     Initial potential from superposition of free atoms

     starting charge     135.9927, renormalised to     136.0000
     Starting wfcs are  116 randomized atomic wfcs +  140 random wfcs
     Checking if some PAW data can be deallocated...

     Self-consistent Calculation

     iteration #  1     ecut=    30.00 Ry     beta= 0.70
     Davidson diagonalization with overlap

     ethr =  1.00E-02,  avg # of iterations =  6.0

     total energy              =   -1933.62745525 Ry
     estimated scf accuracy    <       3.05978427 Ry

[...]

     total energy              =   -1934.87053560 Ry
     estimated scf accuracy    <       0.00000600 Ry

     iteration # 14     ecut=    30.00 Ry     beta= 0.70
     Davidson diagonalization with overlap

     ethr =  4.41E-09,  avg # of iterations =  1.1

     End of self-consistent calculation

          k = 0.0000 0.0000 0.0000 (  3771 PWs)   bands (ev):

   -77.0945 -77.0923 -77.0909 -77.0895 -42.7586 -42.7563 -42.7503 -42.7298
   -42.7284 -42.7169 -42.7058 -42.7043 -42.7019 -42.6845 -42.6802 -42.6707
    -9.9021  -9.0728  -9.0348  -8.8043  -8.7443  -8.7409  -8.7046  -8.6619
    -8.6215  -8.5901   2.7821   3.6459   3.7193   3.7985   3.8399   3.9373
     3.9420   4.0558   4.1667   4.5964   4.7705   4.7797   5.0938   5.1536
     5.2001   5.2083   5.3394   5.4568   5.4853   5.6679   5.9368   5.9812
     6.0502   6.0939   6.3625   6.3785   6.5827   7.1698   7.1883   7.2088
     8.6422   8.8706   8.9432   8.9565   9.0081   9.2175   9.2974   9.3603
     9.4010   9.4547   9.4957   9.5727  10.0029  10.2855  10.3923  10.4740
    10.8229  11.0487  11.4708  11.5813  11.7296  15.4723  15.7717  15.8190
    17.7149  17.7706  17.9826  18.1304  18.1926  18.2029  18.8123  19.1754
    19.3265  19.5273  19.5684  19.6025  19.6095  19.7245  19.7426  19.8788
    20.0696  20.0720  20.2274  20.2734  20.7043  22.3743  22.5249  23.2766
    23.5565  23.6373  23.9859  24.1633  24.2798  24.5700  24.5878  24.6120
    24.9213  25.2969  25.5636  26.5003  26.6531  26.7260  26.9551  27.9778
    28.0735  28.0797  28.7373  29.0143  29.0907  29.3383  29.3966  29.4581
    29.8506  29.9108  29.9388  30.4301  30.4584  30.7345  31.1173  31.2177
    31.8020  31.9390  32.2943  33.0397  33.3565  33.4014  33.6228  34.4575
    34.8199  35.0351  35.0929  35.1582  35.3415  35.4456  35.4897  35.7490
    35.9177  36.0470  37.1938  37.2577  37.5698  37.5861  37.6458  37.7587
    37.8160  37.8567  38.4380  38.5707  38.6151  38.7105  38.9490  39.0641
    39.1767  39.3020  39.3687  39.7680  39.8446  40.1415  40.8372  41.1248
    41.3482  41.4023  41.4924  41.7797  41.9116  42.0562  42.3582  42.6109
    42.9580  43.1219  43.1676  43.1819  43.3805  43.6263  44.4615  44.7538
    44.7624  45.2738  45.4316  45.4564  45.5633  46.2400  46.3458  46.4405
    46.5316  46.6769  46.9563  47.1215  47.4001  47.5283  47.6998  48.4871
    48.5530  48.5836  48.5923  48.8110  49.0004  49.0394  49.5181  49.6228
    50.0028  50.0100  50.2243  50.3344  50.7056  50.7644  50.9398  51.0243
    51.2307  51.4841  51.5624  51.7786  51.9608  51.9700  52.0860  52.4410
    52.7003  52.7887  53.0605  53.3753  53.3812  53.6368  53.8395  53.9762
    54.1927  54.3777  54.5311  54.6627  55.4090  56.1515  56.2014  56.6297
    57.1465  57.2832  57.6576  58.0469  58.4564  58.4887  58.6131  58.6508

     occupation numbers
     1.0000   1.0000   1.0000   1.0000   1.0000   1.0000   1.0000   1.0000
     1.0000   1.0000   1.0000   1.0000   1.0000   1.0000   1.0000   1.0000
     1.0000   1.0000   1.0000   1.0000   1.0000   1.0000   1.0000   1.0000
     1.0000   1.0000   1.0000   1.0000   1.0000   1.0000   1.0000   1.0000
     1.0000   1.0000   1.0000   1.0000   1.0000   1.0000   1.0000   1.0000
     1.0000   1.0000   1.0000   1.0000   1.0000   1.0000   1.0000   1.0000
     1.0000   1.0000   1.0000   1.0000   1.0000   1.0000   1.0000   1.0000
     1.0000   1.0000   1.0000   1.0000   1.0000   1.0000   1.0000   1.0000
     1.0000   1.0000   1.0000   1.0000   0.0000   0.0000   0.0000   0.0000
     0.0000   0.0000   0.0000   0.0000   0.0000   0.0000   0.0000   0.0000
     0.0000   0.0000   0.0000   0.0000   0.0000   0.0000   0.0000   0.0000
     0.0000   0.0000   0.0000   0.0000   0.0000   0.0000   0.0000   0.0000
     0.0000   0.0000   0.0000   0.0000   0.0000   0.0000   0.0000   0.0000
     0.0000   0.0000   0.0000   0.0000   0.0000   0.0000   0.0000   0.0000
     0.0000   0.0000   0.0000   0.0000   0.0000   0.0000   0.0000   0.0000
     0.0000   0.0000   0.0000   0.0000   0.0000   0.0000   0.0000   0.0000
     0.0000   0.0000   0.0000   0.0000   0.0000   0.0000   0.0000   0.0000
     0.0000   0.0000   0.0000   0.0000   0.0000   0.0000   0.0000   0.0000
     0.0000   0.0000   0.0000   0.0000   0.0000   0.0000   0.0000   0.0000
     0.0000   0.0000   0.0000   0.0000   0.0000   0.0000   0.0000   0.0000
     0.0000   0.0000   0.0000   0.0000   0.0000   0.0000   0.0000   0.0000
     0.0000   0.0000   0.0000   0.0000   0.0000   0.0000   0.0000   0.0000
     0.0000   0.0000   0.0000   0.0000   0.0000   0.0000   0.0000   0.0000
     0.0000   0.0000   0.0000   0.0000   0.0000   0.0000   0.0000   0.0000
     0.0000   0.0000   0.0000   0.0000   0.0000   0.0000   0.0000   0.0000
     0.0000   0.0000   0.0000   0.0000   0.0000   0.0000   0.0000   0.0000
     0.0000   0.0000   0.0000   0.0000   0.0000   0.0000   0.0000   0.0000
     0.0000   0.0000   0.0000   0.0000   0.0000   0.0000   0.0000   0.0000
     0.0000   0.0000   0.0000   0.0000   0.0000   0.0000   0.0000   0.0000
     0.0000   0.0000   0.0000   0.0000   0.0000   0.0000   0.0000   0.0000
     0.0000   0.0000   0.0000   0.0000   0.0000   0.0000   0.0000   0.0000
     0.0000   0.0000   0.0000   0.0000   0.0000   0.0000   0.0000   0.0000

[...]

          k = 0.3333-0.2850-0.2230 (  3757 PWs)   bands (ev):

   -77.0920 -77.0905 -77.0895 -77.0888 -42.7482 -42.7415 -42.7411 -42.7364
   -42.7195 -42.7175 -42.7050 -42.6942 -42.6901 -42.6891 -42.6724 -42.6638
    -9.4453  -9.1866  -8.9944  -8.9507  -8.8124  -8.7946  -8.7489  -8.7338
    -8.6926  -8.5993   3.0045   3.5456   3.6378   3.6491   3.6808   3.8542
     3.9936   4.0346   4.2119   4.3823   4.8489   4.9631   5.2757   5.4215
     5.4643   5.6340   5.6576   5.7570   5.8054   5.9202   5.9335   6.0340
     6.0922   6.1297   6.2121   6.3289   6.3600   6.4457   6.4941   6.6899
     8.4877   8.6453   8.8962   8.9118   9.1847   9.2015   9.2080   9.3428
     9.4258   9.4473   9.4799   9.4961  10.3765  10.4531  10.5765  10.6438
    10.8156  10.9636  11.1651  11.5078  14.1508  15.3147  16.0641  16.1040
    16.2062  16.9511  17.1027  17.1741  17.3137  18.2561  18.7652  18.8935
    19.0932  19.3350  19.3843  19.4457  19.5507  19.7502  19.8944  20.3824
    20.5700  20.8357  20.8978  20.9199  21.1326  21.5553  22.1274  22.7031
    22.8933  23.9576  24.3339  24.3478  24.4391  24.6853  24.7664  25.1377
    25.2310  25.3219  25.6513  26.1055  26.6123  26.6992  26.8808  26.9592
    27.1091  27.5186  27.7602  27.9720  28.2176  29.0740  29.7826  30.5024
    30.5915  30.6077  31.0470  31.4370  31.9046  31.9331  32.0228  32.1759
    32.2601  33.0463  33.5272  33.8455  34.2259  34.3743  34.5622  34.7574
    34.9543  35.0873  35.1016  35.5573  35.6735  35.7754  35.8059  36.0725
    36.2456  36.3046  36.4342  36.8725  36.9156  37.1062  37.3265  37.4548
    37.6501  37.6961  38.0134  38.1424  38.3076  38.6875  38.7061  38.9689
    39.0845  39.2992  39.5215  39.5975  39.6781  39.8592  40.3721  40.4873
    40.5100  40.7203  40.8930  41.0816  41.4562  41.7133  41.9634  41.9995
    42.3316  42.5474  42.7289  42.8098  43.1061  43.3681  43.7919  43.8745
    44.4157  44.4486  44.6385  45.0442  45.0949  45.5508  45.8724  45.8857
    46.2530  46.2987  46.9404  46.9588  47.2045  47.2428  47.6366  47.6426
    47.7638  47.9711  47.9908  48.3529  48.6755  48.9402  49.1766  49.2099
    49.5532  49.7755  50.1555  50.3985  50.6781  51.0118  51.1014  51.4489
    51.4526  51.7773  52.1477  52.3321  52.6729  52.8327  52.8793  53.3326
    53.3566  53.5337  53.8087  54.1762  54.1992  54.3689  54.5619  55.0021
    55.0946  55.0998  55.2175  55.4838  55.4959  55.6070  55.9376  56.0062
    56.0778  56.5806  56.6052  56.7661  56.8438  57.1315  57.2303  57.2472

     occupation numbers
     1.0000   1.0000   1.0000   1.0000   1.0000   1.0000   1.0000   1.0000
     1.0000   1.0000   1.0000   1.0000   1.0000   1.0000   1.0000   1.0000
     1.0000   1.0000   1.0000   1.0000   1.0000   1.0000   1.0000   1.0000
     1.0000   1.0000   1.0000   1.0000   1.0000   1.0000   1.0000   1.0000
     1.0000   1.0000   1.0000   1.0000   1.0000   1.0000   1.0000   1.0000
     1.0000   1.0000   1.0000   1.0000   1.0000   1.0000   1.0000   1.0000
     1.0000   1.0000   1.0000   1.0000   1.0000   1.0000   1.0000   1.0000
     1.0000   1.0000   1.0000   1.0000   1.0000   1.0000   1.0000   1.0000
     1.0000   1.0000   1.0000   1.0000   0.0000   0.0000   0.0000   0.0000
     0.0000   0.0000   0.0000   0.0000   0.0000   0.0000   0.0000   0.0000
     0.0000   0.0000   0.0000   0.0000   0.0000   0.0000   0.0000   0.0000
     0.0000   0.0000   0.0000   0.0000   0.0000   0.0000   0.0000   0.0000
     0.0000   0.0000   0.0000   0.0000   0.0000   0.0000   0.0000   0.0000
     0.0000   0.0000   0.0000   0.0000   0.0000   0.0000   0.0000   0.0000
     0.0000   0.0000   0.0000   0.0000   0.0000   0.0000   0.0000   0.0000
     0.0000   0.0000   0.0000   0.0000   0.0000   0.0000   0.0000   0.0000
     0.0000   0.0000   0.0000   0.0000   0.0000   0.0000   0.0000   0.0000
     0.0000   0.0000   0.0000   0.0000   0.0000   0.0000   0.0000   0.0000
     0.0000   0.0000   0.0000   0.0000   0.0000   0.0000   0.0000   0.0000
     0.0000   0.0000   0.0000   0.0000   0.0000   0.0000   0.0000   0.0000
     0.0000   0.0000   0.0000   0.0000   0.0000   0.0000   0.0000   0.0000
     0.0000   0.0000   0.0000   0.0000   0.0000   0.0000   0.0000   0.0000
     0.0000   0.0000   0.0000   0.0000   0.0000   0.0000   0.0000   0.0000
     0.0000   0.0000   0.0000   0.0000   0.0000   0.0000   0.0000   0.0000
     0.0000   0.0000   0.0000   0.0000   0.0000   0.0000   0.0000   0.0000
     0.0000   0.0000   0.0000   0.0000   0.0000   0.0000   0.0000   0.0000
     0.0000   0.0000   0.0000   0.0000   0.0000   0.0000   0.0000   0.0000
     0.0000   0.0000   0.0000   0.0000   0.0000   0.0000   0.0000   0.0000
     0.0000   0.0000   0.0000   0.0000   0.0000   0.0000   0.0000   0.0000
     0.0000   0.0000   0.0000   0.0000   0.0000   0.0000   0.0000   0.0000
     0.0000   0.0000   0.0000   0.0000   0.0000   0.0000   0.0000   0.0000
     0.0000   0.0000   0.0000   0.0000   0.0000   0.0000   0.0000   0.0000

     highest occupied, lowest unoccupied level (ev):     9.5979   10.0029

!    total energy              =   -1934.87053625 Ry
     total all-electron energy =    -14090.850855 Ry
     estimated scf accuracy    <       0.00000027 Ry

     The total energy is the sum of the following terms:
     one-electron contribution =    -841.47236256 Ry
     hartree contribution      =     498.95154385 Ry
     xc contribution           =    -224.23523490 Ry
     ewald contribution        =    -780.97374926 Ry
     one-center paw contrib.   =    -587.14073338 Ry
      -> PAW hartree energy AE =       2.66434607 Ry
      -> PAW hartree energy PS =      -2.66040288 Ry
      -> PAW xc energy AE      =     -97.93585929 Ry
      -> PAW xc energy PS      =       4.08006971 Ry
      -> total E_H with PAW    =     498.95548703 Ry
      -> total E_XC with PAW   =    -318.09102448 Ry

     convergence has been achieved in  14 iterations

     Writing all to output data dir bands_nm/myprefix.save/

     General routines

     Parallel routines

     PAW routines

   This run was terminated on:  21:16:12  15Jul2023

   JOB DONE.