     Program PWSCF v.7.1 starts on 15Jul2023 at 18:40:44

     Reading input from espresso_20227.pwi
Warning: card &CELL ignored
Warning: card / ignored

     Current dimensions of program PWSCF are:
     Max number of different atomic species (ntypx) = 10
     Max number of k-points (npk) =  40000
     Max angular momentum in pseudopotentials (lmaxx) =  4
     file Ba.pbe-spn-kjpaw_psl.1.0.0.UPF: wavefunction(s)  5S 6S renormalized
     file C.pbe-n-kjpaw_psl.1.0.0.UPF: wavefunction(s)  2S 2P renormalized
     Message from routine setup:
     using ibrav=0 with symmetry is DISCOURAGED, use correct ibrav instead

     K-points division:     npool     =       2
     R & G space division:  proc/nbgrp/npool/nimage =       4
     Subspace diagonalization in iterative solution of the eigenvalue problem:
     one sub-group per band group will be used

     Using Slab Decomposition

     bravais-lattice index     =            0
     lattice parameter (alat)  =      17.2342  a.u.
     unit-cell volume          =    2833.6303 (a.u.)^3
     number of atoms/cell      =           20
     number of atomic types    =            4
     number of electrons       =       148.00
     number of Kohn-Sham states=          256
     kinetic-energy cutoff     =      30.0000  Ry
     charge density cutoff     =     240.0000  Ry
     scf convergence threshold =      1.0E-06
     mixing beta               =       0.7000
     number of iterations used =            8  plain     mixing
     Exchange-correlation= PBE
                           (   1   4   3   4   0   0   0)

     celldm(1)=  17.234209  celldm(2)=   0.000000  celldm(3)=   0.000000
     celldm(4)=   0.000000  celldm(5)=   0.000000  celldm(6)=   0.000000

     crystal axes: (cart. coord. in units of alat)
               a(1) = (   1.000000   0.000000   0.000000 )
               a(2) = (  -0.500000   0.866025   0.000000 )
               a(3) = (   0.000000   0.000000   0.639203 )

     reciprocal axes: (cart. coord. in units 2 pi/alat)
               b(1) = (  1.000000  0.577350  0.000000 )
               b(2) = (  0.000000  1.154701  0.000000 )
               b(3) = (  0.000000  0.000000  1.564449 )

     PseudoPot. # 1 for Ba read from file:
     /lustre07/scratch/pragov/crystal_structure_design/utils/SSSP/Ba.pbe-spn-kjpaw_psl.1.0.0.UPF
     MD5 check sum: c432291d3e53af55f19d5e8866385beb
     Pseudo is Projector augmented-wave + core cor, Zval = 10.0
     Generated using "atomic" code by A. Dal Corso  v.5.1
     Shape of augmentation charge: PSQ
     Using radial grid of 1251 points,  7 beta functions with:
                l(1) =   0
                l(2) =   0
                l(3) =   0
                l(4) =   1
                l(5) =   1
                l(6) =   2
                l(7) =   2
     Q(r) pseudized with 0 coefficients

     PseudoPot. # 2 for Co read from file:
     /lustre07/scratch/pragov/crystal_structure_design/utils/SSSP/Co_pbe_v1.2.uspp.F.UPF
     MD5 check sum: 5f91765df6ddd3222702df6e7b74a16d
     Pseudo is Ultrasoft + core correction, Zval = 17.0
     Generated by new atomic code, or converted to UPF format
     Using radial grid of  863 points,  6 beta functions with:
                l(1) =   0
                l(2) =   0
                l(3) =   1
                l(4) =   1
                l(5) =   2
                l(6) =   2
     Q(r) pseudized with  8 coefficients,  rinner =    1.200   1.200   1.200
                                                       1.200   1.200

     PseudoPot. # 3 for C  read from file:
     /lustre07/scratch/pragov/crystal_structure_design/utils/SSSP/C.pbe-n-kjpaw_psl.1.0.0.UPF
     MD5 check sum: 5d2aebdfa2cae82b50a7e79e9516da0f
     Pseudo is Projector augmented-wave + core cor, Zval =  4.0
     Generated using "atomic" code by A. Dal Corso  v.5.1
     Shape of augmentation charge: PSQ
     Using radial grid of 1073 points,  4 beta functions with:
                l(1) =   0
                l(2) =   0
                l(3) =   1
                l(4) =   1
     Q(r) pseudized with 0 coefficients

     PseudoPot. # 4 for N  read from file:
     /lustre07/scratch/pragov/crystal_structure_design/utils/SSSP/N.pbe-n-radius_5.UPF
     MD5 check sum: 16739722b17309cd8fe442a2ace49922
     Pseudo is Ultrasoft + core correction, Zval =  5.0
     Generated using "atomic" code by A. Dal Corso  v.5.1
     Using radial grid of 1085 points,  4 beta functions with:
                l(1) =   0
                l(2) =   0
                l(3) =   1
                l(4) =   1
     Q(r) pseudized with 0 coefficients

     atomic species   valence    mass     pseudopotential
        Ba            10.00   137.32700     Ba( 1.00)
        Co            17.00    58.93319     Co( 1.00)
        C              4.00    12.01100     C ( 1.00)
        N              5.00    14.00700     N ( 1.00)

     12 Sym. Ops., with inversion, found ( 6 have fractional translation)

                                    s                        frac. trans.

      isym =  1     identity

 cryst.   s( 1) = (     1          0          0      )
                  (     0          1          0      )
                  (     0          0          1      )

 cart.    s( 1) = (  1.0000000  0.0000000  0.0000000 )
                  (  0.0000000  1.0000000  0.0000000 )
                  (  0.0000000  0.0000000  1.0000000 )

      isym =  2     180 deg rotation - cart. axis [0,0,1]

 cryst.   s( 2) = (    -1          0          0      )    f =(  0.0000000 )
                  (     0         -1          0      )       (  0.0000000 )
                  (     0          0          1      )       (  0.5000000 )

 cart.    s( 2) = ( -1.0000000  0.0000000  0.0000000 )    f =(  0.0000000 )
                  (  0.0000000 -1.0000000  0.0000000 )       (  0.0000000 )
                  (  0.0000000  0.0000000  1.0000000 )       (  0.3196013 )

      isym =  3      60 deg rotation - cryst. axis [0,0,1]

[...]

      isym =  6     120 deg rotation - cryst. axis [0,0,-1]

[...]

      isym =  7     inversion

 cryst.   s( 7) = (    -1          0          0      )
                  (     0         -1          0      )
                  (     0          0         -1      )

 cart.    s( 7) = ( -1.0000000  0.0000000  0.0000000 )
                  (  0.0000000 -1.0000000  0.0000000 )
                  (  0.0000000  0.0000000 -1.0000000 )

      isym =  8     inv. 180 deg rotation - cart. axis [0,0,1]

[...]

      isym =  9     inv.  60 deg rotation - cryst. axis [0,0,1]

 cryst.   s( 9) = (    -1         -1          0      )    f =(  0.0000000 )
                  (     1          0          0      )       ( -0.0000000 )
                  (     0          0         -1      )       (  0.5000000 )

 cart.    s( 9) = ( -0.4999999  0.8660254  0.0000000 )    f =(  0.0000000 )
                  ( -0.8660254 -0.5000001  0.0000000 )       ( -0.0000000 )
                  (  0.0000000  0.0000000 -1.0000000 )       (  0.3196013 )

[...]

 cryst.   s(10) = (     0          1          0      )    f =(  0.0000000 )
                  (    -1         -1          0      )       (  0.0000000 )
                  (     0          0         -1      )       (  0.5000000 )

 cart.    s(10) = ( -0.5000001 -0.8660254  0.0000000 )    f =(  0.0000000 )
                  (  0.8660254 -0.4999999  0.0000000 )       (  0.0000000 )
                  (  0.0000000  0.0000000 -1.0000000 )       (  0.3196013 )

[...]

 cryst.   s(11) = (     0         -1          0      )
                  (     1          1          0      )
                  (     0          0         -1      )

 cart.    s(11) = (  0.5000001  0.8660254  0.0000000 )
                  ( -0.8660254  0.4999999  0.0000000 )
                  (  0.0000000  0.0000000 -1.0000000 )

      isym = 12     inv. 120 deg rotation - cryst. axis [0,0,-1]

 cryst.   s(12) = (     1          1          0      )
                  (    -1          0          0      )
                  (     0          0         -1      )

 cart.    s(12) = (  0.4999999 -0.8660254  0.0000000 )
                  (  0.8660254  0.5000001  0.0000000 )
                  (  0.0000000  0.0000000 -1.0000000 )

   Cartesian axes

     site n.     atom                  positions (alat units)
         1           Ba  tau(   1) = (   0.6193835   0.5383898   0.4794019  )
         2           Ba  tau(   2) = (  -0.1193835   0.3276356   0.1598006  )
         3           Ba  tau(   3) = (   0.2240490   0.2672069   0.4794019  )
         4           Ba  tau(   4) = (   0.6565675   0.0604287   0.4794019  )
         5           Ba  tau(   5) = (  -0.1565676   0.8055967   0.1598006  )
         6           Ba  tau(   6) = (   0.2759510   0.5988184   0.1598006  )
         7           Co  tau(   7) = (  -0.0000005   0.5773505   0.4794019  )
         8           Co  tau(   8) = (   0.5000005   0.2886748   0.1598006  )
         9           C   tau(   9) = (  -0.0736075   0.3967132   0.4794019  )
        10           C   tau(  10) = (   0.1932400   0.6039228   0.4794019  )
        11           C   tau(  11) = (   0.3067600   0.2621026   0.1598006  )
        12           C   tau(  12) = (   0.5736075   0.4693121   0.1598006  )
        13           C   tau(  13) = (  -0.1196325   0.7314147   0.4794019  )
        14           C   tau(  14) = (   0.6196325   0.1346107   0.1598006  )
        15           N   tau(  15) = (  -0.1218665   0.2690836   0.4794019  )
        16           N   tau(  16) = (   0.6218665   0.5969418   0.1598006  )
        17           N   tau(  17) = (   0.7060335   0.0290023   0.1598006  )
        18           N   tau(  18) = (   0.3279000   0.6259441   0.4794019  )
        19           N   tau(  19) = (   0.1721000   0.2400813   0.1598006  )
        20           N   tau(  20) = (  -0.2060336   0.8370230   0.4794019  )

   Crystallographic axes

     site n.     atom                  positions (cryst. coord.)
         1           Ba  tau(   1) = (  0.9302230  0.6216790  0.7500000  )
         2           Ba  tau(   2) = (  0.0697770  0.3783210  0.2500000  )
         3           Ba  tau(   3) = (  0.3783210  0.3085440  0.7500000  )
         4           Ba  tau(   4) = (  0.6914560  0.0697770  0.7500000  )
         5           Ba  tau(   5) = (  0.3085440  0.9302230  0.2500000  )
         6           Ba  tau(   6) = (  0.6216790  0.6914560  0.2500000  )
         7           Co  tau(   7) = (  0.3333330  0.6666670  0.7500000  )
         8           Co  tau(   8) = (  0.6666670  0.3333330  0.2500000  )
         9           C   tau(   9) = (  0.1554350  0.4580850  0.7500000  )
        10           C   tau(  10) = (  0.5419150  0.6973500  0.7500000  )
        11           C   tau(  11) = (  0.4580850  0.3026500  0.2500000  )
        12           C   tau(  12) = (  0.8445650  0.5419150  0.2500000  )
        13           C   tau(  13) = (  0.3026500  0.8445650  0.7500000  )
        14           C   tau(  14) = (  0.6973500  0.1554350  0.2500000  )
        15           N   tau(  15) = (  0.0334890  0.3107110  0.7500000  )
        16           N   tau(  16) = (  0.9665110  0.6892890  0.2500000  )
        17           N   tau(  17) = (  0.7227780  0.0334890  0.2500000  )
        18           N   tau(  18) = (  0.6892890  0.7227780  0.7500000  )
        19           N   tau(  19) = (  0.3107110  0.2772220  0.2500000  )
        20           N   tau(  20) = (  0.2772220  0.9665110  0.7500000  )

     number of k points=     6
                       cart. coord. in units 2pi/alat
        k(    1) = (   0.0000000   0.0000000   0.0000000), wk =   0.0740741
        k(    2) = (   0.0000000   0.0000000   0.5214831), wk =   0.1481481
        k(    3) = (   0.0000000   0.3849002   0.0000000), wk =   0.4444444
        k(    4) = (   0.0000000   0.3849002   0.5214831), wk =   0.8888889
        k(    5) = (   0.3333333   0.5773503   0.0000000), wk =   0.1481481
        k(    6) = (   0.3333333   0.5773503   0.5214831), wk =   0.2962963

                       cryst. coord.
        k(    1) = (   0.0000000   0.0000000   0.0000000), wk =   0.0740741
        k(    2) = (   0.0000000   0.0000000   0.3333333), wk =   0.1481481
        k(    3) = (   0.0000000   0.3333333   0.0000000), wk =   0.4444444
        k(    4) = (   0.0000000   0.3333333   0.3333333), wk =   0.8888889
        k(    5) = (   0.3333333   0.3333333   0.0000000), wk =   0.1481481
        k(    6) = (   0.3333333   0.3333333   0.3333333), wk =   0.2962963

     Check: negative core charge=   -0.000012

     Initial potential from superposition of free atoms

     starting charge     145.8977, renormalised to     148.0000
     Starting wfcs are  104 randomized atomic wfcs +  152 random wfcs
     Checking if some PAW data can be deallocated...

     Self-consistent Calculation

     iteration #  1     ecut=    30.00 Ry     beta= 0.70
     Davidson diagonalization with overlap

     ethr =  1.00E-02,  avg # of iterations =  7.0

     negative rho (up, down):  3.323E-01 0.000E+00

     total energy              =   -3444.14787588 Ry
     estimated scf accuracy    <       5.74960512 Ry

[...]

     negative rho (up, down):  6.320E-02 0.000E+00

[...]

     c_bands:  1 eigenvalues not converged
     ethr =  4.97E-07,  avg # of iterations = 11.5

[...]

     total energy              =   -3446.53921486 Ry
     estimated scf accuracy    <       0.00000248 Ry

     iteration # 15     ecut=    30.00 Ry     beta= 0.70
     Davidson diagonalization with overlap

     ethr =  1.67E-09,  avg # of iterations =  2.0

     End of self-consistent calculation

          k = 0.0000 0.0000 0.0000 (  7855 PWs)   bands (ev):

   -87.1577 -87.1577 -50.6384 -50.6384 -50.6368 -50.6368 -49.9146 -49.9115
   -20.1321 -20.0720 -20.0718 -20.0681 -20.0680 -20.0414 -10.5134 -10.5132
   -10.5033 -10.5031 -10.4949 -10.4645  -5.7492  -5.7052  -5.6671  -5.5447
    -5.5445  -5.4698  -5.4697  -5.4477  -5.4476  -5.3259  -5.3258  -5.2724
    -5.2638  -5.2368  -5.2367  -5.2160  -5.1687  -5.1686  -0.5903  -0.4799
     0.0719   0.0722   0.0958   0.0960   2.1473   2.3255   2.4274   2.4275
     2.5288   2.5289   3.0022   3.0376   3.1621   3.1622   3.2134   3.2135
     3.2235   3.2237   3.2651   3.2654   3.2713   3.3498   6.3579   6.3580
     6.4462   6.4463   6.4900   6.4900   6.7108   6.8327   6.8677   6.8678
     7.0384   7.3582   8.8698   9.2984   9.2984   9.6515   9.7162   9.7163
     9.9414   9.9572   9.9572  10.1237  10.1238  10.4185  10.4186  10.4686
    11.4482  11.4482  11.5158  11.7208  11.9395  11.9396  12.3090  12.4714
    12.6033  12.6034  12.6152  12.6153  12.7648  12.7649  13.1947  13.2181
    13.2689  13.3312  13.3313  13.5220  13.6359  13.6359  13.8205  13.9141
    14.2390  14.2391  14.4800  14.4801  14.4911  14.4985  14.4987  14.7927
    14.8331  14.8332  15.5347  15.8579  16.5127  16.7609  17.4202  17.4203
    17.4799  17.4799  18.0335  18.0335  18.2481  18.4900  18.5662  18.5662
    18.7786  18.7786  18.8729  18.8730  18.9763  19.1638  19.3154  19.6028
    20.3093  20.3093  20.7388  20.7389  20.8906  20.8906  21.2930  21.2931
    21.6893  21.7304  21.8733  21.8734  22.1382  22.1384  22.2075  22.2076
    22.2977  22.3793  23.0710  23.2068  23.2069  23.2136  23.3517  23.6382
    23.6382  23.8535  23.8535  23.8728  23.8831  23.8831  24.1650  24.1651
    24.5056  24.5513  24.6125  24.6126  24.9160  24.9161  24.9733  25.1640
    25.1640  25.2766  25.3218  25.5787  25.5787  25.8857  26.0287  26.0501
    26.0501  26.2602  26.7086  26.7086  26.8691  26.9403  26.9404  27.0516
    27.0516  27.5106  27.9064  27.9065  28.0185  28.0185  28.1283  28.2045
    28.2388  28.5629  28.7478  28.7479  29.0509  29.0510  29.2094  29.2094
    29.3164  29.5789  29.9789  30.0889  30.0889  30.1661  30.1662  30.3650
    30.5954  30.6333  30.6334  30.9541  30.9541  31.2327  31.2750  31.3277
    31.3278  31.3457  31.4832  31.5178  31.5178  31.5362  31.5363  31.8488
    31.9941  32.0003  32.0004  32.0180  32.0181  32.8402  32.8402  32.8716
    32.8717  33.2114  33.2114  33.2218  33.2218  33.6437  33.9942  34.0412

     occupation numbers
     1.0000   1.0000   1.0000   1.0000   1.0000   1.0000   1.0000   1.0000
     1.0000   1.0000   1.0000   1.0000   1.0000   1.0000   1.0000   1.0000
     1.0000   1.0000   1.0000   1.0000   1.0000   1.0000   1.0000   1.0000
     1.0000   1.0000   1.0000   1.0000   1.0000   1.0000   1.0000   1.0000
     1.0000   1.0000   1.0000   1.0000   1.0000   1.0000   1.0000   1.0000
     1.0000   1.0000   1.0000   1.0000   1.0000   1.0000   1.0000   1.0000
     1.0000   1.0000   1.0000   1.0000   1.0000   1.0000   1.0000   1.0000
     1.0000   1.0000   1.0000   1.0000   1.0000   1.0000   1.0000   1.0000
     1.0000   1.0000   1.0000   1.0000   1.0000   1.0000   1.0000   1.0000
     1.0000   1.0000   0.0000   0.0000   0.0000   0.0000   0.0000   0.0000
     0.0000   0.0000   0.0000   0.0000   0.0000   0.0000   0.0000   0.0000
     0.0000   0.0000   0.0000   0.0000   0.0000   0.0000   0.0000   0.0000
     0.0000   0.0000   0.0000   0.0000   0.0000   0.0000   0.0000   0.0000
     0.0000   0.0000   0.0000   0.0000   0.0000   0.0000   0.0000   0.0000
     0.0000   0.0000   0.0000   0.0000   0.0000   0.0000   0.0000   0.0000
     0.0000   0.0000   0.0000   0.0000   0.0000   0.0000   0.0000   0.0000
     0.0000   0.0000   0.0000   0.0000   0.0000   0.0000   0.0000   0.0000
     0.0000   0.0000   0.0000   0.0000   0.0000   0.0000   0.0000   0.0000
     0.0000   0.0000   0.0000   0.0000   0.0000   0.0000   0.0000   0.0000
     0.0000   0.0000   0.0000   0.0000   0.0000   0.0000   0.0000   0.0000
     0.0000   0.0000   0.0000   0.0000   0.0000   0.0000   0.0000   0.0000
     0.0000   0.0000   0.0000   0.0000   0.0000   0.0000   0.0000   0.0000
     0.0000   0.0000   0.0000   0.0000   0.0000   0.0000   0.0000   0.0000
     0.0000   0.0000   0.0000   0.0000   0.0000   0.0000   0.0000   0.0000
     0.0000   0.0000   0.0000   0.0000   0.0000   0.0000   0.0000   0.0000
     0.0000   0.0000   0.0000   0.0000   0.0000   0.0000   0.0000   0.0000
     0.0000   0.0000   0.0000   0.0000   0.0000   0.0000   0.0000   0.0000
     0.0000   0.0000   0.0000   0.0000   0.0000   0.0000   0.0000   0.0000
     0.0000   0.0000   0.0000   0.0000   0.0000   0.0000   0.0000   0.0000
     0.0000   0.0000   0.0000   0.0000   0.0000   0.0000   0.0000   0.0000
     0.0000   0.0000   0.0000   0.0000   0.0000   0.0000   0.0000   0.0000
     0.0000   0.0000   0.0000   0.0000   0.0000   0.0000   0.0000   0.0000

[...]

          k = 0.3333 0.5774 0.5215 (  7854 PWs)   bands (ev):

   -87.1576 -87.1576 -50.6394 -50.6379 -50.6379 -50.6364 -49.9116 -49.9116
   -20.0904 -20.0903 -20.0820 -20.0604 -20.0603 -20.0569 -10.6073 -10.6072
   -10.5652 -10.5583 -10.5582 -10.5571  -5.6075  -5.5222  -5.5221  -5.4348
    -5.4347  -5.3991  -5.3404  -5.3403  -5.2865  -5.2718  -5.2717  -5.2545
    -5.2122  -5.1973  -5.1973  -5.1052  -5.1051  -5.1036  -0.8829  -0.8829
     0.1266   0.1561   0.1982   0.1982   2.3045   2.3046   2.5030   2.5102
     2.5103   2.5620   2.6131   2.6131   2.6831   2.6833   2.7333   2.7855
     2.9479   2.9479   3.0465   3.0465   3.0486   3.0541   6.2498   6.3924
     6.4401   6.4440   6.4440   6.6135   6.7193   6.7193   6.9240   6.9240
     7.9343   7.9343   9.3121   9.6393   9.7927   9.9032   9.9033   9.9551
     9.9552  10.1623  10.1624  10.1902  10.7939  10.7939  11.0203  11.0203
    11.0514  11.2881  11.4472  11.4998  11.4998  11.9470  12.0175  12.0175
    12.4622  12.4622  12.4916  12.5141  12.6554  12.6554  13.0553  13.2126
    13.2126  13.2850  13.5753  13.5754  13.7402  13.7402  13.8413  13.9908
    13.9909  14.1189  14.1190  14.2293  14.6128  14.9816  15.0427  15.0428
    15.7186  15.7186  16.1364  16.1365  16.3472  16.8902  16.8902  16.9912
    17.1733  17.6242  17.6531  17.6531  18.3544  18.3545  18.3861  18.4933
    18.4934  18.9830  19.0897  19.0898  19.5725  19.7013  19.7013  19.9609
    20.3230  20.3230  20.6009  20.7918  20.8801  20.8802  21.1681  21.1681
    21.1894  21.7252  21.7253  21.8646  21.9754  21.9755  22.2624  22.2624
    22.3543  22.5067  22.5647  22.8104  22.8534  22.8534  22.9426  23.3725
    23.4007  23.4007  23.5098  23.5099  23.7378  23.7378  23.7442  24.2114
    24.2115  24.3917  24.5701  24.5701  24.7591  24.7591  24.7736  25.0096
    25.0096  25.1493  25.4016  25.4016  25.7001  25.7001  25.7139  25.8412
    26.1696  26.1696  26.4277  26.5870  26.5870  26.8177  26.8177  26.8366
    27.0116  27.4993  27.4993  27.6863  27.6863  28.0310  28.0310  28.0758
    28.2829  28.5476  28.5476  28.7840  29.0091  29.1197  29.1198  29.2984
    29.6016  29.6016  29.8359  29.8359  29.9160  30.0095  30.0095  30.2991
    30.3709  30.3709  30.3880  30.6162  31.0622  31.1506  31.1506  31.1814
    31.4805  31.4806  31.6524  31.8136  31.9045  31.9045  32.2439  32.3862
    32.3862  32.5433  32.5433  32.6642  32.8015  32.8015  33.1415  33.2835
    33.2835  33.3253  33.4780  33.4780  33.6648  33.7402  33.7402  34.1191

     occupation numbers
     1.0000   1.0000   1.0000   1.0000   1.0000   1.0000   1.0000   1.0000
     1.0000   1.0000   1.0000   1.0000   1.0000   1.0000   1.0000   1.0000
     1.0000   1.0000   1.0000   1.0000   1.0000   1.0000   1.0000   1.0000
     1.0000   1.0000   1.0000   1.0000   1.0000   1.0000   1.0000   1.0000
     1.0000   1.0000   1.0000   1.0000   1.0000   1.0000   1.0000   1.0000
     1.0000   1.0000   1.0000   1.0000   1.0000   1.0000   1.0000   1.0000
     1.0000   1.0000   1.0000   1.0000   1.0000   1.0000   1.0000   1.0000
     1.0000   1.0000   1.0000   1.0000   1.0000   1.0000   1.0000   1.0000
     1.0000   1.0000   1.0000   1.0000   1.0000   1.0000   1.0000   1.0000
     1.0000   1.0000   0.0000   0.0000   0.0000   0.0000   0.0000   0.0000
     0.0000   0.0000   0.0000   0.0000   0.0000   0.0000   0.0000   0.0000
     0.0000   0.0000   0.0000   0.0000   0.0000   0.0000   0.0000   0.0000
     0.0000   0.0000   0.0000   0.0000   0.0000   0.0000   0.0000   0.0000
     0.0000   0.0000   0.0000   0.0000   0.0000   0.0000   0.0000   0.0000
     0.0000   0.0000   0.0000   0.0000   0.0000   0.0000   0.0000   0.0000
     0.0000   0.0000   0.0000   0.0000   0.0000   0.0000   0.0000   0.0000
     0.0000   0.0000   0.0000   0.0000   0.0000   0.0000   0.0000   0.0000
     0.0000   0.0000   0.0000   0.0000   0.0000   0.0000   0.0000   0.0000
     0.0000   0.0000   0.0000   0.0000   0.0000   0.0000   0.0000   0.0000
     0.0000   0.0000   0.0000   0.0000   0.0000   0.0000   0.0000   0.0000
     0.0000   0.0000   0.0000   0.0000   0.0000   0.0000   0.0000   0.0000
     0.0000   0.0000   0.0000   0.0000   0.0000   0.0000   0.0000   0.0000
     0.0000   0.0000   0.0000   0.0000   0.0000   0.0000   0.0000   0.0000
     0.0000   0.0000   0.0000   0.0000   0.0000   0.0000   0.0000   0.0000
     0.0000   0.0000   0.0000   0.0000   0.0000   0.0000   0.0000   0.0000
     0.0000   0.0000   0.0000   0.0000   0.0000   0.0000   0.0000   0.0000
     0.0000   0.0000   0.0000   0.0000   0.0000   0.0000   0.0000   0.0000
     0.0000   0.0000   0.0000   0.0000   0.0000   0.0000   0.0000   0.0000
     0.0000   0.0000   0.0000   0.0000   0.0000   0.0000   0.0000   0.0000
     0.0000   0.0000   0.0000   0.0000   0.0000   0.0000   0.0000   0.0000
     0.0000   0.0000   0.0000   0.0000   0.0000   0.0000   0.0000   0.0000
     0.0000   0.0000   0.0000   0.0000   0.0000   0.0000   0.0000   0.0000

     highest occupied, lowest unoccupied level (ev):     7.9343    8.8698

!    total energy              =   -3446.53921496 Ry
     estimated scf accuracy    <       0.00000069 Ry

     The total energy is the sum of the following terms:
     one-electron contribution =    -812.66937236 Ry
     hartree contribution      =     471.80209640 Ry
     xc contribution           =    -246.70110127 Ry
     ewald contribution        =    -572.16043705 Ry
     one-center paw contrib.   =   -2286.81040068 Ry
      -> PAW hartree energy AE =      86.37739048 Ry
      -> PAW hartree energy PS =     -86.04717305 Ry
      -> PAW xc energy AE      =   -1182.71704952 Ry
      -> PAW xc energy PS      =      57.52023403 Ry
      -> total E_H with PAW    =     472.13231383 Ry
      -> total E_XC with PAW   =   -1371.89791676 Ry

     convergence has been achieved in  15 iterations

     Writing all to output data dir bands_nm/myprefix.save/

     General routines

     Parallel routines

     PAW routines

   This run was terminated on:  18:41:49  15Jul2023

   JOB DONE.