     Program PWSCF v.7.1 starts on 16Jul2023 at  5:54: 0

     Reading input from espresso_18744.pwi
Warning: card &CELL ignored
Warning: card / ignored

     Current dimensions of program PWSCF are:
     Max number of different atomic species (ntypx) = 10
     Max number of k-points (npk) =  40000
     Max angular momentum in pseudopotentials (lmaxx) =  4
     file Pb.pbe-dn-kjpaw_psl.0.2.2.UPF: wavefunction(s)  6S renormalized

     K-points division:     npool     =       2
     R & G space division:  proc/nbgrp/npool/nimage =       4
     Subspace diagonalization in iterative solution of the eigenvalue problem:
     a serial algorithm will be used

     Using Slab Decomposition

     bravais-lattice index     =            0
     lattice parameter (alat)  =      18.4209  a.u.
     unit-cell volume          =    2409.2320 (a.u.)^3
     number of atoms/cell      =           11
     number of atomic types    =            3
     number of electrons       =       104.00
     number of Kohn-Sham states=           64
     kinetic-energy cutoff     =      30.0000  Ry
     charge density cutoff     =     240.0000  Ry
     scf convergence threshold =      1.0E-06
     mixing beta               =       0.7000
     number of iterations used =            8  plain     mixing
     Exchange-correlation=  SLA  PW   PBX  PBC
                           (   1   4   3   4   0   0   0)

     celldm(1)=  18.420940  celldm(2)=   0.000000  celldm(3)=   0.000000
     celldm(4)=   0.000000  celldm(5)=   0.000000  celldm(6)=   0.000000

     crystal axes: (cart. coord. in units of alat)
               a(1) = (   1.000000   0.000000   0.000000 )
               a(2) = (   0.354835   0.934929   0.000000 )
               a(3) = (  -0.455527  -0.789014   0.412254 )

     reciprocal axes: (cart. coord. in units 2 pi/alat)
               b(1) = (  1.000000 -0.379531  0.378580 )
               b(2) = (  0.000000  1.069600  2.047110 )
               b(3) = (  0.000000  0.000000  2.425690 )

     PseudoPot. # 1 for Pb read from file:
     /lustre07/scratch/pragov/crystal_structure_design/utils/SSSP/Pb.pbe-dn-kjpaw_psl.0.2.2.UPF
     MD5 check sum: 9d431e6316058b74ade52399a6cf67da
     Pseudo is Projector augmented-wave + core cor, Zval = 14.0
     Generated using "atomic" code by A. Dal Corso  v.5.0.99 svn rev. 10869
     Shape of augmentation charge: PSQ
     Using radial grid of 1281 points,  6 beta functions with:
                l(1) =   0
                l(2) =   0
                l(3) =   1
                l(4) =   1
                l(5) =   2
                l(6) =   2
     Q(r) pseudized with 0 coefficients

     PseudoPot. # 2 for Se read from file:
     /lustre07/scratch/pragov/crystal_structure_design/utils/SSSP/Se_pbe_v1.uspp.F.UPF
     MD5 check sum: 1b3568f3a8ae88f9a2a0ad0698632c85
     Pseudo is Ultrasoft + core correction, Zval =  6.0
     Generated by new atomic code, or converted to UPF format
     Using radial grid of  877 points,  6 beta functions with:
                l(1) =   0
                l(2) =   0
                l(3) =   1
                l(4) =   1
                l(5) =   2
                l(6) =   2
     Q(r) pseudized with  8 coefficients,  rinner =    1.300   1.300   1.300
                                                       1.300   1.300

     PseudoPot. # 3 for Br read from file:
     /lustre07/scratch/pragov/crystal_structure_design/utils/SSSP/br_pbe_v1.4.uspp.F.UPF
     MD5 check sum: d3ffb7b29f6225aa16fe06858fb2a80b
     Pseudo is Ultrasoft + core correction, Zval =  7.0
     Generated by new atomic code, or converted to UPF format
     Using radial grid of  879 points,  6 beta functions with:
                l(1) =   0
                l(2) =   0
                l(3) =   1
                l(4) =   1
                l(5) =   2
                l(6) =   2
     Q(r) pseudized with  8 coefficients,  rinner =    1.100   1.100   1.100
                                                       1.100   1.100

     atomic species   valence    mass     pseudopotential
        Pb            14.00   207.20000     Pb( 1.00)
        Se             6.00    78.97100     Se( 1.00)
        Br             7.00    79.90400     Br( 1.00)

     No symmetry found

                                    s                        frac. trans.

      isym =  1     identity

 cryst.   s( 1) = (     1          0          0      )
                  (     0          1          0      )
                  (     0          0          1      )

 cart.    s( 1) = (  1.0000000  0.0000000 -0.0000000 )
                  (  0.0000000  1.0000000  0.0000000 )
                  (  0.0000000  0.0000000  1.0000000 )

   Cartesian axes

     site n.     atom                  positions (alat units)
         1           Pb  tau(   1) = (   0.2176636  -0.3154231   0.4090530  )
         2           Pb  tau(   2) = (   0.4250141   0.0813875   0.3192481  )
         3           Pb  tau(   3) = (   0.0194039  -0.0281189   0.0146919  )
         4           Pb  tau(   4) = (  -0.2269010  -0.3684779   0.3192481  )
         5           Se  tau(   5) = (   0.0657876  -0.0953349   0.2940586  )
         6           Br  tau(   6) = (   0.4231532   0.4416094   0.1912948  )
         7           Br  tau(   7) = (   0.4369770  -0.2389197   0.1912948  )
         8           Br  tau(   8) = (   1.0010763   0.3532051   0.1194942  )
         9           Br  tau(   9) = (   0.6693954   0.1243233   0.1194942  )
        10           Br  tau(  10) = (   1.1359215   0.6971082   0.0307067  )
        11           Br  tau(  11) = (   0.3000236   0.1202814   0.0307067  )

   Crystallographic axes

     site n.     atom                  positions (cryst. coord.)
         1           Pb  tau(   1) = (  0.4922360  0.5000000  0.9922360  )
         2           Pb  tau(   2) = (  0.5149860  0.7405880  0.7743970  )
         3           Pb  tau(   3) = (  0.0356380 -0.0000000  0.0356380  )
         4           Pb  tau(   4) = (  0.0338090  0.2594120  0.7743970  )
         5           Se  tau(   5) = (  0.2132950  0.5000000  0.7132950  )
         6           Br  tau(   6) = (  0.3279690  0.8639470  0.4640220  )
         7           Br  tau(   7) = (  0.6000750  0.1360530  0.4640220  )
         8           Br  tau(   8) = (  0.9122620  0.6224060  0.2898560  )
         9           Br  tau(   9) = (  0.6674490  0.3775940  0.2898560  )
        10           Br  tau(  10) = (  0.8829720  0.8084870  0.0744850  )
        11           Br  tau(  11) = (  0.2659980  0.1915130  0.0744850  )

     number of k points=    14
                       cart. coord. in units 2pi/alat
        k(    1) = (   0.0000000   0.0000000   0.0000000), wk =   0.0740741
        k(    2) = (   0.0000000   0.0000000   0.8085634), wk =   0.1481481
        k(    3) = (   0.0000000   0.3565333   0.6823700), wk =   0.1481481
        k(    4) = (   0.0000000   0.3565333   1.4909335), wk =   0.1481481
        k(    5) = (   0.0000000   0.3565333  -0.1261934), wk =   0.1481481
        k(    6) = (   0.3333333  -0.1265105   0.1261934), wk =   0.1481481
        k(    7) = (   0.3333333  -0.1265105   0.9347569), wk =   0.1481481
        k(    8) = (   0.3333333  -0.1265105  -0.6823700), wk =   0.1481481
        k(    9) = (   0.3333333   0.2300228   0.8085634), wk =   0.1481481
        k(   10) = (   0.3333333   0.2300228   1.6171269), wk =   0.1481481
        k(   11) = (   0.3333333   0.2300228  -0.0000000), wk =   0.1481481
        k(   12) = (   0.3333333  -0.4830438  -0.5561766), wk =   0.1481481
        k(   13) = (   0.3333333  -0.4830438   0.2523868), wk =   0.1481481
        k(   14) = (   0.3333333  -0.4830438  -1.3647400), wk =   0.1481481

                       cryst. coord.
        k(    1) = (   0.0000000   0.0000000   0.0000000), wk =   0.0740741
        k(    2) = (   0.0000000   0.0000000   0.3333333), wk =   0.1481481
        k(    3) = (   0.0000000   0.3333333   0.0000000), wk =   0.1481481
        k(    4) = (   0.0000000   0.3333333   0.3333333), wk =   0.1481481
        k(    5) = (   0.0000000   0.3333333  -0.3333333), wk =   0.1481481
        k(    6) = (   0.3333333   0.0000000  -0.0000000), wk =   0.1481481
        k(    7) = (   0.3333333   0.0000000   0.3333333), wk =   0.1481481
        k(    8) = (   0.3333333   0.0000000  -0.3333333), wk =   0.1481481
        k(    9) = (   0.3333333   0.3333333   0.0000000), wk =   0.1481481
        k(   10) = (   0.3333333   0.3333333   0.3333333), wk =   0.1481481
        k(   11) = (   0.3333333   0.3333333  -0.3333333), wk =   0.1481481
        k(   12) = (   0.3333333  -0.3333333  -0.0000000), wk =   0.1481481
        k(   13) = (   0.3333333  -0.3333333   0.3333333), wk =   0.1481481
        k(   14) = (   0.3333333  -0.3333333  -0.3333333), wk =   0.1481481

     Initial potential from superposition of free atoms

     starting charge     103.9904, renormalised to     104.0000
     Starting wfcs are   64 randomized atomic wfcs
     Checking if some PAW data can be deallocated...

     Self-consistent Calculation

     iteration #  1     ecut=    30.00 Ry     beta= 0.70
     Davidson diagonalization with overlap

     ethr =  1.00E-02,  avg # of iterations =  2.0

     Threshold (ethr) on eigenvalues was too large:
     Diagonalizing with lowered threshold

     Davidson diagonalization with overlap

[...]

     total energy              =   -3807.31733014 Ry
     estimated scf accuracy    <       0.49051326 Ry

[...]

     total energy              =   -3807.53239843 Ry
     estimated scf accuracy    <       0.00000130 Ry

     iteration # 10     ecut=    30.00 Ry     beta= 0.70
     Davidson diagonalization with overlap

     ethr =  1.25E-09,  avg # of iterations =  3.5

     End of self-consistent calculation

          k = 0.0000 0.0000 0.0000 (  6657 PWs)   bands (ev):

   -11.6218 -11.6160 -11.6112 -11.5968 -11.5869 -11.5855 -11.5704 -11.5694
   -11.5566 -11.5554 -11.4428 -11.4305 -11.4030 -11.3643 -11.3544 -11.0905
   -11.0068 -11.0004 -10.9941 -10.9811  -9.4978  -9.2470  -9.0845  -9.0303
    -8.6962  -8.6426  -6.5113  -2.8097  -2.7317  -2.4878  -1.3562   1.7064
     1.7145   1.9626   2.3337   2.5131   2.5226   2.6391   2.8155   2.9532
     3.1386   3.2127   3.3221   3.4373   3.7087   3.7512   3.8113   3.8629
     3.9042   4.1906   4.4738   4.7942   7.0807   7.4538   7.7824   8.0445
     8.1583   8.2753   8.8614   8.8718   8.9978   9.1039   9.1106   9.8055

     occupation numbers
     1.0000   1.0000   1.0000   1.0000   1.0000   1.0000   1.0000   1.0000
     1.0000   1.0000   1.0000   1.0000   1.0000   1.0000   1.0000   1.0000
     1.0000   1.0000   1.0000   1.0000   1.0000   1.0000   1.0000   1.0000
     1.0000   1.0000   1.0000   1.0000   1.0000   1.0000   1.0000   1.0000
     1.0000   1.0000   1.0000   1.0000   1.0000   1.0000   1.0000   1.0000
     1.0000   1.0000   1.0000   1.0000   1.0000   1.0000   1.0000   1.0000
     1.0000   1.0000   1.0000   1.0000   0.0000   0.0000   0.0000   0.0000
     0.0000   0.0000   0.0000   0.0000   0.0000   0.0000   0.0000   0.0000

[...]

          k = 0.3333-0.4830-1.3647 (  6677 PWs)   bands (ev):

   -11.6217 -11.6141 -11.6070 -11.6004 -11.5994 -11.5948 -11.5897 -11.5819
   -11.5517 -11.5502 -11.4799 -11.4191 -11.3888 -11.3712 -11.3526 -11.0721
   -11.0300 -11.0079 -11.0050 -10.9627  -9.2310  -9.1436  -9.0611  -8.9210
    -8.6616  -8.5301  -6.2272  -2.8835  -2.5778  -2.5393  -2.0559   1.2441
     1.3943   1.4781   1.7591   2.0154   2.2620   2.3519   2.4810   2.5464
     2.7498   3.1665   3.2799   3.4322   3.4715   3.5179   3.6684   3.8578
     3.9780   4.0180   4.5088   4.8095   7.3547   7.8622   7.9314   8.0551
     8.1763   8.4057   8.5083   9.0014   9.1457   9.6150   9.6748  10.3422

     occupation numbers
     1.0000   1.0000   1.0000   1.0000   1.0000   1.0000   1.0000   1.0000
     1.0000   1.0000   1.0000   1.0000   1.0000   1.0000   1.0000   1.0000
     1.0000   1.0000   1.0000   1.0000   1.0000   1.0000   1.0000   1.0000
     1.0000   1.0000   1.0000   1.0000   1.0000   1.0000   1.0000   1.0000
     1.0000   1.0000   1.0000   1.0000   1.0000   1.0000   1.0000   1.0000
     1.0000   1.0000   1.0000   1.0000   1.0000   1.0000   1.0000   1.0000
     1.0000   1.0000   1.0000   1.0000   0.0000   0.0000   0.0000   0.0000
     0.0000   0.0000   0.0000   0.0000   0.0000   0.0000   0.0000   0.0000

     highest occupied, lowest unoccupied level (ev):     4.8095    6.8423

!    total energy              =   -3807.53239870 Ry
     estimated scf accuracy    <       0.00000011 Ry

     The total energy is the sum of the following terms:
     one-electron contribution =    -209.13073594 Ry
     hartree contribution      =     167.99801173 Ry
     xc contribution           =    -363.88323326 Ry
     ewald contribution        =    -488.61614804 Ry
     one-center paw contrib.   =   -2913.90029318 Ry
      -> PAW hartree energy AE =     192.29610017 Ry
      -> PAW hartree energy PS =    -191.86946427 Ry
      -> PAW xc energy AE      =   -1544.62336676 Ry
      -> PAW xc energy PS      =      87.24702515 Ry
      -> total E_H with PAW    =     168.42464763 Ry
      -> total E_XC with PAW   =   -1821.25957487 Ry

     convergence has been achieved in  10 iterations

     Writing all to output data dir bands_nm/myprefix.save/

     General routines

     Parallel routines

     PAW routines

   This run was terminated on:   5:54:35  16Jul2023

   JOB DONE.