     Program PWSCF v.7.1 starts on 16Jul2023 at 15:31:26

     Reading input from espresso_15797.pwi
Warning: card &CELL ignored
Warning: card / ignored

     Current dimensions of program PWSCF are:
     Max number of different atomic species (ntypx) = 10
     Max number of k-points (npk) =  40000
     Max angular momentum in pseudopotentials (lmaxx) =  4
     file Ba.pbe-spn-kjpaw_psl.1.0.0.UPF: wavefunction(s)  5S 6S renormalized
     Message from routine setup:
     using ibrav=0 with symmetry is DISCOURAGED, use correct ibrav instead

     K-points division:     npool     =       2
     R & G space division:  proc/nbgrp/npool/nimage =       4
     Subspace diagonalization in iterative solution of the eigenvalue problem:
     a serial algorithm will be used

     Using Slab Decomposition

     bravais-lattice index     =            0
     lattice parameter (alat)  =      10.3666  a.u.
     unit-cell volume          =    1391.4335 (a.u.)^3
     number of atoms/cell      =            6
     number of atomic types    =            2
     number of electrons       =        44.00
     number of Kohn-Sham states=           64
     kinetic-energy cutoff     =      30.0000  Ry
     charge density cutoff     =     240.0000  Ry
     scf convergence threshold =      1.0E-06
     mixing beta               =       0.7000
     number of iterations used =            8  plain     mixing
     Exchange-correlation= SLA  PW   PBE  PBE
                           (   1   4   3   4   0   0   0)

     celldm(1)=  10.366567  celldm(2)=   0.000000  celldm(3)=   0.000000
     celldm(4)=   0.000000  celldm(5)=   0.000000  celldm(6)=   0.000000

     crystal axes: (cart. coord. in units of alat)
               a(1) = (   1.000000   0.000000   0.000000 )
               a(2) = (   0.580152   0.814508   0.000000 )
               a(3) = (   0.710059   0.366008   1.533424 )

     reciprocal axes: (cart. coord. in units 2 pi/alat)
               b(1) = (  1.000000 -0.712273 -0.293044 )
               b(2) = (  0.000000  1.227735 -0.293044 )
               b(3) = (  0.000000  0.000000  0.652135 )

     PseudoPot. # 1 for Ba read from file:
     /lustre07/scratch/pragov/crystal_structure_design/utils/SSSP/Ba.pbe-spn-kjpaw_psl.1.0.0.UPF
     MD5 check sum: c432291d3e53af55f19d5e8866385beb
     Pseudo is Projector augmented-wave + core cor, Zval = 10.0
     Generated using "atomic" code by A. Dal Corso  v.5.1
     Shape of augmentation charge: PSQ
     Using radial grid of 1251 points,  7 beta functions with:
                l(1) =   0
                l(2) =   0
                l(3) =   0
                l(4) =   1
                l(5) =   1
                l(6) =   2
                l(7) =   2
     Q(r) pseudized with 0 coefficients

     PseudoPot. # 2 for Se read from file:
     /lustre07/scratch/pragov/crystal_structure_design/utils/SSSP/Se_pbe_v1.uspp.F.UPF
     MD5 check sum: 1b3568f3a8ae88f9a2a0ad0698632c85
     Pseudo is Ultrasoft + core correction, Zval =  6.0
     Generated by new atomic code, or converted to UPF format
     Using radial grid of  877 points,  6 beta functions with:
                l(1) =   0
                l(2) =   0
                l(3) =   1
                l(4) =   1
                l(5) =   2
                l(6) =   2
     Q(r) pseudized with  8 coefficients,  rinner =    1.300   1.300   1.300
                                                       1.300   1.300

     atomic species   valence    mass     pseudopotential
        Ba            10.00   137.32700     Ba( 1.00)
        Se             6.00    78.97100     Se( 1.00)

      2 Sym. Ops., with inversion, found

                                    s                        frac. trans.

      isym =  1     identity

 cryst.   s( 1) = (     1          0          0      )
                  (     0          1          0      )
                  (     0          0          1      )

 cart.    s( 1) = (  1.0000000  0.0000000  0.0000000 )
                  (  0.0000000  1.0000000  0.0000000 )
                  (  0.0000000  0.0000000  1.0000000 )

      isym =  2     inversion

 cryst.   s( 2) = (    -1          0          0      )
                  (     0         -1          0      )
                  (     0          0         -1      )

 cart.    s( 2) = ( -1.0000000  0.0000000 -0.0000000 )
                  (  0.0000000 -1.0000000  0.0000000 )
                  (  0.0000000  0.0000000 -1.0000000 )

   Cartesian axes

     site n.     atom                  positions (alat units)
         1           Ba  tau(   1) = (   0.8113194   0.8019241   0.3833560  )
         2           Ba  tau(   2) = (   1.4788921   0.3785922   1.1500680  )
         3           Se  tau(   3) = (   1.7797820   0.7872564   1.4936178  )
         4           Se  tau(   4) = (   0.9714698   0.3706024   0.8065182  )
         5           Se  tau(   5) = (   1.3187417   0.8099139   0.7269058  )
         6           Se  tau(   6) = (   0.5104295   0.3932599   0.0398062  )

   Crystallographic axes

     site n.     atom                  positions (cryst. coord.)
         1           Ba  tau(   1) = (  0.1277900  0.8722100  0.2500000  )
         2           Ba  tau(   2) = (  0.8722100  0.1277900  0.7500000  )
         3           Se  tau(   3) = (  0.7813440  0.5288460  0.9740410  )
         4           Se  tau(   4) = (  0.4711540  0.2186560  0.5259590  )
         5           Se  tau(   5) = (  0.5288460  0.7813440  0.4740410  )
         6           Se  tau(   6) = (  0.2186560  0.4711540  0.0259590  )

     number of k points=    14
                       cart. coord. in units 2pi/alat
        k(    1) = (   0.0000000   0.0000000   0.0000000), wk =   0.0740741
        k(    2) = (   0.0000000   0.0000000   0.2173785), wk =   0.1481481
        k(    3) = (   0.0000000   0.4092450  -0.0976814), wk =   0.1481481
        k(    4) = (   0.0000000   0.4092450   0.1196970), wk =   0.1481481
        k(    5) = (   0.0000000   0.4092450  -0.3150599), wk =   0.1481481
        k(    6) = (   0.3333333  -0.2374244  -0.0976814), wk =   0.1481481
        k(    7) = (   0.3333333  -0.2374244   0.1196970), wk =   0.1481481
        k(    8) = (   0.3333333  -0.2374244  -0.3150599), wk =   0.1481481
        k(    9) = (   0.3333333   0.1718206  -0.1953629), wk =   0.1481481
        k(   10) = (   0.3333333   0.1718206   0.0220156), wk =   0.1481481
        k(   11) = (   0.3333333   0.1718206  -0.4127414), wk =   0.1481481
        k(   12) = (   0.3333333  -0.6466694  -0.0000000), wk =   0.1481481
        k(   13) = (   0.3333333  -0.6466694   0.2173785), wk =   0.1481481
        k(   14) = (   0.3333333  -0.6466694  -0.2173785), wk =   0.1481481

                       cryst. coord.
        k(    1) = (   0.0000000   0.0000000   0.0000000), wk =   0.0740741
        k(    2) = (   0.0000000   0.0000000   0.3333333), wk =   0.1481481
        k(    3) = (   0.0000000   0.3333333   0.0000000), wk =   0.1481481
        k(    4) = (   0.0000000   0.3333333   0.3333333), wk =   0.1481481
        k(    5) = (   0.0000000   0.3333333  -0.3333333), wk =   0.1481481
        k(    6) = (   0.3333333   0.0000000   0.0000000), wk =   0.1481481
        k(    7) = (   0.3333333   0.0000000   0.3333333), wk =   0.1481481
        k(    8) = (   0.3333333   0.0000000  -0.3333333), wk =   0.1481481
        k(    9) = (   0.3333333   0.3333333   0.0000000), wk =   0.1481481
        k(   10) = (   0.3333333   0.3333333   0.3333333), wk =   0.1481481
        k(   11) = (   0.3333333   0.3333333  -0.3333333), wk =   0.1481481
        k(   12) = (   0.3333333  -0.3333333   0.0000000), wk =   0.1481481
        k(   13) = (   0.3333333  -0.3333333   0.3333333), wk =   0.1481481
        k(   14) = (   0.3333333  -0.3333333  -0.3333333), wk =   0.1481481

     Initial potential from superposition of free atoms

     starting charge      43.9657, renormalised to      44.0000
     Starting wfcs are   26 randomized atomic wfcs +   38 random wfcs
     Checking if some PAW data can be deallocated...

     Self-consistent Calculation

     iteration #  1     ecut=    30.00 Ry     beta= 0.70
     Davidson diagonalization with overlap

     ethr =  1.00E-02,  avg # of iterations =  7.1

     Threshold (ethr) on eigenvalues was too large:
     Diagonalizing with lowered threshold

     Davidson diagonalization with overlap

[...]

     negative rho (up, down):  6.892E-02 0.000E+00

     total energy              =   -1047.38200186 Ry
     estimated scf accuracy    <       0.26187745 Ry

[...]

     negative rho (up, down):  1.648E-02 0.000E+00

[...]

     total energy              =   -1047.39921959 Ry
     estimated scf accuracy    <       0.00008857 Ry

     iteration #  9     ecut=    30.00 Ry     beta= 0.70
     Davidson diagonalization with overlap

     ethr =  1.77E-07,  avg # of iterations =  1.0

     End of self-consistent calculation

          k = 0.0000 0.0000 0.0000 (  3853 PWs)   bands (ev):

   -21.6944 -21.6848  -8.4622  -8.0159  -6.9220  -6.9044  -6.8968  -6.8964
    -6.8691  -6.2717  -5.0191  -4.9394   0.8401   0.9393   2.0579   3.0506
     3.3407   3.5282   4.2745   4.5427   4.9183   5.1257   7.9740   8.2893
     8.5513   8.9736   9.1425   9.2047   9.2690   9.9089  10.2919  10.9550
    11.3777  11.8133  12.0342  12.3962  12.8482  12.9302  13.5522  13.9547
    14.5706  14.9416  15.2191  16.0330  16.3561  16.5725  16.7767  17.3538
    17.5244  17.5808  17.8401  17.8439  18.1749  18.7898  19.1294  19.6988
    19.8633  19.8644  20.2807  20.4688  21.0000  21.2429  21.9023  22.0057

     occupation numbers
     1.0000   1.0000   1.0000   1.0000   1.0000   1.0000   1.0000   1.0000
     1.0000   1.0000   1.0000   1.0000   1.0000   1.0000   1.0000   1.0000
     1.0000   1.0000   1.0000   1.0000   1.0000   1.0000   0.0000   0.0000
     0.0000   0.0000   0.0000   0.0000   0.0000   0.0000   0.0000   0.0000
     0.0000   0.0000   0.0000   0.0000   0.0000   0.0000   0.0000   0.0000
     0.0000   0.0000   0.0000   0.0000   0.0000   0.0000   0.0000   0.0000
     0.0000   0.0000   0.0000   0.0000   0.0000   0.0000   0.0000   0.0000
     0.0000   0.0000   0.0000   0.0000   0.0000   0.0000   0.0000   0.0000

[...]

          k = 0.3333-0.6467-0.2174 (  3870 PWs)   bands (ev):

   -21.6856 -21.6841  -8.0695  -8.0354  -7.1842  -7.0487  -6.9650  -6.9277
    -6.6149  -6.4995  -5.4492  -5.2955   2.1231   2.2699   2.6201   2.9429
     3.1919   3.3085   4.4276   4.4681   4.7323   4.8326   7.1543   7.2199
     9.0447   9.3304   9.6612   9.7477  10.2646  10.2978  10.5992  10.7612
    11.0961  11.2781  11.6022  12.3213  12.5718  12.6307  13.7407  13.9664
    14.0164  14.4917  15.3079  15.4938  15.8054  16.1386  16.2500  16.6400
    17.1322  17.3269  17.5523  18.1495  18.4796  18.6362  18.7678  18.7763
    19.0740  19.6938  19.8518  19.9682  20.4491  20.6880  21.2147  21.3532

     occupation numbers
     1.0000   1.0000   1.0000   1.0000   1.0000   1.0000   1.0000   1.0000
     1.0000   1.0000   1.0000   1.0000   1.0000   1.0000   1.0000   1.0000
     1.0000   1.0000   1.0000   1.0000   1.0000   1.0000   0.0000   0.0000
     0.0000   0.0000   0.0000   0.0000   0.0000   0.0000   0.0000   0.0000
     0.0000   0.0000   0.0000   0.0000   0.0000   0.0000   0.0000   0.0000
     0.0000   0.0000   0.0000   0.0000   0.0000   0.0000   0.0000   0.0000
     0.0000   0.0000   0.0000   0.0000   0.0000   0.0000   0.0000   0.0000
     0.0000   0.0000   0.0000   0.0000   0.0000   0.0000   0.0000   0.0000

     highest occupied, lowest unoccupied level (ev):     5.2218    7.0410

!    total energy              =   -1047.39922039 Ry
     estimated scf accuracy    <       0.00000056 Ry

     The total energy is the sum of the following terms:
     one-electron contribution =     -11.06091159 Ry
     hartree contribution      =      24.80607292 Ry
     xc contribution           =    -159.39141771 Ry
     ewald contribution        =    -151.84661095 Ry
     one-center paw contrib.   =    -749.90635305 Ry
      -> PAW hartree energy AE =      28.63199458 Ry
      -> PAW hartree energy PS =     -28.52162493 Ry
      -> PAW xc energy AE      =    -394.21222853 Ry
      -> PAW xc energy PS      =      19.14868236 Ry
      -> total E_H with PAW    =      24.91644256 Ry
      -> total E_XC with PAW   =    -534.45496388 Ry

     convergence has been achieved in   9 iterations

     Writing all to output data dir bands_nm/myprefix.save/

     General routines

     Parallel routines

     PAW routines

   This run was terminated on:  15:31:36  16Jul2023

   JOB DONE.