     Program PWSCF v.7.1 starts on 12Jul2023 at 15:43:47

     Reading input from espresso_22461.pwi
Warning: card &CELL ignored
Warning: card / ignored

     Current dimensions of program PWSCF are:
     Max number of different atomic species (ntypx) = 10
     Max number of k-points (npk) =  40000
     Max angular momentum in pseudopotentials (lmaxx) =  4
     file Ga.pbe-dn-kjpaw_psl.1.0.0.UPF: wavefunction(s)  4S renormalized
     file O.pbe-n-kjpaw_psl.0.1.UPF: wavefunction(s)  2P renormalized
     Message from routine setup:
     using ibrav=0 with symmetry is DISCOURAGED, use correct ibrav instead

     K-points division:     npool     =       2
     R & G space division:  proc/nbgrp/npool/nimage =       8
     Subspace diagonalization in iterative solution of the eigenvalue problem:
     a serial algorithm will be used

     Using Slab Decomposition

     bravais-lattice index     =            0
     lattice parameter (alat)  =       9.2109  a.u.
     unit-cell volume          =    1201.8889 (a.u.)^3
     number of atoms/cell      =           12
     number of atomic types    =            4
     number of electrons       =        86.00
     number of Kohn-Sham states=           64
     kinetic-energy cutoff     =      30.0000  Ry
     charge density cutoff     =     240.0000  Ry
     scf convergence threshold =      1.0E-06
     mixing beta               =       0.7000
     number of iterations used =            8  plain     mixing
     Exchange-correlation= SLA  PW   PBX  PBC
                           (   1   4   3   4   0   0   0)

     celldm(1)=   9.210918  celldm(2)=   0.000000  celldm(3)=   0.000000
     celldm(4)=   0.000000  celldm(5)=   0.000000  celldm(6)=   0.000000

     crystal axes: (cart. coord. in units of alat)
               a(1) = (   1.000000   0.000000   0.000000 )
               a(2) = (  -0.500000   0.866025   0.000000 )
               a(3) = (   0.000000   0.000000   1.775926 )

     reciprocal axes: (cart. coord. in units 2 pi/alat)
               b(1) = (  1.000000  0.577350  0.000000 )
               b(2) = (  0.000000  1.154701  0.000000 )
               b(3) = (  0.000000  0.000000  0.563086 )

     PseudoPot. # 1 for Tl read from file:
     /lustre07/scratch/pragov/crystal_structure_design/utils/SSSP/Tl_pbe_v1.2.uspp.F.UPF
     MD5 check sum: b76cf1f7e72655a2b2c53cf6385d7059
     Pseudo is Ultrasoft + core correction, Zval = 13.0
     Generated by new atomic code, or converted to UPF format
     Using radial grid of  899 points,  6 beta functions with:
                l(1) =   0
                l(2) =   0
                l(3) =   1
                l(4) =   1
                l(5) =   2
                l(6) =   2
     Q(r) pseudized with  6 coefficients,  rinner =    1.100   1.100   1.100
                                                       1.100   1.100

     PseudoPot. # 2 for Ga read from file:
     /lustre07/scratch/pragov/crystal_structure_design/utils/SSSP/Ga.pbe-dn-kjpaw_psl.1.0.0.UPF
     MD5 check sum: a27b4342b1af7e5f338de752e9ed7044
     Pseudo is Projector augmented-wave + core cor, Zval = 13.0
     Generated using "atomic" code by A. Dal Corso  v.5.1
     Shape of augmentation charge: PSQ
     Using radial grid of 1205 points,  6 beta functions with:
                l(1) =   0
                l(2) =   0
                l(3) =   1
                l(4) =   1
                l(5) =   2
                l(6) =   2
     Q(r) pseudized with 0 coefficients

     PseudoPot. # 3 for S  read from file:
     /lustre07/scratch/pragov/crystal_structure_design/utils/SSSP/s_pbe_v1.4.uspp.F.UPF
     MD5 check sum: 88d86576ff6df21479756cfb9bdac1df
     Pseudo is Ultrasoft + core correction, Zval =  6.0
     Generated by new atomic code, or converted to UPF format
     Using radial grid of  907 points,  6 beta functions with:
                l(1) =   0
                l(2) =   0
                l(3) =   1
                l(4) =   1
                l(5) =   2
                l(6) =   2
     Q(r) pseudized with  8 coefficients,  rinner =    1.300   1.300   1.300
                                                       1.300   1.300

     PseudoPot. # 4 for O  read from file:
     /lustre07/scratch/pragov/crystal_structure_design/utils/SSSP/O.pbe-n-kjpaw_psl.0.1.UPF
     MD5 check sum: 0234752ac141de4415c5fc33072bef88
     Pseudo is Projector augmented-wave + core cor, Zval =  6.0
     Generated using "atomic" code by A. Dal Corso  v.5.0.99 svn rev. 10869
     Shape of augmentation charge: BESSEL
     Using radial grid of 1095 points,  4 beta functions with:
                l(1) =   0
                l(2) =   0
                l(3) =   1
                l(4) =   1
     Q(r) pseudized with 0 coefficients

     atomic species   valence    mass     pseudopotential
        Tl            13.00   204.38000     Tl( 1.00)
        Ga            13.00    69.72300     Ga( 1.00)
        S              6.00    32.06000     S ( 1.00)
        O              6.00    15.99900     O ( 1.00)

      6 Sym. Ops. (no inversion) found

                                    s                        frac. trans.

      isym =  1     identity

 cryst.   s( 1) = (     1          0          0      )
                  (     0          1          0      )
                  (     0          0          1      )

 cart.    s( 1) = (  1.0000000  0.0000000  0.0000000 )
                  (  0.0000000  1.0000000  0.0000000 )
                  (  0.0000000  0.0000000  1.0000000 )

      isym =  2     180 deg rotation - cart. axis [1,0,0]

[...]

      isym =  3     120 deg rotation - cryst. axis [0,0,1]

[...]

      isym =  6     180 deg rotation - cryst. axis [1,1,0]

 cryst.   s( 6) = (     0          1          0      )
                  (     1          0          0      )
                  (     0          0         -1      )

 cart.    s( 6) = ( -0.5000000  0.8660254  0.0000000 )
                  (  0.8660254  0.5000000  0.0000000 )
                  (  0.0000000  0.0000000 -1.0000000 )

   Cartesian axes

     site n.     atom                  positions (alat units)
         1           Tl  tau(   1) = (   0.0000000   0.0000000   0.8879631  )
         2           Ga  tau(   2) = (   0.0000000   0.0000000   0.0000000  )
         3           S   tau(   3) = (   0.5000005   0.2886748   1.4135307  )
         4           S   tau(   4) = (  -0.0000005   0.5773506   0.3623955  )
         5           O   tau(   5) = (   0.7831430   0.2293478   1.5149486  )
         6           O   tau(   6) = (   0.3070495   0.0731298   1.5149486  )
         7           O   tau(   7) = (   0.2831430   0.6366776   0.2609777  )
         8           O   tau(   8) = (   0.4098075   0.5635478   1.5149486  )
         9           O   tau(   9) = (  -0.1929505   0.7928956   0.2609777  )
        10           O   tau(  10) = (  -0.0901925   0.3024776   0.2609777  )
        11           O   tau(  11) = (   0.5000005   0.2886748   1.1130049  )
        12           O   tau(  12) = (  -0.0000005   0.5773506   0.6629213  )

   Crystallographic axes

     site n.     atom                  positions (cryst. coord.)
         1           Tl  tau(   1) = (  0.0000000  0.0000000  0.5000000  )
         2           Ga  tau(   2) = (  0.0000000  0.0000000  0.0000000  )
         3           S   tau(   3) = (  0.6666670  0.3333330  0.7959400  )
         4           S   tau(   4) = (  0.3333330  0.6666670  0.2040600  )
         5           O   tau(   5) = (  0.9155570  0.2648280  0.8530470  )
         6           O   tau(   6) = (  0.3492710  0.0844430  0.8530470  )
         7           O   tau(   7) = (  0.6507290  0.7351720  0.1469530  )
         8           O   tau(   8) = (  0.7351720  0.6507290  0.8530470  )
         9           O   tau(   9) = (  0.2648280  0.9155570  0.1469530  )
        10           O   tau(  10) = (  0.0844430  0.3492710  0.1469530  )
        11           O   tau(  11) = (  0.6666670  0.3333330  0.6267180  )
        12           O   tau(  12) = (  0.3333330  0.6666670  0.3732820  )

     number of k points=     7
                       cart. coord. in units 2pi/alat
        k(    1) = (   0.0000000   0.0000000   0.0000000), wk =   0.0740741
        k(    2) = (   0.0000000   0.0000000   0.1876955), wk =   0.1481481
        k(    3) = (   0.0000000   0.3849002   0.0000000), wk =   0.4444444
        k(    4) = (   0.0000000   0.3849002   0.1876955), wk =   0.4444444
        k(    5) = (   0.3333333   0.5773503   0.0000000), wk =   0.1481481
        k(    6) = (   0.3333333   0.5773503   0.1876955), wk =   0.2962963
        k(    7) = (   0.0000000   0.3849002  -0.1876955), wk =   0.4444444

                       cryst. coord.
        k(    1) = (   0.0000000   0.0000000   0.0000000), wk =   0.0740741
        k(    2) = (   0.0000000   0.0000000   0.3333333), wk =   0.1481481
        k(    3) = (   0.0000000   0.3333333   0.0000000), wk =   0.4444444
        k(    4) = (   0.0000000   0.3333333   0.3333333), wk =   0.4444444
        k(    5) = (   0.3333333   0.3333333   0.0000000), wk =   0.1481481
        k(    6) = (   0.3333333   0.3333333   0.3333333), wk =   0.2962963
        k(    7) = (   0.0000000   0.3333333  -0.3333333), wk =   0.4444444

     Check: negative core charge=   -0.000012

     Initial potential from superposition of free atoms

     starting charge      85.9921, renormalised to      86.0000

     negative rho (up, down):  4.597E-02 0.000E+00
     Starting wfcs are   58 randomized atomic wfcs +    6 random wfcs
     Checking if some PAW data can be deallocated...

     Self-consistent Calculation

     iteration #  1     ecut=    30.00 Ry     beta= 0.70
     Davidson diagonalization with overlap

     ethr =  1.00E-02,  avg # of iterations =  8.0

     negative rho (up, down):  4.570E-02 0.000E+00

     total energy              =    -802.77892443 Ry
     estimated scf accuracy    <       2.39951154 Ry

[...]

     total energy              =    -803.83892497 Ry
     estimated scf accuracy    <       0.00000316 Ry

     iteration #  8     ecut=    30.00 Ry     beta= 0.70
     Davidson diagonalization with overlap

     ethr =  3.67E-09,  avg # of iterations =  2.4

     negative rho (up, down):  4.479E-02 0.000E+00

     End of self-consistent calculation

          k = 0.0000 0.0000 0.0000 (  3305 PWs)   bands (ev):

   -19.7382 -19.6186 -15.6039 -15.6039 -15.4770 -15.4587 -15.4586 -15.3149
   -10.7063 -10.7063 -10.6584 -10.6584 -10.6412  -7.5287  -6.2838  -5.1126
    -5.0836  -5.0836  -5.0576  -5.0576  -3.7351  -3.7351  -2.5064  -2.5064
    -2.4613  -2.2185  -0.9993   0.3774   0.3774   0.6235   0.6235   0.9904
     1.3708   1.3708   1.4784   1.4784   1.6042   2.3502   2.5501   2.8211
     2.8211   3.3852   3.3852   7.6296   8.6489  10.2433  10.2433  10.9792
    11.4234  11.4234  11.6263  12.7037  12.8906  13.0441  13.0441  14.0247
    14.6531  15.1377  15.1377  16.0838  16.4122  16.4122  16.7570  17.1824

     occupation numbers
     1.0000   1.0000   1.0000   1.0000   1.0000   1.0000   1.0000   1.0000
     1.0000   1.0000   1.0000   1.0000   1.0000   1.0000   1.0000   1.0000
     1.0000   1.0000   1.0000   1.0000   1.0000   1.0000   1.0000   1.0000
     1.0000   1.0000   1.0000   1.0000   1.0000   1.0000   1.0000   1.0000
     1.0000   1.0000   1.0000   1.0000   1.0000   1.0000   1.0000   1.0000
     1.0000   1.0000   1.0000   0.0000   0.0000   0.0000   0.0000   0.0000
     0.0000   0.0000   0.0000   0.0000   0.0000   0.0000   0.0000   0.0000
     0.0000   0.0000   0.0000   0.0000   0.0000   0.0000   0.0000   0.0000

[...]

          k = 0.0000 0.3849-0.1877 (  3339 PWs)   bands (ev):

   -19.6439 -19.5860 -15.8811 -15.6634 -15.5789 -15.5198 -15.3362 -15.3053
   -10.8058 -10.7045 -10.6814 -10.6670 -10.6278  -6.6556  -5.6789  -5.0964
    -5.0852  -5.0720  -5.0473  -5.0357  -4.3294  -3.5544  -3.0784  -2.4529
    -2.2225  -2.1127  -0.5032  -0.1482   0.0721   0.2586   0.5178   0.7092
     0.7505   1.1482   1.2109   1.2687   2.2005   2.5290   2.6299   2.8113
     2.9238   3.1818   3.3461   8.0473   9.1128   9.3271  10.3014  11.2053
    11.4961  12.1095  12.3955  12.7975  12.8822  13.0209  13.2617  13.7789
    14.1013  14.5559  14.8273  16.1364  16.6944  16.9070  17.3082  17.4694

     occupation numbers
     1.0000   1.0000   1.0000   1.0000   1.0000   1.0000   1.0000   1.0000
     1.0000   1.0000   1.0000   1.0000   1.0000   1.0000   1.0000   1.0000
     1.0000   1.0000   1.0000   1.0000   1.0000   1.0000   1.0000   1.0000
     1.0000   1.0000   1.0000   1.0000   1.0000   1.0000   1.0000   1.0000
     1.0000   1.0000   1.0000   1.0000   1.0000   1.0000   1.0000   1.0000
     1.0000   1.0000   1.0000   0.0000   0.0000   0.0000   0.0000   0.0000
     0.0000   0.0000   0.0000   0.0000   0.0000   0.0000   0.0000   0.0000
     0.0000   0.0000   0.0000   0.0000   0.0000   0.0000   0.0000   0.0000

     highest occupied, lowest unoccupied level (ev):     3.4457    7.5534

!    total energy              =    -803.83892528 Ry
     estimated scf accuracy    <       0.00000059 Ry

     The total energy is the sum of the following terms:
     one-electron contribution =    -372.30257876 Ry
     hartree contribution      =     240.79809969 Ry
     xc contribution           =    -177.56737062 Ry
     ewald contribution        =    -307.56690630 Ry
     one-center paw contrib.   =    -187.20016929 Ry
      -> PAW hartree energy AE =       0.00000000 Ry
      -> PAW hartree energy PS =       0.00000000 Ry
      -> PAW xc energy AE      =       0.00000000 Ry
      -> PAW xc energy PS      =       0.00000000 Ry
      -> total E_H with PAW    =     240.79809969 Ry
      -> total E_XC with PAW   =    -177.56737062 Ry

     convergence has been achieved in   8 iterations

     Writing all to output data dir bands_nm/myprefix.save/

     General routines

     Parallel routines

     PAW routines

   This run was terminated on:  15:43:53  12Jul2023

   JOB DONE.