     Program PWSCF v.7.1 starts on 13Jul2023 at  8:10:36

     Reading input from espresso_3255.pwi
Warning: card &CELL ignored
Warning: card / ignored

     Current dimensions of program PWSCF are:
     Max number of different atomic species (ntypx) = 10
     Max number of k-points (npk) =  40000
     Max angular momentum in pseudopotentials (lmaxx) =  4
     file O.pbe-n-kjpaw_psl.0.1.UPF: wavefunction(s)  2P renormalized

     K-points division:     npool     =       2
     R & G space division:  proc/nbgrp/npool/nimage =       8
     Subspace diagonalization in iterative solution of the eigenvalue problem:
     a serial algorithm will be used

     Using Slab Decomposition

     bravais-lattice index     =            0
     lattice parameter (alat)  =      12.1094  a.u.
     unit-cell volume          =    2030.7721 (a.u.)^3
     number of atoms/cell      =           14
     number of atomic types    =            3
     number of electrons       =        96.00
     number of Kohn-Sham states=           64
     kinetic-energy cutoff     =      30.0000  Ry
     charge density cutoff     =     240.0000  Ry
     scf convergence threshold =      1.0E-06
     mixing beta               =       0.7000
     number of iterations used =            8  plain     mixing
     Exchange-correlation= SLA  PW   PBX  PBC
                           (   1   4   3   4   0   0   0)

     celldm(1)=  12.109430  celldm(2)=   0.000000  celldm(3)=   0.000000
     celldm(4)=   0.000000  celldm(5)=   0.000000  celldm(6)=   0.000000

     crystal axes: (cart. coord. in units of alat)
               a(1) = (   1.000000   0.000000   0.000000 )
               a(2) = (  -0.465430   0.885085   0.000000 )
               a(3) = (   0.003139   0.005198   1.292127 )

     reciprocal axes: (cart. coord. in units 2 pi/alat)
               b(1) = (  1.000000  0.525859 -0.004545 )
               b(2) = (  0.000000  1.129835 -0.004545 )
               b(3) = (  0.000000  0.000000  0.773918 )

     PseudoPot. # 1 for Rb read from file:
     /lustre07/scratch/pragov/crystal_structure_design/utils/SSSP/Rb_ONCV_PBE-1.0.oncvpsp.upf
     MD5 check sum: 55a5172d6bfbce6759a58e35d43f6aa9
     Pseudo is Norm-conserving, Zval =  9.0
     Generated using ONCVPSP code by D. R. Hamann
     Using radial grid of 2308 points,  6 beta functions with:
                l(1) =   0
                l(2) =   0
                l(3) =   1
                l(4) =   1
                l(5) =   2
                l(6) =   2

     PseudoPot. # 2 for Se read from file:
     /lustre07/scratch/pragov/crystal_structure_design/utils/SSSP/Se_pbe_v1.uspp.F.UPF
     MD5 check sum: 1b3568f3a8ae88f9a2a0ad0698632c85
     Pseudo is Ultrasoft + core correction, Zval =  6.0
     Generated by new atomic code, or converted to UPF format
     Using radial grid of  877 points,  6 beta functions with:
                l(1) =   0
                l(2) =   0
                l(3) =   1
                l(4) =   1
                l(5) =   2
                l(6) =   2
     Q(r) pseudized with  8 coefficients,  rinner =    1.300   1.300   1.300
                                                       1.300   1.300

     PseudoPot. # 3 for O  read from file:
     /lustre07/scratch/pragov/crystal_structure_design/utils/SSSP/O.pbe-n-kjpaw_psl.0.1.UPF
     MD5 check sum: 0234752ac141de4415c5fc33072bef88
     Pseudo is Projector augmented-wave + core cor, Zval =  6.0
     Generated using "atomic" code by A. Dal Corso  v.5.0.99 svn rev. 10869
     Shape of augmentation charge: BESSEL
     Using radial grid of 1095 points,  4 beta functions with:
                l(1) =   0
                l(2) =   0
                l(3) =   1
                l(4) =   1
     Q(r) pseudized with 0 coefficients

     atomic species   valence    mass     pseudopotential
        Rb             9.00    85.46780     Rb( 1.00)
        Se             6.00    78.97100     Se( 1.00)
        O              6.00    15.99900     O ( 1.00)

     No symmetry found

                                    s                        frac. trans.

      isym =  1     identity

 cryst.   s( 1) = (     1          0          0      )
                  (     0          1          0      )
                  (     0          0          1      )

 cart.    s( 1) = (  1.0000000  0.0000000 -0.0000000 )
                  (  0.0000000  1.0000000  0.0000000 )
                  (  0.0000000  0.0000000  1.0000000 )

   Cartesian axes

     site n.     atom                  positions (alat units)
         1           Rb  tau(   1) = (   0.5278736   0.8760174   0.6388586  )
         2           Rb  tau(   2) = (   0.5312310   0.8775364   1.2849235  )
         3           Rb  tau(   3) = (  -0.0060133   0.5664755   0.3210419  )
         4           Rb  tau(   4) = (   0.5057472   0.2609312   0.9671054  )
         5           Se  tau(   5) = (   0.0367242   0.5959726   0.9615247  )
         6           Se  tau(   6) = (   0.5088241   0.3072887   0.3154612  )
         7           O   tau(   7) = (   0.0192223   0.3338812   0.9441237  )
         8           O   tau(   8) = (   0.2928176   0.6590933   0.9727533  )
         9           O   tau(   9) = (  -0.0817908   0.6847924   1.1755527  )
        10           O   tau(  10) = (  -0.0681410   0.7119454   0.7523139  )
        11           O   tau(  11) = (   0.6602772   0.2684514   0.1062503  )
        12           O   tau(  12) = (   0.6425975   0.2437323   0.5294891  )
        13           O   tau(  13) = (   0.2849969   0.1698129   0.2980601  )
        14           O   tau(  14) = (   0.4454977   0.5633314   0.3266898  )

   Crystallographic axes

     site n.     atom                  positions (cryst. coord.)
         1           Rb  tau(   1) = (  0.9856320  0.9868520  0.4944240  )
         2           Rb  tau(   2) = (  0.9868520  0.9856320  0.9944250  )
         3           Rb  tau(   3) = (  0.2904140  0.6385650  0.2484600  )
         4           Rb  tau(   4) = (  0.6385650  0.2904140  0.7484600  )
         5           Se  tau(   5) = (  0.3457520  0.6689810  0.7441410  )
         6           Se  tau(   6) = (  0.6689810  0.3457520  0.2441410  )
         7           O   tau(   7) = (  0.1905060  0.3729400  0.7306740  )
         8           O   tau(   8) = (  0.6349870  0.7402460  0.7528310  )
         9           O   tau(   9) = (  0.2729710  0.7683600  0.9097810  )
        10           O   tau(  10) = (  0.3028230  0.8009620  0.5822290  )
        11           O   tau(  11) = (  0.8009620  0.3028230  0.0822290  )
        12           O   tau(  12) = (  0.7683600  0.2729710  0.4097810  )
        13           O   tau(  13) = (  0.3729400  0.1905060  0.2306740  )
        14           O   tau(  14) = (  0.7402460  0.6349870  0.2528310  )

     number of k points=    14
                       cart. coord. in units 2pi/alat
        k(    1) = (   0.0000000   0.0000000   0.0000000), wk =   0.0740741
        k(    2) = (   0.0000000   0.0000000   0.2579726), wk =   0.1481481
        k(    3) = (   0.0000000   0.3766118  -0.0015149), wk =   0.1481481
        k(    4) = (   0.0000000   0.3766118   0.2564576), wk =   0.1481481
        k(    5) = (   0.0000000   0.3766118  -0.2594875), wk =   0.1481481
        k(    6) = (   0.3333333   0.1752864  -0.0015149), wk =   0.1481481
        k(    7) = (   0.3333333   0.1752864   0.2564576), wk =   0.1481481
        k(    8) = (   0.3333333   0.1752864  -0.2594875), wk =   0.1481481
        k(    9) = (   0.3333333   0.5518982  -0.0030299), wk =   0.1481481
        k(   10) = (   0.3333333   0.5518982   0.2549427), wk =   0.1481481
        k(   11) = (   0.3333333   0.5518982  -0.2610024), wk =   0.1481481
        k(   12) = (   0.3333333  -0.2013254  -0.0000000), wk =   0.1481481
        k(   13) = (   0.3333333  -0.2013254   0.2579726), wk =   0.1481481
        k(   14) = (   0.3333333  -0.2013254  -0.2579726), wk =   0.1481481

                       cryst. coord.
        k(    1) = (   0.0000000   0.0000000   0.0000000), wk =   0.0740741
        k(    2) = (   0.0000000   0.0000000   0.3333333), wk =   0.1481481
        k(    3) = (   0.0000000   0.3333333   0.0000000), wk =   0.1481481
        k(    4) = (   0.0000000   0.3333333   0.3333333), wk =   0.1481481
        k(    5) = (   0.0000000   0.3333333  -0.3333333), wk =   0.1481481
        k(    6) = (   0.3333333   0.0000000   0.0000000), wk =   0.1481481
        k(    7) = (   0.3333333   0.0000000   0.3333333), wk =   0.1481481
        k(    8) = (   0.3333333   0.0000000  -0.3333333), wk =   0.1481481
        k(    9) = (   0.3333333   0.3333333  -0.0000000), wk =   0.1481481
        k(   10) = (   0.3333333   0.3333333   0.3333333), wk =   0.1481481
        k(   11) = (   0.3333333   0.3333333  -0.3333333), wk =   0.1481481
        k(   12) = (   0.3333333  -0.3333333  -0.0000000), wk =   0.1481481
        k(   13) = (   0.3333333  -0.3333333   0.3333333), wk =   0.1481481
        k(   14) = (   0.3333333  -0.3333333  -0.3333333), wk =   0.1481481

     Check: negative core charge=   -0.000008

     Initial potential from superposition of free atoms

     starting charge      95.9008, renormalised to      96.0000
     Starting wfcs are   60 randomized atomic wfcs +    4 random wfcs
     Checking if some PAW data can be deallocated...

     Self-consistent Calculation

     iteration #  1     ecut=    30.00 Ry     beta= 0.70
     Davidson diagonalization with overlap

     ethr =  1.00E-02,  avg # of iterations =  5.5

     total energy              =    -614.52149729 Ry
     estimated scf accuracy    <       3.15758183 Ry

[...]

     total energy              =    -616.02667087 Ry
     estimated scf accuracy    <       0.00000509 Ry

     iteration #  9     ecut=    30.00 Ry     beta= 0.70
     Davidson diagonalization with overlap

     ethr =  3.43E-09,  avg # of iterations =  2.0

     End of self-consistent calculation

          k = 0.0000 0.0000 0.0000 (  5655 PWs)   bands (ev):

   -22.0991 -22.0889 -22.0006 -21.9847 -18.1529 -18.1502 -14.9126 -14.9046
   -14.8770 -14.8401 -14.7947 -14.7802  -7.0812  -6.6972  -6.4391  -6.3247
    -6.2907  -6.2645  -6.2086  -6.1668  -6.1312  -6.1245  -6.0659  -6.0168
    -6.0011  -5.7487  -2.4746  -2.4228  -2.3590  -2.3035  -2.2843  -2.2216
     0.6497   0.7214   0.7298   0.7819   0.8511   0.9445   1.0302   1.1040
     1.1693   1.2120   1.9558   2.0354   2.0459   2.0572   2.1472   2.1752
     5.7897   7.0821   8.7543   9.1872   9.3363   9.3580   9.4827   9.7486
     9.7824   9.9565  10.0178  10.0978  10.3133  10.8030  10.8918  11.2053

     occupation numbers
     1.0000   1.0000   1.0000   1.0000   1.0000   1.0000   1.0000   1.0000
     1.0000   1.0000   1.0000   1.0000   1.0000   1.0000   1.0000   1.0000
     1.0000   1.0000   1.0000   1.0000   1.0000   1.0000   1.0000   1.0000
     1.0000   1.0000   1.0000   1.0000   1.0000   1.0000   1.0000   1.0000
     1.0000   1.0000   1.0000   1.0000   1.0000   1.0000   1.0000   1.0000
     1.0000   1.0000   1.0000   1.0000   1.0000   1.0000   1.0000   1.0000
     0.0000   0.0000   0.0000   0.0000   0.0000   0.0000   0.0000   0.0000
     0.0000   0.0000   0.0000   0.0000   0.0000   0.0000   0.0000   0.0000

[...]

          k = 0.3333-0.2013-0.2580 (  5629 PWs)   bands (ev):

   -22.0914 -22.0892 -21.9996 -21.9896 -18.1609 -18.1549 -14.9115 -14.9089
   -14.8674 -14.8442 -14.7891 -14.7849  -7.0588  -6.9134  -6.3135  -6.3004
    -6.2721  -6.2636  -6.2014  -6.1787  -6.1093  -6.0834  -6.0592  -6.0490
    -5.8387  -5.7104  -2.4410  -2.4191  -2.3786  -2.3647  -2.3101  -2.2441
     0.6552   0.7054   0.7323   0.7490   0.8146   0.8663   1.0060   1.0346
     1.0779   1.1227   1.9909   1.9976   2.0185   2.0335   2.0895   2.1538
     6.6823   6.9271   8.7506   8.9635   9.0891   9.2716   9.6734   9.7575
     9.8261   9.9099  10.1043  10.4282  10.6116  10.7464  11.0362  11.2255

     occupation numbers
     1.0000   1.0000   1.0000   1.0000   1.0000   1.0000   1.0000   1.0000
     1.0000   1.0000   1.0000   1.0000   1.0000   1.0000   1.0000   1.0000
     1.0000   1.0000   1.0000   1.0000   1.0000   1.0000   1.0000   1.0000
     1.0000   1.0000   1.0000   1.0000   1.0000   1.0000   1.0000   1.0000
     1.0000   1.0000   1.0000   1.0000   1.0000   1.0000   1.0000   1.0000
     1.0000   1.0000   1.0000   1.0000   1.0000   1.0000   1.0000   1.0000
     0.0000   0.0000   0.0000   0.0000   0.0000   0.0000   0.0000   0.0000
     0.0000   0.0000   0.0000   0.0000   0.0000   0.0000   0.0000   0.0000

     highest occupied, lowest unoccupied level (ev):     2.1847    5.7897

!    total energy              =    -616.02667138 Ry
     estimated scf accuracy    <       0.00000044 Ry

     The total energy is the sum of the following terms:
     one-electron contribution =    -214.50575269 Ry
     hartree contribution      =     149.26265886 Ry
     xc contribution           =    -149.09710189 Ry
     ewald contribution        =    -325.42116600 Ry
     one-center paw contrib.   =     -76.26530966 Ry
      -> PAW hartree energy AE =       0.00000000 Ry
      -> PAW hartree energy PS =       0.00000000 Ry
      -> PAW xc energy AE      =       0.00000000 Ry
      -> PAW xc energy PS      =       0.00000000 Ry
      -> total E_H with PAW    =     149.26265886 Ry
      -> total E_XC with PAW   =    -149.09710189 Ry

     convergence has been achieved in   9 iterations

     Writing all to output data dir bands_nm/myprefix.save/

     General routines

     Parallel routines

     PAW routines

   This run was terminated on:   8:10:58  13Jul2023

   JOB DONE.