     Program PWSCF v.7.1 starts on 17Jul2023 at  1:40:51

     Reading input from espresso_9644.pwi
Warning: card &CELL ignored
Warning: card / ignored

     Current dimensions of program PWSCF are:
     Max number of different atomic species (ntypx) = 10
     Max number of k-points (npk) =  40000
     Max angular momentum in pseudopotentials (lmaxx) =  4
     file O.pbe-n-kjpaw_psl.0.1.UPF: wavefunction(s)  2P renormalized
     Message from routine setup:
     using ibrav=0 with symmetry is DISCOURAGED, use correct ibrav instead

     K-points division:     npool     =       2
     R & G space division:  proc/nbgrp/npool/nimage =       4
     Subspace diagonalization in iterative solution of the eigenvalue problem:
     one sub-group per band group will be used

     Using Slab Decomposition

     bravais-lattice index     =            0
     lattice parameter (alat)  =      15.6402  a.u.
     unit-cell volume          =    2305.2034 (a.u.)^3
     number of atoms/cell      =           20
     number of atomic types    =            2
     number of electrons       =       192.00
     number of Kohn-Sham states=          256
     kinetic-energy cutoff     =      30.0000  Ry
     charge density cutoff     =     240.0000  Ry
     scf convergence threshold =      1.0E-06
     mixing beta               =       0.7000
     number of iterations used =            8  plain     mixing
     Exchange-correlation= SLA  PW   PBX  PBC
                           (   1   4   3   4   0   0   0)

     celldm(1)=  15.640218  celldm(2)=   0.000000  celldm(3)=   0.000000
     celldm(4)=   0.000000  celldm(5)=   0.000000  celldm(6)=   0.000000

     crystal axes: (cart. coord. in units of alat)
               a(1) = (   1.000000   0.000000   0.000000 )
               a(2) = (   0.000000   0.716896   0.000000 )
               a(3) = (   0.000000   0.347653   0.840475 )

     reciprocal axes: (cart. coord. in units 2 pi/alat)
               b(1) = (  1.000000  0.000000  0.000000 )
               b(2) = (  0.000000  1.394903 -0.576986 )
               b(3) = (  0.000000  0.000000  1.189803 )

     PseudoPot. # 1 for Bi read from file:
     /lustre07/scratch/pragov/crystal_structure_design/utils/SSSP/Bi_pbe_v1.uspp.F.UPF
     MD5 check sum: cceb9f28ec65b6d7ff33140f5b0b1758
     Pseudo is Ultrasoft + core correction, Zval = 15.0
     Generated by new atomic code, or converted to UPF format
     Using radial grid of  899 points,  6 beta functions with:
                l(1) =   0
                l(2) =   0
                l(3) =   1
                l(4) =   1
                l(5) =   2
                l(6) =   2
     Q(r) pseudized with  6 coefficients,  rinner =    1.000   1.000   1.000
                                                       1.000   1.000

     PseudoPot. # 2 for O  read from file:
     /lustre07/scratch/pragov/crystal_structure_design/utils/SSSP/O.pbe-n-kjpaw_psl.0.1.UPF
     MD5 check sum: 0234752ac141de4415c5fc33072bef88
     Pseudo is Projector augmented-wave + core cor, Zval =  6.0
     Generated using "atomic" code by A. Dal Corso  v.5.0.99 svn rev. 10869
     Shape of augmentation charge: BESSEL
     Using radial grid of 1095 points,  4 beta functions with:
                l(1) =   0
                l(2) =   0
                l(3) =   1
                l(4) =   1
     Q(r) pseudized with 0 coefficients

     atomic species   valence    mass     pseudopotential
        Bi            15.00   208.98040     Bi( 1.00)
        O              6.00    15.99900     O ( 1.00)

      4 Sym. Ops., with inversion, found ( 2 have fractional translation)

                                    s                        frac. trans.

      isym =  1     identity

 cryst.   s( 1) = (     1          0          0      )
                  (     0          1          0      )
                  (     0          0          1      )

 cart.    s( 1) = (  1.0000000  0.0000000  0.0000000 )
                  (  0.0000000  1.0000000 -0.0000000 )
                  (  0.0000000  0.0000000  1.0000000 )

      isym =  2     180 deg rotation - cart. axis [1,0,0]

 cryst.   s( 2) = (     1          0          0      )    f =(  0.5000000 )
                  (     0         -1          0      )       (  0.0000000 )
                  (     0          0         -1      )       (  0.5000000 )

 cart.    s( 2) = (  1.0000000  0.0000000  0.0000000 )    f =(  0.5000000 )
                  (  0.0000000 -1.0000000  0.0000000 )       (  0.1738265 )
                  (  0.0000000  0.0000000 -1.0000000 )       (  0.4202376 )

      isym =  3     inversion

 cryst.   s( 3) = (    -1          0          0      )
                  (     0         -1          0      )
                  (     0          0         -1      )

 cart.    s( 3) = ( -1.0000000  0.0000000  0.0000000 )
                  (  0.0000000 -1.0000000  0.0000000 )
                  (  0.0000000  0.0000000 -1.0000000 )

      isym =  4     inv. 180 deg rotation - cart. axis [1,0,0]

 cryst.   s( 4) = (    -1          0          0      )    f =(  0.5000000 )
                  (     0          1          0      )       ( -0.0000000 )
                  (     0          0          1      )       (  0.5000000 )

 cart.    s( 4) = ( -1.0000000  0.0000000  0.0000000 )    f =(  0.5000000 )
                  (  0.0000000  1.0000000 -0.0000000 )       (  0.1738265 )
                  (  0.0000000  0.0000000  1.0000000 )       (  0.4202376 )

   Cartesian axes

     site n.     atom                  positions (alat units)
         1           Bi  tau(   1) = (   0.5413010   0.2798050   0.6076837  )
         2           Bi  tau(   2) = (   0.0413010   0.9585701   0.6530290  )
         3           Bi  tau(   3) = (   0.4586990   0.7847436   0.2327914  )
         4           Bi  tau(   4) = (   0.9586990   0.1059785   0.1874461  )
         5           Bi  tau(   5) = (   0.6832410   0.4224029   0.1128540  )
         6           Bi  tau(   6) = (   0.1832410   0.4683192   0.3073836  )
         7           Bi  tau(   7) = (   0.3167590   0.6421457   0.7276212  )
         8           Bi  tau(   8) = (   0.8167590   0.5962294   0.5330915  )
         9           O   tau(   9) = (   0.5331050   0.5365324   0.8304811  )
        10           O   tau(  10) = (   0.0331050   0.7018427   0.4302317  )
        11           O   tau(  11) = (   0.4668950   0.5280162   0.0099941  )
        12           O   tau(  12) = (   0.9668950   0.3627059   0.4102435  )
        13           O   tau(  13) = (   0.5498620   0.3005578   0.3166213  )
        14           O   tau(  14) = (   0.0498620   0.5901644   0.1036163  )
        15           O   tau(  15) = (   0.4501380   0.7639908   0.5238539  )
        16           O   tau(  16) = (   0.9501380   0.4743842   0.7368588  )
        17           O   tau(  17) = (   0.7017970   0.6598359   0.2473703  )
        18           O   tau(  18) = (   0.2017970   0.2308862   0.1728672  )
        19           O   tau(  19) = (   0.2982030   0.4047127   0.5931048  )
        20           O   tau(  20) = (   0.7982030   0.8336624   0.6676079  )

   Crystallographic axes

     site n.     atom                  positions (cryst. coord.)
         1           Bi  tau(   1) = (  0.5413010  0.0396760  0.7230240  )
         2           Bi  tau(   2) = (  0.0413010  0.9603240  0.7769760  )
         3           Bi  tau(   3) = (  0.4586990  0.9603240  0.2769760  )
         4           Bi  tau(   4) = (  0.9586990  0.0396760  0.2230240  )
         5           Bi  tau(   5) = (  0.6832410  0.5240960  0.1342740  )
         6           Bi  tau(   6) = (  0.1832410  0.4759040  0.3657260  )
         7           Bi  tau(   7) = (  0.3167590  0.4759040  0.8657260  )
         8           Bi  tau(   8) = (  0.8167590  0.5240960  0.6342740  )
         9           O   tau(   9) = (  0.5331050  0.2692350  0.9881090  )
        10           O   tau(  10) = (  0.0331050  0.7307650  0.5118910  )
        11           O   tau(  11) = (  0.4668950  0.7307650  0.0118910  )
        12           O   tau(  12) = (  0.9668950  0.2692350  0.4881090  )
        13           O   tau(  13) = (  0.5498620  0.2365630  0.3767170  )
        14           O   tau(  14) = (  0.0498620  0.7634370  0.1232830  )
        15           O   tau(  15) = (  0.4501380  0.7634370  0.6232830  )
        16           O   tau(  16) = (  0.9501380  0.2365630  0.8767170  )
        17           O   tau(  17) = (  0.7017970  0.7776780  0.2943220  )
        18           O   tau(  18) = (  0.2017970  0.2223220  0.2056780  )
        19           O   tau(  19) = (  0.2982030  0.2223220  0.7056780  )
        20           O   tau(  20) = (  0.7982030  0.7776780  0.7943220  )

     number of k points=    10
                       cart. coord. in units 2pi/alat
        k(    1) = (   0.0000000   0.0000000   0.0000000), wk =   0.0740741
        k(    2) = (   0.0000000   0.0000000   0.3966011), wk =   0.1481481
        k(    3) = (   0.0000000   0.4649677  -0.1923286), wk =   0.1481481
        k(    4) = (   0.0000000   0.4649677   0.2042725), wk =   0.1481481
        k(    5) = (   0.0000000   0.4649677  -0.5889296), wk =   0.1481481
        k(    6) = (   0.3333333   0.0000000   0.0000000), wk =   0.1481481
        k(    7) = (   0.3333333   0.0000000   0.3966011), wk =   0.2962963
        k(    8) = (   0.3333333   0.4649677  -0.1923286), wk =   0.2962963
        k(    9) = (   0.3333333   0.4649677   0.2042725), wk =   0.2962963
        k(   10) = (   0.3333333   0.4649677  -0.5889296), wk =   0.2962963

                       cryst. coord.
        k(    1) = (   0.0000000   0.0000000   0.0000000), wk =   0.0740741
        k(    2) = (   0.0000000   0.0000000   0.3333333), wk =   0.1481481
        k(    3) = (   0.0000000   0.3333333   0.0000000), wk =   0.1481481
        k(    4) = (   0.0000000   0.3333333   0.3333333), wk =   0.1481481
        k(    5) = (   0.0000000   0.3333333  -0.3333333), wk =   0.1481481
        k(    6) = (   0.3333333   0.0000000   0.0000000), wk =   0.1481481
        k(    7) = (   0.3333333   0.0000000   0.3333333), wk =   0.2962963
        k(    8) = (   0.3333333   0.3333333   0.0000000), wk =   0.2962963
        k(    9) = (   0.3333333   0.3333333   0.3333333), wk =   0.2962963
        k(   10) = (   0.3333333   0.3333333  -0.3333333), wk =   0.2962963

     Check: negative core charge=   -0.000010

     Initial potential from superposition of free atoms

     starting charge     183.9996, renormalised to     192.0000

     negative rho (up, down):  3.452E-01 0.000E+00
     Starting wfcs are  120 randomized atomic wfcs +  136 random wfcs
     Checking if some PAW data can be deallocated...

     Self-consistent Calculation

     iteration #  1     ecut=    30.00 Ry     beta= 0.70
     Davidson diagonalization with overlap

     ethr =  1.00E-02,  avg # of iterations =  6.0

     negative rho (up, down):  3.094E-01 0.000E+00

     total energy              =   -1979.20537653 Ry
     estimated scf accuracy    <       5.11797379 Ry

[...]

     total energy              =   -1981.45978418 Ry
     estimated scf accuracy    <       0.00002713 Ry

     iteration #  9     ecut=    30.00 Ry     beta= 0.70
     Davidson diagonalization with overlap

     ethr =  1.41E-08,  avg # of iterations =  1.0

     negative rho (up, down):  3.260E-01 0.000E+00

     End of self-consistent calculation

          k = 0.0000 0.0000 0.0000 (  6397 PWs)   bands (ev):

   -13.2398 -13.2082 -13.1936 -13.1926 -13.1791 -13.1616 -13.1613 -13.1275
   -13.0567 -13.0464 -13.0349 -13.0346 -13.0190 -13.0138 -13.0135 -13.0084
   -13.0030 -13.0024 -12.9976 -12.9974 -12.9810 -12.9728 -12.9713 -12.9631
   -12.9452 -12.9318 -12.9194 -12.9181 -12.9118 -12.9078 -12.9048 -12.9015
   -12.8971 -12.8930 -12.8893 -12.8802 -12.8724 -12.8686 -12.8622 -12.8570
    -9.3516  -8.8802  -8.1893  -8.0546  -7.9087  -7.7699  -7.7672  -7.6378
    -7.6093  -7.3697  -7.2984  -7.2842  -1.0072  -0.9925  -0.8281  -0.6796
    -0.1896  -0.1479   0.8645   1.4868   4.0382   4.3653   4.7609   4.8276
     4.9475   5.1498   5.1599   5.4316   5.4781   5.6109   5.8349   6.0774
     6.1871   6.4834   6.5351   6.5402   6.7131   6.7253   6.8508   6.9378
     7.0677   7.1948   7.2786   7.4655   7.5450   7.5494   7.7044   7.8981
     7.9000   8.2799   8.2825   8.3153   8.5164   8.5248   8.5859   8.6667
    11.1760  11.5371  12.4448  12.8732  12.9282  12.9525  13.4007  13.4071
    13.9435  14.1387  14.1446  14.1661  14.2207  14.3319  14.5854  14.8067
    14.9429  15.3911  15.3920  15.4004  15.8040  15.9904  16.1359  16.2108
    18.0165  18.1674  18.5309  18.9782  19.1385  19.2783  19.5904  19.8622
    19.9874  20.1853  20.3797  20.5511  20.6141  21.0289  21.1040  21.3087
    21.5655  22.0086  22.4616  22.5407  22.8843  23.0914  23.4457  23.5726
    23.5754  24.1221  24.2080  24.2106  24.3532  24.6316  24.6621  24.8929
    24.9928  25.1066  25.5091  25.6567  25.8557  25.9652  26.1916  26.3649
    26.5460  26.5491  26.6541  26.8079  27.1585  27.2591  27.2767  27.5074
    27.8186  27.8355  27.9385  28.2204  28.2205  28.4815  28.6072  28.9505
    29.0548  29.1187  29.1355  29.1579  29.2301  29.3801  29.5859  29.6126
    29.6304  29.7810  30.3244  30.3543  30.5615  30.7996  30.8539  30.8875
    31.0777  31.1318  31.1956  31.3117  31.6986  31.9111  31.9590  32.0795
    32.1203  32.3714  32.4892  32.5033  32.7485  32.9059  33.0874  33.1330
    33.4660  33.5661  33.7624  33.7996  34.1179  34.1482  34.2180  34.2368
    34.4021  34.5145  34.5483  34.8524  34.9832  35.0015  35.2645  35.2686
    35.5276  35.5951  35.7443  35.8295  35.8309  35.8390  35.8661  35.9339
    35.9576  35.9608  35.9725  36.1639  36.1747  36.2041  36.3406  36.6443
    36.6834  36.7709  36.8141  37.0592  37.2182  37.4216  37.4618  37.5419
    37.7403  37.8158  37.9549  38.0231  38.0387  38.2337  38.2487  38.6182

     occupation numbers
     1.0000   1.0000   1.0000   1.0000   1.0000   1.0000   1.0000   1.0000
     1.0000   1.0000   1.0000   1.0000   1.0000   1.0000   1.0000   1.0000
     1.0000   1.0000   1.0000   1.0000   1.0000   1.0000   1.0000   1.0000
     1.0000   1.0000   1.0000   1.0000   1.0000   1.0000   1.0000   1.0000
     1.0000   1.0000   1.0000   1.0000   1.0000   1.0000   1.0000   1.0000
     1.0000   1.0000   1.0000   1.0000   1.0000   1.0000   1.0000   1.0000
     1.0000   1.0000   1.0000   1.0000   1.0000   1.0000   1.0000   1.0000
     1.0000   1.0000   1.0000   1.0000   1.0000   1.0000   1.0000   1.0000
     1.0000   1.0000   1.0000   1.0000   1.0000   1.0000   1.0000   1.0000
     1.0000   1.0000   1.0000   1.0000   1.0000   1.0000   1.0000   1.0000
     1.0000   1.0000   1.0000   1.0000   1.0000   1.0000   1.0000   1.0000
     1.0000   1.0000   1.0000   1.0000   1.0000   1.0000   1.0000   1.0000
     0.0000   0.0000   0.0000   0.0000   0.0000   0.0000   0.0000   0.0000
     0.0000   0.0000   0.0000   0.0000   0.0000   0.0000   0.0000   0.0000
     0.0000   0.0000   0.0000   0.0000   0.0000   0.0000   0.0000   0.0000
     0.0000   0.0000   0.0000   0.0000   0.0000   0.0000   0.0000   0.0000
     0.0000   0.0000   0.0000   0.0000   0.0000   0.0000   0.0000   0.0000
     0.0000   0.0000   0.0000   0.0000   0.0000   0.0000   0.0000   0.0000
     0.0000   0.0000   0.0000   0.0000   0.0000   0.0000   0.0000   0.0000
     0.0000   0.0000   0.0000   0.0000   0.0000   0.0000   0.0000   0.0000
     0.0000   0.0000   0.0000   0.0000   0.0000   0.0000   0.0000   0.0000
     0.0000   0.0000   0.0000   0.0000   0.0000   0.0000   0.0000   0.0000
     0.0000   0.0000   0.0000   0.0000   0.0000   0.0000   0.0000   0.0000
     0.0000   0.0000   0.0000   0.0000   0.0000   0.0000   0.0000   0.0000
     0.0000   0.0000   0.0000   0.0000   0.0000   0.0000   0.0000   0.0000
     0.0000   0.0000   0.0000   0.0000   0.0000   0.0000   0.0000   0.0000
     0.0000   0.0000   0.0000   0.0000   0.0000   0.0000   0.0000   0.0000
     0.0000   0.0000   0.0000   0.0000   0.0000   0.0000   0.0000   0.0000
     0.0000   0.0000   0.0000   0.0000   0.0000   0.0000   0.0000   0.0000
     0.0000   0.0000   0.0000   0.0000   0.0000   0.0000   0.0000   0.0000
     0.0000   0.0000   0.0000   0.0000   0.0000   0.0000   0.0000   0.0000
     0.0000   0.0000   0.0000   0.0000   0.0000   0.0000   0.0000   0.0000

[...]

          k = 0.3333 0.4650-0.5889 (  6394 PWs)   bands (ev):

   -13.2356 -13.2282 -13.2233 -13.2094 -13.1617 -13.1576 -13.1174 -13.1091
   -13.0506 -13.0436 -13.0367 -13.0334 -13.0232 -13.0156 -13.0116 -13.0092
   -12.9991 -12.9978 -12.9939 -12.9922 -12.9894 -12.9833 -12.9671 -12.9657
   -12.9426 -12.9383 -12.9278 -12.9229 -12.9092 -12.9054 -12.9022 -12.8996
   -12.8937 -12.8923 -12.8842 -12.8814 -12.8779 -12.8748 -12.8700 -12.8671
    -8.7772  -8.7349  -8.5580  -8.4278  -8.1567  -8.0390  -7.6893  -7.5653
    -7.3908  -7.3371  -7.3080  -7.2851  -0.9585  -0.8973  -0.4959  -0.2906
    -0.1231   0.1934   0.4660   0.5595   4.1755   4.3870   4.6088   4.7470
     4.9047   5.0691   5.3860   5.4235   5.5603   5.7462   5.8464   6.0423
     6.1548   6.3655   6.3895   6.4744   6.7542   6.8035   6.9341   6.9894
     7.1314   7.3100   7.3659   7.4535   7.5392   7.6091   7.6680   7.7337
     8.1186   8.2524   8.2596   8.3129   8.4500   8.4877   8.7919   8.8124
    11.4370  11.7781  12.0589  12.3907  12.7955  13.1349  13.2596  13.3391
    13.5913  13.8457  14.0283  14.1875  14.5030  14.6726  14.8697  15.0305
    15.0882  15.1406  15.2435  15.3859  15.7071  15.8229  16.1974  16.4039
    18.0168  18.1017  18.7466  18.7578  18.9508  19.2441  19.5713  19.6483
    19.7705  20.1034  20.4052  20.7659  21.1690  21.2865  21.5236  21.6867
    21.8864  22.0535  22.1390  22.3009  22.5361  22.6372  22.6949  23.2141
    23.4651  23.5295  23.6589  23.8503  24.2411  24.5935  24.6847  24.8908
    25.0792  25.1572  25.2189  25.6988  25.9625  26.0186  26.1667  26.3874
    26.6380  26.7250  26.9166  27.0192  27.2660  27.3169  27.6065  27.6331
    27.7912  27.9785  28.0911  28.1493  28.3525  28.4034  28.6277  28.8182
    28.9760  29.1488  29.2251  29.3159  29.4439  29.7129  29.8454  30.0426
    30.1066  30.2611  30.3289  30.4485  30.5784  30.7224  30.9091  31.0240
    31.1334  31.2861  31.4778  31.4957  31.6915  32.0175  32.1986  32.3508
    32.4621  32.6141  32.7223  32.8003  33.0121  33.1154  33.2766  33.4673
    33.5071  33.6595  33.8578  33.8990  33.9838  34.1556  34.2613  34.4860
    34.5586  34.7499  34.8981  34.9539  35.1186  35.2517  35.3282  35.5265
    35.5496  35.7301  35.7525  35.8346  35.8405  35.8491  35.8519  35.8601
    35.9460  35.9610  35.9637  35.9689  35.9779  36.0565  36.2942  36.3301
    36.4120  36.6161  36.6804  36.8312  36.9348  36.9965  37.1030  37.2776
    37.5069  37.5293  37.6857  37.7623  38.0062  38.1672  38.3169  38.4214

     occupation numbers
     1.0000   1.0000   1.0000   1.0000   1.0000   1.0000   1.0000   1.0000
     1.0000   1.0000   1.0000   1.0000   1.0000   1.0000   1.0000   1.0000
     1.0000   1.0000   1.0000   1.0000   1.0000   1.0000   1.0000   1.0000
     1.0000   1.0000   1.0000   1.0000   1.0000   1.0000   1.0000   1.0000
     1.0000   1.0000   1.0000   1.0000   1.0000   1.0000   1.0000   1.0000
     1.0000   1.0000   1.0000   1.0000   1.0000   1.0000   1.0000   1.0000
     1.0000   1.0000   1.0000   1.0000   1.0000   1.0000   1.0000   1.0000
     1.0000   1.0000   1.0000   1.0000   1.0000   1.0000   1.0000   1.0000
     1.0000   1.0000   1.0000   1.0000   1.0000   1.0000   1.0000   1.0000
     1.0000   1.0000   1.0000   1.0000   1.0000   1.0000   1.0000   1.0000
     1.0000   1.0000   1.0000   1.0000   1.0000   1.0000   1.0000   1.0000
     1.0000   1.0000   1.0000   1.0000   1.0000   1.0000   1.0000   1.0000
     0.0000   0.0000   0.0000   0.0000   0.0000   0.0000   0.0000   0.0000
     0.0000   0.0000   0.0000   0.0000   0.0000   0.0000   0.0000   0.0000
     0.0000   0.0000   0.0000   0.0000   0.0000   0.0000   0.0000   0.0000
     0.0000   0.0000   0.0000   0.0000   0.0000   0.0000   0.0000   0.0000
     0.0000   0.0000   0.0000   0.0000   0.0000   0.0000   0.0000   0.0000
     0.0000   0.0000   0.0000   0.0000   0.0000   0.0000   0.0000   0.0000
     0.0000   0.0000   0.0000   0.0000   0.0000   0.0000   0.0000   0.0000
     0.0000   0.0000   0.0000   0.0000   0.0000   0.0000   0.0000   0.0000
     0.0000   0.0000   0.0000   0.0000   0.0000   0.0000   0.0000   0.0000
     0.0000   0.0000   0.0000   0.0000   0.0000   0.0000   0.0000   0.0000
     0.0000   0.0000   0.0000   0.0000   0.0000   0.0000   0.0000   0.0000
     0.0000   0.0000   0.0000   0.0000   0.0000   0.0000   0.0000   0.0000
     0.0000   0.0000   0.0000   0.0000   0.0000   0.0000   0.0000   0.0000
     0.0000   0.0000   0.0000   0.0000   0.0000   0.0000   0.0000   0.0000
     0.0000   0.0000   0.0000   0.0000   0.0000   0.0000   0.0000   0.0000
     0.0000   0.0000   0.0000   0.0000   0.0000   0.0000   0.0000   0.0000
     0.0000   0.0000   0.0000   0.0000   0.0000   0.0000   0.0000   0.0000
     0.0000   0.0000   0.0000   0.0000   0.0000   0.0000   0.0000   0.0000
     0.0000   0.0000   0.0000   0.0000   0.0000   0.0000   0.0000   0.0000
     0.0000   0.0000   0.0000   0.0000   0.0000   0.0000   0.0000   0.0000

     highest occupied, lowest unoccupied level (ev):     8.8833   11.1760

!    total energy              =   -1981.45978894 Ry
     estimated scf accuracy    <       0.00000096 Ry

     The total energy is the sum of the following terms:
     one-electron contribution =    -484.82336732 Ry
     hartree contribution      =     375.94183106 Ry
     xc contribution           =    -606.27295804 Ry
     ewald contribution        =   -1151.91461858 Ry
     one-center paw contrib.   =    -114.39067604 Ry
      -> PAW hartree energy AE =       0.00000000 Ry
      -> PAW hartree energy PS =       0.00000000 Ry
      -> PAW xc energy AE      =       0.00000000 Ry
      -> PAW xc energy PS      =       0.00000000 Ry
      -> total E_H with PAW    =     375.94183106 Ry
      -> total E_XC with PAW   =    -606.27295804 Ry

     convergence has been achieved in   9 iterations

     Writing all to output data dir bands_nm/myprefix.save/

     General routines

     Parallel routines

     PAW routines

   This run was terminated on:   1:41:48  17Jul2023

   JOB DONE.