     Program PWSCF v.7.1 starts on 13Jul2023 at  5: 0:42

     Reading input from espresso_7964.pwi
Warning: card &CELL ignored
Warning: card / ignored

     Current dimensions of program PWSCF are:
     Max number of different atomic species (ntypx) = 10
     Max number of k-points (npk) =  40000
     Max angular momentum in pseudopotentials (lmaxx) =  4
     file O.pbe-n-kjpaw_psl.0.1.UPF: wavefunction(s)  2P renormalized

     K-points division:     npool     =       2
     R & G space division:  proc/nbgrp/npool/nimage =       8
     Subspace diagonalization in iterative solution of the eigenvalue problem:
     a serial algorithm will be used

     Using Slab Decomposition

     bravais-lattice index     =            0
     lattice parameter (alat)  =      11.1580  a.u.
     unit-cell volume          =     964.5464 (a.u.)^3
     number of atoms/cell      =           13
     number of atomic types    =            4
     number of electrons       =       110.00
     number of Kohn-Sham states=           64
     kinetic-energy cutoff     =      30.0000  Ry
     charge density cutoff     =     240.0000  Ry
     scf convergence threshold =      1.0E-06
     mixing beta               =       0.7000
     number of iterations used =            8  plain     mixing
     Exchange-correlation= SLA  PW   PBX  PBC
                           (   1   4   3   4   0   0   0)

     celldm(1)=  11.157979  celldm(2)=   0.000000  celldm(3)=   0.000000
     celldm(4)=   0.000000  celldm(5)=   0.000000  celldm(6)=   0.000000

     crystal axes: (cart. coord. in units of alat)
               a(1) = (   1.000000   0.000000   0.000000 )
               a(2) = (   0.511939   0.859022   0.000000 )
               a(3) = (   0.511939   0.290863   0.808281 )

     reciprocal axes: (cart. coord. in units 2 pi/alat)
               b(1) = (  1.000000 -0.595955 -0.418911 )
               b(2) = (  0.000000  1.164115 -0.418911 )
               b(3) = (  0.000000  0.000000  1.237194 )

     PseudoPot. # 1 for Li read from file:
     /lustre07/scratch/pragov/crystal_structure_design/utils/SSSP/li_pbe_v1.4.uspp.F.UPF
     MD5 check sum: e912e257baa3777c20ea3d68f190483c
     Pseudo is Ultrasoft, Zval =  3.0
     Generated by new atomic code, or converted to UPF format
     Using radial grid of  751 points,  5 beta functions with:
                l(1) =   0
                l(2) =   0
                l(3) =   0
                l(4) =   1
                l(5) =   1
     Q(r) pseudized with 10 coefficients,  rinner =    1.150   1.150   1.150

     PseudoPot. # 2 for Mn read from file:
     /lustre07/scratch/pragov/crystal_structure_design/utils/SSSP/mn_pbe_v1.5.uspp.F.UPF
     MD5 check sum: 82ef2b46521d7a7d9e736dc3972e4928
     Pseudo is Ultrasoft + core correction, Zval = 15.0
     Generated by new atomic code, or converted to UPF format
     Using radial grid of  859 points,  6 beta functions with:
                l(1) =   0
                l(2) =   0
                l(3) =   1
                l(4) =   1
                l(5) =   2
                l(6) =   2
     Q(r) pseudized with  8 coefficients,  rinner =    0.950   0.950   0.950
                                                       0.950   0.950

     PseudoPot. # 3 for Cr read from file:
     /lustre07/scratch/pragov/crystal_structure_design/utils/SSSP/cr_pbe_v1.5.uspp.F.UPF
     MD5 check sum: 0d52af634a40206e4dee301ad30da4bf
     Pseudo is Ultrasoft + core correction, Zval = 14.0
     Generated by new atomic code, or converted to UPF format
     Using radial grid of  857 points,  6 beta functions with:
                l(1) =   0
                l(2) =   0
                l(3) =   1
                l(4) =   1
                l(5) =   2
                l(6) =   2
     Q(r) pseudized with  8 coefficients,  rinner =    0.950   0.950   0.950
                                                       0.950   0.950

     PseudoPot. # 4 for O  read from file:
     /lustre07/scratch/pragov/crystal_structure_design/utils/SSSP/O.pbe-n-kjpaw_psl.0.1.UPF
     MD5 check sum: 0234752ac141de4415c5fc33072bef88
     Pseudo is Projector augmented-wave + core cor, Zval =  6.0
     Generated using "atomic" code by A. Dal Corso  v.5.0.99 svn rev. 10869
     Shape of augmentation charge: BESSEL
     Using radial grid of 1095 points,  4 beta functions with:
                l(1) =   0
                l(2) =   0
                l(3) =   1
                l(4) =   1
     Q(r) pseudized with 0 coefficients

     atomic species   valence    mass     pseudopotential
        Li             3.00     6.94000     Li( 1.00)
        Mn            15.00    54.93804     Mn( 1.00)
        Cr            14.00    51.99610     Cr( 1.00)
        O              6.00    15.99900     O ( 1.00)

     No symmetry found

                                    s                        frac. trans.

      isym =  1     identity

 cryst.   s( 1) = (     1          0          0      )
                  (     0          1          0      )
                  (     0          0          1      )

 cart.    s( 1) = (  1.0000000  0.0000000  0.0000000 )
                  (  0.0000000  1.0000000  0.0000000 )
                  (  0.0000000  0.0000000  1.0000000 )

   Cartesian axes

     site n.     atom                  positions (alat units)
         1           Li  tau(   1) = (   0.2490057   0.1414749   0.0994460  )
         2           Mn  tau(   2) = (   1.5100272   0.5759750   0.4048661  )
         3           Mn  tau(   3) = (   1.2678165   1.0022827   0.4048661  )
         4           Mn  tau(   4) = (   1.2678165   0.7203217   0.8059924  )
         5           Cr  tau(   5) = (   1.0134263   0.5757875   0.4047344  )
         6           O   tau(   6) = (   1.4878130   0.8453148   0.5941913  )
         7           O   tau(   7) = (   1.2705075   0.7218507   0.2386828  )
         8           O   tau(   8) = (   1.0533042   0.8512942   0.5983944  )
         9           O   tau(   9) = (   1.2705076   0.4690010   0.5983944  )
        10           O   tau(  10) = (   0.9747585   0.2983146   0.2096922  )
        11           O   tau(  11) = (   0.7552754   0.6846202   0.2096922  )
        12           O   tau(  12) = (   0.7552754   0.4291167   0.5731793  )
        13           O   tau(  13) = (   0.5326542   0.3026324   0.2127273  )

   Crystallographic axes

     site n.     atom                  positions (cryst. coord.)
         1           Li  tau(   1) = (  0.1230340  0.1230340  0.1230340  )
         2           Mn  tau(   2) = (  0.9971690  0.5008980  0.5008980  )
         3           Mn  tau(   3) = (  0.5008980  0.9971690  0.5008980  )
         4           Mn  tau(   4) = (  0.5008980  0.5008980  0.9971690  )
         5           Cr  tau(   5) = (  0.5007350  0.5007350  0.5007350  )
         6           O   tau(   6) = (  0.7351300  0.7351300  0.7351300  )
         7           O   tau(   7) = (  0.7403300  0.7403300  0.2952970  )
         8           O   tau(   8) = (  0.2952970  0.7403300  0.7403300  )
         9           O   tau(   9) = (  0.7403300  0.2952970  0.7403300  )
        10           O   tau(  10) = (  0.7091340  0.2594300  0.2594300  )
        11           O   tau(  11) = (  0.2594300  0.7091340  0.2594300  )
        12           O   tau(  12) = (  0.2594300  0.2594300  0.7091340  )
        13           O   tau(  13) = (  0.2631850  0.2631850  0.2631850  )

     number of k points=    14
                       cart. coord. in units 2pi/alat
        k(    1) = (   0.0000000   0.0000000   0.0000000), wk =   0.0740741
        k(    2) = (   0.0000000   0.0000000   0.4123980), wk =   0.1481481
        k(    3) = (   0.0000000   0.3880382  -0.1396370), wk =   0.1481481
        k(    4) = (   0.0000000   0.3880382   0.2727611), wk =   0.1481481
        k(    5) = (   0.0000000   0.3880382  -0.5520350), wk =   0.1481481
        k(    6) = (   0.3333333  -0.1986518  -0.1396370), wk =   0.1481481
        k(    7) = (   0.3333333  -0.1986518   0.2727611), wk =   0.1481481
        k(    8) = (   0.3333333  -0.1986518  -0.5520350), wk =   0.1481481
        k(    9) = (   0.3333333   0.1893864  -0.2792739), wk =   0.1481481
        k(   10) = (   0.3333333   0.1893864   0.1331241), wk =   0.1481481
        k(   11) = (   0.3333333   0.1893864  -0.6916720), wk =   0.1481481
        k(   12) = (   0.3333333  -0.5866899  -0.0000000), wk =   0.1481481
        k(   13) = (   0.3333333  -0.5866899   0.4123980), wk =   0.1481481
        k(   14) = (   0.3333333  -0.5866899  -0.4123980), wk =   0.1481481

                       cryst. coord.
        k(    1) = (   0.0000000   0.0000000   0.0000000), wk =   0.0740741
        k(    2) = (   0.0000000   0.0000000   0.3333333), wk =   0.1481481
        k(    3) = (   0.0000000   0.3333333   0.0000000), wk =   0.1481481
        k(    4) = (   0.0000000   0.3333333   0.3333333), wk =   0.1481481
        k(    5) = (   0.0000000   0.3333333  -0.3333333), wk =   0.1481481
        k(    6) = (   0.3333333   0.0000000  -0.0000000), wk =   0.1481481
        k(    7) = (   0.3333333   0.0000000   0.3333333), wk =   0.1481481
        k(    8) = (   0.3333333   0.0000000  -0.3333333), wk =   0.1481481
        k(    9) = (   0.3333333   0.3333333   0.0000000), wk =   0.1481481
        k(   10) = (   0.3333333   0.3333333   0.3333333), wk =   0.1481481
        k(   11) = (   0.3333333   0.3333333  -0.3333333), wk =   0.1481481
        k(   12) = (   0.3333333  -0.3333333  -0.0000000), wk =   0.1481481
        k(   13) = (   0.3333333  -0.3333333   0.3333333), wk =   0.1481481
        k(   14) = (   0.3333333  -0.3333333  -0.3333333), wk =   0.1481481

     Check: negative core charge=   -0.000028

     Initial potential from superposition of free atoms

     starting charge     107.0490, renormalised to     110.0000

     negative rho (up, down):  1.423E-03 0.000E+00
     Starting wfcs are   86 randomized atomic wfcs
     Checking if some PAW data can be deallocated...

     Self-consistent Calculation

     iteration #  1     ecut=    30.00 Ry     beta= 0.70
     Davidson diagonalization with overlap

     ethr =  1.00E-02,  avg # of iterations =  2.0

     total energy              =   -1118.82699324 Ry
     estimated scf accuracy    <      46.97525459 Ry

[...]

     negative rho (up, down):  7.271E-05 0.000E+00

[...]

     total energy              =   -1156.56641046 Ry
     estimated scf accuracy    <       0.00001349 Ry

     iteration # 45     ecut=    30.00 Ry     beta= 0.70
     Davidson diagonalization with overlap

     ethr =  1.49E-09,  avg # of iterations =  1.0

     negative rho (up, down):  1.481E-03 0.000E+00

     End of self-consistent calculation

          k = 0.0000 0.0000 0.0000 (  2697 PWs)   bands (ev):

   -72.0670 -72.0560 -72.0559 -64.8334 -40.8830 -40.8175 -40.8174 -40.7799
   -40.7798 -40.7635 -40.7401 -40.7021 -40.7021 -36.1807 -36.0993 -36.0993
   -36.0572 -11.8214 -10.5702 -10.5143 -10.5140 -10.3612 -10.2122 -10.2119
   -10.1229   1.0968   1.4679   1.4708   1.4709   2.5015   2.5015   2.7170
     2.7170   2.9329   3.1383   3.3826   3.3827   4.1796   4.1798   4.2838
     4.7619   4.7620   4.7860   4.9523   5.0635   5.0637   5.9885   6.0442
     6.0443   6.6509   6.6509   7.5560   7.5561   7.6294   7.8268   7.8989
     7.8989   8.1558   8.1861   8.1861   8.2630  10.3485  10.3776  10.3778

     occupation numbers
     1.0000   1.0000   1.0000   1.0000   1.0000   1.0000   1.0000   1.0000
     1.0000   1.0000   1.0000   1.0000   1.0000   1.0000   1.0000   1.0000
     1.0000   1.0000   1.0000   1.0000   1.0000   1.0000   1.0000   1.0000
     1.0000   1.0000   1.0000   1.0000   1.0000   1.0000   1.0000   1.0000
     1.0000   1.0000   1.0000   1.0000   1.0000   1.0000   1.0000   1.0000
     1.0000   1.0000   1.0000   1.0000   1.0000   1.0000   1.0000   1.0000
     1.0000   1.0000   1.0000   1.0000   1.0000   1.0000   1.0000   0.0000
     0.0000   0.0000   0.0000   0.0000   0.0000   0.0000   0.0000   0.0000

[...]

          k = 0.3333-0.5867-0.4124 (  2672 PWs)   bands (ev):

   -72.0641 -72.0579 -72.0555 -64.8332 -40.8560 -40.8217 -40.8097 -40.7765
   -40.7678 -40.7514 -40.7469 -40.7179 -40.7016 -36.1812 -36.0973 -36.0969
   -36.0561 -11.3805 -11.0469 -10.4539 -10.4477 -10.3583 -10.2870 -10.2524
   -10.2057   1.8883   2.1962   2.2162   2.3394   2.4723   2.5225   2.6094
     2.6818   2.7625   2.9881   3.0748   3.3561   3.4672   3.7989   3.8244
     4.1695   4.2166   4.7196   4.7260   4.9674   5.1434   5.1544   5.3902
     5.7823   7.3734   7.5415   7.7531   7.8387   7.9219   7.9494   7.9864
     8.1136   8.2390   8.2935   8.3459   8.4020  10.0133  10.0580  10.1862

     occupation numbers
     1.0000   1.0000   1.0000   1.0000   1.0000   1.0000   1.0000   1.0000
     1.0000   1.0000   1.0000   1.0000   1.0000   1.0000   1.0000   1.0000
     1.0000   1.0000   1.0000   1.0000   1.0000   1.0000   1.0000   1.0000
     1.0000   1.0000   1.0000   1.0000   1.0000   1.0000   1.0000   1.0000
     1.0000   1.0000   1.0000   1.0000   1.0000   1.0000   1.0000   1.0000
     1.0000   1.0000   1.0000   1.0000   1.0000   1.0000   1.0000   1.0000
     1.0000   1.0000   1.0000   1.0000   1.0000   1.0000   1.0000   0.0000
     0.0000   0.0000   0.0000   0.0000   0.0000   0.0000   0.0000   0.0000

     highest occupied, lowest unoccupied level (ev):     7.9494    7.8989

!    total energy              =   -1156.56641068 Ry
     estimated scf accuracy    <       0.00000008 Ry

     The total energy is the sum of the following terms:
     one-electron contribution =    -736.57778178 Ry
     hartree contribution      =     412.30647976 Ry
     xc contribution           =    -163.64698433 Ry
     ewald contribution        =    -592.41124182 Ry
     one-center paw contrib.   =     -76.23688252 Ry
      -> PAW hartree energy AE =       0.00000000 Ry
      -> PAW hartree energy PS =       0.00000000 Ry
      -> PAW xc energy AE      =       0.00000000 Ry
      -> PAW xc energy PS      =       0.00000000 Ry
      -> total E_H with PAW    =     412.30647976 Ry
      -> total E_XC with PAW   =    -163.64698433 Ry

     convergence has been achieved in  45 iterations

     Writing all to output data dir bands_nm/myprefix.save/

     General routines

     Parallel routines

     PAW routines

   This run was terminated on:   5: 1:42  13Jul2023

   JOB DONE.