     Program PWSCF v.7.1 starts on 15Jul2023 at 22:11:47

     Reading input from espresso_13415.pwi
Warning: card &CELL ignored
Warning: card / ignored

     Current dimensions of program PWSCF are:
     Max number of different atomic species (ntypx) = 10
     Max number of k-points (npk) =  40000
     Max angular momentum in pseudopotentials (lmaxx) =  4
     Message from routine setup:
     using ibrav=0 with symmetry is DISCOURAGED, use correct ibrav instead

     K-points division:     npool     =       2
     R & G space division:  proc/nbgrp/npool/nimage =       4
     Subspace diagonalization in iterative solution of the eigenvalue problem:
     one sub-group per band group will be used

     Using Slab Decomposition

     bravais-lattice index     =            0
     lattice parameter (alat)  =      20.3580  a.u.
     unit-cell volume          =    3282.6487 (a.u.)^3
     number of atoms/cell      =           16
     number of atomic types    =            3
     number of electrons       =       152.00
     number of Kohn-Sham states=          256
     kinetic-energy cutoff     =      30.0000  Ry
     charge density cutoff     =     240.0000  Ry
     scf convergence threshold =      1.0E-06
     mixing beta               =       0.7000
     number of iterations used =            8  plain     mixing
     Exchange-correlation=  SLA  PW   PBX  PBC
                           (   1   4   3   4   0   0   0)

     celldm(1)=  20.358047  celldm(2)=   0.000000  celldm(3)=   0.000000
     celldm(4)=   0.000000  celldm(5)=   0.000000  celldm(6)=   0.000000

     crystal axes: (cart. coord. in units of alat)
               a(1) = (   1.000000   0.000000   0.000000 )
               a(2) = (   0.926677   0.375860   0.000000 )
               a(3) = (   0.451565   0.088092   1.035119 )

     reciprocal axes: (cart. coord. in units 2 pi/alat)
               b(1) = (  1.000000 -2.465486 -0.226423 )
               b(2) = (  0.000000  2.660568 -0.226423 )
               b(3) = (  0.000000  0.000000  0.966072 )

     PseudoPot. # 1 for Bi read from file:
     /lustre07/scratch/pragov/crystal_structure_design/utils/SSSP/Bi_pbe_v1.uspp.F.UPF
     MD5 check sum: cceb9f28ec65b6d7ff33140f5b0b1758
     Pseudo is Ultrasoft + core correction, Zval = 15.0
     Generated by new atomic code, or converted to UPF format
     Using radial grid of  899 points,  6 beta functions with:
                l(1) =   0
                l(2) =   0
                l(3) =   1
                l(4) =   1
                l(5) =   2
                l(6) =   2
     Q(r) pseudized with  6 coefficients,  rinner =    1.000   1.000   1.000
                                                       1.000   1.000

     PseudoPot. # 2 for Se read from file:
     /lustre07/scratch/pragov/crystal_structure_design/utils/SSSP/Se_pbe_v1.uspp.F.UPF
     MD5 check sum: 1b3568f3a8ae88f9a2a0ad0698632c85
     Pseudo is Ultrasoft + core correction, Zval =  6.0
     Generated by new atomic code, or converted to UPF format
     Using radial grid of  877 points,  6 beta functions with:
                l(1) =   0
                l(2) =   0
                l(3) =   1
                l(4) =   1
                l(5) =   2
                l(6) =   2
     Q(r) pseudized with  8 coefficients,  rinner =    1.300   1.300   1.300
                                                       1.300   1.300

     PseudoPot. # 3 for Br read from file:
     /lustre07/scratch/pragov/crystal_structure_design/utils/SSSP/br_pbe_v1.4.uspp.F.UPF
     MD5 check sum: d3ffb7b29f6225aa16fe06858fb2a80b
     Pseudo is Ultrasoft + core correction, Zval =  7.0
     Generated by new atomic code, or converted to UPF format
     Using radial grid of  879 points,  6 beta functions with:
                l(1) =   0
                l(2) =   0
                l(3) =   1
                l(4) =   1
                l(5) =   2
                l(6) =   2
     Q(r) pseudized with  8 coefficients,  rinner =    1.100   1.100   1.100
                                                       1.100   1.100

     atomic species   valence    mass     pseudopotential
        Bi            15.00   208.98040     Bi( 1.00)
        Se             6.00    78.97100     Se( 1.00)
        Br             7.00    79.90400     Br( 1.00)

      2 Sym. Ops., with inversion, found

                                    s                        frac. trans.

      isym =  1     identity

 cryst.   s( 1) = (     1          0          0      )
                  (     0          1          0      )
                  (     0          0          1      )

 cart.    s( 1) = (  1.0000000  0.0000000  0.0000000 )
                  (  0.0000000  1.0000000  0.0000000 )
                  (  0.0000000  0.0000000  1.0000000 )

      isym =  2     inversion

 cryst.   s( 2) = (    -1          0          0      )
                  (     0         -1          0      )
                  (     0          0         -1      )

 cart.    s( 2) = ( -1.0000000  0.0000000  0.0000000 )
                  (  0.0000000 -1.0000000  0.0000000 )
                  (  0.0000000  0.0000000 -1.0000000 )

   Cartesian axes

     site n.     atom                  positions (alat units)
         1           Bi  tau(   1) = (   0.1884317   0.0367596   0.0386286  )
         2           Bi  tau(   2) = (   2.1898099   0.4271921   0.9964909  )
         3           Bi  tau(   3) = (   1.4147055   0.2759833   0.2719704  )
         4           Bi  tau(   4) = (   0.9635361   0.1879684   0.7631491  )
         5           Bi  tau(   5) = (   0.5563663   0.1085370   0.6059714  )
         6           Bi  tau(   6) = (   1.8218752   0.3554147   0.4291481  )
         7           Se  tau(   7) = (   1.0206431   0.1991089   0.5092757  )
         8           Se  tau(   8) = (   1.3575984   0.2648428   0.5258438  )
         9           Se  tau(   9) = (   1.7660049   0.3445154   1.0161230  )
        10           Se  tau(  10) = (   0.6122367   0.1194362   0.0189965  )
        11           Se  tau(  11) = (   0.2716830   0.0530004   0.2825824  )
        12           Se  tau(  12) = (   2.1065585   0.4109513   0.7525370  )
        13           Se  tau(  13) = (   0.6498094   0.1267660   0.3699558  )
        14           Se  tau(  14) = (   1.7284321   0.3371857   0.6651636  )
        15           Br  tau(  15) = (   0.9546090   0.1862268   0.1712026  )
        16           Br  tau(  16) = (   1.4236326   0.2777248   0.8639169  )

   Crystallographic axes

     site n.     atom                  positions (cryst. coord.)
         1           Bi  tau(   1) = (  0.0890550  0.0890550  0.0373180  )
         2           Bi  tau(   2) = (  0.9109450  0.9109450  0.9626820  )
         3           Bi  tau(   3) = (  0.6726920  0.6726920  0.2627430  )
         4           Bi  tau(   4) = (  0.3273080  0.3273080  0.7372570  )
         5           Bi  tau(   5) = (  0.1515640  0.1515640  0.5854120  )
         6           Bi  tau(   6) = (  0.8484360  0.8484360  0.4145880  )
         7           Se  tau(   7) = (  0.4144310  0.4144310  0.4919970  )
         8           Se  tau(   8) = (  0.5855690  0.5855690  0.5080030  )
         9           Se  tau(   9) = (  0.6865330  0.6865330  0.9816480  )
        10           Se  tau(  10) = (  0.3134670  0.3134670  0.0183520  )
        11           Se  tau(  11) = (  0.0770280  0.0770280  0.2729950  )
        12           Se  tau(  12) = (  0.9229720  0.9229720  0.7270050  )
        13           Se  tau(  13) = (  0.2535030  0.2535030  0.3574040  )
        14           Se  tau(  14) = (  0.7464970  0.7464970  0.6425960  )
        15           Br  tau(  15) = (  0.4567050  0.4567050  0.1653940  )
        16           Br  tau(  16) = (  0.5432950  0.5432950  0.8346060  )

     number of k points=    14
                       cart. coord. in units 2pi/alat
        k(    1) = (   0.0000000   0.0000000   0.0000000), wk =   0.0740741
        k(    2) = (   0.0000000   0.0000000   0.3220240), wk =   0.1481481
        k(    3) = (   0.0000000   0.8868560  -0.0754744), wk =   0.1481481
        k(    4) = (   0.0000000   0.8868560   0.2465496), wk =   0.1481481
        k(    5) = (   0.0000000   0.8868560  -0.3974984), wk =   0.1481481
        k(    6) = (   0.3333333  -0.8218288  -0.0754744), wk =   0.1481481
        k(    7) = (   0.3333333  -0.8218288   0.2465496), wk =   0.1481481
        k(    8) = (   0.3333333  -0.8218288  -0.3974984), wk =   0.1481481
        k(    9) = (   0.3333333   0.0650273  -0.1509488), wk =   0.1481481
        k(   10) = (   0.3333333   0.0650273   0.1710752), wk =   0.1481481
        k(   11) = (   0.3333333   0.0650273  -0.4729728), wk =   0.1481481
        k(   12) = (   0.3333333  -1.7086848   0.0000000), wk =   0.1481481
        k(   13) = (   0.3333333  -1.7086848   0.3220240), wk =   0.1481481
        k(   14) = (   0.3333333  -1.7086848  -0.3220240), wk =   0.1481481

                       cryst. coord.
        k(    1) = (   0.0000000   0.0000000   0.0000000), wk =   0.0740741
        k(    2) = (   0.0000000   0.0000000   0.3333333), wk =   0.1481481
        k(    3) = (   0.0000000   0.3333333   0.0000000), wk =   0.1481481
        k(    4) = (   0.0000000   0.3333333   0.3333333), wk =   0.1481481
        k(    5) = (   0.0000000   0.3333333  -0.3333333), wk =   0.1481481
        k(    6) = (   0.3333333   0.0000000   0.0000000), wk =   0.1481481
        k(    7) = (   0.3333333   0.0000000   0.3333333), wk =   0.1481481
        k(    8) = (   0.3333333   0.0000000  -0.3333333), wk =   0.1481481
        k(    9) = (   0.3333333   0.3333333   0.0000000), wk =   0.1481481
        k(   10) = (   0.3333333   0.3333333   0.3333333), wk =   0.1481481
        k(   11) = (   0.3333333   0.3333333  -0.3333333), wk =   0.1481481
        k(   12) = (   0.3333333  -0.3333333   0.0000000), wk =   0.1481481
        k(   13) = (   0.3333333  -0.3333333   0.3333333), wk =   0.1481481
        k(   14) = (   0.3333333  -0.3333333  -0.3333333), wk =   0.1481481

     Check: negative core charge=   -0.000002

     Initial potential from superposition of free atoms

     starting charge     145.9992, renormalised to     152.0000

     negative rho (up, down):  2.573E-01 0.000E+00
     Starting wfcs are   94 randomized atomic wfcs +  162 random wfcs

     Self-consistent Calculation

     iteration #  1     ecut=    30.00 Ry     beta= 0.70
     Davidson diagonalization with overlap

     ethr =  1.00E-02,  avg # of iterations =  7.7

     negative rho (up, down):  2.330E-01 0.000E+00

     total energy              =   -1553.37097501 Ry
     estimated scf accuracy    <       2.85460386 Ry

[...]

     c_bands:  1 eigenvalues not converged
     ethr =  5.81E-06,  avg # of iterations = 13.3

[...]

     c_bands:  1 eigenvalues not converged
     ethr =  1.31E-08,  avg # of iterations =  4.4

[...]

     total energy              =   -1554.63563728 Ry
     estimated scf accuracy    <       0.00000107 Ry

     iteration # 12     ecut=    30.00 Ry     beta= 0.70
     Davidson diagonalization with overlap

     ethr =  7.05E-10,  avg # of iterations =  2.6

     negative rho (up, down):  2.473E-01 0.000E+00

     End of self-consistent calculation

          k = 0.0000 0.0000 0.0000 (  9115 PWs)   bands (ev):

   -16.4721 -16.4720 -16.4682 -16.4679 -16.4557 -16.4557 -16.4422 -16.4415
   -16.4400 -16.4398 -16.4335 -16.4328 -16.4317 -16.4317 -16.4295 -16.4278
   -16.4246 -16.4192 -16.4164 -16.4145 -16.3500 -16.3486 -16.3359 -16.3343
   -16.3304 -16.3273 -16.3169 -16.3122 -16.3044 -16.3035  -7.8519  -7.5307
    -7.3236  -7.0936  -6.8096  -6.4565  -6.0601  -5.8344  -5.4838  -5.4823
    -3.9355  -3.6017  -3.0301  -2.8747  -2.5681  -2.0713   2.3094   2.3758
     2.6647   3.1829   3.4772   3.6841   3.7415   3.8167   3.8598   4.1363
     4.1453   4.3828   4.4246   4.7415   4.7442   4.8698   4.8794   4.9203
     4.9977   5.1406   5.2203   5.2784   5.2837   5.4732   5.5986   5.7278
     5.7469   5.8475   5.9727   6.2007   7.3799   7.9396   8.1964   8.2898
     8.3105   8.6177   8.8711   8.9718   9.0956   9.1623   9.2252   9.3878
     9.4700   9.8421  10.0059  10.2296  10.4913  10.6906  11.2965  12.5167
    12.5192  12.7608  12.9491  13.4607  13.6840  13.7108  14.0094  14.0865
    14.4235  14.4343  14.7767  14.8132  14.8181  15.0117  15.0281  15.2929
    15.3577  15.4857  15.6141  15.9589  15.9652  16.0874  16.1539  16.5125
    16.5443  16.5495  16.6111  16.6575  16.9051  16.9071  17.1642  17.2342
    17.2642  17.4930  17.6627  17.6991  17.8097  18.0115  18.1562  18.1671
    18.2527  18.3908  18.5688  18.6230  18.6999  19.0217  19.1112  19.3414
    19.3492  19.6218  19.6665  20.0777  20.0892  20.2950  20.3746  20.4772
    20.6282  20.6739  20.7967  21.3058  21.3385  21.3799  21.5089  21.7421
    21.7536  21.8130  21.8832  22.0927  22.3845  22.5436  22.5637  22.6479
    22.8623  22.9771  22.9999  23.1259  23.3677  23.7029  23.7096  23.7134
    23.7957  23.8411  24.0793  24.1436  24.2147  24.3020  24.4081  24.4557
    24.5168  24.6412  24.7033  24.9134  24.9832  25.3356  25.3481  25.3778
    25.4808  25.6719  25.8746  25.9753  26.0922  26.1266  26.2947  26.3531
    26.7278  26.8347  26.8404  26.9513  27.0786  27.1630  27.2073  27.2820
    27.4984  27.5674  27.6626  27.7765  27.8126  28.0921  28.1330  28.3720
    28.5892  28.7127  28.7929  29.0147  29.0956  29.3219  29.5057  29.5325
    29.7094  29.7104  29.7416  29.8491  29.9335  30.1893  30.1965  30.2091
    30.3276  30.4320  30.7176  30.7360  30.8862  31.0644  31.3343  31.3612
    31.4817  31.5768  31.6642  31.7969  31.8387  31.9322  31.9649  32.1561
    32.2047  32.2069  32.3103  32.3355  32.4210  32.4889  32.8015  32.8293

     occupation numbers
     1.0000   1.0000   1.0000   1.0000   1.0000   1.0000   1.0000   1.0000
     1.0000   1.0000   1.0000   1.0000   1.0000   1.0000   1.0000   1.0000
     1.0000   1.0000   1.0000   1.0000   1.0000   1.0000   1.0000   1.0000
     1.0000   1.0000   1.0000   1.0000   1.0000   1.0000   1.0000   1.0000
     1.0000   1.0000   1.0000   1.0000   1.0000   1.0000   1.0000   1.0000
     1.0000   1.0000   1.0000   1.0000   1.0000   1.0000   1.0000   1.0000
     1.0000   1.0000   1.0000   1.0000   1.0000   1.0000   1.0000   1.0000
     1.0000   1.0000   1.0000   1.0000   1.0000   1.0000   1.0000   1.0000
     1.0000   1.0000   1.0000   1.0000   1.0000   1.0000   1.0000   1.0000
     1.0000   1.0000   1.0000   1.0000   0.0000   0.0000   0.0000   0.0000
     0.0000   0.0000   0.0000   0.0000   0.0000   0.0000   0.0000   0.0000
     0.0000   0.0000   0.0000   0.0000   0.0000   0.0000   0.0000   0.0000
     0.0000   0.0000   0.0000   0.0000   0.0000   0.0000   0.0000   0.0000
     0.0000   0.0000   0.0000   0.0000   0.0000   0.0000   0.0000   0.0000
     0.0000   0.0000   0.0000   0.0000   0.0000   0.0000   0.0000   0.0000
     0.0000   0.0000   0.0000   0.0000   0.0000   0.0000   0.0000   0.0000
     0.0000   0.0000   0.0000   0.0000   0.0000   0.0000   0.0000   0.0000
     0.0000   0.0000   0.0000   0.0000   0.0000   0.0000   0.0000   0.0000
     0.0000   0.0000   0.0000   0.0000   0.0000   0.0000   0.0000   0.0000
     0.0000   0.0000   0.0000   0.0000   0.0000   0.0000   0.0000   0.0000
     0.0000   0.0000   0.0000   0.0000   0.0000   0.0000   0.0000   0.0000
     0.0000   0.0000   0.0000   0.0000   0.0000   0.0000   0.0000   0.0000
     0.0000   0.0000   0.0000   0.0000   0.0000   0.0000   0.0000   0.0000
     0.0000   0.0000   0.0000   0.0000   0.0000   0.0000   0.0000   0.0000
     0.0000   0.0000   0.0000   0.0000   0.0000   0.0000   0.0000   0.0000
     0.0000   0.0000   0.0000   0.0000   0.0000   0.0000   0.0000   0.0000
     0.0000   0.0000   0.0000   0.0000   0.0000   0.0000   0.0000   0.0000
     0.0000   0.0000   0.0000   0.0000   0.0000   0.0000   0.0000   0.0000
     0.0000   0.0000   0.0000   0.0000   0.0000   0.0000   0.0000   0.0000
     0.0000   0.0000   0.0000   0.0000   0.0000   0.0000   0.0000   0.0000
     0.0000   0.0000   0.0000   0.0000   0.0000   0.0000   0.0000   0.0000
     0.0000   0.0000   0.0000   0.0000   0.0000   0.0000   0.0000   0.0000

[...]

          k = 0.3333-1.7087-0.3220 (  9121 PWs)   bands (ev):

   -16.4715 -16.4713 -16.4568 -16.4560 -16.4531 -16.4531 -16.4508 -16.4502
   -16.4380 -16.4378 -16.4369 -16.4348 -16.4308 -16.4306 -16.4285 -16.4276
   -16.4221 -16.4205 -16.4174 -16.4103 -16.3471 -16.3468 -16.3324 -16.3304
   -16.3302 -16.3268 -16.3114 -16.3109 -16.3086 -16.3085  -7.5854  -7.4094
    -6.6723  -6.5761  -6.2152  -5.9922  -5.5867  -5.4887  -5.4458  -5.4076
    -4.0960  -3.9849  -3.5394  -3.3526  -3.0797  -2.8984   1.8886   1.9756
     2.4529   2.5732   2.6589   2.7288   2.9719   3.1566   3.2699   3.4662
     3.6048   3.6957   3.8663   4.2184   4.2790   4.3652   4.4413   4.5592
     4.7123   4.8120   4.8939   5.0155   5.0632   5.1345   5.2084   5.3749
     5.5112   5.6529   5.7260   5.8588   8.1301   8.3611   8.4495   8.5714
     8.8182   8.8414   8.9371   9.3172   9.3904   9.5538   9.6397   9.8699
    10.0201  10.2632  10.2908  10.3337  10.7156  10.9304  12.4273  12.5956
    12.7719  13.1291  13.4081  13.5803  13.8649  13.9037  14.1362  14.2648
    14.5319  14.7746  15.0094  15.1711  15.3181  15.4744  15.6433  15.7268
    15.9996  16.0877  16.1430  16.1802  16.3562  16.4572  16.6316  16.7080
    16.7787  16.9537  17.0959  17.2445  17.4563  17.5824  17.6344  17.7945
    17.9810  18.1415  18.2342  18.3562  18.5118  18.6031  18.6934  18.8268
    18.9836  19.2741  19.3993  19.6120  19.6727  19.8277  19.8528  20.1078
    20.2832  20.3761  20.6463  20.8765  20.8886  21.1178  21.2610  21.3223
    21.3915  21.5450  21.6523  21.6951  21.8255  21.9111  22.2211  22.3349
    22.3590  22.4693  22.5034  22.6759  22.7729  22.7781  22.8562  22.9543
    23.0236  23.0779  23.1763  23.2685  23.3630  23.4285  23.6786  23.8036
    23.9050  23.9790  24.1033  24.1739  24.2214  24.3783  24.4830  24.5220
    24.5702  24.7602  24.9026  24.9636  25.0435  25.1545  25.2466  25.3532
    25.4604  25.4930  25.5537  25.6141  25.7071  25.8733  26.0423  26.2350
    26.3637  26.3973  26.5332  26.5837  26.7268  26.7714  26.8978  26.9507
    27.0155  27.1008  27.3015  27.3317  27.4817  27.5517  27.6560  27.6938
    27.7682  27.8525  28.0762  28.2668  28.3482  28.4210  28.5491  28.7283
    28.8087  28.8786  29.0005  29.1452  29.2245  29.3446  29.3669  29.4641
    29.5537  29.6700  29.8259  29.9018  29.9601  30.0365  30.2236  30.3003
    30.5105  30.5552  30.6097  30.7044  30.8381  30.9341  31.0067  31.1460
    31.1706  31.2666  31.3197  31.4134  31.4896  31.6149  31.7708  31.8350

     occupation numbers
     1.0000   1.0000   1.0000   1.0000   1.0000   1.0000   1.0000   1.0000
     1.0000   1.0000   1.0000   1.0000   1.0000   1.0000   1.0000   1.0000
     1.0000   1.0000   1.0000   1.0000   1.0000   1.0000   1.0000   1.0000
     1.0000   1.0000   1.0000   1.0000   1.0000   1.0000   1.0000   1.0000
     1.0000   1.0000   1.0000   1.0000   1.0000   1.0000   1.0000   1.0000
     1.0000   1.0000   1.0000   1.0000   1.0000   1.0000   1.0000   1.0000
     1.0000   1.0000   1.0000   1.0000   1.0000   1.0000   1.0000   1.0000
     1.0000   1.0000   1.0000   1.0000   1.0000   1.0000   1.0000   1.0000
     1.0000   1.0000   1.0000   1.0000   1.0000   1.0000   1.0000   1.0000
     1.0000   1.0000   1.0000   1.0000   0.0000   0.0000   0.0000   0.0000
     0.0000   0.0000   0.0000   0.0000   0.0000   0.0000   0.0000   0.0000
     0.0000   0.0000   0.0000   0.0000   0.0000   0.0000   0.0000   0.0000
     0.0000   0.0000   0.0000   0.0000   0.0000   0.0000   0.0000   0.0000
     0.0000   0.0000   0.0000   0.0000   0.0000   0.0000   0.0000   0.0000
     0.0000   0.0000   0.0000   0.0000   0.0000   0.0000   0.0000   0.0000
     0.0000   0.0000   0.0000   0.0000   0.0000   0.0000   0.0000   0.0000
     0.0000   0.0000   0.0000   0.0000   0.0000   0.0000   0.0000   0.0000
     0.0000   0.0000   0.0000   0.0000   0.0000   0.0000   0.0000   0.0000
     0.0000   0.0000   0.0000   0.0000   0.0000   0.0000   0.0000   0.0000
     0.0000   0.0000   0.0000   0.0000   0.0000   0.0000   0.0000   0.0000
     0.0000   0.0000   0.0000   0.0000   0.0000   0.0000   0.0000   0.0000
     0.0000   0.0000   0.0000   0.0000   0.0000   0.0000   0.0000   0.0000
     0.0000   0.0000   0.0000   0.0000   0.0000   0.0000   0.0000   0.0000
     0.0000   0.0000   0.0000   0.0000   0.0000   0.0000   0.0000   0.0000
     0.0000   0.0000   0.0000   0.0000   0.0000   0.0000   0.0000   0.0000
     0.0000   0.0000   0.0000   0.0000   0.0000   0.0000   0.0000   0.0000
     0.0000   0.0000   0.0000   0.0000   0.0000   0.0000   0.0000   0.0000
     0.0000   0.0000   0.0000   0.0000   0.0000   0.0000   0.0000   0.0000
     0.0000   0.0000   0.0000   0.0000   0.0000   0.0000   0.0000   0.0000
     0.0000   0.0000   0.0000   0.0000   0.0000   0.0000   0.0000   0.0000
     0.0000   0.0000   0.0000   0.0000   0.0000   0.0000   0.0000   0.0000
     0.0000   0.0000   0.0000   0.0000   0.0000   0.0000   0.0000   0.0000

     highest occupied, lowest unoccupied level (ev):     6.2858    7.3799

!    total energy              =   -1554.63563749 Ry
     estimated scf accuracy    <       0.00000021 Ry

     The total energy is the sum of the following terms:
     one-electron contribution =    -421.80374507 Ry
     hartree contribution      =     288.88609473 Ry
     xc contribution           =    -677.28236778 Ry
     ewald contribution        =    -744.43561937 Ry

     convergence has been achieved in  12 iterations

     Writing all to output data dir bands_nm/myprefix.save/

     General routines

     Parallel routines

   This run was terminated on:  22:14:41  15Jul2023

   JOB DONE.