     Program PWSCF v.7.1 starts on 13Jul2023 at  6:48:31

     Reading input from espresso_5715.pwi
Warning: card &CELL ignored
Warning: card / ignored

     Current dimensions of program PWSCF are:
     Max number of different atomic species (ntypx) = 10
     Max number of k-points (npk) =  40000
     Max angular momentum in pseudopotentials (lmaxx) =  4
     file O.pbe-n-kjpaw_psl.0.1.UPF: wavefunction(s)  2P renormalized
     Message from routine setup:
     using ibrav=0 with symmetry is DISCOURAGED, use correct ibrav instead

     K-points division:     npool     =       2
     R & G space division:  proc/nbgrp/npool/nimage =       8
     Subspace diagonalization in iterative solution of the eigenvalue problem:
     a serial algorithm will be used

     Using Slab Decomposition

     bravais-lattice index     =            0
     lattice parameter (alat)  =       9.2167  a.u.
     unit-cell volume          =     571.7483 (a.u.)^3
     number of atoms/cell      =            8
     number of atomic types    =            4
     number of electrons       =        44.00
     number of Kohn-Sham states=           64
     kinetic-energy cutoff     =      30.0000  Ry
     charge density cutoff     =     240.0000  Ry
     scf convergence threshold =      1.0E-06
     mixing beta               =       0.7000
     number of iterations used =            8  plain     mixing
     Exchange-correlation= SLA  PW   PBX  PBC
                           (   1   4   3   4   0   0   0)

     celldm(1)=   9.216692  celldm(2)=   0.000000  celldm(3)=   0.000000
     celldm(4)=   0.000000  celldm(5)=   0.000000  celldm(6)=   0.000000

     crystal axes: (cart. coord. in units of alat)
               a(1) = (   1.000000   0.000000   0.000000 )
               a(2) = (  -0.072151   0.997394   0.000000 )
               a(3) = (  -0.463924  -0.498697   0.732172 )

     reciprocal axes: (cart. coord. in units 2 pi/alat)
               b(1) = (  1.000000  0.072340  0.682900 )
               b(2) = (  0.000000  1.002613  0.682900 )
               b(3) = (  0.000000  0.000000  1.365799 )

     PseudoPot. # 1 for Li read from file:
     /lustre07/scratch/pragov/crystal_structure_design/utils/SSSP/li_pbe_v1.4.uspp.F.UPF
     MD5 check sum: e912e257baa3777c20ea3d68f190483c
     Pseudo is Ultrasoft, Zval =  3.0
     Generated by new atomic code, or converted to UPF format
     Using radial grid of  751 points,  5 beta functions with:
                l(1) =   0
                l(2) =   0
                l(3) =   0
                l(4) =   1
                l(5) =   1
     Q(r) pseudized with 10 coefficients,  rinner =    1.150   1.150   1.150

     PseudoPot. # 2 for Ca read from file:
     /lustre07/scratch/pragov/crystal_structure_design/utils/SSSP/Ca_pbe_v1.uspp.F.UPF
     MD5 check sum: 403a4c14b9e4d4dfdc3024c9a3812218
     Pseudo is Ultrasoft + core correction, Zval = 10.0
     Generated by new atomic code, or converted to UPF format
     Using radial grid of  845 points,  6 beta functions with:
                l(1) =   0
                l(2) =   0
                l(3) =   1
                l(4) =   1
                l(5) =   2
                l(6) =   2
     Q(r) pseudized with  8 coefficients,  rinner =    1.500   1.500   1.500
                                                       1.500   1.500

     PseudoPot. # 3 for Si read from file:
     /lustre07/scratch/pragov/crystal_structure_design/utils/SSSP/Si.pbe-n-rrkjus_psl.1.0.0.UPF
     MD5 check sum: 0b0bb1205258b0d07b9f9672cf965d36
     Pseudo is Ultrasoft + core correction, Zval =  4.0
     Generated using "atomic" code by A. Dal Corso  v.5.1
     Using radial grid of 1141 points,  6 beta functions with:
                l(1) =   0
                l(2) =   0
                l(3) =   1
                l(4) =   1
                l(5) =   2
                l(6) =   2
     Q(r) pseudized with 0 coefficients

     PseudoPot. # 4 for O  read from file:
     /lustre07/scratch/pragov/crystal_structure_design/utils/SSSP/O.pbe-n-kjpaw_psl.0.1.UPF
     MD5 check sum: 0234752ac141de4415c5fc33072bef88
     Pseudo is Projector augmented-wave + core cor, Zval =  6.0
     Generated using "atomic" code by A. Dal Corso  v.5.0.99 svn rev. 10869
     Shape of augmentation charge: BESSEL
     Using radial grid of 1095 points,  4 beta functions with:
                l(1) =   0
                l(2) =   0
                l(3) =   1
                l(4) =   1
     Q(r) pseudized with 0 coefficients

     atomic species   valence    mass     pseudopotential
        Li             3.00     6.94000     Li( 1.00)
        Ca            10.00    40.07800     Ca( 1.00)
        Si             4.00    28.08500     Si( 1.00)
        O              6.00    15.99900     O ( 1.00)

      2 Sym. Ops. (no inversion) found

                                    s                        frac. trans.

      isym =  1     identity

 cryst.   s( 1) = (     1          0          0      )
                  (     0          1          0      )
                  (     0          0          1      )

 cart.    s( 1) = (  1.0000000  0.0000000  0.0000000 )
                  (  0.0000000  1.0000000  0.0000000 )
                  (  0.0000000  0.0000000  1.0000000 )

      isym =  2     inv. 180 deg rotation - cart. axis [0,0,1]

 cryst.   s( 2) = (     1          0          0      )
                  (     0          1          0      )
                  (    -1         -1         -1      )

 cart.    s( 2) = (  1.0000000  0.0000000 -0.0000000 )
                  (  0.0000000  1.0000000 -0.0000000 )
                  (  0.0000000  0.0000000 -1.0000000 )

   Cartesian axes

     site n.     atom                  positions (alat units)
         1           Li  tau(   1) = (  -0.0360757   0.4986968   0.3660860  )
         2           Li  tau(   2) = (   0.5000000   0.0000000   0.3660860  )
         3           Ca  tau(   3) = (   0.4639243   0.4986968   0.0000000  )
         4           Si  tau(   4) = (   0.0000000   0.0000000   0.0000000  )
         5           O   tau(   5) = (   0.9239994   0.3307377   0.0000000  )
         6           O   tau(   6) = (   0.2632078   0.9454544   0.0000000  )
         7           O   tau(   7) = (   0.3342454   0.3592981   0.4512537  )
         8           O   tau(   8) = (  -0.1296798  -0.1393997   0.2809183  )

   Crystallographic axes

     site n.     atom                  positions (cryst. coord.)
         1           Li  tau(   1) = (  0.2500000  0.7500000  0.5000000  )
         2           Li  tau(   2) = (  0.7500000  0.2500000  0.5000000  )
         3           Ca  tau(   3) = (  0.5000000  0.5000000  0.0000000  )
         4           Si  tau(   4) = (  0.0000000  0.0000000  0.0000000  )
         5           O   tau(   5) = (  0.9479250  0.3316020  0.0000000  )
         6           O   tau(   6) = (  0.3316020  0.9479250  0.0000000  )
         7           O   tau(   7) = (  0.6683980  0.6683980  0.6163220  )
         8           O   tau(   8) = (  0.0520750  0.0520750  0.3836780  )

     number of k points=    10
                       cart. coord. in units 2pi/alat
        k(    1) = (   0.0000000   0.0000000   0.0000000), wk =   0.0740741
        k(    2) = (   0.0000000   0.0000000   0.4552665), wk =   0.1481481
        k(    3) = (   0.0000000   0.3342044   0.2276332), wk =   0.2962963
        k(    4) = (   0.0000000   0.3342044   0.6828997), wk =   0.1481481
        k(    5) = (   0.3333333   0.0241133   0.2276332), wk =   0.2962963
        k(    6) = (   0.3333333   0.0241133   0.6828997), wk =   0.1481481
        k(    7) = (   0.3333333   0.3583177   0.4552665), wk =   0.2962963
        k(    8) = (   0.3333333   0.3583177  -0.0000000), wk =   0.1481481
        k(    9) = (   0.3333333  -0.3100910  -0.0000000), wk =   0.1481481
        k(   10) = (   0.3333333  -0.3100910   0.4552665), wk =   0.2962963

                       cryst. coord.
        k(    1) = (   0.0000000   0.0000000   0.0000000), wk =   0.0740741
        k(    2) = (   0.0000000   0.0000000   0.3333333), wk =   0.1481481
        k(    3) = (   0.0000000   0.3333333   0.0000000), wk =   0.2962963
        k(    4) = (   0.0000000   0.3333333   0.3333333), wk =   0.1481481
        k(    5) = (   0.3333333   0.0000000   0.0000000), wk =   0.2962963
        k(    6) = (   0.3333333   0.0000000   0.3333333), wk =   0.1481481
        k(    7) = (   0.3333333   0.3333333   0.0000000), wk =   0.2962963
        k(    8) = (   0.3333333   0.3333333  -0.3333333), wk =   0.1481481
        k(    9) = (   0.3333333  -0.3333333  -0.0000000), wk =   0.1481481
        k(   10) = (   0.3333333  -0.3333333   0.3333333), wk =   0.2962963

     Check: negative core charge=   -0.000012

     Initial potential from superposition of free atoms

     starting charge      43.0925, renormalised to      44.0000
     Starting wfcs are   40 randomized atomic wfcs +   24 random wfcs
     Checking if some PAW data can be deallocated...

     Self-consistent Calculation

     iteration #  1     ecut=    30.00 Ry     beta= 0.70
     Davidson diagonalization with overlap

     ethr =  1.00E-02,  avg # of iterations =  6.0

     total energy              =    -282.35353912 Ry
     estimated scf accuracy    <       0.84823049 Ry

[...]

     total energy              =    -282.70425153 Ry
     estimated scf accuracy    <       0.00000974 Ry

     iteration #  7     ecut=    30.00 Ry     beta= 0.70
     Davidson diagonalization with overlap

     ethr =  2.21E-08,  avg # of iterations =  1.0

     End of self-consistent calculation

          k = 0.0000 0.0000 0.0000 (  1559 PWs)   bands (ev):

   -37.2042 -37.1956 -32.7948 -13.9161 -13.9161 -13.8451 -12.7310 -11.0997
   -11.0993 -10.9628   0.2696   1.2476   1.2477   1.4081   3.1692   3.4256
     4.2635   4.2937   4.2939   4.5055   4.5055   4.7540  10.4317  11.5548
    12.7512  12.8534  12.8535  13.3203  14.6200  16.5762  16.5762  17.1157
    17.2252  19.1663  19.2151  19.5620  19.5621  20.3835  20.3836  20.8231
    22.1403  23.1169  23.1170  23.7101  24.4747  26.0722  26.0723  26.6461
    26.7434  30.5918  30.7122  30.7122  31.2212  31.2212  31.3524  31.7267
    32.6053  32.6053  33.1399  34.3557  34.8859  35.0384  35.1185  35.1185

     occupation numbers
     1.0000   1.0000   1.0000   1.0000   1.0000   1.0000   1.0000   1.0000
     1.0000   1.0000   1.0000   1.0000   1.0000   1.0000   1.0000   1.0000
     1.0000   1.0000   1.0000   1.0000   1.0000   1.0000   0.0000   0.0000
     0.0000   0.0000   0.0000   0.0000   0.0000   0.0000   0.0000   0.0000
     0.0000   0.0000   0.0000   0.0000   0.0000   0.0000   0.0000   0.0000
     0.0000   0.0000   0.0000   0.0000   0.0000   0.0000   0.0000   0.0000
     0.0000   0.0000   0.0000   0.0000   0.0000   0.0000   0.0000   0.0000
     0.0000   0.0000   0.0000   0.0000   0.0000   0.0000   0.0000   0.0000

[...]

          k = 0.3333-0.3101 0.4553 (  1578 PWs)   bands (ev):

   -37.2005 -37.1996 -32.7938 -14.0534 -14.0056 -13.9371 -12.2270 -11.1998
   -11.1745 -10.9978  -0.1551   1.9980   2.2073   2.2350   2.4297   2.7343
     3.5449   3.8294   3.8555   4.7154   4.8120   5.0151  11.6114  12.0001
    12.0249  12.3107  13.8138  13.8785  14.1175  14.8771  15.7597  17.0776
    17.4906  18.0995  18.5804  19.1634  19.5884  20.3163  20.6686  22.0924
    22.5490  23.1567  23.2867  24.3678  25.1336  25.5083  25.7633  26.9697
    27.7920  28.9511  28.9842  29.8360  30.4472  30.7220  30.8614  31.0356
    32.4389  32.7551  32.8050  34.4854  35.5544  35.7866  36.2641  36.3391

     occupation numbers
     1.0000   1.0000   1.0000   1.0000   1.0000   1.0000   1.0000   1.0000
     1.0000   1.0000   1.0000   1.0000   1.0000   1.0000   1.0000   1.0000
     1.0000   1.0000   1.0000   1.0000   1.0000   1.0000   0.0000   0.0000
     0.0000   0.0000   0.0000   0.0000   0.0000   0.0000   0.0000   0.0000
     0.0000   0.0000   0.0000   0.0000   0.0000   0.0000   0.0000   0.0000
     0.0000   0.0000   0.0000   0.0000   0.0000   0.0000   0.0000   0.0000
     0.0000   0.0000   0.0000   0.0000   0.0000   0.0000   0.0000   0.0000
     0.0000   0.0000   0.0000   0.0000   0.0000   0.0000   0.0000   0.0000

     highest occupied, lowest unoccupied level (ev):     5.0333   10.4317

!    total energy              =    -282.70425395 Ry
     estimated scf accuracy    <       0.00000052 Ry

     The total energy is the sum of the following terms:
     one-electron contribution =     -72.29520379 Ry
     hartree contribution      =      56.83095753 Ry
     xc contribution           =     -55.44762188 Ry
     ewald contribution        =    -173.73464874 Ry
     one-center paw contrib.   =     -38.05773707 Ry
      -> PAW hartree energy AE =       0.00000000 Ry
      -> PAW hartree energy PS =       0.00000000 Ry
      -> PAW xc energy AE      =       0.00000000 Ry
      -> PAW xc energy PS      =       0.00000000 Ry
      -> total E_H with PAW    =      56.83095753 Ry
      -> total E_XC with PAW   =     -55.44762188 Ry

     convergence has been achieved in   7 iterations

     Writing all to output data dir bands_nm/myprefix.save/

     General routines

     Parallel routines

     PAW routines

   This run was terminated on:   6:48:34  13Jul2023

   JOB DONE.