     Program PWSCF v.7.1 starts on 16Jul2023 at 15:14:27

     Reading input from espresso_17268.pwi
Warning: card &CELL ignored
Warning: card / ignored

     Current dimensions of program PWSCF are:
     Max number of different atomic species (ntypx) = 10
     Max number of k-points (npk) =  40000
     Max angular momentum in pseudopotentials (lmaxx) =  4
     file Tm.paw.z_23.atompaw.wentzcovitch.v1.2.upf: wavefunction(s)  6S 0P 5D 0D 4F 0F renormalized
     file O.pbe-n-kjpaw_psl.0.1.UPF: wavefunction(s)  2P renormalized
     Message from routine setup:
     using ibrav=0 with symmetry is DISCOURAGED, use correct ibrav instead

     K-points division:     npool     =       2
     R & G space division:  proc/nbgrp/npool/nimage =       4
     Subspace diagonalization in iterative solution of the eigenvalue problem:
     a serial algorithm will be used

     Using Slab Decomposition

     bravais-lattice index     =            0
     lattice parameter (alat)  =      11.9070  a.u.
     unit-cell volume          =     801.1997 (a.u.)^3
     number of atoms/cell      =           14
     number of atomic types    =            3
     number of electrons       =        88.00
     number of Kohn-Sham states=           64
     kinetic-energy cutoff     =      30.0000  Ry
     charge density cutoff     =     240.0000  Ry
     scf convergence threshold =      1.0E-06
     mixing beta               =       0.7000
     number of iterations used =            8  plain     mixing
     Exchange-correlation= SLA  PW   PBX  PBC
                           (   1   4   3   4   0   0   0)

     celldm(1)=  11.906997  celldm(2)=   0.000000  celldm(3)=   0.000000
     celldm(4)=   0.000000  celldm(5)=   0.000000  celldm(6)=   0.000000

     crystal axes: (cart. coord. in units of alat)
               a(1) = (   1.000000   0.000000   0.000000 )
               a(2) = (  -0.500000   0.866025   0.000000 )
               a(3) = (   0.000000   0.000000   0.548029 )

     reciprocal axes: (cart. coord. in units 2 pi/alat)
               b(1) = (  1.000000  0.577350  0.000000 )
               b(2) = (  0.000000  1.154700  0.000000 )
               b(3) = (  0.000000  0.000000  1.824722 )

     PseudoPot. # 1 for Tm read from file:
     /lustre07/scratch/pragov/crystal_structure_design/utils/SSSP/Tm.paw.z_23.atompaw.wentzcovitch.v1.2.upf
     MD5 check sum: 65ac1a59d66520b67f41930ed0a84655
     Pseudo is Projector augmented-wave + core cor, Zval = 23.0
     Generated using ATOMPAW code
     Shape of augmentation charge: BESSEL
     Using radial grid of 1116 points,  8 beta functions with:
                l(1) =   0
                l(2) =   0
                l(3) =   1
                l(4) =   1
                l(5) =   2
                l(6) =   2
                l(7) =   3
                l(8) =   3
     Q(r) pseudized with 0 coefficients

     PseudoPot. # 2 for H  read from file:
     /lustre07/scratch/pragov/crystal_structure_design/utils/SSSP/H.pbe-rrkjus_psl.1.0.0.UPF
     MD5 check sum: f52b6d4d1c606e5624b1dc7b2218f220
     Pseudo is Ultrasoft, Zval =  1.0
     Generated using "atomic" code by A. Dal Corso  v.5.1
     Using radial grid of  929 points,  2 beta functions with:
                l(1) =   0
                l(2) =   0
     Q(r) pseudized with 0 coefficients

     PseudoPot. # 3 for O  read from file:
     /lustre07/scratch/pragov/crystal_structure_design/utils/SSSP/O.pbe-n-kjpaw_psl.0.1.UPF
     MD5 check sum: 0234752ac141de4415c5fc33072bef88
     Pseudo is Projector augmented-wave + core cor, Zval =  6.0
     Generated using "atomic" code by A. Dal Corso  v.5.0.99 svn rev. 10869
     Shape of augmentation charge: BESSEL
     Using radial grid of 1095 points,  4 beta functions with:
                l(1) =   0
                l(2) =   0
                l(3) =   1
                l(4) =   1
     Q(r) pseudized with 0 coefficients

     atomic species   valence    mass     pseudopotential
        Tm            23.00   168.93422     Tm( 1.00)
        H              1.00     1.00800     H ( 1.00)
        O              6.00    15.99900     O ( 1.00)

     12 Sym. Ops., with inversion, found ( 6 have fractional translation)

                                    s                        frac. trans.

      isym =  1     identity

 cryst.   s( 1) = (     1          0          0      )
                  (     0          1          0      )
                  (     0          0          1      )

 cart.    s( 1) = (  1.0000000 -0.0000000  0.0000000 )
                  (  0.0000000  1.0000000  0.0000000 )
                  (  0.0000000  0.0000000  1.0000000 )

      isym =  2     180 deg rotation - cart. axis [0,0,1]

 cryst.   s( 2) = (    -1          0          0      )    f =(  0.0000000 )
                  (     0         -1          0      )       ( -0.0000000 )
                  (     0          0          1      )       ( -0.5000000 )

 cart.    s( 2) = ( -1.0000000  0.0000000  0.0000000 )    f =(  0.0000000 )
                  (  0.0000000 -1.0000000  0.0000000 )       ( -0.0000000 )
                  (  0.0000000  0.0000000  1.0000000 )       ( -0.2740144 )

      isym =  3      60 deg rotation - cryst. axis [0,0,1]

[...]

      isym =  6     120 deg rotation - cryst. axis [0,0,-1]

[...]

      isym =  7     inversion

 cryst.   s( 7) = (    -1          0          0      )
                  (     0         -1          0      )
                  (     0          0         -1      )

 cart.    s( 7) = ( -1.0000000  0.0000000  0.0000000 )
                  (  0.0000000 -1.0000000  0.0000000 )
                  (  0.0000000  0.0000000 -1.0000000 )

      isym =  8     inv. 180 deg rotation - cart. axis [0,0,1]

[...]

      isym =  9     inv.  60 deg rotation - cryst. axis [0,0,1]

 cryst.   s( 9) = (    -1         -1          0      )    f =(  0.0000010 )
                  (     1          0          0      )       (  0.0000000 )
                  (     0          0         -1      )       (  0.5000000 )

 cart.    s( 9) = ( -0.5000001  0.8660253  0.0000000 )    f =(  0.0000010 )
                  ( -0.8660255 -0.4999999  0.0000000 )       (  0.0000000 )
                  (  0.0000000  0.0000000 -1.0000000 )       (  0.2740144 )

[...]

 cryst.   s(10) = (     0          1          0      )    f =(  0.0000000 )
                  (    -1         -1          0      )       ( -0.0000010 )
                  (     0          0         -1      )       (  0.5000000 )

 cart.    s(10) = ( -0.4999999 -0.8660253  0.0000000 )    f =(  0.0000005 )
                  (  0.8660255 -0.5000001  0.0000000 )       ( -0.0000009 )
                  (  0.0000000  0.0000000 -1.0000000 )       (  0.2740144 )

[...]

 cryst.   s(11) = (     0         -1          0      )
                  (     1          1          0      )
                  (     0          0         -1      )

 cart.    s(11) = (  0.4999999  0.8660253  0.0000000 )
                  ( -0.8660255  0.5000001  0.0000000 )
                  (  0.0000000  0.0000000 -1.0000000 )

      isym = 12     inv. 120 deg rotation - cryst. axis [0,0,-1]

 cryst.   s(12) = (     1          1          0      )
                  (    -1          0          0      )
                  (     0          0         -1      )

 cart.    s(12) = (  0.5000001 -0.8660253  0.0000000 )
                  (  0.8660255  0.4999999  0.0000000 )
                  (  0.0000000  0.0000000 -1.0000000 )

   Cartesian axes

     site n.     atom                  positions (alat units)
         1           Tm  tau(   1) = (  -0.0000004   0.5773506   0.1370072  )
         2           Tm  tau(   2) = (   0.5000005   0.2886749   0.4110216  )
         3           H   tau(   3) = (   0.4974681   0.6243992   0.1370072  )
         4           H   tau(   4) = (   0.7920115   0.1230059   0.1370072  )
         5           H   tau(   5) = (   0.2105205   0.1186204   0.1370072  )
         6           H   tau(   6) = (   0.0025320   0.2416263   0.4110216  )
         7           H   tau(   7) = (  -0.2920114   0.7430195   0.4110216  )
         8           H   tau(   8) = (   0.2894796   0.7474051   0.4110216  )
         9           O   tau(   9) = (   0.6124551   0.5213854   0.1370072  )
        10           O   tau(  10) = (   0.6453055   0.0749311   0.1370072  )
        11           O   tau(  11) = (   0.2422395   0.2697089   0.1370072  )
        12           O   tau(  12) = (  -0.1124550   0.3446400   0.4110216  )
        13           O   tau(  13) = (  -0.1453054   0.7910944   0.4110216  )
        14           O   tau(  14) = (   0.2577606   0.5963166   0.4110216  )

   Crystallographic axes

     site n.     atom                  positions (cryst. coord.)
         1           Tm  tau(   1) = (  0.3333330  0.6666670  0.2500000  )
         2           Tm  tau(   2) = (  0.6666670  0.3333330  0.7500000  )
         3           H   tau(   3) = (  0.8579650  0.7209940  0.2500000  )
         4           H   tau(   4) = (  0.8630290  0.1420350  0.2500000  )
         5           H   tau(   5) = (  0.2790060  0.1369710  0.2500000  )
         6           H   tau(   6) = (  0.1420350  0.2790060  0.7500000  )
         7           H   tau(   7) = (  0.1369710  0.8579650  0.7500000  )
         8           H   tau(   8) = (  0.7209940  0.8630290  0.7500000  )
         9           O   tau(   9) = (  0.9134770  0.6020440  0.2500000  )
        10           O   tau(  10) = (  0.6885670  0.0865230  0.2500000  )
        11           O   tau(  11) = (  0.3979560  0.3114330  0.2500000  )
        12           O   tau(  12) = (  0.0865230  0.3979560  0.7500000  )
        13           O   tau(  13) = (  0.3114330  0.9134770  0.7500000  )
        14           O   tau(  14) = (  0.6020440  0.6885670  0.7500000  )

     number of k points=     6
                       cart. coord. in units 2pi/alat
        k(    1) = (   0.0000000   0.0000000   0.0000000), wk =   0.0740741
        k(    2) = (   0.0000000   0.0000000   0.6082405), wk =   0.1481481
        k(    3) = (   0.0000000   0.3849001   0.0000000), wk =   0.4444444
        k(    4) = (   0.0000000   0.3849001   0.6082405), wk =   0.8888889
        k(    5) = (   0.3333333   0.5773502   0.0000000), wk =   0.1481481
        k(    6) = (   0.3333333   0.5773502   0.6082405), wk =   0.2962963

                       cryst. coord.
        k(    1) = (   0.0000000   0.0000000   0.0000000), wk =   0.0740741
        k(    2) = (   0.0000000   0.0000000   0.3333333), wk =   0.1481481
        k(    3) = (   0.0000000   0.3333333   0.0000000), wk =   0.4444444
        k(    4) = (   0.0000000   0.3333333   0.3333333), wk =   0.8888889
        k(    5) = (   0.3333333   0.3333333   0.0000000), wk =   0.1481481
        k(    6) = (   0.3333333   0.3333333   0.3333333), wk =   0.2962963

     Check: negative core charge=   -0.000014

     Initial potential from superposition of free atoms

     starting charge      87.9912, renormalised to      88.0000
     Starting wfcs are   94 randomized atomic wfcs
     Checking if some PAW data can be deallocated...

     Self-consistent Calculation

     iteration #  1     ecut=    30.00 Ry     beta= 0.70
     Davidson diagonalization with overlap

     ethr =  1.00E-02,  avg # of iterations =  4.2

     total energy              =   -2149.01466439 Ry
     estimated scf accuracy    <       2.17897984 Ry

[...]

     total energy              =   -2150.08527885 Ry
     estimated scf accuracy    <       0.00000314 Ry

     iteration # 15     ecut=    30.00 Ry     beta= 0.70
     Davidson diagonalization with overlap

     ethr =  3.57E-09,  avg # of iterations =  1.2

     End of self-consistent calculation

          k = 0.0000 0.0000 0.0000 (  2213 PWs)   bands (ev):

   -40.6836 -40.6757 -14.1304 -14.1303 -13.8694 -13.8694 -13.5586 -13.5147
   -11.1760 -10.0693 -10.0691  -9.8205  -9.5903  -9.5901   1.3920   1.9848
     1.9850   3.0651   3.0653   3.3986   4.1945   5.4443   5.6635   5.7898
     5.7901   6.1344   6.1348   6.2051   6.2054   6.8372   6.8374   7.5990
     8.1247   8.1319   8.2129   8.2265   8.2781   8.2781   8.2962   8.2981
     8.3742   8.3743   8.3979   8.3979   8.4005   8.4005  11.4613  13.8914
    14.6493  14.6494  15.2488  15.2489  15.8197  17.4229  17.4230  17.6418
    17.6419  17.7139  17.7140  17.8149  18.0396  20.0841  20.0842  21.3093

     occupation numbers
     1.0000   1.0000   1.0000   1.0000   1.0000   1.0000   1.0000   1.0000
     1.0000   1.0000   1.0000   1.0000   1.0000   1.0000   1.0000   1.0000
     1.0000   1.0000   1.0000   1.0000   1.0000   1.0000   1.0000   1.0000
     1.0000   1.0000   1.0000   1.0000   1.0000   1.0000   1.0000   1.0000
     1.0000   1.0000   1.0000   1.0000   1.0000   1.0000   1.0000   1.0000
     1.0000   1.0000   1.0000   1.0000   0.0000   0.0000   0.0000   0.0000
     0.0000   0.0000   0.0000   0.0000   0.0000   0.0000   0.0000   0.0000
     0.0000   0.0000   0.0000   0.0000   0.0000   0.0000   0.0000   0.0000

[...]

          k = 0.3333 0.5774 0.6082 (  2223 PWs)   bands (ev):

   -40.6658 -40.6658 -14.2187 -14.2186 -13.9708 -13.7753 -13.7753 -13.7067
   -10.2152 -10.1443 -10.1441  -9.9222  -9.7828  -9.7826   1.7366   1.9868
     1.9870   2.4106   3.0731   3.0732   4.9695   4.9696   5.4464   5.4464
     5.8502   5.9072   6.1255   6.1255   6.2152   6.6818   7.0112   7.0113
     8.1207   8.1207   8.1469   8.1470   8.2409   8.2621   8.2621   8.2632
     8.2888   8.2888   8.3126   8.3605   8.4080   8.4080  13.0932  15.4622
    15.7186  15.7187  16.2003  16.3736  16.3737  16.8944  16.8944  16.9721
    17.1763  17.6159  17.6160  18.1108  18.8222  18.8223  20.7747  20.7748

     occupation numbers
     1.0000   1.0000   1.0000   1.0000   1.0000   1.0000   1.0000   1.0000
     1.0000   1.0000   1.0000   1.0000   1.0000   1.0000   1.0000   1.0000
     1.0000   1.0000   1.0000   1.0000   1.0000   1.0000   1.0000   1.0000
     1.0000   1.0000   1.0000   1.0000   1.0000   1.0000   1.0000   1.0000
     1.0000   1.0000   1.0000   1.0000   1.0000   1.0000   1.0000   1.0000
     1.0000   1.0000   1.0000   1.0000   0.0000   0.0000   0.0000   0.0000
     0.0000   0.0000   0.0000   0.0000   0.0000   0.0000   0.0000   0.0000
     0.0000   0.0000   0.0000   0.0000   0.0000   0.0000   0.0000   0.0000

     highest occupied, lowest unoccupied level (ev):     8.4238    8.3630

!    total energy              =   -2150.08527957 Ry
     estimated scf accuracy    <       0.00000002 Ry

     The total energy is the sum of the following terms:
     one-electron contribution =    -783.36641742 Ry
     hartree contribution      =     397.91866755 Ry
     xc contribution           =    -120.30922156 Ry
     ewald contribution        =    -610.97007965 Ry
     one-center paw contrib.   =   -1033.35822849 Ry
      -> PAW hartree energy AE =     775.00816610 Ry
      -> PAW hartree energy PS =    -681.77954301 Ry
      -> PAW xc energy AE      =   -1137.94838013 Ry
      -> PAW xc energy PS      =      68.46486412 Ry
      -> total E_H with PAW    =     491.14729064 Ry
      -> total E_XC with PAW   =   -1189.79273757 Ry

     convergence has been achieved in  15 iterations

     Writing all to output data dir bands_nm/myprefix.save/

     General routines

     Parallel routines

     PAW routines

   This run was terminated on:  15:14:37  16Jul2023

   JOB DONE.