     Program PWSCF v.7.0 starts on  6Jun2023 at 10:28: 2

     K-points division:     npool     =       2
     R & G space division:  proc/nbgrp/npool/nimage =       4

     Reading input from espresso_16295.pwi
Warning: card &CELL ignored
Warning: card / ignored

     Current dimensions of program PWSCF are:
     Max number of different atomic species (ntypx) = 10
     Max number of k-points (npk) =  40000
     Max angular momentum in pseudopotentials (lmaxx) =  4
     Message from routine setup:
     using ibrav=0 with symmetry is DISCOURAGED, use correct ibrav instead

     Using Slab Decomposition

     bravais-lattice index     =            0
     lattice parameter (alat)  =      10.3643  a.u.
     unit-cell volume          =     532.7783 (a.u.)^3
     number of atoms/cell      =            6
     number of atomic types    =            3
     number of electrons       =        44.00
     number of Kohn-Sham states=           64
     kinetic-energy cutoff     =      30.0000  Ry
     charge density cutoff     =     240.0000  Ry
     scf convergence threshold =      1.0E-06
     mixing beta               =       0.7000
     number of iterations used =            8  plain     mixing
     Exchange-correlation=  SLA  PW   PBX  PBC
                           (   1   4   3   4   0   0   0)

     celldm(1)=  10.364288  celldm(2)=   0.000000  celldm(3)=   0.000000
     celldm(4)=   0.000000  celldm(5)=   0.000000  celldm(6)=   0.000000

     crystal axes: (cart. coord. in units of alat)
               a(1) = (   1.000000   0.000000   0.000000 )
               a(2) = (   0.837638   0.546225   0.000000 )
               a(3) = (   0.467371   0.138923   0.876105 )

     reciprocal axes: (cart. coord. in units 2 pi/alat)
               b(1) = (  1.000000 -1.533504 -0.290299 )
               b(2) = (  0.000000  1.830747 -0.290299 )
               b(3) = (  0.000000  0.000000  1.141415 )

     PseudoPot. # 1 for Li read from file:
     /home/pragov/projects/rrg-bengioy-ad/pragov/crystal_structure_design/SSSP/li_pbe_v1.4.uspp.F.UPF
     MD5 check sum: e912e257baa3777c20ea3d68f190483c
     Pseudo is Ultrasoft, Zval =  3.0
     Generated by new atomic code, or converted to UPF format
     Using radial grid of  751 points,  5 beta functions with:
                l(1) =   0
                l(2) =   0
                l(3) =   0
                l(4) =   1
                l(5) =   1
     Q(r) pseudized with 10 coefficients,  rinner =    1.150   1.150   1.150

     PseudoPot. # 2 for V  read from file:
     /home/pragov/projects/rrg-bengioy-ad/pragov/crystal_structure_design/SSSP/v_pbe_v1.4.uspp.F.UPF
     MD5 check sum: 22b79981416ebb76fdaf5b1b8640f6fb
     Pseudo is Ultrasoft + core correction, Zval = 13.0
     Generated by new atomic code, or converted to UPF format
     Using radial grid of  853 points,  6 beta functions with:
                l(1) =   0
                l(2) =   0
                l(3) =   1
                l(4) =   1
                l(5) =   2
                l(6) =   2
     Q(r) pseudized with  8 coefficients,  rinner =    1.100   1.100   1.100
                                                       1.100   1.100

     PseudoPot. # 3 for F  read from file:
     /home/pragov/projects/rrg-bengioy-ad/pragov/crystal_structure_design/SSSP/f_pbe_v1.4.uspp.F.UPF
     MD5 check sum: 4c38b6a325caf53ec0e86aed9459de46
     Pseudo is Ultrasoft, Zval =  7.0
     Generated by new atomic code, or converted to UPF format
     Using radial grid of  799 points,  4 beta functions with:
                l(1) =   0
                l(2) =   0
                l(3) =   1
                l(4) =   1
     Q(r) pseudized with  8 coefficients,  rinner =    0.950   0.950   0.950

     atomic species   valence    mass     pseudopotential
        Li             3.00     6.94000     Li( 1.00)
        V             13.00    50.94150     V ( 1.00)
        F              7.00    18.99840     F ( 1.00)

      2 Sym. Ops., with inversion, found

                                    s                        frac. trans.

      isym =  1     identity

 cryst.   s( 1) = (     1          0          0      )
                  (     0          1          0      )
                  (     0          0          1      )

 cart.    s( 1) = (  1.0000000 -0.0000000 -0.0000000 )
                  (  0.0000000  1.0000000  0.0000000 )
                  (  0.0000000  0.0000000  1.0000000 )

      isym =  2     inversion

 cryst.   s( 2) = (    -1          0          0      )
                  (     0         -1          0      )
                  (     0          0         -1      )

 cart.    s( 2) = ( -1.0000000  0.0000000  0.0000000 )
                  (  0.0000000 -1.0000000 -0.0000000 )
                  (  0.0000000  0.0000000 -1.0000000 )

   Cartesian axes

     site n.     atom                  positions (alat units)
         1           Li  tau(   1) = (   1.1525049   0.3425740   0.4380527  )
         2           V   tau(   2) = (   0.0000000   0.0000000   0.0000000  )
         3           F   tau(   3) = (   1.1422464   0.3395247   0.0211571  )
         4           F   tau(   4) = (   1.8557680   0.5516140   0.3492042  )
         5           F   tau(   5) = (   1.1627634   0.3456233   0.8549484  )
         6           F   tau(   6) = (   0.4492418   0.1335340   0.5269012  )

   Crystallographic axes

     site n.     atom                  positions (cryst. coord.)
         1           Li  tau(   1) = (  0.5000000  0.5000000  0.5000000  )
         2           V   tau(   2) = (  0.0000000  0.0000000  0.0000000  )
         3           F   tau(   3) = (  0.6154420  0.6154420  0.0241490  )
         4           F   tau(   4) = (  0.9084920  0.9084920  0.3985870  )
         5           F   tau(   5) = (  0.3845580  0.3845580  0.9758510  )
         6           F   tau(   6) = (  0.0915080  0.0915080  0.6014130  )

     number of k points=    14
                       cart. coord. in units 2pi/alat
        k(    1) = (   0.0000000   0.0000000   0.0000000), wk =   0.0740741
        k(    2) = (   0.0000000   0.0000000   0.3804717), wk =   0.1481481
        k(    3) = (   0.0000000   0.6102490  -0.0967664), wk =   0.1481481
        k(    4) = (   0.0000000   0.6102490   0.2837053), wk =   0.1481481
        k(    5) = (   0.0000000   0.6102490  -0.4772381), wk =   0.1481481
        k(    6) = (   0.3333333  -0.5111680  -0.0967664), wk =   0.1481481
        k(    7) = (   0.3333333  -0.5111680   0.2837053), wk =   0.1481481
        k(    8) = (   0.3333333  -0.5111680  -0.4772381), wk =   0.1481481
        k(    9) = (   0.3333333   0.0990810  -0.1935327), wk =   0.1481481
        k(   10) = (   0.3333333   0.0990810   0.1869390), wk =   0.1481481
        k(   11) = (   0.3333333   0.0990810  -0.5740044), wk =   0.1481481
        k(   12) = (   0.3333333  -1.1214170   0.0000000), wk =   0.1481481
        k(   13) = (   0.3333333  -1.1214170   0.3804717), wk =   0.1481481
        k(   14) = (   0.3333333  -1.1214170  -0.3804717), wk =   0.1481481

                       cryst. coord.
        k(    1) = (   0.0000000   0.0000000   0.0000000), wk =   0.0740741
        k(    2) = (   0.0000000   0.0000000   0.3333333), wk =   0.1481481
        k(    3) = (   0.0000000   0.3333333  -0.0000000), wk =   0.1481481
        k(    4) = (   0.0000000   0.3333333   0.3333333), wk =   0.1481481
        k(    5) = (   0.0000000   0.3333333  -0.3333333), wk =   0.1481481
        k(    6) = (   0.3333333   0.0000000  -0.0000000), wk =   0.1481481
        k(    7) = (   0.3333333   0.0000000   0.3333333), wk =   0.1481481
        k(    8) = (   0.3333333   0.0000000  -0.3333333), wk =   0.1481481
        k(    9) = (   0.3333333   0.3333333  -0.0000000), wk =   0.1481481
        k(   10) = (   0.3333333   0.3333333   0.3333333), wk =   0.1481481
        k(   11) = (   0.3333333   0.3333333  -0.3333333), wk =   0.1481481
        k(   12) = (   0.3333333  -0.3333333   0.0000000), wk =   0.1481481
        k(   13) = (   0.3333333  -0.3333333   0.3333333), wk =   0.1481481
        k(   14) = (   0.3333333  -0.3333333  -0.3333333), wk =   0.1481481

     Check: negative core charge=   -0.000004

     Initial potential from superposition of free atoms

     starting charge      43.5480, renormalised to      44.0000

     negative rho (up, down):  1.011E-03 0.000E+00
     Starting wfcs are   31 randomized atomic wfcs +   33 random wfcs

     Self-consistent Calculation

     iteration #  1     ecut=    30.00 Ry     beta= 0.70
     Davidson diagonalization with overlap

     ethr =  1.00E-02,  avg # of iterations =  5.8

     negative rho (up, down):  1.808E-03 0.000E+00

     total energy              =    -354.03716393 Ry
     estimated scf accuracy    <       0.80147809 Ry

[...]

     total energy              =    -354.47772427 Ry
     estimated scf accuracy    <       0.00000369 Ry

     iteration # 28     ecut=    30.00 Ry     beta= 0.70
     Davidson diagonalization with overlap

     ethr =  8.40E-09,  avg # of iterations =  1.0

     negative rho (up, down):  1.359E-03 0.000E+00

     End of self-consistent calculation

          k = 0.0000 0.0000 0.0000 (  1473 PWs)   bands (ev):

   -61.2722 -41.1626 -35.3645 -35.0308 -34.9160 -20.5213 -19.9315 -19.7225
   -19.3729  -3.2008  -2.6606  -2.3534  -2.2402  -2.2027  -1.5309  -0.7071
    -0.6270  -0.4959  -0.4780  -0.3872  -0.1577   4.3699   4.6364   4.8895
     6.5515   6.6228   7.9873  11.9211  12.9228  13.5359  14.8508  15.8397
    16.2244  18.3877  19.0711  20.6595  20.8804  22.5436  22.9252  24.0794
    24.8182  25.0546  25.1306  25.7696  26.1311  27.4033  27.6814  27.7578
    28.1687  29.1955  29.4664  29.9839  30.2890  30.5851  31.9972  32.5568
    32.8685  34.6528  34.8829  35.6232  36.7663  36.9895  37.0863  37.1575

     occupation numbers
     1.0000   1.0000   1.0000   1.0000   1.0000   1.0000   1.0000   1.0000
     1.0000   1.0000   1.0000   1.0000   1.0000   1.0000   1.0000   1.0000
     1.0000   1.0000   1.0000   1.0000   1.0000   1.0000   0.0000   0.0000
     0.0000   0.0000   0.0000   0.0000   0.0000   0.0000   0.0000   0.0000
     0.0000   0.0000   0.0000   0.0000   0.0000   0.0000   0.0000   0.0000
     0.0000   0.0000   0.0000   0.0000   0.0000   0.0000   0.0000   0.0000
     0.0000   0.0000   0.0000   0.0000   0.0000   0.0000   0.0000   0.0000
     0.0000   0.0000   0.0000   0.0000   0.0000   0.0000   0.0000   0.0000

[...]

          k = 0.3333-1.1214-0.3805 (  1494 PWs)   bands (ev):

   -61.2644 -41.1578 -35.3544 -35.1593 -34.8892 -20.1657 -20.1027 -19.6250
   -19.4318  -2.7965  -2.6286  -2.4870  -2.2142  -2.1258  -1.7470  -1.2258
    -1.1272  -0.9139  -0.6878  -0.3521  -0.2624   4.6181   4.6530   4.6630
     6.0054   6.7731  11.5143  12.4207  12.6891  14.1272  15.5473  16.0860
    17.0524  17.6170  18.0289  19.0089  19.0466  19.9331  21.1296  21.7941
    22.0510  23.1783  25.3015  25.7931  27.0101  27.6334  28.8146  29.4695
    30.0151  30.0442  31.1791  32.2259  32.5565  32.9259  33.4030  34.1448
    34.4259  35.4448  35.6810  36.3054  36.9310  37.2789  37.9121  39.0257

     occupation numbers
     1.0000   1.0000   1.0000   1.0000   1.0000   1.0000   1.0000   1.0000
     1.0000   1.0000   1.0000   1.0000   1.0000   1.0000   1.0000   1.0000
     1.0000   1.0000   1.0000   1.0000   1.0000   1.0000   0.0000   0.0000
     0.0000   0.0000   0.0000   0.0000   0.0000   0.0000   0.0000   0.0000
     0.0000   0.0000   0.0000   0.0000   0.0000   0.0000   0.0000   0.0000
     0.0000   0.0000   0.0000   0.0000   0.0000   0.0000   0.0000   0.0000
     0.0000   0.0000   0.0000   0.0000   0.0000   0.0000   0.0000   0.0000
     0.0000   0.0000   0.0000   0.0000   0.0000   0.0000   0.0000   0.0000

     highest occupied, lowest unoccupied level (ev):     4.6406    4.6243

!    total energy              =    -354.47772440 Ry
     estimated scf accuracy    <       0.00000002 Ry

     The total energy is the sum of the following terms:
     one-electron contribution =    -247.97918974 Ry
     hartree contribution      =     139.78387469 Ry
     xc contribution           =     -60.38801405 Ry
     ewald contribution        =    -185.89439530 Ry

     convergence has been achieved in  28 iterations

     Writing all to output data dir calculations_bands/myprefix.save/

     General routines

     Parallel routines

   This run was terminated on:  10:28:25   6Jun2023

   JOB DONE.