     Program PWSCF v.7.1 starts on 16Jul2023 at 23:32:52

     Reading input from espresso_16918.pwi
Warning: card &CELL ignored
Warning: card / ignored

     Current dimensions of program PWSCF are:
     Max number of different atomic species (ntypx) = 10
     Max number of k-points (npk) =  40000
     Max angular momentum in pseudopotentials (lmaxx) =  4
     file Cd.pbe-dn-rrkjus_psl.0.3.1.UPF: wavefunction(s)  4D renormalized
     Message from routine setup:
     using ibrav=0 with symmetry is DISCOURAGED, use correct ibrav instead

     K-points division:     npool     =       2
     R & G space division:  proc/nbgrp/npool/nimage =       4
     Subspace diagonalization in iterative solution of the eigenvalue problem:
     one sub-group per band group will be used

     Using Slab Decomposition

     bravais-lattice index     =            0
     lattice parameter (alat)  =       8.4989  a.u.
     unit-cell volume          =    5249.4251 (a.u.)^3
     number of atoms/cell      =           20
     number of atomic types    =            3
     number of electrons       =       184.00
     number of Kohn-Sham states=          256
     kinetic-energy cutoff     =      30.0000  Ry
     charge density cutoff     =     240.0000  Ry
     scf convergence threshold =      1.0E-06
     mixing beta               =       0.7000
     number of iterations used =            8  plain     mixing
     Exchange-correlation= SLA  PW   PBX  PBC
                           (   1   4   3   4   0   0   0)

     celldm(1)=   8.498894  celldm(2)=   0.000000  celldm(3)=   0.000000
     celldm(4)=   0.000000  celldm(5)=   0.000000  celldm(6)=   0.000000

     crystal axes: (cart. coord. in units of alat)
               a(1) = (   1.000000   0.000000   0.000000 )
               a(2) = (   0.000000   2.311504   0.000000 )
               a(3) = (   0.000000   0.000000   3.699388 )

     reciprocal axes: (cart. coord. in units 2 pi/alat)
               b(1) = (  1.000000  0.000000  0.000000 )
               b(2) = (  0.000000  0.432619  0.000000 )
               b(3) = (  0.000000  0.000000  0.270315 )

     PseudoPot. # 1 for Tl read from file:
     /lustre07/scratch/pragov/crystal_structure_design/utils/SSSP/Tl_pbe_v1.2.uspp.F.UPF
     MD5 check sum: b76cf1f7e72655a2b2c53cf6385d7059
     Pseudo is Ultrasoft + core correction, Zval = 13.0
     Generated by new atomic code, or converted to UPF format
     Using radial grid of  899 points,  6 beta functions with:
                l(1) =   0
                l(2) =   0
                l(3) =   1
                l(4) =   1
                l(5) =   2
                l(6) =   2
     Q(r) pseudized with  6 coefficients,  rinner =    1.100   1.100   1.100
                                                       1.100   1.100

     PseudoPot. # 2 for Cd read from file:
     /lustre07/scratch/pragov/crystal_structure_design/utils/SSSP/Cd.pbe-dn-rrkjus_psl.0.3.1.UPF
     MD5 check sum: 558e9f355611b531a870a69ef6ace9e2
     Pseudo is Ultrasoft + core correction, Zval = 12.0
     Generated using "atomic" code by A. Dal Corso  v.5.0.99 svn rev. 10869
     Using radial grid of 1239 points,  6 beta functions with:
                l(1) =   0
                l(2) =   0
                l(3) =   1
                l(4) =   1
                l(5) =   2
                l(6) =   2
     Q(r) pseudized with 0 coefficients

     PseudoPot. # 3 for I  read from file:
     /lustre07/scratch/pragov/crystal_structure_design/utils/SSSP/I.pbe-n-kjpaw_psl.0.2.UPF
     MD5 check sum: d4ef18d9c8f18dc85e5843bca1e50dc0
     Pseudo is Projector augmented-wave + core cor, Zval =  7.0
     Generated using "atomic" code by A. Dal Corso  v.5.0.99 svn rev. 10869
     Shape of augmentation charge: PSQ
     Using radial grid of 1247 points,  4 beta functions with:
                l(1) =   0
                l(2) =   0
                l(3) =   1
                l(4) =   1
     Q(r) pseudized with 0 coefficients

     atomic species   valence    mass     pseudopotential
        Tl            13.00   204.38000     Tl( 1.00)
        Cd            12.00   112.41400     Cd( 1.00)
        I              7.00   126.90447     I ( 1.00)

      8 Sym. Ops., with inversion, found ( 6 have fractional translation)

                                    s                        frac. trans.

      isym =  1     identity

 cryst.   s( 1) = (     1          0          0      )
                  (     0          1          0      )
                  (     0          0          1      )

 cart.    s( 1) = (  1.0000000  0.0000000  0.0000000 )
                  (  0.0000000  1.0000000  0.0000000 )
                  (  0.0000000  0.0000000  1.0000000 )

      isym =  2     180 deg rotation - cart. axis [0,0,1]

 cryst.   s( 2) = (    -1          0          0      )    f =(  0.0000000 )
                  (     0         -1          0      )       (  0.5000000 )
                  (     0          0          1      )       ( -0.5000000 )

 cart.    s( 2) = ( -1.0000000  0.0000000  0.0000000 )    f =(  0.0000000 )
                  (  0.0000000 -1.0000000  0.0000000 )       (  1.1557520 )
                  (  0.0000000  0.0000000  1.0000000 )       ( -1.8496939 )

[...]

      isym =  4     180 deg rotation - cart. axis [1,0,0]

[...]

      isym =  5     inversion

 cryst.   s( 5) = (    -1          0          0      )
                  (     0         -1          0      )
                  (     0          0         -1      )

 cart.    s( 5) = ( -1.0000000  0.0000000  0.0000000 )
                  (  0.0000000 -1.0000000  0.0000000 )
                  (  0.0000000  0.0000000 -1.0000000 )

      isym =  6     inv. 180 deg rotation - cart. axis [0,0,1]

[...]

      isym =  8     inv. 180 deg rotation - cart. axis [1,0,0]

 cryst.   s( 8) = (    -1          0          0      )    f =(  0.5000000 )
                  (     0          1          0      )       (  0.0000000 )
                  (     0          0          1      )       (  0.0000000 )

 cart.    s( 8) = ( -1.0000000  0.0000000  0.0000000 )    f =(  0.5000000 )
                  (  0.0000000  1.0000000  0.0000000 )       (  0.0000000 )
                  (  0.0000000  0.0000000  1.0000000 )       (  0.0000000 )

   Cartesian axes

     site n.     atom                  positions (alat units)
         1           Tl  tau(   1) = (   0.2500000   1.0461798   0.6486728  )
         2           Tl  tau(   2) = (   0.7500000   1.2653243   3.0507149  )
         3           Tl  tau(   3) = (   0.2500000   2.2019319   1.2010210  )
         4           Tl  tau(   4) = (   0.7500000   0.1095722   2.4983667  )
         5           Cd  tau(   5) = (   0.2500000   0.3878034   3.4994469  )
         6           Cd  tau(   6) = (   0.7500000   1.9237007   0.1999408  )
         7           Cd  tau(   7) = (   0.2500000   1.5435554   2.0496347  )
         8           Cd  tau(   8) = (   0.7500000   0.7679487   1.6497531  )
         9           I   tau(   9) = (   0.7500000   1.1124275   2.2392394  )
        10           I   tau(  10) = (   0.2500000   1.1990766   1.4601483  )
        11           I   tau(  11) = (   0.7500000   2.2681796   3.3098422  )
        12           I   tau(  12) = (   0.2500000   0.0433245   0.3895455  )
        13           I   tau(  13) = (   0.7500000   0.7764180   0.0380852  )
        14           I   tau(  14) = (   0.2500000   1.5350860   3.6613025  )
        15           I   tau(  15) = (   0.7500000   1.9321701   1.8116087  )
        16           I   tau(  16) = (   0.2500000   0.3793340   1.8877791  )
        17           I   tau(  17) = (   0.7500000   0.4857672   1.0650759  )
        18           I   tau(  18) = (   0.2500000   1.8257369   2.6343118  )
        19           I   tau(  19) = (   0.7500000   1.6415192   0.7846179  )
        20           I   tau(  20) = (   0.2500000   0.6699848   2.9147698  )

   Crystallographic axes

     site n.     atom                  positions (cryst. coord.)
         1           Tl  tau(   1) = (  0.2500000  0.4525970  0.1753460  )
         2           Tl  tau(   2) = (  0.7500000  0.5474030  0.8246540  )
         3           Tl  tau(   3) = (  0.2500000  0.9525970  0.3246540  )
         4           Tl  tau(   4) = (  0.7500000  0.0474030  0.6753460  )
         5           Cd  tau(   5) = (  0.2500000  0.1677710  0.9459530  )
         6           Cd  tau(   6) = (  0.7500000  0.8322290  0.0540470  )
         7           Cd  tau(   7) = (  0.2500000  0.6677710  0.5540470  )
         8           Cd  tau(   8) = (  0.7500000  0.3322290  0.4459530  )
         9           I   tau(   9) = (  0.7500000  0.4812570  0.6053000  )
        10           I   tau(  10) = (  0.2500000  0.5187430  0.3947000  )
        11           I   tau(  11) = (  0.7500000  0.9812570  0.8947000  )
        12           I   tau(  12) = (  0.2500000  0.0187430  0.1053000  )
        13           I   tau(  13) = (  0.7500000  0.3358930  0.0102950  )
        14           I   tau(  14) = (  0.2500000  0.6641070  0.9897050  )
        15           I   tau(  15) = (  0.7500000  0.8358930  0.4897050  )
        16           I   tau(  16) = (  0.2500000  0.1641070  0.5102950  )
        17           I   tau(  17) = (  0.7500000  0.2101520  0.2879060  )
        18           I   tau(  18) = (  0.2500000  0.7898480  0.7120940  )
        19           I   tau(  19) = (  0.7500000  0.7101520  0.2120940  )
        20           I   tau(  20) = (  0.2500000  0.2898480  0.7879060  )

     number of k points=     8
                       cart. coord. in units 2pi/alat
        k(    1) = (   0.0000000   0.0000000   0.0000000), wk =   0.0740741
        k(    2) = (   0.0000000   0.0000000   0.0901050), wk =   0.1481481
        k(    3) = (   0.0000000   0.1442062   0.0000000), wk =   0.1481481
        k(    4) = (   0.0000000   0.1442062   0.0901050), wk =   0.2962963
        k(    5) = (   0.3333333   0.0000000   0.0000000), wk =   0.1481481
        k(    6) = (   0.3333333   0.0000000   0.0901050), wk =   0.2962963
        k(    7) = (   0.3333333   0.1442062   0.0000000), wk =   0.2962963
        k(    8) = (   0.3333333   0.1442062   0.0901050), wk =   0.5925926

                       cryst. coord.
        k(    1) = (   0.0000000   0.0000000   0.0000000), wk =   0.0740741
        k(    2) = (   0.0000000   0.0000000   0.3333333), wk =   0.1481481
        k(    3) = (   0.0000000   0.3333333   0.0000000), wk =   0.1481481
        k(    4) = (   0.0000000   0.3333333   0.3333333), wk =   0.2962963
        k(    5) = (   0.3333333   0.0000000   0.0000000), wk =   0.1481481
        k(    6) = (   0.3333333   0.0000000   0.3333333), wk =   0.2962963
        k(    7) = (   0.3333333   0.3333333   0.0000000), wk =   0.2962963
        k(    8) = (   0.3333333   0.3333333   0.3333333), wk =   0.5925926

     Check: negative core charge=   -0.000002

     Initial potential from superposition of free atoms

     starting charge     183.9601, renormalised to     184.0000

     negative rho (up, down):  2.024E-01 0.000E+00
     Starting wfcs are  120 randomized atomic wfcs +  136 random wfcs
     Checking if some PAW data can be deallocated...

     Self-consistent Calculation

     iteration #  1     ecut=    30.00 Ry     beta= 0.70
     Davidson diagonalization with overlap

     ethr =  1.00E-02,  avg # of iterations =  7.0

     Threshold (ethr) on eigenvalues was too large:
     Diagonalizing with lowered threshold

     Davidson diagonalization with overlap

[...]

     negative rho (up, down):  2.014E-01 0.000E+00

     total energy              =   -5616.38971321 Ry
     estimated scf accuracy    <       0.32336743 Ry

[...]

     c_bands:  1 eigenvalues not converged
     ethr =  1.46E-05,  avg # of iterations = 13.1

[...]

     total energy              =   -5616.50603469 Ry
     estimated scf accuracy    <       0.00000465 Ry

     iteration #  8     ecut=    30.00 Ry     beta= 0.70
     Davidson diagonalization with overlap

     ethr =  2.53E-09,  avg # of iterations =  2.0

     negative rho (up, down):  2.001E-01 0.000E+00

     End of self-consistent calculation

          k = 0.0000 0.0000 0.0000 ( 14587 PWs)   bands (ev):

    -8.1270  -8.0632  -7.7851  -7.7067  -7.6610  -7.6367  -7.6063  -7.5569
    -7.4796  -7.4620  -7.4470  -7.4368  -6.3668  -6.3667  -6.3656  -6.3642
    -6.3367  -6.3361  -6.3360  -6.3355  -6.3262  -6.3262  -6.3232  -6.3232
    -6.3227  -6.3190  -6.3130  -6.3112  -6.3016  -6.2982  -6.2980  -6.2903
    -3.7322  -3.7305  -3.7183  -3.7173  -3.6917  -3.6899  -3.6286  -3.6279
    -3.6201  -3.6185  -3.5923  -3.5909  -3.5891  -3.5783  -3.5753  -3.5707
    -3.5463  -3.5437  -3.5398  -3.5190  -1.1872  -1.0438  -0.7803  -0.7222
     0.2036   0.2724   0.4800   0.7138   1.2505   1.2623   1.8267   1.8340
     2.0031   2.0188   2.1097   2.1505   2.2058   2.4479   2.6422   2.7447
     2.8539   2.9499   3.0164   3.0203   3.0549   3.1341   3.1808   3.1870
     3.2098   3.2197   3.2444   3.2954   3.3172   3.3876   3.4235   3.4672
     3.5147   3.6506   3.6646   3.6928   6.1233   6.1853   6.2023   6.4068
     7.0332   7.3098   7.3196   7.5945   8.2001   8.3110   8.3961   8.4252
     8.4968   8.5841   8.7262   8.7281   8.7803   8.9013   9.1275   9.2600
     9.4504   9.8505   9.9017   9.9881  10.0010  10.1391  10.2128  10.3546
    10.5213  10.5753  10.6841  10.9810  11.0282  11.0762  11.6749  11.6923
    11.9372  12.1385  12.1702  12.2001  12.2072  12.2513  12.2602  12.3843
    12.6037  12.6969  12.7187  12.8089  12.8574  12.8615  12.9118  12.9651
    13.1324  13.1560  13.3487  13.5152  13.6383  13.7078  13.7678  13.9210
    13.9243  14.0954  14.2129  14.2218  14.2967  14.3814  14.4208  14.4319
    14.4788  14.7605  14.8173  14.9201  15.1785  15.2655  15.3763  15.4280
    15.4379  15.5828  15.6580  15.6752  15.8608  15.9438  16.2525  16.3310
    16.3450  16.4094  16.4259  16.5314  16.7249  16.7764  16.7919  16.8417
    17.1534  17.1744  17.2235  17.2254  17.3394  17.3905  17.7077  17.7373
    17.7751  17.8922  17.9828  18.1001  18.2363  18.3166  18.5442  18.5984
    18.6610  18.6805  18.7003  18.8785  19.0830  19.2465  19.2890  19.4609
    19.5610  19.6962  19.7599  19.8501  19.8855  19.9542  19.9845  20.0075
    20.0961  20.1855  20.1979  20.4025  20.4459  20.5001  20.5447  20.8019
    20.8175  20.8438  20.9742  21.0405  21.0844  21.1911  21.2753  21.4182
    21.4194  21.4715  21.6857  21.7092  21.8833  21.9399  22.1059  22.1148
    22.1303  22.2204  22.2317  22.3507  22.3854  22.4812  22.5249  22.8979
    22.9188  23.0249  23.0279  23.0719  23.1654  23.4017  23.5008  23.5801

     occupation numbers
     1.0000   1.0000   1.0000   1.0000   1.0000   1.0000   1.0000   1.0000
     1.0000   1.0000   1.0000   1.0000   1.0000   1.0000   1.0000   1.0000
     1.0000   1.0000   1.0000   1.0000   1.0000   1.0000   1.0000   1.0000
     1.0000   1.0000   1.0000   1.0000   1.0000   1.0000   1.0000   1.0000
     1.0000   1.0000   1.0000   1.0000   1.0000   1.0000   1.0000   1.0000
     1.0000   1.0000   1.0000   1.0000   1.0000   1.0000   1.0000   1.0000
     1.0000   1.0000   1.0000   1.0000   1.0000   1.0000   1.0000   1.0000
     1.0000   1.0000   1.0000   1.0000   1.0000   1.0000   1.0000   1.0000
     1.0000   1.0000   1.0000   1.0000   1.0000   1.0000   1.0000   1.0000
     1.0000   1.0000   1.0000   1.0000   1.0000   1.0000   1.0000   1.0000
     1.0000   1.0000   1.0000   1.0000   1.0000   1.0000   1.0000   1.0000
     1.0000   1.0000   1.0000   1.0000   0.0000   0.0000   0.0000   0.0000
     0.0000   0.0000   0.0000   0.0000   0.0000   0.0000   0.0000   0.0000
     0.0000   0.0000   0.0000   0.0000   0.0000   0.0000   0.0000   0.0000
     0.0000   0.0000   0.0000   0.0000   0.0000   0.0000   0.0000   0.0000
     0.0000   0.0000   0.0000   0.0000   0.0000   0.0000   0.0000   0.0000
     0.0000   0.0000   0.0000   0.0000   0.0000   0.0000   0.0000   0.0000
     0.0000   0.0000   0.0000   0.0000   0.0000   0.0000   0.0000   0.0000
     0.0000   0.0000   0.0000   0.0000   0.0000   0.0000   0.0000   0.0000
     0.0000   0.0000   0.0000   0.0000   0.0000   0.0000   0.0000   0.0000
     0.0000   0.0000   0.0000   0.0000   0.0000   0.0000   0.0000   0.0000
     0.0000   0.0000   0.0000   0.0000   0.0000   0.0000   0.0000   0.0000
     0.0000   0.0000   0.0000   0.0000   0.0000   0.0000   0.0000   0.0000
     0.0000   0.0000   0.0000   0.0000   0.0000   0.0000   0.0000   0.0000
     0.0000   0.0000   0.0000   0.0000   0.0000   0.0000   0.0000   0.0000
     0.0000   0.0000   0.0000   0.0000   0.0000   0.0000   0.0000   0.0000
     0.0000   0.0000   0.0000   0.0000   0.0000   0.0000   0.0000   0.0000
     0.0000   0.0000   0.0000   0.0000   0.0000   0.0000   0.0000   0.0000
     0.0000   0.0000   0.0000   0.0000   0.0000   0.0000   0.0000   0.0000
     0.0000   0.0000   0.0000   0.0000   0.0000   0.0000   0.0000   0.0000
     0.0000   0.0000   0.0000   0.0000   0.0000   0.0000   0.0000   0.0000
     0.0000   0.0000   0.0000   0.0000   0.0000   0.0000   0.0000   0.0000

[...]

          k = 0.3333 0.1442 0.0901 ( 14556 PWs)   bands (ev):

    -7.8597  -7.8505  -7.6883  -7.6849  -7.6203  -7.6159  -7.4958  -7.4938
    -7.4346  -7.4290  -7.4209  -7.4173  -6.3429  -6.3426  -6.3420  -6.3419
    -6.3340  -6.3335  -6.3327  -6.3320  -6.3243  -6.3237  -6.3215  -6.3204
    -6.3169  -6.3160  -6.3112  -6.3088  -6.2976  -6.2956  -6.2813  -6.2790
    -3.6983  -3.6964  -3.6469  -3.6446  -3.6075  -3.6064  -3.6061  -3.6051
    -3.5793  -3.5780  -3.5759  -3.5754  -3.5649  -3.5646  -3.5583  -3.5581
    -3.5478  -3.5437  -3.5412  -3.5389  -0.7740  -0.7681  -0.6479  -0.6342
     0.0658   0.0835   0.2564   0.2624   1.1239   1.1883   1.4310   1.4731
     1.5035   1.5301   1.6403   1.7505   1.9808   1.9907   2.1840   2.2502
     2.3452   2.4026   2.4628   2.5390   2.7660   2.8111   2.8434   2.8806
     2.9123   2.9451   3.0310   3.0566   3.0943   3.1165   3.2290   3.2774
     3.3542   3.3659   3.5009   3.5505   6.2325   6.2810   6.4832   6.5320
     6.8350   7.0183   7.2972   7.4087   7.8105   7.9228   7.9956   8.0264
     8.1597   8.2627   8.3920   8.5410   9.4914   9.6295   9.6647   9.7533
     9.8877  10.0276  10.0917  10.2785  10.3205  10.4298  10.4609  10.5331
    10.7165  10.8036  10.9401  11.0059  11.2735  11.3837  11.5102  11.5661
    11.8030  11.8885  12.0206  12.0541  12.2125  12.2335  12.4630  12.5969
    12.8172  12.9723  12.9924  13.0965  13.1498  13.3252  13.4278  13.5479
    13.7276  13.7952  13.9169  13.9735  14.1385  14.2542  14.3784  14.5379
    14.5775  14.6040  14.7023  14.7651  14.9359  15.0456  15.0874  15.2999
    15.3957  15.4764  15.5022  15.5962  15.6263  15.8893  15.9507  16.1592
    16.2273  16.2411  16.3401  16.5623  16.7391  16.8065  16.9624  17.0037
    17.0858  17.1516  17.2693  17.3652  17.4335  17.5334  17.6167  17.6272
    17.8684  17.9145  17.9362  18.0426  18.1790  18.2791  18.3194  18.4350
    18.4461  18.5942  18.6985  18.7756  18.8664  18.9877  19.0941  19.1596
    19.1947  19.2554  19.3030  19.4534  19.4902  19.5726  19.6151  19.6355
    19.7697  19.7822  19.8835  19.9448  19.9662  20.0326  20.0782  20.1349
    20.1771  20.2547  20.3635  20.4465  20.5524  20.6175  20.6270  20.7215
    20.7352  20.7799  20.8730  20.9828  21.0179  21.0409  21.1852  21.2701
    21.3299  21.3978  21.4117  21.5821  21.6573  21.8079  21.8581  21.8689
    21.9752  22.0190  22.0665  22.2276  22.2566  22.3948  22.4580  22.5039
    22.5430  22.6466  22.7720  22.8139  22.9086  22.9385  23.0849  23.1701

     occupation numbers
     1.0000   1.0000   1.0000   1.0000   1.0000   1.0000   1.0000   1.0000
     1.0000   1.0000   1.0000   1.0000   1.0000   1.0000   1.0000   1.0000
     1.0000   1.0000   1.0000   1.0000   1.0000   1.0000   1.0000   1.0000
     1.0000   1.0000   1.0000   1.0000   1.0000   1.0000   1.0000   1.0000
     1.0000   1.0000   1.0000   1.0000   1.0000   1.0000   1.0000   1.0000
     1.0000   1.0000   1.0000   1.0000   1.0000   1.0000   1.0000   1.0000
     1.0000   1.0000   1.0000   1.0000   1.0000   1.0000   1.0000   1.0000
     1.0000   1.0000   1.0000   1.0000   1.0000   1.0000   1.0000   1.0000
     1.0000   1.0000   1.0000   1.0000   1.0000   1.0000   1.0000   1.0000
     1.0000   1.0000   1.0000   1.0000   1.0000   1.0000   1.0000   1.0000
     1.0000   1.0000   1.0000   1.0000   1.0000   1.0000   1.0000   1.0000
     1.0000   1.0000   1.0000   1.0000   0.0000   0.0000   0.0000   0.0000
     0.0000   0.0000   0.0000   0.0000   0.0000   0.0000   0.0000   0.0000
     0.0000   0.0000   0.0000   0.0000   0.0000   0.0000   0.0000   0.0000
     0.0000   0.0000   0.0000   0.0000   0.0000   0.0000   0.0000   0.0000
     0.0000   0.0000   0.0000   0.0000   0.0000   0.0000   0.0000   0.0000
     0.0000   0.0000   0.0000   0.0000   0.0000   0.0000   0.0000   0.0000
     0.0000   0.0000   0.0000   0.0000   0.0000   0.0000   0.0000   0.0000
     0.0000   0.0000   0.0000   0.0000   0.0000   0.0000   0.0000   0.0000
     0.0000   0.0000   0.0000   0.0000   0.0000   0.0000   0.0000   0.0000
     0.0000   0.0000   0.0000   0.0000   0.0000   0.0000   0.0000   0.0000
     0.0000   0.0000   0.0000   0.0000   0.0000   0.0000   0.0000   0.0000
     0.0000   0.0000   0.0000   0.0000   0.0000   0.0000   0.0000   0.0000
     0.0000   0.0000   0.0000   0.0000   0.0000   0.0000   0.0000   0.0000
     0.0000   0.0000   0.0000   0.0000   0.0000   0.0000   0.0000   0.0000
     0.0000   0.0000   0.0000   0.0000   0.0000   0.0000   0.0000   0.0000
     0.0000   0.0000   0.0000   0.0000   0.0000   0.0000   0.0000   0.0000
     0.0000   0.0000   0.0000   0.0000   0.0000   0.0000   0.0000   0.0000
     0.0000   0.0000   0.0000   0.0000   0.0000   0.0000   0.0000   0.0000
     0.0000   0.0000   0.0000   0.0000   0.0000   0.0000   0.0000   0.0000
     0.0000   0.0000   0.0000   0.0000   0.0000   0.0000   0.0000   0.0000
     0.0000   0.0000   0.0000   0.0000   0.0000   0.0000   0.0000   0.0000

     highest occupied, lowest unoccupied level (ev):     3.7299    5.9087

!    total energy              =   -5616.50603590 Ry
     estimated scf accuracy    <       0.00000079 Ry

     The total energy is the sum of the following terms:
     one-electron contribution =    -408.23279087 Ry
     hartree contribution      =     325.04322617 Ry
     xc contribution           =    -920.42169244 Ry
     ewald contribution        =    -766.59244389 Ry
     one-center paw contrib.   =   -3846.30233486 Ry
      -> PAW hartree energy AE =       0.00000000 Ry
      -> PAW hartree energy PS =       0.00000000 Ry
      -> PAW xc energy AE      =       0.00000000 Ry
      -> PAW xc energy PS      =       0.00000000 Ry
      -> total E_H with PAW    =     325.04322617 Ry
      -> total E_XC with PAW   =    -920.42169244 Ry

     convergence has been achieved in   8 iterations

     Writing all to output data dir bands_nm/myprefix.save/

     General routines

     Parallel routines

     PAW routines

   This run was terminated on:  23:34:21  16Jul2023

   JOB DONE.