     Program PWSCF v.7.1 starts on 15Jul2023 at 20:23:43

     Reading input from espresso_7614.pwi
Warning: card &CELL ignored
Warning: card / ignored

     Current dimensions of program PWSCF are:
     Max number of different atomic species (ntypx) = 10
     Max number of k-points (npk) =  40000
     Max angular momentum in pseudopotentials (lmaxx) =  4
     file Cu.paw.z_11.ld1.psl.v1.0.0-low.upf: wavefunction(s)  4S 3D renormalized

     K-points division:     npool     =       2
     R & G space division:  proc/nbgrp/npool/nimage =       4
     Subspace diagonalization in iterative solution of the eigenvalue problem:
     one sub-group per band group will be used

     Using Slab Decomposition

     bravais-lattice index     =            0
     lattice parameter (alat)  =      12.7970  a.u.
     unit-cell volume          =    2290.4833 (a.u.)^3
     number of atoms/cell      =           16
     number of atomic types    =            5
     number of electrons       =       160.00
     number of Kohn-Sham states=          256
     kinetic-energy cutoff     =      30.0000  Ry
     charge density cutoff     =     240.0000  Ry
     scf convergence threshold =      1.0E-06
     mixing beta               =       0.7000
     number of iterations used =            8  plain     mixing
     Exchange-correlation=  SLA  PW   PBX  PBC
                           (   1   4   3   4   0   0   0)

     celldm(1)=  12.797047  celldm(2)=   0.000000  celldm(3)=   0.000000
     celldm(4)=   0.000000  celldm(5)=   0.000000  celldm(6)=   0.000000

     crystal axes: (cart. coord. in units of alat)
               a(1) = (   1.000000   0.000000   0.000000 )
               a(2) = (  -0.330739   0.943722   0.000000 )
               a(3) = (   0.000399   0.000563   1.158120 )

     reciprocal axes: (cart. coord. in units 2 pi/alat)
               b(1) = (  1.000000  0.350462 -0.000515 )
               b(2) = (  0.000000  1.059634 -0.000515 )
               b(3) = (  0.000000  0.000000  0.863468 )

     PseudoPot. # 1 for Zn read from file:
     /lustre07/scratch/pragov/crystal_structure_design/utils/SSSP/Zn_pbe_v1.uspp.F.UPF
     MD5 check sum: df62231357ef9e81f77b2b3087fa5675
     Pseudo is Ultrasoft, Zval = 20.0
     Generated by new atomic code, or converted to UPF format
     Using radial grid of  943 points,  6 beta functions with:
                l(1) =   0
                l(2) =   0
                l(3) =   1
                l(4) =   1
                l(5) =   2
                l(6) =   2
     Q(r) pseudized with  8 coefficients,  rinner =    1.100   1.100   1.100
                                                       1.100   1.100

     PseudoPot. # 2 for Cu read from file:
     /lustre07/scratch/pragov/crystal_structure_design/utils/SSSP/Cu.paw.z_11.ld1.psl.v1.0.0-low.upf
     MD5 check sum: 619f40885d92a09a85a8b37550532d0c
     Pseudo is Projector augmented-wave + core cor, Zval = 11.0
     Generated using &quot;atomic&quot; code by A. Dal Corso  v.6.3MaX
     Shape of augmentation charge: PSQ
     Using radial grid of 1199 points,  6 beta functions with:
                l(1) =   0
                l(2) =   0
                l(3) =   1
                l(4) =   1
                l(5) =   2
                l(6) =   2
     Q(r) pseudized with 0 coefficients

     PseudoPot. # 3 for Sn read from file:
     /lustre07/scratch/pragov/crystal_structure_design/utils/SSSP/Sn_pbe_v1.uspp.F.UPF
     MD5 check sum: 4cf58ce39ec5d5d420df3dd08604eb00
     Pseudo is Ultrasoft + core correction, Zval = 14.0
     Generated by new atomic code, or converted to UPF format
     Using radial grid of  891 points,  6 beta functions with:
                l(1) =   0
                l(2) =   0
                l(3) =   1
                l(4) =   1
                l(5) =   2
                l(6) =   2
     Q(r) pseudized with  6 coefficients,  rinner =    1.200   1.200   1.200
                                                       1.200   1.200

     PseudoPot. # 4 for Hg read from file:
     /lustre07/scratch/pragov/crystal_structure_design/utils/SSSP/Hg_ONCV_PBE-1.0.oncvpsp.upf
     MD5 check sum: dd5a8773074bfcf4280086d4d95875c4
     Pseudo is Norm-conserving, Zval = 20.0
     Generated using ONCVPSP code by D. R. Hamann
     Using radial grid of 1262 points,  8 beta functions with:
                l(1) =   0
                l(2) =   0
                l(3) =   1
                l(4) =   1
                l(5) =   2
                l(6) =   2
                l(7) =   3
                l(8) =   3

     PseudoPot. # 5 for S  read from file:
     /lustre07/scratch/pragov/crystal_structure_design/utils/SSSP/s_pbe_v1.4.uspp.F.UPF
     MD5 check sum: 88d86576ff6df21479756cfb9bdac1df
     Pseudo is Ultrasoft + core correction, Zval =  6.0
     Generated by new atomic code, or converted to UPF format
     Using radial grid of  907 points,  6 beta functions with:
                l(1) =   0
                l(2) =   0
                l(3) =   1
                l(4) =   1
                l(5) =   2
                l(6) =   2
     Q(r) pseudized with  8 coefficients,  rinner =    1.300   1.300   1.300
                                                       1.300   1.300

     atomic species   valence    mass     pseudopotential
        Zn            20.00    65.38000     Zn( 1.00)
        Cu            11.00    63.54600     Cu( 1.00)
        Sn            14.00   118.71000     Sn( 1.00)
        Hg            20.00   200.59200     Hg( 1.00)
        S              6.00    32.06000     S ( 1.00)

     No symmetry found

                                    s                        frac. trans.

      isym =  1     identity

 cryst.   s( 1) = (     1          0          0      )
                  (     0          1          0      )
                  (     0          0          1      )

 cart.    s( 1) = (  1.0000000  0.0000000 -0.0000000 )
                  (  0.0000000  1.0000000  0.0000000 )
                  (  0.0000000  0.0000000  1.0000000 )

   Cartesian axes

     site n.     atom                  positions (alat units)
         1           Zn  tau(   1) = (   0.3352003   0.4718803   0.5790600  )
         2           Cu  tau(   2) = (  -0.3276406   0.9419484   0.5790600  )
         3           Cu  tau(   3) = (   0.3318961   0.4738006   0.0000000  )
         4           Cu  tau(   4) = (  -0.1637859   0.4742010   0.8647230  )
         5           Cu  tau(   5) = (   0.1679762   0.9420172   0.2933969  )
         6           Sn  tau(   6) = (  -0.1651676   0.4723796   0.2938741  )
         7           Sn  tau(   7) = (   0.1692381   0.9439235   0.8642458  )
         8           Hg  tau(   8) = (   0.9993320   0.0004737   0.0000000  )
         9           S   tau(   9) = (   0.1667573   0.5754702   0.8728229  )
        10           S   tau(  10) = (   0.8209728   0.1093356   0.3159224  )
        11           S   tau(  11) = (   0.8380055   0.1333534   0.8421976  )
        12           S   tau(  12) = (   0.1817296   0.5965826   0.2852971  )
        13           S   tau(  13) = (   0.6621032   0.5652568   1.1437731  )
        14           S   tau(  14) = (   0.3213215   0.1188746   0.5660404  )
        15           S   tau(  15) = (   0.6637494   0.6017306   0.5920796  )
        16           S   tau(  16) = (   0.3551982   0.1324914   0.0143468  )

   Crystallographic axes

     site n.     atom                  positions (cryst. coord.)
         1           Zn  tau(   1) = (  0.5002780  0.4997220  0.5000000  )
         2           Cu  tau(   2) = (  0.0021780  0.9978220  0.5000000  )
         3           Cu  tau(   3) = (  0.4979450  0.5020550  0.0000000  )
         4           Cu  tau(   4) = (  0.0019580  0.5020340  0.7466610  )
         5           Cu  tau(   5) = (  0.4979660  0.9980420  0.2533390  )
         6           Sn  tau(   6) = (  0.0002320  0.5003980  0.2537510  )
         7           Sn  tau(   7) = (  0.4996020  0.9997680  0.7462490  )
         8           Hg  tau(   8) = (  0.9994980  0.0005020  0.0000000  )
         9           S   tau(   9) = (  0.3679880  0.6093380  0.7536550  )
        10           S   tau(  10) = (  0.8591280  0.1156930  0.2727890  )
        11           S   tau(  11) = (  0.8843070  0.1408720  0.7272110  )
        12           S   tau(  12) = (  0.3906620  0.6320120  0.2463450  )
        13           S   tau(  13) = (  0.8596150  0.5983760  0.9876120  )
        14           S   tau(  14) = (  0.3626910  0.1256720  0.4887580  )
        15           S   tau(  15) = (  0.8743280  0.6373090  0.5112420  )
        16           S   tau(  16) = (  0.4016240  0.1403850  0.0123880  )

     number of k points=    14
                       cart. coord. in units 2pi/alat
        k(    1) = (   0.0000000   0.0000000   0.0000000), wk =   0.0740741
        k(    2) = (   0.0000000   0.0000000   0.2878228), wk =   0.1481481
        k(    3) = (   0.0000000   0.3532112  -0.0001717), wk =   0.1481481
        k(    4) = (   0.0000000   0.3532112   0.2876511), wk =   0.1481481
        k(    5) = (   0.0000000   0.3532112  -0.2879945), wk =   0.1481481
        k(    6) = (   0.3333333   0.1168206  -0.0001717), wk =   0.1481481
        k(    7) = (   0.3333333   0.1168206   0.2876511), wk =   0.1481481
        k(    8) = (   0.3333333   0.1168206  -0.2879945), wk =   0.1481481
        k(    9) = (   0.3333333   0.4700318  -0.0003433), wk =   0.1481481
        k(   10) = (   0.3333333   0.4700318   0.2874795), wk =   0.1481481
        k(   11) = (   0.3333333   0.4700318  -0.2881662), wk =   0.1481481
        k(   12) = (   0.3333333  -0.2363906  -0.0000000), wk =   0.1481481
        k(   13) = (   0.3333333  -0.2363906   0.2878228), wk =   0.1481481
        k(   14) = (   0.3333333  -0.2363906  -0.2878228), wk =   0.1481481

                       cryst. coord.
        k(    1) = (   0.0000000   0.0000000   0.0000000), wk =   0.0740741
        k(    2) = (   0.0000000   0.0000000   0.3333333), wk =   0.1481481
        k(    3) = (   0.0000000   0.3333333  -0.0000000), wk =   0.1481481
        k(    4) = (   0.0000000   0.3333333   0.3333333), wk =   0.1481481
        k(    5) = (   0.0000000   0.3333333  -0.3333333), wk =   0.1481481
        k(    6) = (   0.3333333   0.0000000  -0.0000000), wk =   0.1481481
        k(    7) = (   0.3333333   0.0000000   0.3333333), wk =   0.1481481
        k(    8) = (   0.3333333   0.0000000  -0.3333333), wk =   0.1481481
        k(    9) = (   0.3333333   0.3333333  -0.0000000), wk =   0.1481481
        k(   10) = (   0.3333333   0.3333333   0.3333333), wk =   0.1481481
        k(   11) = (   0.3333333   0.3333333  -0.3333333), wk =   0.1481481
        k(   12) = (   0.3333333  -0.3333333   0.0000000), wk =   0.1481481
        k(   13) = (   0.3333333  -0.3333333   0.3333333), wk =   0.1481481
        k(   14) = (   0.3333333  -0.3333333  -0.3333333), wk =   0.1481481

     Check: negative core charge=   -0.000003

     Initial potential from superposition of free atoms

     starting charge     157.9985, renormalised to     160.0000
     Starting wfcs are  109 randomized atomic wfcs +  147 random wfcs
     Checking if some PAW data can be deallocated...

     Self-consistent Calculation

     iteration #  1     ecut=    30.00 Ry     beta= 0.70
     Davidson diagonalization with overlap

     ethr =  1.00E-02,  avg # of iterations =  7.3

     total energy              =   -2138.93095580 Ry
     estimated scf accuracy    <       6.40345416 Ry

[...]

     c_bands:  1 eigenvalues not converged
     ethr =  4.63E-07,  avg # of iterations = 14.1

[...]

     total energy              =   -2143.44519518 Ry
     estimated scf accuracy    <       0.00001189 Ry

     iteration # 12     ecut=    30.00 Ry     beta= 0.70
     Davidson diagonalization with overlap

     ethr =  7.43E-09,  avg # of iterations =  1.3

     End of self-consistent calculation

          k = 0.0000 0.0000 0.0000 (  6327 PWs)   bands (ev):

  -118.5556-108.4184 -72.6626 -72.6620 -72.6557 -56.2887 -56.2863 -56.2729
   -14.6719 -14.6717 -14.6656 -14.6654 -14.6609 -14.6607 -14.6040 -14.6036
   -14.5971 -14.5963  -6.7196  -6.0113  -5.6829  -5.6297  -5.6193  -5.3723
    -5.3640  -5.3634  -0.4070  -0.3452   0.4209   0.4782   0.5052   0.5110
     0.5396   0.5744   0.6766   0.7149   0.7407   0.8206   1.3721   1.9613
     2.0500   2.3854   2.5614   2.9193   3.2279   3.2474   3.2885   3.3293
     3.4044   3.8224   3.8363   3.8733   3.9334   4.1705   4.3103   4.3140
     4.3264   4.4860   4.6786   4.8111   5.4135   5.5010   5.5973   5.6488
     5.6819   5.7843   5.8572   5.9297   5.9343   5.9391   6.1235   6.2409
     6.4135   6.6782   6.8656   7.0779   7.1016   7.3981   7.4988   7.5579
     7.5689   8.0434   9.0350   9.5196   9.9942  10.4170  11.2011  11.2091
    11.4528  11.6278  12.2209  12.4441  12.5147  12.6350  12.8656  12.9361
    13.0610  13.2331  13.3590  13.5105  13.8731  14.1428  14.2018  14.3080
    14.3098  14.4248  14.6665  14.6818  15.3765  15.4114  16.6419  16.7225
    16.9481  17.4560  17.6480  17.6903  17.8308  18.0069  18.0476  18.1128
    18.3306  18.4909  18.8285  18.9769  19.0108  19.1026  19.1489  19.5135
    19.6732  19.7511  19.8407  19.9880  20.1100  20.2322  20.3770  20.4121
    20.4279  20.4907  20.5372  20.9019  21.0121  21.1148  21.1288  21.2519
    21.3862  21.4128  21.5580  21.8002  22.2754  22.3672  22.5553  22.8156
    22.9514  23.1384  23.4960  23.5070  24.3197  24.5888  24.9966  25.5560
    25.6761  25.7091  25.7278  25.7598  25.7667  26.1222  26.5318  26.7679
    27.0739  27.1259  27.1886  27.3053  27.5216  27.5556  27.6076  27.6503
    27.7903  28.1277  28.1710  28.1737  28.2880  28.4856  28.5528  28.6528
    28.6530  28.8775  28.9326  29.0803  29.2387  29.5686  29.6055  29.7055
    29.8572  30.1976  30.2788  30.4096  30.5213  30.7760  30.8237  30.8624
    30.9288  30.9579  31.0361  31.1111  31.2686  31.3627  31.4878  31.6053
    32.5548  32.5804  32.7422  33.1350  33.1681  33.2128  33.5601  33.6182
    33.6296  33.6665  33.8226  33.9679  34.0277  34.0463  34.2295  34.2899
    34.4041  34.4647  34.6160  34.6170  34.8468  35.0304  35.0909  35.1382
    35.3055  35.3650  35.4478  35.5104  35.6328  35.7479  35.8339  35.8732
    36.1518  36.1704  36.2856  36.4430  36.4490  36.6432  36.6901  36.7708
    36.9971  37.0317  37.0877  37.1086  37.1959  37.3423  37.4110  37.5351

     occupation numbers
     1.0000   1.0000   1.0000   1.0000   1.0000   1.0000   1.0000   1.0000
     1.0000   1.0000   1.0000   1.0000   1.0000   1.0000   1.0000   1.0000
     1.0000   1.0000   1.0000   1.0000   1.0000   1.0000   1.0000   1.0000
     1.0000   1.0000   1.0000   1.0000   1.0000   1.0000   1.0000   1.0000
     1.0000   1.0000   1.0000   1.0000   1.0000   1.0000   1.0000   1.0000
     1.0000   1.0000   1.0000   1.0000   1.0000   1.0000   1.0000   1.0000
     1.0000   1.0000   1.0000   1.0000   1.0000   1.0000   1.0000   1.0000
     1.0000   1.0000   1.0000   1.0000   1.0000   1.0000   1.0000   1.0000
     1.0000   1.0000   1.0000   1.0000   1.0000   1.0000   1.0000   1.0000
     1.0000   1.0000   1.0000   1.0000   1.0000   1.0000   1.0000   1.0000
     0.0000   0.0000   0.0000   0.0000   0.0000   0.0000   0.0000   0.0000
     0.0000   0.0000   0.0000   0.0000   0.0000   0.0000   0.0000   0.0000
     0.0000   0.0000   0.0000   0.0000   0.0000   0.0000   0.0000   0.0000
     0.0000   0.0000   0.0000   0.0000   0.0000   0.0000   0.0000   0.0000
     0.0000   0.0000   0.0000   0.0000   0.0000   0.0000   0.0000   0.0000
     0.0000   0.0000   0.0000   0.0000   0.0000   0.0000   0.0000   0.0000
     0.0000   0.0000   0.0000   0.0000   0.0000   0.0000   0.0000   0.0000
     0.0000   0.0000   0.0000   0.0000   0.0000   0.0000   0.0000   0.0000
     0.0000   0.0000   0.0000   0.0000   0.0000   0.0000   0.0000   0.0000
     0.0000   0.0000   0.0000   0.0000   0.0000   0.0000   0.0000   0.0000
     0.0000   0.0000   0.0000   0.0000   0.0000   0.0000   0.0000   0.0000
     0.0000   0.0000   0.0000   0.0000   0.0000   0.0000   0.0000   0.0000
     0.0000   0.0000   0.0000   0.0000   0.0000   0.0000   0.0000   0.0000
     0.0000   0.0000   0.0000   0.0000   0.0000   0.0000   0.0000   0.0000
     0.0000   0.0000   0.0000   0.0000   0.0000   0.0000   0.0000   0.0000
     0.0000   0.0000   0.0000   0.0000   0.0000   0.0000   0.0000   0.0000
     0.0000   0.0000   0.0000   0.0000   0.0000   0.0000   0.0000   0.0000
     0.0000   0.0000   0.0000   0.0000   0.0000   0.0000   0.0000   0.0000
     0.0000   0.0000   0.0000   0.0000   0.0000   0.0000   0.0000   0.0000
     0.0000   0.0000   0.0000   0.0000   0.0000   0.0000   0.0000   0.0000
     0.0000   0.0000   0.0000   0.0000   0.0000   0.0000   0.0000   0.0000
     0.0000   0.0000   0.0000   0.0000   0.0000   0.0000   0.0000   0.0000

[...]

          k = 0.3333-0.2364-0.2878 (  6357 PWs)   bands (ev):

  -118.5564-108.4185 -72.6650 -72.6634 -72.6602 -56.2914 -56.2872 -56.2772
   -14.6718 -14.6716 -14.6658 -14.6654 -14.6608 -14.6606 -14.6039 -14.6037
   -14.5970 -14.5965  -6.3609  -6.1163  -5.7127  -5.6798  -5.5946  -5.5613
    -5.4726  -5.4359  -0.4038  -0.3441   0.4227   0.4382   0.4572   0.5021
     0.5445   0.5768   0.6478   0.7590   0.7885   0.9437   1.6633   1.8536
     2.1075   2.4551   2.5350   3.0871   3.1954   3.3662   3.4283   3.5654
     3.6002   3.6893   3.7652   3.8061   3.8900   4.0004   4.2447   4.2906
     4.3388   4.4561   4.7324   4.8338   5.5176   5.5716   5.6229   5.6400
     5.7364   5.7715   5.8167   5.8573   5.9889   6.0862   6.1662   6.2778
     6.3634   6.4484   6.5461   6.6231   6.9453   7.0186   7.1060   7.1687
     8.3171   8.5648   9.3751  10.0563  10.1784  10.4004  10.4743  10.7612
    10.9956  11.3017  11.8383  12.2133  12.3645  12.5439  12.6994  13.1022
    13.1920  13.3657  13.3810  13.5894  13.8767  14.1427  14.3462  14.4519
    14.7397  15.0721  15.1413  15.2616  15.3793  15.6001  15.9546  16.4270
    16.5962  16.9396  16.9921  17.3068  17.5522  17.6616  17.7653  17.8057
    17.9757  18.1480  18.3524  18.8156  19.0041  19.1192  19.3872  19.5283
    19.6111  19.6385  19.8804  20.0630  20.2598  20.3995  20.5686  20.7129
    20.9510  20.9791  21.1511  21.2746  21.4834  21.7374  21.9769  22.0807
    22.3322  22.4655  22.7721  22.8005  23.0421  23.2284  23.5426  23.7471
    23.8005  24.1002  24.2241  24.3517  24.4034  24.5560  24.7970  24.9355
    25.0408  25.1653  25.5085  25.5822  25.6441  25.7583  25.7608  25.8898
    25.9243  26.0256  26.1921  26.2528  26.5396  26.6492  26.7413  26.8906
    26.9629  27.1845  27.2355  27.3264  27.5446  27.9032  28.0237  28.2079
    28.3060  28.4786  28.5832  28.7728  28.8669  29.0728  29.2625  29.4196
    29.5884  29.8223  29.9611  30.1361  30.2043  30.2767  30.4863  30.5397
    30.8180  31.0586  31.2312  31.3871  31.6859  31.7263  31.9084  32.2743
    32.3731  32.5602  32.7498  32.9036  33.0283  33.1264  33.2123  33.4355
    33.5152  33.6612  33.8447  34.0237  34.0638  34.1540  34.4328  34.4906
    34.6111  34.7636  34.8277  34.9797  35.0682  35.2459  35.3706  35.4552
    35.5545  35.7194  35.8597  36.0059  36.0318  36.1359  36.2307  36.3584
    36.4694  36.6390  36.7678  36.8897  37.0372  37.0718  37.2239  37.3394
    37.4162  37.5836  37.6561  37.7769  37.9384  38.0308  38.2064  38.3318

     occupation numbers
     1.0000   1.0000   1.0000   1.0000   1.0000   1.0000   1.0000   1.0000
     1.0000   1.0000   1.0000   1.0000   1.0000   1.0000   1.0000   1.0000
     1.0000   1.0000   1.0000   1.0000   1.0000   1.0000   1.0000   1.0000
     1.0000   1.0000   1.0000   1.0000   1.0000   1.0000   1.0000   1.0000
     1.0000   1.0000   1.0000   1.0000   1.0000   1.0000   1.0000   1.0000
     1.0000   1.0000   1.0000   1.0000   1.0000   1.0000   1.0000   1.0000
     1.0000   1.0000   1.0000   1.0000   1.0000   1.0000   1.0000   1.0000
     1.0000   1.0000   1.0000   1.0000   1.0000   1.0000   1.0000   1.0000
     1.0000   1.0000   1.0000   1.0000   1.0000   1.0000   1.0000   1.0000
     1.0000   1.0000   1.0000   1.0000   1.0000   1.0000   1.0000   1.0000
     0.0000   0.0000   0.0000   0.0000   0.0000   0.0000   0.0000   0.0000
     0.0000   0.0000   0.0000   0.0000   0.0000   0.0000   0.0000   0.0000
     0.0000   0.0000   0.0000   0.0000   0.0000   0.0000   0.0000   0.0000
     0.0000   0.0000   0.0000   0.0000   0.0000   0.0000   0.0000   0.0000
     0.0000   0.0000   0.0000   0.0000   0.0000   0.0000   0.0000   0.0000
     0.0000   0.0000   0.0000   0.0000   0.0000   0.0000   0.0000   0.0000
     0.0000   0.0000   0.0000   0.0000   0.0000   0.0000   0.0000   0.0000
     0.0000   0.0000   0.0000   0.0000   0.0000   0.0000   0.0000   0.0000
     0.0000   0.0000   0.0000   0.0000   0.0000   0.0000   0.0000   0.0000
     0.0000   0.0000   0.0000   0.0000   0.0000   0.0000   0.0000   0.0000
     0.0000   0.0000   0.0000   0.0000   0.0000   0.0000   0.0000   0.0000
     0.0000   0.0000   0.0000   0.0000   0.0000   0.0000   0.0000   0.0000
     0.0000   0.0000   0.0000   0.0000   0.0000   0.0000   0.0000   0.0000
     0.0000   0.0000   0.0000   0.0000   0.0000   0.0000   0.0000   0.0000
     0.0000   0.0000   0.0000   0.0000   0.0000   0.0000   0.0000   0.0000
     0.0000   0.0000   0.0000   0.0000   0.0000   0.0000   0.0000   0.0000
     0.0000   0.0000   0.0000   0.0000   0.0000   0.0000   0.0000   0.0000
     0.0000   0.0000   0.0000   0.0000   0.0000   0.0000   0.0000   0.0000
     0.0000   0.0000   0.0000   0.0000   0.0000   0.0000   0.0000   0.0000
     0.0000   0.0000   0.0000   0.0000   0.0000   0.0000   0.0000   0.0000
     0.0000   0.0000   0.0000   0.0000   0.0000   0.0000   0.0000   0.0000
     0.0000   0.0000   0.0000   0.0000   0.0000   0.0000   0.0000   0.0000

     highest occupied, lowest unoccupied level (ev):     7.5579    7.5689

!    total energy              =   -2143.44519683 Ry
     estimated scf accuracy    <       0.00000053 Ry

     The total energy is the sum of the following terms:
     one-electron contribution =   -1064.58619993 Ry
     hartree contribution      =     635.82866701 Ry
     xc contribution           =    -410.96611431 Ry
     ewald contribution        =    -944.44057318 Ry
     one-center paw contrib.   =    -359.28097643 Ry
      -> PAW hartree energy AE =      99.12292508 Ry
      -> PAW hartree energy PS =     -98.39414099 Ry
      -> PAW xc energy AE      =    -135.02217734 Ry
      -> PAW xc energy PS      =      44.46961995 Ry
      -> total E_H with PAW    =     636.55745110 Ry
      -> total E_XC with PAW   =    -501.51867170 Ry

     convergence has been achieved in  12 iterations

     Writing all to output data dir bands_nm/myprefix.save/

     General routines

     Parallel routines

     PAW routines

   This run was terminated on:  20:25:23  15Jul2023

   JOB DONE.