     Program PWSCF v.7.1 starts on 15Jul2023 at 21:24:56

     Reading input from espresso_11274.pwi
Warning: card &CELL ignored
Warning: card / ignored

     Current dimensions of program PWSCF are:
     Max number of different atomic species (ntypx) = 10
     Max number of k-points (npk) =  40000
     Max angular momentum in pseudopotentials (lmaxx) =  4
     Found identity + (  0.5000 -0.5000  0.0000) symmetry
     This is a supercell, fractional translations are disabled
     Message from routine setup:
     using ibrav=0 with symmetry is DISCOURAGED, use correct ibrav instead

     K-points division:     npool     =       2
     R & G space division:  proc/nbgrp/npool/nimage =       4
     Subspace diagonalization in iterative solution of the eigenvalue problem:
     one sub-group per band group will be used

     Using Slab Decomposition

     bravais-lattice index     =            0
     lattice parameter (alat)  =      26.7928  a.u.
     unit-cell volume          =    1910.6663 (a.u.)^3
     number of atoms/cell      =           14
     number of atomic types    =            4
     number of electrons       =       138.00
     number of Kohn-Sham states=          256
     kinetic-energy cutoff     =      30.0000  Ry
     charge density cutoff     =     240.0000  Ry
     scf convergence threshold =      1.0E-06
     mixing beta               =       0.7000
     number of iterations used =            8  plain     mixing
     Exchange-correlation=  SLA  PW   PBX  PBC
                           (   1   4   3   4   0   0   0)

     celldm(1)=  26.792839  celldm(2)=   0.000000  celldm(3)=   0.000000
     celldm(4)=   0.000000  celldm(5)=   0.000000  celldm(6)=   0.000000

     crystal axes: (cart. coord. in units of alat)
               a(1) = (   1.000000   0.000000   0.000000 )
               a(2) = (   0.000000   0.254041   0.000000 )
               a(3) = (  -0.179179   0.000000   0.391043 )

     reciprocal axes: (cart. coord. in units 2 pi/alat)
               b(1) = (  1.000000  0.000000  0.458209 )
               b(2) = (  0.000000  3.936369  0.000000 )
               b(3) = (  0.000000  0.000000  2.557264 )

     PseudoPot. # 1 for Hf read from file:
     /lustre07/scratch/pragov/crystal_structure_design/utils/SSSP/Hf-sp.oncvpsp.upf
     MD5 check sum: 417ed15784afe83d2e06dacf143de3f8
     Pseudo is Norm-conserving + core correction, Zval = 12.0
     Generated using ONCVPSP code by D. R. Hamann
     Using radial grid of 1656 points,  8 beta functions with:
                l(1) =   0
                l(2) =   0
                l(3) =   1
                l(4) =   1
                l(5) =   2
                l(6) =   2
                l(7) =   3
                l(8) =   3

     PseudoPot. # 2 for Cr read from file:
     /lustre07/scratch/pragov/crystal_structure_design/utils/SSSP/cr_pbe_v1.5.uspp.F.UPF
     MD5 check sum: 0d52af634a40206e4dee301ad30da4bf
     Pseudo is Ultrasoft + core correction, Zval = 14.0
     Generated by new atomic code, or converted to UPF format
     Using radial grid of  857 points,  6 beta functions with:
                l(1) =   0
                l(2) =   0
                l(3) =   1
                l(4) =   1
                l(5) =   2
                l(6) =   2
     Q(r) pseudized with  8 coefficients,  rinner =    0.950   0.950   0.950
                                                       0.950   0.950

     PseudoPot. # 3 for Ag read from file:
     /lustre07/scratch/pragov/crystal_structure_design/utils/SSSP/Ag_ONCV_PBE-1.0.oncvpsp.upf
     MD5 check sum: 94f47bd0669c641108e45594df92fabc
     Pseudo is Norm-conserving, Zval = 19.0
     Generated using ONCVPSP code by D. R. Hamann
     Using radial grid of 1398 points,  6 beta functions with:
                l(1) =   0
                l(2) =   0
                l(3) =   1
                l(4) =   1
                l(5) =   2
                l(6) =   2

     PseudoPot. # 4 for S  read from file:
     /lustre07/scratch/pragov/crystal_structure_design/utils/SSSP/s_pbe_v1.4.uspp.F.UPF
     MD5 check sum: 88d86576ff6df21479756cfb9bdac1df
     Pseudo is Ultrasoft + core correction, Zval =  6.0
     Generated by new atomic code, or converted to UPF format
     Using radial grid of  907 points,  6 beta functions with:
                l(1) =   0
                l(2) =   0
                l(3) =   1
                l(4) =   1
                l(5) =   2
                l(6) =   2
     Q(r) pseudized with  8 coefficients,  rinner =    1.300   1.300   1.300
                                                       1.300   1.300

     atomic species   valence    mass     pseudopotential
        Hf            12.00   178.49000     Hf( 1.00)
        Cr            14.00    51.99610     Cr( 1.00)
        Ag            19.00   107.86820     Ag( 1.00)
        S              6.00    32.06000     S ( 1.00)

      2 Sym. Ops. (no inversion) found

                                    s                        frac. trans.

      isym =  1     identity

 cryst.   s( 1) = (     1          0          0      )
                  (     0          1          0      )
                  (     0          0          1      )

 cart.    s( 1) = (  1.0000000  0.0000000  0.0000000 )
                  (  0.0000000  1.0000000  0.0000000 )
                  (  0.0000000  0.0000000  1.0000000 )

      isym =  2     inv. 180 deg rotation - cart. axis [0,1,0]

 cryst.   s( 2) = (     1          0          0      )
                  (     0         -1          0      )
                  (     0          0          1      )

 cart.    s( 2) = (  1.0000000  0.0000000  0.0000000 )
                  (  0.0000000 -1.0000000  0.0000000 )
                  (  0.0000000  0.0000000  1.0000000 )

   Cartesian axes

     site n.     atom                  positions (alat units)
         1           Hf  tau(   1) = (   0.6157774   0.0000000   0.3000414  )
         2           Hf  tau(   2) = (   0.1157774   0.1270206   0.3000414  )
         3           Cr  tau(   3) = (   0.2045207   0.0000000   0.0909265  )
         4           Cr  tau(   4) = (   0.7045207   0.1270206   0.0909265  )
         5           Ag  tau(   5) = (  -0.0914040   0.1270206   0.2030842  )
         6           Ag  tau(   6) = (   0.4085960   0.0000000   0.2030842  )
         7           S   tau(   7) = (  -0.0385899   0.1270206   0.3855293  )
         8           S   tau(   8) = (   0.8603630   0.1270206   0.0133694  )
         9           S   tau(   9) = (   0.4614101   0.0000000   0.3855293  )
        10           S   tau(  10) = (   0.3603630   0.0000000   0.0133694  )
        11           S   tau(  11) = (   0.0595416   0.0000000   0.1828826  )
        12           S   tau(  12) = (   0.7626635   0.0000000   0.1928170  )
        13           S   tau(  13) = (   0.5595416   0.1270206   0.1828826  )
        14           S   tau(  14) = (   0.2626635   0.1270206   0.1928170  )

   Crystallographic axes

     site n.     atom                  positions (cryst. coord.)
         1           Hf  tau(   1) = (  0.7532590  0.0000000  0.7672850  )
         2           Hf  tau(   2) = (  0.2532590  0.5000000  0.7672850  )
         3           Cr  tau(   3) = (  0.2461840  0.0000000  0.2325230  )
         4           Cr  tau(   4) = (  0.7461840  0.5000000  0.2325230  )
         5           Ag  tau(   5) = (  0.0016510  0.5000000  0.5193400  )
         6           Ag  tau(   6) = (  0.5016510  0.0000000  0.5193400  )
         7           S   tau(   7) = (  0.1380630  0.5000000  0.9859000  )
         8           S   tau(   8) = (  0.8664890  0.5000000  0.0341890  )
         9           S   tau(   9) = (  0.6380630  0.0000000  0.9859000  )
        10           S   tau(  10) = (  0.3664890  0.0000000  0.0341890  )
        11           S   tau(  11) = (  0.1433400  0.0000000  0.4676790  )
        12           S   tau(  12) = (  0.8510140  0.0000000  0.4930840  )
        13           S   tau(  13) = (  0.6433400  0.5000000  0.4676790  )
        14           S   tau(  14) = (  0.3510140  0.5000000  0.4930840  )

     number of k points=    10
                       cart. coord. in units 2pi/alat
        k(    1) = (   0.0000000   0.0000000   0.0000000), wk =   0.0740741
        k(    2) = (   0.0000000   0.0000000   0.8524213), wk =   0.1481481
        k(    3) = (   0.0000000   1.3121230   0.0000000), wk =   0.1481481
        k(    4) = (   0.0000000   1.3121230   0.8524213), wk =   0.2962963
        k(    5) = (   0.3333333   0.0000000   0.1527363), wk =   0.1481481
        k(    6) = (   0.3333333   0.0000000   1.0051576), wk =   0.1481481
        k(    7) = (   0.3333333   0.0000000  -0.6996850), wk =   0.1481481
        k(    8) = (   0.3333333   1.3121230   0.1527363), wk =   0.2962963
        k(    9) = (   0.3333333   1.3121230   1.0051576), wk =   0.2962963
        k(   10) = (   0.3333333   1.3121230  -0.6996850), wk =   0.2962963

                       cryst. coord.
        k(    1) = (   0.0000000   0.0000000   0.0000000), wk =   0.0740741
        k(    2) = (   0.0000000   0.0000000   0.3333333), wk =   0.1481481
        k(    3) = (   0.0000000   0.3333333   0.0000000), wk =   0.1481481
        k(    4) = (   0.0000000   0.3333333   0.3333333), wk =   0.2962963
        k(    5) = (   0.3333333   0.0000000  -0.0000000), wk =   0.1481481
        k(    6) = (   0.3333333   0.0000000   0.3333333), wk =   0.1481481
        k(    7) = (   0.3333333   0.0000000  -0.3333333), wk =   0.1481481
        k(    8) = (   0.3333333   0.3333333  -0.0000000), wk =   0.2962963
        k(    9) = (   0.3333333   0.3333333   0.3333333), wk =   0.2962963
        k(   10) = (   0.3333333   0.3333333  -0.3333333), wk =   0.2962963

     Check: negative core charge=   -0.000004

     Initial potential from superposition of free atoms

     starting charge     135.9954, renormalised to     138.0000

     negative rho (up, down):  3.446E-03 0.000E+00
     Starting wfcs are   92 randomized atomic wfcs +  164 random wfcs

     Self-consistent Calculation

     iteration #  1     ecut=    30.00 Ry     beta= 0.70
     Davidson diagonalization with overlap

     ethr =  1.00E-02,  avg # of iterations =  7.3

     total energy              =   -1312.73910322 Ry
     estimated scf accuracy    <      38.06947698 Ry

[...]

     negative rho (up, down):  8.957E-04 0.000E+00

[...]

     total energy              =   -1344.17849745 Ry
     estimated scf accuracy    <       0.00001591 Ry

     iteration # 25     ecut=    30.00 Ry     beta= 0.70
     Davidson diagonalization with overlap

     ethr =  1.15E-08,  avg # of iterations =  1.1

     negative rho (up, down):  3.385E-03 0.000E+00

     End of self-consistent calculation

          k = 0.0000 0.0000 0.0000 (  5295 PWs)   bands (ev):

   -83.4640 -83.4639 -62.9069 -62.9067 -53.4042 -53.4002 -46.5559 -46.5537
   -46.4829 -46.4823 -46.4773 -46.4766 -34.3505 -34.3501 -34.1768 -34.1766
   -34.1445 -34.1432 -22.1872 -22.1869 -22.1146 -22.1126 -22.0574 -22.0559
    -4.9176  -4.7753  -3.7213  -3.5199  -3.5005  -3.4754  -3.2396  -3.2185
     3.0724   3.0784   3.3370   4.1242   4.1429   4.4028   4.4630   4.6708
     4.7116   4.8700   4.9025   5.1259   5.3982   5.4558   5.5507   5.6634
     5.6982   5.7033   5.8352   5.8822   5.9367   6.0487   6.0618   6.2466
     6.3274   6.5448   6.7330   7.3659   7.5539   7.8504   8.1528   8.2650
     8.4830   8.5161   8.5368   8.8177   8.8311   8.8567   9.2296   9.2643
     9.9917  10.1433  10.5709  10.6798  10.9379  10.9667  11.6440  11.9795
    12.0458  12.2735  12.2995  13.3431  13.4594  13.8516  13.8709  13.9339
    14.0807  14.0884  14.4028  14.7234  15.0194  15.1997  15.5735  16.1534
    16.2834  16.5426  16.8638  17.2305  17.3007  17.7827  17.8161  17.9619
    18.3191  18.5424  18.6433  18.9941  19.3978  19.5566  19.6224  20.0604
    20.1029  20.4204  20.7169  21.2075  21.3906  21.7089  21.7708  21.8666
    21.9851  22.1012  22.2218  22.5341  22.5915  22.6221  22.8519  23.0664
    23.0819  23.1133  23.3345  23.4057  23.6932  23.8723  23.8872  24.0542
    24.3263  24.4409  24.6341  24.7774  24.9490  24.9900  25.2395  25.8093
    26.2512  26.5273  26.5671  26.9830  27.0377  27.1868  27.2492  27.3706
    27.3807  27.7797  27.8550  28.0768  28.1454  28.2094  28.5655  28.8944
    29.2212  29.6204  29.8811  29.9847  30.5366  30.8714  31.0243  31.0616
    31.3046  31.4349  31.5884  31.6321  31.9585  32.3106  32.4902  32.6125
    32.7271  33.1735  33.4547  33.5007  33.5476  33.7732  33.8808  33.9437
    34.0441  34.1589  34.1692  34.3779  34.5041  34.5041  34.6900  35.0792
    35.0795  35.0998  35.5354  35.9884  36.1278  36.2649  36.7681  36.8140
    36.8827  37.1379  37.5790  37.7412  37.9150  37.9901  38.1457  38.2109
    38.4276  38.4583  38.5615  38.7347  38.7530  39.0638  39.3455  39.3826
    39.4427  39.5570  39.8568  40.0885  40.3264  40.3791  40.5090  40.7310
    40.7812  40.7828  40.8022  40.9125  41.2034  41.2109  41.3358  41.4930
    41.6751  42.0539  42.2272  42.3765  42.4137  42.5514  42.7125  42.7163
    43.0868  43.2004  43.2168  43.2207  43.4027  43.5881  43.7030  43.7886
    44.0942  44.1339  44.1959  44.3186  44.5106  44.6208  44.6603  45.0026

     occupation numbers
     1.0000   1.0000   1.0000   1.0000   1.0000   1.0000   1.0000   1.0000
     1.0000   1.0000   1.0000   1.0000   1.0000   1.0000   1.0000   1.0000
     1.0000   1.0000   1.0000   1.0000   1.0000   1.0000   1.0000   1.0000
     1.0000   1.0000   1.0000   1.0000   1.0000   1.0000   1.0000   1.0000
     1.0000   1.0000   1.0000   1.0000   1.0000   1.0000   1.0000   1.0000
     1.0000   1.0000   1.0000   1.0000   1.0000   1.0000   1.0000   1.0000
     1.0000   1.0000   1.0000   1.0000   1.0000   1.0000   1.0000   1.0000
     1.0000   1.0000   1.0000   1.0000   1.0000   1.0000   1.0000   1.0000
     1.0000   1.0000   1.0000   1.0000   1.0000   0.0000   0.0000   0.0000
     0.0000   0.0000   0.0000   0.0000   0.0000   0.0000   0.0000   0.0000
     0.0000   0.0000   0.0000   0.0000   0.0000   0.0000   0.0000   0.0000
     0.0000   0.0000   0.0000   0.0000   0.0000   0.0000   0.0000   0.0000
     0.0000   0.0000   0.0000   0.0000   0.0000   0.0000   0.0000   0.0000
     0.0000   0.0000   0.0000   0.0000   0.0000   0.0000   0.0000   0.0000
     0.0000   0.0000   0.0000   0.0000   0.0000   0.0000   0.0000   0.0000
     0.0000   0.0000   0.0000   0.0000   0.0000   0.0000   0.0000   0.0000
     0.0000   0.0000   0.0000   0.0000   0.0000   0.0000   0.0000   0.0000
     0.0000   0.0000   0.0000   0.0000   0.0000   0.0000   0.0000   0.0000
     0.0000   0.0000   0.0000   0.0000   0.0000   0.0000   0.0000   0.0000
     0.0000   0.0000   0.0000   0.0000   0.0000   0.0000   0.0000   0.0000
     0.0000   0.0000   0.0000   0.0000   0.0000   0.0000   0.0000   0.0000
     0.0000   0.0000   0.0000   0.0000   0.0000   0.0000   0.0000   0.0000
     0.0000   0.0000   0.0000   0.0000   0.0000   0.0000   0.0000   0.0000
     0.0000   0.0000   0.0000   0.0000   0.0000   0.0000   0.0000   0.0000
     0.0000   0.0000   0.0000   0.0000   0.0000   0.0000   0.0000   0.0000
     0.0000   0.0000   0.0000   0.0000   0.0000   0.0000   0.0000   0.0000
     0.0000   0.0000   0.0000   0.0000   0.0000   0.0000   0.0000   0.0000
     0.0000   0.0000   0.0000   0.0000   0.0000   0.0000   0.0000   0.0000
     0.0000   0.0000   0.0000   0.0000   0.0000   0.0000   0.0000   0.0000
     0.0000   0.0000   0.0000   0.0000   0.0000   0.0000   0.0000   0.0000
     0.0000   0.0000   0.0000   0.0000   0.0000   0.0000   0.0000   0.0000
     0.0000   0.0000   0.0000   0.0000   0.0000   0.0000   0.0000   0.0000

[...]

          k = 0.3333 1.3121-0.6997 (  5321 PWs)   bands (ev):

   -83.4639 -83.4638 -62.9064 -62.9063 -53.4018 -53.4015 -46.5542 -46.5540
   -46.4827 -46.4822 -46.4811 -46.4808 -34.3613 -34.3611 -34.1751 -34.1748
   -34.1434 -34.1427 -22.1719 -22.1713 -22.1691 -22.1683 -22.1028 -22.1020
    -3.9633  -3.8960  -3.5309  -3.4936  -3.4152  -3.3680  -3.3380  -3.3318
     3.3584   3.6441   3.6940   3.7196   4.0066   4.0937   4.4205   4.4511
     4.5975   4.6735   4.7303   4.9309   4.9448   5.1850   5.2480   5.3537
     5.4611   5.5956   5.6878   5.7032   5.8148   5.8700   6.0855   6.1117
     6.2606   6.3008   6.4659   6.7350   6.9638   7.1121   7.3681   7.5364
     7.6173   7.8652   8.6910   8.9215   8.9982   9.1406   9.2181   9.3281
    10.1783  10.4080  10.9131  11.0712  11.1589  11.2295  11.5372  11.6110
    11.8835  11.9614  12.8308  12.9293  13.8784  13.9239  14.1617  14.5014
    14.7920  14.7963  15.0898  15.4569  15.4599  15.6783  15.9047  16.4222
    16.7778  16.8779  17.2173  17.3704  17.6264  17.7462  18.1442  18.2785
    18.4697  18.6197  18.7140  18.8286  19.0716  19.2250  19.4099  19.4204
    19.6895  19.7875  20.0415  20.2725  20.4570  20.7972  20.8563  21.3464
    21.4922  21.5772  21.8789  22.0386  22.1277  22.3375  22.6163  23.1656
    23.3167  23.7398  23.9222  24.3193  24.3827  24.5190  24.7544  24.8565
    25.0735  25.3472  25.5099  25.7599  26.1038  26.2142  26.3699  26.5419
    26.8398  27.1140  27.2042  27.6539  28.0148  28.1628  28.2364  28.2976
    28.5049  28.5772  28.7090  29.1331  29.1495  29.4736  29.4883  29.6760
    29.6952  30.0271  30.0691  30.1610  30.5121  30.6082  30.7257  30.7279
    30.9601  31.1375  31.1769  31.3763  31.4033  31.5774  31.7591  32.1287
    32.2464  32.4385  32.5601  32.5972  33.0706  33.2125  33.4173  33.4298
    33.5815  33.6136  34.1554  34.2202  34.2986  34.4818  34.6986  35.0755
    35.1690  35.3089  35.4599  35.5193  35.7174  35.8731  36.1612  36.2701
    36.2800  36.7699  36.8164  37.1196  37.3993  37.4807  37.5688  37.8167
    37.9913  38.1467  38.2099  38.2100  38.5266  38.5498  38.8566  39.1532
    39.2388  39.2953  39.4928  39.5221  39.7418  39.9007  40.0370  40.3586
    40.3755  40.6063  40.6598  40.8471  40.9622  40.9960  41.1777  41.3656
    41.5188  41.6038  41.6828  41.8007  41.9607  42.1074  42.3626  42.5376
    42.9087  42.9642  43.1393  43.2994  43.3712  43.4783  43.8175  43.8331
    43.9890  44.0387  44.1195  44.2479  44.5396  44.6143  44.6958  44.6992

     occupation numbers
     1.0000   1.0000   1.0000   1.0000   1.0000   1.0000   1.0000   1.0000
     1.0000   1.0000   1.0000   1.0000   1.0000   1.0000   1.0000   1.0000
     1.0000   1.0000   1.0000   1.0000   1.0000   1.0000   1.0000   1.0000
     1.0000   1.0000   1.0000   1.0000   1.0000   1.0000   1.0000   1.0000
     1.0000   1.0000   1.0000   1.0000   1.0000   1.0000   1.0000   1.0000
     1.0000   1.0000   1.0000   1.0000   1.0000   1.0000   1.0000   1.0000
     1.0000   1.0000   1.0000   1.0000   1.0000   1.0000   1.0000   1.0000
     1.0000   1.0000   1.0000   1.0000   1.0000   1.0000   1.0000   1.0000
     1.0000   1.0000   1.0000   1.0000   1.0000   0.0000   0.0000   0.0000
     0.0000   0.0000   0.0000   0.0000   0.0000   0.0000   0.0000   0.0000
     0.0000   0.0000   0.0000   0.0000   0.0000   0.0000   0.0000   0.0000
     0.0000   0.0000   0.0000   0.0000   0.0000   0.0000   0.0000   0.0000
     0.0000   0.0000   0.0000   0.0000   0.0000   0.0000   0.0000   0.0000
     0.0000   0.0000   0.0000   0.0000   0.0000   0.0000   0.0000   0.0000
     0.0000   0.0000   0.0000   0.0000   0.0000   0.0000   0.0000   0.0000
     0.0000   0.0000   0.0000   0.0000   0.0000   0.0000   0.0000   0.0000
     0.0000   0.0000   0.0000   0.0000   0.0000   0.0000   0.0000   0.0000
     0.0000   0.0000   0.0000   0.0000   0.0000   0.0000   0.0000   0.0000
     0.0000   0.0000   0.0000   0.0000   0.0000   0.0000   0.0000   0.0000
     0.0000   0.0000   0.0000   0.0000   0.0000   0.0000   0.0000   0.0000
     0.0000   0.0000   0.0000   0.0000   0.0000   0.0000   0.0000   0.0000
     0.0000   0.0000   0.0000   0.0000   0.0000   0.0000   0.0000   0.0000
     0.0000   0.0000   0.0000   0.0000   0.0000   0.0000   0.0000   0.0000
     0.0000   0.0000   0.0000   0.0000   0.0000   0.0000   0.0000   0.0000
     0.0000   0.0000   0.0000   0.0000   0.0000   0.0000   0.0000   0.0000
     0.0000   0.0000   0.0000   0.0000   0.0000   0.0000   0.0000   0.0000
     0.0000   0.0000   0.0000   0.0000   0.0000   0.0000   0.0000   0.0000
     0.0000   0.0000   0.0000   0.0000   0.0000   0.0000   0.0000   0.0000
     0.0000   0.0000   0.0000   0.0000   0.0000   0.0000   0.0000   0.0000
     0.0000   0.0000   0.0000   0.0000   0.0000   0.0000   0.0000   0.0000
     0.0000   0.0000   0.0000   0.0000   0.0000   0.0000   0.0000   0.0000
     0.0000   0.0000   0.0000   0.0000   0.0000   0.0000   0.0000   0.0000

     highest occupied, lowest unoccupied level (ev):     9.2079    8.8508

!    total energy              =   -1344.17849669 Ry
     estimated scf accuracy    <       0.00000083 Ry

     The total energy is the sum of the following terms:
     one-electron contribution =    -741.40035155 Ry
     hartree contribution      =     414.47269117 Ry
     xc contribution           =    -223.44667029 Ry
     ewald contribution        =    -793.80416601 Ry

     convergence has been achieved in  25 iterations

     Writing all to output data dir bands_nm/myprefix.save/

     General routines

     Parallel routines

   This run was terminated on:  21:26:45  15Jul2023

   JOB DONE.