     Program PWSCF v.7.1 starts on 15Jul2023 at 18:28:23

     Reading input from espresso_7594.pwi
Warning: card &CELL ignored
Warning: card / ignored

     Current dimensions of program PWSCF are:
     Max number of different atomic species (ntypx) = 10
     Max number of k-points (npk) =  40000
     Max angular momentum in pseudopotentials (lmaxx) =  4
     file La.paw.z_11.atompaw.wentzcovitch.v1.2.upf: wavefunction(s)  6S 0P 5D 0D 4F 0F renormalized
     Message from routine setup:
     using ibrav=0 with symmetry is DISCOURAGED, use correct ibrav instead

     K-points division:     npool     =       2
     R & G space division:  proc/nbgrp/npool/nimage =       4
     Subspace diagonalization in iterative solution of the eigenvalue problem:
     one sub-group per band group will be used

     Using Slab Decomposition

     bravais-lattice index     =            0
     lattice parameter (alat)  =      10.8910  a.u.
     unit-cell volume          =    1873.8154 (a.u.)^3
     number of atoms/cell      =           20
     number of atomic types    =            3
     number of electrons       =       156.00
     number of Kohn-Sham states=          256
     kinetic-energy cutoff     =      30.0000  Ry
     charge density cutoff     =     240.0000  Ry
     scf convergence threshold =      1.0E-06
     mixing beta               =       0.7000
     number of iterations used =            8  plain     mixing
     Exchange-correlation= PBE
                           (   1   4   3   4   0   0   0)

     celldm(1)=  10.890958  celldm(2)=   0.000000  celldm(3)=   0.000000
     celldm(4)=   0.000000  celldm(5)=   0.000000  celldm(6)=   0.000000

     crystal axes: (cart. coord. in units of alat)
               a(1) = (   1.000000   0.000000   0.000000 )
               a(2) = (   0.000000   1.234784   0.000000 )
               a(3) = (   0.000000   0.842923   1.174728 )

     reciprocal axes: (cart. coord. in units 2 pi/alat)
               b(1) = (  1.000000  0.000000  0.000000 )
               b(2) = (  0.000000  0.809858 -0.581111 )
               b(3) = (  0.000000  0.000000  0.851261 )

     PseudoPot. # 1 for La read from file:
     /lustre07/scratch/pragov/crystal_structure_design/utils/SSSP/La.paw.z_11.atompaw.wentzcovitch.v1.2.upf
     MD5 check sum: 754494e15ae71f30e5b5f678af019e01
     Pseudo is Projector augmented-wave + core cor, Zval = 11.0
     Generated using ATOMPAW code
     Shape of augmentation charge: BESSEL
     Using radial grid of 1101 points,  8 beta functions with:
                l(1) =   0
                l(2) =   0
                l(3) =   1
                l(4) =   1
                l(5) =   2
                l(6) =   2
                l(7) =   3
                l(8) =   3
     Q(r) pseudized with 0 coefficients

     PseudoPot. # 2 for Ta read from file:
     /lustre07/scratch/pragov/crystal_structure_design/utils/SSSP/Ta_pbe_v1.uspp.F.UPF
     MD5 check sum: f8bbe9446314a3b8ea5d9f3e3836c939
     Pseudo is Ultrasoft + core correction, Zval = 13.0
     Generated by new atomic code, or converted to UPF format
     Using radial grid of  921 points,  7 beta functions with:
                l(1) =   0
                l(2) =   0
                l(3) =   1
                l(4) =   1
                l(5) =   2
                l(6) =   2
                l(7) =   3
     Q(r) pseudized with  6 coefficients,  rinner =    1.300   1.300   1.300
                                                       1.300   1.300   1.300
                                                       1.300

     PseudoPot. # 3 for N  read from file:
     /lustre07/scratch/pragov/crystal_structure_design/utils/SSSP/N.pbe-n-radius_5.UPF
     MD5 check sum: 16739722b17309cd8fe442a2ace49922
     Pseudo is Ultrasoft + core correction, Zval =  5.0
     Generated using "atomic" code by A. Dal Corso  v.5.1
     Using radial grid of 1085 points,  4 beta functions with:
                l(1) =   0
                l(2) =   0
                l(3) =   1
                l(4) =   1
     Q(r) pseudized with 0 coefficients

     atomic species   valence    mass     pseudopotential
        La            11.00   138.90547     La( 1.00)
        Ta            13.00   180.94788     Ta( 1.00)
        N              5.00    14.00700     N ( 1.00)

      4 Sym. Ops., with inversion, found ( 2 have fractional translation)

                                    s                        frac. trans.

      isym =  1     identity

 cryst.   s( 1) = (     1          0          0      )
                  (     0          1          0      )
                  (     0          0          1      )

 cart.    s( 1) = (  1.0000000  0.0000000  0.0000000 )
                  (  0.0000000  1.0000000  0.0000000 )
                  (  0.0000000  0.0000000  1.0000000 )

      isym =  2     180 deg rotation - cart. axis [1,0,0]

 cryst.   s( 2) = (     1          0          0      )    f =( -0.5000000 )
                  (     0         -1          0      )       (  0.0000000 )
                  (     0          0         -1      )       (  0.5000000 )

 cart.    s( 2) = (  1.0000000  0.0000000  0.0000000 )    f =( -0.5000000 )
                  (  0.0000000 -1.0000000  0.0000000 )       (  0.4214615 )
                  (  0.0000000  0.0000000 -1.0000000 )       (  0.5873640 )

      isym =  3     inversion

 cryst.   s( 3) = (    -1          0          0      )
                  (     0         -1          0      )
                  (     0          0         -1      )

 cart.    s( 3) = ( -1.0000000  0.0000000  0.0000000 )
                  (  0.0000000 -1.0000000  0.0000000 )
                  (  0.0000000  0.0000000 -1.0000000 )

      isym =  4     inv. 180 deg rotation - cart. axis [1,0,0]

 cryst.   s( 4) = (    -1          0          0      )    f =(  0.5000000 )
                  (     0          1          0      )       ( -0.0000000 )
                  (     0          0          1      )       (  0.5000000 )

 cart.    s( 4) = ( -1.0000000  0.0000000  0.0000000 )    f =(  0.5000000 )
                  (  0.0000000  1.0000000  0.0000000 )       (  0.4214615 )
                  (  0.0000000  0.0000000  1.0000000 )       (  0.5873640 )

   Cartesian axes

     site n.     atom                  positions (alat units)
         1           La  tau(   1) = (   0.2444700   1.4643254   0.7315079  )
         2           La  tau(   2) = (   0.7555300   0.6133820   0.4432202  )
         3           La  tau(   3) = (   0.2555300   1.0428639   0.1441438  )
         4           La  tau(   4) = (   0.7444700   1.0348435   1.0305842  )
         5           Ta  tau(   5) = (   0.7255750   1.6772447   1.0089011  )
         6           Ta  tau(   6) = (   0.2255750   0.8219242   0.7531910  )
         7           Ta  tau(   7) = (   0.2744250   0.4004627   0.1658270  )
         8           Ta  tau(   8) = (   0.7744250   1.2557832   0.4215371  )
         9           N   tau(   9) = (   0.2342130   0.6388290   0.4267646  )
        10           N   tau(  10) = (   0.2657870   1.0602905   1.0141286  )
        11           N   tau(  11) = (   0.5366680   0.6732957   0.8324581  )
        12           N   tau(  12) = (   0.0366680   1.8258732   0.9296340  )
        13           N   tau(  13) = (   0.4633320   1.4044117   0.3422699  )
        14           N   tau(  14) = (   0.7657870   1.4388784   0.7479635  )
        15           N   tau(  15) = (   0.9006840   0.9730441   0.6318298  )
        16           N   tau(  16) = (   0.0993160   1.1046633   0.5428982  )
        17           N   tau(  17) = (   0.7342130   1.0174169   0.1605994  )
        18           N   tau(  18) = (   0.9633320   0.2518342   0.2450941  )
        19           N   tau(  19) = (   0.5993160   0.5515827   0.0444658  )
        20           N   tau(  20) = (   0.4006840   1.5261248   1.1302623  )

   Crystallographic axes

     site n.     atom                  positions (cryst. coord.)
         1           La  tau(   1) = (  0.2444700  0.7608080  0.6227040  )
         2           La  tau(   2) = (  0.7555300  0.2391920  0.3772960  )
         3           La  tau(   3) = (  0.2555300  0.7608080  0.1227040  )
         4           La  tau(   4) = (  0.7444700  0.2391920  0.8772960  )
         5           Ta  tau(   5) = (  0.7255750  0.7720460  0.8588380  )
         6           Ta  tau(   6) = (  0.2255750  0.2279540  0.6411620  )
         7           Ta  tau(   7) = (  0.2744250  0.2279540  0.1411620  )
         8           Ta  tau(   8) = (  0.7744250  0.7720460  0.3588380  )
         9           N   tau(   9) = (  0.2342130  0.2693630  0.3632880  )
        10           N   tau(  10) = (  0.2657870  0.2693630  0.8632880  )
        11           N   tau(  11) = (  0.5366680  0.0615230  0.7086390  )
        12           N   tau(  12) = (  0.0366680  0.9384770  0.7913610  )
        13           N   tau(  13) = (  0.4633320  0.9384770  0.2913610  )
        14           N   tau(  14) = (  0.7657870  0.7306370  0.6367120  )
        15           N   tau(  15) = (  0.9006840  0.4208640  0.5378520  )
        16           N   tau(  16) = (  0.0993160  0.5791360  0.4621480  )
        17           N   tau(  17) = (  0.7342130  0.7306370  0.1367120  )
        18           N   tau(  18) = (  0.9633320  0.0615230  0.2086390  )
        19           N   tau(  19) = (  0.5993160  0.4208640  0.0378520  )
        20           N   tau(  20) = (  0.4006840  0.5791360  0.9621480  )

     number of k points=    10
                       cart. coord. in units 2pi/alat
        k(    1) = (   0.0000000   0.0000000   0.0000000), wk =   0.0740741
        k(    2) = (   0.0000000   0.0000000   0.2837536), wk =   0.1481481
        k(    3) = (   0.0000000   0.2699526  -0.1937038), wk =   0.1481481
        k(    4) = (   0.0000000   0.2699526   0.0900498), wk =   0.1481481
        k(    5) = (   0.0000000   0.2699526  -0.4774574), wk =   0.1481481
        k(    6) = (   0.3333333   0.0000000   0.0000000), wk =   0.1481481
        k(    7) = (   0.3333333   0.0000000   0.2837536), wk =   0.2962963
        k(    8) = (   0.3333333   0.2699526  -0.1937038), wk =   0.2962963
        k(    9) = (   0.3333333   0.2699526   0.0900498), wk =   0.2962963
        k(   10) = (   0.3333333   0.2699526  -0.4774574), wk =   0.2962963

                       cryst. coord.
        k(    1) = (   0.0000000   0.0000000   0.0000000), wk =   0.0740741
        k(    2) = (   0.0000000   0.0000000   0.3333333), wk =   0.1481481
        k(    3) = (   0.0000000   0.3333333   0.0000000), wk =   0.1481481
        k(    4) = (   0.0000000   0.3333333   0.3333333), wk =   0.1481481
        k(    5) = (   0.0000000   0.3333333  -0.3333333), wk =   0.1481481
        k(    6) = (   0.3333333   0.0000000   0.0000000), wk =   0.1481481
        k(    7) = (   0.3333333   0.0000000   0.3333333), wk =   0.2962963
        k(    8) = (   0.3333333   0.3333333   0.0000000), wk =   0.2962963
        k(    9) = (   0.3333333   0.3333333   0.3333333), wk =   0.2962963
        k(   10) = (   0.3333333   0.3333333  -0.3333333), wk =   0.2962963

     Check: negative core charge=   -0.000003

     Initial potential from superposition of free atoms

     starting charge     155.9613, renormalised to     156.0000

     negative rho (up, down):  3.747E-01 0.000E+00
     Starting wfcs are  228 randomized atomic wfcs +   28 random wfcs
     Checking if some PAW data can be deallocated...

     Self-consistent Calculation

     iteration #  1     ecut=    30.00 Ry     beta= 0.70
     Davidson diagonalization with overlap

     ethr =  1.00E-02,  avg # of iterations =  5.8

     negative rho (up, down):  3.771E-01 0.000E+00

     total energy              =   -2640.38342263 Ry
     estimated scf accuracy    <       7.45233463 Ry

[...]

     total energy              =   -2644.22890060 Ry
     estimated scf accuracy    <       0.00003937 Ry

     iteration # 10     ecut=    30.00 Ry     beta= 0.70
     Davidson diagonalization with overlap

     ethr =  2.52E-08,  avg # of iterations =  1.1

     negative rho (up, down):  3.827E-01 0.000E+00

     End of self-consistent calculation

          k = 0.0000 0.0000 0.0000 (  5227 PWs)   bands (ev):

   -54.9261 -54.9255 -54.9248 -54.9248 -21.5819 -21.5816 -21.5501 -21.5405
   -21.5242 -21.5172 -21.5139 -21.5107 -21.4175 -21.4128 -21.3845 -21.3780
   -18.2527 -18.1899 -18.1886 -18.1791  -5.4564  -5.1781  -3.2897  -2.7369
    -2.4693  -2.2986  -2.2835  -2.2207  -2.1526  -2.0922  -2.0866  -2.0384
    -1.9146  -1.8338  -0.5257  -0.3584  -0.0793   0.2286   0.3014   0.5518
     1.0555   1.0914   2.3469   3.3899   6.8727   7.4021   7.7819   7.9033
     7.9174   7.9952   8.5535   8.6667   8.7339   8.9542   9.1192   9.2776
     9.3580   9.3995   9.5896   9.6036   9.8784  10.2645  10.3517  10.5745
    10.8900  11.3347  11.3823  11.7970  11.8344  11.8518  11.8930  11.9628
    12.1076  12.1766  12.4010  12.4136  12.5407  13.0438  14.0101  14.6858
    14.8483  14.9174  15.0454  15.5987  16.0178  16.0482  16.3891  16.4239
    16.4469  16.5614  16.5748  16.5770  16.6448  16.6630  16.6708  16.6737
    16.6994  16.7411  16.8146  16.8227  16.8501  16.9134  16.9145  16.9418
    16.9956  17.0148  17.0149  17.0536  17.0777  17.0880  17.1075  17.2216
    17.2474  17.2792  17.4532  17.4632  17.5594  17.5816  17.7345  17.9177
    17.9489  18.1791  18.2746  18.3921  18.4188  18.4603  18.5505  18.6599
    18.7969  18.9736  19.0794  19.4605  19.5095  19.5925  19.7183  19.8056
    19.8789  19.8918  19.9555  20.0597  20.2208  20.3816  20.4342  20.6326
    20.7958  21.6200  22.1886  22.2184  22.2797  22.9062  23.4170  23.5471
    24.2310  24.6719  24.7713  25.2401  25.5359  25.8215  25.9300  25.9964
    26.1055  26.2164  26.9417  27.1991  27.2444  27.5010  27.5224  27.7329
    27.9830  28.1960  28.2242  28.2787  28.4172  29.1071  29.1953  29.3235
    29.5710  29.5798  29.7577  29.8784  30.1589  30.3232  30.7133  30.9792
    31.0495  31.2589  31.7053  32.2385  32.4231  32.5127  32.8679  32.9282
    33.2936  33.7583  33.9100  33.9225  34.3111  34.5678  34.6314  34.7269
    34.9351  34.9806  35.2701  35.3410  35.4719  35.6983  36.3415  36.3715
    36.4153  36.4640  36.6203  36.9839  37.1838  37.2335  37.2997  37.6617
    37.6992  37.8523  37.9940  38.0925  38.4219  38.5028  38.7372  38.9800
    39.1885  39.2321  39.5091  39.5464  39.5981  39.6924  39.7297  40.2281
    40.2736  40.3386  40.6960  40.8993  41.0576  41.0875  41.2220  41.4563
    41.4905  41.6917  41.9522  42.1804  42.2194  42.4641  42.6575  42.7012
    42.7727  43.1098  43.1940  43.3321  43.3682  43.4551  43.4675  43.6221

     occupation numbers
     1.0000   1.0000   1.0000   1.0000   1.0000   1.0000   1.0000   1.0000
     1.0000   1.0000   1.0000   1.0000   1.0000   1.0000   1.0000   1.0000
     1.0000   1.0000   1.0000   1.0000   1.0000   1.0000   1.0000   1.0000
     1.0000   1.0000   1.0000   1.0000   1.0000   1.0000   1.0000   1.0000
     1.0000   1.0000   1.0000   1.0000   1.0000   1.0000   1.0000   1.0000
     1.0000   1.0000   1.0000   1.0000   1.0000   1.0000   1.0000   1.0000
     1.0000   1.0000   1.0000   1.0000   1.0000   1.0000   1.0000   1.0000
     1.0000   1.0000   1.0000   1.0000   1.0000   1.0000   1.0000   1.0000
     1.0000   1.0000   1.0000   1.0000   1.0000   1.0000   1.0000   1.0000
     1.0000   1.0000   1.0000   1.0000   1.0000   1.0000   0.0000   0.0000
     0.0000   0.0000   0.0000   0.0000   0.0000   0.0000   0.0000   0.0000
     0.0000   0.0000   0.0000   0.0000   0.0000   0.0000   0.0000   0.0000
     0.0000   0.0000   0.0000   0.0000   0.0000   0.0000   0.0000   0.0000
     0.0000   0.0000   0.0000   0.0000   0.0000   0.0000   0.0000   0.0000
     0.0000   0.0000   0.0000   0.0000   0.0000   0.0000   0.0000   0.0000
     0.0000   0.0000   0.0000   0.0000   0.0000   0.0000   0.0000   0.0000
     0.0000   0.0000   0.0000   0.0000   0.0000   0.0000   0.0000   0.0000
     0.0000   0.0000   0.0000   0.0000   0.0000   0.0000   0.0000   0.0000
     0.0000   0.0000   0.0000   0.0000   0.0000   0.0000   0.0000   0.0000
     0.0000   0.0000   0.0000   0.0000   0.0000   0.0000   0.0000   0.0000
     0.0000   0.0000   0.0000   0.0000   0.0000   0.0000   0.0000   0.0000
     0.0000   0.0000   0.0000   0.0000   0.0000   0.0000   0.0000   0.0000
     0.0000   0.0000   0.0000   0.0000   0.0000   0.0000   0.0000   0.0000
     0.0000   0.0000   0.0000   0.0000   0.0000   0.0000   0.0000   0.0000
     0.0000   0.0000   0.0000   0.0000   0.0000   0.0000   0.0000   0.0000
     0.0000   0.0000   0.0000   0.0000   0.0000   0.0000   0.0000   0.0000
     0.0000   0.0000   0.0000   0.0000   0.0000   0.0000   0.0000   0.0000
     0.0000   0.0000   0.0000   0.0000   0.0000   0.0000   0.0000   0.0000
     0.0000   0.0000   0.0000   0.0000   0.0000   0.0000   0.0000   0.0000
     0.0000   0.0000   0.0000   0.0000   0.0000   0.0000   0.0000   0.0000
     0.0000   0.0000   0.0000   0.0000   0.0000   0.0000   0.0000   0.0000
     0.0000   0.0000   0.0000   0.0000   0.0000   0.0000   0.0000   0.0000

[...]

          k = 0.3333 0.2700-0.4775 (  5188 PWs)   bands (ev):

   -54.9256 -54.9252 -54.9251 -54.9247 -21.5850 -21.5844 -21.5511 -21.5459
   -21.5207 -21.5195 -21.5100 -21.5097 -21.4093 -21.4042 -21.3903 -21.3886
   -18.2087 -18.2064 -18.2009 -18.1788  -5.4212  -5.3126  -3.0006  -2.9100
    -2.6132  -2.5766  -2.4703  -2.3412  -2.2509  -2.1170  -2.0695  -2.0331
    -1.9085  -1.8891   0.0457   0.1210   0.3030   0.3852   0.5817   0.6898
     0.6950   0.7541   2.7971   3.0429   6.7903   7.0576   7.7055   8.0095
     8.0715   8.3687   8.8349   8.9183   9.0324   9.0964   9.1610   9.2637
     9.3661   9.5280   9.6065   9.7133   9.8820   9.9613  10.0730  10.3306
    10.3701  10.5903  10.6811  10.8036  11.1280  11.3239  11.6054  11.6946
    12.0835  12.1928  12.3149  12.5209  13.0675  13.1849  14.5656  14.7442
    14.8877  15.0302  15.8288  16.0423  16.1093  16.1460  16.2303  16.3113
    16.4000  16.4084  16.4791  16.5487  16.6152  16.6674  16.6965  16.7125
    16.7366  16.7676  16.7719  16.7877  16.8206  16.8408  16.8803  16.9158
    16.9410  16.9533  16.9718  17.0363  17.0420  17.0849  17.1281  17.1504
    17.1819  17.1955  17.2978  17.3778  17.4138  17.5505  17.6578  17.7975
    17.9771  18.1352  18.2634  18.3076  18.4222  18.4702  19.0092  19.0694
    19.2153  19.2398  19.3081  19.5377  19.5845  19.7341  19.8361  20.0828
    20.1755  20.2257  20.3674  20.4755  20.5269  20.7249  20.9711  21.1591
    21.5239  21.6003  22.2018  22.5561  22.5793  22.7429  23.2515  23.6368
    24.0182  24.2245  24.3556  24.8866  25.0531  25.2846  25.7808  26.1857
    26.5513  26.8967  27.1068  27.3508  27.4610  27.6098  27.8392  27.9698
    28.1666  28.4331  28.5108  28.7376  28.8159  28.9591  29.0759  29.1358
    29.2860  29.4124  29.8441  29.9363  30.2475  30.4228  30.5934  30.6938
    30.9817  31.0927  31.1564  31.6655  31.6769  31.9191  32.0748  32.3818
    32.5623  32.7859  32.9464  33.3348  33.5209  33.7059  33.9667  34.2178
    34.4445  34.6875  34.6998  35.0444  35.2452  35.3627  35.4790  35.8123
    35.8325  36.0009  36.3840  36.3866  36.7459  37.0489  37.2744  37.4695
    37.6692  38.1056  38.3013  38.4663  38.7181  38.8485  38.9030  39.0993
    39.2986  39.4371  39.5968  39.8500  40.0370  40.1659  40.3520  40.5053
    40.6516  40.7745  40.8341  41.0217  41.2668  41.3816  41.3874  41.7351
    41.8001  41.9916  42.1234  42.5242  42.5848  42.6469  42.7405  42.7983
    43.0022  43.1521  43.2919  43.4591  43.5738  43.8403  44.0231  44.1942

     occupation numbers
     1.0000   1.0000   1.0000   1.0000   1.0000   1.0000   1.0000   1.0000
     1.0000   1.0000   1.0000   1.0000   1.0000   1.0000   1.0000   1.0000
     1.0000   1.0000   1.0000   1.0000   1.0000   1.0000   1.0000   1.0000
     1.0000   1.0000   1.0000   1.0000   1.0000   1.0000   1.0000   1.0000
     1.0000   1.0000   1.0000   1.0000   1.0000   1.0000   1.0000   1.0000
     1.0000   1.0000   1.0000   1.0000   1.0000   1.0000   1.0000   1.0000
     1.0000   1.0000   1.0000   1.0000   1.0000   1.0000   1.0000   1.0000
     1.0000   1.0000   1.0000   1.0000   1.0000   1.0000   1.0000   1.0000
     1.0000   1.0000   1.0000   1.0000   1.0000   1.0000   1.0000   1.0000
     1.0000   1.0000   1.0000   1.0000   1.0000   1.0000   0.0000   0.0000
     0.0000   0.0000   0.0000   0.0000   0.0000   0.0000   0.0000   0.0000
     0.0000   0.0000   0.0000   0.0000   0.0000   0.0000   0.0000   0.0000
     0.0000   0.0000   0.0000   0.0000   0.0000   0.0000   0.0000   0.0000
     0.0000   0.0000   0.0000   0.0000   0.0000   0.0000   0.0000   0.0000
     0.0000   0.0000   0.0000   0.0000   0.0000   0.0000   0.0000   0.0000
     0.0000   0.0000   0.0000   0.0000   0.0000   0.0000   0.0000   0.0000
     0.0000   0.0000   0.0000   0.0000   0.0000   0.0000   0.0000   0.0000
     0.0000   0.0000   0.0000   0.0000   0.0000   0.0000   0.0000   0.0000
     0.0000   0.0000   0.0000   0.0000   0.0000   0.0000   0.0000   0.0000
     0.0000   0.0000   0.0000   0.0000   0.0000   0.0000   0.0000   0.0000
     0.0000   0.0000   0.0000   0.0000   0.0000   0.0000   0.0000   0.0000
     0.0000   0.0000   0.0000   0.0000   0.0000   0.0000   0.0000   0.0000
     0.0000   0.0000   0.0000   0.0000   0.0000   0.0000   0.0000   0.0000
     0.0000   0.0000   0.0000   0.0000   0.0000   0.0000   0.0000   0.0000
     0.0000   0.0000   0.0000   0.0000   0.0000   0.0000   0.0000   0.0000
     0.0000   0.0000   0.0000   0.0000   0.0000   0.0000   0.0000   0.0000
     0.0000   0.0000   0.0000   0.0000   0.0000   0.0000   0.0000   0.0000
     0.0000   0.0000   0.0000   0.0000   0.0000   0.0000   0.0000   0.0000
     0.0000   0.0000   0.0000   0.0000   0.0000   0.0000   0.0000   0.0000
     0.0000   0.0000   0.0000   0.0000   0.0000   0.0000   0.0000   0.0000
     0.0000   0.0000   0.0000   0.0000   0.0000   0.0000   0.0000   0.0000
     0.0000   0.0000   0.0000   0.0000   0.0000   0.0000   0.0000   0.0000

     highest occupied, lowest unoccupied level (ev):    13.3338   14.0101

!    total energy              =   -2644.22890638 Ry
     estimated scf accuracy    <       0.00000062 Ry

     The total energy is the sum of the following terms:
     one-electron contribution =    -144.39506375 Ry
     hartree contribution      =     165.94968532 Ry
     xc contribution           =    -287.32056816 Ry
     ewald contribution        =    -803.98506087 Ry
     one-center paw contrib.   =   -1574.47789891 Ry
      -> PAW hartree energy AE =     104.57595161 Ry
      -> PAW hartree energy PS =    -104.56329290 Ry
      -> PAW xc energy AE      =   -1216.16774907 Ry
      -> PAW xc energy PS      =      35.29666618 Ry
      -> total E_H with PAW    =     165.96234403 Ry
      -> total E_XC with PAW   =   -1468.19165105 Ry

     convergence has been achieved in  10 iterations

     Writing all to output data dir bands_nm/myprefix.save/

     General routines

     Parallel routines

     PAW routines

   This run was terminated on:  18:29:26  15Jul2023

   JOB DONE.