     Program PWSCF v.7.1 starts on 13Jul2023 at  8:19:29

     Reading input from espresso_5942.pwi
Warning: card &CELL ignored
Warning: card / ignored

     Current dimensions of program PWSCF are:
     Max number of different atomic species (ntypx) = 10
     Max number of k-points (npk) =  40000
     Max angular momentum in pseudopotentials (lmaxx) =  4
     file In.pbe-dn-rrkjus_psl.0.2.2.UPF: wavefunction(s)  5S renormalized
     file Ga.pbe-dn-kjpaw_psl.1.0.0.UPF: wavefunction(s)  4S renormalized

     K-points division:     npool     =       2
     R & G space division:  proc/nbgrp/npool/nimage =       8
     Subspace diagonalization in iterative solution of the eigenvalue problem:
     a serial algorithm will be used

     Using Slab Decomposition

     bravais-lattice index     =            0
     lattice parameter (alat)  =      13.2883  a.u.
     unit-cell volume          =    1285.2856 (a.u.)^3
     number of atoms/cell      =            8
     number of atomic types    =            4
     number of electrons       =        88.00
     number of Kohn-Sham states=           64
     kinetic-energy cutoff     =      30.0000  Ry
     charge density cutoff     =     240.0000  Ry
     scf convergence threshold =      1.0E-06
     mixing beta               =       0.7000
     number of iterations used =            8  plain     mixing
     Exchange-correlation= SLA  PW   PBE  PBE
                           (   1   4   3   4   0   0   0)

     celldm(1)=  13.288266  celldm(2)=   0.000000  celldm(3)=   0.000000
     celldm(4)=   0.000000  celldm(5)=   0.000000  celldm(6)=   0.000000

     crystal axes: (cart. coord. in units of alat)
               a(1) = (   1.000000   0.000000   0.000000 )
               a(2) = (   0.327707   0.944779   0.000000 )
               a(3) = (  -0.663854  -0.472390   0.579781 )

     reciprocal axes: (cart. coord. in units 2 pi/alat)
               b(1) = (  1.000000 -0.346861  0.862394 )
               b(2) = (  0.000000  1.058448  0.862394 )
               b(3) = (  0.000000  0.000000  1.724788 )

     PseudoPot. # 1 for In read from file:
     /lustre07/scratch/pragov/crystal_structure_design/utils/SSSP/In.pbe-dn-rrkjus_psl.0.2.2.UPF
     MD5 check sum: 25e7c42c3b55b68f4bf926be2e7201a4
     Pseudo is Ultrasoft + core correction, Zval = 13.0
     Generated using "atomic" code by A. Dal Corso  v.5.0.99 svn rev. 10869
     Using radial grid of 1241 points,  6 beta functions with:
                l(1) =   0
                l(2) =   0
                l(3) =   1
                l(4) =   1
                l(5) =   2
                l(6) =   2
     Q(r) pseudized with 0 coefficients

     PseudoPot. # 2 for Ga read from file:
     /lustre07/scratch/pragov/crystal_structure_design/utils/SSSP/Ga.pbe-dn-kjpaw_psl.1.0.0.UPF
     MD5 check sum: a27b4342b1af7e5f338de752e9ed7044
     Pseudo is Projector augmented-wave + core cor, Zval = 13.0
     Generated using "atomic" code by A. Dal Corso  v.5.1
     Shape of augmentation charge: PSQ
     Using radial grid of 1205 points,  6 beta functions with:
                l(1) =   0
                l(2) =   0
                l(3) =   1
                l(4) =   1
                l(5) =   2
                l(6) =   2
     Q(r) pseudized with 0 coefficients

     PseudoPot. # 3 for Cu read from file:
     /lustre07/scratch/pragov/crystal_structure_design/utils/SSSP/Cu_pbe_v1.2.uspp.F.UPF
     MD5 check sum: 6e991ff952a84172a2a52a1c1e996048
     Pseudo is Ultrasoft + core correction, Zval = 19.0
     Generated by new atomic code, or converted to UPF format
     Using radial grid of  867 points,  6 beta functions with:
                l(1) =   0
                l(2) =   0
                l(3) =   1
                l(4) =   1
                l(5) =   2
                l(6) =   2
     Q(r) pseudized with  8 coefficients,  rinner =    1.150   1.150   1.150
                                                       1.150   1.150

     PseudoPot. # 4 for Se read from file:
     /lustre07/scratch/pragov/crystal_structure_design/utils/SSSP/Se_pbe_v1.uspp.F.UPF
     MD5 check sum: 1b3568f3a8ae88f9a2a0ad0698632c85
     Pseudo is Ultrasoft + core correction, Zval =  6.0
     Generated by new atomic code, or converted to UPF format
     Using radial grid of  877 points,  6 beta functions with:
                l(1) =   0
                l(2) =   0
                l(3) =   1
                l(4) =   1
                l(5) =   2
                l(6) =   2
     Q(r) pseudized with  8 coefficients,  rinner =    1.300   1.300   1.300
                                                       1.300   1.300

     atomic species   valence    mass     pseudopotential
        In            13.00   114.81800     In( 1.00)
        Ga            13.00    69.72300     Ga( 1.00)
        Cu            19.00    63.54600     Cu( 1.00)
        Se             6.00    78.97100     Se( 1.00)

     No symmetry found

                                    s                        frac. trans.

      isym =  1     identity

 cryst.   s( 1) = (     1          0          0      )
                  (     0          1          0      )
                  (     0          0          1      )

 cart.    s( 1) = (  1.0000000 -0.0000000  0.0000000 )
                  (  0.0000000  1.0000000  0.0000000 )
                  (  0.0000000  0.0000000  1.0000000 )

   Cartesian axes

     site n.     atom                  positions (alat units)
         1           In  tau(   1) = (   0.6638535   0.4723897   0.0000000  )
         2           Ga  tau(   2) = (   0.5000000   0.0000000   0.2898907  )
         3           Cu  tau(   3) = (   0.1638535   0.4723897   0.2898907  )
         4           Cu  tau(   4) = (   0.0000000   0.0000000   0.0000000  )
         5           Se  tau(   5) = (  -0.1734207  -0.1255423   0.2710478  )
         6           Se  tau(   6) = (   0.4884126   0.3496865   0.3087336  )
         7           Se  tau(   7) = (  -0.0045672   0.3756703   0.5780392  )
         8           Se  tau(   8) = (   1.0172824   0.3449649   0.0017422  )

   Crystallographic axes

     site n.     atom                  positions (cryst. coord.)
         1           In  tau(   1) = (  0.5000000  0.5000000  0.0000000  )
         2           Ga  tau(   2) = (  0.7500000  0.2500000  0.5000000  )
         3           Cu  tau(   3) = (  0.2500000  0.7500000  0.5000000  )
         4           Cu  tau(   4) = (  0.0000000  0.0000000  0.0000000  )
         5           Se  tau(   5) = (  0.1038750  0.1008700  0.4675000  )
         6           Se  tau(   6) = (  0.6333700  0.6363750  0.5325000  )
         7           Se  tau(   7) = (  0.3636250  0.8961250  0.9969950  )
         8           Se  tau(   8) = (  0.8991300  0.3666300  0.0030050  )

     number of k points=    14
                       cart. coord. in units 2pi/alat
        k(    1) = (   0.0000000   0.0000000   0.0000000), wk =   0.0740741
        k(    2) = (   0.0000000   0.0000000   0.5749293), wk =   0.1481481
        k(    3) = (   0.0000000   0.3528161   0.2874647), wk =   0.1481481
        k(    4) = (   0.0000000   0.3528161   0.8623940), wk =   0.1481481
        k(    5) = (   0.3333333  -0.1156203   0.2874647), wk =   0.1481481
        k(    6) = (   0.3333333  -0.1156203   0.8623940), wk =   0.1481481
        k(    7) = (   0.3333333   0.2371957   0.5749293), wk =   0.1481481
        k(    8) = (   0.3333333   0.2371957  -0.0000000), wk =   0.1481481
        k(    9) = (   0.3333333  -0.4684364  -0.0000000), wk =   0.1481481
        k(   10) = (   0.3333333  -0.4684364   0.5749293), wk =   0.1481481
        k(   11) = (   0.0000000  -0.3528161   0.2874647), wk =   0.1481481
        k(   12) = (  -0.3333333   0.1156203   0.2874647), wk =   0.1481481
        k(   13) = (  -0.3333333  -0.2371957   0.5749293), wk =   0.1481481
        k(   14) = (  -0.3333333   0.4684364   0.5749293), wk =   0.1481481

                       cryst. coord.
        k(    1) = (   0.0000000   0.0000000   0.0000000), wk =   0.0740741
        k(    2) = (   0.0000000   0.0000000   0.3333333), wk =   0.1481481
        k(    3) = (   0.0000000   0.3333333   0.0000000), wk =   0.1481481
        k(    4) = (   0.0000000   0.3333333   0.3333333), wk =   0.1481481
        k(    5) = (   0.3333333  -0.0000000   0.0000000), wk =   0.1481481
        k(    6) = (   0.3333333  -0.0000000   0.3333333), wk =   0.1481481
        k(    7) = (   0.3333333   0.3333333   0.0000000), wk =   0.1481481
        k(    8) = (   0.3333333   0.3333333  -0.3333333), wk =   0.1481481
        k(    9) = (   0.3333333  -0.3333333  -0.0000000), wk =   0.1481481
        k(   10) = (   0.3333333  -0.3333333   0.3333333), wk =   0.1481481
        k(   11) = (   0.0000000  -0.3333333   0.3333333), wk =   0.1481481
        k(   12) = (  -0.3333333   0.0000000   0.3333333), wk =   0.1481481
        k(   13) = (  -0.3333333  -0.3333333   0.6666667), wk =   0.1481481
        k(   14) = (  -0.3333333   0.3333333   0.3333333), wk =   0.1481481

     Initial potential from superposition of free atoms

     starting charge      85.9930, renormalised to      88.0000
     Starting wfcs are   60 randomized atomic wfcs +    4 random wfcs
     Checking if some PAW data can be deallocated...

     Self-consistent Calculation

     iteration #  1     ecut=    30.00 Ry     beta= 0.70
     Davidson diagonalization with overlap

     ethr =  1.00E-02,  avg # of iterations =  5.5

     total energy              =   -1403.59231692 Ry
     estimated scf accuracy    <       2.29625558 Ry

[...]

     total energy              =   -1404.81263940 Ry
     estimated scf accuracy    <       0.00002829 Ry

     iteration # 12     ecut=    30.00 Ry     beta= 0.70
     Davidson diagonalization with overlap

     ethr =  3.21E-08,  avg # of iterations =  2.2

     End of self-consistent calculation

          k = 0.0000 0.0000 0.0000 (  3595 PWs)   bands (ev):

  -104.7578-104.7506 -62.1526 -62.1519 -62.1519 -62.1485 -62.1425 -62.1425
    -8.5974  -8.5860  -8.5860  -8.4661  -8.4656  -8.0428  -8.0349  -8.0348
    -7.8621  -7.8502  -7.2385  -5.8281  -5.8280  -5.8251  -0.1708   1.0675
     2.0954   2.6371   2.7330   3.0299   3.0300   3.5738   3.5739   3.9209
     3.9209   3.9640   4.9542   5.0084   5.0937   5.3486   5.3792   5.3792
     5.4801   6.7711   6.9309   6.9309   6.9598   8.8959   8.9319  10.8943
    10.8943  11.3057  11.6693  11.7414  11.7414  12.0827  13.1367  13.1367
    13.7207  13.8787  15.9687  16.4136  16.7751  16.7983  16.7983  17.6772

     occupation numbers
     1.0000   1.0000   1.0000   1.0000   1.0000   1.0000   1.0000   1.0000
     1.0000   1.0000   1.0000   1.0000   1.0000   1.0000   1.0000   1.0000
     1.0000   1.0000   1.0000   1.0000   1.0000   1.0000   1.0000   1.0000
     1.0000   1.0000   1.0000   1.0000   1.0000   1.0000   1.0000   1.0000
     1.0000   1.0000   1.0000   1.0000   1.0000   1.0000   1.0000   1.0000
     1.0000   1.0000   1.0000   1.0000   0.0000   0.0000   0.0000   0.0000
     0.0000   0.0000   0.0000   0.0000   0.0000   0.0000   0.0000   0.0000
     0.0000   0.0000   0.0000   0.0000   0.0000   0.0000   0.0000   0.0000

[...]

          k = 0.0000-0.3528 0.2875 (  3573 PWs)   bands (ev):

[...]

          k =-0.3333 0.1156 0.2875 (  3573 PWs)   bands (ev):

[...]

          k =-0.3333 0.4684 0.5749 (  3556 PWs)   bands (ev):

  -104.7570-104.7497 -62.1513 -62.1504 -62.1503 -62.1457 -62.1419 -62.1405
    -8.5998  -8.5906  -8.5842  -8.4660  -8.4648  -8.0879  -8.0384  -8.0347
    -7.8613  -7.8495  -6.5246  -6.3496  -6.1615  -5.8294   0.2243   0.9388
     2.2555   2.4919   2.7134   3.1801   3.2996   3.4223   3.6591   3.8210
     3.8552   4.0051   5.0695   5.1212   5.1504   5.3125   5.3406   5.5116
     5.6573   5.9069   6.2054   6.4129   8.7234   8.9724   9.3538  10.1573
    10.8508  11.0572  11.3559  11.6872  12.2617  12.5259  13.0870  13.5144
    14.2085  14.5257  14.9730  15.0926  15.2597  15.5901  16.0236  17.4970

     occupation numbers
     1.0000   1.0000   1.0000   1.0000   1.0000   1.0000   1.0000   1.0000
     1.0000   1.0000   1.0000   1.0000   1.0000   1.0000   1.0000   1.0000
     1.0000   1.0000   1.0000   1.0000   1.0000   1.0000   1.0000   1.0000
     1.0000   1.0000   1.0000   1.0000   1.0000   1.0000   1.0000   1.0000
     1.0000   1.0000   1.0000   1.0000   1.0000   1.0000   1.0000   1.0000
     1.0000   1.0000   1.0000   1.0000   0.0000   0.0000   0.0000   0.0000
     0.0000   0.0000   0.0000   0.0000   0.0000   0.0000   0.0000   0.0000
     0.0000   0.0000   0.0000   0.0000   0.0000   0.0000   0.0000   0.0000

     highest occupied, lowest unoccupied level (ev):     6.9309    6.9598

!    total energy              =   -1404.81264449 Ry
     estimated scf accuracy    <       0.00000020 Ry

     The total energy is the sum of the following terms:
     one-electron contribution =   -1007.87341395 Ry
     hartree contribution      =     550.70472827 Ry
     xc contribution           =    -282.30651752 Ry
     ewald contribution        =    -554.40019093 Ry
     one-center paw contrib.   =    -110.93725036 Ry
      -> PAW hartree energy AE =       0.00000000 Ry
      -> PAW hartree energy PS =       0.00000000 Ry
      -> PAW xc energy AE      =       0.00000000 Ry
      -> PAW xc energy PS      =       0.00000000 Ry
      -> total E_H with PAW    =     550.70472827 Ry
      -> total E_XC with PAW   =    -282.30651752 Ry

     convergence has been achieved in  12 iterations

     Writing all to output data dir bands_nm/myprefix.save/

     General routines

     Parallel routines

     PAW routines

   This run was terminated on:   8:19:39  13Jul2023

   JOB DONE.