     Program PWSCF v.7.1 starts on 14Jul2023 at 21: 6: 2

     Reading input from espresso_21980.pwi
Warning: card &CELL ignored
Warning: card / ignored

     Current dimensions of program PWSCF are:
     Max number of different atomic species (ntypx) = 10
     Max number of k-points (npk) =  40000
     Max angular momentum in pseudopotentials (lmaxx) =  4
     file O.pbe-n-kjpaw_psl.0.1.UPF: wavefunction(s)  2P renormalized
     Message from routine setup:
     using ibrav=0 with symmetry is DISCOURAGED, use correct ibrav instead

     K-points division:     npool     =       2
     R & G space division:  proc/nbgrp/npool/nimage =       4
     Subspace diagonalization in iterative solution of the eigenvalue problem:
     a serial algorithm will be used

     Using Slab Decomposition

     bravais-lattice index     =            0
     lattice parameter (alat)  =      10.7659  a.u.
     unit-cell volume          =     877.1820 (a.u.)^3
     number of atoms/cell      =           10
     number of atomic types    =            4
     number of electrons       =        90.00
     number of Kohn-Sham states=           64
     kinetic-energy cutoff     =      30.0000  Ry
     charge density cutoff     =     240.0000  Ry
     scf convergence threshold =      1.0E-06
     mixing beta               =       0.7000
     number of iterations used =            8  plain     mixing
     Exchange-correlation= SLA  PW   PBX  PBC
                           (   1   4   3   4   0   0   0)

     celldm(1)=  10.765867  celldm(2)=   0.000000  celldm(3)=   0.000000
     celldm(4)=   0.000000  celldm(5)=   0.000000  celldm(6)=   0.000000

     crystal axes: (cart. coord. in units of alat)
               a(1) = (   1.000000   0.000000   0.000000 )
               a(2) = (   0.011509   0.999934   0.000000 )
               a(3) = (  -0.505754  -0.499967   0.703026 )

     reciprocal axes: (cart. coord. in units 2 pi/alat)
               b(1) = (  1.000000 -0.011509  0.711211 )
               b(2) = (  0.000000  1.000066  0.711211 )
               b(3) = (  0.000000  0.000000  1.422422 )

     PseudoPot. # 1 for Sr read from file:
     /lustre07/scratch/pragov/crystal_structure_design/utils/SSSP/Sr_pbe_v1.uspp.F.UPF
     MD5 check sum: 6b418c05fbe9db5448babca5e47b7a5b
     Pseudo is Ultrasoft + core correction, Zval = 10.0
     Generated by new atomic code, or converted to UPF format
     Using radial grid of  883 points,  6 beta functions with:
                l(1) =   0
                l(2) =   0
                l(3) =   1
                l(4) =   1
                l(5) =   2
                l(6) =   2
     Q(r) pseudized with  6 coefficients,  rinner =    1.400   1.400   1.400
                                                       1.400   1.400

     PseudoPot. # 2 for Zn read from file:
     /lustre07/scratch/pragov/crystal_structure_design/utils/SSSP/Zn_pbe_v1.uspp.F.UPF
     MD5 check sum: df62231357ef9e81f77b2b3087fa5675
     Pseudo is Ultrasoft, Zval = 20.0
     Generated by new atomic code, or converted to UPF format
     Using radial grid of  943 points,  6 beta functions with:
                l(1) =   0
                l(2) =   0
                l(3) =   1
                l(4) =   1
                l(5) =   2
                l(6) =   2
     Q(r) pseudized with  8 coefficients,  rinner =    1.100   1.100   1.100
                                                       1.100   1.100

     PseudoPot. # 3 for Mo read from file:
     /lustre07/scratch/pragov/crystal_structure_design/utils/SSSP/Mo_ONCV_PBE-1.0.oncvpsp.upf
     MD5 check sum: 1b5d28e075c9ccadda658a603575cd1f
     Pseudo is Norm-conserving, Zval = 14.0
     Generated using ONCVPSP code by D. R. Hamann
     Using radial grid of 1526 points,  6 beta functions with:
                l(1) =   0
                l(2) =   0
                l(3) =   1
                l(4) =   1
                l(5) =   2
                l(6) =   2

     PseudoPot. # 4 for O  read from file:
     /lustre07/scratch/pragov/crystal_structure_design/utils/SSSP/O.pbe-n-kjpaw_psl.0.1.UPF
     MD5 check sum: 0234752ac141de4415c5fc33072bef88
     Pseudo is Projector augmented-wave + core cor, Zval =  6.0
     Generated using "atomic" code by A. Dal Corso  v.5.0.99 svn rev. 10869
     Shape of augmentation charge: BESSEL
     Using radial grid of 1095 points,  4 beta functions with:
                l(1) =   0
                l(2) =   0
                l(3) =   1
                l(4) =   1
     Q(r) pseudized with 0 coefficients

     atomic species   valence    mass     pseudopotential
        Sr            10.00    87.62000     Sr( 1.00)
        Zn            20.00    65.38000     Zn( 1.00)
        Mo            14.00    95.95000     Mo( 1.00)
        O              6.00    15.99900     O ( 1.00)

      2 Sym. Ops., with inversion, found

                                    s                        frac. trans.

      isym =  1     identity

 cryst.   s( 1) = (     1          0          0      )
                  (     0          1          0      )
                  (     0          0          1      )

 cart.    s( 1) = (  1.0000000  0.0000000  0.0000000 )
                  (  0.0000000  1.0000000  0.0000000 )
                  (  0.0000000  0.0000000  1.0000000 )

      isym =  2     inversion

 cryst.   s( 2) = (    -1          0          0      )
                  (     0         -1          0      )
                  (     0          0         -1      )

 cart.    s( 2) = ( -1.0000000 -0.0000000  0.0000000 )
                  (  0.0000000 -1.0000000 -0.0000000 )
                  (  0.0000000  0.0000000 -1.0000000 )

   Cartesian axes

     site n.     atom                  positions (alat units)
         1           Sr  tau(   1) = (   0.0057543   0.4999669   0.3515131  )
         2           Sr  tau(   2) = (   0.5000000   0.0000000   0.3515131  )
         3           Zn  tau(   3) = (   0.5057543   0.4999669   0.0000000  )
         4           Mo  tau(   4) = (   0.0000000   0.0000000   0.0000000  )
         5           O   tau(   5) = (   0.0382937  -0.0387369   0.3368177  )
         6           O   tau(   6) = (   0.4674606   0.5387038   0.3662084  )
         7           O   tau(   7) = (  -0.2574541   0.2604343   0.6485564  )
         8           O   tau(   8) = (   0.7632084   0.2395326   0.0544698  )
         9           O   tau(   9) = (   0.2425689   0.2397931   0.0000000  )
        10           O   tau(  10) = (   0.7689397   0.7601407   0.0000000  )

   Crystallographic axes

     site n.     atom                  positions (cryst. coord.)
         1           Sr  tau(   1) = (  0.2500000  0.7500000  0.5000000  )
         2           Sr  tau(   2) = (  0.7500000  0.2500000  0.5000000  )
         3           Zn  tau(   3) = (  0.5000000  0.5000000  0.0000000  )
         4           Mo  tau(   4) = (  0.0000000  0.0000000  0.0000000  )
         5           O   tau(   5) = (  0.2782880  0.2008090  0.4790970  )
         6           O   tau(   6) = (  0.7217120  0.7991910  0.5209030  )
         7           O   tau(   7) = (  0.2008090  0.7217120  0.9225210  )
         8           O   tau(   8) = (  0.7991910  0.2782880  0.0774790  )
         9           O   tau(   9) = (  0.2398090  0.2398090  0.0000000  )
        10           O   tau(  10) = (  0.7601910  0.7601910  0.0000000  )

     number of k points=    14
                       cart. coord. in units 2pi/alat
        k(    1) = (   0.0000000   0.0000000   0.0000000), wk =   0.0740741
        k(    2) = (   0.0000000   0.0000000   0.4741408), wk =   0.1481481
        k(    3) = (   0.0000000   0.3333554   0.2370704), wk =   0.1481481
        k(    4) = (   0.0000000   0.3333554   0.7112111), wk =   0.1481481
        k(    5) = (   0.3333333  -0.0038364   0.2370704), wk =   0.1481481
        k(    6) = (   0.3333333  -0.0038364   0.7112111), wk =   0.1481481
        k(    7) = (   0.3333333   0.3295190   0.4741408), wk =   0.1481481
        k(    8) = (   0.3333333   0.3295190  -0.0000000), wk =   0.1481481
        k(    9) = (   0.3333333  -0.3371919   0.0000000), wk =   0.1481481
        k(   10) = (   0.3333333  -0.3371919   0.4741408), wk =   0.1481481
        k(   11) = (   0.0000000  -0.3333554   0.2370704), wk =   0.1481481
        k(   12) = (  -0.3333333   0.0038364   0.2370704), wk =   0.1481481
        k(   13) = (  -0.3333333  -0.3295190   0.4741408), wk =   0.1481481
        k(   14) = (  -0.3333333   0.3371919   0.4741408), wk =   0.1481481

                       cryst. coord.
        k(    1) = (   0.0000000   0.0000000   0.0000000), wk =   0.0740741
        k(    2) = (   0.0000000   0.0000000   0.3333333), wk =   0.1481481
        k(    3) = (   0.0000000   0.3333333   0.0000000), wk =   0.1481481
        k(    4) = (   0.0000000   0.3333333   0.3333333), wk =   0.1481481
        k(    5) = (   0.3333333   0.0000000   0.0000000), wk =   0.1481481
        k(    6) = (   0.3333333   0.0000000   0.3333333), wk =   0.1481481
        k(    7) = (   0.3333333   0.3333333   0.0000000), wk =   0.1481481
        k(    8) = (   0.3333333   0.3333333  -0.3333333), wk =   0.1481481
        k(    9) = (   0.3333333  -0.3333333   0.0000000), wk =   0.1481481
        k(   10) = (   0.3333333  -0.3333333   0.3333333), wk =   0.1481481
        k(   11) = (   0.0000000  -0.3333333   0.3333333), wk =   0.1481481
        k(   12) = (  -0.3333333   0.0000000   0.3333333), wk =   0.1481481
        k(   13) = (  -0.3333333  -0.3333333   0.6666667), wk =   0.1481481
        k(   14) = (  -0.3333333   0.3333333   0.3333333), wk =   0.1481481

     Check: negative core charge=   -0.000014

     Initial potential from superposition of free atoms

     starting charge      89.9316, renormalised to      90.0000

     negative rho (up, down):  1.248E-01 0.000E+00
     Starting wfcs are   73 randomized atomic wfcs
     Checking if some PAW data can be deallocated...

     Self-consistent Calculation

     iteration #  1     ecut=    30.00 Ry     beta= 0.70
     Davidson diagonalization with overlap

     ethr =  1.00E-02,  avg # of iterations =  2.9

     negative rho (up, down):  1.268E-01 0.000E+00

     total energy              =    -987.74126546 Ry
     estimated scf accuracy    <       3.08244586 Ry

[...]

     total energy              =    -989.41400204 Ry
     estimated scf accuracy    <       0.00000250 Ry

     iteration # 10     ecut=    30.00 Ry     beta= 0.70
     Davidson diagonalization with overlap

     ethr =  2.78E-09,  avg # of iterations =  1.5

     negative rho (up, down):  1.309E-01 0.000E+00

     End of self-consistent calculation

          k = 0.0000 0.0000 0.0000 (  2429 PWs)   bands (ev):

  -113.9440 -68.0815 -68.0815 -68.0813 -52.5390 -26.6734 -26.6536 -26.6536
   -23.5589 -23.5172  -8.1719  -7.5914  -7.4160  -6.9984  -6.9980  -6.9758
    -5.7607  -5.7607  -5.5256  -5.4708  -5.4708  -5.4517   3.7963   3.8241
     3.9433   4.6111   4.6112   4.6127   5.7656   5.7656   5.7767   6.3281
     6.3485   6.3486   6.7781   6.8134   8.0976   8.1809   8.1810   8.6254
     8.6735   8.6736   8.8697   9.1153   9.1155  11.6315  11.6316  11.7082
    14.3004  14.6453  15.4533  15.9187  15.9955  15.9956  16.6314  16.8741
    17.4937  17.4937  17.5496  17.7839  18.6249  18.6884  19.1423  22.5186

     occupation numbers
     1.0000   1.0000   1.0000   1.0000   1.0000   1.0000   1.0000   1.0000
     1.0000   1.0000   1.0000   1.0000   1.0000   1.0000   1.0000   1.0000
     1.0000   1.0000   1.0000   1.0000   1.0000   1.0000   1.0000   1.0000
     1.0000   1.0000   1.0000   1.0000   1.0000   1.0000   1.0000   1.0000
     1.0000   1.0000   1.0000   1.0000   1.0000   1.0000   1.0000   1.0000
     1.0000   1.0000   1.0000   1.0000   1.0000   0.0000   0.0000   0.0000
     0.0000   0.0000   0.0000   0.0000   0.0000   0.0000   0.0000   0.0000
     0.0000   0.0000   0.0000   0.0000   0.0000   0.0000   0.0000   0.0000

[...]

          k = 0.0000-0.3334 0.2371 (  2444 PWs)   bands (ev):

[...]

          k =-0.3333 0.0038 0.2371 (  2444 PWs)   bands (ev):

[...]

          k =-0.3333 0.3372 0.4741 (  2431 PWs)   bands (ev):

  -113.9446 -68.0875 -68.0819 -68.0805 -52.5391 -26.6742 -26.6543 -26.6537
   -23.5361 -23.5358  -8.1628  -7.9205  -7.5549  -7.1721  -7.1339  -7.0593
    -5.5893  -5.4712  -5.3844  -5.3413  -5.2561  -5.0472   3.6001   4.1592
     4.3540   4.6166   4.7494   4.8596   5.1518   5.2391   5.2837   5.4790
     5.9772   6.9006   7.2213   7.3768   7.4896   7.7366   7.8637   7.9730
     8.0701   8.4990   8.5911   8.8198   8.9836  11.6960  11.9812  12.0896
    14.4463  15.9554  16.5011  16.5948  16.8799  17.2201  17.5456  17.6997
    17.7028  17.8475  18.1783  18.2359  18.4245  19.2097  20.0096  20.4373

     occupation numbers
     1.0000   1.0000   1.0000   1.0000   1.0000   1.0000   1.0000   1.0000
     1.0000   1.0000   1.0000   1.0000   1.0000   1.0000   1.0000   1.0000
     1.0000   1.0000   1.0000   1.0000   1.0000   1.0000   1.0000   1.0000
     1.0000   1.0000   1.0000   1.0000   1.0000   1.0000   1.0000   1.0000
     1.0000   1.0000   1.0000   1.0000   1.0000   1.0000   1.0000   1.0000
     1.0000   1.0000   1.0000   1.0000   1.0000   0.0000   0.0000   0.0000
     0.0000   0.0000   0.0000   0.0000   0.0000   0.0000   0.0000   0.0000
     0.0000   0.0000   0.0000   0.0000   0.0000   0.0000   0.0000   0.0000

     highest occupied, lowest unoccupied level (ev):     9.1155   11.4589

!    total energy              =    -989.41400220 Ry
     estimated scf accuracy    <       0.00000015 Ry

     The total energy is the sum of the following terms:
     one-electron contribution =    -569.78975683 Ry
     hartree contribution      =     331.93622609 Ry
     xc contribution           =    -139.12509893 Ry
     ewald contribution        =    -555.28976219 Ry
     one-center paw contrib.   =     -57.14561034 Ry
      -> PAW hartree energy AE =       0.00000000 Ry
      -> PAW hartree energy PS =       0.00000000 Ry
      -> PAW xc energy AE      =       0.00000000 Ry
      -> PAW xc energy PS      =       0.00000000 Ry
      -> total E_H with PAW    =     331.93622609 Ry
      -> total E_XC with PAW   =    -139.12509893 Ry

     convergence has been achieved in  10 iterations

     Writing all to output data dir bands_nm/myprefix.save/

     General routines

     Parallel routines

     PAW routines

   This run was terminated on:  21: 6:10  14Jul2023

   JOB DONE.