     Program PWSCF v.7.1 starts on 17Jul2023 at  0:20:49

     Reading input from espresso_5206.pwi
Warning: card &CELL ignored
Warning: card / ignored

     Current dimensions of program PWSCF are:
     Max number of different atomic species (ntypx) = 10
     Max number of k-points (npk) =  40000
     Max angular momentum in pseudopotentials (lmaxx) =  4
     file Cu.paw.z_11.ld1.psl.v1.0.0-low.upf: wavefunction(s)  4S 3D renormalized
     file O.pbe-n-kjpaw_psl.0.1.UPF: wavefunction(s)  2P renormalized
     Message from routine setup:
     the system is metallic, specify occupations
     Message from routine setup:
     using ibrav=0 with symmetry is DISCOURAGED, use correct ibrav instead

     K-points division:     npool     =       2
     R & G space division:  proc/nbgrp/npool/nimage =       4
     Subspace diagonalization in iterative solution of the eigenvalue problem:
     a serial algorithm will be used

     Using Slab Decomposition

     bravais-lattice index     =            0
     lattice parameter (alat)  =      10.2268  a.u.
     unit-cell volume          =    1296.4226 (a.u.)^3
     number of atoms/cell      =           15
     number of atomic types    =            4
     number of electrons       =       113.00 (up:  57.00, down:  56.00)
     number of Kohn-Sham states=           64
     kinetic-energy cutoff     =      30.0000  Ry
     charge density cutoff     =     240.0000  Ry
     scf convergence threshold =      1.0E-06
     mixing beta               =       0.7000
     number of iterations used =            8  plain     mixing
     Exchange-correlation= SLA  PW   PBX  PBC
                           (   1   4   3   4   0   0   0)

     celldm(1)=  10.226789  celldm(2)=   0.000000  celldm(3)=   0.000000
     celldm(4)=   0.000000  celldm(5)=   0.000000  celldm(6)=   0.000000

     crystal axes: (cart. coord. in units of alat)
               a(1) = (   1.000000   0.000000   0.000000 )
               a(2) = (   0.374920   0.927057   0.000000 )
               a(3) = (   0.666757   0.449569   1.307441 )

     reciprocal axes: (cart. coord. in units 2 pi/alat)
               b(1) = (  1.000000 -0.404419 -0.370909 )
               b(2) = (  0.000000  1.078682 -0.370909 )
               b(3) = (  0.000000  0.000000  0.764853 )

     PseudoPot. # 1 for Cu read from file:
     /lustre03/project/6004852/pragov/crystal_structure_design/crystal-design/crystal_design/utils/SSSP/Cu.paw.z_11.ld1.psl.v1.0.0-low.upf
     MD5 check sum: 619f40885d92a09a85a8b37550532d0c
     Pseudo is Projector augmented-wave + core cor, Zval = 11.0
     Generated using &quot;atomic&quot; code by A. Dal Corso  v.6.3MaX
     Shape of augmentation charge: PSQ
     Using radial grid of 1199 points,  6 beta functions with:
                l(1) =   0
                l(2) =   0
                l(3) =   1
                l(4) =   1
                l(5) =   2
                l(6) =   2
     Q(r) pseudized with 0 coefficients

     PseudoPot. # 2 for Ag read from file:
     /lustre03/project/6004852/pragov/crystal_structure_design/crystal-design/crystal_design/utils/SSSP/Ag_ONCV_PBE-1.0.oncvpsp.upf
     MD5 check sum: 94f47bd0669c641108e45594df92fabc
     Pseudo is Norm-conserving, Zval = 19.0
     Generated using ONCVPSP code by D. R. Hamann
     Using radial grid of 1398 points,  6 beta functions with:
                l(1) =   0
                l(2) =   0
                l(3) =   1
                l(4) =   1
                l(5) =   2
                l(6) =   2

     PseudoPot. # 3 for S  read from file:
     /lustre03/project/6004852/pragov/crystal_structure_design/crystal-design/crystal_design/utils/SSSP/s_pbe_v1.4.uspp.F.UPF
     MD5 check sum: 88d86576ff6df21479756cfb9bdac1df
     Pseudo is Ultrasoft + core correction, Zval =  6.0
     Generated by new atomic code, or converted to UPF format
     Using radial grid of  907 points,  6 beta functions with:
                l(1) =   0
                l(2) =   0
                l(3) =   1
                l(4) =   1
                l(5) =   2
                l(6) =   2
     Q(r) pseudized with  8 coefficients,  rinner =    1.300   1.300   1.300
                                                       1.300   1.300

     PseudoPot. # 4 for O  read from file:
     /lustre03/project/6004852/pragov/crystal_structure_design/crystal-design/crystal_design/utils/SSSP/O.pbe-n-kjpaw_psl.0.1.UPF
     MD5 check sum: 0234752ac141de4415c5fc33072bef88
     Pseudo is Projector augmented-wave + core cor, Zval =  6.0
     Generated using "atomic" code by A. Dal Corso  v.5.0.99 svn rev. 10869
     Shape of augmentation charge: BESSEL
     Using radial grid of 1095 points,  4 beta functions with:
                l(1) =   0
                l(2) =   0
                l(3) =   1
                l(4) =   1
     Q(r) pseudized with 0 coefficients

     atomic species   valence    mass     pseudopotential
        Cu            11.00    63.54600     Cu( 1.00)
        Ag            19.00   107.86820     Ag( 1.00)
        S              6.00    32.06000     S ( 1.00)
        O              6.00    15.99900     O ( 1.00)

     Starting magnetic structure
     atomic species   magnetization
        Cu           0.000
        Ag           0.000
        S            0.000
        O            0.000

      2 Sym. Ops., with inversion, found

                                    s                        frac. trans.

      isym =  1     identity

 cryst.   s( 1) = (     1          0          0      )
                  (     0          1          0      )
                  (     0          0          1      )

 cart.    s( 1) = (  1.0000000  0.0000000  0.0000000 )
                  (  0.0000000  1.0000000  0.0000000 )
                  (  0.0000000  0.0000000  1.0000000 )

      isym =  2     inversion

 cryst.   s( 2) = (    -1          0          0      )
                  (     0         -1          0      )
                  (     0          0         -1      )

 cart.    s( 2) = ( -1.0000000  0.0000000  0.0000000 )
                  (  0.0000000 -1.0000000  0.0000000 )
                  (  0.0000000  0.0000000 -1.0000000 )

   Cartesian axes

     site n.     atom                  positions (alat units)
         1           Cu  tau(   1) = (   0.1874599   0.4635286   0.0000000  )
         2           Cu  tau(   2) = (   0.5000000   0.0000000   0.0000000  )
         3           Ag  tau(   3) = (   1.0208382   0.6883132   0.6537206  )
         4           S   tau(   4) = (   0.5825198   0.3927714   0.9250199  )
         5           S   tau(   5) = (   1.4591565   0.9838549   0.3824213  )
         6           O   tau(   6) = (   0.7804047   0.5261978   1.0570270  )
         7           O   tau(   7) = (   1.2612716   0.8504285   0.2504142  )
         8           O   tau(   8) = (   0.6064052   0.4088765   0.6575723  )
         9           O   tau(   9) = (   1.4352711   0.9677499   0.6498689  )
        10           O   tau(  10) = (   1.3299307   0.5010310   0.9942110  )
        11           O   tau(  11) = (   0.9631018   1.0450754   0.9942110  )
        12           O   tau(  12) = (   0.7117457   0.8755954   0.3132302  )
        13           O   tau(  13) = (   1.0785746   0.3315509   0.3132302  )
        14           O   tau(  14) = (   1.5551468   1.0485776   1.2527209  )
        15           O   tau(  15) = (   0.4865295   0.3280487   0.0547203  )

   Crystallographic axes

     site n.     atom                  positions (cryst. coord.)
         1           Cu  tau(   1) = (  0.0000000  0.5000000  0.0000000  )
         2           Cu  tau(   2) = (  0.5000000  0.0000000  0.0000000  )
         3           Ag  tau(   3) = (  0.5000000  0.5000000  0.5000000  )
         4           S   tau(   4) = (  0.0805770  0.0805770  0.7075040  )
         5           S   tau(   5) = (  0.9194230  0.9194230  0.2924960  )
         6           O   tau(   6) = (  0.1755390  0.1755390  0.8084700  )
         7           O   tau(   7) = (  0.8244610  0.8244610  0.1915300  )
         8           O   tau(   8) = (  0.1971480  0.1971480  0.5029460  )
         9           O   tau(   9) = (  0.8028520  0.8028520  0.4970540  )
        10           O   tau(  10) = (  0.7585420  0.1716910  0.7604250  )
        11           O   tau(  11) = (  0.1716910  0.7585420  0.7604250  )
        12           O   tau(  12) = (  0.2414580  0.8283090  0.2395750  )
        13           O   tau(  13) = (  0.8283090  0.2414580  0.2395750  )
        14           O   tau(  14) = (  0.6664360  0.6664360  0.9581470  )
        15           O   tau(  15) = (  0.3335640  0.3335640  0.0418530  )

     number of k points=    14
                       cart. coord. in units 2pi/alat
        k(    1) = (   0.0000000   0.0000000   0.0000000), wk =   0.0370370
        k(    2) = (   0.0000000   0.0000000   0.2549509), wk =   0.0740741
        k(    3) = (   0.0000000   0.3595607  -0.1236364), wk =   0.0740741
        k(    4) = (   0.0000000   0.3595607   0.1313145), wk =   0.0740741
        k(    5) = (   0.0000000   0.3595607  -0.3785873), wk =   0.0740741
        k(    6) = (   0.3333333  -0.1348064  -0.1236364), wk =   0.0740741
        k(    7) = (   0.3333333  -0.1348064   0.1313145), wk =   0.0740741
        k(    8) = (   0.3333333  -0.1348064  -0.3785873), wk =   0.0740741
        k(    9) = (   0.3333333   0.2247543  -0.2472729), wk =   0.0740741
        k(   10) = (   0.3333333   0.2247543   0.0076780), wk =   0.0740741
        k(   11) = (   0.3333333   0.2247543  -0.5022238), wk =   0.0740741
        k(   12) = (   0.3333333  -0.4943671   0.0000000), wk =   0.0740741
        k(   13) = (   0.3333333  -0.4943671   0.2549509), wk =   0.0740741
        k(   14) = (   0.3333333  -0.4943671  -0.2549509), wk =   0.0740741

                       cryst. coord.
        k(    1) = (   0.0000000   0.0000000   0.0000000), wk =   0.0370370
        k(    2) = (   0.0000000   0.0000000   0.3333333), wk =   0.0740741
        k(    3) = (   0.0000000   0.3333333   0.0000000), wk =   0.0740741
        k(    4) = (   0.0000000   0.3333333   0.3333333), wk =   0.0740741
        k(    5) = (   0.0000000   0.3333333  -0.3333333), wk =   0.0740741
        k(    6) = (   0.3333333  -0.0000000   0.0000000), wk =   0.0740741
        k(    7) = (   0.3333333  -0.0000000   0.3333333), wk =   0.0740741
        k(    8) = (   0.3333333  -0.0000000  -0.3333333), wk =   0.0740741
        k(    9) = (   0.3333333   0.3333333  -0.0000000), wk =   0.0740741
        k(   10) = (   0.3333333   0.3333333   0.3333333), wk =   0.0740741
        k(   11) = (   0.3333333   0.3333333  -0.3333333), wk =   0.0740741
        k(   12) = (   0.3333333  -0.3333333  -0.0000000), wk =   0.0740741
        k(   13) = (   0.3333333  -0.3333333   0.3333333), wk =   0.0740741
        k(   14) = (   0.3333333  -0.3333333  -0.3333333), wk =   0.0740741

     Check: negative core charge=   -0.000013
     Generating pointlists ...
     new r_m :   0.1373 (alat units)  1.4042 (a.u.) for type    1
     new r_m :   0.2048 (alat units)  2.0947 (a.u.) for type    2
     new r_m :   0.1110 (alat units)  1.1348 (a.u.) for type    3
     new r_m :   0.1110 (alat units)  1.1348 (a.u.) for type    4

     Initial potential from superposition of free atoms

     starting charge     112.9992, renormalised to     113.0000
     Starting wfcs are   76 randomized atomic wfcs
     Checking if some PAW data can be deallocated...

     Self-consistent Calculation

     iteration #  1     ecut=    30.00 Ry     beta= 0.70
     Davidson diagonalization with overlap

     ethr =  1.00E-02,  avg # of iterations =  2.9

     total energy              =   -1172.60871102 Ry
     estimated scf accuracy    <       6.54505642 Ry

     total magnetization       =     1.00 Bohr mag/cell
     absolute magnetization    =     1.01 Bohr mag/cell

[...]

     c_bands:  1 eigenvalues not converged
     ethr =  8.66E-06,  avg # of iterations =  9.1

[...]

     c_bands:  1 eigenvalues not converged
     ethr =  1.37E-06,  avg # of iterations = 10.8

[...]

     total energy              =   -1176.83908307 Ry
     estimated scf accuracy    <       0.00000239 Ry

[...]

     iteration # 14     ecut=    30.00 Ry     beta= 0.70
     Davidson diagonalization with overlap

     ethr =  2.12E-09,  avg # of iterations =  2.6

     Magnetic moment per site  (integrated on atomic sphere of radius R)
     atom   1 (R=0.137)  charge=  8.1118  magn=  0.0873
     atom   2 (R=0.137)  charge=  8.1118  magn=  0.0874
     atom   3 (R=0.205)  charge= 17.1093  magn= -0.0038
     atom   4 (R=0.111)  charge=  1.2007  magn=  0.0002
     atom   5 (R=0.111)  charge=  1.2007  magn=  0.0002
     atom   6 (R=0.111)  charge=  3.9867  magn= -0.0007
     atom   7 (R=0.111)  charge=  3.9867  magn= -0.0007
     atom   8 (R=0.111)  charge=  3.9731  magn= -0.0017
     atom   9 (R=0.111)  charge=  3.9731  magn= -0.0017
     atom  10 (R=0.111)  charge=  3.9512  magn=  0.0026
     atom  11 (R=0.111)  charge=  3.9510  magn=  0.0027
     atom  12 (R=0.111)  charge=  3.9512  magn=  0.0026
     atom  13 (R=0.111)  charge=  3.9510  magn=  0.0027
     atom  14 (R=0.111)  charge=  3.8277  magn=  0.2840
     atom  15 (R=0.111)  charge=  3.8277  magn=  0.2840

     End of self-consistent calculation

 ------ SPIN UP ------------

          k = 0.0000 0.0000 0.0000 (  3569 PWs)   bands (ev):

   -85.6681 -48.7264 -48.7196 -48.7060 -19.0043 -18.8974 -15.0201 -14.9561
   -14.9451 -14.8862 -14.8722 -14.8012 -13.5726 -12.9697  -5.4305  -5.0694
    -3.4138  -2.6273  -2.2774  -1.9689  -1.7472  -1.7227  -1.5909  -0.8149
    -0.2582  -0.1496   0.2016   0.3598   0.5083   0.6282   1.0370   1.2533
     1.2881   1.3368   1.4930   1.7060   1.8006   1.9595   2.1122   2.1583
     2.2735   2.4963   2.5033   2.8236   2.8728   3.0147   3.1486   3.2432
     3.2449   3.3618   3.6862   3.7144   3.8023   3.8242   3.8256   3.9933
     4.1115   4.7986   5.5569   7.9621  10.7185  11.1181  11.9894  12.1707

     occupation numbers
     1.0000   1.0000   1.0000   1.0000   1.0000   1.0000   1.0000   1.0000
     1.0000   1.0000   1.0000   1.0000   1.0000   1.0000   1.0000   1.0000
     1.0000   1.0000   1.0000   1.0000   1.0000   1.0000   1.0000   1.0000
     1.0000   1.0000   1.0000   1.0000   1.0000   1.0000   1.0000   1.0000
     1.0000   1.0000   1.0000   1.0000   1.0000   1.0000   1.0000   1.0000
     1.0000   1.0000   1.0000   1.0000   1.0000   1.0000   1.0000   1.0000
     1.0000   1.0000   1.0000   1.0000   1.0000   1.0000   1.0000   1.0000
     1.0000   0.0000   0.0000   0.0000   0.0000   0.0000   0.0000   0.0000

[...]

 ------ SPIN DOWN ----------

[...]

          k = 0.3333-0.4944-0.2550 (  3612 PWs)   bands (ev):

   -85.6702 -48.7305 -48.7228 -48.7122 -18.9438 -18.9174 -15.0551 -15.0353
   -14.9214 -14.9122 -14.8540 -14.8151 -12.7030 -12.6483  -4.9447  -4.8945
    -3.0846  -3.0160  -2.2442  -2.1981  -1.6714  -1.5841  -1.1548  -0.3963
     0.0203   0.0492   0.1686   0.3383   0.5074   0.6670   0.8183   0.9785
     1.1006   1.1729   1.4384   1.5312   1.6118   1.7223   2.0805   2.2175
     2.2866   2.6114   2.8031   2.9057   2.9790   3.0299   3.1352   3.2785
     3.3308   3.3909   3.5517   3.7470   3.9129   4.0240   4.1615   4.2425
     4.7199   5.2840   5.3105   9.4204  11.6600  11.9585  12.3178  12.6398

     occupation numbers
     1.0000   1.0000   1.0000   1.0000   1.0000   1.0000   1.0000   1.0000
     1.0000   1.0000   1.0000   1.0000   1.0000   1.0000   1.0000   1.0000
     1.0000   1.0000   1.0000   1.0000   1.0000   1.0000   1.0000   1.0000
     1.0000   1.0000   1.0000   1.0000   1.0000   1.0000   1.0000   1.0000
     1.0000   1.0000   1.0000   1.0000   1.0000   1.0000   1.0000   1.0000
     1.0000   1.0000   1.0000   1.0000   1.0000   1.0000   1.0000   1.0000
     1.0000   1.0000   1.0000   1.0000   1.0000   1.0000   1.0000   1.0000
     0.0000   0.0000   0.0000   0.0000   0.0000   0.0000   0.0000   0.0000

     highest occupied, lowest unoccupied level (ev):     4.3515    4.7003

!    total energy              =   -1176.83908348 Ry
     estimated scf accuracy    <       0.00000076 Ry

     The total energy is the sum of the following terms:
     one-electron contribution =    -457.92367672 Ry
     hartree contribution      =     300.32839790 Ry
     xc contribution           =    -207.34251871 Ry
     ewald contribution        =    -536.85464257 Ry
     one-center paw contrib.   =    -275.04664339 Ry
      -> PAW hartree energy AE =     194.45647154 Ry
      -> PAW hartree energy PS =    -193.09010590 Ry
      -> PAW xc energy AE      =    -269.58658680 Ry
      -> PAW xc energy PS      =      88.49057497 Ry
      -> total E_H with PAW    =     301.69476354 Ry
      -> total E_XC with PAW   =    -388.43853054 Ry

     total magnetization       =     1.00 Bohr mag/cell
     absolute magnetization    =     1.09 Bohr mag/cell

     convergence has been achieved in  14 iterations

     Writing all to output data dir bands_nm_v2/myprefix.save/

     General routines

     Parallel routines

     PAW routines

   This run was terminated on:   0:21:29  17Jul2023

   JOB DONE.