     Program PWSCF v.7.1 starts on 17Jul2023 at  1:34: 1

     Reading input from espresso_1276.pwi
Warning: card &CELL ignored
Warning: card / ignored

     Current dimensions of program PWSCF are:
     Max number of different atomic species (ntypx) = 10
     Max number of k-points (npk) =  40000
     Max angular momentum in pseudopotentials (lmaxx) =  4
     file Ba.pbe-spn-kjpaw_psl.1.0.0.UPF: wavefunction(s)  5S 6S renormalized
     file Pb.pbe-dn-kjpaw_psl.0.2.2.UPF: wavefunction(s)  6S renormalized
     Message from routine setup:
     using ibrav=0 with symmetry is DISCOURAGED, use correct ibrav instead

     K-points division:     npool     =       2
     R & G space division:  proc/nbgrp/npool/nimage =       4
     Subspace diagonalization in iterative solution of the eigenvalue problem:
     one sub-group per band group will be used

     Using Slab Decomposition

     bravais-lattice index     =            0
     lattice parameter (alat)  =      10.9660  a.u.
     unit-cell volume          =    3732.1748 (a.u.)^3
     number of atoms/cell      =           12
     number of atomic types    =            2
     number of electrons       =       136.00
     number of Kohn-Sham states=          256
     kinetic-energy cutoff     =      30.0000  Ry
     charge density cutoff     =     240.0000  Ry
     scf convergence threshold =      1.0E-06
     mixing beta               =       0.7000
     number of iterations used =            8  plain     mixing
     Exchange-correlation= SLA  PW   PBX  PBC
                           (   1   4   3   4   0   0   0)

     celldm(1)=  10.966033  celldm(2)=   0.000000  celldm(3)=   0.000000
     celldm(4)=   0.000000  celldm(5)=   0.000000  celldm(6)=   0.000000

     crystal axes: (cart. coord. in units of alat)
               a(1) = (   1.000000   0.000000   0.000000 )
               a(2) = (   0.000000   1.516888   0.000000 )
               a(3) = (   0.000000   0.000000   1.865777 )

     reciprocal axes: (cart. coord. in units 2 pi/alat)
               b(1) = (  1.000000  0.000000  0.000000 )
               b(2) = (  0.000000  0.659244  0.000000 )
               b(3) = (  0.000000  0.000000  0.535970 )

     PseudoPot. # 1 for Ba read from file:
     /lustre07/scratch/pragov/crystal_structure_design/utils/SSSP/Ba.pbe-spn-kjpaw_psl.1.0.0.UPF
     MD5 check sum: c432291d3e53af55f19d5e8866385beb
     Pseudo is Projector augmented-wave + core cor, Zval = 10.0
     Generated using "atomic" code by A. Dal Corso  v.5.1
     Shape of augmentation charge: PSQ
     Using radial grid of 1251 points,  7 beta functions with:
                l(1) =   0
                l(2) =   0
                l(3) =   0
                l(4) =   1
                l(5) =   1
                l(6) =   2
                l(7) =   2
     Q(r) pseudized with 0 coefficients

     PseudoPot. # 2 for Pb read from file:
     /lustre07/scratch/pragov/crystal_structure_design/utils/SSSP/Pb.pbe-dn-kjpaw_psl.0.2.2.UPF
     MD5 check sum: 9d431e6316058b74ade52399a6cf67da
     Pseudo is Projector augmented-wave + core cor, Zval = 14.0
     Generated using "atomic" code by A. Dal Corso  v.5.0.99 svn rev. 10869
     Shape of augmentation charge: PSQ
     Using radial grid of 1281 points,  6 beta functions with:
                l(1) =   0
                l(2) =   0
                l(3) =   1
                l(4) =   1
                l(5) =   2
                l(6) =   2
     Q(r) pseudized with 0 coefficients

     atomic species   valence    mass     pseudopotential
        Ba            10.00   137.32700     Ba( 1.00)
        Pb            14.00   207.20000     Pb( 1.00)

      8 Sym. Ops., with inversion, found ( 6 have fractional translation)

                                    s                        frac. trans.

      isym =  1     identity

 cryst.   s( 1) = (     1          0          0      )
                  (     0          1          0      )
                  (     0          0          1      )

 cart.    s( 1) = (  1.0000000  0.0000000  0.0000000 )
                  (  0.0000000  1.0000000  0.0000000 )
                  (  0.0000000  0.0000000  1.0000000 )

      isym =  2     180 deg rotation - cart. axis [0,0,1]

 cryst.   s( 2) = (    -1          0          0      )    f =(  0.0000000 )
                  (     0         -1          0      )       (  0.5000000 )
                  (     0          0          1      )       ( -0.5000000 )

 cart.    s( 2) = ( -1.0000000  0.0000000  0.0000000 )    f =(  0.0000000 )
                  (  0.0000000 -1.0000000  0.0000000 )       (  0.7584441 )
                  (  0.0000000  0.0000000  1.0000000 )       ( -0.9328885 )

[...]

      isym =  4     180 deg rotation - cart. axis [1,0,0]

[...]

      isym =  5     inversion

 cryst.   s( 5) = (    -1          0          0      )
                  (     0         -1          0      )
                  (     0          0         -1      )

 cart.    s( 5) = ( -1.0000000  0.0000000  0.0000000 )
                  (  0.0000000 -1.0000000  0.0000000 )
                  (  0.0000000  0.0000000 -1.0000000 )

      isym =  6     inv. 180 deg rotation - cart. axis [0,0,1]

[...]

      isym =  8     inv. 180 deg rotation - cart. axis [1,0,0]

 cryst.   s( 8) = (    -1          0          0      )    f =(  0.5000000 )
                  (     0          1          0      )       (  0.0000000 )
                  (     0          0          1      )       (  0.0000000 )

 cart.    s( 8) = ( -1.0000000  0.0000000  0.0000000 )    f =(  0.5000000 )
                  (  0.0000000  1.0000000  0.0000000 )       (  0.0000000 )
                  (  0.0000000  0.0000000  1.0000000 )       (  0.0000000 )

   Cartesian axes

     site n.     atom                  positions (alat units)
         1           Ba  tau(   1) = (   0.2500000   0.0284432   0.5915614  )
         2           Ba  tau(   2) = (   0.7500000   1.4884450   1.2742156  )
         3           Ba  tau(   3) = (   0.2500000   0.7868872   0.3413271  )
         4           Ba  tau(   4) = (   0.7500000   0.7300009   1.5244498  )
         5           Ba  tau(   5) = (   0.7500000   0.5157207   0.7852981  )
         6           Ba  tau(   6) = (   0.2500000   1.0011674   1.0804789  )
         7           Ba  tau(   7) = (   0.7500000   1.2741648   0.1475904  )
         8           Ba  tau(   8) = (   0.2500000   0.2427233   1.7181865  )
         9           Pb  tau(   9) = (   0.2500000   0.3749383   1.1222854  )
        10           Pb  tau(  10) = (   0.7500000   1.1419498   0.7434916  )
        11           Pb  tau(  11) = (   0.2500000   1.1333824   1.6763801  )
        12           Pb  tau(  12) = (   0.7500000   0.3835057   0.1893969  )

   Crystallographic axes

     site n.     atom                  positions (cryst. coord.)
         1           Ba  tau(   1) = (  0.2500000  0.0187510  0.3170590  )
         2           Ba  tau(   2) = (  0.7500000  0.9812490  0.6829410  )
         3           Ba  tau(   3) = (  0.2500000  0.5187510  0.1829410  )
         4           Ba  tau(   4) = (  0.7500000  0.4812490  0.8170590  )
         5           Ba  tau(   5) = (  0.7500000  0.3399860  0.4208960  )
         6           Ba  tau(   6) = (  0.2500000  0.6600140  0.5791040  )
         7           Ba  tau(   7) = (  0.7500000  0.8399860  0.0791040  )
         8           Ba  tau(   8) = (  0.2500000  0.1600140  0.9208960  )
         9           Pb  tau(   9) = (  0.2500000  0.2471760  0.6015110  )
        10           Pb  tau(  10) = (  0.7500000  0.7528240  0.3984890  )
        11           Pb  tau(  11) = (  0.2500000  0.7471760  0.8984890  )
        12           Pb  tau(  12) = (  0.7500000  0.2528240  0.1015110  )

     number of k points=     8
                       cart. coord. in units 2pi/alat
        k(    1) = (   0.0000000   0.0000000   0.0000000), wk =   0.0740741
        k(    2) = (   0.0000000   0.0000000   0.1786566), wk =   0.1481481
        k(    3) = (   0.0000000   0.2197481   0.0000000), wk =   0.1481481
        k(    4) = (   0.0000000   0.2197481   0.1786566), wk =   0.2962963
        k(    5) = (   0.3333333   0.0000000   0.0000000), wk =   0.1481481
        k(    6) = (   0.3333333   0.0000000   0.1786566), wk =   0.2962963
        k(    7) = (   0.3333333   0.2197481   0.0000000), wk =   0.2962963
        k(    8) = (   0.3333333   0.2197481   0.1786566), wk =   0.5925926

                       cryst. coord.
        k(    1) = (   0.0000000   0.0000000   0.0000000), wk =   0.0740741
        k(    2) = (   0.0000000   0.0000000   0.3333333), wk =   0.1481481
        k(    3) = (   0.0000000   0.3333333   0.0000000), wk =   0.1481481
        k(    4) = (   0.0000000   0.3333333   0.3333333), wk =   0.2962963
        k(    5) = (   0.3333333   0.0000000   0.0000000), wk =   0.1481481
        k(    6) = (   0.3333333   0.0000000   0.3333333), wk =   0.2962963
        k(    7) = (   0.3333333   0.3333333   0.0000000), wk =   0.2962963
        k(    8) = (   0.3333333   0.3333333   0.3333333), wk =   0.5925926

     Initial potential from superposition of free atoms

     starting charge     135.8546, renormalised to     136.0000
     Starting wfcs are   76 randomized atomic wfcs +  180 random wfcs
     Checking if some PAW data can be deallocated...

     Self-consistent Calculation

     iteration #  1     ecut=    30.00 Ry     beta= 0.70
     Davidson diagonalization with overlap

     ethr =  1.00E-02,  avg # of iterations =  8.9

     Threshold (ethr) on eigenvalues was too large:
     Diagonalizing with lowered threshold

     Davidson diagonalization with overlap

[...]

     negative rho (up, down):  7.832E-02 0.000E+00

     total energy              =   -6972.03968948 Ry
     estimated scf accuracy    <       0.49777269 Ry

[...]

     negative rho (up, down):  3.420E-03 0.000E+00

[...]

     total energy              =   -6972.12522059 Ry
     estimated scf accuracy    <       0.00000199 Ry

     iteration # 21     ecut=    30.00 Ry     beta= 0.70
     Davidson diagonalization with overlap

     ethr =  8.87E-10,  avg # of iterations =  2.0

     End of self-consistent calculation

          k = 0.0000 0.0000 0.0000 ( 10337 PWs)   bands (ev):

   -20.9843 -20.9771 -20.9713 -20.9675 -20.6608 -20.6566 -20.6438 -20.6427
    -8.1118  -8.1104  -8.1087  -8.1073  -8.1017  -8.1013  -8.1007  -8.0980
    -8.0947  -8.0874  -8.0853  -8.0849  -8.0845  -8.0801  -8.0762  -8.0717
    -8.0715  -8.0665  -8.0663  -8.0644  -6.3205  -6.3155  -6.2997  -6.2822
    -6.2544  -6.2325  -6.2122  -6.1866  -6.1369  -6.1240  -6.1121  -6.0830
    -5.9728  -5.9193  -5.9177  -5.8612  -5.8480  -5.8307  -5.8101  -5.8034
    -5.8021  -5.7820  -5.7663  -5.7536  -0.0835   0.2605   0.2754   0.2958
     5.8932   6.0577   6.5707   6.5919   6.6833   6.7012   6.9510   6.9632
     6.9941   7.3248   7.6075   7.7124   7.7684   7.7955   8.4097   8.4397
     8.5133   8.7206   8.8094   9.0213   9.0375   9.2967   9.3984   9.5580
     9.6016   9.7021   9.8638   9.8785   9.9125  10.1757  10.1757  10.3555
    10.3746  10.4692  10.6476  10.6829  11.0958  11.2657  11.3535  11.4196
    11.6860  11.8023  12.0226  12.1013  12.1349  12.2544  12.2784  12.7758
    12.7880  12.9826  13.2055  13.3579  13.3963  13.4534  13.4685  13.8455
    13.9341  14.0083  14.4330  14.5240  14.8051  14.8873  14.8885  14.9075
    15.0190  15.1942  15.3934  15.5918  15.9127  16.0028  16.1852  16.2162
    16.2228  16.3968  16.5015  16.7016  16.8398  16.9254  16.9536  16.9828
    17.3814  17.3858  17.3996  17.4317  17.6595  17.6978  17.8380  17.8761
    18.2886  18.4611  18.4690  18.5577  18.9158  18.9203  19.0168  19.0991
    19.3683  19.3761  19.4118  19.5486  19.6011  19.7814  19.8423  19.8897
    19.9345  19.9541  20.2287  20.5577  20.7267  20.7313  20.7861  20.9585
    20.9930  21.0902  21.1765  21.4921  21.5046  21.5485  21.6352  21.6395
    21.9634  21.9919  22.2497  22.3724  22.4832  22.6121  22.6139  22.8556
    22.8704  22.8743  22.8939  22.9826  23.0230  23.1168  23.2138  23.2324
    23.2693  23.4962  23.5163  23.6956  23.7841  23.7969  23.8865  23.9765
    24.0223  24.1386  24.1432  24.3398  24.4098  24.4163  24.4252  24.4867
    24.6093  25.1342  25.2826  25.3060  25.4490  25.4884  25.6075  25.8944
    25.8970  25.9640  26.0127  26.1021  26.1403  26.2749  26.2946  26.4924
    26.7272  26.7451  26.8576  26.9791  27.0730  27.1726  27.1907  27.2456
    27.2846  27.4594  27.4751  27.5013  27.5955  27.8324  27.9473  27.9732
    28.0052  28.2126  28.2559  28.3338  28.3490  28.5603  28.9256  28.9346
    29.1058  29.1339  29.3149  29.4818  29.5324  29.5712  29.5899  29.6924

     occupation numbers
     1.0000   1.0000   1.0000   1.0000   1.0000   1.0000   1.0000   1.0000
     1.0000   1.0000   1.0000   1.0000   1.0000   1.0000   1.0000   1.0000
     1.0000   1.0000   1.0000   1.0000   1.0000   1.0000   1.0000   1.0000
     1.0000   1.0000   1.0000   1.0000   1.0000   1.0000   1.0000   1.0000
     1.0000   1.0000   1.0000   1.0000   1.0000   1.0000   1.0000   1.0000
     1.0000   1.0000   1.0000   1.0000   1.0000   1.0000   1.0000   1.0000
     1.0000   1.0000   1.0000   1.0000   1.0000   1.0000   1.0000   1.0000
     1.0000   1.0000   1.0000   1.0000   1.0000   1.0000   1.0000   1.0000
     1.0000   1.0000   1.0000   1.0000   0.0000   0.0000   0.0000   0.0000
     0.0000   0.0000   0.0000   0.0000   0.0000   0.0000   0.0000   0.0000
     0.0000   0.0000   0.0000   0.0000   0.0000   0.0000   0.0000   0.0000
     0.0000   0.0000   0.0000   0.0000   0.0000   0.0000   0.0000   0.0000
     0.0000   0.0000   0.0000   0.0000   0.0000   0.0000   0.0000   0.0000
     0.0000   0.0000   0.0000   0.0000   0.0000   0.0000   0.0000   0.0000
     0.0000   0.0000   0.0000   0.0000   0.0000   0.0000   0.0000   0.0000
     0.0000   0.0000   0.0000   0.0000   0.0000   0.0000   0.0000   0.0000
     0.0000   0.0000   0.0000   0.0000   0.0000   0.0000   0.0000   0.0000
     0.0000   0.0000   0.0000   0.0000   0.0000   0.0000   0.0000   0.0000
     0.0000   0.0000   0.0000   0.0000   0.0000   0.0000   0.0000   0.0000
     0.0000   0.0000   0.0000   0.0000   0.0000   0.0000   0.0000   0.0000
     0.0000   0.0000   0.0000   0.0000   0.0000   0.0000   0.0000   0.0000
     0.0000   0.0000   0.0000   0.0000   0.0000   0.0000   0.0000   0.0000
     0.0000   0.0000   0.0000   0.0000   0.0000   0.0000   0.0000   0.0000
     0.0000   0.0000   0.0000   0.0000   0.0000   0.0000   0.0000   0.0000
     0.0000   0.0000   0.0000   0.0000   0.0000   0.0000   0.0000   0.0000
     0.0000   0.0000   0.0000   0.0000   0.0000   0.0000   0.0000   0.0000
     0.0000   0.0000   0.0000   0.0000   0.0000   0.0000   0.0000   0.0000
     0.0000   0.0000   0.0000   0.0000   0.0000   0.0000   0.0000   0.0000
     0.0000   0.0000   0.0000   0.0000   0.0000   0.0000   0.0000   0.0000
     0.0000   0.0000   0.0000   0.0000   0.0000   0.0000   0.0000   0.0000
     0.0000   0.0000   0.0000   0.0000   0.0000   0.0000   0.0000   0.0000
     0.0000   0.0000   0.0000   0.0000   0.0000   0.0000   0.0000   0.0000

[...]

          k = 0.3333 0.2197 0.1787 ( 10346 PWs)   bands (ev):

   -20.9771 -20.9756 -20.9718 -20.9708 -20.6561 -20.6559 -20.6474 -20.6473
    -8.1086  -8.1075  -8.1047  -8.1047  -8.0997  -8.0985  -8.0950  -8.0941
    -8.0909  -8.0892  -8.0874  -8.0858  -8.0787  -8.0778  -8.0740  -8.0732
    -8.0686  -8.0683  -8.0666  -8.0660  -6.3394  -6.3337  -6.3222  -6.2787
    -6.2704  -6.2330  -6.2206  -6.1984  -6.1963  -6.1707  -6.1380  -6.1207
    -5.9492  -5.9270  -5.9036  -5.8965  -5.8264  -5.8195  -5.8054  -5.7942
    -5.7727  -5.7670  -5.7581  -5.7496   0.2100   0.2540   0.2719   0.2943
     5.9047   6.0527   6.1003   6.3071   6.7947   6.8877   7.0479   7.0668
     7.1537   7.2416   7.2937   7.3098   8.4345   8.4587   8.4680   8.5573
     8.6734   8.7107   8.9629   8.9928   9.1341   9.2865   9.3418   9.3926
     9.8041   9.8581   9.9652  10.0960  10.1458  10.1923  10.3577  10.5579
    10.6444  10.8203  10.8401  11.0078  11.1886  11.3019  11.3801  11.4276
    11.6141  11.7106  11.8379  11.8972  12.0430  12.2515  12.3420  12.4734
    12.6451  12.7489  12.8294  13.0554  13.1570  13.2976  13.4247  13.5154
    13.7156  13.9991  14.0853  14.1426  14.3387  14.5033  14.5812  14.6347
    14.8248  14.9576  15.0738  15.1388  15.4968  15.6043  15.7200  15.9444
    16.0470  16.2185  16.3873  16.4349  16.5352  16.6960  16.8496  16.8783
    16.9567  17.3006  17.4360  17.5232  17.6823  17.7009  17.8473  18.0060
    18.1886  18.2948  18.4016  18.6750  18.7779  18.8746  19.0832  19.1470
    19.3646  19.4720  19.5199  19.6610  19.7422  19.8948  20.0449  20.1603
    20.1966  20.3870  20.5309  20.6254  20.7690  20.8267  20.9569  21.0036
    21.0602  21.1290  21.3304  21.4049  21.5505  21.6859  21.7757  21.9787
    22.0492  22.1264  22.1490  22.2486  22.4247  22.4793  22.6049  22.6227
    22.8543  22.8689  22.9261  23.0251  23.2269  23.2712  23.4954  23.5743
    23.6306  23.7122  23.7738  23.9184  23.9940  24.0657  24.1361  24.2143
    24.3287  24.4650  24.5908  24.7052  24.8434  24.9752  25.0540  25.0904
    25.2220  25.3213  25.3668  25.5091  25.6349  25.6958  25.8956  25.9445
    25.9914  26.1698  26.2482  26.3591  26.5478  26.6175  26.7160  26.8013
    26.8526  27.0192  27.0800  27.1753  27.1763  27.2843  27.3379  27.4829
    27.5885  27.6194  27.6957  27.7954  27.8150  27.9325  28.0549  28.1231
    28.2599  28.2933  28.3774  28.5669  28.8076  28.8489  28.9038  28.9733
    29.0240  29.0957  29.1179  29.2839  29.3486  29.4701  29.5539  29.6137

     occupation numbers
     1.0000   1.0000   1.0000   1.0000   1.0000   1.0000   1.0000   1.0000
     1.0000   1.0000   1.0000   1.0000   1.0000   1.0000   1.0000   1.0000
     1.0000   1.0000   1.0000   1.0000   1.0000   1.0000   1.0000   1.0000
     1.0000   1.0000   1.0000   1.0000   1.0000   1.0000   1.0000   1.0000
     1.0000   1.0000   1.0000   1.0000   1.0000   1.0000   1.0000   1.0000
     1.0000   1.0000   1.0000   1.0000   1.0000   1.0000   1.0000   1.0000
     1.0000   1.0000   1.0000   1.0000   1.0000   1.0000   1.0000   1.0000
     1.0000   1.0000   1.0000   1.0000   1.0000   1.0000   1.0000   1.0000
     1.0000   1.0000   1.0000   1.0000   0.0000   0.0000   0.0000   0.0000
     0.0000   0.0000   0.0000   0.0000   0.0000   0.0000   0.0000   0.0000
     0.0000   0.0000   0.0000   0.0000   0.0000   0.0000   0.0000   0.0000
     0.0000   0.0000   0.0000   0.0000   0.0000   0.0000   0.0000   0.0000
     0.0000   0.0000   0.0000   0.0000   0.0000   0.0000   0.0000   0.0000
     0.0000   0.0000   0.0000   0.0000   0.0000   0.0000   0.0000   0.0000
     0.0000   0.0000   0.0000   0.0000   0.0000   0.0000   0.0000   0.0000
     0.0000   0.0000   0.0000   0.0000   0.0000   0.0000   0.0000   0.0000
     0.0000   0.0000   0.0000   0.0000   0.0000   0.0000   0.0000   0.0000
     0.0000   0.0000   0.0000   0.0000   0.0000   0.0000   0.0000   0.0000
     0.0000   0.0000   0.0000   0.0000   0.0000   0.0000   0.0000   0.0000
     0.0000   0.0000   0.0000   0.0000   0.0000   0.0000   0.0000   0.0000
     0.0000   0.0000   0.0000   0.0000   0.0000   0.0000   0.0000   0.0000
     0.0000   0.0000   0.0000   0.0000   0.0000   0.0000   0.0000   0.0000
     0.0000   0.0000   0.0000   0.0000   0.0000   0.0000   0.0000   0.0000
     0.0000   0.0000   0.0000   0.0000   0.0000   0.0000   0.0000   0.0000
     0.0000   0.0000   0.0000   0.0000   0.0000   0.0000   0.0000   0.0000
     0.0000   0.0000   0.0000   0.0000   0.0000   0.0000   0.0000   0.0000
     0.0000   0.0000   0.0000   0.0000   0.0000   0.0000   0.0000   0.0000
     0.0000   0.0000   0.0000   0.0000   0.0000   0.0000   0.0000   0.0000
     0.0000   0.0000   0.0000   0.0000   0.0000   0.0000   0.0000   0.0000
     0.0000   0.0000   0.0000   0.0000   0.0000   0.0000   0.0000   0.0000
     0.0000   0.0000   0.0000   0.0000   0.0000   0.0000   0.0000   0.0000
     0.0000   0.0000   0.0000   0.0000   0.0000   0.0000   0.0000   0.0000

     highest occupied, lowest unoccupied level (ev):     7.7124    7.7684

!    total energy              =   -6972.12522064 Ry
     total all-electron energy =   -297226.984032 Ry
     estimated scf accuracy    <       0.00000008 Ry

     The total energy is the sum of the following terms:
     one-electron contribution =    -271.42999493 Ry
     hartree contribution      =     210.85071158 Ry
     xc contribution           =    -339.51157943 Ry
     ewald contribution        =    -658.50329302 Ry
     one-center paw contrib.   =   -5913.53106483 Ry
      -> PAW hartree energy AE =      57.21785468 Ry
      -> PAW hartree energy PS =     -57.00497698 Ry
      -> PAW xc energy AE      =    -788.41475361 Ry
      -> PAW xc energy PS      =      38.29689047 Ry
      -> total E_H with PAW    =     211.06358927 Ry
      -> total E_XC with PAW   =   -1089.62944257 Ry

     convergence has been achieved in  21 iterations

     Writing all to output data dir bands_nm/myprefix.save/

     General routines

     Parallel routines

     PAW routines

   This run was terminated on:   1:36:34  17Jul2023

   JOB DONE.