     Program PWSCF v.7.1 starts on 17Jul2023 at  4:37:52

     Reading input from espresso_3607.pwi
Warning: card &CELL ignored
Warning: card / ignored

     Current dimensions of program PWSCF are:
     Max number of different atomic species (ntypx) = 10
     Max number of k-points (npk) =  40000
     Max angular momentum in pseudopotentials (lmaxx) =  4
     Message from routine setup:
     using ibrav=0 with symmetry is DISCOURAGED, use correct ibrav instead

     K-points division:     npool     =       2
     R & G space division:  proc/nbgrp/npool/nimage =       4
     Subspace diagonalization in iterative solution of the eigenvalue problem:
     one sub-group per band group will be used

     Using Slab Decomposition

     bravais-lattice index     =            0
     lattice parameter (alat)  =       6.1066  a.u.
     unit-cell volume          =    1812.8904 (a.u.)^3
     number of atoms/cell      =            9
     number of atomic types    =            3
     number of electrons       =        78.00
     number of Kohn-Sham states=          256
     kinetic-energy cutoff     =      30.0000  Ry
     charge density cutoff     =     240.0000  Ry
     scf convergence threshold =      1.0E-06
     mixing beta               =       0.7000
     number of iterations used =            8  plain     mixing
     Exchange-correlation=  SLA  PW   PBX  PBC
                           (   1   4   3   4   0   0   0)

     celldm(1)=   6.106630  celldm(2)=   0.000000  celldm(3)=   0.000000
     celldm(4)=   0.000000  celldm(5)=   0.000000  celldm(6)=   0.000000

     crystal axes: (cart. coord. in units of alat)
               a(1) = (   1.000000   0.000000   0.000000 )
               a(2) = (  -0.500000   0.866025   0.000000 )
               a(3) = (   0.000000   0.000000   9.192550 )

     reciprocal axes: (cart. coord. in units 2 pi/alat)
               b(1) = (  1.000000  0.577350  0.000000 )
               b(2) = (  0.000000  1.154700  0.000000 )
               b(3) = (  0.000000  0.000000  0.108784 )

     PseudoPot. # 1 for W  read from file:
     /lustre07/scratch/pragov/crystal_structure_design/utils/SSSP/W_pbe_v1.2.uspp.F.UPF
     MD5 check sum: 9c083fa34c2a2ea0f02f1f893e16e1c8
     Pseudo is Ultrasoft + core correction, Zval = 14.0
     Generated by new atomic code, or converted to UPF format
     Using radial grid of  923 points,  8 beta functions with:
                l(1) =   0
                l(2) =   0
                l(3) =   0
                l(4) =   1
                l(5) =   1
                l(6) =   2
                l(7) =   2
                l(8) =   3
     Q(r) pseudized with  6 coefficients,  rinner =    1.350   1.350   1.350
                                                       1.350   1.350   1.350
                                                       1.350

     PseudoPot. # 2 for Se read from file:
     /lustre07/scratch/pragov/crystal_structure_design/utils/SSSP/Se_pbe_v1.uspp.F.UPF
     MD5 check sum: 1b3568f3a8ae88f9a2a0ad0698632c85
     Pseudo is Ultrasoft + core correction, Zval =  6.0
     Generated by new atomic code, or converted to UPF format
     Using radial grid of  877 points,  6 beta functions with:
                l(1) =   0
                l(2) =   0
                l(3) =   1
                l(4) =   1
                l(5) =   2
                l(6) =   2
     Q(r) pseudized with  8 coefficients,  rinner =    1.300   1.300   1.300
                                                       1.300   1.300

     PseudoPot. # 3 for S  read from file:
     /lustre07/scratch/pragov/crystal_structure_design/utils/SSSP/s_pbe_v1.4.uspp.F.UPF
     MD5 check sum: 88d86576ff6df21479756cfb9bdac1df
     Pseudo is Ultrasoft + core correction, Zval =  6.0
     Generated by new atomic code, or converted to UPF format
     Using radial grid of  907 points,  6 beta functions with:
                l(1) =   0
                l(2) =   0
                l(3) =   1
                l(4) =   1
                l(5) =   2
                l(6) =   2
     Q(r) pseudized with  8 coefficients,  rinner =    1.300   1.300   1.300
                                                       1.300   1.300

     atomic species   valence    mass     pseudopotential
        W             14.00   183.84000     W ( 1.00)
        Se             6.00    78.97100     Se( 1.00)
        S              6.00    32.06000     S ( 1.00)

      6 Sym. Ops. (no inversion) found

                                    s                        frac. trans.

      isym =  1     identity

 cryst.   s( 1) = (     1          0          0      )
                  (     0          1          0      )
                  (     0          0          1      )

 cart.    s( 1) = (  1.0000000  0.0000000  0.0000000 )
                  (  0.0000000  1.0000000  0.0000000 )
                  (  0.0000000  0.0000000  1.0000000 )

      isym =  2     120 deg rotation - cryst. axis [0,0,1]

[...]

      isym =  3     120 deg rotation - cryst. axis [0,0,-1]

[...]

      isym =  4     inv. 180 deg rotation - cart. axis [1,0,0]

[...]

      isym =  5     inv. 180 deg rotation - cryst. axis [0,1,0]

[...]

      isym =  6     inv. 180 deg rotation - cryst. axis [1,1,0]

 cryst.   s( 6) = (     0         -1          0      )
                  (    -1          0          0      )
                  (     0          0          1      )

 cart.    s( 6) = (  0.4999999 -0.8660255  0.0000000 )
                  ( -0.8660255 -0.4999999  0.0000000 )
                  (  0.0000000  0.0000000  1.0000000 )

   Cartesian axes

     site n.     atom                  positions (alat units)
         1           W   tau(   1) = (   0.0000000   0.0000000   1.0631000  )
         2           W   tau(   2) = (   0.0000000   0.0000000   5.3163273  )
         3           W   tau(   3) = (  -0.0000004   0.5773506   3.1895941  )
         4           Se  tau(   4) = (  -0.0000004   0.5773506   4.7846210  )
         5           Se  tau(   5) = (  -0.0000004   0.5773506   5.8478681  )
         6           S   tau(   6) = (   0.0000000   0.0000000   3.6720191  )
         7           S   tau(   7) = (  -0.0000004   0.5773506   0.5804911  )
         8           S   tau(   8) = (  -0.0000004   0.5773506   1.5456997  )
         9           S   tau(   9) = (   0.0000000   0.0000000   2.7071415  )

   Crystallographic axes

     site n.     atom                  positions (cryst. coord.)
         1           W   tau(   1) = (  0.0000000  0.0000000  0.1156480  )
         2           W   tau(   2) = (  0.0000000  0.0000000  0.5783300  )
         3           W   tau(   3) = (  0.3333330  0.6666670  0.3469760  )
         4           Se  tau(   4) = (  0.3333330  0.6666670  0.5204890  )
         5           Se  tau(   5) = (  0.3333330  0.6666670  0.6361530  )
         6           S   tau(   6) = (  0.0000000  0.0000000  0.3994560  )
         7           S   tau(   7) = (  0.3333330  0.6666670  0.0631480  )
         8           S   tau(   8) = (  0.3333330  0.6666670  0.1681470  )
         9           S   tau(   9) = (  0.0000000  0.0000000  0.2944930  )

     number of k points=     7
                       cart. coord. in units 2pi/alat
        k(    1) = (   0.0000000   0.0000000   0.0000000), wk =   0.0740741
        k(    2) = (   0.0000000   0.0000000   0.0362612), wk =   0.1481481
        k(    3) = (   0.0000000   0.3849001   0.0000000), wk =   0.4444444
        k(    4) = (   0.0000000   0.3849001   0.0362612), wk =   0.4444444
        k(    5) = (   0.3333333   0.5773502   0.0000000), wk =   0.1481481
        k(    6) = (   0.3333333   0.5773502   0.0362612), wk =   0.2962963
        k(    7) = (   0.0000000  -0.3849001   0.0362612), wk =   0.4444444

                       cryst. coord.
        k(    1) = (   0.0000000   0.0000000   0.0000000), wk =   0.0740741
        k(    2) = (   0.0000000   0.0000000   0.3333333), wk =   0.1481481
        k(    3) = (   0.0000000   0.3333333   0.0000000), wk =   0.4444444
        k(    4) = (   0.0000000   0.3333333   0.3333333), wk =   0.4444444
        k(    5) = (   0.3333333   0.3333333   0.0000000), wk =   0.1481481
        k(    6) = (   0.3333333   0.3333333   0.3333333), wk =   0.2962963
        k(    7) = (   0.0000000  -0.3333333   0.3333333), wk =   0.4444444

     Check: negative core charge=   -0.000002

     Initial potential from superposition of free atoms

     starting charge      77.6987, renormalised to      78.0000

     negative rho (up, down):  1.892E-01 0.000E+00
     Starting wfcs are   63 randomized atomic wfcs +  193 random wfcs

     Self-consistent Calculation

     iteration #  1     ecut=    30.00 Ry     beta= 0.70
     Davidson diagonalization with overlap

     ethr =  1.00E-02,  avg # of iterations =  9.4

     Threshold (ethr) on eigenvalues was too large:
     Diagonalizing with lowered threshold

     Davidson diagonalization with overlap

[...]

     negative rho (up, down):  1.858E-01 0.000E+00

     total energy              =    -661.32769598 Ry
     estimated scf accuracy    <       0.33126814 Ry

[...]

     total energy              =    -661.45148535 Ry
     estimated scf accuracy    <       0.00000183 Ry

     iteration # 20     ecut=    30.00 Ry     beta= 0.70
     Davidson diagonalization with overlap

     ethr =  1.91E-09,  avg # of iterations =  1.0

     negative rho (up, down):  1.872E-01 0.000E+00

     End of self-consistent calculation

          k = 0.0000 0.0000 0.0000 (  5089 PWs)   bands (ev):

   -69.5067 -69.4989 -68.5677 -33.7765 -33.7679 -33.5854 -33.5853 -33.5791
   -33.5791 -32.9192 -32.6358 -32.6358 -10.1148 -10.0896  -9.6509  -8.5385
    -8.4912  -8.4447  -1.7702  -1.5879  -1.0694   1.6402   1.6402   1.6416
     1.6416   2.1690   2.5960   2.7981   2.7981   2.8030   2.8031   3.0751
     3.2552   3.2552   4.3653   4.3654   4.4253   4.6906   4.9339   7.2776
     7.2776   7.2800   7.2800   7.4619   7.4619   7.4815   7.4815   8.4446
     8.4447   8.5358   8.5358   9.3484   9.5660   9.5741   9.9927  10.6796
    11.4054  12.2099  12.8531  12.9103  12.9627  13.1269  13.8705  14.7740
    14.7741  14.8390  14.8390  15.1030  16.2444  16.2444  16.5331  16.6000
    17.0169  17.0169  17.1633  17.1803  17.1803  17.9246  18.3329  18.3329
    18.6034  19.4888  19.7422  20.0872  20.2410  20.2862  20.2862  20.3917
    20.3918  20.4346  20.5194  20.5194  20.7666  20.7666  21.9735  21.9973
    21.9973  22.3787  22.6643  22.6643  22.7473  23.1612  23.4507  23.5252
    24.2351  24.8091  25.6611  25.6611  26.5387  26.5458  26.5458  26.8579
    27.4231  27.4231  28.0430  28.0430  28.0984  28.4447  28.4447  28.5257
    28.7294  28.7651  28.7651  28.8706  28.9870  29.0241  29.0241  29.1015
    29.1015  29.2967  29.2967  29.4608  29.7940  30.0020  30.0020  30.0661
    30.3819  30.3819  30.5209  30.5640  30.5640  30.6115  31.0648  31.1490
    31.4739  31.4739  31.7713  31.8553  31.8553  32.0002  32.2213  32.2213
    32.3194  32.9860  32.9860  33.1404  33.3956  33.3956  33.3986  33.9531
    33.9531  34.2088  34.2088  34.3242  34.7823  34.7823  34.9581  35.1647
    35.7966  35.9914  35.9914  36.1263  36.1263  36.2462  36.2989  36.2989
    36.7368  36.7696  36.7696  36.9947  37.0029  37.0029  37.0510  37.2002
    37.2002  37.2384  37.6208  37.6208  38.0185  38.0185  38.0652  38.1698
    38.1698  38.1698  38.4176  38.4176  38.4796  38.4796  38.7694  39.2383
    39.3727  39.3727  39.5875  40.0244  40.0244  40.1816  40.1816  40.5888
    40.9877  40.9877  41.0655  41.3701  41.3701  41.9202  41.9202  42.0213
    42.1763  42.1779  42.3181  42.7634  42.9210  42.9737  43.3958  43.3958
    43.7660  43.7660  44.1332  44.7505  45.2119  45.2119  45.4795  45.5587
    45.5587  45.5877  45.5877  46.0083  46.0620  46.0620  46.6729  46.7978
    46.7978  47.5275  47.9665  48.0823  48.0823  48.1547  48.2680  48.2680
    48.3149  48.3149  48.9229  49.2006  49.2006  49.4368  49.4368  49.5987

     occupation numbers
     1.0000   1.0000   1.0000   1.0000   1.0000   1.0000   1.0000   1.0000
     1.0000   1.0000   1.0000   1.0000   1.0000   1.0000   1.0000   1.0000
     1.0000   1.0000   1.0000   1.0000   1.0000   1.0000   1.0000   1.0000
     1.0000   1.0000   1.0000   1.0000   1.0000   1.0000   1.0000   1.0000
     1.0000   1.0000   1.0000   1.0000   1.0000   1.0000   1.0000   0.0000
     0.0000   0.0000   0.0000   0.0000   0.0000   0.0000   0.0000   0.0000
     0.0000   0.0000   0.0000   0.0000   0.0000   0.0000   0.0000   0.0000
     0.0000   0.0000   0.0000   0.0000   0.0000   0.0000   0.0000   0.0000
     0.0000   0.0000   0.0000   0.0000   0.0000   0.0000   0.0000   0.0000
     0.0000   0.0000   0.0000   0.0000   0.0000   0.0000   0.0000   0.0000
     0.0000   0.0000   0.0000   0.0000   0.0000   0.0000   0.0000   0.0000
     0.0000   0.0000   0.0000   0.0000   0.0000   0.0000   0.0000   0.0000
     0.0000   0.0000   0.0000   0.0000   0.0000   0.0000   0.0000   0.0000
     0.0000   0.0000   0.0000   0.0000   0.0000   0.0000   0.0000   0.0000
     0.0000   0.0000   0.0000   0.0000   0.0000   0.0000   0.0000   0.0000
     0.0000   0.0000   0.0000   0.0000   0.0000   0.0000   0.0000   0.0000
     0.0000   0.0000   0.0000   0.0000   0.0000   0.0000   0.0000   0.0000
     0.0000   0.0000   0.0000   0.0000   0.0000   0.0000   0.0000   0.0000
     0.0000   0.0000   0.0000   0.0000   0.0000   0.0000   0.0000   0.0000
     0.0000   0.0000   0.0000   0.0000   0.0000   0.0000   0.0000   0.0000
     0.0000   0.0000   0.0000   0.0000   0.0000   0.0000   0.0000   0.0000
     0.0000   0.0000   0.0000   0.0000   0.0000   0.0000   0.0000   0.0000
     0.0000   0.0000   0.0000   0.0000   0.0000   0.0000   0.0000   0.0000
     0.0000   0.0000   0.0000   0.0000   0.0000   0.0000   0.0000   0.0000
     0.0000   0.0000   0.0000   0.0000   0.0000   0.0000   0.0000   0.0000
     0.0000   0.0000   0.0000   0.0000   0.0000   0.0000   0.0000   0.0000
     0.0000   0.0000   0.0000   0.0000   0.0000   0.0000   0.0000   0.0000
     0.0000   0.0000   0.0000   0.0000   0.0000   0.0000   0.0000   0.0000
     0.0000   0.0000   0.0000   0.0000   0.0000   0.0000   0.0000   0.0000
     0.0000   0.0000   0.0000   0.0000   0.0000   0.0000   0.0000   0.0000
     0.0000   0.0000   0.0000   0.0000   0.0000   0.0000   0.0000   0.0000
     0.0000   0.0000   0.0000   0.0000   0.0000   0.0000   0.0000   0.0000

[...]

          k = 0.0000-0.3849 0.0363 (  5021 PWs)   bands (ev):

   -69.4966 -69.4889 -68.5576 -33.7971 -33.7910 -33.7379 -33.7294 -33.6352
   -33.6290 -32.8791 -32.8437 -32.6847  -8.7446  -8.7243  -8.1676  -8.0253
    -7.9986  -7.6828  -1.1674  -1.1189  -0.2027  -0.0240   0.0720   0.1210
     0.2005   0.7899   0.8414   1.4216   1.4297   2.5923   2.7326   2.7775
     2.7905   2.8248   3.1134   3.4054   3.4505   3.9997   4.3721   6.9868
     7.0018   7.0215   7.1787   7.4416   7.8303   7.9756   8.1783   8.6706
     8.8250   8.8733   9.6019  10.9263  11.1155  11.3159  11.6077  11.8370
    12.1553  12.4371  12.6321  12.8074  13.0914  13.6093  13.9288  14.4185
    14.6823  15.1292  15.5520  16.0425  16.1098  16.1222  16.3283  16.3375
    16.6677  17.0086  17.5142  17.5800  17.6924  18.1408  18.1782  18.4529
    18.4983  18.7229  18.9318  19.0766  19.2270  19.3867  19.5369  20.1423
    20.3708  20.3958  20.9108  21.4152  21.5776  21.5989  21.8875  22.0422
    22.1911  22.6027  22.7880  23.3301  23.3770  23.6227  24.0174  24.1058
    24.3966  24.4983  24.6089  24.7931  25.1577  25.3499  25.5749  25.6075
    25.9144  26.2137  26.4315  26.5563  26.5732  27.0516  27.1560  27.2142
    27.6497  28.0714  28.3313  28.4664  28.5464  28.6770  28.9432  29.1866
    29.2942  29.5073  29.7464  29.9342  30.0826  30.2128  30.3509  30.4124
    30.7841  30.8020  30.9850  31.0880  31.2540  31.3707  31.6188  31.6518
    31.9815  32.1783  32.2610  32.5569  32.6838  32.9420  33.0994  33.4428
    33.4650  33.8294  33.9498  33.9975  34.1589  34.3198  34.5874  34.7193
    35.0760  35.2702  35.4845  35.5987  35.8767  36.0465  36.2070  36.2808
    36.5791  36.7429  36.7501  36.7809  36.9282  36.9615  37.0277  37.3586
    37.4485  37.5258  37.5774  37.6094  37.6243  37.6687  37.8086  37.9279
    37.9603  37.9926  38.0298  38.1032  38.2657  38.3121  38.4845  38.6065
    38.8848  38.9416  39.0292  39.5561  39.6159  39.8957  39.9920  40.2387
    40.4989  40.5158  40.8403  40.9818  41.1836  41.3512  41.6386  41.7332
    41.7892  42.0845  42.1550  42.3136  42.4829  42.6793  42.7384  43.1823
    43.2633  43.2845  43.5360  43.6560  43.8700  43.8753  44.1824  44.3482
    44.3764  44.5520  44.7880  44.8766  45.0604  45.3122  45.3247  45.5966
    45.6364  45.7689  46.0044  46.1680  46.3806  46.4302  46.6360  46.7989
    46.9171  47.1561  47.2337  47.5369  47.5503  47.7030  47.8997  48.0582
    48.0628  48.1880  48.3715  48.4709  48.9044  48.9753  49.0834  49.3186

     occupation numbers
     1.0000   1.0000   1.0000   1.0000   1.0000   1.0000   1.0000   1.0000
     1.0000   1.0000   1.0000   1.0000   1.0000   1.0000   1.0000   1.0000
     1.0000   1.0000   1.0000   1.0000   1.0000   1.0000   1.0000   1.0000
     1.0000   1.0000   1.0000   1.0000   1.0000   1.0000   1.0000   1.0000
     1.0000   1.0000   1.0000   1.0000   1.0000   1.0000   1.0000   0.0000
     0.0000   0.0000   0.0000   0.0000   0.0000   0.0000   0.0000   0.0000
     0.0000   0.0000   0.0000   0.0000   0.0000   0.0000   0.0000   0.0000
     0.0000   0.0000   0.0000   0.0000   0.0000   0.0000   0.0000   0.0000
     0.0000   0.0000   0.0000   0.0000   0.0000   0.0000   0.0000   0.0000
     0.0000   0.0000   0.0000   0.0000   0.0000   0.0000   0.0000   0.0000
     0.0000   0.0000   0.0000   0.0000   0.0000   0.0000   0.0000   0.0000
     0.0000   0.0000   0.0000   0.0000   0.0000   0.0000   0.0000   0.0000
     0.0000   0.0000   0.0000   0.0000   0.0000   0.0000   0.0000   0.0000
     0.0000   0.0000   0.0000   0.0000   0.0000   0.0000   0.0000   0.0000
     0.0000   0.0000   0.0000   0.0000   0.0000   0.0000   0.0000   0.0000
     0.0000   0.0000   0.0000   0.0000   0.0000   0.0000   0.0000   0.0000
     0.0000   0.0000   0.0000   0.0000   0.0000   0.0000   0.0000   0.0000
     0.0000   0.0000   0.0000   0.0000   0.0000   0.0000   0.0000   0.0000
     0.0000   0.0000   0.0000   0.0000   0.0000   0.0000   0.0000   0.0000
     0.0000   0.0000   0.0000   0.0000   0.0000   0.0000   0.0000   0.0000
     0.0000   0.0000   0.0000   0.0000   0.0000   0.0000   0.0000   0.0000
     0.0000   0.0000   0.0000   0.0000   0.0000   0.0000   0.0000   0.0000
     0.0000   0.0000   0.0000   0.0000   0.0000   0.0000   0.0000   0.0000
     0.0000   0.0000   0.0000   0.0000   0.0000   0.0000   0.0000   0.0000
     0.0000   0.0000   0.0000   0.0000   0.0000   0.0000   0.0000   0.0000
     0.0000   0.0000   0.0000   0.0000   0.0000   0.0000   0.0000   0.0000
     0.0000   0.0000   0.0000   0.0000   0.0000   0.0000   0.0000   0.0000
     0.0000   0.0000   0.0000   0.0000   0.0000   0.0000   0.0000   0.0000
     0.0000   0.0000   0.0000   0.0000   0.0000   0.0000   0.0000   0.0000
     0.0000   0.0000   0.0000   0.0000   0.0000   0.0000   0.0000   0.0000
     0.0000   0.0000   0.0000   0.0000   0.0000   0.0000   0.0000   0.0000
     0.0000   0.0000   0.0000   0.0000   0.0000   0.0000   0.0000   0.0000

     highest occupied, lowest unoccupied level (ev):     5.3807    6.1693

!    total energy              =    -661.45148514 Ry
     estimated scf accuracy    <       0.00000054 Ry

     The total energy is the sum of the following terms:
     one-electron contribution =   -2743.20940211 Ry
     hartree contribution      =    1386.27575161 Ry
     xc contribution           =    -217.05236896 Ry
     ewald contribution        =     912.53453433 Ry

     convergence has been achieved in  20 iterations

     Writing all to output data dir bands_nm/myprefix.save/

     General routines

     Parallel routines

   This run was terminated on:   4:39:17  17Jul2023

   JOB DONE.