     Program PWSCF v.7.1 starts on 16Jul2023 at 20:50:17

     Reading input from espresso_24525.pwi
Warning: card &CELL ignored
Warning: card / ignored

     Current dimensions of program PWSCF are:
     Max number of different atomic species (ntypx) = 10
     Max number of k-points (npk) =  40000
     Max angular momentum in pseudopotentials (lmaxx) =  4
     file O.pbe-n-kjpaw_psl.0.1.UPF: wavefunction(s)  2P renormalized

     K-points division:     npool     =       2
     R & G space division:  proc/nbgrp/npool/nimage =       4
     Subspace diagonalization in iterative solution of the eigenvalue problem:
     one sub-group per band group will be used

     Using Slab Decomposition

     bravais-lattice index     =            0
     lattice parameter (alat)  =      17.6051  a.u.
     unit-cell volume          =    1814.5340 (a.u.)^3
     number of atoms/cell      =           16
     number of atomic types    =            3
     number of electrons       =       152.00
     number of Kohn-Sham states=          256
     kinetic-energy cutoff     =      30.0000  Ry
     charge density cutoff     =     240.0000  Ry
     scf convergence threshold =      1.0E-06
     mixing beta               =       0.7000
     number of iterations used =            8  plain     mixing
     Exchange-correlation=  SLA  PW   PBX  PBC
                           (   1   4   3   4   0   0   0)

     celldm(1)=  17.605125  celldm(2)=   0.000000  celldm(3)=   0.000000
     celldm(4)=   0.000000  celldm(5)=   0.000000  celldm(6)=   0.000000

     crystal axes: (cart. coord. in units of alat)
               a(1) = (   1.000000   0.000000   0.000000 )
               a(2) = (   0.828549   0.559916   0.000000 )
               a(3) = (   0.123244   0.037738   0.593916 )

     reciprocal axes: (cart. coord. in units 2 pi/alat)
               b(1) = (  1.000000 -1.479775 -0.113484 )
               b(2) = (  0.000000  1.785982 -0.113484 )
               b(3) = (  0.000000  0.000000  1.683740 )

     PseudoPot. # 1 for Sb read from file:
     /lustre07/scratch/pragov/crystal_structure_design/utils/SSSP/sb_pbe_v1.4.uspp.F.UPF
     MD5 check sum: 9bc50dfb53373b713f5709b9110fe27f
     Pseudo is Ultrasoft + core correction, Zval = 15.0
     Generated by new atomic code, or converted to UPF format
     Using radial grid of  891 points,  6 beta functions with:
                l(1) =   0
                l(2) =   0
                l(3) =   1
                l(4) =   1
                l(5) =   2
                l(6) =   2
     Q(r) pseudized with  8 coefficients,  rinner =    1.350   1.350   1.350
                                                       1.350   1.350

     PseudoPot. # 2 for O  read from file:
     /lustre07/scratch/pragov/crystal_structure_design/utils/SSSP/O.pbe-n-kjpaw_psl.0.1.UPF
     MD5 check sum: 0234752ac141de4415c5fc33072bef88
     Pseudo is Projector augmented-wave + core cor, Zval =  6.0
     Generated using "atomic" code by A. Dal Corso  v.5.0.99 svn rev. 10869
     Shape of augmentation charge: BESSEL
     Using radial grid of 1095 points,  4 beta functions with:
                l(1) =   0
                l(2) =   0
                l(3) =   1
                l(4) =   1
     Q(r) pseudized with 0 coefficients

     PseudoPot. # 3 for F  read from file:
     /lustre07/scratch/pragov/crystal_structure_design/utils/SSSP/f_pbe_v1.4.uspp.F.UPF
     MD5 check sum: 4c38b6a325caf53ec0e86aed9459de46
     Pseudo is Ultrasoft, Zval =  7.0
     Generated by new atomic code, or converted to UPF format
     Using radial grid of  799 points,  4 beta functions with:
                l(1) =   0
                l(2) =   0
                l(3) =   1
                l(4) =   1
     Q(r) pseudized with  8 coefficients,  rinner =    0.950   0.950   0.950

     atomic species   valence    mass     pseudopotential
        Sb            15.00   121.76000     Sb( 1.00)
        O              6.00    15.99900     O ( 1.00)
        F              7.00    18.99840     F ( 1.00)

     No symmetry found

                                    s                        frac. trans.

      isym =  1     identity

 cryst.   s( 1) = (     1          0          0      )
                  (     0          1          0      )
                  (     0          0          1      )

 cart.    s( 1) = (  1.0000000  0.0000000 -0.0000000 )
                  (  0.0000000  1.0000000  0.0000000 )
                  (  0.0000000  0.0000000  1.0000000 )

   Cartesian axes

     site n.     atom                  positions (alat units)
         1           Sb  tau(   1) = (   1.3395281   0.2320139   0.4235019  )
         2           Sb  tau(   2) = (   0.9700939   0.4123353   0.4424543  )
         3           Sb  tau(   3) = (   1.1781513   0.5389189   0.1265439  )
         4           Sb  tau(   4) = (   0.9730217   0.1826617   0.1454963  )
         5           Sb  tau(   5) = (   0.7654426   0.0511206   0.4647042  )
         6           Sb  tau(   6) = (   0.6012081   0.3673583   0.1677462  )
         7           O   tau(   7) = (   1.1495099   0.2999319   0.5142671  )
         8           O   tau(   8) = (   0.2471422   0.1098732   0.2659455  )
         9           O   tau(   9) = (   1.6238823   0.5314416   0.0310125  )
        10           O   tau(  10) = (   1.0587403   0.3762512   0.2173091  )
        11           O   tau(  11) = (   0.8809776   0.2188894   0.3714053  )
        12           O   tau(  12) = (   0.3279114   0.0662126   0.5629034  )
        13           O   tau(  13) = (   1.7046516   0.4877811   0.3279705  )
        14           O   tau(  14) = (   0.7908710   0.2930435   0.0744474  )
        15           F   tau(  15) = (   0.5616222   0.0188692   0.2969580  )
        16           F   tau(  16) = (   0.4142747   0.2799580   0.0000000  )

   Crystallographic axes

     site n.     atom                  positions (cryst. coord.)
         1           Sb  tau(   1) = (  0.9481390  0.3663120  0.7130670  )
         2           Sb  tau(   2) = (  0.3097190  0.6862120  0.7449780  )
         3           Sb  tau(   3) = (  0.3663120  0.9481390  0.2130670  )
         4           Sb  tau(   4) = (  0.6862120  0.3097190  0.2449780  )
         5           Sb  tau(   5) = (  0.6370590  0.0385640  0.7824410  )
         6           Sb  tau(   6) = (  0.0385640  0.6370590  0.2824410  )
         7           O   tau(   7) = (  0.6473170  0.4773120  0.8658920  )
         8           O   tau(   8) = (  0.0543740  0.1660510  0.4477830  )
         9           O   tau(   9) = (  0.8339490  0.9456260  0.0522170  )
        10           O   tau(  10) = (  0.4773120  0.6473170  0.3658920  )
        11           O   tau(  11) = (  0.5149220  0.3487840  0.6253500  )
        12           O   tau(  12) = (  0.1660510  0.0543740  0.9477830  )
        13           O   tau(  13) = (  0.9456260  0.8339490  0.5522170  )
        14           O   tau(  14) = (  0.3487840  0.5149220  0.1253500  )
        15           F   tau(  15) = (  0.5000000  0.0000000  0.5000000  )
        16           F   tau(  16) = (  0.0000000  0.5000000  0.0000000  )

     number of k points=    14
                       cart. coord. in units 2pi/alat
        k(    1) = (   0.0000000   0.0000000   0.0000000), wk =   0.0740741
        k(    2) = (   0.0000000   0.0000000   0.5612467), wk =   0.1481481
        k(    3) = (   0.0000000   0.5953275  -0.0378281), wk =   0.1481481
        k(    4) = (   0.0000000   0.5953275   0.5234186), wk =   0.1481481
        k(    5) = (   0.0000000   0.5953275  -0.5990747), wk =   0.1481481
        k(    6) = (   0.3333333  -0.4932583  -0.0378281), wk =   0.1481481
        k(    7) = (   0.3333333  -0.4932583   0.5234186), wk =   0.1481481
        k(    8) = (   0.3333333  -0.4932583  -0.5990747), wk =   0.1481481
        k(    9) = (   0.3333333   0.1020692  -0.0756561), wk =   0.1481481
        k(   10) = (   0.3333333   0.1020692   0.4855905), wk =   0.1481481
        k(   11) = (   0.3333333   0.1020692  -0.6369028), wk =   0.1481481
        k(   12) = (   0.3333333  -1.0885858  -0.0000000), wk =   0.1481481
        k(   13) = (   0.3333333  -1.0885858   0.5612467), wk =   0.1481481
        k(   14) = (   0.3333333  -1.0885858  -0.5612467), wk =   0.1481481

                       cryst. coord.
        k(    1) = (   0.0000000   0.0000000   0.0000000), wk =   0.0740741
        k(    2) = (   0.0000000   0.0000000   0.3333333), wk =   0.1481481
        k(    3) = (   0.0000000   0.3333333   0.0000000), wk =   0.1481481
        k(    4) = (   0.0000000   0.3333333   0.3333333), wk =   0.1481481
        k(    5) = (   0.0000000   0.3333333  -0.3333333), wk =   0.1481481
        k(    6) = (   0.3333333   0.0000000   0.0000000), wk =   0.1481481
        k(    7) = (   0.3333333   0.0000000   0.3333333), wk =   0.1481481
        k(    8) = (   0.3333333   0.0000000  -0.3333333), wk =   0.1481481
        k(    9) = (   0.3333333   0.3333333   0.0000000), wk =   0.1481481
        k(   10) = (   0.3333333   0.3333333   0.3333333), wk =   0.1481481
        k(   11) = (   0.3333333   0.3333333  -0.3333333), wk =   0.1481481
        k(   12) = (   0.3333333  -0.3333333  -0.0000000), wk =   0.1481481
        k(   13) = (   0.3333333  -0.3333333   0.3333333), wk =   0.1481481
        k(   14) = (   0.3333333  -0.3333333  -0.3333333), wk =   0.1481481

     Check: negative core charge=   -0.000010

     Initial potential from superposition of free atoms

     starting charge     145.9999, renormalised to     152.0000
     Starting wfcs are   94 randomized atomic wfcs +  162 random wfcs
     Checking if some PAW data can be deallocated...

     Self-consistent Calculation

     iteration #  1     ecut=    30.00 Ry     beta= 0.70
     Davidson diagonalization with overlap

     ethr =  1.00E-02,  avg # of iterations =  7.1

     total energy              =   -1537.96893672 Ry
     estimated scf accuracy    <       4.25964705 Ry

[...]

     total energy              =   -1539.73663068 Ry
     estimated scf accuracy    <       0.00000571 Ry

     iteration # 11     ecut=    30.00 Ry     beta= 0.70
     Davidson diagonalization with overlap

     ethr =  3.76E-09,  avg # of iterations =  1.0

     End of self-consistent calculation

          k = 0.0000 0.0000 0.0000 (  5015 PWs)   bands (ev):

   -21.6403 -21.6343 -21.6176 -21.5802 -21.5749 -21.5698 -21.5581 -21.5534
   -21.5517 -21.5468 -21.5394 -21.5338 -21.5254 -21.5205 -21.5124 -21.5043
   -21.4983 -21.4871 -21.4810 -21.4760 -21.4594 -21.4534 -21.4519 -21.4503
   -21.4415 -21.4273 -21.4235 -21.4070 -21.3891 -21.3851 -14.1489 -14.0920
   -12.0696 -11.4221 -10.8694 -10.7587 -10.5203 -10.2456 -10.0109  -9.8797
    -2.3204  -2.1436  -1.7231  -1.5962  -0.0755   1.1648   1.7180   1.9268
     2.3063   2.3468   2.4626   2.7913   2.9989   3.1064   3.5537   3.6231
     4.1045   4.2381   4.2913   4.3593   4.4625   4.4850   4.5394   4.6100
     4.7909   4.8814   4.9417   5.2389   5.2586   5.9113   6.0405   6.0741
     6.5165   6.5909   6.7771   7.3144   9.8270   9.8561  10.3597  10.6340
    11.1081  11.2434  11.3426  12.5396  12.5586  12.5974  12.7036  12.9868
    13.1948  13.4083  13.4501  14.3477  14.6912  15.0648  15.7710  16.0487
    16.4019  16.6200  16.8598  16.9442  17.1657  18.0300  18.3976  19.4256
    19.9143  19.9249  20.1702  20.3991  20.4523  20.5450  21.0126  21.0768
    21.2088  21.7081  22.1481  22.2298  22.3092  22.4098  22.4403  23.1083
    23.5248  23.5660  23.8976  24.0938  24.1894  24.3020  24.4153  25.1035
    25.3096  25.4928  25.8472  25.9304  26.1906  26.3065  26.5062  26.6692
    26.9096  26.9579  27.1455  27.1788  27.3153  27.4497  27.5437  27.6406
    28.0836  28.4795  28.5991  28.7276  28.8800  28.9016  28.9973  29.3764
    29.5548  29.5638  29.6383  29.9374  30.0543  30.1261  30.3423  30.6692
    30.6995  30.8030  30.9883  31.0417  31.3939  31.5011  31.6531  32.3817
    32.3857  32.4400  32.6319  32.6864  33.0478  33.3144  33.5032  33.6623
    33.8142  33.9251  34.1003  34.1552  34.7781  34.9296  35.3999  35.5529
    35.7883  35.9119  36.1079  36.1738  36.4760  36.7450  37.0321  37.0549
    37.1773  37.3695  37.5013  37.9669  38.0054  38.2309  38.3099  38.4276
    38.4866  38.6141  38.7570  39.0677  39.1357  39.5183  39.5507  39.5879
    39.6005  39.6169  39.6301  39.9067  39.9572  40.0927  40.1624  40.3875
    40.5328  40.5650  40.6696  40.9122  41.0324  41.3634  41.7956  41.8344
    41.8551  42.1504  42.1575  42.4033  42.6290  42.7130  42.7875  42.8921
    42.9949  43.0901  43.2773  43.2938  43.4696  43.6079  43.6368  43.8862
    44.0816  44.1634  44.2412  44.4435  44.6344  44.6988  44.7481  44.8424
    45.0273  45.4336  45.6557  45.8878  46.0622  46.0686  46.1136  46.1731

     occupation numbers
     1.0000   1.0000   1.0000   1.0000   1.0000   1.0000   1.0000   1.0000
     1.0000   1.0000   1.0000   1.0000   1.0000   1.0000   1.0000   1.0000
     1.0000   1.0000   1.0000   1.0000   1.0000   1.0000   1.0000   1.0000
     1.0000   1.0000   1.0000   1.0000   1.0000   1.0000   1.0000   1.0000
     1.0000   1.0000   1.0000   1.0000   1.0000   1.0000   1.0000   1.0000
     1.0000   1.0000   1.0000   1.0000   1.0000   1.0000   1.0000   1.0000
     1.0000   1.0000   1.0000   1.0000   1.0000   1.0000   1.0000   1.0000
     1.0000   1.0000   1.0000   1.0000   1.0000   1.0000   1.0000   1.0000
     1.0000   1.0000   1.0000   1.0000   1.0000   1.0000   1.0000   1.0000
     1.0000   1.0000   1.0000   1.0000   0.0000   0.0000   0.0000   0.0000
     0.0000   0.0000   0.0000   0.0000   0.0000   0.0000   0.0000   0.0000
     0.0000   0.0000   0.0000   0.0000   0.0000   0.0000   0.0000   0.0000
     0.0000   0.0000   0.0000   0.0000   0.0000   0.0000   0.0000   0.0000
     0.0000   0.0000   0.0000   0.0000   0.0000   0.0000   0.0000   0.0000
     0.0000   0.0000   0.0000   0.0000   0.0000   0.0000   0.0000   0.0000
     0.0000   0.0000   0.0000   0.0000   0.0000   0.0000   0.0000   0.0000
     0.0000   0.0000   0.0000   0.0000   0.0000   0.0000   0.0000   0.0000
     0.0000   0.0000   0.0000   0.0000   0.0000   0.0000   0.0000   0.0000
     0.0000   0.0000   0.0000   0.0000   0.0000   0.0000   0.0000   0.0000
     0.0000   0.0000   0.0000   0.0000   0.0000   0.0000   0.0000   0.0000
     0.0000   0.0000   0.0000   0.0000   0.0000   0.0000   0.0000   0.0000
     0.0000   0.0000   0.0000   0.0000   0.0000   0.0000   0.0000   0.0000
     0.0000   0.0000   0.0000   0.0000   0.0000   0.0000   0.0000   0.0000
     0.0000   0.0000   0.0000   0.0000   0.0000   0.0000   0.0000   0.0000
     0.0000   0.0000   0.0000   0.0000   0.0000   0.0000   0.0000   0.0000
     0.0000   0.0000   0.0000   0.0000   0.0000   0.0000   0.0000   0.0000
     0.0000   0.0000   0.0000   0.0000   0.0000   0.0000   0.0000   0.0000
     0.0000   0.0000   0.0000   0.0000   0.0000   0.0000   0.0000   0.0000
     0.0000   0.0000   0.0000   0.0000   0.0000   0.0000   0.0000   0.0000
     0.0000   0.0000   0.0000   0.0000   0.0000   0.0000   0.0000   0.0000
     0.0000   0.0000   0.0000   0.0000   0.0000   0.0000   0.0000   0.0000
     0.0000   0.0000   0.0000   0.0000   0.0000   0.0000   0.0000   0.0000

[...]

          k = 0.3333-1.0886-0.5612 (  5022 PWs)   bands (ev):

   -21.6418 -21.6373 -21.6031 -21.5846 -21.5770 -21.5700 -21.5602 -21.5530
   -21.5494 -21.5466 -21.5397 -21.5341 -21.5315 -21.5183 -21.5064 -21.5008
   -21.4976 -21.4904 -21.4796 -21.4764 -21.4678 -21.4651 -21.4527 -21.4520
   -21.4426 -21.4361 -21.4245 -21.4158 -21.3875 -21.3860 -14.1252 -14.1110
   -11.7111 -11.3224 -11.0120 -10.8342 -10.5166 -10.3302 -10.2024 -10.0989
    -2.2094  -1.8576  -1.3660  -0.6946  -0.5989   0.1021   1.8837   2.0826
     2.2567   2.4293   2.6222   2.7683   2.9245   3.2837   3.4727   3.5305
     3.6975   3.9505   4.0954   4.3672   4.4954   4.5491   4.6914   4.8487
     4.8817   5.0714   5.1646   5.2448   5.4350   5.5590   5.7940   6.1002
     6.2011   6.5022   6.6221   6.9907  10.0711  10.1876  10.3940  11.0499
    11.2215  11.5477  11.6830  12.0014  12.2989  12.4316  12.8662  13.0415
    13.2174  13.4445  13.5417  13.9215  14.8019  15.1016  16.3160  16.8326
    16.9578  17.1580  17.2613  17.7339  18.1909  18.2833  18.4739  18.6447
    18.9726  19.2425  19.7007  19.8783  20.1456  20.2196  20.4918  20.6536
    21.0389  21.2263  21.4592  21.7943  21.8467  22.1590  22.3248  22.7654
    23.0933  23.1910  23.4315  23.6330  24.0013  24.0624  24.1814  24.6082
    24.6913  24.7609  25.1015  25.4191  25.5388  25.9555  26.1198  26.4017
    26.8613  26.9578  27.2371  27.3751  27.6081  27.7291  27.9504  28.1989
    28.3975  28.7182  28.8008  28.9199  29.1969  29.2887  29.4253  29.6049
    29.7070  30.1504  30.3949  30.4760  30.6932  30.7495  31.0975  31.2367
    31.5832  31.6272  31.8131  32.0381  32.3041  32.4106  32.5724  32.6288
    32.7733  33.1396  33.2526  33.3967  33.7014  33.9959  34.1889  34.3040
    34.4532  34.6325  34.8255  34.8960  35.1875  35.4245  35.6580  35.7047
    35.8606  36.0007  36.1824  36.5962  36.8292  36.8955  36.9689  37.0517
    37.1064  37.4386  37.7071  37.7784  37.9828  38.0671  38.1920  38.3050
    38.3340  38.7033  38.7930  38.8842  38.9591  39.1895  39.2529  39.4002
    39.4885  39.5416  39.5612  39.5787  39.6010  39.6221  39.6564  39.7623
    39.9075  40.0619  40.1522  40.3361  40.4653  40.6820  40.8042  40.9463
    41.0455  41.1602  41.5824  41.6471  41.7421  41.8488  42.0572  42.1540
    42.3505  42.4735  42.7042  42.8022  42.8908  43.0495  43.3212  43.5498
    43.6828  43.8173  43.9211  44.0622  44.1606  44.2399  44.4299  44.5058
    44.6555  44.7614  44.9014  45.2306  45.2906  45.3868  45.5760  45.8188

     occupation numbers
     1.0000   1.0000   1.0000   1.0000   1.0000   1.0000   1.0000   1.0000
     1.0000   1.0000   1.0000   1.0000   1.0000   1.0000   1.0000   1.0000
     1.0000   1.0000   1.0000   1.0000   1.0000   1.0000   1.0000   1.0000
     1.0000   1.0000   1.0000   1.0000   1.0000   1.0000   1.0000   1.0000
     1.0000   1.0000   1.0000   1.0000   1.0000   1.0000   1.0000   1.0000
     1.0000   1.0000   1.0000   1.0000   1.0000   1.0000   1.0000   1.0000
     1.0000   1.0000   1.0000   1.0000   1.0000   1.0000   1.0000   1.0000
     1.0000   1.0000   1.0000   1.0000   1.0000   1.0000   1.0000   1.0000
     1.0000   1.0000   1.0000   1.0000   1.0000   1.0000   1.0000   1.0000
     1.0000   1.0000   1.0000   1.0000   0.0000   0.0000   0.0000   0.0000
     0.0000   0.0000   0.0000   0.0000   0.0000   0.0000   0.0000   0.0000
     0.0000   0.0000   0.0000   0.0000   0.0000   0.0000   0.0000   0.0000
     0.0000   0.0000   0.0000   0.0000   0.0000   0.0000   0.0000   0.0000
     0.0000   0.0000   0.0000   0.0000   0.0000   0.0000   0.0000   0.0000
     0.0000   0.0000   0.0000   0.0000   0.0000   0.0000   0.0000   0.0000
     0.0000   0.0000   0.0000   0.0000   0.0000   0.0000   0.0000   0.0000
     0.0000   0.0000   0.0000   0.0000   0.0000   0.0000   0.0000   0.0000
     0.0000   0.0000   0.0000   0.0000   0.0000   0.0000   0.0000   0.0000
     0.0000   0.0000   0.0000   0.0000   0.0000   0.0000   0.0000   0.0000
     0.0000   0.0000   0.0000   0.0000   0.0000   0.0000   0.0000   0.0000
     0.0000   0.0000   0.0000   0.0000   0.0000   0.0000   0.0000   0.0000
     0.0000   0.0000   0.0000   0.0000   0.0000   0.0000   0.0000   0.0000
     0.0000   0.0000   0.0000   0.0000   0.0000   0.0000   0.0000   0.0000
     0.0000   0.0000   0.0000   0.0000   0.0000   0.0000   0.0000   0.0000
     0.0000   0.0000   0.0000   0.0000   0.0000   0.0000   0.0000   0.0000
     0.0000   0.0000   0.0000   0.0000   0.0000   0.0000   0.0000   0.0000
     0.0000   0.0000   0.0000   0.0000   0.0000   0.0000   0.0000   0.0000
     0.0000   0.0000   0.0000   0.0000   0.0000   0.0000   0.0000   0.0000
     0.0000   0.0000   0.0000   0.0000   0.0000   0.0000   0.0000   0.0000
     0.0000   0.0000   0.0000   0.0000   0.0000   0.0000   0.0000   0.0000
     0.0000   0.0000   0.0000   0.0000   0.0000   0.0000   0.0000   0.0000
     0.0000   0.0000   0.0000   0.0000   0.0000   0.0000   0.0000   0.0000

     highest occupied, lowest unoccupied level (ev):     7.4036    9.8242

!    total energy              =   -1539.73663169 Ry
     estimated scf accuracy    <       0.00000007 Ry

     The total energy is the sum of the following terms:
     one-electron contribution =    -671.59557048 Ry
     hartree contribution      =     425.99593546 Ry
     xc contribution           =    -342.38550582 Ry
     ewald contribution        =    -875.52175048 Ry
     one-center paw contrib.   =     -76.22974038 Ry
      -> PAW hartree energy AE =       0.00000000 Ry
      -> PAW hartree energy PS =       0.00000000 Ry
      -> PAW xc energy AE      =       0.00000000 Ry
      -> PAW xc energy PS      =       0.00000000 Ry
      -> total E_H with PAW    =     425.99593546 Ry
      -> total E_XC with PAW   =    -342.38550582 Ry

     convergence has been achieved in  11 iterations

     Writing all to output data dir bands_nm/myprefix.save/

     General routines

     Parallel routines

     PAW routines

   This run was terminated on:  20:52:15  16Jul2023

   JOB DONE.