     Program PWSCF v.7.1 starts on 17Jul2023 at  2:16:38

     Reading input from espresso_18353.pwi
Warning: card &CELL ignored
Warning: card / ignored

     Current dimensions of program PWSCF are:
     Max number of different atomic species (ntypx) = 10
     Max number of k-points (npk) =  40000
     Max angular momentum in pseudopotentials (lmaxx) =  4
     file O.pbe-n-kjpaw_psl.0.1.UPF: wavefunction(s)  2P renormalized

     K-points division:     npool     =       2
     R & G space division:  proc/nbgrp/npool/nimage =       4
     Subspace diagonalization in iterative solution of the eigenvalue problem:
     one sub-group per band group will be used

     Using Slab Decomposition

     bravais-lattice index     =            0
     lattice parameter (alat)  =       8.9481  a.u.
     unit-cell volume          =    1442.8458 (a.u.)^3
     number of atoms/cell      =           20
     number of atomic types    =            3
     number of electrons       =       128.00
     number of Kohn-Sham states=          256
     kinetic-energy cutoff     =      30.0000  Ry
     charge density cutoff     =     240.0000  Ry
     scf convergence threshold =      1.0E-06
     mixing beta               =       0.7000
     number of iterations used =            8  plain     mixing
     Exchange-correlation= SLA  PW   PBX  PBC
                           (   1   4   3   4   0   0   0)

     celldm(1)=   8.948146  celldm(2)=   0.000000  celldm(3)=   0.000000
     celldm(4)=   0.000000  celldm(5)=   0.000000  celldm(6)=   0.000000

     crystal axes: (cart. coord. in units of alat)
               a(1) = (   1.000000   0.000000   0.000000 )
               a(2) = (  -0.289190   1.420146   0.000000 )
               a(3) = (  -0.289195  -0.077412   1.418038 )

     reciprocal axes: (cart. coord. in units 2 pi/alat)
               b(1) = (  1.000000  0.203634  0.215057 )
               b(2) = (  0.000000  0.704153  0.038441 )
               b(3) = (  0.000000  0.000000  0.705200 )

     PseudoPot. # 1 for Li read from file:
     /lustre07/scratch/pragov/crystal_structure_design/utils/SSSP/li_pbe_v1.4.uspp.F.UPF
     MD5 check sum: e912e257baa3777c20ea3d68f190483c
     Pseudo is Ultrasoft, Zval =  3.0
     Generated by new atomic code, or converted to UPF format
     Using radial grid of  751 points,  5 beta functions with:
                l(1) =   0
                l(2) =   0
                l(3) =   0
                l(4) =   1
                l(5) =   1
     Q(r) pseudized with 10 coefficients,  rinner =    1.150   1.150   1.150

     PseudoPot. # 2 for Cr read from file:
     /lustre07/scratch/pragov/crystal_structure_design/utils/SSSP/cr_pbe_v1.5.uspp.F.UPF
     MD5 check sum: 0d52af634a40206e4dee301ad30da4bf
     Pseudo is Ultrasoft + core correction, Zval = 14.0
     Generated by new atomic code, or converted to UPF format
     Using radial grid of  857 points,  6 beta functions with:
                l(1) =   0
                l(2) =   0
                l(3) =   1
                l(4) =   1
                l(5) =   2
                l(6) =   2
     Q(r) pseudized with  8 coefficients,  rinner =    0.950   0.950   0.950
                                                       0.950   0.950

     PseudoPot. # 3 for O  read from file:
     /lustre07/scratch/pragov/crystal_structure_design/utils/SSSP/O.pbe-n-kjpaw_psl.0.1.UPF
     MD5 check sum: 0234752ac141de4415c5fc33072bef88
     Pseudo is Projector augmented-wave + core cor, Zval =  6.0
     Generated using "atomic" code by A. Dal Corso  v.5.0.99 svn rev. 10869
     Shape of augmentation charge: BESSEL
     Using radial grid of 1095 points,  4 beta functions with:
                l(1) =   0
                l(2) =   0
                l(3) =   1
                l(4) =   1
     Q(r) pseudized with 0 coefficients

     atomic species   valence    mass     pseudopotential
        Li             3.00     6.94000     Li( 1.00)
        Cr            14.00    51.99610     Cr( 1.00)
        O              6.00    15.99900     O ( 1.00)

     No symmetry found

                                    s                        frac. trans.

      isym =  1     identity

 cryst.   s( 1) = (     1          0          0      )
                  (     0          1          0      )
                  (     0          0          1      )

 cart.    s( 1) = (  1.0000000  0.0000000 -0.0000000 )
                  (  0.0000000  1.0000000 -0.0000000 )
                  (  0.0000000  0.0000000  1.0000000 )

   Cartesian axes

     site n.     atom                  positions (alat units)
         1           Li  tau(   1) = (   0.3156396   1.3308627   0.7559985  )
         2           Li  tau(   2) = (  -0.2886009   0.9960926   0.4024505  )
         3           Li  tau(   3) = (   0.2114221   0.2473298   1.1114567  )
         4           Li  tau(   4) = (   0.1048066   0.6595154   0.0469626  )
         5           Li  tau(   5) = (  -0.2886027   0.3475511   1.0165531  )
         6           Li  tau(   6) = (   0.1048067   0.0109367   0.6610963  )
         7           Li  tau(   7) = (   0.3156371   0.6823268   1.3701039  )
         8           Li  tau(   8) = (   0.2114258   1.0963135   0.3075540  )
         9           Cr  tau(   9) = (  -0.1766931   1.0133586   1.0701591  )
        10           Cr  tau(  10) = (   0.2037071   0.6651093   0.7023641  )
        11           Cr  tau(  11) = (   0.4145379   1.3364920   1.4114553  )
        12           Cr  tau(  12) = (   0.6124493   0.3419125   0.3610849  )
        13           O   tau(  13) = (   0.4080476   0.2853428   0.7383354  )
        14           O   tau(  14) = (   0.5135200   1.3728852   0.3809459  )
        15           O   tau(  15) = (   0.0135150   0.6241074   1.0899663  )
        16           O   tau(  16) = (  -0.0918710   1.0341316   0.0293208  )
        17           O   tau(  17) = (  -0.0918728  -0.0270879   1.0341963  )
        18           O   tau(  18) = (   0.0135192   1.0543127   0.6826009  )
        19           O   tau(  19) = (   0.5135210   0.3055378   1.3916198  )
        20           O   tau(  20) = (   0.4080471   0.7216702   0.3251717  )

   Crystallographic axes

     site n.     atom                  positions (cryst. coord.)
         1           Li  tau(   1) = (  0.7492310  0.9661920  0.5331300  )
         2           Li  tau(   2) = (  0.0007870  0.7168720  0.2838080  )
         3           Li  tau(   3) = (  0.5008130  0.2168830  0.7837990  )
         4           Li  tau(   4) = (  0.2492060  0.4662050  0.0331180  )
         5           Li  tau(   5) = (  0.0007870  0.2838060  0.7168730  )
         6           Li  tau(   6) = (  0.2492070  0.0331140  0.4662050  )
         7           Li  tau(   7) = (  0.7492320  0.5331300  0.9661970  )
         8           Li  tau(   8) = (  0.5008140  0.7837950  0.2168870  )
         9           Cr  tau(   9) = (  0.2598060  0.7546970  0.7546760  )
        10           Cr  tau(  10) = (  0.4901940  0.4953380  0.4953070  )
        11           Cr  tau(  11) = (  0.9902360  0.9953520  0.9953580  )
        12           Cr  tau(  12) = (  0.7597280  0.2546390  0.2546370  )
        13           O   tau(  13) = (  0.6249370  0.2293070  0.5206740  )
        14           O   tau(  14) = (  0.8750110  0.9813650  0.2686430  )
        15           O   tau(  15) = (  0.3750090  0.4813660  0.7686440  )
        16           O   tau(  16) = (  0.1250190  0.7293140  0.0206770  )
        17           O   tau(  17) = (  0.1250220  0.0206810  0.7293150  )
        18           O   tau(  18) = (  0.3750110  0.7686370  0.4813700  )
        19           O   tau(  19) = (  0.8750160  0.2686400  0.9813700  )
        20           O   tau(  20) = (  0.6249340  0.5206660  0.2293110  )

     number of k points=    14
                       cart. coord. in units 2pi/alat
        k(    1) = (   0.0000000   0.0000000   0.0000000), wk =   0.0740741
        k(    2) = (   0.0000000   0.0000000   0.2350666), wk =   0.1481481
        k(    3) = (   0.0000000   0.2347177   0.0128135), wk =   0.1481481
        k(    4) = (   0.0000000   0.2347177   0.2478801), wk =   0.1481481
        k(    5) = (   0.0000000   0.2347177  -0.2222531), wk =   0.1481481
        k(    6) = (   0.3333333   0.0678780   0.0716856), wk =   0.1481481
        k(    7) = (   0.3333333   0.0678780   0.3067522), wk =   0.1481481
        k(    8) = (   0.3333333   0.0678780  -0.1633810), wk =   0.1481481
        k(    9) = (   0.3333333   0.3025957   0.0844991), wk =   0.1481481
        k(   10) = (   0.3333333   0.3025957   0.3195657), wk =   0.1481481
        k(   11) = (   0.3333333   0.3025957  -0.1505675), wk =   0.1481481
        k(   12) = (   0.3333333  -0.1668397   0.0588720), wk =   0.1481481
        k(   13) = (   0.3333333  -0.1668397   0.2939386), wk =   0.1481481
        k(   14) = (   0.3333333  -0.1668397  -0.1761946), wk =   0.1481481

                       cryst. coord.
        k(    1) = (   0.0000000   0.0000000   0.0000000), wk =   0.0740741
        k(    2) = (   0.0000000   0.0000000   0.3333333), wk =   0.1481481
        k(    3) = (   0.0000000   0.3333333   0.0000000), wk =   0.1481481
        k(    4) = (   0.0000000   0.3333333   0.3333333), wk =   0.1481481
        k(    5) = (   0.0000000   0.3333333  -0.3333333), wk =   0.1481481
        k(    6) = (   0.3333333   0.0000000  -0.0000000), wk =   0.1481481
        k(    7) = (   0.3333333   0.0000000   0.3333333), wk =   0.1481481
        k(    8) = (   0.3333333   0.0000000  -0.3333333), wk =   0.1481481
        k(    9) = (   0.3333333   0.3333333   0.0000000), wk =   0.1481481
        k(   10) = (   0.3333333   0.3333333   0.3333333), wk =   0.1481481
        k(   11) = (   0.3333333   0.3333333  -0.3333333), wk =   0.1481481
        k(   12) = (   0.3333333  -0.3333333  -0.0000000), wk =   0.1481481
        k(   13) = (   0.3333333  -0.3333333   0.3333333), wk =   0.1481481
        k(   14) = (   0.3333333  -0.3333333  -0.3333333), wk =   0.1481481

     Check: negative core charge=   -0.000016

     Initial potential from superposition of free atoms

     starting charge     120.3940, renormalised to     128.0000

     negative rho (up, down):  3.041E-03 0.000E+00
     Starting wfcs are  112 randomized atomic wfcs +  144 random wfcs
     Checking if some PAW data can be deallocated...

     Self-consistent Calculation

     iteration #  1     ecut=    30.00 Ry     beta= 0.70
     Davidson diagonalization with overlap

     ethr =  1.00E-02,  avg # of iterations =  7.6

     negative rho (up, down):  1.766E-02 0.000E+00

     total energy              =   -1133.24678379 Ry
     estimated scf accuracy    <      26.38746748 Ry

[...]

     total energy              =   -1151.43907197 Ry
     estimated scf accuracy    <       0.00000436 Ry

     iteration # 33     ecut=    30.00 Ry     beta= 0.70
     Davidson diagonalization with overlap

     ethr =  8.24E-10,  avg # of iterations =  1.0

     negative rho (up, down):  2.619E-03 0.000E+00

     End of self-consistent calculation

          k = 0.0000 0.0000 0.0000 (  4001 PWs)   bands (ev):

   -64.6702 -64.6658 -64.6647 -64.6601 -38.0591 -38.0219 -38.0204 -37.9825
   -37.9806 -37.9556 -37.9539 -37.9270 -36.2990 -36.2435 -36.2349 -36.1764
   -36.0793 -36.0697 -36.0695 -36.0594 -35.6664 -35.6647 -35.6645 -35.6636
   -11.9463 -11.5373 -11.5292 -11.4569 -11.4170 -11.3920 -11.3332 -11.2469
     1.0517   1.2309   1.5260   1.6073   1.7626   1.8337   2.2202   2.2587
     2.2932   2.3340   2.4069   2.4327   2.4504   2.5411   2.8093   2.9030
     3.3492   3.3643   3.5299   3.6014   3.6718   3.6858   4.1510   4.2354
     5.6073   6.7463   6.8472   6.9721   7.0462   7.4221   7.5028   7.5687
     7.5698   7.6413   7.6449   7.6945   7.7811   7.8152   8.0257   8.3766
     9.1398   9.1916   9.4483   9.5469   9.9039  10.0255  11.2226  11.3152
    11.5194  13.3439  13.3677  13.6633  14.3851  14.4566  15.4554  16.0285
    16.7665  17.1037  17.1660  17.2770  17.4047  17.6072  17.8792  17.9082
    18.3916  18.4776  18.5603  18.7966  18.8637  19.0333  19.6036  19.6241
    19.7329  19.8157  20.1098  20.2871  20.3507  21.6369  21.6943  21.8177
    22.1049  22.4478  22.5104  23.6297  23.7266  23.7918  23.9498  24.6367
    24.6468  24.7888  24.9530  24.9996  25.0314  25.3057  26.6140  26.6670
    26.9880  27.1104  27.5475  27.6654  27.9078  27.9219  27.9507  28.0692
    28.0998  28.1321  29.0288  29.7220  29.8717  29.9947  30.3470  30.6982
    30.7229  31.1449  31.1817  31.2839  31.6769  31.9195  32.0920  32.8106
    32.9090  33.2624  33.2674  33.5173  33.7915  34.2286  34.4937  34.8076
    34.8210  35.1587  35.1737  35.6222  35.6379  35.9809  36.1659  36.1762
    36.2248  36.3243  36.3812  36.5806  36.7815  36.7874  37.6337  37.7758
    37.8325  37.8825  38.2044  38.2658  38.2680  38.7952  38.8834  38.9688
    39.0183  39.0322  39.3516  39.8349  39.8386  40.0584  40.2511  40.2657
    40.5303  40.5506  41.2665  41.6507  42.1037  42.2426  42.3571  42.3905
    43.1338  43.3678  43.5264  43.8551  43.9850  44.1099  44.3921  44.4434
    44.6249  44.8002  44.9855  45.0754  45.1298  45.2370  45.2518  45.4068
    45.5651  45.6846  46.1571  46.4257  46.4292  46.7361  46.7888  46.8060
    46.8823  47.1468  47.3781  48.2333  48.2920  48.3277  48.4786  48.6020
    49.3375  49.7912  49.8262  49.8658  50.1391  50.2498  50.5159  50.5958
    50.6621  50.6858  51.0535  51.2414  51.2506  51.4096  51.5240  51.5949
    51.6765  52.2177  52.6010  52.7307  52.7776  52.7902  52.9651  53.1049

     occupation numbers
     1.0000   1.0000   1.0000   1.0000   1.0000   1.0000   1.0000   1.0000
     1.0000   1.0000   1.0000   1.0000   1.0000   1.0000   1.0000   1.0000
     1.0000   1.0000   1.0000   1.0000   1.0000   1.0000   1.0000   1.0000
     1.0000   1.0000   1.0000   1.0000   1.0000   1.0000   1.0000   1.0000
     1.0000   1.0000   1.0000   1.0000   1.0000   1.0000   1.0000   1.0000
     1.0000   1.0000   1.0000   1.0000   1.0000   1.0000   1.0000   1.0000
     1.0000   1.0000   1.0000   1.0000   1.0000   1.0000   1.0000   1.0000
     1.0000   1.0000   1.0000   1.0000   1.0000   1.0000   1.0000   1.0000
     0.0000   0.0000   0.0000   0.0000   0.0000   0.0000   0.0000   0.0000
     0.0000   0.0000   0.0000   0.0000   0.0000   0.0000   0.0000   0.0000
     0.0000   0.0000   0.0000   0.0000   0.0000   0.0000   0.0000   0.0000
     0.0000   0.0000   0.0000   0.0000   0.0000   0.0000   0.0000   0.0000
     0.0000   0.0000   0.0000   0.0000   0.0000   0.0000   0.0000   0.0000
     0.0000   0.0000   0.0000   0.0000   0.0000   0.0000   0.0000   0.0000
     0.0000   0.0000   0.0000   0.0000   0.0000   0.0000   0.0000   0.0000
     0.0000   0.0000   0.0000   0.0000   0.0000   0.0000   0.0000   0.0000
     0.0000   0.0000   0.0000   0.0000   0.0000   0.0000   0.0000   0.0000
     0.0000   0.0000   0.0000   0.0000   0.0000   0.0000   0.0000   0.0000
     0.0000   0.0000   0.0000   0.0000   0.0000   0.0000   0.0000   0.0000
     0.0000   0.0000   0.0000   0.0000   0.0000   0.0000   0.0000   0.0000
     0.0000   0.0000   0.0000   0.0000   0.0000   0.0000   0.0000   0.0000
     0.0000   0.0000   0.0000   0.0000   0.0000   0.0000   0.0000   0.0000
     0.0000   0.0000   0.0000   0.0000   0.0000   0.0000   0.0000   0.0000
     0.0000   0.0000   0.0000   0.0000   0.0000   0.0000   0.0000   0.0000
     0.0000   0.0000   0.0000   0.0000   0.0000   0.0000   0.0000   0.0000
     0.0000   0.0000   0.0000   0.0000   0.0000   0.0000   0.0000   0.0000
     0.0000   0.0000   0.0000   0.0000   0.0000   0.0000   0.0000   0.0000
     0.0000   0.0000   0.0000   0.0000   0.0000   0.0000   0.0000   0.0000
     0.0000   0.0000   0.0000   0.0000   0.0000   0.0000   0.0000   0.0000
     0.0000   0.0000   0.0000   0.0000   0.0000   0.0000   0.0000   0.0000
     0.0000   0.0000   0.0000   0.0000   0.0000   0.0000   0.0000   0.0000
     0.0000   0.0000   0.0000   0.0000   0.0000   0.0000   0.0000   0.0000

[...]

          k = 0.3333-0.1668-0.1762 (  3990 PWs)   bands (ev):

   -64.6701 -64.6656 -64.6645 -64.6602 -38.0330 -38.0259 -37.9994 -37.9828
   -37.9825 -37.9744 -37.9597 -37.9426 -36.2999 -36.2433 -36.2341 -36.1781
   -36.0803 -36.0699 -36.0676 -36.0584 -35.6706 -35.6676 -35.6584 -35.6565
   -11.7925 -11.6676 -11.5744 -11.4494 -11.4125 -11.3626 -11.3178 -11.2796
     0.9068   1.2516   1.5720   1.6551   1.7379   1.9294   2.1350   2.3179
     2.5146   2.5234   2.5416   2.5617   2.6622   2.7220   2.7259   2.8752
     2.9468   3.0200   3.2793   3.3880   3.5784   3.6199   3.6570   3.8857
     6.2025   6.8474   6.9142   7.2044   7.2093   7.4086   7.5342   7.5652
     7.6055   7.6548   7.6935   7.7485   7.7542   7.8685   8.0411   8.0755
     9.2895   9.5870   9.6027   9.6883  10.2298  10.4385  10.8799  12.2106
    13.0027  13.2722  13.3614  13.8757  13.8880  13.9879  14.3207  16.0257
    16.0837  16.6610  16.7835  16.8026  17.0202  17.1769  17.4211  17.4473
    17.6456  17.6755  18.7456  19.0108  19.0523  19.1198  19.4048  19.8770
    20.0203  20.9631  20.9751  21.2911  21.3239  21.4932  21.5462  21.8137
    22.0819  22.6025  22.7442  22.8712  23.3991  23.7007  24.0728  24.2027
    24.3977  24.5899  24.6831  24.7598  24.7841  25.0234  25.1628  26.3758
    26.9837  27.2902  27.4546  27.7447  28.0123  28.3810  28.5616  28.6478
    28.9249  29.1004  29.3964  29.4205  29.5747  29.7351  30.0169  30.0187
    30.4943  30.5948  31.0873  31.2930  31.9945  32.0784  32.2002  32.4204
    32.4870  32.8173  33.0885  33.3534  33.8920  33.9763  34.0304  34.1171
    34.1868  34.2024  34.4050  35.0623  35.0775  35.7033  35.7451  35.8826
    36.1571  36.3000  36.6421  36.7266  36.8725  37.3198  37.6643  37.7960
    37.9986  38.2815  38.5667  38.7279  39.6380  39.6694  40.0029  40.1426
    40.2806  40.6163  40.6563  40.8168  41.0234  41.8082  41.9245  42.0394
    42.0429  42.1294  42.4355  42.4606  42.7431  43.0706  43.1655  43.3006
    43.3334  43.5674  43.5953  43.7677  43.8970  43.9202  43.9344  44.0320
    44.2956  44.6347  44.8737  45.2214  45.2978  45.5898  45.6258  45.6799
    45.7104  45.8949  45.9474  46.2808  46.3096  46.5002  46.5499  46.6940
    46.8610  46.9469  47.1743  47.2093  47.6036  47.8481  48.2319  48.3345
    48.5737  48.8156  49.0523  49.1147  49.3748  49.3841  49.4491  49.5528
    50.0517  50.1598  50.3441  50.4732  50.5090  50.6981  50.9613  51.0348
    51.2613  51.4535  51.8932  52.2196  52.4176  52.4732  52.8907  53.1394

     occupation numbers
     1.0000   1.0000   1.0000   1.0000   1.0000   1.0000   1.0000   1.0000
     1.0000   1.0000   1.0000   1.0000   1.0000   1.0000   1.0000   1.0000
     1.0000   1.0000   1.0000   1.0000   1.0000   1.0000   1.0000   1.0000
     1.0000   1.0000   1.0000   1.0000   1.0000   1.0000   1.0000   1.0000
     1.0000   1.0000   1.0000   1.0000   1.0000   1.0000   1.0000   1.0000
     1.0000   1.0000   1.0000   1.0000   1.0000   1.0000   1.0000   1.0000
     1.0000   1.0000   1.0000   1.0000   1.0000   1.0000   1.0000   1.0000
     1.0000   1.0000   1.0000   1.0000   1.0000   1.0000   1.0000   1.0000
     0.0000   0.0000   0.0000   0.0000   0.0000   0.0000   0.0000   0.0000
     0.0000   0.0000   0.0000   0.0000   0.0000   0.0000   0.0000   0.0000
     0.0000   0.0000   0.0000   0.0000   0.0000   0.0000   0.0000   0.0000
     0.0000   0.0000   0.0000   0.0000   0.0000   0.0000   0.0000   0.0000
     0.0000   0.0000   0.0000   0.0000   0.0000   0.0000   0.0000   0.0000
     0.0000   0.0000   0.0000   0.0000   0.0000   0.0000   0.0000   0.0000
     0.0000   0.0000   0.0000   0.0000   0.0000   0.0000   0.0000   0.0000
     0.0000   0.0000   0.0000   0.0000   0.0000   0.0000   0.0000   0.0000
     0.0000   0.0000   0.0000   0.0000   0.0000   0.0000   0.0000   0.0000
     0.0000   0.0000   0.0000   0.0000   0.0000   0.0000   0.0000   0.0000
     0.0000   0.0000   0.0000   0.0000   0.0000   0.0000   0.0000   0.0000
     0.0000   0.0000   0.0000   0.0000   0.0000   0.0000   0.0000   0.0000
     0.0000   0.0000   0.0000   0.0000   0.0000   0.0000   0.0000   0.0000
     0.0000   0.0000   0.0000   0.0000   0.0000   0.0000   0.0000   0.0000
     0.0000   0.0000   0.0000   0.0000   0.0000   0.0000   0.0000   0.0000
     0.0000   0.0000   0.0000   0.0000   0.0000   0.0000   0.0000   0.0000
     0.0000   0.0000   0.0000   0.0000   0.0000   0.0000   0.0000   0.0000
     0.0000   0.0000   0.0000   0.0000   0.0000   0.0000   0.0000   0.0000
     0.0000   0.0000   0.0000   0.0000   0.0000   0.0000   0.0000   0.0000
     0.0000   0.0000   0.0000   0.0000   0.0000   0.0000   0.0000   0.0000
     0.0000   0.0000   0.0000   0.0000   0.0000   0.0000   0.0000   0.0000
     0.0000   0.0000   0.0000   0.0000   0.0000   0.0000   0.0000   0.0000
     0.0000   0.0000   0.0000   0.0000   0.0000   0.0000   0.0000   0.0000
     0.0000   0.0000   0.0000   0.0000   0.0000   0.0000   0.0000   0.0000

     highest occupied, lowest unoccupied level (ev):     7.5775    7.5233

!    total energy              =   -1151.43907141 Ry
     estimated scf accuracy    <       0.00000076 Ry

     The total energy is the sum of the following terms:
     one-electron contribution =    -611.39297733 Ry
     hartree contribution      =     342.94461807 Ry
     xc contribution           =    -176.33004530 Ry
     ewald contribution        =    -630.50004662 Ry
     one-center paw contrib.   =     -76.16062023 Ry
      -> PAW hartree energy AE =       0.00000000 Ry
      -> PAW hartree energy PS =       0.00000000 Ry
      -> PAW xc energy AE      =       0.00000000 Ry
      -> PAW xc energy PS      =       0.00000000 Ry
      -> total E_H with PAW    =     342.94461807 Ry
      -> total E_XC with PAW   =    -176.33004530 Ry

     convergence has been achieved in  33 iterations

     Writing all to output data dir bands_nm/myprefix.save/

     General routines

     Parallel routines

     PAW routines

   This run was terminated on:   2:19:21  17Jul2023

   JOB DONE.