     Program PWSCF v.7.1 starts on 14Jul2023 at 18: 4:18

     Reading input from espresso_15002.pwi
Warning: card &CELL ignored
Warning: card / ignored

     Current dimensions of program PWSCF are:
     Max number of different atomic species (ntypx) = 10
     Max number of k-points (npk) =  40000
     Max angular momentum in pseudopotentials (lmaxx) =  4
     file O.pbe-n-kjpaw_psl.0.1.UPF: wavefunction(s)  2P renormalized
     Message from routine setup:
     using ibrav=0 with symmetry is DISCOURAGED, use correct ibrav instead

     K-points division:     npool     =       2
     R & G space division:  proc/nbgrp/npool/nimage =       4
     Subspace diagonalization in iterative solution of the eigenvalue problem:
     a serial algorithm will be used

     Using Slab Decomposition

     bravais-lattice index     =            0
     lattice parameter (alat)  =       8.6510  a.u.
     unit-cell volume          =     517.3873 (a.u.)^3
     number of atoms/cell      =           10
     number of atomic types    =            2
     number of electrons       =        48.00
     number of Kohn-Sham states=           64
     kinetic-energy cutoff     =      30.0000  Ry
     charge density cutoff     =     240.0000  Ry
     scf convergence threshold =      1.0E-06
     mixing beta               =       0.7000
     number of iterations used =            8  plain     mixing
     Exchange-correlation= SLA  PW   PBX  PBC
                           (   1   4   3   4   0   0   0)

     celldm(1)=   8.651040  celldm(2)=   0.000000  celldm(3)=   0.000000
     celldm(4)=   0.000000  celldm(5)=   0.000000  celldm(6)=   0.000000

     crystal axes: (cart. coord. in units of alat)
               a(1) = (   1.000000   0.000000   0.000000 )
               a(2) = (  -0.479775   0.877392   0.000000 )
               a(3) = (   0.000000   0.000000   0.910788 )

     reciprocal axes: (cart. coord. in units 2 pi/alat)
               b(1) = (  1.000000  0.546820  0.000000 )
               b(2) = (  0.000000  1.139742  0.000000 )
               b(3) = (  0.000000  0.000000  1.097950 )

     PseudoPot. # 1 for B  read from file:
     /lustre07/scratch/pragov/crystal_structure_design/utils/SSSP/b_pbe_v1.4.uspp.F.UPF
     MD5 check sum: cc6de2960df11db49a60e589f9ebb39b
     Pseudo is Ultrasoft + core correction, Zval =  3.0
     Generated by new atomic code, or converted to UPF format
     Using radial grid of  781 points,  4 beta functions with:
                l(1) =   0
                l(2) =   0
                l(3) =   1
                l(4) =   1
     Q(r) pseudized with  8 coefficients,  rinner =    1.100   1.100   1.100

     PseudoPot. # 2 for O  read from file:
     /lustre07/scratch/pragov/crystal_structure_design/utils/SSSP/O.pbe-n-kjpaw_psl.0.1.UPF
     MD5 check sum: 0234752ac141de4415c5fc33072bef88
     Pseudo is Projector augmented-wave + core cor, Zval =  6.0
     Generated using "atomic" code by A. Dal Corso  v.5.0.99 svn rev. 10869
     Shape of augmentation charge: BESSEL
     Using radial grid of 1095 points,  4 beta functions with:
                l(1) =   0
                l(2) =   0
                l(3) =   1
                l(4) =   1
     Q(r) pseudized with 0 coefficients

     atomic species   valence    mass     pseudopotential
        B              3.00    10.81000     B ( 1.00)
        O              6.00    15.99900     O ( 1.00)

      2 Sym. Ops. (no inversion) found ( 1 have fractional translation)

                                    s                        frac. trans.

      isym =  1     identity

 cryst.   s( 1) = (     1          0          0      )
                  (     0          1          0      )
                  (     0          0          1      )

 cart.    s( 1) = (  1.0000000  0.0000000  0.0000000 )
                  (  0.0000000  1.0000000  0.0000000 )
                  (  0.0000000  0.0000000  1.0000000 )

      isym =  2     180 deg rotation - cart. axis [0,0,1]

 cryst.   s( 2) = (    -1          0          0      )    f =( -0.0000000 )
                  (     0         -1          0      )       ( -0.0000000 )
                  (     0          0          1      )       ( -0.5000000 )

 cart.    s( 2) = ( -1.0000000  0.0000000  0.0000000 )    f =(  0.0000000 )
                  (  0.0000000 -1.0000000  0.0000000 )       ( -0.0000000 )
                  (  0.0000000  0.0000000  1.0000000 )       ( -0.4553940 )

   Cartesian axes

     site n.     atom                  positions (alat units)
         1           B   tau(   1) = (   0.0976314   0.7225828   0.5169004  )
         2           B   tau(   2) = (   0.4225935   0.1548087   0.0615064  )
         3           B   tau(   3) = (  -0.0669220   0.4450533   0.0615064  )
         4           B   tau(   4) = (   0.5871469   0.4323382   0.5169004  )
         5           O   tau(   5) = (   0.3852666   0.6497760   0.4588058  )
         6           O   tau(   6) = (   0.1349583   0.2276155   0.0034118  )
         7           O   tau(   7) = (   0.5053907   0.1401765   0.3797048  )
         8           O   tau(   8) = (   0.0148342   0.7372151   0.8350988  )
         9           O   tau(   9) = (   0.6397092   0.3667128   0.8350988  )
        10           O   tau(  10) = (  -0.1194842   0.5106787   0.3797048  )

   Crystallographic axes

     site n.     atom                  positions (cryst. coord.)
         1           B   tau(   1) = (  0.4927540  0.8235580  0.5675310  )
         2           B   tau(   2) = (  0.5072460  0.1764420  0.0675310  )
         3           B   tau(   3) = (  0.1764420  0.5072460  0.0675310  )
         4           B   tau(   4) = (  0.8235580  0.4927540  0.5675310  )
         5           O   tau(   5) = (  0.7405770  0.7405770  0.5037460  )
         6           O   tau(   6) = (  0.2594230  0.2594230  0.0037460  )
         7           O   tau(   7) = (  0.5820420  0.1597650  0.4168970  )
         8           O   tau(   8) = (  0.4179580  0.8402350  0.9168970  )
         9           O   tau(   9) = (  0.8402350  0.4179580  0.9168970  )
        10           O   tau(  10) = (  0.1597650  0.5820420  0.4168970  )

     number of k points=    10
                       cart. coord. in units 2pi/alat
        k(    1) = (   0.0000000   0.0000000   0.0000000), wk =   0.0740741
        k(    2) = (   0.0000000   0.0000000   0.3659834), wk =   0.1481481
        k(    3) = (   0.0000000   0.3799140   0.0000000), wk =   0.1481481
        k(    4) = (   0.0000000   0.3799140   0.3659834), wk =   0.2962963
        k(    5) = (   0.3333333   0.1822733   0.0000000), wk =   0.1481481
        k(    6) = (   0.3333333   0.1822733   0.3659834), wk =   0.2962963
        k(    7) = (   0.3333333   0.5621873   0.0000000), wk =   0.1481481
        k(    8) = (   0.3333333   0.5621873   0.3659834), wk =   0.2962963
        k(    9) = (   0.3333333  -0.1976407   0.0000000), wk =   0.1481481
        k(   10) = (   0.3333333  -0.1976407   0.3659834), wk =   0.2962963

                       cryst. coord.
        k(    1) = (   0.0000000   0.0000000   0.0000000), wk =   0.0740741
        k(    2) = (   0.0000000   0.0000000   0.3333333), wk =   0.1481481
        k(    3) = (   0.0000000   0.3333333   0.0000000), wk =   0.1481481
        k(    4) = (   0.0000000   0.3333333   0.3333333), wk =   0.2962963
        k(    5) = (   0.3333333   0.0000000   0.0000000), wk =   0.1481481
        k(    6) = (   0.3333333   0.0000000   0.3333333), wk =   0.2962963
        k(    7) = (   0.3333333   0.3333333   0.0000000), wk =   0.1481481
        k(    8) = (   0.3333333   0.3333333   0.3333333), wk =   0.2962963
        k(    9) = (   0.3333333  -0.3333333   0.0000000), wk =   0.1481481
        k(   10) = (   0.3333333  -0.3333333   0.3333333), wk =   0.2962963

     Check: negative core charge=   -0.000016

     Initial potential from superposition of free atoms

     starting charge      47.9989, renormalised to      48.0000
     Starting wfcs are   40 randomized atomic wfcs +   24 random wfcs
     Checking if some PAW data can be deallocated...

     Self-consistent Calculation

     iteration #  1     ecut=    30.00 Ry     beta= 0.70
     Davidson diagonalization with overlap

     ethr =  1.00E-02,  avg # of iterations =  6.3

     total energy              =    -275.67034153 Ry
     estimated scf accuracy    <       1.06628740 Ry

[...]

     total energy              =    -276.04403147 Ry
     estimated scf accuracy    <       0.00001777 Ry

     iteration #  6     ecut=    30.00 Ry     beta= 0.70
     Davidson diagonalization with overlap

     ethr =  3.70E-08,  avg # of iterations =  5.1

     End of self-consistent calculation

          k = 0.0000 0.0000 0.0000 (  1435 PWs)   bands (ev):

   -16.3855 -13.5735 -13.4534 -13.2385 -12.4174 -12.2989  -4.1599  -3.9557
    -3.7310  -2.1145  -1.5728  -1.0324  -0.1325   0.0449   0.8973   1.6381
     3.7972   3.8559   4.0732   4.1959   4.2558   5.0087   5.3232   5.4044
    13.8775  14.7757  15.2928  15.7801  16.0792  17.2538  17.5910  18.0673
    18.5320  18.8396  19.2860  19.3612  19.5841  20.2858  20.8341  21.9358
    22.0769  23.5593  23.8388  25.6992  26.2160  26.2249  27.1688  27.3512
    27.7162  28.2058  28.5562  29.4965  30.7470  31.8657  32.5147  34.2484
    34.2484  34.2918  34.5238  34.6326  35.9533  36.4002  37.2816  37.6989

     occupation numbers
     1.0000   1.0000   1.0000   1.0000   1.0000   1.0000   1.0000   1.0000
     1.0000   1.0000   1.0000   1.0000   1.0000   1.0000   1.0000   1.0000
     1.0000   1.0000   1.0000   1.0000   1.0000   1.0000   1.0000   1.0000
     0.0000   0.0000   0.0000   0.0000   0.0000   0.0000   0.0000   0.0000
     0.0000   0.0000   0.0000   0.0000   0.0000   0.0000   0.0000   0.0000
     0.0000   0.0000   0.0000   0.0000   0.0000   0.0000   0.0000   0.0000
     0.0000   0.0000   0.0000   0.0000   0.0000   0.0000   0.0000   0.0000
     0.0000   0.0000   0.0000   0.0000   0.0000   0.0000   0.0000   0.0000

[...]

          k = 0.3333-0.1976 0.3660 (  1439 PWs)   bands (ev):

   -15.5933 -14.3107 -13.5943 -13.4182 -12.6470 -12.5099  -3.9532  -3.8031
    -2.6608  -1.7021  -0.9971  -0.4717  -0.1515   0.4017   0.8947   1.1260
     2.6061   2.8778   3.8248   4.1178   4.3687   4.6285   5.2455   5.2632
    14.6544  14.8292  15.3500  15.5396  16.1952  16.9216  17.5271  17.8898
    18.5535  18.8791  19.2093  20.0110  20.7238  20.9175  21.5386  21.7437
    23.0181  23.0836  23.6444  23.9498  24.7390  24.8207  25.6895  26.1088
    28.7008  28.9326  29.3508  30.1288  31.1756  31.5417  32.8602  33.4652
    33.6693  34.3523  34.9199  34.9646  36.6312  36.9155  37.3492  38.3943

     occupation numbers
     1.0000   1.0000   1.0000   1.0000   1.0000   1.0000   1.0000   1.0000
     1.0000   1.0000   1.0000   1.0000   1.0000   1.0000   1.0000   1.0000
     1.0000   1.0000   1.0000   1.0000   1.0000   1.0000   1.0000   1.0000
     0.0000   0.0000   0.0000   0.0000   0.0000   0.0000   0.0000   0.0000
     0.0000   0.0000   0.0000   0.0000   0.0000   0.0000   0.0000   0.0000
     0.0000   0.0000   0.0000   0.0000   0.0000   0.0000   0.0000   0.0000
     0.0000   0.0000   0.0000   0.0000   0.0000   0.0000   0.0000   0.0000
     0.0000   0.0000   0.0000   0.0000   0.0000   0.0000   0.0000   0.0000

     highest occupied, lowest unoccupied level (ev):     5.6060   13.8775

!    total energy              =    -276.04403912 Ry
     estimated scf accuracy    <       0.00000062 Ry

     The total energy is the sum of the following terms:
     one-electron contribution =     -64.19616634 Ry
     hartree contribution      =      62.09009701 Ry
     xc contribution           =     -57.18076445 Ry
     ewald contribution        =    -159.74204138 Ry
     one-center paw contrib.   =     -57.01516395 Ry
      -> PAW hartree energy AE =       0.00000000 Ry
      -> PAW hartree energy PS =       0.00000000 Ry
      -> PAW xc energy AE      =       0.00000000 Ry
      -> PAW xc energy PS      =       0.00000000 Ry
      -> total E_H with PAW    =      62.09009701 Ry
      -> total E_XC with PAW   =     -57.18076445 Ry

     convergence has been achieved in   6 iterations

     Writing all to output data dir bands_nm/myprefix.save/

     General routines

     Parallel routines

     PAW routines

   This run was terminated on:  18: 4:21  14Jul2023

   JOB DONE.