     Program PWSCF v.7.1 starts on 15Jul2023 at 21:15:57

     Reading input from espresso_736.pwi
Warning: card &CELL ignored
Warning: card / ignored

     Current dimensions of program PWSCF are:
     Max number of different atomic species (ntypx) = 10
     Max number of k-points (npk) =  40000
     Max angular momentum in pseudopotentials (lmaxx) =  4
     Message from routine setup:
     using ibrav=0 with symmetry is DISCOURAGED, use correct ibrav instead

     K-points division:     npool     =       2
     R & G space division:  proc/nbgrp/npool/nimage =       4
     Subspace diagonalization in iterative solution of the eigenvalue problem:
     one sub-group per band group will be used

     Using Slab Decomposition

     bravais-lattice index     =            0
     lattice parameter (alat)  =      12.3656  a.u.
     unit-cell volume          =    2731.2160 (a.u.)^3
     number of atoms/cell      =           20
     number of atomic types    =            3
     number of electrons       =       184.00
     number of Kohn-Sham states=          256
     kinetic-energy cutoff     =      30.0000  Ry
     charge density cutoff     =     240.0000  Ry
     scf convergence threshold =      1.0E-06
     mixing beta               =       0.7000
     number of iterations used =            8  plain     mixing
     Exchange-correlation=  SLA  PW   PBX  PBC
                           (   1   4   3   4   0   0   0)

     celldm(1)=  12.365612  celldm(2)=   0.000000  celldm(3)=   0.000000
     celldm(4)=   0.000000  celldm(5)=   0.000000  celldm(6)=   0.000000

     crystal axes: (cart. coord. in units of alat)
               a(1) = (   1.000000   0.000000   0.000000 )
               a(2) = (   0.000000   1.000000   0.000000 )
               a(3) = (   0.000000   0.000000   1.444472 )

     reciprocal axes: (cart. coord. in units 2 pi/alat)
               b(1) = (  1.000000  0.000000  0.000000 )
               b(2) = (  0.000000  1.000000  0.000000 )
               b(3) = (  0.000000  0.000000  0.692294 )

     PseudoPot. # 1 for Sc read from file:
     /lustre07/scratch/pragov/crystal_structure_design/utils/SSSP/Sc_ONCV_PBE-1.0.oncvpsp.upf
     MD5 check sum: e21af8023abb52e52cb7cd3133e4a229
     Pseudo is Norm-conserving, Zval = 11.0
     Generated using ONCVPSP code by D. R. Hamann
     Using radial grid of 1662 points,  6 beta functions with:
                l(1) =   0
                l(2) =   0
                l(3) =   1
                l(4) =   1
                l(5) =   2
                l(6) =   2

     PseudoPot. # 2 for Tl read from file:
     /lustre07/scratch/pragov/crystal_structure_design/utils/SSSP/Tl_pbe_v1.2.uspp.F.UPF
     MD5 check sum: b76cf1f7e72655a2b2c53cf6385d7059
     Pseudo is Ultrasoft + core correction, Zval = 13.0
     Generated by new atomic code, or converted to UPF format
     Using radial grid of  899 points,  6 beta functions with:
                l(1) =   0
                l(2) =   0
                l(3) =   1
                l(4) =   1
                l(5) =   2
                l(6) =   2
     Q(r) pseudized with  6 coefficients,  rinner =    1.100   1.100   1.100
                                                       1.100   1.100

     PseudoPot. # 3 for F  read from file:
     /lustre07/scratch/pragov/crystal_structure_design/utils/SSSP/f_pbe_v1.4.uspp.F.UPF
     MD5 check sum: 4c38b6a325caf53ec0e86aed9459de46
     Pseudo is Ultrasoft, Zval =  7.0
     Generated by new atomic code, or converted to UPF format
     Using radial grid of  799 points,  4 beta functions with:
                l(1) =   0
                l(2) =   0
                l(3) =   1
                l(4) =   1
     Q(r) pseudized with  8 coefficients,  rinner =    0.950   0.950   0.950

     atomic species   valence    mass     pseudopotential
        Sc            11.00    44.95591     Sc( 1.00)
        Tl            13.00   204.38000     Tl( 1.00)
        F              7.00    18.99840     F ( 1.00)

     16 Sym. Ops., with inversion, found ( 8 have fractional translation)

                                    s                        frac. trans.

      isym =  1     identity

 cryst.   s( 1) = (     1          0          0      )
                  (     0          1          0      )
                  (     0          0          1      )

 cart.    s( 1) = (  1.0000000  0.0000000  0.0000000 )
                  (  0.0000000  1.0000000  0.0000000 )
                  (  0.0000000  0.0000000  1.0000000 )

      isym =  2     180 deg rotation - cart. axis [0,0,1]

[...]

 cryst.   s( 3) = (    -1          0          0      )    f =(  0.5000000 )
                  (     0          1          0      )       ( -0.5000000 )
                  (     0          0         -1      )       ( -0.5000000 )

 cart.    s( 3) = ( -1.0000000  0.0000000  0.0000000 )    f =(  0.5000000 )
                  (  0.0000000  1.0000000  0.0000000 )       ( -0.5000000 )
                  (  0.0000000  0.0000000 -1.0000000 )       ( -0.7222362 )

[...]

 cryst.   s( 6) = (     0         -1          0      )    f =(  0.5000000 )
                  (    -1          0          0      )       (  0.5000000 )
                  (     0          0         -1      )       ( -0.5000000 )

 cart.    s( 6) = (  0.0000000 -1.0000000  0.0000000 )    f =(  0.5000000 )
                  ( -1.0000000  0.0000000  0.0000000 )       (  0.5000000 )
                  (  0.0000000  0.0000000 -1.0000000 )       ( -0.7222362 )

[...]

      isym =  8      90 deg rotation - cart. axis [0,0,1]

[...]

      isym =  9     inversion

 cryst.   s( 9) = (    -1          0          0      )
                  (     0         -1          0      )
                  (     0          0         -1      )

 cart.    s( 9) = ( -1.0000000  0.0000000  0.0000000 )
                  (  0.0000000 -1.0000000  0.0000000 )
                  (  0.0000000  0.0000000 -1.0000000 )

      isym = 10     inv. 180 deg rotation - cart. axis [0,0,1]

 cryst.   s(10) = (     1          0          0      )
                  (     0          1          0      )
                  (     0          0         -1      )

 cart.    s(10) = (  1.0000000  0.0000000  0.0000000 )
                  (  0.0000000  1.0000000  0.0000000 )
                  (  0.0000000  0.0000000 -1.0000000 )

[...]

 cryst.   s(11) = (     1          0          0      )    f =( -0.5000000 )
                  (     0         -1          0      )       (  0.5000000 )
                  (     0          0          1      )       (  0.5000000 )

 cart.    s(11) = (  1.0000000  0.0000000  0.0000000 )    f =( -0.5000000 )
                  (  0.0000000 -1.0000000  0.0000000 )       (  0.5000000 )
                  (  0.0000000  0.0000000  1.0000000 )       (  0.7222362 )

[...]

 cryst.   s(14) = (     0          1          0      )    f =( -0.5000000 )
                  (     1          0          0      )       ( -0.5000000 )
                  (     0          0          1      )       (  0.5000000 )

 cart.    s(14) = (  0.0000000  1.0000000  0.0000000 )    f =( -0.5000000 )
                  (  1.0000000  0.0000000  0.0000000 )       ( -0.5000000 )
                  (  0.0000000  0.0000000  1.0000000 )       (  0.7222362 )

[...]

      isym = 16     inv.  90 deg rotation - cart. axis [0,0,1]

 cryst.   s(16) = (     0         -1          0      )
                  (     1          0          0      )
                  (     0          0         -1      )

 cart.    s(16) = (  0.0000000  1.0000000  0.0000000 )
                  ( -1.0000000  0.0000000  0.0000000 )
                  (  0.0000000  0.0000000 -1.0000000 )

   Cartesian axes

     site n.     atom                  positions (alat units)
         1           Sc  tau(   1) = (   0.0000000   0.0000000   0.0000000  )
         2           Sc  tau(   2) = (   0.5000000   0.5000000   0.7222362  )
         3           Tl  tau(   3) = (   0.0000000   0.5000000   0.3611181  )
         4           Tl  tau(   4) = (   0.0000000   0.5000000   1.0833542  )
         5           Tl  tau(   5) = (   0.5000000   0.0000000   0.3611181  )
         6           Tl  tau(   6) = (   0.5000000   0.0000000   1.0833542  )
         7           Tl  tau(   7) = (   0.0000000   0.0000000   0.7222362  )
         8           Tl  tau(   8) = (   0.5000000   0.5000000   0.0000000  )
         9           F   tau(   9) = (   0.1416790   0.2781000   0.0000000  )
        10           F   tau(  10) = (   0.8583210   0.7219000   0.0000000  )
        11           F   tau(  11) = (   0.7219000   0.1416790   0.0000000  )
        12           F   tau(  12) = (   0.3583210   0.7781000   0.7222362  )
        13           F   tau(  13) = (   0.2781000   0.8583210   0.0000000  )
        14           F   tau(  14) = (   0.6416790   0.2219000   0.7222362  )
        15           F   tau(  15) = (   0.7781000   0.6416790   0.7222362  )
        16           F   tau(  16) = (   0.2219000   0.3583210   0.7222362  )
        17           F   tau(  17) = (   0.0000000   0.0000000   0.3119540  )
        18           F   tau(  18) = (   0.0000000   0.0000000   1.1325183  )
        19           F   tau(  19) = (   0.5000000   0.5000000   0.4102821  )
        20           F   tau(  20) = (   0.5000000   0.5000000   1.0341902  )

   Crystallographic axes

     site n.     atom                  positions (cryst. coord.)
         1           Sc  tau(   1) = (  0.0000000  0.0000000  0.0000000  )
         2           Sc  tau(   2) = (  0.5000000  0.5000000  0.5000000  )
         3           Tl  tau(   3) = (  0.0000000  0.5000000  0.2500000  )
         4           Tl  tau(   4) = (  0.0000000  0.5000000  0.7500000  )
         5           Tl  tau(   5) = (  0.5000000  0.0000000  0.2500000  )
         6           Tl  tau(   6) = (  0.5000000  0.0000000  0.7500000  )
         7           Tl  tau(   7) = (  0.0000000  0.0000000  0.5000000  )
         8           Tl  tau(   8) = (  0.5000000  0.5000000  0.0000000  )
         9           F   tau(   9) = (  0.1416790  0.2781000  0.0000000  )
        10           F   tau(  10) = (  0.8583210  0.7219000  0.0000000  )
        11           F   tau(  11) = (  0.7219000  0.1416790  0.0000000  )
        12           F   tau(  12) = (  0.3583210  0.7781000  0.5000000  )
        13           F   tau(  13) = (  0.2781000  0.8583210  0.0000000  )
        14           F   tau(  14) = (  0.6416790  0.2219000  0.5000000  )
        15           F   tau(  15) = (  0.7781000  0.6416790  0.5000000  )
        16           F   tau(  16) = (  0.2219000  0.3583210  0.5000000  )
        17           F   tau(  17) = (  0.0000000  0.0000000  0.2159640  )
        18           F   tau(  18) = (  0.0000000  0.0000000  0.7840360  )
        19           F   tau(  19) = (  0.5000000  0.5000000  0.2840360  )
        20           F   tau(  20) = (  0.5000000  0.5000000  0.7159640  )

     number of k points=     6
                       cart. coord. in units 2pi/alat
        k(    1) = (   0.0000000   0.0000000   0.0000000), wk =   0.0740741
        k(    2) = (   0.0000000   0.0000000   0.2307648), wk =   0.1481481
        k(    3) = (   0.0000000   0.3333333   0.0000000), wk =   0.2962963
        k(    4) = (   0.0000000   0.3333333   0.2307648), wk =   0.5925926
        k(    5) = (   0.3333333   0.3333333   0.0000000), wk =   0.2962963
        k(    6) = (   0.3333333   0.3333333   0.2307648), wk =   0.5925926

                       cryst. coord.
        k(    1) = (   0.0000000   0.0000000   0.0000000), wk =   0.0740741
        k(    2) = (   0.0000000   0.0000000   0.3333333), wk =   0.1481481
        k(    3) = (   0.0000000   0.3333333   0.0000000), wk =   0.2962963
        k(    4) = (   0.0000000   0.3333333   0.3333333), wk =   0.5925926
        k(    5) = (   0.3333333   0.3333333   0.0000000), wk =   0.2962963
        k(    6) = (   0.3333333   0.3333333   0.3333333), wk =   0.5925926

     Check: negative core charge=   -0.000006

     Initial potential from superposition of free atoms

     starting charge     183.9655, renormalised to     184.0000

     negative rho (up, down):  3.073E-01 0.000E+00
     Starting wfcs are  122 randomized atomic wfcs +  134 random wfcs

     Self-consistent Calculation

     iteration #  1     ecut=    30.00 Ry     beta= 0.70
     Davidson diagonalization with overlap

     ethr =  1.00E-02,  avg # of iterations =  7.2

     negative rho (up, down):  3.069E-01 0.000E+00

     total energy              =   -1637.26657667 Ry
     estimated scf accuracy    <       3.08174978 Ry

[...]

     total energy              =   -1638.68478945 Ry
     estimated scf accuracy    <       0.00000208 Ry

     iteration #  9     ecut=    30.00 Ry     beta= 0.70
     Davidson diagonalization with overlap

     ethr =  1.13E-09,  avg # of iterations =  2.0

     negative rho (up, down):  3.034E-01 0.000E+00

     End of self-consistent calculation

          k = 0.0000 0.0000 0.0000 (  7579 PWs)   bands (ev):

   -43.6970 -43.6970 -22.5255 -22.5249 -22.5171 -22.5171 -22.5170 -22.5170
   -17.3083 -17.2822 -17.1501 -17.1325 -17.1318 -17.1287 -16.8019 -16.7981
   -16.7783 -16.7783 -16.7772 -16.7772  -5.5796  -5.5703  -5.5440  -5.5405
    -5.5327  -5.5286  -5.5284  -5.5283  -5.5262  -5.5262  -5.5241  -5.5241
    -5.4862  -5.4862  -5.4773  -5.4744  -5.4523  -5.4507  -5.4507  -5.4400
    -4.8795  -4.8743  -4.8704  -4.8704  -4.8660  -4.8660  -4.8649  -4.8621
    -4.8621  -4.8620  -1.0011  -0.6939  -0.5245  -0.2822   0.2641   0.4184
     0.4361   0.4998   0.4998   0.5939   0.6981   0.7466   0.7842   0.7919
     0.8009   0.8009   0.8375   0.8375   1.0257   1.0257   1.0704   1.3661
     1.3661   1.5140   1.5949   1.6754   1.6754   1.7011   1.7938   1.7938
     1.8121   1.8399   1.8399   1.9524   1.9524   2.0406   2.0406   2.0660
     2.4888   2.7715   2.9939   3.3879   7.6955   7.6955   8.6310   8.6310
     8.6717   9.1598   9.1598   9.2905   9.3045   9.3413   9.3413   9.4601
     9.4713   9.4713   9.5947  10.3275  10.3627  10.3627  10.5410  11.0453
    11.0453  11.5537  11.5671  11.5671  11.5825  11.6237  11.7799  11.8100
    13.4408  13.8392  14.0777  14.6550  14.7327  15.4168  16.1519  16.1519
    16.1722  16.1943  16.1943  16.3480  17.1489  17.1947  17.1947  18.2236
    18.3006  18.3968  18.3968  18.5888  18.8236  18.8582  19.1412  19.1412
    19.3173  19.9407  20.2347  20.2347  20.3203  20.3203  20.3330  20.5987
    20.5987  20.7928  20.7928  21.2293  21.2651  21.2657  21.5804  21.6893
    21.9620  22.0403  22.0947  22.2391  22.2391  22.3156  22.4403  22.6196
    22.7062  22.7651  22.9032  22.9032  23.4053  23.6708  23.6708  23.6996
    23.8440  23.8440  23.9945  24.1835  24.4718  24.4718  24.6156  24.6318
    24.8453  24.8453  25.0342  25.0342  25.1070  25.3587  25.3587  25.8446
    26.1269  26.1475  26.2053  26.2053  26.2395  27.0486  27.2167  27.2168
    27.3231  27.4515  27.4833  27.4833  27.7650  27.8226  27.9746  27.9746
    28.1268  28.1268  28.7928  28.8400  28.9112  28.9112  28.9149  29.4923
    29.5995  29.8155  29.8155  29.9311  29.9831  29.9831  30.2849  31.0269
    31.0269  31.0759  31.2554  31.6007  31.6461  31.8160  31.8999  32.3297
    32.3297  32.3297  32.3297  32.6625  32.7434  32.7921  32.7921  32.8618
    33.5180  33.5180  33.6687  33.8041  33.8041  33.9268  34.1483  34.3934
    34.5206  34.6511  34.6609  34.6609  34.7287  35.0488  35.0491  35.1219

     occupation numbers
     1.0000   1.0000   1.0000   1.0000   1.0000   1.0000   1.0000   1.0000
     1.0000   1.0000   1.0000   1.0000   1.0000   1.0000   1.0000   1.0000
     1.0000   1.0000   1.0000   1.0000   1.0000   1.0000   1.0000   1.0000
     1.0000   1.0000   1.0000   1.0000   1.0000   1.0000   1.0000   1.0000
     1.0000   1.0000   1.0000   1.0000   1.0000   1.0000   1.0000   1.0000
     1.0000   1.0000   1.0000   1.0000   1.0000   1.0000   1.0000   1.0000
     1.0000   1.0000   1.0000   1.0000   1.0000   1.0000   1.0000   1.0000
     1.0000   1.0000   1.0000   1.0000   1.0000   1.0000   1.0000   1.0000
     1.0000   1.0000   1.0000   1.0000   1.0000   1.0000   1.0000   1.0000
     1.0000   1.0000   1.0000   1.0000   1.0000   1.0000   1.0000   1.0000
     1.0000   1.0000   1.0000   1.0000   1.0000   1.0000   1.0000   1.0000
     1.0000   1.0000   1.0000   1.0000   0.0000   0.0000   0.0000   0.0000
     0.0000   0.0000   0.0000   0.0000   0.0000   0.0000   0.0000   0.0000
     0.0000   0.0000   0.0000   0.0000   0.0000   0.0000   0.0000   0.0000
     0.0000   0.0000   0.0000   0.0000   0.0000   0.0000   0.0000   0.0000
     0.0000   0.0000   0.0000   0.0000   0.0000   0.0000   0.0000   0.0000
     0.0000   0.0000   0.0000   0.0000   0.0000   0.0000   0.0000   0.0000
     0.0000   0.0000   0.0000   0.0000   0.0000   0.0000   0.0000   0.0000
     0.0000   0.0000   0.0000   0.0000   0.0000   0.0000   0.0000   0.0000
     0.0000   0.0000   0.0000   0.0000   0.0000   0.0000   0.0000   0.0000
     0.0000   0.0000   0.0000   0.0000   0.0000   0.0000   0.0000   0.0000
     0.0000   0.0000   0.0000   0.0000   0.0000   0.0000   0.0000   0.0000
     0.0000   0.0000   0.0000   0.0000   0.0000   0.0000   0.0000   0.0000
     0.0000   0.0000   0.0000   0.0000   0.0000   0.0000   0.0000   0.0000
     0.0000   0.0000   0.0000   0.0000   0.0000   0.0000   0.0000   0.0000
     0.0000   0.0000   0.0000   0.0000   0.0000   0.0000   0.0000   0.0000
     0.0000   0.0000   0.0000   0.0000   0.0000   0.0000   0.0000   0.0000
     0.0000   0.0000   0.0000   0.0000   0.0000   0.0000   0.0000   0.0000
     0.0000   0.0000   0.0000   0.0000   0.0000   0.0000   0.0000   0.0000
     0.0000   0.0000   0.0000   0.0000   0.0000   0.0000   0.0000   0.0000
     0.0000   0.0000   0.0000   0.0000   0.0000   0.0000   0.0000   0.0000
     0.0000   0.0000   0.0000   0.0000   0.0000   0.0000   0.0000   0.0000

[...]

          k = 0.3333 0.3333 0.2308 (  7579 PWs)   bands (ev):

   -43.6970 -43.6970 -22.5252 -22.5251 -22.5175 -22.5174 -22.5174 -22.5173
   -17.2786 -17.2750 -17.1325 -17.1294 -17.1231 -17.1222 -16.8066 -16.8064
   -16.7938 -16.7927 -16.7922 -16.7914  -5.5619  -5.5583  -5.5507  -5.5504
    -5.5466  -5.5463  -5.5455  -5.5443  -5.5284  -5.5284  -5.5220  -5.5216
    -5.4758  -5.4750  -5.4701  -5.4676  -5.4615  -5.4613  -5.4567  -5.4536
    -4.8733  -4.8716  -4.8715  -4.8699  -4.8672  -4.8658  -4.8625  -4.8619
    -4.8581  -4.8580  -0.6919  -0.6392  -0.4895  -0.4313  -0.3361  -0.2872
     0.3950   0.3980   0.4560   0.4959   0.7070   0.7256   0.8348   0.9042
     0.9361   0.9722   1.0105   1.1026   1.1299   1.1309   1.2458   1.3641
     1.4456   1.4576   1.5388   1.5580   1.6249   1.6418   1.6914   1.7452
     1.9186   1.9308   1.9344   1.9674   2.0540   2.0685   2.5012   2.5428
     2.5491   2.5777   3.2456   3.2679   7.3998   7.4591   7.9955   8.2603
     8.4750   8.7496   8.8296   9.1311   9.4124   9.4214   9.4612   9.4844
     9.4914   9.5560   9.6785   9.8347  10.0295  10.1870  10.9125  11.0330
    11.1657  11.2743  11.4545  11.7599  11.8920  11.9846  12.1978  12.2431
    14.3535  14.5769  14.6303  14.9397  15.5267  15.6961  15.8387  16.1039
    16.2158  16.3328  16.5505  16.7919  17.0303  17.0633  17.2340  17.4376
    17.4564  17.7313  17.7776  17.9961  18.0177  18.2528  18.7096  18.8613
    18.9141  19.0476  19.0605  19.2764  20.0011  20.1060  20.1204  20.2255
    20.4938  20.6843  20.8217  20.9418  21.0881  21.1516  21.3357  21.5127
    21.9981  22.1085  22.1606  22.3814  22.7587  22.8045  22.9183  22.9243
    23.1344  23.3399  23.3804  23.4730  23.6490  23.8596  24.0368  24.2107
    24.2508  24.2852  24.4176  24.4568  24.5679  24.8573  24.8960  25.1353
    25.2712  25.3427  25.4765  25.7154  25.8198  25.9656  26.2778  26.4532
    26.6087  26.6334  26.7544  27.0649  27.2396  27.3438  27.3762  27.4796
    27.5441  27.8505  27.8583  27.9947  28.1418  28.1878  28.3023  28.3559
    28.6155  28.6214  28.8131  28.9369  28.9932  29.0515  29.2400  29.4076
    29.4957  29.7403  29.7689  29.9132  30.0007  30.0414  30.3058  30.3216
    30.5476  30.7163  30.7990  31.0686  31.0786  31.1539  31.3254  31.3670
    31.4746  31.5894  31.8468  31.8915  31.9002  32.1055  32.1842  32.2367
    32.4543  32.5361  32.6526  32.6788  32.7045  33.0155  33.0476  33.2780
    33.4546  33.5189  33.6529  33.7150  33.8089  34.0396  34.0862  34.2143

     occupation numbers
     1.0000   1.0000   1.0000   1.0000   1.0000   1.0000   1.0000   1.0000
     1.0000   1.0000   1.0000   1.0000   1.0000   1.0000   1.0000   1.0000
     1.0000   1.0000   1.0000   1.0000   1.0000   1.0000   1.0000   1.0000
     1.0000   1.0000   1.0000   1.0000   1.0000   1.0000   1.0000   1.0000
     1.0000   1.0000   1.0000   1.0000   1.0000   1.0000   1.0000   1.0000
     1.0000   1.0000   1.0000   1.0000   1.0000   1.0000   1.0000   1.0000
     1.0000   1.0000   1.0000   1.0000   1.0000   1.0000   1.0000   1.0000
     1.0000   1.0000   1.0000   1.0000   1.0000   1.0000   1.0000   1.0000
     1.0000   1.0000   1.0000   1.0000   1.0000   1.0000   1.0000   1.0000
     1.0000   1.0000   1.0000   1.0000   1.0000   1.0000   1.0000   1.0000
     1.0000   1.0000   1.0000   1.0000   1.0000   1.0000   1.0000   1.0000
     1.0000   1.0000   1.0000   1.0000   0.0000   0.0000   0.0000   0.0000
     0.0000   0.0000   0.0000   0.0000   0.0000   0.0000   0.0000   0.0000
     0.0000   0.0000   0.0000   0.0000   0.0000   0.0000   0.0000   0.0000
     0.0000   0.0000   0.0000   0.0000   0.0000   0.0000   0.0000   0.0000
     0.0000   0.0000   0.0000   0.0000   0.0000   0.0000   0.0000   0.0000
     0.0000   0.0000   0.0000   0.0000   0.0000   0.0000   0.0000   0.0000
     0.0000   0.0000   0.0000   0.0000   0.0000   0.0000   0.0000   0.0000
     0.0000   0.0000   0.0000   0.0000   0.0000   0.0000   0.0000   0.0000
     0.0000   0.0000   0.0000   0.0000   0.0000   0.0000   0.0000   0.0000
     0.0000   0.0000   0.0000   0.0000   0.0000   0.0000   0.0000   0.0000
     0.0000   0.0000   0.0000   0.0000   0.0000   0.0000   0.0000   0.0000
     0.0000   0.0000   0.0000   0.0000   0.0000   0.0000   0.0000   0.0000
     0.0000   0.0000   0.0000   0.0000   0.0000   0.0000   0.0000   0.0000
     0.0000   0.0000   0.0000   0.0000   0.0000   0.0000   0.0000   0.0000
     0.0000   0.0000   0.0000   0.0000   0.0000   0.0000   0.0000   0.0000
     0.0000   0.0000   0.0000   0.0000   0.0000   0.0000   0.0000   0.0000
     0.0000   0.0000   0.0000   0.0000   0.0000   0.0000   0.0000   0.0000
     0.0000   0.0000   0.0000   0.0000   0.0000   0.0000   0.0000   0.0000
     0.0000   0.0000   0.0000   0.0000   0.0000   0.0000   0.0000   0.0000
     0.0000   0.0000   0.0000   0.0000   0.0000   0.0000   0.0000   0.0000
     0.0000   0.0000   0.0000   0.0000   0.0000   0.0000   0.0000   0.0000

     highest occupied, lowest unoccupied level (ev):     3.4402    7.3998

!    total energy              =   -1638.68479001 Ry
     estimated scf accuracy    <       0.00000010 Ry

     The total energy is the sum of the following terms:
     one-electron contribution =    -622.82293037 Ry
     hartree contribution      =     425.36045815 Ry
     xc contribution           =    -508.59222083 Ry
     ewald contribution        =    -932.63009696 Ry

     convergence has been achieved in   9 iterations

     Writing all to output data dir bands_nm/myprefix.save/

     General routines

     Parallel routines

   This run was terminated on:  21:16:46  15Jul2023

   JOB DONE.