     Program PWSCF v.7.1 starts on 16Jul2023 at 13:48:27

     Reading input from espresso_25701.pwi
Warning: card &CELL ignored
Warning: card / ignored

     Current dimensions of program PWSCF are:
     Max number of different atomic species (ntypx) = 10
     Max number of k-points (npk) =  40000
     Max angular momentum in pseudopotentials (lmaxx) =  4
     file Cd.pbe-dn-rrkjus_psl.0.3.1.UPF: wavefunction(s)  4D renormalized
     file O.pbe-n-kjpaw_psl.0.1.UPF: wavefunction(s)  2P renormalized
     Message from routine setup:
     using ibrav=0 with symmetry is DISCOURAGED, use correct ibrav instead

     K-points division:     npool     =       2
     R & G space division:  proc/nbgrp/npool/nimage =       4
     Subspace diagonalization in iterative solution of the eigenvalue problem:
     a serial algorithm will be used

     Using Slab Decomposition

     bravais-lattice index     =            0
     lattice parameter (alat)  =      11.1570  a.u.
     unit-cell volume          =     801.9471 (a.u.)^3
     number of atoms/cell      =           10
     number of atomic types    =            3
     number of electrons       =        88.00
     number of Kohn-Sham states=           64
     kinetic-energy cutoff     =      30.0000  Ry
     charge density cutoff     =     240.0000  Ry
     scf convergence threshold =      1.0E-06
     mixing beta               =       0.7000
     number of iterations used =            8  plain     mixing
     Exchange-correlation= SLA  PW   PBX  PBC
                           (   1   4   3   4   0   0   0)

     celldm(1)=  11.157024  celldm(2)=   0.000000  celldm(3)=   0.000000
     celldm(4)=   0.000000  celldm(5)=   0.000000  celldm(6)=   0.000000

     crystal axes: (cart. coord. in units of alat)
               a(1) = (   1.000000   0.000000   0.000000 )
               a(2) = (   0.612971   0.790106   0.000000 )
               a(3) = (   0.612971   0.300261   0.730829 )

     reciprocal axes: (cart. coord. in units 2 pi/alat)
               b(1) = (  1.000000 -0.775809 -0.519993 )
               b(2) = (  0.000000  1.265654 -0.519993 )
               b(3) = (  0.000000  0.000000  1.368310 )

     PseudoPot. # 1 for Cd read from file:
     /lustre07/scratch/pragov/crystal_structure_design/utils/SSSP/Cd.pbe-dn-rrkjus_psl.0.3.1.UPF
     MD5 check sum: 558e9f355611b531a870a69ef6ace9e2
     Pseudo is Ultrasoft + core correction, Zval = 12.0
     Generated using "atomic" code by A. Dal Corso  v.5.0.99 svn rev. 10869
     Using radial grid of 1239 points,  6 beta functions with:
                l(1) =   0
                l(2) =   0
                l(3) =   1
                l(4) =   1
                l(5) =   2
                l(6) =   2
     Q(r) pseudized with 0 coefficients

     PseudoPot. # 2 for Ge read from file:
     /lustre07/scratch/pragov/crystal_structure_design/utils/SSSP/ge_pbe_v1.4.uspp.F.UPF
     MD5 check sum: 9c9eaa91e581c3f09632fb3098b2c6b2
     Pseudo is Ultrasoft + core correction, Zval = 14.0
     Generated by new atomic code, or converted to UPF format
     Using radial grid of  873 points,  6 beta functions with:
                l(1) =   0
                l(2) =   0
                l(3) =   1
                l(4) =   1
                l(5) =   2
                l(6) =   2
     Q(r) pseudized with  8 coefficients,  rinner =    1.400   1.400   1.400
                                                       1.400   1.400

     PseudoPot. # 3 for O  read from file:
     /lustre07/scratch/pragov/crystal_structure_design/utils/SSSP/O.pbe-n-kjpaw_psl.0.1.UPF
     MD5 check sum: 0234752ac141de4415c5fc33072bef88
     Pseudo is Projector augmented-wave + core cor, Zval =  6.0
     Generated using "atomic" code by A. Dal Corso  v.5.0.99 svn rev. 10869
     Shape of augmentation charge: BESSEL
     Using radial grid of 1095 points,  4 beta functions with:
                l(1) =   0
                l(2) =   0
                l(3) =   1
                l(4) =   1
     Q(r) pseudized with 0 coefficients

     atomic species   valence    mass     pseudopotential
        Cd            12.00   112.41400     Cd( 1.00)
        Ge            14.00    72.63000     Ge( 1.00)
        O              6.00    15.99900     O ( 1.00)

      2 Sym. Ops., with inversion, found

                                    s                        frac. trans.

      isym =  1     identity

 cryst.   s( 1) = (     1          0          0      )
                  (     0          1          0      )
                  (     0          0          1      )

 cart.    s( 1) = (  1.0000000  0.0000000  0.0000000 )
                  (  0.0000000  1.0000000  0.0000000 )
                  (  0.0000000  0.0000000  1.0000000 )

      isym =  2     inversion

 cryst.   s( 2) = (    -1          0          0      )
                  (     0         -1          0      )
                  (     0          0         -1      )

 cart.    s( 2) = ( -1.0000000  0.0000000 -0.0000000 )
                  (  0.0000000 -1.0000000 -0.0000000 )
                  (  0.0000000  0.0000000 -1.0000000 )

   Cartesian axes

     site n.     atom                  positions (alat units)
         1           Cd  tau(   1) = (   1.4080684   0.6897352   0.4623017  )
         2           Cd  tau(   2) = (   0.8178733   0.4006311   0.2685269  )
         3           Ge  tau(   3) = (   1.8708328   0.9164180   0.6142380  )
         4           Ge  tau(   4) = (   0.3551089   0.1739483   0.1165905  )
         5           O   tau(   5) = (   1.1031861   0.1596376   0.3213365  )
         6           O   tau(   6) = (   0.9589956   0.6522543   0.0255446  )
         7           O   tau(   7) = (   0.8023515   0.5912852   0.5936118  )
         8           O   tau(   8) = (   1.1227556   0.9307287   0.4094920  )
         9           O   tau(   9) = (   1.4235902   0.4990811   0.1372167  )
        10           O   tau(  10) = (   1.2669461   0.4381120   0.7052839  )

   Crystallographic axes

     site n.     atom                  positions (cryst. coord.)
         1           Cd  tau(   1) = (  0.6325720  0.6325720  0.6325720  )
         2           Cd  tau(   2) = (  0.3674280  0.3674280  0.3674280  )
         3           Ge  tau(   3) = (  0.8404680  0.8404680  0.8404680  )
         4           Ge  tau(   4) = (  0.1595320  0.1595320  0.1595320  )
         5           O   tau(   5) = (  0.8122450  0.0349530  0.4396880  )
         6           O   tau(   6) = (  0.4396880  0.8122450  0.0349530  )
         7           O   tau(   7) = (  0.0349530  0.4396880  0.8122450  )
         8           O   tau(   8) = (  0.1877550  0.9650470  0.5603120  )
         9           O   tau(   9) = (  0.9650470  0.5603120  0.1877550  )
        10           O   tau(  10) = (  0.5603120  0.1877550  0.9650470  )

     number of k points=    14
                       cart. coord. in units 2pi/alat
        k(    1) = (   0.0000000   0.0000000   0.0000000), wk =   0.0740741
        k(    2) = (   0.0000000   0.0000000   0.4561033), wk =   0.1481481
        k(    3) = (   0.0000000   0.4218845  -0.1733312), wk =   0.1481481
        k(    4) = (   0.0000000   0.4218845   0.2827722), wk =   0.1481481
        k(    5) = (   0.0000000   0.4218845  -0.6294345), wk =   0.1481481
        k(    6) = (   0.3333333  -0.2586029  -0.1733312), wk =   0.1481481
        k(    7) = (   0.3333333  -0.2586029   0.2827722), wk =   0.1481481
        k(    8) = (   0.3333333  -0.2586029  -0.6294345), wk =   0.1481481
        k(    9) = (   0.3333333   0.1632817  -0.3466623), wk =   0.1481481
        k(   10) = (   0.3333333   0.1632817   0.1094410), wk =   0.1481481
        k(   11) = (   0.3333333   0.1632817  -0.8027657), wk =   0.1481481
        k(   12) = (   0.3333333  -0.6804874   0.0000000), wk =   0.1481481
        k(   13) = (   0.3333333  -0.6804874   0.4561033), wk =   0.1481481
        k(   14) = (   0.3333333  -0.6804874  -0.4561033), wk =   0.1481481

                       cryst. coord.
        k(    1) = (   0.0000000   0.0000000   0.0000000), wk =   0.0740741
        k(    2) = (   0.0000000   0.0000000   0.3333333), wk =   0.1481481
        k(    3) = (   0.0000000   0.3333333   0.0000000), wk =   0.1481481
        k(    4) = (   0.0000000   0.3333333   0.3333333), wk =   0.1481481
        k(    5) = (   0.0000000   0.3333333  -0.3333333), wk =   0.1481481
        k(    6) = (   0.3333333  -0.0000000   0.0000000), wk =   0.1481481
        k(    7) = (   0.3333333  -0.0000000   0.3333333), wk =   0.1481481
        k(    8) = (   0.3333333  -0.0000000  -0.3333333), wk =   0.1481481
        k(    9) = (   0.3333333   0.3333333   0.0000000), wk =   0.1481481
        k(   10) = (   0.3333333   0.3333333   0.3333333), wk =   0.1481481
        k(   11) = (   0.3333333   0.3333333  -0.3333333), wk =   0.1481481
        k(   12) = (   0.3333333  -0.3333333  -0.0000000), wk =   0.1481481
        k(   13) = (   0.3333333  -0.3333333   0.3333333), wk =   0.1481481
        k(   14) = (   0.3333333  -0.3333333  -0.3333333), wk =   0.1481481

     Check: negative core charge=   -0.000009

     Initial potential from superposition of free atoms

     starting charge      87.9885, renormalised to      88.0000
     Starting wfcs are   60 randomized atomic wfcs +    4 random wfcs
     Checking if some PAW data can be deallocated...

     Self-consistent Calculation

     iteration #  1     ecut=    30.00 Ry     beta= 0.70
     Davidson diagonalization with overlap

     ethr =  1.00E-02,  avg # of iterations =  6.0

     total energy              =    -920.71260587 Ry
     estimated scf accuracy    <       1.72454443 Ry

[...]

     total energy              =    -921.49759210 Ry
     estimated scf accuracy    <       0.00001131 Ry

     iteration #  8     ecut=    30.00 Ry     beta= 0.70
     Davidson diagonalization with overlap

     ethr =  1.29E-08,  avg # of iterations =  2.1

     End of self-consistent calculation

          k = 0.0000 0.0000 0.0000 (  2237 PWs)   bands (ev):

   -15.4903 -15.4903 -15.4184 -15.4184 -15.2922 -15.2774 -15.2774 -15.2672
   -15.2672 -15.2633 -11.0324  -9.0595  -8.9667  -8.9665  -8.0999  -8.0996
    -0.4908   1.0006   1.6322   1.6322   1.6912   1.6912   2.0489   2.1042
     2.1042   2.1748   2.1749   2.2272   3.4423   3.6456   3.6457   4.6559
     4.6559   5.8339   5.8952   6.9130   6.9131   7.0700   7.0701   7.4729
     7.6997   7.6998   7.7346   7.7347   9.1774  13.4139  14.3125  14.6008
    16.7977  16.7978  16.9161  17.0775  17.9476  17.9476  19.4000  19.4000
    19.8089  20.2805  20.2805  20.4782  21.7516  23.0555  23.0555  25.1355

     occupation numbers
     1.0000   1.0000   1.0000   1.0000   1.0000   1.0000   1.0000   1.0000
     1.0000   1.0000   1.0000   1.0000   1.0000   1.0000   1.0000   1.0000
     1.0000   1.0000   1.0000   1.0000   1.0000   1.0000   1.0000   1.0000
     1.0000   1.0000   1.0000   1.0000   1.0000   1.0000   1.0000   1.0000
     1.0000   1.0000   1.0000   1.0000   1.0000   1.0000   1.0000   1.0000
     1.0000   1.0000   1.0000   1.0000   0.0000   0.0000   0.0000   0.0000
     0.0000   0.0000   0.0000   0.0000   0.0000   0.0000   0.0000   0.0000
     0.0000   0.0000   0.0000   0.0000   0.0000   0.0000   0.0000   0.0000

[...]

          k = 0.3333-0.6805-0.4561 (  2237 PWs)   bands (ev):

   -15.5242 -15.5037 -15.3957 -15.3780 -15.3071 -15.3019 -15.2871 -15.2584
   -15.2496 -15.2483 -10.5682  -9.5658  -9.1374  -8.9435  -8.2253  -8.0408
     0.0683   0.9613   1.4081   1.6024   1.7689   1.8431   1.9049   2.0384
     2.1028   2.1914   2.3622   2.9337   3.5010   3.9577   4.0388   4.4829
     4.9460   5.4016   5.5828   5.8094   6.4493   6.8001   6.8762   7.1222
     7.3779   7.4332   7.5360   7.7308  12.7627  13.2248  13.8975  14.1141
    15.5436  16.1651  17.2083  17.8987  18.5287  18.6955  19.4075  19.6488
    20.0894  20.1346  20.3045  20.7626  21.2886  22.5973  23.2288  23.5799

     occupation numbers
     1.0000   1.0000   1.0000   1.0000   1.0000   1.0000   1.0000   1.0000
     1.0000   1.0000   1.0000   1.0000   1.0000   1.0000   1.0000   1.0000
     1.0000   1.0000   1.0000   1.0000   1.0000   1.0000   1.0000   1.0000
     1.0000   1.0000   1.0000   1.0000   1.0000   1.0000   1.0000   1.0000
     1.0000   1.0000   1.0000   1.0000   1.0000   1.0000   1.0000   1.0000
     1.0000   1.0000   1.0000   1.0000   0.0000   0.0000   0.0000   0.0000
     0.0000   0.0000   0.0000   0.0000   0.0000   0.0000   0.0000   0.0000
     0.0000   0.0000   0.0000   0.0000   0.0000   0.0000   0.0000   0.0000

     highest occupied, lowest unoccupied level (ev):     7.8390    9.1774

!    total energy              =    -921.49759417 Ry
     estimated scf accuracy    <       0.00000089 Ry

     The total energy is the sum of the following terms:
     one-electron contribution =    -369.26707553 Ry
     hartree contribution      =     266.88669616 Ry
     xc contribution           =    -247.52634725 Ry
     ewald contribution        =    -514.43637069 Ry
     one-center paw contrib.   =     -57.15449686 Ry
      -> PAW hartree energy AE =       0.00000000 Ry
      -> PAW hartree energy PS =       0.00000000 Ry
      -> PAW xc energy AE      =       0.00000000 Ry
      -> PAW xc energy PS      =       0.00000000 Ry
      -> total E_H with PAW    =     266.88669616 Ry
      -> total E_XC with PAW   =    -247.52634725 Ry

     convergence has been achieved in   8 iterations

     Writing all to output data dir bands_nm/myprefix.save/

     General routines

     Parallel routines

     PAW routines

   This run was terminated on:  13:48:33  16Jul2023

   JOB DONE.