     Program PWSCF v.7.1 starts on 16Jul2023 at 17:55:10

     Reading input from espresso_16893.pwi
Warning: card &CELL ignored
Warning: card / ignored

     Current dimensions of program PWSCF are:
     Max number of different atomic species (ntypx) = 10
     Max number of k-points (npk) =  40000
     Max angular momentum in pseudopotentials (lmaxx) =  4
     file O.pbe-n-kjpaw_psl.0.1.UPF: wavefunction(s)  2P renormalized
     Message from routine setup:
     using ibrav=0 with symmetry is DISCOURAGED, use correct ibrav instead

     K-points division:     npool     =       2
     R & G space division:  proc/nbgrp/npool/nimage =       4
     Subspace diagonalization in iterative solution of the eigenvalue problem:
     one sub-group per band group will be used

     Using Slab Decomposition

     bravais-lattice index     =            0
     lattice parameter (alat)  =      10.3487  a.u.
     unit-cell volume          =    1678.4302 (a.u.)^3
     number of atoms/cell      =           20
     number of atomic types    =            5
     number of electrons       =       170.00
     number of Kohn-Sham states=          256
     kinetic-energy cutoff     =      30.0000  Ry
     charge density cutoff     =     240.0000  Ry
     scf convergence threshold =      1.0E-06
     mixing beta               =       0.7000
     number of iterations used =            8  plain     mixing
     Exchange-correlation= SLA  PW   PBX  PBC
                           (   1   4   3   4   0   0   0)

     celldm(1)=  10.348685  celldm(2)=   0.000000  celldm(3)=   0.000000
     celldm(4)=   0.000000  celldm(5)=   0.000000  celldm(6)=   0.000000

     crystal axes: (cart. coord. in units of alat)
               a(1) = (   1.000000   0.000000   0.000000 )
               a(2) = (   0.000000   1.036777   0.000000 )
               a(3) = (  -0.003527   0.000000   1.460704 )

     reciprocal axes: (cart. coord. in units 2 pi/alat)
               b(1) = (  1.000000  0.000000  0.002415 )
               b(2) = (  0.000000  0.964527  0.000000 )
               b(3) = (  0.000000  0.000000  0.684601 )

     PseudoPot. # 1 for Na read from file:
     /lustre07/scratch/pragov/crystal_structure_design/utils/SSSP/na_pbe_v1.5.uspp.F.UPF
     MD5 check sum: 44600605ef58000f06b90626533354dc
     Pseudo is Ultrasoft, Zval =  9.0
     Generated by new atomic code, or converted to UPF format
     Using radial grid of  819 points,  5 beta functions with:
                l(1) =   0
                l(2) =   0
                l(3) =   1
                l(4) =   1
                l(5) =   2
     Q(r) pseudized with  8 coefficients,  rinner =    1.250   1.250   1.250
                                                       1.250   1.250

     PseudoPot. # 2 for Y  read from file:
     /lustre07/scratch/pragov/crystal_structure_design/utils/SSSP/Y_pbe_v1.uspp.F.UPF
     MD5 check sum: 2cf71db95cafeb975fc457bd7f14888e
     Pseudo is Ultrasoft + core correction, Zval = 11.0
     Generated by new atomic code, or converted to UPF format
     Using radial grid of  885 points,  6 beta functions with:
                l(1) =   0
                l(2) =   0
                l(3) =   1
                l(4) =   1
                l(5) =   2
                l(6) =   2
     Q(r) pseudized with  6 coefficients,  rinner =    1.200   1.200   1.200
                                                       1.200   1.200

     PseudoPot. # 3 for Mn read from file:
     /lustre07/scratch/pragov/crystal_structure_design/utils/SSSP/mn_pbe_v1.5.uspp.F.UPF
     MD5 check sum: 82ef2b46521d7a7d9e736dc3972e4928
     Pseudo is Ultrasoft + core correction, Zval = 15.0
     Generated by new atomic code, or converted to UPF format
     Using radial grid of  859 points,  6 beta functions with:
                l(1) =   0
                l(2) =   0
                l(3) =   1
                l(4) =   1
                l(5) =   2
                l(6) =   2
     Q(r) pseudized with  8 coefficients,  rinner =    0.950   0.950   0.950
                                                       0.950   0.950

     PseudoPot. # 4 for W  read from file:
     /lustre07/scratch/pragov/crystal_structure_design/utils/SSSP/W_pbe_v1.2.uspp.F.UPF
     MD5 check sum: 9c083fa34c2a2ea0f02f1f893e16e1c8
     Pseudo is Ultrasoft + core correction, Zval = 14.0
     Generated by new atomic code, or converted to UPF format
     Using radial grid of  923 points,  8 beta functions with:
                l(1) =   0
                l(2) =   0
                l(3) =   0
                l(4) =   1
                l(5) =   1
                l(6) =   2
                l(7) =   2
                l(8) =   3
     Q(r) pseudized with  6 coefficients,  rinner =    1.350   1.350   1.350
                                                       1.350   1.350   1.350
                                                       1.350

     PseudoPot. # 5 for O  read from file:
     /lustre07/scratch/pragov/crystal_structure_design/utils/SSSP/O.pbe-n-kjpaw_psl.0.1.UPF
     MD5 check sum: 0234752ac141de4415c5fc33072bef88
     Pseudo is Projector augmented-wave + core cor, Zval =  6.0
     Generated using "atomic" code by A. Dal Corso  v.5.0.99 svn rev. 10869
     Shape of augmentation charge: BESSEL
     Using radial grid of 1095 points,  4 beta functions with:
                l(1) =   0
                l(2) =   0
                l(3) =   1
                l(4) =   1
     Q(r) pseudized with 0 coefficients

     atomic species   valence    mass     pseudopotential
        Na             9.00    22.98977     Na( 1.00)
        Y             11.00    88.90584     Y ( 1.00)
        Mn            15.00    54.93804     Mn( 1.00)
        W             14.00   183.84000     W ( 1.00)
        O              6.00    15.99900     O ( 1.00)

      2 Sym. Ops. (no inversion) found ( 1 have fractional translation)

                                    s                        frac. trans.

      isym =  1     identity

 cryst.   s( 1) = (     1          0          0      )
                  (     0          1          0      )
                  (     0          0          1      )

 cart.    s( 1) = (  1.0000000  0.0000000  0.0000000 )
                  (  0.0000000  1.0000000  0.0000000 )
                  (  0.0000000  0.0000000  1.0000000 )

      isym =  2     180 deg rotation - cart. axis [0,1,0]

 cryst.   s( 2) = (    -1          0          0      )    f =(  0.0000000 )
                  (     0          1          0      )       (  0.5000000 )
                  (     0          0         -1      )       ( -0.0000000 )

 cart.    s( 2) = ( -1.0000000  0.0000000  0.0000000 )    f =(  0.0000000 )
                  (  0.0000000  1.0000000  0.0000000 )       (  0.5183887 )
                  (  0.0000000  0.0000000 -1.0000000 )       ( -0.0000000 )

   Cartesian axes

     site n.     atom                  positions (alat units)
         1           Na  tau(   1) = (   0.2532276   0.7646399   0.0014110  )
         2           Na  tau(   2) = (   0.7432455   0.2462512   1.4592931  )
         3           Y   tau(   3) = (   0.2642384   0.8671834   0.7329097  )
         4           Y   tau(   4) = (   0.7322347   0.3487947   0.7277944  )
         5           Mn  tau(   5) = (   0.7519820   0.8089269   0.3549394  )
         6           Mn  tau(   6) = (   0.2444911   0.2905382   1.1057647  )
         7           W   tau(   7) = (   0.7600109   0.7979464   1.1050373  )
         8           W   tau(   8) = (   0.2364622   0.2795577   0.3556668  )
         9           O   tau(   9) = (   0.5666679   0.0468167   0.9890384  )
        10           O   tau(  10) = (   0.4298051   0.5652054   0.4716657  )
        11           O   tau(  11) = (   0.5292487   0.0816151   0.4689517  )
        12           O   tau(  12) = (   0.4672244   0.6000038   0.9917524  )
        13           O   tau(  13) = (   0.9370559   0.4520951   0.3284802  )
        14           O   tau(  14) = (   0.0594172   0.9704838   1.1322239  )
        15           O   tau(  15) = (   0.9079013   0.4823171   1.1462817  )
        16           O   tau(  16) = (   0.0885718   1.0007059   0.3144224  )
        17           O   tau(  17) = (   0.8645531   0.7521478   0.7404835  )
        18           O   tau(  18) = (   0.1319200   0.2337591   0.7202206  )
        19           O   tau(  19) = (   0.6668524   0.8387405   1.4307378  )
        20           O   tau(  20) = (   0.3296206   0.3203518   0.0299663  )

   Crystallographic axes

     site n.     atom                  positions (cryst. coord.)
         1           Na  tau(   1) = (  0.2532310  0.7375160  0.0009660  )
         2           Na  tau(   2) = (  0.7467690  0.2375160  0.9990340  )
         3           Y   tau(   3) = (  0.2660080  0.8364220  0.5017510  )
         4           Y   tau(   4) = (  0.7339920  0.3364220  0.4982490  )
         5           Mn  tau(   5) = (  0.7528390  0.7802320  0.2429920  )
         6           Mn  tau(   6) = (  0.2471610  0.2802320  0.7570080  )
         7           W   tau(   7) = (  0.7626790  0.7696410  0.7565100  )
         8           W   tau(   8) = (  0.2373210  0.2696410  0.2434900  )
         9           O   tau(   9) = (  0.5690560  0.0451560  0.6770970  )
        10           O   tau(  10) = (  0.4309440  0.5451560  0.3229030  )
        11           O   tau(  11) = (  0.5303810  0.0787200  0.3210450  )
        12           O   tau(  12) = (  0.4696190  0.5787200  0.6789550  )
        13           O   tau(  13) = (  0.9378490  0.4360580  0.2248780  )
        14           O   tau(  14) = (  0.0621510  0.9360580  0.7751220  )
        15           O   tau(  15) = (  0.9106690  0.4652080  0.7847460  )
        16           O   tau(  16) = (  0.0893310  0.9652080  0.2152540  )
        17           O   tau(  17) = (  0.8663410  0.7254670  0.5069360  )
        18           O   tau(  18) = (  0.1336590  0.2254670  0.4930640  )
        19           O   tau(  19) = (  0.6703070  0.8089880  0.9794850  )
        20           O   tau(  20) = (  0.3296930  0.3089880  0.0205150  )

     number of k points=    10
                       cart. coord. in units 2pi/alat
        k(    1) = (   0.0000000   0.0000000   0.0000000), wk =   0.0740741
        k(    2) = (   0.0000000   0.0000000   0.2282005), wk =   0.1481481
        k(    3) = (   0.0000000   0.3215091   0.0000000), wk =   0.1481481
        k(    4) = (   0.0000000   0.3215091   0.2282005), wk =   0.2962963
        k(    5) = (   0.3333333   0.0000000   0.0008048), wk =   0.1481481
        k(    6) = (   0.3333333   0.0000000   0.2290053), wk =   0.1481481
        k(    7) = (   0.3333333   0.0000000  -0.2273956), wk =   0.1481481
        k(    8) = (   0.3333333   0.3215091   0.0008048), wk =   0.2962963
        k(    9) = (   0.3333333   0.3215091   0.2290053), wk =   0.2962963
        k(   10) = (   0.3333333   0.3215091  -0.2273956), wk =   0.2962963

                       cryst. coord.
        k(    1) = (   0.0000000   0.0000000   0.0000000), wk =   0.0740741
        k(    2) = (   0.0000000   0.0000000   0.3333333), wk =   0.1481481
        k(    3) = (   0.0000000   0.3333333   0.0000000), wk =   0.1481481
        k(    4) = (   0.0000000   0.3333333   0.3333333), wk =   0.2962963
        k(    5) = (   0.3333333   0.0000000   0.0000000), wk =   0.1481481
        k(    6) = (   0.3333333   0.0000000   0.3333333), wk =   0.1481481
        k(    7) = (   0.3333333   0.0000000  -0.3333333), wk =   0.1481481
        k(    8) = (   0.3333333   0.3333333   0.0000000), wk =   0.2962963
        k(    9) = (   0.3333333   0.3333333   0.3333333), wk =   0.2962963
        k(   10) = (   0.3333333   0.3333333  -0.3333333), wk =   0.2962963

     Check: negative core charge=   -0.000017

     Initial potential from superposition of free atoms

     starting charge     168.7776, renormalised to     170.0000

     negative rho (up, down):  2.136E-01 0.000E+00
     Starting wfcs are  136 randomized atomic wfcs +  120 random wfcs
     Checking if some PAW data can be deallocated...

     Self-consistent Calculation

     iteration #  1     ecut=    30.00 Ry     beta= 0.70
     Davidson diagonalization with overlap

     ethr =  1.00E-02,  avg # of iterations =  6.0

     negative rho (up, down):  2.060E-01 0.000E+00

     total energy              =   -1603.86147672 Ry
     estimated scf accuracy    <       5.81848774 Ry

[...]

     total energy              =   -1606.95156352 Ry
     estimated scf accuracy    <       0.00000186 Ry

     iteration # 17     ecut=    30.00 Ry     beta= 0.70
     Davidson diagonalization with overlap

     ethr =  1.10E-09,  avg # of iterations =  1.0

     negative rho (up, down):  2.104E-01 0.000E+00

     End of self-consistent calculation

          k = 0.0000 0.0000 0.0000 (  4667 PWs)   bands (ev):

   -68.9120 -68.9118 -66.0436 -66.0436 -41.1073 -41.1058 -37.7034 -37.7031
   -37.6240 -37.6226 -37.6104 -37.6101 -31.9821 -31.9601 -30.3007 -30.3002
   -30.2848 -30.2840 -30.2441 -30.2440 -13.0564 -13.0491 -13.0476 -13.0349
   -13.0216 -13.0195 -12.4838 -12.4486 -12.3171 -12.0806 -12.0269 -11.9859
    -9.4553  -8.8019  -8.6651  -8.5853  -8.5348  -8.4564  -8.1513  -8.0552
    -8.0485  -7.9848  -7.6516  -7.5832   3.0698   3.3612   3.4905   3.7951
     3.8576   3.8749   3.9166   4.0254   4.1369   4.1647   4.5221   4.6671
     5.1791   5.4209   5.4298   5.4491   5.4631   5.6747   6.0426   6.2994
     6.3113   6.4903   6.6416   6.7643   6.8197   6.8483   7.0632   7.0829
     7.1011   7.2687   7.3228   7.3499   7.3520   7.5341   7.5518   7.5798
     9.9106   9.9386   9.9629   9.9766  10.2642  10.3022  10.6729  10.6885
    10.8412  11.1581  11.7754  11.9122  12.0698  12.1298  12.2935  12.3777
    13.3295  14.1326  14.6173  14.8026  14.9008  15.1433  15.1533  15.6086
    15.9093  16.1183  16.3379  16.3718  16.6885  16.8585  16.8600  17.1827
    17.8731  17.9552  18.4290  18.4372  18.9801  19.6021  19.7015  19.8187
    20.2214  20.5212  20.9459  21.1608  21.2446  21.4978  21.9152  22.1289
    22.3140  22.7935  22.8687  22.9991  23.3132  23.4314  23.5498  23.7697
    24.1009  24.3695  25.0342  25.1712  25.5682  25.7973  25.9702  26.2094
    26.7812  26.7910  27.2887  27.4062  27.7957  28.1261  28.3024  28.5956
    29.0637  29.2111  29.2349  29.5073  29.5359  29.9374  30.2252  30.4315
    30.7392  31.0285  31.0329  31.1838  31.3193  31.5934  31.8091  32.0445
    32.1164  32.1797  32.1893  32.7970  33.1687  33.3385  33.5362  33.6553
    33.7017  33.8108  34.1824  34.2714  34.3747  34.3753  34.6781  35.2015
    35.4511  35.6975  35.7935  35.8414  36.1197  36.3921  36.6094  36.9084
    36.9815  37.0192  37.0991  37.2368  37.6327  37.6679  38.0179  38.1499
    38.4262  38.5076  38.9585  39.1357  39.1544  39.4030  39.5196  39.5663
    39.8253  40.0743  40.2467  40.3298  40.5334  40.9153  40.9416  41.0711
    41.2210  41.6054  41.6614  41.8077  42.0567  42.2433  42.3525  42.6387
    42.8336  42.9710  42.9825  43.2335  43.3336  43.4557  43.5380  43.6074
    44.0001  44.1891  44.5047  44.5177  44.6073  44.8247  44.9780  45.1571
    45.1835  45.3911  45.4239  45.8131  45.8968  46.1950  46.3141  46.4009
    46.7602  46.8302  47.1011  47.2064  47.5764  47.7112  47.8716  47.9493

     occupation numbers
     1.0000   1.0000   1.0000   1.0000   1.0000   1.0000   1.0000   1.0000
     1.0000   1.0000   1.0000   1.0000   1.0000   1.0000   1.0000   1.0000
     1.0000   1.0000   1.0000   1.0000   1.0000   1.0000   1.0000   1.0000
     1.0000   1.0000   1.0000   1.0000   1.0000   1.0000   1.0000   1.0000
     1.0000   1.0000   1.0000   1.0000   1.0000   1.0000   1.0000   1.0000
     1.0000   1.0000   1.0000   1.0000   1.0000   1.0000   1.0000   1.0000
     1.0000   1.0000   1.0000   1.0000   1.0000   1.0000   1.0000   1.0000
     1.0000   1.0000   1.0000   1.0000   1.0000   1.0000   1.0000   1.0000
     1.0000   1.0000   1.0000   1.0000   1.0000   1.0000   1.0000   1.0000
     1.0000   1.0000   1.0000   1.0000   1.0000   1.0000   1.0000   1.0000
     1.0000   1.0000   1.0000   1.0000   1.0000   0.0000   0.0000   0.0000
     0.0000   0.0000   0.0000   0.0000   0.0000   0.0000   0.0000   0.0000
     0.0000   0.0000   0.0000   0.0000   0.0000   0.0000   0.0000   0.0000
     0.0000   0.0000   0.0000   0.0000   0.0000   0.0000   0.0000   0.0000
     0.0000   0.0000   0.0000   0.0000   0.0000   0.0000   0.0000   0.0000
     0.0000   0.0000   0.0000   0.0000   0.0000   0.0000   0.0000   0.0000
     0.0000   0.0000   0.0000   0.0000   0.0000   0.0000   0.0000   0.0000
     0.0000   0.0000   0.0000   0.0000   0.0000   0.0000   0.0000   0.0000
     0.0000   0.0000   0.0000   0.0000   0.0000   0.0000   0.0000   0.0000
     0.0000   0.0000   0.0000   0.0000   0.0000   0.0000   0.0000   0.0000
     0.0000   0.0000   0.0000   0.0000   0.0000   0.0000   0.0000   0.0000
     0.0000   0.0000   0.0000   0.0000   0.0000   0.0000   0.0000   0.0000
     0.0000   0.0000   0.0000   0.0000   0.0000   0.0000   0.0000   0.0000
     0.0000   0.0000   0.0000   0.0000   0.0000   0.0000   0.0000   0.0000
     0.0000   0.0000   0.0000   0.0000   0.0000   0.0000   0.0000   0.0000
     0.0000   0.0000   0.0000   0.0000   0.0000   0.0000   0.0000   0.0000
     0.0000   0.0000   0.0000   0.0000   0.0000   0.0000   0.0000   0.0000
     0.0000   0.0000   0.0000   0.0000   0.0000   0.0000   0.0000   0.0000
     0.0000   0.0000   0.0000   0.0000   0.0000   0.0000   0.0000   0.0000
     0.0000   0.0000   0.0000   0.0000   0.0000   0.0000   0.0000   0.0000
     0.0000   0.0000   0.0000   0.0000   0.0000   0.0000   0.0000   0.0000
     0.0000   0.0000   0.0000   0.0000   0.0000   0.0000   0.0000   0.0000

[...]

          k = 0.3333 0.3215-0.2274 (  4649 PWs)   bands (ev):

   -68.9119 -68.9117 -66.0436 -66.0436 -41.1066 -41.1063 -37.7013 -37.7009
   -37.6234 -37.6216 -37.6116 -37.6104 -31.9744 -31.9681 -30.3005 -30.3001
   -30.2846 -30.2839 -30.2441 -30.2440 -13.0598 -13.0562 -13.0385 -13.0353
   -13.0229 -13.0183 -12.5404 -12.4404 -12.2372 -12.1368 -12.1033 -11.9789
    -8.9826  -8.8697  -8.6572  -8.5972  -8.5711  -8.5166  -8.2436  -8.0950
    -7.9505  -7.9029  -7.7957  -7.6663   3.2763   3.3141   3.7183   3.7429
     3.8117   3.9148   3.9866   4.1585   4.2609   4.3149   4.4690   4.5445
     5.1000   5.2936   5.4198   5.5982   5.6745   5.7809   5.9017   6.0708
     6.1807   6.2109   6.4066   6.4626   6.5575   6.6716   6.7744   7.0129
     7.0601   7.1443   7.1998   7.3026   7.3853   7.4473   7.5527   7.5993
    10.0337  10.0812  10.2272  10.2443  10.2976  10.3168  10.8705  11.0195
    11.1511  11.3315  11.7838  11.8355  11.9297  11.9864  12.1127  12.2604
    14.1945  14.4367  14.6963  14.8307  15.1533  15.2047  15.3941  15.5698
    15.7087  15.9969  16.1526  16.4190  16.5486  16.7317  16.9354  17.2403
    17.5185  17.7006  18.3085  18.5808  18.8437  19.4458  19.8395  20.0547
    20.4078  20.8059  20.9520  21.1685  21.3940  21.8113  21.9258  22.1501
    22.5933  22.7254  23.0896  23.3716  23.6027  23.8654  23.9114  24.2095
    24.3678  24.5232  24.8174  24.9873  25.3912  25.7100  25.9771  26.2006
    26.3695  26.7196  26.7729  26.9429  27.1976  27.5258  27.6690  28.1001
    28.3001  28.4808  28.6771  29.1307  29.2492  29.4642  29.6885  30.1428
    30.2861  30.4480  31.0060  31.1875  31.4811  31.6908  31.8947  32.0838
    32.2739  32.6463  32.8015  32.9003  33.0568  33.3273  33.6791  33.8899
    33.9661  34.2547  34.3774  34.5981  34.8415  34.9597  34.9742  35.3060
    35.4314  35.5312  35.9066  36.0075  36.2199  36.3848  36.6115  36.7946
    37.0133  37.1055  37.4797  37.5660  37.7919  37.9259  38.0851  38.2782
    38.5506  38.7976  38.9388  39.1515  39.2691  39.4699  39.6184  39.8444
    39.9549  40.1549  40.3640  40.4984  40.5686  40.8678  41.0021  41.1706
    41.4943  41.6163  41.8370  41.8977  42.1724  42.2303  42.4248  42.5761
    42.7819  42.9170  43.0346  43.1916  43.2758  43.5513  43.6486  43.8388
    43.9642  44.0445  44.2696  44.5114  44.6091  44.7827  44.9503  45.0597
    45.2426  45.4398  45.6336  45.7069  45.7446  45.9944  46.0521  46.2735
    46.3485  46.5401  46.6664  46.8915  47.0390  47.2241  47.3818  47.5351

     occupation numbers
     1.0000   1.0000   1.0000   1.0000   1.0000   1.0000   1.0000   1.0000
     1.0000   1.0000   1.0000   1.0000   1.0000   1.0000   1.0000   1.0000
     1.0000   1.0000   1.0000   1.0000   1.0000   1.0000   1.0000   1.0000
     1.0000   1.0000   1.0000   1.0000   1.0000   1.0000   1.0000   1.0000
     1.0000   1.0000   1.0000   1.0000   1.0000   1.0000   1.0000   1.0000
     1.0000   1.0000   1.0000   1.0000   1.0000   1.0000   1.0000   1.0000
     1.0000   1.0000   1.0000   1.0000   1.0000   1.0000   1.0000   1.0000
     1.0000   1.0000   1.0000   1.0000   1.0000   1.0000   1.0000   1.0000
     1.0000   1.0000   1.0000   1.0000   1.0000   1.0000   1.0000   1.0000
     1.0000   1.0000   1.0000   1.0000   1.0000   1.0000   1.0000   1.0000
     1.0000   1.0000   1.0000   1.0000   1.0000   0.0000   0.0000   0.0000
     0.0000   0.0000   0.0000   0.0000   0.0000   0.0000   0.0000   0.0000
     0.0000   0.0000   0.0000   0.0000   0.0000   0.0000   0.0000   0.0000
     0.0000   0.0000   0.0000   0.0000   0.0000   0.0000   0.0000   0.0000
     0.0000   0.0000   0.0000   0.0000   0.0000   0.0000   0.0000   0.0000
     0.0000   0.0000   0.0000   0.0000   0.0000   0.0000   0.0000   0.0000
     0.0000   0.0000   0.0000   0.0000   0.0000   0.0000   0.0000   0.0000
     0.0000   0.0000   0.0000   0.0000   0.0000   0.0000   0.0000   0.0000
     0.0000   0.0000   0.0000   0.0000   0.0000   0.0000   0.0000   0.0000
     0.0000   0.0000   0.0000   0.0000   0.0000   0.0000   0.0000   0.0000
     0.0000   0.0000   0.0000   0.0000   0.0000   0.0000   0.0000   0.0000
     0.0000   0.0000   0.0000   0.0000   0.0000   0.0000   0.0000   0.0000
     0.0000   0.0000   0.0000   0.0000   0.0000   0.0000   0.0000   0.0000
     0.0000   0.0000   0.0000   0.0000   0.0000   0.0000   0.0000   0.0000
     0.0000   0.0000   0.0000   0.0000   0.0000   0.0000   0.0000   0.0000
     0.0000   0.0000   0.0000   0.0000   0.0000   0.0000   0.0000   0.0000
     0.0000   0.0000   0.0000   0.0000   0.0000   0.0000   0.0000   0.0000
     0.0000   0.0000   0.0000   0.0000   0.0000   0.0000   0.0000   0.0000
     0.0000   0.0000   0.0000   0.0000   0.0000   0.0000   0.0000   0.0000
     0.0000   0.0000   0.0000   0.0000   0.0000   0.0000   0.0000   0.0000
     0.0000   0.0000   0.0000   0.0000   0.0000   0.0000   0.0000   0.0000
     0.0000   0.0000   0.0000   0.0000   0.0000   0.0000   0.0000   0.0000

     highest occupied, lowest unoccupied level (ev):    10.2981   10.2755

!    total energy              =   -1606.95156350 Ry
     estimated scf accuracy    <       0.00000037 Ry

     The total energy is the sum of the following terms:
     one-electron contribution =    -604.72666993 Ry
     hartree contribution      =     384.89620422 Ry
     xc contribution           =    -296.98468365 Ry
     ewald contribution        =    -975.86612320 Ry
     one-center paw contrib.   =    -114.27029094 Ry
      -> PAW hartree energy AE =       0.00000000 Ry
      -> PAW hartree energy PS =       0.00000000 Ry
      -> PAW xc energy AE      =       0.00000000 Ry
      -> PAW xc energy PS      =       0.00000000 Ry
      -> total E_H with PAW    =     384.89620422 Ry
      -> total E_XC with PAW   =    -296.98468365 Ry

     convergence has been achieved in  17 iterations

     Writing all to output data dir bands_nm/myprefix.save/

     General routines

     Parallel routines

     PAW routines

   This run was terminated on:  17:56:52  16Jul2023

   JOB DONE.