     Program PWSCF v.7.1 starts on 15Jul2023 at 14:10:28

     Reading input from espresso_25539.pwi
Warning: card &CELL ignored
Warning: card / ignored

     Current dimensions of program PWSCF are:
     Max number of different atomic species (ntypx) = 10
     Max number of k-points (npk) =  40000
     Max angular momentum in pseudopotentials (lmaxx) =  4
     Message from routine setup:
     the system is metallic, specify occupations
     Message from routine setup:
     using ibrav=0 with symmetry is DISCOURAGED, use correct ibrav instead

     K-points division:     npool     =       2
     R & G space division:  proc/nbgrp/npool/nimage =       4
     Subspace diagonalization in iterative solution of the eigenvalue problem:
     a serial algorithm will be used

     Using Slab Decomposition

     bravais-lattice index     =            0
     lattice parameter (alat)  =      11.1799  a.u.
     unit-cell volume          =     988.1075 (a.u.)^3
     number of atoms/cell      =            8
     number of atomic types    =            3
     number of electrons       =        69.00 (up:  37.00, down:  32.00)
     number of Kohn-Sham states=           64
     kinetic-energy cutoff     =      30.0000  Ry
     charge density cutoff     =     240.0000  Ry
     scf convergence threshold =      1.0E-06
     mixing beta               =       0.7000
     number of iterations used =            8  plain     mixing
     Exchange-correlation=  SLA  PW   PBX  PBC
                           (   1   4   3   4   0   0   0)

     celldm(1)=  11.179947  celldm(2)=   0.000000  celldm(3)=   0.000000
     celldm(4)=   0.000000  celldm(5)=   0.000000  celldm(6)=   0.000000

     crystal axes: (cart. coord. in units of alat)
               a(1) = (   1.000000   0.000000   0.000000 )
               a(2) = (   0.500000   0.866025   0.000000 )
               a(3) = (   0.500000   0.288675   0.816497 )

     reciprocal axes: (cart. coord. in units 2 pi/alat)
               b(1) = (  1.000000 -0.577350 -0.408248 )
               b(2) = (  0.000000  1.154701 -0.408248 )
               b(3) = (  0.000000  0.000000  1.224745 )

     PseudoPot. # 1 for Zr read from file:
     /lustre07/scratch/pragov/crystal_structure_design/utils/SSSP/Zr_pbe_v1.uspp.F.UPF
     MD5 check sum: 5db81b1e868ab7776c4564c113de050b
     Pseudo is Ultrasoft + core correction, Zval = 12.0
     Generated by new atomic code, or converted to UPF format
     Using radial grid of  887 points,  6 beta functions with:
                l(1) =   0
                l(2) =   0
                l(3) =   1
                l(4) =   1
                l(5) =   2
                l(6) =   2
     Q(r) pseudized with  6 coefficients,  rinner =    1.200   1.200   1.200
                                                       1.200   1.200

     PseudoPot. # 2 for Mn read from file:
     /lustre07/scratch/pragov/crystal_structure_design/utils/SSSP/mn_pbe_v1.5.uspp.F.UPF
     MD5 check sum: 82ef2b46521d7a7d9e736dc3972e4928
     Pseudo is Ultrasoft + core correction, Zval = 15.0
     Generated by new atomic code, or converted to UPF format
     Using radial grid of  859 points,  6 beta functions with:
                l(1) =   0
                l(2) =   0
                l(3) =   1
                l(4) =   1
                l(5) =   2
                l(6) =   2
     Q(r) pseudized with  8 coefficients,  rinner =    0.950   0.950   0.950
                                                       0.950   0.950

     PseudoPot. # 3 for F  read from file:
     /lustre07/scratch/pragov/crystal_structure_design/utils/SSSP/f_pbe_v1.4.uspp.F.UPF
     MD5 check sum: 4c38b6a325caf53ec0e86aed9459de46
     Pseudo is Ultrasoft, Zval =  7.0
     Generated by new atomic code, or converted to UPF format
     Using radial grid of  799 points,  4 beta functions with:
                l(1) =   0
                l(2) =   0
                l(3) =   1
                l(4) =   1
     Q(r) pseudized with  8 coefficients,  rinner =    0.950   0.950   0.950

     atomic species   valence    mass     pseudopotential
        Zr            12.00    91.22400     Zr( 1.00)
        Mn            15.00    54.93804     Mn( 1.00)
        F              7.00    18.99840     F ( 1.00)

     Starting magnetic structure
     atomic species   magnetization
        Zr           0.000
        Mn           0.000
        F            0.000

     12 Sym. Ops., with inversion, found

                                    s                        frac. trans.

      isym =  1     identity

 cryst.   s( 1) = (     1          0          0      )
                  (     0          1          0      )
                  (     0          0          1      )

 cart.    s( 1) = (  1.0000000  0.0000000  0.0000000 )
                  (  0.0000000  1.0000000  0.0000000 )
                  (  0.0000000  0.0000000  1.0000000 )

      isym =  2     180 deg rotation - cart. axis [1,0,0]

[...]

      isym =  3     120 deg rotation - cryst. axis [0,0,1]

[...]

      isym =  6     180 deg rotation - cryst. axis [1,1,0]

[...]

      isym =  7     inversion

[...]

      isym =  8     inv. 180 deg rotation - cart. axis [1,0,0]

[...]

      isym =  9     inv. 120 deg rotation - cryst. axis [0,0,1]

 cryst.   s( 9) = (     1         -1          0      )
                  (     1          0          0      )
                  (     1          0         -1      )

 cart.    s( 9) = (  0.5000000  0.8660254 -0.0000000 )
                  ( -0.8660254  0.5000000 -0.0000000 )
                  (  0.0000000  0.0000000 -1.0000000 )

[...]

 cryst.   s(10) = (     0          1          0      )
                  (    -1          1          0      )
                  (     0          1         -1      )

 cart.    s(10) = (  0.5000000 -0.8660254  0.0000000 )
                  (  0.8660254  0.5000000 -0.0000000 )
                  (  0.0000000  0.0000000 -1.0000000 )

[...]

      isym = 12     inv. 180 deg rotation - cryst. axis [1,1,0]

 cryst.   s(12) = (     1         -1          0      )
                  (     0         -1          0      )
                  (     0         -1          1      )

 cart.    s(12) = (  0.5000000 -0.8660254  0.0000000 )
                  ( -0.8660254 -0.5000000  0.0000000 )
                  (  0.0000000  0.0000000  1.0000000 )

   Cartesian axes

     site n.     atom                  positions (alat units)
         1           Zr  tau(   1) = (   1.0000000   0.5773503   0.4082483  )
         2           Mn  tau(   2) = (   0.0000000   0.0000000   0.0000000  )
         3           F   tau(   3) = (   1.0000000   0.2953412   0.2088378  )
         4           F   tau(   4) = (   1.0000000   0.8593593   0.6076588  )
         5           F   tau(   5) = (   0.7557730   0.7183548   0.2088378  )
         6           F   tau(   6) = (   1.2442270   0.4363457   0.6076588  )
         7           F   tau(   7) = (   0.7557730   0.4363457   0.6076588  )
         8           F   tau(   8) = (   1.2442270   0.7183548   0.2088378  )

   Crystallographic axes

     site n.     atom                  positions (cryst. coord.)
         1           Zr  tau(   1) = (  0.5000000  0.5000000  0.5000000  )
         2           Mn  tau(   2) = (  0.0000000  0.0000000  0.0000000  )
         3           F   tau(   3) = (  0.7442270  0.2557730  0.2557730  )
         4           F   tau(   4) = (  0.2557730  0.7442270  0.7442270  )
         5           F   tau(   5) = (  0.2557730  0.7442270  0.2557730  )
         6           F   tau(   6) = (  0.7442270  0.2557730  0.7442270  )
         7           F   tau(   7) = (  0.2557730  0.2557730  0.7442270  )
         8           F   tau(   8) = (  0.7442270  0.7442270  0.2557730  )

     number of k points=     6
                       cart. coord. in units 2pi/alat
        k(    1) = (   0.0000000   0.0000000   0.0000000), wk =   0.0370370
        k(    2) = (   0.0000000   0.0000000   0.4082483), wk =   0.0740741
        k(    3) = (   0.0000000   0.3849002  -0.1360828), wk =   0.2222222
        k(    4) = (   0.0000000   0.3849002   0.2721655), wk =   0.2222222
        k(    5) = (   0.0000000   0.3849002  -0.5443311), wk =   0.2222222
        k(    6) = (   0.3333333  -0.5773503   0.0000000), wk =   0.2222222

                       cryst. coord.
        k(    1) = (   0.0000000   0.0000000   0.0000000), wk =   0.0370370
        k(    2) = (   0.0000000   0.0000000   0.3333333), wk =   0.0740741
        k(    3) = (   0.0000000   0.3333333   0.0000000), wk =   0.2222222
        k(    4) = (   0.0000000   0.3333333   0.3333333), wk =   0.2222222
        k(    5) = (   0.0000000   0.3333333  -0.3333333), wk =   0.2222222
        k(    6) = (   0.3333333  -0.3333333   0.0000000), wk =   0.2222222

     Check: negative core charge=   -0.000009
     Generating pointlists ...
     new r_m :   0.1425 (alat units)  1.5928 (a.u.) for type    1
     new r_m :   0.1492 (alat units)  1.6681 (a.u.) for type    2
     new r_m :   0.1425 (alat units)  1.5928 (a.u.) for type    3

     Initial potential from superposition of free atoms

     starting charge      68.4978, renormalised to      69.0000

     negative rho (up, down):  3.101E-02 3.101E-02
     Starting wfcs are   50 randomized atomic wfcs +   14 random wfcs

     Self-consistent Calculation

     iteration #  1     ecut=    30.00 Ry     beta= 0.70
     Davidson diagonalization with overlap

     ethr =  1.00E-02,  avg # of iterations =  6.3

     negative rho (up, down):  3.201E-02 3.202E-02

     total energy              =    -602.43370142 Ry
     estimated scf accuracy    <       1.44488746 Ry

     total magnetization       =     5.00 Bohr mag/cell
     absolute magnetization    =     5.00 Bohr mag/cell

[...]

     total energy              =    -602.91388680 Ry
     estimated scf accuracy    <       0.00000743 Ry

[...]

     iteration #  7     ecut=    30.00 Ry     beta= 0.70
     Davidson diagonalization with overlap

     ethr =  1.08E-08,  avg # of iterations =  2.0

     negative rho (up, down):  3.311E-02 3.380E-02

     Magnetic moment per site  (integrated on atomic sphere of radius R)
     atom   1 (R=0.142)  charge=  7.2872  magn=  0.0215
     atom   2 (R=0.149)  charge= 12.3970  magn=  4.2438
     atom   3 (R=0.142)  charge=  6.5982  magn=  0.0280
     atom   4 (R=0.142)  charge=  6.5982  magn=  0.0280
     atom   5 (R=0.142)  charge=  6.5982  magn=  0.0280
     atom   6 (R=0.142)  charge=  6.5982  magn=  0.0280
     atom   7 (R=0.142)  charge=  6.5982  magn=  0.0280
     atom   8 (R=0.142)  charge=  6.5982  magn=  0.0280

     End of self-consistent calculation

 ------ SPIN UP ------------

          k = 0.0000 0.0000 0.0000 (  2733 PWs)   bands (ev):

   -77.8793 -47.0917 -46.6027 -46.6027 -46.6027 -25.5181 -25.5181 -25.5181
   -20.6893 -20.5116 -20.5116 -19.8115 -19.8115 -19.8115  -4.0447  -3.9135
    -3.9135  -2.8522  -2.8522  -2.8522  -2.4950  -2.4950  -2.4950  -1.3422
    -1.3422  -1.3422  -1.2864  -1.2864  -1.2864  -0.7974  -0.7974  -0.7974
     1.4442   1.4442   1.4442   2.2847   2.2847   6.0637   6.0637   6.0637
     6.3524   9.7623   9.7623  10.9915  11.4843  12.6485  12.6485  12.6485
    13.8153  13.8153  13.8153  15.0222  15.0222  15.0430  15.0430  15.0430
    16.1011  20.2074  20.2074  20.2075  21.7418  21.7422  21.7432  21.8537

     occupation numbers
     1.0000   1.0000   1.0000   1.0000   1.0000   1.0000   1.0000   1.0000
     1.0000   1.0000   1.0000   1.0000   1.0000   1.0000   1.0000   1.0000
     1.0000   1.0000   1.0000   1.0000   1.0000   1.0000   1.0000   1.0000
     1.0000   1.0000   1.0000   1.0000   1.0000   1.0000   1.0000   1.0000
     1.0000   1.0000   1.0000   1.0000   1.0000   0.0000   0.0000   0.0000
     0.0000   0.0000   0.0000   0.0000   0.0000   0.0000   0.0000   0.0000
     0.0000   0.0000   0.0000   0.0000   0.0000   0.0000   0.0000   0.0000
     0.0000   0.0000   0.0000   0.0000   0.0000   0.0000   0.0000   0.0000

[...]

 ------ SPIN DOWN ----------

[...]

          k = 0.3333-0.5774 0.0000 (  2736 PWs)   bands (ev):

   -72.5819 -47.0627 -41.4247 -41.4234 -41.4233 -25.4860 -25.4838 -25.4827
   -20.5407 -20.4825 -20.4685 -19.8170 -19.7609 -19.7445  -3.9985  -3.5975
    -3.1723  -2.5853  -2.4555  -2.4456  -2.2625  -2.2343  -2.0801  -1.6671
    -1.6074  -1.5041  -1.5023  -1.4700  -1.2038  -1.1487  -1.0338  -0.9002
     5.7438   5.9070   5.9189   6.2059   6.2267   6.3113   6.6748   6.7915
     8.4840   9.2643   9.5260   9.7053  10.8573  12.0749  12.1659  14.1596
    14.4479  14.8929  15.2502  15.3632  15.8921  16.6617  16.8879  17.7211
    18.3274  18.4035  18.8574  19.7323  20.1361  20.5210  20.6171  21.7968

     occupation numbers
     1.0000   1.0000   1.0000   1.0000   1.0000   1.0000   1.0000   1.0000
     1.0000   1.0000   1.0000   1.0000   1.0000   1.0000   1.0000   1.0000
     1.0000   1.0000   1.0000   1.0000   1.0000   1.0000   1.0000   1.0000
     1.0000   1.0000   1.0000   1.0000   1.0000   1.0000   1.0000   1.0000
     0.0000   0.0000   0.0000   0.0000   0.0000   0.0000   0.0000   0.0000
     0.0000   0.0000   0.0000   0.0000   0.0000   0.0000   0.0000   0.0000
     0.0000   0.0000   0.0000   0.0000   0.0000   0.0000   0.0000   0.0000
     0.0000   0.0000   0.0000   0.0000   0.0000   0.0000   0.0000   0.0000

     highest occupied, lowest unoccupied level (ev):     2.6038    5.3926

!    total energy              =    -602.91388776 Ry
     estimated scf accuracy    <       0.00000083 Ry

     The total energy is the sum of the following terms:
     one-electron contribution =    -463.58411742 Ry
     hartree contribution      =     256.34387463 Ry
     xc contribution           =    -100.68592403 Ry
     ewald contribution        =    -294.98772093 Ry

     total magnetization       =     5.00 Bohr mag/cell
     absolute magnetization    =     5.01 Bohr mag/cell

     convergence has been achieved in   7 iterations

     Writing all to output data dir bands_nm/myprefix.save/

     General routines

     Parallel routines

   This run was terminated on:  14:10:37  15Jul2023

   JOB DONE.