     Program PWSCF v.7.1 starts on 16Jul2023 at 13:16:46

     Reading input from espresso_25781.pwi
Warning: card &CELL ignored
Warning: card / ignored

     Current dimensions of program PWSCF are:
     Max number of different atomic species (ntypx) = 10
     Max number of k-points (npk) =  40000
     Max angular momentum in pseudopotentials (lmaxx) =  4
     file Gd.paw.z_18.atompaw.wentzcovitch.v1.2.upf: wavefunction(s)  6S 0P 5D 0D 4F 0F renormalized
     Message from routine setup:
     using ibrav=0 with symmetry is DISCOURAGED, use correct ibrav instead

     K-points division:     npool     =       2
     R & G space division:  proc/nbgrp/npool/nimage =       4
     Subspace diagonalization in iterative solution of the eigenvalue problem:
     a serial algorithm will be used

     Using Slab Decomposition

     bravais-lattice index     =            0
     lattice parameter (alat)  =      13.9653  a.u.
     unit-cell volume          =    1372.2368 (a.u.)^3
     number of atoms/cell      =            8
     number of atomic types    =            3
     number of electrons       =        98.00
     number of Kohn-Sham states=           64
     kinetic-energy cutoff     =      30.0000  Ry
     charge density cutoff     =     240.0000  Ry
     scf convergence threshold =      1.0E-06
     mixing beta               =       0.7000
     number of iterations used =            8  plain     mixing
     Exchange-correlation= SLA  PW   PBE  PBE
                           (   1   4   3   4   0   0   0)

     celldm(1)=  13.965311  celldm(2)=   0.000000  celldm(3)=   0.000000
     celldm(4)=   0.000000  celldm(5)=   0.000000  celldm(6)=   0.000000

     crystal axes: (cart. coord. in units of alat)
               a(1) = (   1.000000   0.000000   0.000000 )
               a(2) = (   0.397218   0.917724   0.000000 )
               a(3) = (  -0.698609  -0.458862   0.548991 )

     reciprocal axes: (cart. coord. in units 2 pi/alat)
               b(1) = (  1.000000 -0.432830  0.910762 )
               b(2) = (  0.000000  1.089652  0.910762 )
               b(3) = (  0.000000  0.000000  1.821524 )

     PseudoPot. # 1 for Gd read from file:
     /lustre07/scratch/pragov/crystal_structure_design/utils/SSSP/Gd.paw.z_18.atompaw.wentzcovitch.v1.2.upf
     MD5 check sum: a44f32af2ba180e1a67c5cef9ff7f39b
     Pseudo is Projector augmented-wave + core cor, Zval = 18.0
     Generated using ATOMPAW code
     Shape of augmentation charge: BESSEL
     Using radial grid of 1110 points,  8 beta functions with:
                l(1) =   0
                l(2) =   0
                l(3) =   1
                l(4) =   1
                l(5) =   2
                l(6) =   2
                l(7) =   3
                l(8) =   3
     Q(r) pseudized with 0 coefficients

     PseudoPot. # 2 for Ag read from file:
     /lustre07/scratch/pragov/crystal_structure_design/utils/SSSP/Ag_ONCV_PBE-1.0.oncvpsp.upf
     MD5 check sum: 94f47bd0669c641108e45594df92fabc
     Pseudo is Norm-conserving, Zval = 19.0
     Generated using ONCVPSP code by D. R. Hamann
     Using radial grid of 1398 points,  6 beta functions with:
                l(1) =   0
                l(2) =   0
                l(3) =   1
                l(4) =   1
                l(5) =   2
                l(6) =   2

     PseudoPot. # 3 for Se read from file:
     /lustre07/scratch/pragov/crystal_structure_design/utils/SSSP/Se_pbe_v1.uspp.F.UPF
     MD5 check sum: 1b3568f3a8ae88f9a2a0ad0698632c85
     Pseudo is Ultrasoft + core correction, Zval =  6.0
     Generated by new atomic code, or converted to UPF format
     Using radial grid of  877 points,  6 beta functions with:
                l(1) =   0
                l(2) =   0
                l(3) =   1
                l(4) =   1
                l(5) =   2
                l(6) =   2
     Q(r) pseudized with  8 coefficients,  rinner =    1.300   1.300   1.300
                                                       1.300   1.300

     atomic species   valence    mass     pseudopotential
        Gd            18.00   157.25000     Gd( 1.00)
        Ag            19.00   107.86820     Ag( 1.00)
        Se             6.00    78.97100     Se( 1.00)

      2 Sym. Ops. (no inversion) found ( 1 have fractional translation)

                                    s                        frac. trans.

      isym =  1     identity

 cryst.   s( 1) = (     1          0          0      )
                  (     0          1          0      )
                  (     0          0          1      )

 cart.    s( 1) = (  1.0000000  0.0000000 -0.0000000 )
                  (  0.0000000  1.0000000 -0.0000000 )
                  (  0.0000000  0.0000000  1.0000000 )

      isym =  2     inv. 180 deg rotation - cart. axis [0,0,1]

 cryst.   s( 2) = (     1          0          0      )    f =(  0.2500000 )
                  (     0          1          0      )       ( -0.2500000 )
                  (    -1         -1         -1      )       ( -0.5000000 )

 cart.    s( 2) = (  1.0000000  0.0000000 -0.0000000 )    f =(  0.5000000 )
                  (  0.0000000  1.0000000 -0.0000000 )       ( -0.0000000 )
                  (  0.0000000  0.0000000 -1.0000000 )       ( -0.2744954 )

   Cartesian axes

     site n.     atom                  positions (alat units)
         1           Gd  tau(   1) = (   1.0425582   0.6847755   0.0000000  )
         2           Gd  tau(   2) = (   0.5425582   0.6847755   0.2744954  )
         3           Ag  tau(   3) = (   0.3050267   0.2003484   0.0000000  )
         4           Ag  tau(   4) = (   0.8050267   0.2003484   0.2744954  )
         5           Se  tau(   5) = (   0.7150460   0.4696582   0.0000000  )
         6           Se  tau(   6) = (   0.2150460   0.4696582   0.2744954  )
         7           Se  tau(   7) = (   1.3745261   0.9028194   0.0000000  )
         8           Se  tau(   8) = (   0.4773078  -0.0149048   0.2744954  )

   Crystallographic axes

     site n.     atom                  positions (cryst. coord.)
         1           Gd  tau(   1) = (  0.7461670  0.7461670  0.0000000  )
         2           Gd  tau(   2) = (  0.4961670  0.9961670  0.5000000  )
         3           Ag  tau(   3) = (  0.2183100  0.2183100  0.0000000  )
         4           Ag  tau(   4) = (  0.9683100  0.4683100  0.5000000  )
         5           Se  tau(   5) = (  0.5117640  0.5117640  0.0000000  )
         6           Se  tau(   6) = (  0.2617640  0.7617640  0.5000000  )
         7           Se  tau(   7) = (  0.9837590  0.9837590  0.0000000  )
         8           Se  tau(   8) = (  0.7337590  0.2337590  0.5000000  )

     number of k points=    10
                       cart. coord. in units 2pi/alat
        k(    1) = (   0.0000000   0.0000000   0.0000000), wk =   0.0740741
        k(    2) = (   0.0000000   0.0000000   0.6071748), wk =   0.1481481
        k(    3) = (   0.0000000   0.3632173   0.3035874), wk =   0.2962963
        k(    4) = (   0.0000000   0.3632173   0.9107621), wk =   0.1481481
        k(    5) = (   0.3333333  -0.1442766   0.3035874), wk =   0.2962963
        k(    6) = (   0.3333333  -0.1442766   0.9107621), wk =   0.1481481
        k(    7) = (   0.3333333   0.2189408   0.6071748), wk =   0.2962963
        k(    8) = (   0.3333333   0.2189408  -0.0000000), wk =   0.1481481
        k(    9) = (   0.3333333  -0.5074939  -0.0000000), wk =   0.1481481
        k(   10) = (   0.3333333  -0.5074939   0.6071748), wk =   0.2962963

                       cryst. coord.
        k(    1) = (   0.0000000   0.0000000   0.0000000), wk =   0.0740741
        k(    2) = (   0.0000000   0.0000000   0.3333333), wk =   0.1481481
        k(    3) = (   0.0000000   0.3333333  -0.0000000), wk =   0.2962963
        k(    4) = (   0.0000000   0.3333333   0.3333333), wk =   0.1481481
        k(    5) = (   0.3333333   0.0000000  -0.0000000), wk =   0.2962963
        k(    6) = (   0.3333333   0.0000000   0.3333333), wk =   0.1481481
        k(    7) = (   0.3333333   0.3333333  -0.0000000), wk =   0.2962963
        k(    8) = (   0.3333333   0.3333333  -0.3333333), wk =   0.1481481
        k(    9) = (   0.3333333  -0.3333333  -0.0000000), wk =   0.1481481
        k(   10) = (   0.3333333  -0.3333333   0.3333333), wk =   0.2962963

     Initial potential from superposition of free atoms

     starting charge      97.9888, renormalised to      98.0000
     Starting wfcs are  100 randomized atomic wfcs
     Checking if some PAW data can be deallocated...

     Self-consistent Calculation

     iteration #  1     ecut=    30.00 Ry     beta= 0.70
     Davidson diagonalization with overlap

     ethr =  1.00E-02,  avg # of iterations =  2.0

     total energy              =   -2087.92908722 Ry
     estimated scf accuracy    <      24.49967377 Ry

[...]

     total energy              =   -2116.14360174 Ry
     estimated scf accuracy    <       0.00000337 Ry

     iteration # 77     ecut=    30.00 Ry     beta= 0.70
     Davidson diagonalization with overlap

     ethr =  2.06E-09,  avg # of iterations =  1.0

     End of self-consistent calculation

          k = 0.0000 0.0000 0.0000 (  3781 PWs)   bands (ev):

   -83.1158 -83.1158 -46.1865 -46.1864 -46.1491 -46.1490 -46.1198 -46.1162
   -32.9297 -32.9222 -11.0049 -11.0024 -10.9773 -10.9547 -10.9269 -10.8691
    -3.6873  -3.2249  -2.9065  -2.8501   5.3487   5.3762   5.4749   5.4759
     5.5544   5.5601   5.5607   5.6997   5.7523   5.8425   5.9610   6.4208
     6.4252   6.7107   6.7429   6.7466   7.4247   7.4559   7.4777   8.0099
     8.0472   8.1808   9.1382   9.1610   9.1638   9.1645   9.1878   9.2332
     9.3315   9.3506   9.3828   9.5173   9.5555   9.7654   9.7954   9.8822
    10.0942  10.6505  11.2824  12.1067  12.1246  12.5442  13.0555  13.0765

     occupation numbers
     1.0000   1.0000   1.0000   1.0000   1.0000   1.0000   1.0000   1.0000
     1.0000   1.0000   1.0000   1.0000   1.0000   1.0000   1.0000   1.0000
     1.0000   1.0000   1.0000   1.0000   1.0000   1.0000   1.0000   1.0000
     1.0000   1.0000   1.0000   1.0000   1.0000   1.0000   1.0000   1.0000
     1.0000   1.0000   1.0000   1.0000   1.0000   1.0000   1.0000   1.0000
     1.0000   1.0000   1.0000   1.0000   1.0000   1.0000   1.0000   1.0000
     1.0000   0.0000   0.0000   0.0000   0.0000   0.0000   0.0000   0.0000
     0.0000   0.0000   0.0000   0.0000   0.0000   0.0000   0.0000   0.0000

[...]

          k = 0.3333-0.5075 0.6072 (  3814 PWs)   bands (ev):

   -83.1159 -83.1158 -46.1903 -46.1875 -46.1530 -46.1503 -46.1224 -46.1202
   -32.9269 -32.9250 -11.0428 -11.0140 -10.9846 -10.9383 -10.9204 -10.8886
    -3.3035  -3.1244  -2.9738  -2.8046   4.7825   5.0346   5.0663   5.1859
     5.4107   5.5046   5.5473   5.6202   5.7266   5.8074   5.9143   6.1574
     6.1839   6.5275   6.6320   7.1671   7.2927   7.3229   7.6684   7.8338
     7.8979   7.9750   9.1108   9.1130   9.1496   9.1587   9.1922   9.2176
     9.2429   9.3238   9.4019   9.4678   9.4859   9.5107   9.5456   9.6813
    11.4634  11.7047  12.1222  12.4990  12.6960  12.8692  13.3995  13.6593

     occupation numbers
     1.0000   1.0000   1.0000   1.0000   1.0000   1.0000   1.0000   1.0000
     1.0000   1.0000   1.0000   1.0000   1.0000   1.0000   1.0000   1.0000
     1.0000   1.0000   1.0000   1.0000   1.0000   1.0000   1.0000   1.0000
     1.0000   1.0000   1.0000   1.0000   1.0000   1.0000   1.0000   1.0000
     1.0000   1.0000   1.0000   1.0000   1.0000   1.0000   1.0000   1.0000
     1.0000   1.0000   1.0000   1.0000   1.0000   1.0000   1.0000   1.0000
     1.0000   0.0000   0.0000   0.0000   0.0000   0.0000   0.0000   0.0000
     0.0000   0.0000   0.0000   0.0000   0.0000   0.0000   0.0000   0.0000

     highest occupied, lowest unoccupied level (ev):     9.3315    9.2548

!    total energy              =   -2116.14360137 Ry
     estimated scf accuracy    <       0.00000074 Ry

     The total energy is the sum of the following terms:
     one-electron contribution =    -602.05735878 Ry
     hartree contribution      =     345.49415589 Ry
     xc contribution           =    -218.32154169 Ry
     ewald contribution        =    -708.99541080 Ry
     one-center paw contrib.   =    -932.26344599 Ry
      -> PAW hartree energy AE =     183.95372346 Ry
      -> PAW hartree energy PS =    -174.68408655 Ry
      -> PAW xc energy AE      =    -496.85112510 Ry
      -> PAW xc energy PS      =      21.44976519 Ry
      -> total E_H with PAW    =     354.76379280 Ry
      -> total E_XC with PAW   =    -693.72290160 Ry

     convergence has been achieved in  77 iterations

     Writing all to output data dir bands_nm/myprefix.save/

     General routines

     Parallel routines

     PAW routines

   This run was terminated on:  13:18: 2  16Jul2023

   JOB DONE.