     Program PWSCF v.7.1 starts on 13Jul2023 at  8:11:15

     Reading input from espresso_3260.pwi
Warning: card &CELL ignored
Warning: card / ignored

     Current dimensions of program PWSCF are:
     Max number of different atomic species (ntypx) = 10
     Max number of k-points (npk) =  40000
     Max angular momentum in pseudopotentials (lmaxx) =  4
     file Mg.pbe-n-kjpaw_psl.0.3.0.UPF: wavefunction(s)  3S renormalized
     Message from routine setup:
     using ibrav=0 with symmetry is DISCOURAGED, use correct ibrav instead

     K-points division:     npool     =       2
     R & G space division:  proc/nbgrp/npool/nimage =       8
     Subspace diagonalization in iterative solution of the eigenvalue problem:
     a serial algorithm will be used

     Using Slab Decomposition

     bravais-lattice index     =            0
     lattice parameter (alat)  =      15.2047  a.u.
     unit-cell volume          =    2485.5124 (a.u.)^3
     number of atoms/cell      =           14
     number of atomic types    =            3
     number of electrons       =       116.00
     number of Kohn-Sham states=           64
     kinetic-energy cutoff     =      30.0000  Ry
     charge density cutoff     =     240.0000  Ry
     scf convergence threshold =      1.0E-06
     mixing beta               =       0.7000
     number of iterations used =            8  plain     mixing
     Exchange-correlation=  SLA  PW   PBX  PBC
                           (   1   4   3   4   0   0   0)

     celldm(1)=  15.204669  celldm(2)=   0.000000  celldm(3)=   0.000000
     celldm(4)=   0.000000  celldm(5)=   0.000000  celldm(6)=   0.000000

     crystal axes: (cart. coord. in units of alat)
               a(1) = (   1.000000   0.000000   0.000000 )
               a(2) = (   0.500000   0.866025   0.000000 )
               a(3) = (   0.500000   0.288675   0.816497 )

     reciprocal axes: (cart. coord. in units 2 pi/alat)
               b(1) = (  1.000000 -0.577350 -0.408248 )
               b(2) = (  0.000000  1.154701 -0.408248 )
               b(3) = (  0.000000  0.000000  1.224745 )

     PseudoPot. # 1 for Sm read from file:
     /lustre07/scratch/pragov/crystal_structure_design/utils/SSSP/Sm.GGA-PBE-paw-v1.0.UPF
     MD5 check sum: 886f70968969f895acf876f5617e0641
     Pseudo is Projector augmented-wave + core cor, Zval = 16.0
     Generated using ATOMPAW code
     Shape of augmentation charge: BESSEL
     Using radial grid of 1107 points,  8 beta functions with:
                l(1) =   0
                l(2) =   0
                l(3) =   1
                l(4) =   1
                l(5) =   2
                l(6) =   2
                l(7) =   3
                l(8) =   3
     Q(r) pseudized with 0 coefficients

     PseudoPot. # 2 for Mg read from file:
     /lustre07/scratch/pragov/crystal_structure_design/utils/SSSP/Mg.pbe-n-kjpaw_psl.0.3.0.UPF
     MD5 check sum: 24ecedc7f3e3cbe212e682f4413594e4
     Pseudo is Projector augmented-wave + core cor, Zval =  2.0
     Generated using "atomic" code by A. Dal Corso  v.5.0.99 svn rev. 10869
     Shape of augmentation charge: PSQ
     Using radial grid of 1129 points,  4 beta functions with:
                l(1) =   0
                l(2) =   0
                l(3) =   1
                l(4) =   1
     Q(r) pseudized with 0 coefficients

     PseudoPot. # 3 for S  read from file:
     /lustre07/scratch/pragov/crystal_structure_design/utils/SSSP/s_pbe_v1.4.uspp.F.UPF
     MD5 check sum: 88d86576ff6df21479756cfb9bdac1df
     Pseudo is Ultrasoft + core correction, Zval =  6.0
     Generated by new atomic code, or converted to UPF format
     Using radial grid of  907 points,  6 beta functions with:
                l(1) =   0
                l(2) =   0
                l(3) =   1
                l(4) =   1
                l(5) =   2
                l(6) =   2
     Q(r) pseudized with  8 coefficients,  rinner =    1.300   1.300   1.300
                                                       1.300   1.300

     atomic species   valence    mass     pseudopotential
        Sm            16.00   150.36000     Sm( 1.00)
        Mg             2.00    24.30500     Mg( 1.00)
        S              6.00    32.06000     S ( 1.00)

     12 Sym. Ops., with inversion, found ( 6 have fractional translation)

                                    s                        frac. trans.

      isym =  1     identity

 cryst.   s( 1) = (     1          0          0      )
                  (     0          1          0      )
                  (     0          0          1      )

 cart.    s( 1) = (  1.0000000  0.0000000  0.0000000 )
                  (  0.0000000  1.0000000 -0.0000000 )
                  (  0.0000000  0.0000000  1.0000000 )

      isym =  2     180 deg rotation - cart. axis [1,0,0]

 cryst.   s( 2) = (     1          0          0      )    f =( -0.2500000 )
                  (     1         -1          0      )       ( -0.2500000 )
                  (     1          0         -1      )       ( -0.2500000 )

 cart.    s( 2) = (  1.0000000  0.0000000  0.0000000 )    f =( -0.5000000 )
                  (  0.0000000 -1.0000000  0.0000000 )       ( -0.2886751 )
                  (  0.0000000  0.0000000 -1.0000000 )       ( -0.2041241 )

      isym =  3     120 deg rotation - cryst. axis [0,0,1]

[...]

      isym =  6     180 deg rotation - cryst. axis [1,1,0]

[...]

      isym =  7     inversion

[...]

      isym =  8     inv. 180 deg rotation - cart. axis [1,0,0]

 cryst.   s( 8) = (    -1          0          0      )
                  (    -1          1          0      )
                  (    -1          0          1      )

 cart.    s( 8) = ( -1.0000000  0.0000000 -0.0000000 )
                  (  0.0000000  1.0000000 -0.0000000 )
                  (  0.0000000  0.0000000  1.0000000 )

      isym =  9     inv. 120 deg rotation - cryst. axis [0,0,1]

 cryst.   s( 9) = (     1         -1          0      )    f =( -0.2500000 )
                  (     1          0          0      )       ( -0.2500000 )
                  (     1          0         -1      )       ( -0.2500000 )

 cart.    s( 9) = (  0.5000000  0.8660254 -0.0000000 )    f =( -0.5000000 )
                  ( -0.8660254  0.5000000 -0.0000000 )       ( -0.2886751 )
                  (  0.0000000  0.0000000 -1.0000000 )       ( -0.2041241 )

[...]

 cryst.   s(10) = (     0          1          0      )    f =( -0.2500000 )
                  (    -1          1          0      )       ( -0.2500000 )
                  (     0          1         -1      )       ( -0.2500000 )

 cart.    s(10) = (  0.5000000 -0.8660254  0.0000000 )    f =( -0.5000000 )
                  (  0.8660254  0.5000000 -0.0000000 )       ( -0.2886751 )
                  (  0.0000000  0.0000000 -1.0000000 )       ( -0.2041241 )

[...]

 cryst.   s(11) = (     0          1          0      )
                  (     1          0          0      )
                  (     0          0          1      )

 cart.    s(11) = (  0.5000000  0.8660254 -0.0000000 )
                  (  0.8660254 -0.5000000  0.0000000 )
                  (  0.0000000  0.0000000  1.0000000 )

      isym = 12     inv. 180 deg rotation - cryst. axis [1,1,0]

 cryst.   s(12) = (     1         -1          0      )
                  (     0         -1          0      )
                  (     0         -1          1      )

 cart.    s(12) = (  0.5000000 -0.8660254  0.0000000 )
                  ( -0.8660254 -0.5000000  0.0000000 )
                  (  0.0000000  0.0000000  1.0000000 )

   Cartesian axes

     site n.     atom                  positions (alat units)
         1           Sm  tau(   1) = (   1.0000000   0.2886751   0.5103104  )
         2           Sm  tau(   2) = (   1.0000000   0.5773503   0.1020621  )
         3           Sm  tau(   3) = (   0.7500000   0.7216878   0.5103104  )
         4           Sm  tau(   4) = (   1.2500000   0.7216878   0.5103104  )
         5           Mg  tau(   5) = (   0.0000000   0.0000000   0.0000000  )
         6           Mg  tau(   6) = (   0.5000000   0.2886751   0.2041241  )
         7           S   tau(   7) = (   0.7570360   0.4370749   0.3090587  )
         8           S   tau(   8) = (   1.2429640   0.4370749   0.3090587  )
         9           S   tau(   9) = (   1.0000000   0.8579009   0.3090587  )
        10           S   tau(  10) = (   1.0000000   0.5773503   0.7058172  )
        11           S   tau(  11) = (   1.5000000   0.8660254   0.3148035  )
        12           S   tau(  12) = (   1.5000000   0.5854747   0.7115621  )
        13           S   tau(  13) = (   1.2570360   1.0063007   0.7115621  )
        14           S   tau(  14) = (   1.7429640   1.0063007   0.7115621  )

   Crystallographic axes

     site n.     atom                  positions (cryst. coord.)
         1           Sm  tau(   1) = (  0.6250000  0.1250000  0.6250000  )
         2           Sm  tau(   2) = (  0.6250000  0.6250000  0.1250000  )
         3           Sm  tau(   3) = (  0.1250000  0.6250000  0.6250000  )
         4           Sm  tau(   4) = (  0.6250000  0.6250000  0.6250000  )
         5           Mg  tau(   5) = (  0.0000000  0.0000000  0.0000000  )
         6           Mg  tau(   6) = (  0.2500000  0.2500000  0.2500000  )
         7           S   tau(   7) = (  0.3785180  0.3785180  0.3785180  )
         8           S   tau(   8) = (  0.8644460  0.3785180  0.3785180  )
         9           S   tau(   9) = (  0.3785180  0.8644460  0.3785180  )
        10           S   tau(  10) = (  0.3785180  0.3785180  0.8644460  )
        11           S   tau(  11) = (  0.8714820  0.8714820  0.3855540  )
        12           S   tau(  12) = (  0.8714820  0.3855540  0.8714820  )
        13           S   tau(  13) = (  0.3855540  0.8714820  0.8714820  )
        14           S   tau(  14) = (  0.8714820  0.8714820  0.8714820  )

     number of k points=     6
                       cart. coord. in units 2pi/alat
        k(    1) = (   0.0000000   0.0000000   0.0000000), wk =   0.0740741
        k(    2) = (   0.0000000   0.0000000   0.4082483), wk =   0.1481481
        k(    3) = (   0.0000000   0.3849002  -0.1360828), wk =   0.4444444
        k(    4) = (   0.0000000   0.3849002   0.2721655), wk =   0.4444444
        k(    5) = (   0.0000000   0.3849002  -0.5443311), wk =   0.4444444
        k(    6) = (   0.3333333  -0.5773503   0.0000000), wk =   0.4444444

                       cryst. coord.
        k(    1) = (   0.0000000   0.0000000   0.0000000), wk =   0.0740741
        k(    2) = (   0.0000000   0.0000000   0.3333333), wk =   0.1481481
        k(    3) = (   0.0000000   0.3333333   0.0000000), wk =   0.4444444
        k(    4) = (   0.0000000   0.3333333   0.3333333), wk =   0.4444444
        k(    5) = (   0.0000000   0.3333333  -0.3333333), wk =   0.4444444
        k(    6) = (   0.3333333  -0.3333333  -0.0000000), wk =   0.4444444

     Initial potential from superposition of free atoms

     starting charge     115.9755, renormalised to     116.0000
     Starting wfcs are  168 randomized atomic wfcs
     Checking if some PAW data can be deallocated...

     Self-consistent Calculation

     iteration #  1     ecut=    30.00 Ry     beta= 0.70
     Davidson diagonalization with overlap

     ethr =  1.00E-02,  avg # of iterations =  1.0

     total energy              =   -2632.61373737 Ry
     estimated scf accuracy    <      40.71500179 Ry

[...]

     c_bands:  4 eigenvalues not converged
     c_bands:  1 eigenvalues not converged
     ethr =  8.30E-06,  avg # of iterations = 20.8

[...]

     c_bands:  2 eigenvalues not converged
     ethr =  1.06E-06,  avg # of iterations = 15.0

[...]

     total energy              =   -2677.66192622 Ry
     estimated scf accuracy    <       0.00000344 Ry

     iteration # 83     ecut=    30.00 Ry     beta= 0.70
     Davidson diagonalization with overlap

     ethr =  2.84E-09,  avg # of iterations = 10.5

     End of self-consistent calculation

          k = 0.0000 0.0000 0.0000 (  6855 PWs)   bands (ev):

   -32.9680 -32.9499 -32.9431 -32.9431 -13.0334 -12.8206 -12.8132 -12.8132
   -12.6483 -12.6483 -12.5313 -12.5223 -12.5222 -12.5222 -12.5076 -12.5076
    -5.9685  -5.4367  -5.4367  -5.4241  -5.0521  -4.9980  -4.9980  -4.9850
     1.6493   2.5368   2.5401   2.5401   2.7225   3.7987   3.7987   3.9530
     3.9530   3.9609   4.0497   4.0497   4.1635   4.1635   4.1696   4.2922
     4.2957   4.2957   4.8062   4.8062   4.8090   5.0379   5.0387   5.0387
     6.2540   6.2864   6.2864   6.2865   6.2935   6.2935   6.4029   6.4292
     6.4564   6.4564   6.5062   6.5062   6.5199   6.5836   6.5836   6.5978

     occupation numbers
     1.0000   1.0000   1.0000   1.0000   1.0000   1.0000   1.0000   1.0000
     1.0000   1.0000   1.0000   1.0000   1.0000   1.0000   1.0000   1.0000
     1.0000   1.0000   1.0000   1.0000   1.0000   1.0000   1.0000   1.0000
     1.0000   1.0000   1.0000   1.0000   1.0000   1.0000   1.0000   1.0000
     1.0000   1.0000   1.0000   1.0000   1.0000   1.0000   1.0000   1.0000
     1.0000   1.0000   1.0000   1.0000   1.0000   1.0000   1.0000   1.0000
     1.0000   1.0000   1.0000   1.0000   1.0000   1.0000   1.0000   1.0000
     1.0000   1.0000   0.0000   0.0000   0.0000   0.0000   0.0000   0.0000

[...]

          k = 0.3333-0.5774 0.0000 (  6895 PWs)   bands (ev):

   -32.9626 -32.9510 -32.9474 -32.9431 -12.9037 -12.7921 -12.7156 -12.7141
   -12.7112 -12.6724 -12.6109 -12.6015 -12.5726 -12.5603 -12.5517 -12.5223
    -5.5368  -5.4293  -5.3904  -5.3704  -5.2401  -5.1763  -5.1244  -5.0493
     2.4804   2.5442   2.8515   3.1543   3.2373   3.2696   3.4369   3.5461
     3.5772   3.6684   3.7509   3.9830   4.0556   4.1489   4.2614   4.3034
     4.3747   4.3766   4.4401   4.5690   4.7013   4.7191   4.8454   4.9665
     6.2791   6.3059   6.3066   6.3116   6.3230   6.3297   6.3788   6.3931
     6.4010   6.4211   6.4435   6.4524   6.5188   6.5933   6.6037   6.6050

     occupation numbers
     1.0000   1.0000   1.0000   1.0000   1.0000   1.0000   1.0000   1.0000
     1.0000   1.0000   1.0000   1.0000   1.0000   1.0000   1.0000   1.0000
     1.0000   1.0000   1.0000   1.0000   1.0000   1.0000   1.0000   1.0000
     1.0000   1.0000   1.0000   1.0000   1.0000   1.0000   1.0000   1.0000
     1.0000   1.0000   1.0000   1.0000   1.0000   1.0000   1.0000   1.0000
     1.0000   1.0000   1.0000   1.0000   1.0000   1.0000   1.0000   1.0000
     1.0000   1.0000   1.0000   1.0000   1.0000   1.0000   1.0000   1.0000
     1.0000   1.0000   0.0000   0.0000   0.0000   0.0000   0.0000   0.0000

     highest occupied, lowest unoccupied level (ev):     6.4564    6.4408

!    total energy              =   -2677.66192745 Ry
     estimated scf accuracy    <       0.00000061 Ry

     The total energy is the sum of the following terms:
     one-electron contribution =    -447.34665308 Ry
     hartree contribution      =     293.30980867 Ry
     xc contribution           =    -143.13168040 Ry
     ewald contribution        =    -519.04537030 Ry
     one-center paw contrib.   =   -1861.44803233 Ry
      -> PAW hartree energy AE =     127.63500799 Ry
      -> PAW hartree energy PS =    -124.71910556 Ry
      -> PAW xc energy AE      =    -469.50623426 Ry
      -> PAW xc energy PS      =      16.86290408 Ry
      -> total E_H with PAW    =     296.22571111 Ry
      -> total E_XC with PAW   =    -595.77501058 Ry

     convergence has been achieved in  83 iterations

     Writing all to output data dir bands_nm/myprefix.save/

     General routines

     Parallel routines

     PAW routines

   This run was terminated on:   8:12:59  13Jul2023

   JOB DONE.