     Program PWSCF v.7.1 starts on 14Jul2023 at  1:50:34

     Reading input from espresso_6226.pwi
Warning: card &CELL ignored
Warning: card / ignored

     Current dimensions of program PWSCF are:
     Max number of different atomic species (ntypx) = 10
     Max number of k-points (npk) =  40000
     Max angular momentum in pseudopotentials (lmaxx) =  4
     file O.pbe-n-kjpaw_psl.0.1.UPF: wavefunction(s)  2P renormalized
     Message from routine setup:
     using ibrav=0 with symmetry is DISCOURAGED, use correct ibrav instead

     K-points division:     npool     =       2
     R & G space division:  proc/nbgrp/npool/nimage =       4
     Subspace diagonalization in iterative solution of the eigenvalue problem:
     a serial algorithm will be used

     Using Slab Decomposition

     bravais-lattice index     =            0
     lattice parameter (alat)  =       9.5962  a.u.
     unit-cell volume          =    1340.0547 (a.u.)^3
     number of atoms/cell      =           16
     number of atomic types    =            3
     number of electrons       =       128.00
     number of Kohn-Sham states=           64
     kinetic-energy cutoff     =      30.0000  Ry
     charge density cutoff     =     240.0000  Ry
     scf convergence threshold =      1.0E-06
     mixing beta               =       0.7000
     number of iterations used =            8  plain     mixing
     Exchange-correlation=  SLA  PW   PBX  PBC
                           (   1   4   3   4   0   0   0)

     celldm(1)=   9.596220  celldm(2)=   0.000000  celldm(3)=   0.000000
     celldm(4)=   0.000000  celldm(5)=   0.000000  celldm(6)=   0.000000

     crystal axes: (cart. coord. in units of alat)
               a(1) = (   1.000000   0.000000   0.000000 )
               a(2) = (   0.469334   0.889772   0.000000 )
               a(3) = (   0.428901   0.241234   1.704289 )

     reciprocal axes: (cart. coord. in units 2 pi/alat)
               b(1) = (  1.000000 -0.527477 -0.176998 )
               b(2) = (  0.000000  1.123883 -0.159080 )
               b(3) = (  0.000000  0.000000  0.586755 )

     PseudoPot. # 1 for V  read from file:
     /lustre07/scratch/pragov/crystal_structure_design/utils/SSSP/v_pbe_v1.4.uspp.F.UPF
     MD5 check sum: 22b79981416ebb76fdaf5b1b8640f6fb
     Pseudo is Ultrasoft + core correction, Zval = 13.0
     Generated by new atomic code, or converted to UPF format
     Using radial grid of  853 points,  6 beta functions with:
                l(1) =   0
                l(2) =   0
                l(3) =   1
                l(4) =   1
                l(5) =   2
                l(6) =   2
     Q(r) pseudized with  8 coefficients,  rinner =    1.100   1.100   1.100
                                                       1.100   1.100

     PseudoPot. # 2 for O  read from file:
     /lustre07/scratch/pragov/crystal_structure_design/utils/SSSP/O.pbe-n-kjpaw_psl.0.1.UPF
     MD5 check sum: 0234752ac141de4415c5fc33072bef88
     Pseudo is Projector augmented-wave + core cor, Zval =  6.0
     Generated using "atomic" code by A. Dal Corso  v.5.0.99 svn rev. 10869
     Shape of augmentation charge: BESSEL
     Using radial grid of 1095 points,  4 beta functions with:
                l(1) =   0
                l(2) =   0
                l(3) =   1
                l(4) =   1
     Q(r) pseudized with 0 coefficients

     PseudoPot. # 3 for F  read from file:
     /lustre07/scratch/pragov/crystal_structure_design/utils/SSSP/f_pbe_v1.4.uspp.F.UPF
     MD5 check sum: 4c38b6a325caf53ec0e86aed9459de46
     Pseudo is Ultrasoft, Zval =  7.0
     Generated by new atomic code, or converted to UPF format
     Using radial grid of  799 points,  4 beta functions with:
                l(1) =   0
                l(2) =   0
                l(3) =   1
                l(4) =   1
     Q(r) pseudized with  8 coefficients,  rinner =    0.950   0.950   0.950

     atomic species   valence    mass     pseudopotential
        V             13.00    50.94150     V ( 1.00)
        O              6.00    15.99900     O ( 1.00)
        F              7.00    18.99840     F ( 1.00)

      2 Sym. Ops., with inversion, found

                                    s                        frac. trans.

      isym =  1     identity

 cryst.   s( 1) = (     1          0          0      )
                  (     0          1          0      )
                  (     0          0          1      )

 cart.    s( 1) = (  1.0000000  0.0000000  0.0000000 )
                  (  0.0000000  1.0000000  0.0000000 )
                  (  0.0000000  0.0000000  1.0000000 )

      isym =  2     inversion

 cryst.   s( 2) = (    -1          0          0      )
                  (     0         -1          0      )
                  (     0          0         -1      )

 cart.    s( 2) = ( -1.0000000  0.0000000  0.0000000 )
                  (  0.0000000 -1.0000000 -0.0000000 )
                  (  0.0000000  0.0000000 -1.0000000 )

   Cartesian axes

     site n.     atom                  positions (alat units)
         1           V   tau(   1) = (   0.0000000   0.0000000   0.0000000  )
         2           V   tau(   2) = (   0.4620667   0.3405743   0.4266636  )
         3           V   tau(   3) = (   0.9491177   0.5655029   0.8521444  )
         4           V   tau(   4) = (   1.4361687   0.7904316   1.2776253  )
         5           O   tau(   5) = (   0.5480133   0.5864099   0.2112602  )
         6           O   tau(   6) = (   0.6470293   0.6287803   1.0682329  )
         7           O   tau(   7) = (   0.1997755   0.1932693   0.2145529  )
         8           O   tau(   8) = (   1.1430047   0.7756880   1.0625321  )
         9           O   tau(   9) = (   0.7552307   0.3553179   0.6417568  )
        10           O   tau(  10) = (   1.6984598   0.9377366   1.4897359  )
        11           O   tau(  11) = (   1.2512061   0.5022255   0.6360559  )
        12           O   tau(  12) = (   1.3502221   0.5445960   1.4930286  )
        13           F   tau(  13) = (   0.8578477   0.8592428   0.6418318  )
        14           F   tau(  14) = (   1.1995660   1.0679623   1.4906631  )
        15           F   tau(  15) = (   0.6986694   0.0630436   0.2136258  )
        16           F   tau(  16) = (   1.0403877   0.2717630   1.0624571  )

   Crystallographic axes

     site n.     atom                  positions (cryst. coord.)
         1           V   tau(   1) = (  0.0000000  0.0000000  0.0000000  )
         2           V   tau(   2) = (  0.2069030  0.3148920  0.2503470  )
         3           V   tau(   3) = (  0.5000000  0.5000000  0.5000000  )
         4           V   tau(   4) = (  0.7930970  0.6851080  0.7496530  )
         5           O   tau(   5) = (  0.2013030  0.6254490  0.1239580  )
         6           O   tau(   6) = (  0.1262870  0.5367410  0.6267910  )
         7           O   tau(   7) = (  0.0598550  0.1830810  0.1258900  )
         8           O   tau(   8) = (  0.5457810  0.7027550  0.6234460  )
         9           O   tau(   9) = (  0.4542190  0.2972450  0.3765540  )
        10           O   tau(  10) = (  0.9401450  0.8169190  0.8741100  )
        11           O   tau(  11) = (  0.8737130  0.4632590  0.3732090  )
        12           O   tau(  12) = (  0.7986970  0.3745510  0.8760420  )
        13           F   tau(  13) = (  0.2910140  0.8635860  0.3765980  )
        14           F   tau(  14) = (  0.3723960  0.9631300  0.8746540  )
        15           F   tau(  15) = (  0.6276040  0.0368700  0.1253460  )
        16           F   tau(  16) = (  0.7089860  0.1364140  0.6234020  )

     number of k points=    14
                       cart. coord. in units 2pi/alat
        k(    1) = (   0.0000000   0.0000000   0.0000000), wk =   0.0740741
        k(    2) = (   0.0000000   0.0000000   0.1955850), wk =   0.1481481
        k(    3) = (   0.0000000   0.3746278  -0.0530268), wk =   0.1481481
        k(    4) = (   0.0000000   0.3746278   0.1425582), wk =   0.1481481
        k(    5) = (   0.0000000   0.3746278  -0.2486118), wk =   0.1481481
        k(    6) = (   0.3333333  -0.1758256  -0.0589994), wk =   0.1481481
        k(    7) = (   0.3333333  -0.1758256   0.1365856), wk =   0.1481481
        k(    8) = (   0.3333333  -0.1758256  -0.2545844), wk =   0.1481481
        k(    9) = (   0.3333333   0.1988022  -0.1120261), wk =   0.1481481
        k(   10) = (   0.3333333   0.1988022   0.0835588), wk =   0.1481481
        k(   11) = (   0.3333333   0.1988022  -0.3076111), wk =   0.1481481
        k(   12) = (   0.3333333  -0.5504534  -0.0059726), wk =   0.1481481
        k(   13) = (   0.3333333  -0.5504534   0.1896124), wk =   0.1481481
        k(   14) = (   0.3333333  -0.5504534  -0.2015576), wk =   0.1481481

                       cryst. coord.
        k(    1) = (   0.0000000   0.0000000   0.0000000), wk =   0.0740741
        k(    2) = (   0.0000000   0.0000000   0.3333333), wk =   0.1481481
        k(    3) = (   0.0000000   0.3333333   0.0000000), wk =   0.1481481
        k(    4) = (   0.0000000   0.3333333   0.3333333), wk =   0.1481481
        k(    5) = (   0.0000000   0.3333333  -0.3333333), wk =   0.1481481
        k(    6) = (   0.3333333  -0.0000000  -0.0000000), wk =   0.1481481
        k(    7) = (   0.3333333  -0.0000000   0.3333333), wk =   0.1481481
        k(    8) = (   0.3333333  -0.0000000  -0.3333333), wk =   0.1481481
        k(    9) = (   0.3333333   0.3333333   0.0000000), wk =   0.1481481
        k(   10) = (   0.3333333   0.3333333   0.3333333), wk =   0.1481481
        k(   11) = (   0.3333333   0.3333333  -0.3333333), wk =   0.1481481
        k(   12) = (   0.3333333  -0.3333333  -0.0000000), wk =   0.1481481
        k(   13) = (   0.3333333  -0.3333333   0.3333333), wk =   0.1481481
        k(   14) = (   0.3333333  -0.3333333  -0.3333333), wk =   0.1481481

     Check: negative core charge=   -0.000014

     Initial potential from superposition of free atoms

     starting charge     127.9951, renormalised to     128.0000

     negative rho (up, down):  4.764E-03 0.000E+00
     Starting wfcs are   88 randomized atomic wfcs
     Checking if some PAW data can be deallocated...

     Self-consistent Calculation

     iteration #  1     ecut=    30.00 Ry     beta= 0.70
     Davidson diagonalization with overlap

     ethr =  1.00E-02,  avg # of iterations =  1.0

     negative rho (up, down):  1.197E-02 0.000E+00

     total energy              =   -1102.69756037 Ry
     estimated scf accuracy    <       9.04462280 Ry

[...]

     total energy              =   -1108.48847765 Ry
     estimated scf accuracy    <       0.00000231 Ry

     iteration # 18     ecut=    30.00 Ry     beta= 0.70
     Davidson diagonalization with overlap

     ethr =  1.80E-09,  avg # of iterations =  4.5

     negative rho (up, down):  8.906E-03 0.000E+00

     End of self-consistent calculation

          k = 0.0000 0.0000 0.0000 (  3733 PWs)   bands (ev):

   -61.1859 -61.1179 -60.6980 -60.6980 -35.0638 -34.9921 -34.9875 -34.9407
   -34.8827 -34.8155 -34.5979 -34.5959 -34.5764 -34.5747 -34.4452 -34.4418
   -17.9211 -17.7570 -17.6174 -17.4629 -13.4004 -13.0792 -12.8518 -12.6957
   -12.6067 -12.5244 -12.3685 -12.0074  -1.4156  -1.3072  -1.1202  -0.6261
    -0.5693  -0.5431  -0.5062  -0.4175  -0.4090  -0.2353   0.0440   0.0547
     0.2349   0.3766   0.4098   0.6244   0.6257   0.6410   1.0216   1.1697
     1.4732   1.8396   1.9056   2.0980   2.1823   2.6665   2.7564   2.9537
     2.9761   3.1060   3.3325   3.6049   3.6161   3.6279   3.6738   3.9015

     occupation numbers
     1.0000   1.0000   1.0000   1.0000   1.0000   1.0000   1.0000   1.0000
     1.0000   1.0000   1.0000   1.0000   1.0000   1.0000   1.0000   1.0000
     1.0000   1.0000   1.0000   1.0000   1.0000   1.0000   1.0000   1.0000
     1.0000   1.0000   1.0000   1.0000   1.0000   1.0000   1.0000   1.0000
     1.0000   1.0000   1.0000   1.0000   1.0000   1.0000   1.0000   1.0000
     1.0000   1.0000   1.0000   1.0000   1.0000   1.0000   1.0000   1.0000
     1.0000   1.0000   1.0000   1.0000   1.0000   1.0000   1.0000   1.0000
     1.0000   1.0000   1.0000   1.0000   1.0000   1.0000   1.0000   1.0000

[...]

          k = 0.3333-0.5505-0.2016 (  3699 PWs)   bands (ev):

   -61.1858 -61.1178 -60.6980 -60.6978 -35.0630 -34.9915 -34.9875 -34.9403
   -34.8826 -34.8155 -34.5966 -34.5962 -34.5755 -34.5734 -34.4432 -34.4424
   -17.8525 -17.7626 -17.6124 -17.5040 -13.1753 -13.0930 -12.8909 -12.7723
   -12.6398 -12.6300 -12.2739 -12.1590  -1.4433  -1.3606  -1.0247  -0.9065
    -0.6562  -0.4304  -0.3780  -0.0921  -0.0819   0.0200   0.0608   0.2575
     0.4636   0.5912   0.6711   0.7898   0.8548   1.1075   1.2288   1.4981
     1.5171   1.5686   1.6719   1.7461   1.8642   1.9230   2.2405   2.4655
     2.6108   2.8245   3.0412   3.1257   3.1886   3.3218   3.5639   3.7673

     occupation numbers
     1.0000   1.0000   1.0000   1.0000   1.0000   1.0000   1.0000   1.0000
     1.0000   1.0000   1.0000   1.0000   1.0000   1.0000   1.0000   1.0000
     1.0000   1.0000   1.0000   1.0000   1.0000   1.0000   1.0000   1.0000
     1.0000   1.0000   1.0000   1.0000   1.0000   1.0000   1.0000   1.0000
     1.0000   1.0000   1.0000   1.0000   1.0000   1.0000   1.0000   1.0000
     1.0000   1.0000   1.0000   1.0000   1.0000   1.0000   1.0000   1.0000
     1.0000   1.0000   1.0000   1.0000   1.0000   1.0000   1.0000   1.0000
     1.0000   1.0000   1.0000   1.0000   1.0000   1.0000   1.0000   1.0000

     highest occupied level (ev):     4.0127

!    total energy              =   -1108.48847717 Ry
     estimated scf accuracy    <       0.00000091 Ry

     The total energy is the sum of the following terms:
     one-electron contribution =    -606.41536443 Ry
     hartree contribution      =     351.91743593 Ry
     xc contribution           =    -173.80790430 Ry
     ewald contribution        =    -603.93546698 Ry
     one-center paw contrib.   =     -76.24717739 Ry
      -> PAW hartree energy AE =       0.00000000 Ry
      -> PAW hartree energy PS =       0.00000000 Ry
      -> PAW xc energy AE      =       0.00000000 Ry
      -> PAW xc energy PS      =       0.00000000 Ry
      -> total E_H with PAW    =     351.91743593 Ry
      -> total E_XC with PAW   =    -173.80790430 Ry

     convergence has been achieved in  18 iterations

     Writing all to output data dir bands_nm/myprefix.save/

     General routines

     Parallel routines

     PAW routines

   This run was terminated on:   1:51:17  14Jul2023

   JOB DONE.