     Program PWSCF v.7.0 starts on  4Jun2023 at 16: 0:32

     K-points division:     npool     =       2
     R & G space division:  proc/nbgrp/npool/nimage =       4

     Reading input from espresso_3033.pwi
Warning: card &CELL ignored
Warning: card / ignored

     Current dimensions of program PWSCF are:
     Max number of different atomic species (ntypx) = 10
     Max number of k-points (npk) =  40000
     Max angular momentum in pseudopotentials (lmaxx) =  4
     file O.pbe-n-kjpaw_psl.0.1.UPF: wavefunction(s)  2P renormalized

     Using Slab Decomposition

     bravais-lattice index     =            0
     lattice parameter (alat)  =      10.2799  a.u.
     unit-cell volume          =    1407.1640 (a.u.)^3
     number of atoms/cell      =           16
     number of atomic types    =            4
     number of electrons       =       122.00
     number of Kohn-Sham states=           64
     kinetic-energy cutoff     =      30.0000  Ry
     charge density cutoff     =     240.0000  Ry
     scf convergence threshold =      1.0E-06
     mixing beta               =       0.7000
     number of iterations used =            8  plain     mixing
     Exchange-correlation=  SLA  PW   PBX  PBC
                           (   1   4   3   4   0   0   0)

     celldm(1)=  10.279915  celldm(2)=   0.000000  celldm(3)=   0.000000
     celldm(4)=   0.000000  celldm(5)=   0.000000  celldm(6)=   0.000000

     crystal axes: (cart. coord. in units of alat)
               a(1) = (   1.000000   0.000000   0.000000 )
               a(2) = (  -0.052078   1.072031   0.000000 )
               a(3) = (  -0.302293  -0.307792   1.208283 )

     reciprocal axes: (cart. coord. in units 2 pi/alat)
               b(1) = (  1.000000  0.048578  0.262559 )
               b(2) = (  0.000000  0.932809  0.237619 )
               b(3) = (  0.000000  0.000000  0.827621 )

     PseudoPot. # 1 for Li read from file:
     /home/pragov/projects/rrg-bengioy-ad/pragov/crystal_structure_design/SSSP/li_pbe_v1.4.uspp.F.UPF
     MD5 check sum: e912e257baa3777c20ea3d68f190483c
     Pseudo is Ultrasoft, Zval =  3.0
     Generated by new atomic code, or converted to UPF format
     Using radial grid of  751 points,  5 beta functions with:
                l(1) =   0
                l(2) =   0
                l(3) =   0
                l(4) =   1
                l(5) =   1
     Q(r) pseudized with 10 coefficients,  rinner =    1.150   1.150   1.150

     PseudoPot. # 2 for V  read from file:
     /home/pragov/projects/rrg-bengioy-ad/pragov/crystal_structure_design/SSSP/v_pbe_v1.4.uspp.F.UPF
     MD5 check sum: 22b79981416ebb76fdaf5b1b8640f6fb
     Pseudo is Ultrasoft + core correction, Zval = 13.0
     Generated by new atomic code, or converted to UPF format
     Using radial grid of  853 points,  6 beta functions with:
                l(1) =   0
                l(2) =   0
                l(3) =   1
                l(4) =   1
                l(5) =   2
                l(6) =   2
     Q(r) pseudized with  8 coefficients,  rinner =    1.100   1.100   1.100
                                                       1.100   1.100

     PseudoPot. # 3 for O  read from file:
     /home/pragov/projects/rrg-bengioy-ad/pragov/crystal_structure_design/SSSP/O.pbe-n-kjpaw_psl.0.1.UPF
     MD5 check sum: 0234752ac141de4415c5fc33072bef88
     Pseudo is Projector augmented-wave + core cor, Zval =  6.0
     Generated using "atomic" code by A. Dal Corso  v.5.0.99 svn rev. 10869
     Shape of augmentation charge: BESSEL
     Using radial grid of 1095 points,  4 beta functions with:
                l(1) =   0
                l(2) =   0
                l(3) =   1
                l(4) =   1
     Q(r) pseudized with 0 coefficients

     PseudoPot. # 4 for F  read from file:
     /home/pragov/projects/rrg-bengioy-ad/pragov/crystal_structure_design/SSSP/f_pbe_v1.4.uspp.F.UPF
     MD5 check sum: 4c38b6a325caf53ec0e86aed9459de46
     Pseudo is Ultrasoft, Zval =  7.0
     Generated by new atomic code, or converted to UPF format
     Using radial grid of  799 points,  4 beta functions with:
                l(1) =   0
                l(2) =   0
                l(3) =   1
                l(4) =   1
     Q(r) pseudized with  8 coefficients,  rinner =    0.950   0.950   0.950

     atomic species   valence    mass     pseudopotential
        Li             3.00     6.94000     Li( 1.00)
        V             13.00    50.94150     V ( 1.00)
        O              6.00    15.99900     O ( 1.00)
        F              7.00    18.99840     F ( 1.00)

     No symmetry found

                                    s                        frac. trans.

      isym =  1     identity

 cryst.   s( 1) = (     1          0          0      )
                  (     0          1          0      )
                  (     0          0          1      )

 cart.    s( 1) = (  1.0000000 -0.0000000  0.0000000 )
                  (  0.0000000  1.0000000 -0.0000000 )
                  (  0.0000000  0.0000000  1.0000000 )

   Cartesian axes

     site n.     atom                  positions (alat units)
         1           Li  tau(   1) = (  -0.0034463   0.2971340   0.7490858  )
         2           V   tau(   2) = (   0.5068966   0.0786833   0.4090061  )
         3           V   tau(   3) = (   0.2251276   0.6342087   0.1963049  )
         4           V   tau(   4) = (   0.6862071  -0.2823962   1.1732934  )
         5           O   tau(   5) = (   0.7692600   0.0069219   0.2452548  )
         6           O   tau(   6) = (   0.4431960   0.3578226   0.2820990  )
         7           O   tau(   7) = (   0.2158807   0.9740109   0.1824785  )
         8           O   tau(   8) = (   0.0753887   0.3116249   0.0207039  )
         9           F   tau(   9) = (   0.9256103   0.7176411   0.0142130  )
        10           F   tau(  10) = (   0.6773566   0.1554530   0.6910484  )
        11           F   tau(  11) = (   0.3639648   0.8071265   0.9921754  )
        12           F   tau(  12) = (   0.4398753   0.7498356   0.4533646  )
        13           F   tau(  13) = (   0.2292215   0.0710315   0.6163535  )
        14           F   tau(  14) = (   0.0851364   0.3242181   1.1111139  )
        15           F   tau(  15) = (   0.0173420   0.5374706   0.4373174  )
        16           F   tau(  16) = (  -0.1810116   0.7166908   0.9086347  )

   Crystallographic axes

     site n.     atom                  positions (cryst. coord.)
         1           Li  tau(   1) = (  0.2076670  0.4551660  0.6199590  )
         2           V   tau(   2) = (  0.6181070  0.1705840  0.3385020  )
         3           V   tau(   3) = (  0.3074780  0.6382410  0.1624660  )
         4           V   tau(   4) = (  0.9805470  0.0153750  0.9710420  )
         5           O   tau(   5) = (  0.8339900  0.0647340  0.2029780  )
         6           O   tau(   6) = (  0.5346460  0.4008120  0.2334710  )
         7           O   tau(   7) = (  0.3111080  0.9519260  0.1510230  )
         8           O   tau(   8) = (  0.0959630  0.2956060  0.0171350  )
         9           F   tau(   9) = (  0.9642040  0.6727990  0.0117630  )
        10           F   tau(  10) = (  0.8663490  0.3092140  0.5719260  )
        11           F   tau(  11) = (  0.6636780  0.9886540  0.8211450  )
        12           F   tau(  12) = (  0.5953360  0.8071810  0.3752140  )
        13           F   tau(  13) = (  0.3945010  0.2127160  0.5101070  )
        14           F   tau(  14) = (  0.3926190  0.5664550  0.9195810  )
        15           F   tau(  15) = (  0.1582730  0.6052720  0.3619330  )
        16           F   tau(  16) = (  0.0923740  0.8844440  0.7520050  )

     number of k points=    14
                       cart. coord. in units 2pi/alat
        k(    1) = (   0.0000000   0.0000000   0.0000000), wk =   0.0740741
        k(    2) = (   0.0000000   0.0000000   0.2758736), wk =   0.1481481
        k(    3) = (   0.0000000   0.3109362   0.0792063), wk =   0.1481481
        k(    4) = (   0.0000000   0.3109362   0.3550799), wk =   0.1481481
        k(    5) = (   0.0000000   0.3109362  -0.1966673), wk =   0.1481481
        k(    6) = (   0.3333333   0.0161928   0.0875195), wk =   0.1481481
        k(    7) = (   0.3333333   0.0161928   0.3633932), wk =   0.1481481
        k(    8) = (   0.3333333   0.0161928  -0.1883541), wk =   0.1481481
        k(    9) = (   0.3333333   0.3271290   0.1667258), wk =   0.1481481
        k(   10) = (   0.3333333   0.3271290   0.4425994), wk =   0.1481481
        k(   11) = (   0.3333333   0.3271290  -0.1091478), wk =   0.1481481
        k(   12) = (   0.3333333  -0.2947434   0.0083133), wk =   0.1481481
        k(   13) = (   0.3333333  -0.2947434   0.2841869), wk =   0.1481481
        k(   14) = (   0.3333333  -0.2947434  -0.2675603), wk =   0.1481481

                       cryst. coord.
        k(    1) = (   0.0000000   0.0000000   0.0000000), wk =   0.0740741
        k(    2) = (   0.0000000   0.0000000   0.3333333), wk =   0.1481481
        k(    3) = (   0.0000000   0.3333333  -0.0000000), wk =   0.1481481
        k(    4) = (   0.0000000   0.3333333   0.3333333), wk =   0.1481481
        k(    5) = (   0.0000000   0.3333333  -0.3333333), wk =   0.1481481
        k(    6) = (   0.3333333  -0.0000000   0.0000000), wk =   0.1481481
        k(    7) = (   0.3333333  -0.0000000   0.3333333), wk =   0.1481481
        k(    8) = (   0.3333333  -0.0000000  -0.3333333), wk =   0.1481481
        k(    9) = (   0.3333333   0.3333333  -0.0000000), wk =   0.1481481
        k(   10) = (   0.3333333   0.3333333   0.3333333), wk =   0.1481481
        k(   11) = (   0.3333333   0.3333333  -0.3333333), wk =   0.1481481
        k(   12) = (   0.3333333  -0.3333333   0.0000000), wk =   0.1481481
        k(   13) = (   0.3333333  -0.3333333   0.3333333), wk =   0.1481481
        k(   14) = (   0.3333333  -0.3333333  -0.3333333), wk =   0.1481481

     Check: negative core charge=   -0.000009

     Initial potential from superposition of free atoms

     starting charge     121.5456, renormalised to     122.0000

     negative rho (up, down):  2.168E-03 0.000E+00
     Starting wfcs are   83 randomized atomic wfcs
     Checking if some PAW data can be deallocated...

     Self-consistent Calculation

     iteration #  1     ecut=    30.00 Ry     beta= 0.70
     Davidson diagonalization with overlap

     ethr =  1.00E-02,  avg # of iterations =  2.0

     negative rho (up, down):  8.154E-03 0.000E+00

     total energy              =   -1001.31793603 Ry
     estimated scf accuracy    <       7.41043847 Ry

[...]

     total energy              =   -1006.05793841 Ry
     estimated scf accuracy    <       0.00001610 Ry

     iteration # 15     ecut=    30.00 Ry     beta= 0.70
     Davidson diagonalization with overlap

     ethr =  1.32E-08,  avg # of iterations =  3.3

     negative rho (up, down):  4.296E-03 0.000E+00

     End of self-consistent calculation

          k = 0.0000 0.0000 0.0000 (  3919 PWs)   bands (ev):

   -63.7488 -62.7849 -62.7018 -40.5919 -37.6248 -37.5415 -37.4048 -36.6574
   -36.6325 -36.6148 -36.6051 -36.5273 -36.4805 -20.1067 -19.7399 -19.6705
   -19.5943 -19.3059 -19.2044 -19.0459 -18.7548 -15.2503 -14.8190 -14.5007
   -14.4209  -3.3835  -3.2642  -3.0436  -2.6373  -2.5700  -2.4742  -2.3736
    -2.3152  -2.0492  -1.9545  -1.8812  -1.7266  -1.6604  -1.5023  -1.2962
    -1.1709  -1.0198  -0.9609  -0.8322  -0.7838  -0.6175  -0.6104  -0.4451
    -0.1552  -0.0755   0.1030   0.1364   0.3025   0.5131   0.6136   0.6983
     0.8061   0.9954   1.1704   1.4385   1.6724   3.3304   3.6426   3.9370

     occupation numbers
     1.0000   1.0000   1.0000   1.0000   1.0000   1.0000   1.0000   1.0000
     1.0000   1.0000   1.0000   1.0000   1.0000   1.0000   1.0000   1.0000
     1.0000   1.0000   1.0000   1.0000   1.0000   1.0000   1.0000   1.0000
     1.0000   1.0000   1.0000   1.0000   1.0000   1.0000   1.0000   1.0000
     1.0000   1.0000   1.0000   1.0000   1.0000   1.0000   1.0000   1.0000
     1.0000   1.0000   1.0000   1.0000   1.0000   1.0000   1.0000   1.0000
     1.0000   1.0000   1.0000   1.0000   1.0000   1.0000   1.0000   1.0000
     1.0000   1.0000   1.0000   1.0000   1.0000   0.0000   0.0000   0.0000

[...]

          k = 0.3333-0.2947-0.2676 (  3912 PWs)   bands (ev):

   -63.7488 -62.7849 -62.7017 -40.5918 -37.6246 -37.5423 -37.4034 -36.6566
   -36.6327 -36.6146 -36.6045 -36.5273 -36.4805 -20.0676 -19.7565 -19.6585
   -19.6087 -19.2949 -19.1877 -19.0683 -18.7615 -15.1528 -14.9367 -14.5954
   -14.3782  -3.2062  -3.1017  -3.0594  -2.8408  -2.6188  -2.5635  -2.3147
    -2.1621  -2.0034  -1.9081  -1.8132  -1.6587  -1.5387  -1.3698  -1.2887
    -1.1707  -1.0681  -0.9309  -0.8433  -0.8034  -0.6017  -0.5333  -0.3338
    -0.1607  -0.0987   0.0793   0.1297   0.2852   0.3442   0.4630   0.5841
     0.7426   1.0269   1.1697   1.2550   1.5515   3.3339   3.5529   3.8988

     occupation numbers
     1.0000   1.0000   1.0000   1.0000   1.0000   1.0000   1.0000   1.0000
     1.0000   1.0000   1.0000   1.0000   1.0000   1.0000   1.0000   1.0000
     1.0000   1.0000   1.0000   1.0000   1.0000   1.0000   1.0000   1.0000
     1.0000   1.0000   1.0000   1.0000   1.0000   1.0000   1.0000   1.0000
     1.0000   1.0000   1.0000   1.0000   1.0000   1.0000   1.0000   1.0000
     1.0000   1.0000   1.0000   1.0000   1.0000   1.0000   1.0000   1.0000
     1.0000   1.0000   1.0000   1.0000   1.0000   1.0000   1.0000   1.0000
     1.0000   1.0000   1.0000   1.0000   1.0000   0.0000   0.0000   0.0000

     highest occupied, lowest unoccupied level (ev):     1.6724    3.3238

!    total energy              =   -1006.05794018 Ry
     estimated scf accuracy    <       0.00000090 Ry

     The total energy is the sum of the following terms:
     one-electron contribution =    -696.42101742 Ry
     hartree contribution      =     392.00481431 Ry
     xc contribution           =    -165.61528129 Ry
     ewald contribution        =    -497.89667337 Ry
     one-center paw contrib.   =     -38.12978240 Ry
      -> PAW hartree energy AE =       0.00000000 Ry
      -> PAW hartree energy PS =       0.00000000 Ry
      -> PAW xc energy AE      =       0.00000000 Ry
      -> PAW xc energy PS      =       0.00000000 Ry
      -> total E_H with PAW    =     392.00481431 Ry
      -> total E_XC with PAW   =    -165.61528129 Ry

     convergence has been achieved in  15 iterations

     Writing all to output data dir calculations_bands/myprefix.save/

     General routines

     Parallel routines

     PAW routines

   This run was terminated on:  16: 3: 3   4Jun2023

   JOB DONE.