     Program PWSCF v.7.1 starts on 17Jul2023 at  0:14: 5

     Reading input from espresso_17146.pwi
Warning: card &CELL ignored
Warning: card / ignored

     Current dimensions of program PWSCF are:
     Max number of different atomic species (ntypx) = 10
     Max number of k-points (npk) =  40000
     Max angular momentum in pseudopotentials (lmaxx) =  4
     file O.pbe-n-kjpaw_psl.0.1.UPF: wavefunction(s)  2P renormalized
     Message from routine setup:
     using ibrav=0 with symmetry is DISCOURAGED, use correct ibrav instead

     K-points division:     npool     =       2
     R & G space division:  proc/nbgrp/npool/nimage =       4
     Subspace diagonalization in iterative solution of the eigenvalue problem:
     one sub-group per band group will be used

     Using Slab Decomposition

     bravais-lattice index     =            0
     lattice parameter (alat)  =      10.6763  a.u.
     unit-cell volume          =    1861.5535 (a.u.)^3
     number of atoms/cell      =           20
     number of atomic types    =            5
     number of electrons       =       182.00
     number of Kohn-Sham states=          256
     kinetic-energy cutoff     =      30.0000  Ry
     charge density cutoff     =     240.0000  Ry
     scf convergence threshold =      1.0E-06
     mixing beta               =       0.7000
     number of iterations used =            8  plain     mixing
     Exchange-correlation= SLA  PW   PBX  PBC
                           (   1   4   3   4   0   0   0)

     celldm(1)=  10.676322  celldm(2)=   0.000000  celldm(3)=   0.000000
     celldm(4)=   0.000000  celldm(5)=   0.000000  celldm(6)=   0.000000

     crystal axes: (cart. coord. in units of alat)
               a(1) = (   1.000000   0.000000   0.000000 )
               a(2) = (   0.000000   1.053137   0.000000 )
               a(3) = (   0.002091   0.000000   1.452531 )

     reciprocal axes: (cart. coord. in units 2 pi/alat)
               b(1) = (  1.000000  0.000000 -0.001440 )
               b(2) = (  0.000000  0.949544  0.000000 )
               b(3) = (  0.000000  0.000000  0.688453 )

     PseudoPot. # 1 for Sr read from file:
     /lustre07/scratch/pragov/crystal_structure_design/utils/SSSP/Sr_pbe_v1.uspp.F.UPF
     MD5 check sum: 6b418c05fbe9db5448babca5e47b7a5b
     Pseudo is Ultrasoft + core correction, Zval = 10.0
     Generated by new atomic code, or converted to UPF format
     Using radial grid of  883 points,  6 beta functions with:
                l(1) =   0
                l(2) =   0
                l(3) =   1
                l(4) =   1
                l(5) =   2
                l(6) =   2
     Q(r) pseudized with  6 coefficients,  rinner =    1.400   1.400   1.400
                                                       1.400   1.400

     PseudoPot. # 2 for Mn read from file:
     /lustre07/scratch/pragov/crystal_structure_design/utils/SSSP/mn_pbe_v1.5.uspp.F.UPF
     MD5 check sum: 82ef2b46521d7a7d9e736dc3972e4928
     Pseudo is Ultrasoft + core correction, Zval = 15.0
     Generated by new atomic code, or converted to UPF format
     Using radial grid of  859 points,  6 beta functions with:
                l(1) =   0
                l(2) =   0
                l(3) =   1
                l(4) =   1
                l(5) =   2
                l(6) =   2
     Q(r) pseudized with  8 coefficients,  rinner =    0.950   0.950   0.950
                                                       0.950   0.950

     PseudoPot. # 3 for Bi read from file:
     /lustre07/scratch/pragov/crystal_structure_design/utils/SSSP/Bi_pbe_v1.uspp.F.UPF
     MD5 check sum: cceb9f28ec65b6d7ff33140f5b0b1758
     Pseudo is Ultrasoft + core correction, Zval = 15.0
     Generated by new atomic code, or converted to UPF format
     Using radial grid of  899 points,  6 beta functions with:
                l(1) =   0
                l(2) =   0
                l(3) =   1
                l(4) =   1
                l(5) =   2
                l(6) =   2
     Q(r) pseudized with  6 coefficients,  rinner =    1.000   1.000   1.000
                                                       1.000   1.000

     PseudoPot. # 4 for Sb read from file:
     /lustre07/scratch/pragov/crystal_structure_design/utils/SSSP/sb_pbe_v1.4.uspp.F.UPF
     MD5 check sum: 9bc50dfb53373b713f5709b9110fe27f
     Pseudo is Ultrasoft + core correction, Zval = 15.0
     Generated by new atomic code, or converted to UPF format
     Using radial grid of  891 points,  6 beta functions with:
                l(1) =   0
                l(2) =   0
                l(3) =   1
                l(4) =   1
                l(5) =   2
                l(6) =   2
     Q(r) pseudized with  8 coefficients,  rinner =    1.350   1.350   1.350
                                                       1.350   1.350

     PseudoPot. # 5 for O  read from file:
     /lustre07/scratch/pragov/crystal_structure_design/utils/SSSP/O.pbe-n-kjpaw_psl.0.1.UPF
     MD5 check sum: 0234752ac141de4415c5fc33072bef88
     Pseudo is Projector augmented-wave + core cor, Zval =  6.0
     Generated using "atomic" code by A. Dal Corso  v.5.0.99 svn rev. 10869
     Shape of augmentation charge: BESSEL
     Using radial grid of 1095 points,  4 beta functions with:
                l(1) =   0
                l(2) =   0
                l(3) =   1
                l(4) =   1
     Q(r) pseudized with 0 coefficients

     atomic species   valence    mass     pseudopotential
        Sr            10.00    87.62000     Sr( 1.00)
        Mn            15.00    54.93804     Mn( 1.00)
        Bi            15.00   208.98040     Bi( 1.00)
        Sb            15.00   121.76000     Sb( 1.00)
        O              6.00    15.99900     O ( 1.00)

      2 Sym. Ops. (no inversion) found ( 1 have fractional translation)

                                    s                        frac. trans.

      isym =  1     identity

 cryst.   s( 1) = (     1          0          0      )
                  (     0          1          0      )
                  (     0          0          1      )

 cart.    s( 1) = (  1.0000000  0.0000000  0.0000000 )
                  (  0.0000000  1.0000000  0.0000000 )
                  (  0.0000000  0.0000000  1.0000000 )

      isym =  2     inv. 180 deg rotation - cart. axis [0,1,0]

 cryst.   s( 2) = (     1          0          0      )    f =( -0.5000000 )
                  (     0         -1          0      )       ( -0.0000000 )
                  (     0          0          1      )       (  0.5000000 )

 cart.    s( 2) = (  1.0000000  0.0000000  0.0000000 )    f =( -0.4989544 )
                  (  0.0000000 -1.0000000  0.0000000 )       ( -0.0000000 )
                  (  0.0000000  0.0000000  1.0000000 )       (  0.7262657 )

   Cartesian axes

     site n.     atom                  positions (alat units)
         1           Sr  tau(   1) = (   0.0147743   0.8331351   1.0821930  )
         2           Sr  tau(   2) = (   0.5137286   0.2200024   0.3559273  )
         3           Mn  tau(   3) = (   0.0071652   0.2530414   1.4428271  )
         4           Mn  tau(   4) = (   0.5061196   0.8000960   0.7165615  )
         5           Bi  tau(   5) = (   0.4994203   0.3287920   1.0465237  )
         6           Bi  tau(   6) = (   0.9983746   0.7243454   0.3202581  )
         7           Sb  tau(   7) = (   0.4994422   0.7979937   0.0006638  )
         8           Sb  tau(   8) = (   1.0004878   0.2551437   0.7269294  )
         9           O   tau(   9) = (   0.7950006   0.9931794   0.0662763  )
        10           O   tau(  10) = (   0.6971924   0.4516556   0.7025456  )
        11           O   tau(  11) = (   0.1982381   0.6014819   1.4288113  )
        12           O   tau(  12) = (   0.2960462   0.0599581   0.7925420  )
        13           O   tau(  13) = (   0.7049693   0.5155885   0.0847570  )
        14           O   tau(  14) = (   0.8191621   1.0116859   0.6546436  )
        15           O   tau(  15) = (   0.3202077   0.0414515   1.3809093  )
        16           O   tau(  16) = (   0.2060150   0.5375490   0.8110227  )
        17           O   tau(  17) = (   0.5708322   0.7426260   1.1078964  )
        18           O   tau(  18) = (   0.9024978   0.2228775   1.0743302  )
        19           O   tau(  19) = (   0.4014522   0.8302599   0.3480645  )
        20           O   tau(  20) = (   0.0697866   0.3105115   0.3816307  )

   Crystallographic axes

     site n.     atom                  positions (cryst. coord.)
         1           Sr  tau(   1) = (  0.0132162  0.7910981  0.7450393  )
         2           Sr  tau(   2) = (  0.5132162  0.2089019  0.2450393  )
         3           Mn  tau(   3) = (  0.0050879  0.2402739  0.9933191  )
         4           Mn  tau(   4) = (  0.5050879  0.7597261  0.4933191  )
         5           Bi  tau(   5) = (  0.4979135  0.3122024  0.7204827  )
         6           Bi  tau(   6) = (  0.9979135  0.6877976  0.2204827  )
         7           Sb  tau(   7) = (  0.4994412  0.7577299  0.0004570  )
         8           Sb  tau(   8) = (  0.9994412  0.2422701  0.5004570  )
         9           O   tau(   9) = (  0.7949052  0.9430672  0.0456282  )
        10           O   tau(  10) = (  0.6961809  0.4288667  0.4836699  )
        11           O   tau(  11) = (  0.1961809  0.5711333  0.9836699  )
        12           O   tau(  12) = (  0.2949052  0.0569328  0.5456282  )
        13           O   tau(  13) = (  0.7048473  0.4895738  0.0583512  )
        14           O   tau(  14) = (  0.8182196  0.9606400  0.4506916  )
        15           O   tau(  15) = (  0.3182196  0.0393600  0.9506916  )
        16           O   tau(  16) = (  0.2048473  0.5104262  0.5583512  )
        17           O   tau(  17) = (  0.5692371  0.7051558  0.7627349  )
        18           O   tau(  18) = (  0.9009511  0.2116319  0.7396262  )
        19           O   tau(  19) = (  0.4009511  0.7883681  0.2396262  )
        20           O   tau(  20) = (  0.0692371  0.2948442  0.2627349  )

     number of k points=    10
                       cart. coord. in units 2pi/alat
        k(    1) = (   0.0000000   0.0000000   0.0000000), wk =   0.0740741
        k(    2) = (   0.0000000   0.0000000   0.2294844), wk =   0.1481481
        k(    3) = (   0.0000000   0.3165146   0.0000000), wk =   0.1481481
        k(    4) = (   0.0000000   0.3165146   0.2294844), wk =   0.2962963
        k(    5) = (   0.3333333   0.0000000  -0.0004799), wk =   0.1481481
        k(    6) = (   0.3333333   0.0000000   0.2290045), wk =   0.1481481
        k(    7) = (   0.3333333   0.0000000  -0.2299643), wk =   0.1481481
        k(    8) = (   0.3333333   0.3165146  -0.0004799), wk =   0.2962963
        k(    9) = (   0.3333333   0.3165146   0.2290045), wk =   0.2962963
        k(   10) = (   0.3333333   0.3165146  -0.2299643), wk =   0.2962963

                       cryst. coord.
        k(    1) = (   0.0000000   0.0000000   0.0000000), wk =   0.0740741
        k(    2) = (   0.0000000   0.0000000   0.3333333), wk =   0.1481481
        k(    3) = (   0.0000000   0.3333333   0.0000000), wk =   0.1481481
        k(    4) = (   0.0000000   0.3333333   0.3333333), wk =   0.2962963
        k(    5) = (   0.3333333   0.0000000   0.0000000), wk =   0.1481481
        k(    6) = (   0.3333333   0.0000000   0.3333333), wk =   0.1481481
        k(    7) = (   0.3333333   0.0000000  -0.3333333), wk =   0.1481481
        k(    8) = (   0.3333333   0.3333333   0.0000000), wk =   0.2962963
        k(    9) = (   0.3333333   0.3333333   0.3333333), wk =   0.2962963
        k(   10) = (   0.3333333   0.3333333  -0.3333333), wk =   0.2962963

     Check: negative core charge=   -0.000016

     Initial potential from superposition of free atoms

     starting charge     176.9324, renormalised to     182.0000

     negative rho (up, down):  2.169E-01 0.000E+00
     Starting wfcs are  136 randomized atomic wfcs +  120 random wfcs
     Checking if some PAW data can be deallocated...

     Self-consistent Calculation

     iteration #  1     ecut=    30.00 Ry     beta= 0.70
     Davidson diagonalization with overlap

     ethr =  1.00E-02,  avg # of iterations =  6.0

     negative rho (up, down):  2.117E-01 0.000E+00

     total energy              =   -1782.02560012 Ry
     estimated scf accuracy    <      26.79505506 Ry

[...]

     total energy              =   -1802.66025555 Ry
     estimated scf accuracy    <       0.00000570 Ry

     iteration # 20     ecut=    30.00 Ry     beta= 0.70
     Davidson diagonalization with overlap

     ethr =  2.66E-09,  avg # of iterations =  1.0

     negative rho (up, down):  2.143E-01 0.000E+00

     End of self-consistent calculation

          k = 0.0000 0.0000 0.0000 (  5183 PWs)   bands (ev):

   -67.8659 -67.8656 -36.6739 -36.6738 -36.6022 -36.5989 -36.5501 -36.5495
   -23.2030 -23.2018 -19.4262 -19.4256 -19.4060 -19.4018 -19.2765 -19.2761
   -19.2553 -19.2534 -19.2390 -19.2341 -12.5966 -12.5933 -12.5760 -12.5706
   -12.5571 -12.5540 -12.5324 -12.5286 -12.5042 -12.5035  -9.3317  -9.0539
    -8.1033  -7.9946  -7.8342  -7.7457  -7.6205  -7.5637  -7.3794  -7.2107
    -7.0154  -6.9400  -5.2216  -5.1912  -5.1891  -5.0764  -5.0147  -4.9907
    -0.1199  -0.0593   1.5058   1.5956   4.2509   4.2804   4.4207   4.8842
     4.9121   4.9411   5.4407   5.5679   5.6502   5.7898   6.2754   6.4631
     6.5252   6.8792   7.0191   7.0306   7.2813   7.3950   7.4612   7.5072
     7.6863   7.7751   7.8570   7.8827   7.9844   8.0382   8.1266   8.1490
     8.1656   8.1919   8.3744   8.3835   8.5231   9.0843  10.8551  11.1297
    11.1752  11.1785  11.1801  11.2777  11.5546  12.2901  12.3863  12.4168
    12.4638  13.2095  14.0435  14.0486  14.3974  14.9210  15.1001  15.3393
    15.8521  15.9481  16.1256  16.5363  16.6303  16.6793  16.8737  17.3239
    17.5493  17.8721  17.8888  18.1077  18.2321  18.3881  18.8190  18.8248
    19.0337  19.1560  19.4132  20.1420  20.6933  21.1254  21.2983  21.4330
    21.6982  21.7025  22.1573  22.4539  22.5512  22.6464  22.9441  23.1413
    23.1589  23.2305  23.5043  23.9878  24.0104  24.2163  24.4091  24.5584
    24.8839  25.1613  25.4191  25.5254  25.9583  26.2488  26.7576  27.0875
    27.0911  27.4071  27.5885  27.8472  27.9359  28.0118  28.2489  28.4819
    28.5967  28.7834  29.0727  29.0974  29.4461  29.9300  30.3256  30.6721
    30.8434  30.9198  31.1182  31.1503  31.1690  31.3974  31.6048  32.0286
    32.1283  32.3326  32.4935  32.7659  32.8508  33.2122  33.2384  33.3067
    33.5016  33.6445  33.9258  34.0819  34.1119  34.5336  34.5936  34.9401
    35.0860  35.2764  35.3399  35.4953  35.5091  35.8200  35.9639  36.2993
    36.3251  36.3723  36.4638  36.6759  36.8456  36.9703  37.0400  37.3122
    37.5971  37.6961  37.7713  37.8164  37.9576  38.0926  38.1981  38.5100
    38.6842  38.9020  38.9415  38.9924  39.2541  39.3425  39.6266  39.6371
    39.7696  39.9981  40.0155  40.1429  40.4300  40.4825  40.8138  41.0531
    41.0678  41.2693  41.3144  41.5179  41.5880  41.6255  41.7615  41.8785
    41.9087  42.0164  42.0631  42.5446  42.5653  42.7445  42.8098  43.0295
    43.1648  43.3126  43.4219  43.5118  43.6832  43.9521  44.1956  44.2878

     occupation numbers
     1.0000   1.0000   1.0000   1.0000   1.0000   1.0000   1.0000   1.0000
     1.0000   1.0000   1.0000   1.0000   1.0000   1.0000   1.0000   1.0000
     1.0000   1.0000   1.0000   1.0000   1.0000   1.0000   1.0000   1.0000
     1.0000   1.0000   1.0000   1.0000   1.0000   1.0000   1.0000   1.0000
     1.0000   1.0000   1.0000   1.0000   1.0000   1.0000   1.0000   1.0000
     1.0000   1.0000   1.0000   1.0000   1.0000   1.0000   1.0000   1.0000
     1.0000   1.0000   1.0000   1.0000   1.0000   1.0000   1.0000   1.0000
     1.0000   1.0000   1.0000   1.0000   1.0000   1.0000   1.0000   1.0000
     1.0000   1.0000   1.0000   1.0000   1.0000   1.0000   1.0000   1.0000
     1.0000   1.0000   1.0000   1.0000   1.0000   1.0000   1.0000   1.0000
     1.0000   1.0000   1.0000   1.0000   1.0000   1.0000   1.0000   1.0000
     1.0000   1.0000   1.0000   0.0000   0.0000   0.0000   0.0000   0.0000
     0.0000   0.0000   0.0000   0.0000   0.0000   0.0000   0.0000   0.0000
     0.0000   0.0000   0.0000   0.0000   0.0000   0.0000   0.0000   0.0000
     0.0000   0.0000   0.0000   0.0000   0.0000   0.0000   0.0000   0.0000
     0.0000   0.0000   0.0000   0.0000   0.0000   0.0000   0.0000   0.0000
     0.0000   0.0000   0.0000   0.0000   0.0000   0.0000   0.0000   0.0000
     0.0000   0.0000   0.0000   0.0000   0.0000   0.0000   0.0000   0.0000
     0.0000   0.0000   0.0000   0.0000   0.0000   0.0000   0.0000   0.0000
     0.0000   0.0000   0.0000   0.0000   0.0000   0.0000   0.0000   0.0000
     0.0000   0.0000   0.0000   0.0000   0.0000   0.0000   0.0000   0.0000
     0.0000   0.0000   0.0000   0.0000   0.0000   0.0000   0.0000   0.0000
     0.0000   0.0000   0.0000   0.0000   0.0000   0.0000   0.0000   0.0000
     0.0000   0.0000   0.0000   0.0000   0.0000   0.0000   0.0000   0.0000
     0.0000   0.0000   0.0000   0.0000   0.0000   0.0000   0.0000   0.0000
     0.0000   0.0000   0.0000   0.0000   0.0000   0.0000   0.0000   0.0000
     0.0000   0.0000   0.0000   0.0000   0.0000   0.0000   0.0000   0.0000
     0.0000   0.0000   0.0000   0.0000   0.0000   0.0000   0.0000   0.0000
     0.0000   0.0000   0.0000   0.0000   0.0000   0.0000   0.0000   0.0000
     0.0000   0.0000   0.0000   0.0000   0.0000   0.0000   0.0000   0.0000
     0.0000   0.0000   0.0000   0.0000   0.0000   0.0000   0.0000   0.0000
     0.0000   0.0000   0.0000   0.0000   0.0000   0.0000   0.0000   0.0000

[...]

          k = 0.3333 0.3165-0.2300 (  5164 PWs)   bands (ev):

   -67.8657 -67.8656 -36.6729 -36.6715 -36.6005 -36.5997 -36.5497 -36.5485
   -23.2021 -23.2019 -19.4241 -19.4231 -19.4038 -19.4011 -19.2770 -19.2763
   -19.2531 -19.2513 -19.2358 -19.2345 -12.5947 -12.5921 -12.5749 -12.5712
   -12.5570 -12.5562 -12.5280 -12.5272 -12.5048 -12.5033  -9.0646  -9.0108
    -8.2520  -8.1978  -7.9616  -7.9090  -7.6764  -7.5954  -7.2129  -7.1840
    -7.0482  -6.9100  -5.1850  -5.1746  -5.0908  -5.0644  -5.0182  -4.9825
     0.0062   0.0525   1.5269   1.5531   4.2119   4.3888   4.5963   4.6897
     4.8792   4.9891   5.7400   5.8840   5.9756   6.1552   6.3007   6.4485
     6.5933   6.6960   6.8729   6.9125   7.0729   7.2297   7.3295   7.4762
     7.5718   7.6190   7.6681   7.6950   7.8355   7.8947   7.9382   8.0841
     8.1330   8.1945   8.3404   8.4509   8.7994   9.0157  10.9830  11.0995
    11.1389  11.1880  11.2393  11.2790  11.6986  11.7823  12.1379  12.2718
    13.0815  13.4550  13.6792  13.8085  14.1416  14.4691  14.7065  14.9701
    16.2073  16.5138  16.6370  16.7488  17.0099  17.0833  17.4000  17.5039
    17.6445  17.8520  17.9617  18.2086  18.4361  18.5507  18.7576  18.8987
    19.3667  19.4874  19.7242  20.0159  20.5675  20.6094  20.7453  21.0785
    21.2087  21.3889  21.7648  22.0124  22.2519  22.4035  22.7267  22.9282
    23.0673  23.1798  23.4177  23.7671  24.0418  24.3983  24.5754  24.9081
    25.0644  25.3924  25.7193  25.7861  26.1381  26.2834  26.3615  26.6487
    27.2266  27.4555  27.5926  27.7854  27.8502  28.2213  28.4506  28.6664
    29.0407  29.1832  29.4180  29.6728  29.7935  30.1177  30.3592  30.6223
    30.8468  31.1531  31.2333  31.4986  31.6797  31.8273  31.9963  32.1715
    32.3491  32.5187  32.5975  32.7743  32.8112  33.1334  33.2001  33.4247
    33.5170  33.6685  33.8222  34.0146  34.2304  34.3621  34.5672  34.7840
    34.8852  35.0329  35.1797  35.2518  35.4867  35.6272  35.8294  36.0579
    36.1465  36.2789  36.3217  36.3227  36.4668  36.6751  36.8311  37.0922
    37.1784  37.3403  37.5074  37.7015  37.7358  38.1327  38.1701  38.3862
    38.4805  38.6275  38.9321  39.1485  39.2601  39.4398  39.6619  39.7064
    39.7913  40.0075  40.1391  40.2631  40.3876  40.6350  40.7316  40.8350
    41.0014  41.0593  41.3298  41.4552  41.5434  41.6680  41.8036  41.8595
    41.9178  42.0711  42.2321  42.3647  42.5166  42.5862  42.7559  42.8618
    42.9716  43.1739  43.3066  43.3986  43.6211  43.7030  43.8520  44.0220

     occupation numbers
     1.0000   1.0000   1.0000   1.0000   1.0000   1.0000   1.0000   1.0000
     1.0000   1.0000   1.0000   1.0000   1.0000   1.0000   1.0000   1.0000
     1.0000   1.0000   1.0000   1.0000   1.0000   1.0000   1.0000   1.0000
     1.0000   1.0000   1.0000   1.0000   1.0000   1.0000   1.0000   1.0000
     1.0000   1.0000   1.0000   1.0000   1.0000   1.0000   1.0000   1.0000
     1.0000   1.0000   1.0000   1.0000   1.0000   1.0000   1.0000   1.0000
     1.0000   1.0000   1.0000   1.0000   1.0000   1.0000   1.0000   1.0000
     1.0000   1.0000   1.0000   1.0000   1.0000   1.0000   1.0000   1.0000
     1.0000   1.0000   1.0000   1.0000   1.0000   1.0000   1.0000   1.0000
     1.0000   1.0000   1.0000   1.0000   1.0000   1.0000   1.0000   1.0000
     1.0000   1.0000   1.0000   1.0000   1.0000   1.0000   1.0000   1.0000
     1.0000   1.0000   1.0000   0.0000   0.0000   0.0000   0.0000   0.0000
     0.0000   0.0000   0.0000   0.0000   0.0000   0.0000   0.0000   0.0000
     0.0000   0.0000   0.0000   0.0000   0.0000   0.0000   0.0000   0.0000
     0.0000   0.0000   0.0000   0.0000   0.0000   0.0000   0.0000   0.0000
     0.0000   0.0000   0.0000   0.0000   0.0000   0.0000   0.0000   0.0000
     0.0000   0.0000   0.0000   0.0000   0.0000   0.0000   0.0000   0.0000
     0.0000   0.0000   0.0000   0.0000   0.0000   0.0000   0.0000   0.0000
     0.0000   0.0000   0.0000   0.0000   0.0000   0.0000   0.0000   0.0000
     0.0000   0.0000   0.0000   0.0000   0.0000   0.0000   0.0000   0.0000
     0.0000   0.0000   0.0000   0.0000   0.0000   0.0000   0.0000   0.0000
     0.0000   0.0000   0.0000   0.0000   0.0000   0.0000   0.0000   0.0000
     0.0000   0.0000   0.0000   0.0000   0.0000   0.0000   0.0000   0.0000
     0.0000   0.0000   0.0000   0.0000   0.0000   0.0000   0.0000   0.0000
     0.0000   0.0000   0.0000   0.0000   0.0000   0.0000   0.0000   0.0000
     0.0000   0.0000   0.0000   0.0000   0.0000   0.0000   0.0000   0.0000
     0.0000   0.0000   0.0000   0.0000   0.0000   0.0000   0.0000   0.0000
     0.0000   0.0000   0.0000   0.0000   0.0000   0.0000   0.0000   0.0000
     0.0000   0.0000   0.0000   0.0000   0.0000   0.0000   0.0000   0.0000
     0.0000   0.0000   0.0000   0.0000   0.0000   0.0000   0.0000   0.0000
     0.0000   0.0000   0.0000   0.0000   0.0000   0.0000   0.0000   0.0000
     0.0000   0.0000   0.0000   0.0000   0.0000   0.0000   0.0000   0.0000

     highest occupied, lowest unoccupied level (ev):    11.2498   11.2012

!    total energy              =   -1802.66025607 Ry
     estimated scf accuracy    <       0.00000041 Ry

     The total energy is the sum of the following terms:
     one-electron contribution =    -605.66737868 Ry
     hartree contribution      =     417.11332158 Ry
     xc contribution           =    -396.46907986 Ry
     ewald contribution        =   -1103.30400043 Ry
     one-center paw contrib.   =    -114.33311868 Ry
      -> PAW hartree energy AE =       0.00000000 Ry
      -> PAW hartree energy PS =       0.00000000 Ry
      -> PAW xc energy AE      =       0.00000000 Ry
      -> PAW xc energy PS      =       0.00000000 Ry
      -> total E_H with PAW    =     417.11332158 Ry
      -> total E_XC with PAW   =    -396.46907986 Ry

     convergence has been achieved in  20 iterations

     Writing all to output data dir bands_nm/myprefix.save/

     General routines

     Parallel routines

     PAW routines

   This run was terminated on:   0:15:38  17Jul2023

   JOB DONE.