     Program PWSCF v.7.1 starts on 15Jul2023 at 18:52:38

     Reading input from espresso_15278.pwi
Warning: card &CELL ignored
Warning: card / ignored

     Current dimensions of program PWSCF are:
     Max number of different atomic species (ntypx) = 10
     Max number of k-points (npk) =  40000
     Max angular momentum in pseudopotentials (lmaxx) =  4
     file O.pbe-n-kjpaw_psl.0.1.UPF: wavefunction(s)  2P renormalized
     Message from routine setup:
     using ibrav=0 with symmetry is DISCOURAGED, use correct ibrav instead

     K-points division:     npool     =       2
     R & G space division:  proc/nbgrp/npool/nimage =       4
     Subspace diagonalization in iterative solution of the eigenvalue problem:
     one sub-group per band group will be used

     Using Slab Decomposition

     bravais-lattice index     =            0
     lattice parameter (alat)  =      10.2693  a.u.
     unit-cell volume          =    1495.4400 (a.u.)^3
     number of atoms/cell      =           20
     number of atomic types    =            4
     number of electrons       =       136.00
     number of Kohn-Sham states=          256
     kinetic-energy cutoff     =      30.0000  Ry
     charge density cutoff     =     240.0000  Ry
     scf convergence threshold =      1.0E-06
     mixing beta               =       0.7000
     number of iterations used =            8  plain     mixing
     Exchange-correlation= SLA  PW   PBX  PBC
                           (   1   4   3   4   0   0   0)

     celldm(1)=  10.269306  celldm(2)=   0.000000  celldm(3)=   0.000000
     celldm(4)=   0.000000  celldm(5)=   0.000000  celldm(6)=   0.000000

     crystal axes: (cart. coord. in units of alat)
               a(1) = (   1.000000   0.000000   0.000000 )
               a(2) = (   0.235205   1.176233   0.000000 )
               a(3) = (   0.235204   0.073114   1.173958 )

     reciprocal axes: (cart. coord. in units 2 pi/alat)
               b(1) = (  1.000000 -0.199964 -0.187897 )
               b(2) = (  0.000000  0.850172 -0.052949 )
               b(3) = (  0.000000  0.000000  0.851819 )

     PseudoPot. # 1 for Na read from file:
     /lustre07/scratch/pragov/crystal_structure_design/utils/SSSP/na_pbe_v1.5.uspp.F.UPF
     MD5 check sum: 44600605ef58000f06b90626533354dc
     Pseudo is Ultrasoft, Zval =  9.0
     Generated by new atomic code, or converted to UPF format
     Using radial grid of  819 points,  5 beta functions with:
                l(1) =   0
                l(2) =   0
                l(3) =   1
                l(4) =   1
                l(5) =   2
     Q(r) pseudized with  8 coefficients,  rinner =    1.250   1.250   1.250
                                                       1.250   1.250

     PseudoPot. # 2 for Mn read from file:
     /lustre07/scratch/pragov/crystal_structure_design/utils/SSSP/mn_pbe_v1.5.uspp.F.UPF
     MD5 check sum: 82ef2b46521d7a7d9e736dc3972e4928
     Pseudo is Ultrasoft + core correction, Zval = 15.0
     Generated by new atomic code, or converted to UPF format
     Using radial grid of  859 points,  6 beta functions with:
                l(1) =   0
                l(2) =   0
                l(3) =   1
                l(4) =   1
                l(5) =   2
                l(6) =   2
     Q(r) pseudized with  8 coefficients,  rinner =    0.950   0.950   0.950
                                                       0.950   0.950

     PseudoPot. # 3 for Si read from file:
     /lustre07/scratch/pragov/crystal_structure_design/utils/SSSP/Si.pbe-n-rrkjus_psl.1.0.0.UPF
     MD5 check sum: 0b0bb1205258b0d07b9f9672cf965d36
     Pseudo is Ultrasoft + core correction, Zval =  4.0
     Generated using "atomic" code by A. Dal Corso  v.5.1
     Using radial grid of 1141 points,  6 beta functions with:
                l(1) =   0
                l(2) =   0
                l(3) =   1
                l(4) =   1
                l(5) =   2
                l(6) =   2
     Q(r) pseudized with 0 coefficients

     PseudoPot. # 4 for O  read from file:
     /lustre07/scratch/pragov/crystal_structure_design/utils/SSSP/O.pbe-n-kjpaw_psl.0.1.UPF
     MD5 check sum: 0234752ac141de4415c5fc33072bef88
     Pseudo is Projector augmented-wave + core cor, Zval =  6.0
     Generated using "atomic" code by A. Dal Corso  v.5.0.99 svn rev. 10869
     Shape of augmentation charge: BESSEL
     Using radial grid of 1095 points,  4 beta functions with:
                l(1) =   0
                l(2) =   0
                l(3) =   1
                l(4) =   1
     Q(r) pseudized with 0 coefficients

     atomic species   valence    mass     pseudopotential
        Na             9.00    22.98977     Na( 1.00)
        Mn            15.00    54.93804     Mn( 1.00)
        Si             4.00    28.08500     Si( 1.00)
        O              6.00    15.99900     O ( 1.00)

      2 Sym. Ops., with inversion, found

                                    s                        frac. trans.

      isym =  1     identity

 cryst.   s( 1) = (     1          0          0      )
                  (     0          1          0      )
                  (     0          0          1      )

 cart.    s( 1) = (  1.0000000  0.0000000  0.0000000 )
                  (  0.0000000  1.0000000  0.0000000 )
                  (  0.0000000  0.0000000  1.0000000 )

      isym =  2     inversion

 cryst.   s( 2) = (    -1          0          0      )
                  (     0         -1          0      )
                  (     0          0         -1      )

 cart.    s( 2) = ( -1.0000000  0.0000000  0.0000000 )
                  (  0.0000000 -1.0000000  0.0000000 )
                  (  0.0000000  0.0000000 -1.0000000 )

   Cartesian axes

     site n.     atom                  positions (alat units)
         1           Na  tau(   1) = (   0.4852043   0.8492164   0.3480163  )
         2           Na  tau(   2) = (   0.9852041   0.4001303   0.8259417  )
         3           Mn  tau(   3) = (   0.4852041   0.1785539   1.0617534  )
         4           Mn  tau(   4) = (   0.9852053   1.0707950   0.1122022  )
         5           Si  tau(   5) = (   0.3916785   0.2703859   0.4477816  )
         6           Si  tau(   6) = (   0.8916786   0.4637228   0.2420290  )
         7           Si  tau(   7) = (   0.5787288   0.7856240   0.9319289  )
         8           Si  tau(   8) = (   1.0787289   0.9789609   0.7261764  )
         9           O   tau(   9) = (   0.6466701   0.4366317   0.4250902  )
        10           O   tau(  10) = (   0.3237383   0.7979377   0.7645941  )
        11           O   tau(  11) = (   0.8237383   0.8127151   0.7488678  )
        12           O   tau(  12) = (   1.1466701   0.4514090   0.4093638  )
        13           O   tau(  13) = (   0.3661809   0.1665249   0.7260179  )
        14           O   tau(  14) = (   0.6042259   0.5143817   1.0528830  )
        15           O   tau(  15) = (   1.1042263   1.0828207   0.4479401  )
        16           O   tau(  16) = (   0.8661815   0.7349651   0.1210750  )
        17           O   tau(  17) = (   0.8941538   0.2311755   0.0491971  )
        18           O   tau(  18) = (   1.0762547   1.1858751   0.9462876  )
        19           O   tau(  19) = (   0.5762538   1.0181714   1.1247621  )
        20           O   tau(  20) = (   0.3941537   0.0634717   0.2276704  )

   Crystallographic axes

     site n.     atom                  positions (cryst. coord.)
         1           Na  tau(   1) = (  0.2500000  0.7035530  0.2964470  )
         2           Na  tau(   2) = (  0.7500000  0.2964470  0.7035530  )
         3           Mn  tau(   3) = (  0.2499990  0.0955830  0.9044220  )
         4           Mn  tau(   4) = (  0.7500020  0.9044190  0.0955760  )
         5           Si  tau(   5) = (  0.2534740  0.2061650  0.3814290  )
         6           Si  tau(   6) = (  0.7534740  0.3814290  0.2061650  )
         7           Si  tau(   7) = (  0.2465250  0.6185710  0.7938350  )
         8           Si  tau(   8) = (  0.7465250  0.7938350  0.6185710  )
         9           O   tau(   9) = (  0.4794860  0.3487040  0.3621000  )
        10           O   tau(  10) = (  0.0205140  0.6379000  0.6512960  )
        11           O   tau(  11) = (  0.5205140  0.6512960  0.6379000  )
        12           O   tau(  12) = (  0.9794860  0.3621000  0.3487040  )
        13           O   tau(  13) = (  0.1964650  0.1031330  0.6184360  )
        14           O   tau(  14) = (  0.3035340  0.3815640  0.8968660  )
        15           O   tau(  15) = (  0.8035340  0.8968660  0.3815640  )
        16           O   tau(  16) = (  0.6964650  0.6184360  0.1031340  )
        17           O   tau(  17) = (  0.8386830  0.1939340  0.0419070  )
        18           O   tau(  18) = (  0.6613170  0.9580930  0.8060660  )
        19           O   tau(  19) = (  0.1613160  0.8060660  0.9580940  )
        20           O   tau(  20) = (  0.3386830  0.0419070  0.1939340  )

     number of k points=    14
                       cart. coord. in units 2pi/alat
        k(    1) = (   0.0000000   0.0000000   0.0000000), wk =   0.0740741
        k(    2) = (   0.0000000   0.0000000   0.2839397), wk =   0.1481481
        k(    3) = (   0.0000000   0.2833907  -0.0176496), wk =   0.1481481
        k(    4) = (   0.0000000   0.2833907   0.2662902), wk =   0.1481481
        k(    5) = (   0.0000000   0.2833907  -0.3015893), wk =   0.1481481
        k(    6) = (   0.3333333  -0.0666548  -0.0626325), wk =   0.1481481
        k(    7) = (   0.3333333  -0.0666548   0.2213073), wk =   0.1481481
        k(    8) = (   0.3333333  -0.0666548  -0.3465722), wk =   0.1481481
        k(    9) = (   0.3333333   0.2167359  -0.0802821), wk =   0.1481481
        k(   10) = (   0.3333333   0.2167359   0.2036577), wk =   0.1481481
        k(   11) = (   0.3333333   0.2167359  -0.3642218), wk =   0.1481481
        k(   12) = (   0.3333333  -0.3500454  -0.0449829), wk =   0.1481481
        k(   13) = (   0.3333333  -0.3500454   0.2389569), wk =   0.1481481
        k(   14) = (   0.3333333  -0.3500454  -0.3289226), wk =   0.1481481

                       cryst. coord.
        k(    1) = (   0.0000000   0.0000000   0.0000000), wk =   0.0740741
        k(    2) = (   0.0000000   0.0000000   0.3333333), wk =   0.1481481
        k(    3) = (   0.0000000   0.3333333   0.0000000), wk =   0.1481481
        k(    4) = (   0.0000000   0.3333333   0.3333333), wk =   0.1481481
        k(    5) = (   0.0000000   0.3333333  -0.3333333), wk =   0.1481481
        k(    6) = (   0.3333333  -0.0000000   0.0000000), wk =   0.1481481
        k(    7) = (   0.3333333  -0.0000000   0.3333333), wk =   0.1481481
        k(    8) = (   0.3333333  -0.0000000  -0.3333333), wk =   0.1481481
        k(    9) = (   0.3333333   0.3333333   0.0000000), wk =   0.1481481
        k(   10) = (   0.3333333   0.3333333   0.3333333), wk =   0.1481481
        k(   11) = (   0.3333333   0.3333333  -0.3333333), wk =   0.1481481
        k(   12) = (   0.3333333  -0.3333333   0.0000000), wk =   0.1481481
        k(   13) = (   0.3333333  -0.3333333   0.3333333), wk =   0.1481481
        k(   14) = (   0.3333333  -0.3333333  -0.3333333), wk =   0.1481481

     Check: negative core charge=   -0.000018

     Initial potential from superposition of free atoms

     starting charge     134.9850, renormalised to     136.0000
     Starting wfcs are  100 randomized atomic wfcs +  156 random wfcs
     Checking if some PAW data can be deallocated...

     Self-consistent Calculation

     iteration #  1     ecut=    30.00 Ry     beta= 0.70
     Davidson diagonalization with overlap

     ethr =  1.00E-02,  avg # of iterations =  7.4

     total energy              =   -1157.23613004 Ry
     estimated scf accuracy    <       4.41545131 Ry

[...]

     c_bands:  1 eigenvalues not converged
     c_bands:  1 eigenvalues not converged
     ethr =  5.11E-06,  avg # of iterations = 10.6

[...]

     total energy              =   -1159.41821052 Ry
     estimated scf accuracy    <       0.00000304 Ry

     iteration # 18     ecut=    30.00 Ry     beta= 0.70
     Davidson diagonalization with overlap

     ethr =  2.23E-09,  avg # of iterations =  1.0

     End of self-consistent calculation

          k = 0.0000 0.0000 0.0000 (  4139 PWs)   bands (ev):

   -72.2958 -72.2943 -43.2820 -43.2816 -41.0992 -41.0947 -41.0743 -41.0665
   -40.8553 -40.8354 -15.2446 -15.2388 -15.2318 -15.2217 -15.2176 -15.2125
   -14.0107 -13.6750 -12.5866 -12.5174 -12.1478 -12.1447 -12.1216 -11.7603
   -11.4252 -11.3535 -11.2862 -11.2540  -2.8797  -2.8146  -0.7631  -0.0349
     0.1248   0.2755   0.3239   0.5349   0.8630   1.1395   1.3089   1.7515
     1.9315   1.9837   2.2156   2.4161   2.6899   2.8098   2.8855   3.2603
     3.3671   3.4734   3.6908   3.7337   3.8390   3.8933   3.9036   3.9471
     4.1238   4.3890   4.4048   4.5724   4.9103   5.0075   5.0129   5.2176
     7.1847   7.3494   7.3557   7.3820   7.4902   7.5005   8.2406   8.5461
     8.9023   8.9611  10.6516  13.3869  13.6216  14.5559  14.5829  15.0718
    15.1234  15.3443  15.5930  15.6296  15.6962  15.8030  15.8483  16.1271
    16.3377  16.6226  16.7070  16.9739  17.7658  18.1693  18.4648  18.6138
    18.8001  19.2494  19.7635  19.8194  20.1079  20.1522  20.1944  20.4474
    20.5561  20.5704  20.6104  21.0319  21.0598  21.6547  21.7766  22.4430
    22.6854  22.9614  23.2893  23.5675  23.8531  24.9036  24.9312  25.3049
    25.4845  25.6032  25.9777  26.1966  26.2007  26.3723  26.8829  27.0182
    27.0842  27.4245  27.4589  27.7630  27.9852  28.0014  28.1426  28.5548
    28.9441  28.9589  29.0489  29.3346  29.8181  29.9397  30.0344  30.6079
    30.9149  31.2751  31.3725  31.4975  31.7427  31.9501  32.0894  32.4025
    32.6986  32.9699  33.1186  34.0613  34.1207  34.2739  34.3962  34.5047
    34.6144  35.0495  35.1357  35.2322  35.2774  35.3220  35.4873  35.4988
    36.0502  36.0820  36.2255  36.4341  36.4941  36.6049  36.8417  37.9072
    38.0722  38.3512  38.4842  38.6063  38.6679  39.0316  39.2059  39.3990
    39.4298  39.4903  40.2561  40.4630  40.6091  40.6535  40.6624  40.7084
    40.7946  41.1651  41.1877  41.6227  41.6381  41.6475  42.0133  42.1156
    42.2230  42.2945  42.3012  42.5327  43.1386  43.3113  43.3654  43.6544
    44.0454  44.1153  44.5805  44.5948  44.9466  44.9569  45.1634  45.2789
    45.3968  45.4712  45.7740  45.9830  46.0418  46.0489  46.3151  46.4649
    46.5870  46.7000  46.8321  46.9382  47.3274  47.4142  47.5646  47.6546
    47.7366  47.9861  48.5051  48.5686  48.7456  48.9528  48.9659  49.3518
    49.3684  49.6329  49.7465  49.7473  50.2611  50.4651  50.7769  50.7851
    51.4658  51.4764  51.4898  51.5797  51.9805  52.0794  52.2303  52.4735

     occupation numbers
     1.0000   1.0000   1.0000   1.0000   1.0000   1.0000   1.0000   1.0000
     1.0000   1.0000   1.0000   1.0000   1.0000   1.0000   1.0000   1.0000
     1.0000   1.0000   1.0000   1.0000   1.0000   1.0000   1.0000   1.0000
     1.0000   1.0000   1.0000   1.0000   1.0000   1.0000   1.0000   1.0000
     1.0000   1.0000   1.0000   1.0000   1.0000   1.0000   1.0000   1.0000
     1.0000   1.0000   1.0000   1.0000   1.0000   1.0000   1.0000   1.0000
     1.0000   1.0000   1.0000   1.0000   1.0000   1.0000   1.0000   1.0000
     1.0000   1.0000   1.0000   1.0000   1.0000   1.0000   1.0000   1.0000
     1.0000   1.0000   1.0000   1.0000   0.0000   0.0000   0.0000   0.0000
     0.0000   0.0000   0.0000   0.0000   0.0000   0.0000   0.0000   0.0000
     0.0000   0.0000   0.0000   0.0000   0.0000   0.0000   0.0000   0.0000
     0.0000   0.0000   0.0000   0.0000   0.0000   0.0000   0.0000   0.0000
     0.0000   0.0000   0.0000   0.0000   0.0000   0.0000   0.0000   0.0000
     0.0000   0.0000   0.0000   0.0000   0.0000   0.0000   0.0000   0.0000
     0.0000   0.0000   0.0000   0.0000   0.0000   0.0000   0.0000   0.0000
     0.0000   0.0000   0.0000   0.0000   0.0000   0.0000   0.0000   0.0000
     0.0000   0.0000   0.0000   0.0000   0.0000   0.0000   0.0000   0.0000
     0.0000   0.0000   0.0000   0.0000   0.0000   0.0000   0.0000   0.0000
     0.0000   0.0000   0.0000   0.0000   0.0000   0.0000   0.0000   0.0000
     0.0000   0.0000   0.0000   0.0000   0.0000   0.0000   0.0000   0.0000
     0.0000   0.0000   0.0000   0.0000   0.0000   0.0000   0.0000   0.0000
     0.0000   0.0000   0.0000   0.0000   0.0000   0.0000   0.0000   0.0000
     0.0000   0.0000   0.0000   0.0000   0.0000   0.0000   0.0000   0.0000
     0.0000   0.0000   0.0000   0.0000   0.0000   0.0000   0.0000   0.0000
     0.0000   0.0000   0.0000   0.0000   0.0000   0.0000   0.0000   0.0000
     0.0000   0.0000   0.0000   0.0000   0.0000   0.0000   0.0000   0.0000
     0.0000   0.0000   0.0000   0.0000   0.0000   0.0000   0.0000   0.0000
     0.0000   0.0000   0.0000   0.0000   0.0000   0.0000   0.0000   0.0000
     0.0000   0.0000   0.0000   0.0000   0.0000   0.0000   0.0000   0.0000
     0.0000   0.0000   0.0000   0.0000   0.0000   0.0000   0.0000   0.0000
     0.0000   0.0000   0.0000   0.0000   0.0000   0.0000   0.0000   0.0000
     0.0000   0.0000   0.0000   0.0000   0.0000   0.0000   0.0000   0.0000

[...]

          k = 0.3333-0.3500-0.3289 (  4166 PWs)   bands (ev):

   -72.2955 -72.2947 -43.2821 -43.2818 -41.0970 -41.0962 -41.0750 -41.0707
   -40.8513 -40.8411 -15.2515 -15.2426 -15.2417 -15.2255 -15.2200 -15.2127
   -13.5968 -13.5348 -13.0858 -12.9541 -12.0996 -11.9757 -11.9342 -11.7916
   -11.4684 -11.4233 -11.2818 -11.2523  -2.2941  -2.2132  -0.9143  -0.8143
     0.2305   0.4657   0.7233   0.7662   1.0690   1.1443   1.3841   1.4407
     1.8401   1.9089   2.1731   2.2422   2.3933   2.6504   2.7903   2.9206
     2.9660   3.3911   3.4646   3.5632   3.6218   3.8027   4.0447   4.1986
     4.3613   4.3724   4.4695   4.5441   4.6834   4.8339   4.8643   4.8921
     7.2375   7.2563   7.3790   7.4036   7.4376   7.4418   8.4189   8.5055
     9.3549   9.3579  13.1097  13.7189  13.7415  14.0969  14.6892  14.7263
    14.8246  14.9685  14.9706  15.3979  15.4165  16.2623  16.3557  16.4670
    16.7150  16.9427  17.2272  17.5114  17.7576  17.9098  18.1755  18.4503
    18.5822  18.9578  19.0762  19.2360  19.7680  19.8006  19.8726  19.9321
    20.5335  20.5802  21.0364  21.2810  21.7920  21.8269  22.2552  22.3249
    22.5317  22.7031  23.4130  23.5804  23.8583  24.0196  24.1126  24.2525
    24.7940  25.2160  25.4631  25.7779  25.8970  26.6907  26.9389  26.9392
    26.9999  27.2417  27.2952  27.3807  27.8351  28.8052  29.0146  29.0851
    29.1944  29.2619  29.6008  29.7155  30.0484  30.1246  30.4690  30.7539
    31.0458  31.2281  31.4667  31.7365  31.8486  32.1289  32.4079  32.8075
    32.9001  33.0668  33.1088  33.4480  33.8766  33.9848  34.4847  34.6937
    34.7601  34.9554  35.0707  35.3540  35.3562  35.4783  35.5652  36.3060
    36.3863  36.4730  36.7526  36.9260  36.9960  37.0718  37.4475  37.6252
    37.6847  38.0445  38.1525  38.3030  38.4955  38.8071  39.0860  39.3399
    39.5397  39.7586  39.8610  39.8653  40.3975  40.4607  40.7282  40.8003
    40.9288  41.0889  41.2048  41.6228  41.6370  41.8414  41.9170  42.2465
    42.3717  42.5704  42.9443  42.9485  43.0089  43.3631  43.5593  43.7474
    43.9792  44.0847  44.2652  44.3001  44.4779  44.5160  44.6266  44.8248
    44.8534  45.0820  45.6773  45.7048  45.9434  46.0411  46.1343  46.2752
    46.5070  46.5259  46.8540  47.1485  47.1511  47.3035  47.4793  47.7484
    47.7512  48.0811  48.3777  48.3936  48.6374  48.7846  49.1010  49.2643
    49.5840  49.7793  49.7849  50.1724  50.1902  50.4381  50.6622  50.7745
    50.8085  51.0467  51.2546  51.3421  51.5408  51.6367  51.9669  52.0954

     occupation numbers
     1.0000   1.0000   1.0000   1.0000   1.0000   1.0000   1.0000   1.0000
     1.0000   1.0000   1.0000   1.0000   1.0000   1.0000   1.0000   1.0000
     1.0000   1.0000   1.0000   1.0000   1.0000   1.0000   1.0000   1.0000
     1.0000   1.0000   1.0000   1.0000   1.0000   1.0000   1.0000   1.0000
     1.0000   1.0000   1.0000   1.0000   1.0000   1.0000   1.0000   1.0000
     1.0000   1.0000   1.0000   1.0000   1.0000   1.0000   1.0000   1.0000
     1.0000   1.0000   1.0000   1.0000   1.0000   1.0000   1.0000   1.0000
     1.0000   1.0000   1.0000   1.0000   1.0000   1.0000   1.0000   1.0000
     1.0000   1.0000   1.0000   1.0000   0.0000   0.0000   0.0000   0.0000
     0.0000   0.0000   0.0000   0.0000   0.0000   0.0000   0.0000   0.0000
     0.0000   0.0000   0.0000   0.0000   0.0000   0.0000   0.0000   0.0000
     0.0000   0.0000   0.0000   0.0000   0.0000   0.0000   0.0000   0.0000
     0.0000   0.0000   0.0000   0.0000   0.0000   0.0000   0.0000   0.0000
     0.0000   0.0000   0.0000   0.0000   0.0000   0.0000   0.0000   0.0000
     0.0000   0.0000   0.0000   0.0000   0.0000   0.0000   0.0000   0.0000
     0.0000   0.0000   0.0000   0.0000   0.0000   0.0000   0.0000   0.0000
     0.0000   0.0000   0.0000   0.0000   0.0000   0.0000   0.0000   0.0000
     0.0000   0.0000   0.0000   0.0000   0.0000   0.0000   0.0000   0.0000
     0.0000   0.0000   0.0000   0.0000   0.0000   0.0000   0.0000   0.0000
     0.0000   0.0000   0.0000   0.0000   0.0000   0.0000   0.0000   0.0000
     0.0000   0.0000   0.0000   0.0000   0.0000   0.0000   0.0000   0.0000
     0.0000   0.0000   0.0000   0.0000   0.0000   0.0000   0.0000   0.0000
     0.0000   0.0000   0.0000   0.0000   0.0000   0.0000   0.0000   0.0000
     0.0000   0.0000   0.0000   0.0000   0.0000   0.0000   0.0000   0.0000
     0.0000   0.0000   0.0000   0.0000   0.0000   0.0000   0.0000   0.0000
     0.0000   0.0000   0.0000   0.0000   0.0000   0.0000   0.0000   0.0000
     0.0000   0.0000   0.0000   0.0000   0.0000   0.0000   0.0000   0.0000
     0.0000   0.0000   0.0000   0.0000   0.0000   0.0000   0.0000   0.0000
     0.0000   0.0000   0.0000   0.0000   0.0000   0.0000   0.0000   0.0000
     0.0000   0.0000   0.0000   0.0000   0.0000   0.0000   0.0000   0.0000
     0.0000   0.0000   0.0000   0.0000   0.0000   0.0000   0.0000   0.0000
     0.0000   0.0000   0.0000   0.0000   0.0000   0.0000   0.0000   0.0000

     highest occupied, lowest unoccupied level (ev):     7.4448    7.3972

!    total energy              =   -1159.41821073 Ry
     estimated scf accuracy    <       0.00000016 Ry

     The total energy is the sum of the following terms:
     one-electron contribution =    -586.27612831 Ry
     hartree contribution      =     362.47015956 Ry
     xc contribution           =    -196.76416107 Ry
     ewald contribution        =    -624.69343565 Ry
     one-center paw contrib.   =    -114.15464525 Ry
      -> PAW hartree energy AE =       0.00000000 Ry
      -> PAW hartree energy PS =       0.00000000 Ry
      -> PAW xc energy AE      =       0.00000000 Ry
      -> PAW xc energy PS      =       0.00000000 Ry
      -> total E_H with PAW    =     362.47015956 Ry
      -> total E_XC with PAW   =    -196.76416107 Ry

     convergence has been achieved in  18 iterations

     Writing all to output data dir bands_nm/myprefix.save/

     General routines

     Parallel routines

     PAW routines

   This run was terminated on:  18:54: 7  15Jul2023

   JOB DONE.