     Program PWSCF v.7.1 starts on 12Jul2023 at 20: 5:36

     Reading input from espresso_23200.pwi
Warning: card &CELL ignored
Warning: card / ignored

     Current dimensions of program PWSCF are:
     Max number of different atomic species (ntypx) = 10
     Max number of k-points (npk) =  40000
     Max angular momentum in pseudopotentials (lmaxx) =  4
     Message from routine setup:
     using ibrav=0 with symmetry is DISCOURAGED, use correct ibrav instead

     K-points division:     npool     =       2
     R & G space division:  proc/nbgrp/npool/nimage =       8
     Subspace diagonalization in iterative solution of the eigenvalue problem:
     a serial algorithm will be used

     Using Slab Decomposition

     bravais-lattice index     =            0
     lattice parameter (alat)  =       6.6105  a.u.
     unit-cell volume          =    2837.9205 (a.u.)^3
     number of atoms/cell      =           12
     number of atomic types    =            4
     number of electrons       =       104.00
     number of Kohn-Sham states=           64
     kinetic-energy cutoff     =      30.0000  Ry
     charge density cutoff     =     240.0000  Ry
     scf convergence threshold =      1.0E-06
     mixing beta               =       0.7000
     number of iterations used =            8  plain     mixing
     Exchange-correlation= SLA  PW   PBE  PBE
                           (   1   4   3   4   0   0   0)

     celldm(1)=   6.610548  celldm(2)=   0.000000  celldm(3)=   0.000000
     celldm(4)=   0.000000  celldm(5)=   0.000000  celldm(6)=   0.000000

     crystal axes: (cart. coord. in units of alat)
               a(1) = (   1.000000   0.000000   0.000000 )
               a(2) = (  -0.500000   0.866025   0.000000 )
               a(3) = (   0.000000   0.000000  11.343761 )

     reciprocal axes: (cart. coord. in units 2 pi/alat)
               b(1) = (  1.000000  0.577350  0.000000 )
               b(2) = (  0.000000  1.154700  0.000000 )
               b(3) = (  0.000000  0.000000  0.088154 )

     PseudoPot. # 1 for Te read from file:
     /lustre07/scratch/pragov/crystal_structure_design/utils/SSSP/Te_pbe_v1.uspp.F.UPF
     MD5 check sum: c319670d6894cc26e93307826a071b75
     Pseudo is Ultrasoft + core correction, Zval =  6.0
     Generated by new atomic code, or converted to UPF format
     Using radial grid of  891 points,  5 beta functions with:
                l(1) =   0
                l(2) =   0
                l(3) =   1
                l(4) =   1
                l(5) =   2
     Q(r) pseudized with  6 coefficients,  rinner =    1.800   1.800   1.800
                                                       1.800   1.800

     PseudoPot. # 2 for Mo read from file:
     /lustre07/scratch/pragov/crystal_structure_design/utils/SSSP/Mo_ONCV_PBE-1.0.oncvpsp.upf
     MD5 check sum: 1b5d28e075c9ccadda658a603575cd1f
     Pseudo is Norm-conserving, Zval = 14.0
     Generated using ONCVPSP code by D. R. Hamann
     Using radial grid of 1526 points,  6 beta functions with:
                l(1) =   0
                l(2) =   0
                l(3) =   1
                l(4) =   1
                l(5) =   2
                l(6) =   2

     PseudoPot. # 3 for W  read from file:
     /lustre07/scratch/pragov/crystal_structure_design/utils/SSSP/W_pbe_v1.2.uspp.F.UPF
     MD5 check sum: 9c083fa34c2a2ea0f02f1f893e16e1c8
     Pseudo is Ultrasoft + core correction, Zval = 14.0
     Generated by new atomic code, or converted to UPF format
     Using radial grid of  923 points,  8 beta functions with:
                l(1) =   0
                l(2) =   0
                l(3) =   0
                l(4) =   1
                l(5) =   1
                l(6) =   2
                l(7) =   2
                l(8) =   3
     Q(r) pseudized with  6 coefficients,  rinner =    1.350   1.350   1.350
                                                       1.350   1.350   1.350
                                                       1.350

     PseudoPot. # 4 for Se read from file:
     /lustre07/scratch/pragov/crystal_structure_design/utils/SSSP/Se_pbe_v1.uspp.F.UPF
     MD5 check sum: 1b3568f3a8ae88f9a2a0ad0698632c85
     Pseudo is Ultrasoft + core correction, Zval =  6.0
     Generated by new atomic code, or converted to UPF format
     Using radial grid of  877 points,  6 beta functions with:
                l(1) =   0
                l(2) =   0
                l(3) =   1
                l(4) =   1
                l(5) =   2
                l(6) =   2
     Q(r) pseudized with  8 coefficients,  rinner =    1.300   1.300   1.300
                                                       1.300   1.300

     atomic species   valence    mass     pseudopotential
        Te             6.00   127.60000     Te( 1.00)
        Mo            14.00    95.95000     Mo( 1.00)
        W             14.00   183.84000     W ( 1.00)
        Se             6.00    78.97100     Se( 1.00)

      6 Sym. Ops. (no inversion) found

                                    s                        frac. trans.

      isym =  1     identity

 cryst.   s( 1) = (     1          0          0      )
                  (     0          1          0      )
                  (     0          0          1      )

 cart.    s( 1) = (  1.0000000 -0.0000000  0.0000000 )
                  (  0.0000000  1.0000000  0.0000000 )
                  (  0.0000000  0.0000000  1.0000000 )

      isym =  2     120 deg rotation - cryst. axis [0,0,1]

[...]

      isym =  3     120 deg rotation - cryst. axis [0,0,-1]

[...]

      isym =  4     inv. 180 deg rotation - cart. axis [1,0,0]

[...]

      isym =  5     inv. 180 deg rotation - cryst. axis [0,1,0]

[...]

      isym =  6     inv. 180 deg rotation - cryst. axis [1,1,0]

 cryst.   s( 6) = (     0         -1          0      )
                  (    -1          0          0      )
                  (     0          0          1      )

 cart.    s( 6) = (  0.4999999 -0.8660255  0.0000000 )
                  ( -0.8660255 -0.4999999  0.0000000 )
                  (  0.0000000  0.0000000  1.0000000 )

   Cartesian axes

     site n.     atom                  positions (alat units)
         1           Te  tau(   1) = (   0.0000000   0.0000000   3.7234309  )
         2           Te  tau(   2) = (   0.0000000   0.0000000   7.9857245  )
         3           Te  tau(   3) = (  -0.0000004   0.5773506   4.8041624  )
         4           Te  tau(   4) = (  -0.0000004   0.5773506   5.8512596  )
         5           Te  tau(   5) = (   0.0000000   0.0000000   2.6697429  )
         6           Te  tau(   6) = (   0.0000000   0.0000000   6.9320365  )
         7           Mo  tau(   7) = (   0.0000000   0.0000000   5.3276997  )
         8           W   tau(   8) = (   0.0000000   0.0000000   1.0653607  )
         9           W   tau(   9) = (  -0.0000004   0.5773506   3.1963884  )
        10           W   tau(  10) = (  -0.0000004   0.5773506   7.4591017  )
        11           Se  tau(  11) = (  -0.0000004   0.5773506   0.6015824  )
        12           Se  tau(  12) = (  -0.0000004   0.5773506   1.5296949  )

   Crystallographic axes

     site n.     atom                  positions (cryst. coord.)
         1           Te  tau(   1) = (  0.0000000  0.0000000  0.3282360  )
         2           Te  tau(   2) = (  0.0000000  0.0000000  0.7039750  )
         3           Te  tau(   3) = (  0.3333330  0.6666670  0.4235070  )
         4           Te  tau(   4) = (  0.3333330  0.6666670  0.5158130  )
         5           Te  tau(   5) = (  0.0000000  0.0000000  0.2353490  )
         6           Te  tau(   6) = (  0.0000000  0.0000000  0.6110880  )
         7           Mo  tau(   7) = (  0.0000000  0.0000000  0.4696590  )
         8           W   tau(   8) = (  0.0000000  0.0000000  0.0939160  )
         9           W   tau(   9) = (  0.3333330  0.6666670  0.2817750  )
        10           W   tau(  10) = (  0.3333330  0.6666670  0.6575510  )
        11           Se  tau(  11) = (  0.3333330  0.6666670  0.0530320  )
        12           Se  tau(  12) = (  0.3333330  0.6666670  0.1348490  )

     number of k points=     7
                       cart. coord. in units 2pi/alat
        k(    1) = (   0.0000000   0.0000000   0.0000000), wk =   0.0740741
        k(    2) = (   0.0000000   0.0000000   0.0293847), wk =   0.1481481
        k(    3) = (   0.0000000   0.3849001   0.0000000), wk =   0.4444444
        k(    4) = (   0.0000000   0.3849001   0.0293847), wk =   0.4444444
        k(    5) = (   0.3333333   0.5773502   0.0000000), wk =   0.1481481
        k(    6) = (   0.3333333   0.5773502   0.0293847), wk =   0.2962963
        k(    7) = (   0.0000000  -0.3849001   0.0293847), wk =   0.4444444

                       cryst. coord.
        k(    1) = (   0.0000000   0.0000000   0.0000000), wk =   0.0740741
        k(    2) = (   0.0000000   0.0000000   0.3333333), wk =   0.1481481
        k(    3) = (   0.0000000   0.3333333   0.0000000), wk =   0.4444444
        k(    4) = (   0.0000000   0.3333333   0.3333333), wk =   0.4444444
        k(    5) = (   0.3333333   0.3333333   0.0000000), wk =   0.1481481
        k(    6) = (   0.3333333   0.3333333   0.3333333), wk =   0.2962963
        k(    7) = (   0.0000000  -0.3333333   0.3333333), wk =   0.4444444

     Initial potential from superposition of free atoms

     starting charge     103.6966, renormalised to     104.0000

     negative rho (up, down):  1.881E-01 0.000E+00
     Starting wfcs are   81 randomized atomic wfcs

     Self-consistent Calculation

     iteration #  1     ecut=    30.00 Ry     beta= 0.70
     Davidson diagonalization with overlap

     ethr =  1.00E-02,  avg # of iterations =  2.0

     negative rho (up, down):  1.934E-01 0.000E+00

     total energy              =    -715.55592836 Ry
     estimated scf accuracy    <     161.27503671 Ry

[...]

     c_bands:  2 eigenvalues not converged
     ethr =  1.00E-02,  avg # of iterations = 21.4

[...]

     c_bands:  2 eigenvalues not converged
     ethr =  4.66E-06,  avg # of iterations =  8.4

[...]

     total energy              =    -860.89638296 Ry
     estimated scf accuracy    <       0.00003335 Ry

     iteration # 62     ecut=    30.00 Ry     beta= 0.70
     Davidson diagonalization with overlap

     ethr =  5.74E-09,  avg # of iterations =  3.7

     negative rho (up, down):  1.859E-01 0.000E+00

     End of self-consistent calculation

          k = 0.0000 0.0000 0.0000 (  7823 PWs)   bands (ev):

   -69.1457 -68.0682 -68.0646 -54.9991 -33.3373 -33.2675 -33.2674 -32.3930
   -32.3904 -32.1922 -32.1922 -32.1878 -32.1878 -29.2378 -28.9761 -28.9761
    -9.2553  -7.9972  -7.4819  -7.4734  -7.2086  -6.4565  -6.3848  -6.2780
    -0.6139  -0.1592  -0.0546   0.5635   2.4300   2.4300   2.8487   3.2372
     3.4492   3.4493   3.6315   4.1239   4.1239   4.1396   4.1396   4.1446
     4.1446   4.2124   4.8321   4.8369   4.8370   5.0003   5.0003   5.0045
     5.0046   5.1766   5.3327   5.4522   7.5205   7.5205   7.7973   7.7973
     8.7288   8.7288   8.9014   8.9015   8.9167   8.9168   8.9873   8.9873

     occupation numbers
     1.0000   1.0000   1.0000   1.0000   1.0000   1.0000   1.0000   1.0000
     1.0000   1.0000   1.0000   1.0000   1.0000   1.0000   1.0000   1.0000
     1.0000   1.0000   1.0000   1.0000   1.0000   1.0000   1.0000   1.0000
     1.0000   1.0000   1.0000   1.0000   1.0000   1.0000   1.0000   1.0000
     1.0000   1.0000   1.0000   1.0000   1.0000   1.0000   1.0000   1.0000
     1.0000   1.0000   1.0000   1.0000   1.0000   1.0000   1.0000   1.0000
     1.0000   1.0000   1.0000   1.0000   0.0000   0.0000   0.0000   0.0000
     0.0000   0.0000   0.0000   0.0000   0.0000   0.0000   0.0000   0.0000

[...]

          k = 0.0000-0.3849 0.0294 (  7912 PWs)   bands (ev):

   -69.1428 -68.0652 -68.0616 -54.9913 -33.3565 -33.3207 -33.2888 -32.3762
   -32.3737 -32.2800 -32.2757 -32.2135 -32.2091 -29.2161 -29.0791 -29.0006
    -8.2402  -7.5524  -6.0098  -6.0001  -5.8266  -5.4472  -5.4020  -5.3223
    -0.1261   0.7649   0.8100   0.8299   1.0738   1.1213   1.5125   1.5382
     1.6877   1.6910   1.8615   2.1219   2.2714   3.3276   3.4577   3.6376
     3.6776   3.6846   3.6986   3.8581   4.0777   4.1241   4.5452   4.6020
     4.6675   5.0453   5.0858   5.1044   6.9679   6.9934   7.1160   7.3394
     7.4342   7.4557   7.8208   7.8299   7.9388   8.1713   8.6324   8.8581

     occupation numbers
     1.0000   1.0000   1.0000   1.0000   1.0000   1.0000   1.0000   1.0000
     1.0000   1.0000   1.0000   1.0000   1.0000   1.0000   1.0000   1.0000
     1.0000   1.0000   1.0000   1.0000   1.0000   1.0000   1.0000   1.0000
     1.0000   1.0000   1.0000   1.0000   1.0000   1.0000   1.0000   1.0000
     1.0000   1.0000   1.0000   1.0000   1.0000   1.0000   1.0000   1.0000
     1.0000   1.0000   1.0000   1.0000   1.0000   1.0000   1.0000   1.0000
     1.0000   1.0000   1.0000   1.0000   0.0000   0.0000   0.0000   0.0000
     0.0000   0.0000   0.0000   0.0000   0.0000   0.0000   0.0000   0.0000

     highest occupied, lowest unoccupied level (ev):     5.8771    6.0175

!    total energy              =    -860.89638584 Ry
     estimated scf accuracy    <       0.00000049 Ry

     The total energy is the sum of the following terms:
     one-electron contribution =   -3558.05058154 Ry
     hartree contribution      =    1801.21823673 Ry
     xc contribution           =    -285.60240416 Ry
     ewald contribution        =    1181.53836313 Ry

     convergence has been achieved in  62 iterations

     Writing all to output data dir bands_nm/myprefix.save/

     General routines

     Parallel routines

   This run was terminated on:  20: 9:35  12Jul2023

   JOB DONE.