     Program PWSCF v.7.1 starts on 14Jul2023 at 19:19:58

     Reading input from espresso_21825.pwi
Warning: card &CELL ignored
Warning: card / ignored

     Current dimensions of program PWSCF are:
     Max number of different atomic species (ntypx) = 10
     Max number of k-points (npk) =  40000
     Max angular momentum in pseudopotentials (lmaxx) =  4
     file Ho.paw.z_21.atompaw.wentzcovitch.v1.2.upf: wavefunction(s)  6S 0P 5D 0D 4F 0F renormalized
     file O.pbe-n-kjpaw_psl.0.1.UPF: wavefunction(s)  2P renormalized
     Message from routine setup:
     using ibrav=0 with symmetry is DISCOURAGED, use correct ibrav instead

     K-points division:     npool     =       2
     R & G space division:  proc/nbgrp/npool/nimage =       4
     Subspace diagonalization in iterative solution of the eigenvalue problem:
     a serial algorithm will be used

     Using Slab Decomposition

     bravais-lattice index     =            0
     lattice parameter (alat)  =      11.4779  a.u.
     unit-cell volume          =    1697.2451 (a.u.)^3
     number of atoms/cell      =           14
     number of atomic types    =            4
     number of electrons       =       122.00
     number of Kohn-Sham states=           64
     kinetic-energy cutoff     =      30.0000  Ry
     charge density cutoff     =     240.0000  Ry
     scf convergence threshold =      1.0E-06
     mixing beta               =       0.7000
     number of iterations used =            8  plain     mixing
     Exchange-correlation= SLA  PW   PBX  PBC
                           (   1   4   3   4   0   0   0)

     celldm(1)=  11.477906  celldm(2)=   0.000000  celldm(3)=   0.000000
     celldm(4)=   0.000000  celldm(5)=   0.000000  celldm(6)=   0.000000

     crystal axes: (cart. coord. in units of alat)
               a(1) = (   1.000000   0.000000   0.000000 )
               a(2) = (  -0.500000   0.866025   0.000000 )
               a(3) = (   0.000000   0.000000   1.296063 )

     reciprocal axes: (cart. coord. in units 2 pi/alat)
               b(1) = (  1.000000  0.577350  0.000000 )
               b(2) = (  0.000000  1.154701  0.000000 )
               b(3) = (  0.000000  0.000000  0.771568 )

     PseudoPot. # 1 for Rb read from file:
     /lustre07/scratch/pragov/crystal_structure_design/utils/SSSP/Rb_ONCV_PBE-1.0.oncvpsp.upf
     MD5 check sum: 55a5172d6bfbce6759a58e35d43f6aa9
     Pseudo is Norm-conserving, Zval =  9.0
     Generated using ONCVPSP code by D. R. Hamann
     Using radial grid of 2308 points,  6 beta functions with:
                l(1) =   0
                l(2) =   0
                l(3) =   1
                l(4) =   1
                l(5) =   2
                l(6) =   2

     PseudoPot. # 2 for Ho read from file:
     /lustre07/scratch/pragov/crystal_structure_design/utils/SSSP/Ho.paw.z_21.atompaw.wentzcovitch.v1.2.upf
     MD5 check sum: f900adcc49abc9ab8113872cdbacec3e
     Pseudo is Projector augmented-wave + core cor, Zval = 21.0
     Generated using ATOMPAW code
     Shape of augmentation charge: BESSEL
     Using radial grid of 1114 points,  8 beta functions with:
                l(1) =   0
                l(2) =   0
                l(3) =   1
                l(4) =   1
                l(5) =   2
                l(6) =   2
                l(7) =   3
                l(8) =   3
     Q(r) pseudized with 0 coefficients

     PseudoPot. # 3 for V  read from file:
     /lustre07/scratch/pragov/crystal_structure_design/utils/SSSP/v_pbe_v1.4.uspp.F.UPF
     MD5 check sum: 22b79981416ebb76fdaf5b1b8640f6fb
     Pseudo is Ultrasoft + core correction, Zval = 13.0
     Generated by new atomic code, or converted to UPF format
     Using radial grid of  853 points,  6 beta functions with:
                l(1) =   0
                l(2) =   0
                l(3) =   1
                l(4) =   1
                l(5) =   2
                l(6) =   2
     Q(r) pseudized with  8 coefficients,  rinner =    1.100   1.100   1.100
                                                       1.100   1.100

     PseudoPot. # 4 for O  read from file:
     /lustre07/scratch/pragov/crystal_structure_design/utils/SSSP/O.pbe-n-kjpaw_psl.0.1.UPF
     MD5 check sum: 0234752ac141de4415c5fc33072bef88
     Pseudo is Projector augmented-wave + core cor, Zval =  6.0
     Generated using "atomic" code by A. Dal Corso  v.5.0.99 svn rev. 10869
     Shape of augmentation charge: BESSEL
     Using radial grid of 1095 points,  4 beta functions with:
                l(1) =   0
                l(2) =   0
                l(3) =   1
                l(4) =   1
     Q(r) pseudized with 0 coefficients

     atomic species   valence    mass     pseudopotential
        Rb             9.00    85.46780     Rb( 1.00)
        Ho            21.00   164.93033     Ho( 1.00)
        V             13.00    50.94150     V ( 1.00)
        O              6.00    15.99900     O ( 1.00)

     12 Sym. Ops., with inversion, found

                                    s                        frac. trans.

      isym =  1     identity

 cryst.   s( 1) = (     1          0          0      )
                  (     0          1          0      )
                  (     0          0          1      )

 cart.    s( 1) = (  1.0000000  0.0000000  0.0000000 )
                  (  0.0000000  1.0000000  0.0000000 )
                  (  0.0000000  0.0000000  1.0000000 )

      isym =  2     180 deg rotation - cart. axis [1,0,0]

[...]

      isym =  3     120 deg rotation - cryst. axis [0,0,1]

[...]

      isym =  6     180 deg rotation - cryst. axis [1,1,0]

[...]

      isym =  7     inversion

[...]

      isym =  8     inv. 180 deg rotation - cart. axis [1,0,0]

[...]

      isym =  9     inv. 120 deg rotation - cryst. axis [0,0,1]

 cryst.   s( 9) = (     0         -1          0      )
                  (     1          1          0      )
                  (     0          0         -1      )

 cart.    s( 9) = (  0.5000000  0.8660254  0.0000000 )
                  ( -0.8660254  0.5000000  0.0000000 )
                  (  0.0000000  0.0000000 -1.0000000 )

[...]

 cryst.   s(10) = (     1          1          0      )
                  (    -1          0          0      )
                  (     0          0         -1      )

 cart.    s(10) = (  0.5000000 -0.8660254  0.0000000 )
                  (  0.8660254  0.5000000  0.0000000 )
                  (  0.0000000  0.0000000 -1.0000000 )

[...]

      isym = 12     inv. 180 deg rotation - cryst. axis [1,1,0]

 cryst.   s(12) = (     0         -1          0      )
                  (    -1          0          0      )
                  (     0          0          1      )

 cart.    s(12) = (  0.5000000 -0.8660254  0.0000000 )
                  ( -0.8660254 -0.5000000  0.0000000 )
                  (  0.0000000  0.0000000  1.0000000 )

   Cartesian axes

     site n.     atom                  positions (alat units)
         1           Rb  tau(   1) = (  -0.0000005   0.5773506   0.8925556  )
         2           Rb  tau(   2) = (   0.5000005   0.2886748   0.4035071  )
         3           Rb  tau(   3) = (   0.0000000   0.0000000   0.0000000  )
         4           Ho  tau(   4) = (   0.0000000   0.0000000   0.6480313  )
         5           V   tau(   5) = (  -0.0000005   0.5773506   0.3264056  )
         6           V   tau(   6) = (   0.5000005   0.2886748   0.9696570  )
         7           O   tau(   7) = (  -0.0000005   0.5773506   0.0499179  )
         8           O   tau(   8) = (   0.5000005   0.2886748   1.2461448  )
         9           O   tau(   9) = (  -0.2375120   0.7144779   0.4276074  )
        10           O   tau(  10) = (   0.7375120   0.1515475   0.8684553  )
        11           O   tau(  11) = (  -0.0000000   0.3030950   0.4276074  )
        12           O   tau(  12) = (   0.5000000   0.5629304   0.8684553  )
        13           O   tau(  13) = (   0.2375120   0.7144779   0.4276074  )
        14           O   tau(  14) = (   0.2624880   0.1515475   0.8684553  )

   Crystallographic axes

     site n.     atom                  positions (cryst. coord.)
         1           Rb  tau(   1) = (  0.3333330  0.6666670  0.6886670  )
         2           Rb  tau(   2) = (  0.6666670  0.3333330  0.3113330  )
         3           Rb  tau(   3) = (  0.0000000  0.0000000  0.0000000  )
         4           Ho  tau(   4) = (  0.0000000  0.0000000  0.5000000  )
         5           V   tau(   5) = (  0.3333330  0.6666670  0.2518440  )
         6           V   tau(   6) = (  0.6666670  0.3333330  0.7481560  )
         7           O   tau(   7) = (  0.3333330  0.6666670  0.0385150  )
         8           O   tau(   8) = (  0.6666670  0.3333330  0.9614850  )
         9           O   tau(   9) = (  0.1749920  0.8250080  0.3299280  )
        10           O   tau(  10) = (  0.8250080  0.1749920  0.6700720  )
        11           O   tau(  11) = (  0.1749920  0.3499840  0.3299280  )
        12           O   tau(  12) = (  0.8250080  0.6500160  0.6700720  )
        13           O   tau(  13) = (  0.6500160  0.8250080  0.3299280  )
        14           O   tau(  14) = (  0.3499840  0.1749920  0.6700720  )

     number of k points=     7
                       cart. coord. in units 2pi/alat
        k(    1) = (   0.0000000   0.0000000   0.0000000), wk =   0.0740741
        k(    2) = (   0.0000000   0.0000000   0.2571892), wk =   0.1481481
        k(    3) = (   0.0000000   0.3849002   0.0000000), wk =   0.4444444
        k(    4) = (   0.0000000   0.3849002   0.2571892), wk =   0.4444444
        k(    5) = (   0.3333333   0.5773503   0.0000000), wk =   0.1481481
        k(    6) = (   0.3333333   0.5773503   0.2571892), wk =   0.2962963
        k(    7) = (   0.0000000   0.3849002  -0.2571892), wk =   0.4444444

                       cryst. coord.
        k(    1) = (   0.0000000   0.0000000   0.0000000), wk =   0.0740741
        k(    2) = (   0.0000000   0.0000000   0.3333333), wk =   0.1481481
        k(    3) = (   0.0000000   0.3333333   0.0000000), wk =   0.4444444
        k(    4) = (   0.0000000   0.3333333   0.3333333), wk =   0.4444444
        k(    5) = (   0.3333333   0.3333333   0.0000000), wk =   0.1481481
        k(    6) = (   0.3333333   0.3333333   0.3333333), wk =   0.2962963
        k(    7) = (   0.0000000   0.3333333  -0.3333333), wk =   0.4444444

     Check: negative core charge=   -0.000012

     Initial potential from superposition of free atoms

     starting charge     121.9189, renormalised to     122.0000

     negative rho (up, down):  2.685E-03 0.000E+00
     Starting wfcs are   99 randomized atomic wfcs
     Checking if some PAW data can be deallocated...

     Self-consistent Calculation

     iteration #  1     ecut=    30.00 Ry     beta= 0.70
     Davidson diagonalization with overlap

     ethr =  1.00E-02,  avg # of iterations =  1.9

     negative rho (up, down):  4.851E-03 0.000E+00

     total energy              =   -1596.95779366 Ry
     estimated scf accuracy    <       5.67810929 Ry

[...]

     total energy              =   -1600.52460513 Ry
     estimated scf accuracy    <       0.00000238 Ry

     iteration #124     ecut=    30.00 Ry     beta= 0.70
     Davidson diagonalization with overlap

     ethr =  1.95E-09,  avg # of iterations =  5.1

     negative rho (up, down):  4.072E-03 0.000E+00

     End of self-consistent calculation

          k = 0.0000 0.0000 0.0000 (  4699 PWs)   bands (ev):

   -58.8010 -58.8007 -40.2539 -32.7354 -32.7340 -32.7108 -32.7108 -32.7101
   -32.7101 -19.7833 -19.5013 -19.4902 -15.6428 -15.6428 -15.6008 -11.6136
   -11.2044 -11.2042 -11.1471 -10.8372 -10.7990 -10.7988 -10.6979  -3.9058
    -3.9058  -3.8839  -3.8100  -3.8100  -3.7425  -3.6985  -3.6985  -3.6370
     1.5602   1.7114   1.7115   2.1618   2.1618   2.2988   2.2989   2.3153
     2.3531   2.5274   2.5274   2.7577   3.1500   3.1500   3.1593   3.4226
     3.5183   3.5183   4.1861   4.5005   4.5006   4.5037   4.5038   4.5398
     5.5516   5.5516   5.6231   5.6848   5.6983   5.6983   5.7051   7.9641

     occupation numbers
     1.0000   1.0000   1.0000   1.0000   1.0000   1.0000   1.0000   1.0000
     1.0000   1.0000   1.0000   1.0000   1.0000   1.0000   1.0000   1.0000
     1.0000   1.0000   1.0000   1.0000   1.0000   1.0000   1.0000   1.0000
     1.0000   1.0000   1.0000   1.0000   1.0000   1.0000   1.0000   1.0000
     1.0000   1.0000   1.0000   1.0000   1.0000   1.0000   1.0000   1.0000
     1.0000   1.0000   1.0000   1.0000   1.0000   1.0000   1.0000   1.0000
     1.0000   1.0000   1.0000   1.0000   1.0000   1.0000   1.0000   1.0000
     1.0000   1.0000   1.0000   1.0000   1.0000   0.0000   0.0000   0.0000

[...]

          k = 0.0000 0.3849-0.2572 (  4705 PWs)   bands (ev):

   -58.8009 -58.8008 -40.2539 -32.7353 -32.7347 -32.7111 -32.7110 -32.7104
   -32.7097 -19.7827 -19.4982 -19.4909 -15.6484 -15.6437 -15.5950 -11.5395
   -11.3989 -11.2029 -11.0506 -10.8779 -10.8053 -10.7652 -10.7156  -3.9175
    -3.9073  -3.8923  -3.7472  -3.6864  -3.6695  -3.6587  -3.6152  -3.6054
     1.4901   1.6647   1.7066   2.0894   2.1024   2.1948   2.2513   2.3085
     2.3421   2.4741   2.4856   2.6471   2.9922   3.2986   3.3515   3.4498
     3.4743   3.6599   3.8144   4.1242   4.1715   4.4051   4.4554   4.5321
     5.5556   5.6049   5.6054   5.6859   5.7005   5.7609   5.7723   8.1921

     occupation numbers
     1.0000   1.0000   1.0000   1.0000   1.0000   1.0000   1.0000   1.0000
     1.0000   1.0000   1.0000   1.0000   1.0000   1.0000   1.0000   1.0000
     1.0000   1.0000   1.0000   1.0000   1.0000   1.0000   1.0000   1.0000
     1.0000   1.0000   1.0000   1.0000   1.0000   1.0000   1.0000   1.0000
     1.0000   1.0000   1.0000   1.0000   1.0000   1.0000   1.0000   1.0000
     1.0000   1.0000   1.0000   1.0000   1.0000   1.0000   1.0000   1.0000
     1.0000   1.0000   1.0000   1.0000   1.0000   1.0000   1.0000   1.0000
     1.0000   1.0000   1.0000   1.0000   1.0000   0.0000   0.0000   0.0000

     highest occupied, lowest unoccupied level (ev):     5.7613    5.6928

!    total energy              =   -1600.52460479 Ry
     estimated scf accuracy    <       0.00000020 Ry

     The total energy is the sum of the following terms:
     one-electron contribution =    -703.70710654 Ry
     hartree contribution      =     395.93171713 Ry
     xc contribution           =    -151.19563863 Ry
     ewald contribution        =    -580.16353957 Ry
     one-center paw contrib.   =    -561.39003718 Ry
      -> PAW hartree energy AE =       0.00000000 Ry
      -> PAW hartree energy PS =       0.00000000 Ry
      -> PAW xc energy AE      =       0.00000000 Ry
      -> PAW xc energy PS      =       0.00000000 Ry
      -> total E_H with PAW    =     395.93171713 Ry
      -> total E_XC with PAW   =    -151.19563863 Ry

     convergence has been achieved in 124 iterations

     Writing all to output data dir bands_nm/myprefix.save/

     General routines

     Parallel routines

     PAW routines

   This run was terminated on:  19:21:47  14Jul2023

   JOB DONE.