     Program PWSCF v.7.0 starts on  7Jun2023 at  7:10:17

     K-points division:     npool     =       2
     R & G space division:  proc/nbgrp/npool/nimage =       4

     Reading input from espresso_4166.pwi
Warning: card &CELL ignored
Warning: card / ignored

     Current dimensions of program PWSCF are:
     Max number of different atomic species (ntypx) = 10
     Max number of k-points (npk) =  40000
     Max angular momentum in pseudopotentials (lmaxx) =  4
     file O.pbe-n-kjpaw_psl.0.1.UPF: wavefunction(s)  2P renormalized
     Message from routine setup:
     using ibrav=0 with symmetry is DISCOURAGED, use correct ibrav instead

     Using Slab Decomposition

     bravais-lattice index     =            0
     lattice parameter (alat)  =      14.7569  a.u.
     unit-cell volume          =    2473.8070 (a.u.)^3
     number of atoms/cell      =           18
     number of atomic types    =            2
     number of electrons       =        96.00
     number of Kohn-Sham states=           64
     kinetic-energy cutoff     =      30.0000  Ry
     charge density cutoff     =     240.0000  Ry
     scf convergence threshold =      1.0E-06
     mixing beta               =       0.7000
     number of iterations used =            8  plain     mixing
     Exchange-correlation= SLA  PW   PBX  PBC
                           (   1   4   3   4   0   0   0)

     celldm(1)=  14.756926  celldm(2)=   0.000000  celldm(3)=   0.000000
     celldm(4)=   0.000000  celldm(5)=   0.000000  celldm(6)=   0.000000

     crystal axes: (cart. coord. in units of alat)
               a(1) = (   1.000000   0.000000   0.000000 )
               a(2) = (  -0.333333   0.942809   0.000000 )
               a(3) = (  -0.333333  -0.471405   0.816497 )

     reciprocal axes: (cart. coord. in units 2 pi/alat)
               b(1) = (  1.000000  0.353553  0.612372 )
               b(2) = (  0.000000  1.060660  0.612372 )
               b(3) = (  0.000000  0.000000  1.224745 )

     PseudoPot. # 1 for Si read from file:
     /home/pragov/projects/rrg-bengioy-ad/pragov/crystal_structure_design/SSSP/Si.pbe-n-rrkjus_psl.1.0.0.UPF
     MD5 check sum: 0b0bb1205258b0d07b9f9672cf965d36
     Pseudo is Ultrasoft + core correction, Zval =  4.0
     Generated using "atomic" code by A. Dal Corso  v.5.1
     Using radial grid of 1141 points,  6 beta functions with:
                l(1) =   0
                l(2) =   0
                l(3) =   1
                l(4) =   1
                l(5) =   2
                l(6) =   2
     Q(r) pseudized with 0 coefficients

     PseudoPot. # 2 for O  read from file:
     /home/pragov/projects/rrg-bengioy-ad/pragov/crystal_structure_design/SSSP/O.pbe-n-kjpaw_psl.0.1.UPF
     MD5 check sum: 0234752ac141de4415c5fc33072bef88
     Pseudo is Projector augmented-wave + core cor, Zval =  6.0
     Generated using "atomic" code by A. Dal Corso  v.5.0.99 svn rev. 10869
     Shape of augmentation charge: BESSEL
     Using radial grid of 1095 points,  4 beta functions with:
                l(1) =   0
                l(2) =   0
                l(3) =   1
                l(4) =   1
     Q(r) pseudized with 0 coefficients

     atomic species   valence    mass     pseudopotential
        Si             4.00    28.08500     Si( 1.00)
        O              6.00    15.99900     O ( 1.00)

      4 Sym. Ops., with inversion, found

                                    s                        frac. trans.

      isym =  1     identity

 cryst.   s( 1) = (     1          0          0      )
                  (     0          1          0      )
                  (     0          0          1      )

 cart.    s( 1) = (  1.0000000  0.0000000 -0.0000000 )
                  (  0.0000000  1.0000000 -0.0000000 )
                  (  0.0000000  0.0000000  1.0000000 )

      isym =  2     180 deg rotation - cart. axis [0,0,1]

[...]

      isym =  3     inversion

[...]

      isym =  4     inv. 180 deg rotation - cart. axis [0,0,1]

 cryst.   s( 4) = (     1          0          0      )
                  (     0          1          0      )
                  (    -1         -1         -1      )

 cart.    s( 4) = (  1.0000000  0.0000000 -0.0000000 )
                  (  0.0000000  1.0000000 -0.0000000 )
                  (  0.0000000  0.0000000 -1.0000000 )

   Cartesian axes

     site n.     atom                  positions (alat units)
         1           Si  tau(   1) = (   0.1666667  -0.1178511   0.6123724  )
         2           Si  tau(   2) = (   0.1666667   0.5892557   0.2041241  )
         3           Si  tau(   3) = (  -0.1666667   0.4714045   0.4082483  )
         4           Si  tau(   4) = (   0.5000000   0.0000000   0.4082483  )
         5           Si  tau(   5) = (  -0.1666667   0.1178511   0.6123724  )
         6           Si  tau(   6) = (   0.5000000   0.3535534   0.2041241  )
         7           O   tau(   7) = (   0.1365053  -0.3052915   0.5287803  )
         8           O   tau(   8) = (   0.3333333   0.4714045   0.2410641  )
         9           O   tau(   9) = (   0.1365053   0.6105829   0.0000000  )
        10           O   tau(  10) = (   0.0000000   0.4983392   0.2877162  )
        11           O   tau(  11) = (   0.3333333  -0.0269346   0.5287803  )
        12           O   tau(  12) = (   0.6666667   0.0269346   0.5287803  )
        13           O   tau(  13) = (   0.4698387   0.1661131   0.2877162  )
        14           O   tau(  14) = (   0.5301613   0.3322261   0.0000000  )
        15           O   tau(  15) = (  -0.3333333   0.4444699   0.2877162  )
        16           O   tau(  16) = (  -0.1365053   0.3052915   0.5287803  )
        17           O   tau(  17) = (   0.0000000   0.0000000   0.5754325  )
        18           O   tau(  18) = (   0.5301613  -0.1661131   0.2877162  )

   Crystallographic axes

     site n.     atom                  positions (cryst. coord.)
         1           Si  tau(   1) = (  0.5000000  0.2500000  0.7500000  )
         2           Si  tau(   2) = (  0.5000000  0.7500000  0.2500000  )
         3           Si  tau(   3) = (  0.2500000  0.7500000  0.5000000  )
         4           Si  tau(   4) = (  0.7500000  0.2500000  0.5000000  )
         5           Si  tau(   5) = (  0.2500000  0.5000000  0.7500000  )
         6           Si  tau(   6) = (  0.7500000  0.5000000  0.2500000  )
         7           O   tau(   7) = (  0.3523790  0.0000000  0.6476210  )
         8           O   tau(   8) = (  0.6476210  0.6476210  0.2952420  )
         9           O   tau(   9) = (  0.3523790  0.6476210  0.0000000  )
        10           O   tau(  10) = (  0.3523790  0.7047580  0.3523790  )
        11           O   tau(  11) = (  0.6476210  0.2952420  0.6476210  )
        12           O   tau(  12) = (  1.0000000  0.3523790  0.6476210  )
        13           O   tau(  13) = (  0.7047580  0.3523790  0.3523790  )
        14           O   tau(  14) = (  0.6476210  0.3523790  0.0000000  )
        15           O   tau(  15) = (  0.0000000  0.6476210  0.3523790  )
        16           O   tau(  16) = (  0.2952420  0.6476210  0.6476210  )
        17           O   tau(  17) = (  0.3523790  0.3523790  0.7047580  )
        18           O   tau(  18) = (  0.6476210 -0.0000000  0.3523790  )

     number of k points=    10
                       cart. coord. in units 2pi/alat
        k(    1) = (   0.0000000   0.0000000   0.0000000), wk =   0.0740741
        k(    2) = (   0.0000000   0.0000000   0.4082483), wk =   0.1481481
        k(    3) = (   0.0000000   0.3535534   0.2041241), wk =   0.2962963
        k(    4) = (   0.0000000   0.3535534   0.6123724), wk =   0.1481481
        k(    5) = (   0.3333333   0.1178511   0.2041241), wk =   0.2962963
        k(    6) = (   0.3333333   0.1178511   0.6123724), wk =   0.1481481
        k(    7) = (   0.3333333   0.4714045   0.4082483), wk =   0.2962963
        k(    8) = (   0.3333333   0.4714045  -0.0000000), wk =   0.1481481
        k(    9) = (   0.3333333  -0.2357023  -0.0000000), wk =   0.1481481
        k(   10) = (   0.3333333  -0.2357023   0.4082483), wk =   0.2962963

                       cryst. coord.
        k(    1) = (   0.0000000   0.0000000   0.0000000), wk =   0.0740741
        k(    2) = (   0.0000000   0.0000000   0.3333333), wk =   0.1481481
        k(    3) = (   0.0000000   0.3333333   0.0000000), wk =   0.2962963
        k(    4) = (   0.0000000   0.3333333   0.3333333), wk =   0.1481481
        k(    5) = (   0.3333333   0.0000000   0.0000000), wk =   0.2962963
        k(    6) = (   0.3333333   0.0000000   0.3333333), wk =   0.1481481
        k(    7) = (   0.3333333   0.3333333  -0.0000000), wk =   0.2962963
        k(    8) = (   0.3333333   0.3333333  -0.3333333), wk =   0.1481481
        k(    9) = (   0.3333333  -0.3333333  -0.0000000), wk =   0.1481481
        k(   10) = (   0.3333333  -0.3333333   0.3333333), wk =   0.2962963

     Check: negative core charge=   -0.000009

     Initial potential from superposition of free atoms

     starting charge      95.9966, renormalised to      96.0000

     negative rho (up, down):  2.020E-07 0.000E+00
     Starting wfcs are   72 randomized atomic wfcs
     Checking if some PAW data can be deallocated...

     Self-consistent Calculation

     iteration #  1     ecut=    30.00 Ry     beta= 0.70
     Davidson diagonalization with overlap

     ethr =  1.00E-02,  avg # of iterations =  3.6

     negative rho (up, down):  2.364E-05 0.000E+00

     total energy              =    -567.92485273 Ry
     estimated scf accuracy    <       4.19545954 Ry

[...]

     total energy              =    -569.68807002 Ry
     estimated scf accuracy    <       0.00000534 Ry

     iteration #  9     ecut=    30.00 Ry     beta= 0.70
     Davidson diagonalization with overlap

     ethr =  5.56E-09,  avg # of iterations =  2.0

     negative rho (up, down):  1.349E-04 0.000E+00

     End of self-consistent calculation

          k = 0.0000 0.0000 0.0000 (  6819 PWs)   bands (ev):

   -20.5809 -19.7195 -19.7193 -19.7193 -19.2874 -19.2872 -18.6347 -18.6346
   -18.6345 -18.6332 -18.6332 -18.6329  -9.7478  -9.7476  -8.8317  -8.8316
    -8.8315  -6.7520  -6.7519  -6.7519  -6.7168  -6.7168  -6.7165  -5.7958
    -4.4503  -4.4502  -3.9463  -3.7920  -3.7919  -3.7919  -3.1520  -3.1520
    -3.1519  -3.0545  -3.0543  -2.6944  -2.6944  -2.6943  -2.6761  -2.6760
    -2.6759  -1.9592  -1.9591  -1.9591  -1.5393  -1.5393  -1.5391  -1.0787
     4.2717   7.1263   7.2033   7.2033   7.2034   7.5438   7.5438   7.5439
     8.1283   8.1284   8.6240   8.6451   8.6451   8.6451   9.4417   9.4417

     occupation numbers
     1.0000   1.0000   1.0000   1.0000   1.0000   1.0000   1.0000   1.0000
     1.0000   1.0000   1.0000   1.0000   1.0000   1.0000   1.0000   1.0000
     1.0000   1.0000   1.0000   1.0000   1.0000   1.0000   1.0000   1.0000
     1.0000   1.0000   1.0000   1.0000   1.0000   1.0000   1.0000   1.0000
     1.0000   1.0000   1.0000   1.0000   1.0000   1.0000   1.0000   1.0000
     1.0000   1.0000   1.0000   1.0000   1.0000   1.0000   1.0000   1.0000
     0.0000   0.0000   0.0000   0.0000   0.0000   0.0000   0.0000   0.0000
     0.0000   0.0000   0.0000   0.0000   0.0000   0.0000   0.0000   0.0000

[...]

          k = 0.3333-0.2357 0.4082 (  6859 PWs)   bands (ev):

   -20.3412 -20.1241 -19.7251 -19.7250 -19.5692 -18.7494 -18.6849 -18.6339
   -18.6336 -18.6326 -18.6260 -18.6259 -10.7609  -9.2046  -8.9319  -8.9318
    -7.6379  -7.0851  -6.7975  -6.7973  -6.7592  -6.4735  -6.4734  -6.1893
    -4.6230  -4.1843  -4.0486  -3.7176  -3.7175  -3.6862  -3.5340  -3.0826
    -3.0825  -3.0684  -2.9984  -2.8817  -2.8816  -2.7890  -2.7890  -2.7877
    -2.3916  -2.2197  -2.2197  -1.8330  -1.7170  -1.3123  -1.3121  -1.1946
     5.4169   6.4695   6.4778   6.9543   6.9543   7.7339   8.0669   8.3354
     8.3354   8.4115   8.4290   8.4291   8.9789   9.1406   9.1721   9.4018

     occupation numbers
     1.0000   1.0000   1.0000   1.0000   1.0000   1.0000   1.0000   1.0000
     1.0000   1.0000   1.0000   1.0000   1.0000   1.0000   1.0000   1.0000
     1.0000   1.0000   1.0000   1.0000   1.0000   1.0000   1.0000   1.0000
     1.0000   1.0000   1.0000   1.0000   1.0000   1.0000   1.0000   1.0000
     1.0000   1.0000   1.0000   1.0000   1.0000   1.0000   1.0000   1.0000
     1.0000   1.0000   1.0000   1.0000   1.0000   1.0000   1.0000   1.0000
     0.0000   0.0000   0.0000   0.0000   0.0000   0.0000   0.0000   0.0000
     0.0000   0.0000   0.0000   0.0000   0.0000   0.0000   0.0000   0.0000

     highest occupied, lowest unoccupied level (ev):    -1.0787    4.2717

!    total energy              =    -569.68806997 Ry
     estimated scf accuracy    <       0.00000060 Ry

     The total energy is the sum of the following terms:
     one-electron contribution =    -497.36731048 Ry
     hartree contribution      =     287.87493631 Ry
     xc contribution           =    -128.48424752 Ry
     ewald contribution        =    -117.68305834 Ry
     one-center paw contrib.   =    -114.02838994 Ry
      -> PAW hartree energy AE =       0.00000000 Ry
      -> PAW hartree energy PS =       0.00000000 Ry
      -> PAW xc energy AE      =       0.00000000 Ry
      -> PAW xc energy PS      =       0.00000000 Ry
      -> total E_H with PAW    =     287.87493631 Ry
      -> total E_XC with PAW   =    -128.48424752 Ry

     convergence has been achieved in   9 iterations

     Writing all to output data dir calculations_bands/myprefix.save/

     General routines

     Parallel routines

     PAW routines

   This run was terminated on:   7:10:33   7Jun2023

   JOB DONE.