     Program PWSCF v.7.1 starts on 16Jul2023 at 14:55:25

     Reading input from espresso_3739.pwi
Warning: card &CELL ignored
Warning: card / ignored

     Current dimensions of program PWSCF are:
     Max number of different atomic species (ntypx) = 10
     Max number of k-points (npk) =  40000
     Max angular momentum in pseudopotentials (lmaxx) =  4
     file Ba.pbe-spn-kjpaw_psl.1.0.0.UPF: wavefunction(s)  5S 6S renormalized

     K-points division:     npool     =       2
     R & G space division:  proc/nbgrp/npool/nimage =       4
     Subspace diagonalization in iterative solution of the eigenvalue problem:
     a serial algorithm will be used

     Using Slab Decomposition

     bravais-lattice index     =            0
     lattice parameter (alat)  =      16.2458  a.u.
     unit-cell volume          =    3300.6392 (a.u.)^3
     number of atoms/cell      =           14
     number of atomic types    =            3
     number of electrons       =       112.00
     number of Kohn-Sham states=           64
     kinetic-energy cutoff     =      30.0000  Ry
     charge density cutoff     =     240.0000  Ry
     scf convergence threshold =      1.0E-06
     mixing beta               =       0.7000
     number of iterations used =            8  plain     mixing
     Exchange-correlation=  SLA  PW   PBX  PBC
                           (   1   4   3   4   0   0   0)

     celldm(1)=  16.245840  celldm(2)=   0.000000  celldm(3)=   0.000000
     celldm(4)=   0.000000  celldm(5)=   0.000000  celldm(6)=   0.000000

     crystal axes: (cart. coord. in units of alat)
               a(1) = (   1.000000   0.000000   0.000000 )
               a(2) = (  -0.337562   0.941303   0.000000 )
               a(3) = (  -0.331219  -0.470652   0.817790 )

     reciprocal axes: (cart. coord. in units 2 pi/alat)
               b(1) = (  1.000000  0.358612  0.611404 )
               b(2) = (  0.000000  1.062357  0.611404 )
               b(3) = (  0.000000  0.000000  1.222807 )

     PseudoPot. # 1 for Ba read from file:
     /lustre07/scratch/pragov/crystal_structure_design/utils/SSSP/Ba.pbe-spn-kjpaw_psl.1.0.0.UPF
     MD5 check sum: c432291d3e53af55f19d5e8866385beb
     Pseudo is Projector augmented-wave + core cor, Zval = 10.0
     Generated using "atomic" code by A. Dal Corso  v.5.1
     Shape of augmentation charge: PSQ
     Using radial grid of 1251 points,  7 beta functions with:
                l(1) =   0
                l(2) =   0
                l(3) =   0
                l(4) =   1
                l(5) =   1
                l(6) =   2
                l(7) =   2
     Q(r) pseudized with 0 coefficients

     PseudoPot. # 2 for P  read from file:
     /lustre07/scratch/pragov/crystal_structure_design/utils/SSSP/P.pbe-n-rrkjus_psl.1.0.0.UPF
     MD5 check sum: 8b930f418f0a4573dca56cd030ffe088
     Pseudo is Ultrasoft + core correction, Zval =  5.0
     Generated using "atomic" code by A. Dal Corso  v.5.1
     Using radial grid of 1147 points,  6 beta functions with:
                l(1) =   0
                l(2) =   0
                l(3) =   1
                l(4) =   1
                l(5) =   2
                l(6) =   2
     Q(r) pseudized with 0 coefficients

     PseudoPot. # 3 for Br read from file:
     /lustre07/scratch/pragov/crystal_structure_design/utils/SSSP/br_pbe_v1.4.uspp.F.UPF
     MD5 check sum: d3ffb7b29f6225aa16fe06858fb2a80b
     Pseudo is Ultrasoft + core correction, Zval =  7.0
     Generated by new atomic code, or converted to UPF format
     Using radial grid of  879 points,  6 beta functions with:
                l(1) =   0
                l(2) =   0
                l(3) =   1
                l(4) =   1
                l(5) =   2
                l(6) =   2
     Q(r) pseudized with  8 coefficients,  rinner =    1.100   1.100   1.100
                                                       1.100   1.100

     atomic species   valence    mass     pseudopotential
        Ba            10.00   137.32700     Ba( 1.00)
        P              5.00    30.97376     P ( 1.00)
        Br             7.00    79.90400     Br( 1.00)

     No symmetry found

                                    s                        frac. trans.

      isym =  1     identity

 cryst.   s( 1) = (     1          0          0      )
                  (     0          1          0      )
                  (     0          0          1      )

 cart.    s( 1) = (  1.0000000  0.0000000  0.0000000 )
                  (  0.0000000  1.0000000 -0.0000000 )
                  (  0.0000000  0.0000000  1.0000000 )

   Cartesian axes

     site n.     atom                  positions (alat units)
         1           Ba  tau(   1) = (   0.5307993   0.2302983   0.1995000  )
         2           Ba  tau(   2) = (   0.7032672   0.6501190   0.0807069  )
         3           Ba  tau(   3) = (   0.0433448   0.4107918   0.7370835  )
         4           Ba  tau(   4) = (  -0.2936162   0.1067315   0.6182904  )
         5           Ba  tau(   5) = (   0.2150872   0.6522774   0.3015430  )
         6           Ba  tau(   6) = (   0.2101673  -0.0480041   0.5162474  )
         7           Ba  tau(   7) = (   0.0575221   0.2219696   0.2009704  )
         8           Ba  tau(   8) = (  -0.1416951  -0.3415782   0.6168201  )
         9           P   tau(   9) = (   0.3269976   0.3003538   0.5122083  )
        10           P   tau(  10) = (  -0.0061112   0.8813144   0.0945570  )
        11           P   tau(  11) = (  -0.1588769  -0.0614596   0.3055821  )
        12           P   tau(  12) = (   0.3312188   0.4706516   0.0000000  )
        13           P   tau(  13) = (   0.5004281  -0.1789055   0.7232334  )
        14           Br  tau(  14) = (  -0.1687812   0.4706516   0.4088952  )

   Crystallographic axes

     site n.     atom                  positions (cryst. coord.)
         1           Ba  tau(   1) = (  0.7353620  0.3666340  0.2439500  )
         2           Ba  tau(   2) = (  0.9857520  0.7400030  0.0986890  )
         3           Ba  tau(   3) = (  0.6413150  0.8870630  0.9013110  )
         4           Ba  tau(   4) = (  0.1226840  0.4914120  0.7560500  )
         5           Ba  tau(   5) = (  0.6333660  0.8773160  0.3687290  )
         6           Ba  tau(   6) = (  0.5085880  0.2646380  0.6312710  )
         7           Ba  tau(   7) = (  0.2599970  0.3586850  0.2457480  )
         8           Ba  tau(   8) = (  0.1129370  0.0142480  0.7542520  )
         9           P   tau(   9) = (  0.7478740  0.6322490  0.6263320  )
        10           P   tau(  10) = (  0.3677510  0.9940830  0.1156250  )
        11           P   tau(  11) = (  0.0059170  0.1215420  0.3736680  )
        12           P   tau(  12) = (  0.5000000  0.5000000  0.0000000  )
        13           P   tau(  13) = (  0.8784580  0.2521260  0.8843750  )
        14           Br  tau(  14) = (  0.2500000  0.7500000  0.5000000  )

     number of k points=    14
                       cart. coord. in units 2pi/alat
        k(    1) = (   0.0000000   0.0000000   0.0000000), wk =   0.0740741
        k(    2) = (   0.0000000   0.0000000   0.4076024), wk =   0.1481481
        k(    3) = (   0.0000000   0.3541190   0.2038012), wk =   0.1481481
        k(    4) = (   0.0000000   0.3541190   0.6114036), wk =   0.1481481
        k(    5) = (   0.3333333   0.1195372   0.2038012), wk =   0.1481481
        k(    6) = (   0.3333333   0.1195372   0.6114036), wk =   0.1481481
        k(    7) = (   0.3333333   0.4736562   0.4076024), wk =   0.1481481
        k(    8) = (   0.3333333   0.4736562  -0.0000000), wk =   0.1481481
        k(    9) = (   0.3333333  -0.2345818  -0.0000000), wk =   0.1481481
        k(   10) = (   0.3333333  -0.2345818   0.4076024), wk =   0.1481481
        k(   11) = (   0.0000000  -0.3541190   0.2038012), wk =   0.1481481
        k(   12) = (  -0.3333333  -0.1195372   0.2038012), wk =   0.1481481
        k(   13) = (  -0.3333333  -0.4736562   0.4076024), wk =   0.1481481
        k(   14) = (  -0.3333333   0.2345818   0.4076024), wk =   0.1481481

                       cryst. coord.
        k(    1) = (   0.0000000   0.0000000   0.0000000), wk =   0.0740741
        k(    2) = (   0.0000000   0.0000000   0.3333333), wk =   0.1481481
        k(    3) = (   0.0000000   0.3333333   0.0000000), wk =   0.1481481
        k(    4) = (   0.0000000   0.3333333   0.3333333), wk =   0.1481481
        k(    5) = (   0.3333333   0.0000000   0.0000000), wk =   0.1481481
        k(    6) = (   0.3333333   0.0000000   0.3333333), wk =   0.1481481
        k(    7) = (   0.3333333   0.3333333   0.0000000), wk =   0.1481481
        k(    8) = (   0.3333333   0.3333333  -0.3333333), wk =   0.1481481
        k(    9) = (   0.3333333  -0.3333333   0.0000000), wk =   0.1481481
        k(   10) = (   0.3333333  -0.3333333   0.3333333), wk =   0.1481481
        k(   11) = (   0.0000000  -0.3333333   0.3333333), wk =   0.1481481
        k(   12) = (  -0.3333333  -0.0000000   0.3333333), wk =   0.1481481
        k(   13) = (  -0.3333333  -0.3333333   0.6666667), wk =   0.1481481
        k(   14) = (  -0.3333333   0.3333333   0.3333333), wk =   0.1481481

     Initial potential from superposition of free atoms

     starting charge     111.8631, renormalised to     112.0000
     Starting wfcs are   64 randomized atomic wfcs
     Checking if some PAW data can be deallocated...

     Self-consistent Calculation

     iteration #  1     ecut=    30.00 Ry     beta= 0.70
     Davidson diagonalization with overlap

     ethr =  1.00E-02,  avg # of iterations =  8.6

     negative rho (up, down):  3.883E-01 0.000E+00

     total energy              =   -3606.85583144 Ry
     estimated scf accuracy    <       2.46180960 Ry

[...]

     negative rho (up, down):  2.341E-03 0.000E+00

[...]

     total energy              =   -3607.74123611 Ry
     estimated scf accuracy    <       0.00000534 Ry

     iteration # 19     ecut=    30.00 Ry     beta= 0.70
     Davidson diagonalization with overlap

     ethr =  4.77E-09,  avg # of iterations =  1.0

     End of self-consistent calculation

          k = 0.0000 0.0000 0.0000 (  9173 PWs)   bands (ev):

   -20.3826 -20.3538 -20.3053 -20.3053 -20.1426 -20.1317 -20.1190 -20.1190
    -9.0515  -6.0906  -5.9566  -5.9566  -5.9524  -5.9055  -5.8074  -5.6634
    -5.6488  -5.5708  -5.5708  -5.5491  -5.5490  -5.5303  -5.4462  -5.3342
    -5.2873  -5.2873  -5.2347  -5.2051  -5.2051  -5.1997  -5.1597  -5.1597
    -5.1529  -0.9229  -0.4878  -0.4877  -0.4587  -0.3862   2.7221   2.7221
     2.7287   5.6343   5.6344   5.9056   6.3359   6.3428   6.3428   6.4546
     6.4780   6.5591   6.5592   6.5707   6.8039   7.1448   7.1448   7.2105
     8.4042   8.4782   8.8295   9.0070   9.0070   9.1003   9.7507   9.9271

     occupation numbers
     1.0000   1.0000   1.0000   1.0000   1.0000   1.0000   1.0000   1.0000
     1.0000   1.0000   1.0000   1.0000   1.0000   1.0000   1.0000   1.0000
     1.0000   1.0000   1.0000   1.0000   1.0000   1.0000   1.0000   1.0000
     1.0000   1.0000   1.0000   1.0000   1.0000   1.0000   1.0000   1.0000
     1.0000   1.0000   1.0000   1.0000   1.0000   1.0000   1.0000   1.0000
     1.0000   1.0000   1.0000   1.0000   1.0000   1.0000   1.0000   1.0000
     1.0000   1.0000   1.0000   1.0000   1.0000   1.0000   1.0000   1.0000
     0.0000   0.0000   0.0000   0.0000   0.0000   0.0000   0.0000   0.0000

[...]

          k = 0.0000-0.3541 0.2038 (  9146 PWs)   bands (ev):

[...]

          k =-0.3333-0.1195 0.2038 (  9146 PWs)   bands (ev):

[...]

          k =-0.3333 0.2346 0.4076 (  9184 PWs)   bands (ev):

   -20.3691 -20.3582 -20.3100 -20.3095 -20.1430 -20.1406 -20.1151 -20.1142
    -9.0484  -6.0692  -5.9644  -5.9220  -5.8921  -5.8081  -5.7542  -5.7196
    -5.6655  -5.6438  -5.6002  -5.5600  -5.4670  -5.4530  -5.4338  -5.3808
    -5.3423  -5.2949  -5.2943  -5.2438  -5.2328  -5.2111  -5.1944  -5.1838
    -5.1636  -0.6357  -0.5779  -0.5311  -0.5156  -0.3976   2.7105   2.7372
     2.7444   5.6984   5.7855   5.9836   6.0502   6.3061   6.3472   6.3950
     6.4895   6.5377   6.6103   6.6538   6.7528   6.8669   6.9816   7.0680
     8.7232   8.7795   8.8784   8.9224   9.0304   9.2093   9.6818   9.9884

     occupation numbers
     1.0000   1.0000   1.0000   1.0000   1.0000   1.0000   1.0000   1.0000
     1.0000   1.0000   1.0000   1.0000   1.0000   1.0000   1.0000   1.0000
     1.0000   1.0000   1.0000   1.0000   1.0000   1.0000   1.0000   1.0000
     1.0000   1.0000   1.0000   1.0000   1.0000   1.0000   1.0000   1.0000
     1.0000   1.0000   1.0000   1.0000   1.0000   1.0000   1.0000   1.0000
     1.0000   1.0000   1.0000   1.0000   1.0000   1.0000   1.0000   1.0000
     1.0000   1.0000   1.0000   1.0000   1.0000   1.0000   1.0000   1.0000
     0.0000   0.0000   0.0000   0.0000   0.0000   0.0000   0.0000   0.0000

     highest occupied, lowest unoccupied level (ev):     7.2105    8.4042

!    total energy              =   -3607.74123604 Ry
     estimated scf accuracy    <       0.00000019 Ry

     The total energy is the sum of the following terms:
     one-electron contribution =     -22.56729119 Ry
     hartree contribution      =      61.37424521 Ry
     xc contribution           =    -210.27812995 Ry
     ewald contribution        =    -436.63339200 Ry
     one-center paw contrib.   =   -2999.63666811 Ry
      -> PAW hartree energy AE =      57.55235698 Ry
      -> PAW hartree energy PS =     -57.33768865 Ry
      -> PAW xc energy AE      =    -788.46751896 Ry
      -> PAW xc energy PS      =      38.34368560 Ry
      -> total E_H with PAW    =      61.58891354 Ry
      -> total E_XC with PAW   =    -960.40196331 Ry

     convergence has been achieved in  19 iterations

     Writing all to output data dir bands_nm/myprefix.save/

     General routines

     Parallel routines

     PAW routines

   This run was terminated on:  14:56: 6  16Jul2023

   JOB DONE.