     Program PWSCF v.7.1 starts on 15Jul2023 at 19: 2:42

     Reading input from espresso_21375.pwi
Warning: card &CELL ignored
Warning: card / ignored

     Current dimensions of program PWSCF are:
     Max number of different atomic species (ntypx) = 10
     Max number of k-points (npk) =  40000
     Max angular momentum in pseudopotentials (lmaxx) =  4
     Message from routine setup:
     using ibrav=0 with symmetry is DISCOURAGED, use correct ibrav instead

     K-points division:     npool     =       2
     R & G space division:  proc/nbgrp/npool/nimage =       4
     Subspace diagonalization in iterative solution of the eigenvalue problem:
     one sub-group per band group will be used

     Using Slab Decomposition

     bravais-lattice index     =            0
     lattice parameter (alat)  =      20.4476  a.u.
     unit-cell volume          =    3115.9301 (a.u.)^3
     number of atoms/cell      =           20
     number of atomic types    =            4
     number of electrons       =       156.00
     number of Kohn-Sham states=          256
     kinetic-energy cutoff     =      30.0000  Ry
     charge density cutoff     =     240.0000  Ry
     scf convergence threshold =      1.0E-06
     mixing beta               =       0.7000
     number of iterations used =            8  plain     mixing
     Exchange-correlation=  SLA  PW   PBX  PBC
                           (   1   4   3   4   0   0   0)

     celldm(1)=  20.447628  celldm(2)=   0.000000  celldm(3)=   0.000000
     celldm(4)=   0.000000  celldm(5)=   0.000000  celldm(6)=   0.000000

     crystal axes: (cart. coord. in units of alat)
               a(1) = (   1.000000   0.000000   0.000000 )
               a(2) = (   0.000000   0.544624   0.000000 )
               a(3) = (   0.000000   0.174641   0.669210 )

     reciprocal axes: (cart. coord. in units 2 pi/alat)
               b(1) = (  1.000000  0.000000  0.000000 )
               b(2) = (  0.000000  1.836130 -0.479167 )
               b(3) = (  0.000000  0.000000  1.494299 )

     PseudoPot. # 1 for V  read from file:
     /lustre07/scratch/pragov/crystal_structure_design/utils/SSSP/v_pbe_v1.4.uspp.F.UPF
     MD5 check sum: 22b79981416ebb76fdaf5b1b8640f6fb
     Pseudo is Ultrasoft + core correction, Zval = 13.0
     Generated by new atomic code, or converted to UPF format
     Using radial grid of  853 points,  6 beta functions with:
                l(1) =   0
                l(2) =   0
                l(3) =   1
                l(4) =   1
                l(5) =   2
                l(6) =   2
     Q(r) pseudized with  8 coefficients,  rinner =    1.100   1.100   1.100
                                                       1.100   1.100

     PseudoPot. # 2 for Ag read from file:
     /lustre07/scratch/pragov/crystal_structure_design/utils/SSSP/Ag_ONCV_PBE-1.0.oncvpsp.upf
     MD5 check sum: 94f47bd0669c641108e45594df92fabc
     Pseudo is Norm-conserving, Zval = 19.0
     Generated using ONCVPSP code by D. R. Hamann
     Using radial grid of 1398 points,  6 beta functions with:
                l(1) =   0
                l(2) =   0
                l(3) =   1
                l(4) =   1
                l(5) =   2
                l(6) =   2

     PseudoPot. # 3 for P  read from file:
     /lustre07/scratch/pragov/crystal_structure_design/utils/SSSP/P.pbe-n-rrkjus_psl.1.0.0.UPF
     MD5 check sum: 8b930f418f0a4573dca56cd030ffe088
     Pseudo is Ultrasoft + core correction, Zval =  5.0
     Generated using "atomic" code by A. Dal Corso  v.5.1
     Using radial grid of 1147 points,  6 beta functions with:
                l(1) =   0
                l(2) =   0
                l(3) =   1
                l(4) =   1
                l(5) =   2
                l(6) =   2
     Q(r) pseudized with 0 coefficients

     PseudoPot. # 4 for S  read from file:
     /lustre07/scratch/pragov/crystal_structure_design/utils/SSSP/s_pbe_v1.4.uspp.F.UPF
     MD5 check sum: 88d86576ff6df21479756cfb9bdac1df
     Pseudo is Ultrasoft + core correction, Zval =  6.0
     Generated by new atomic code, or converted to UPF format
     Using radial grid of  907 points,  6 beta functions with:
                l(1) =   0
                l(2) =   0
                l(3) =   1
                l(4) =   1
                l(5) =   2
                l(6) =   2
     Q(r) pseudized with  8 coefficients,  rinner =    1.300   1.300   1.300
                                                       1.300   1.300

     atomic species   valence    mass     pseudopotential
        V             13.00    50.94150     V ( 1.00)
        Ag            19.00   107.86820     Ag( 1.00)
        P              5.00    30.97376     P ( 1.00)
        S              6.00    32.06000     S ( 1.00)

      4 Sym. Ops., with inversion, found ( 2 have fractional translation)

                                    s                        frac. trans.

      isym =  1     identity

 cryst.   s( 1) = (     1          0          0      )
                  (     0          1          0      )
                  (     0          0          1      )

 cart.    s( 1) = (  1.0000000  0.0000000  0.0000000 )
                  (  0.0000000  1.0000000 -0.0000000 )
                  (  0.0000000  0.0000000  1.0000000 )

      isym =  2     180 deg rotation - cart. axis [1,0,0]

 cryst.   s( 2) = (     1          0          0      )    f =(  0.0000000 )
                  (     0         -1          0      )       (  0.5000000 )
                  (     0          0         -1      )       (  0.0000000 )

 cart.    s( 2) = (  1.0000000  0.0000000  0.0000000 )    f =(  0.0000000 )
                  (  0.0000000 -1.0000000  0.0000000 )       (  0.2723118 )
                  (  0.0000000  0.0000000 -1.0000000 )       (  0.0000000 )

      isym =  3     inversion

 cryst.   s( 3) = (    -1          0          0      )
                  (     0         -1          0      )
                  (     0          0         -1      )

 cart.    s( 3) = ( -1.0000000  0.0000000  0.0000000 )
                  (  0.0000000 -1.0000000  0.0000000 )
                  (  0.0000000  0.0000000 -1.0000000 )

      isym =  4     inv. 180 deg rotation - cart. axis [1,0,0]

 cryst.   s( 4) = (    -1          0          0      )    f =(  0.0000000 )
                  (     0          1          0      )       (  0.5000000 )
                  (     0          0          1      )       (  0.0000000 )

 cart.    s( 4) = ( -1.0000000  0.0000000  0.0000000 )    f =(  0.0000000 )
                  (  0.0000000  1.0000000 -0.0000000 )       (  0.2723118 )
                  (  0.0000000  0.0000000  1.0000000 )       (  0.0000000 )

   Cartesian axes

     site n.     atom                  positions (alat units)
         1           V   tau(   1) = (   0.9317530   0.4084677   0.0000000  )
         2           V   tau(   2) = (   0.0682470   0.1361559   0.0000000  )
         3           Ag  tau(   3) = (   0.4365230   0.1361559   0.0000000  )
         4           Ag  tau(   4) = (   0.5634770   0.4084677   0.0000000  )
         5           P   tau(   5) = (   0.2479700   0.4129289   0.1029044  )
         6           P   tau(   6) = (   0.7520300   0.1406171   0.1029044  )
         7           P   tau(   7) = (   0.7520300   0.3063354   0.5663055  )
         8           P   tau(   8) = (   0.2479700   0.5786473   0.5663055  )
         9           S   tau(   9) = (   0.9199910   0.0439037   0.1397029  )
        10           S   tau(  10) = (   0.6044600   0.3876324   0.4961523  )
        11           S   tau(  11) = (   0.2276960   0.0504545   0.1425685  )
        12           S   tau(  12) = (   0.2276960   0.3964980   0.5266415  )
        13           S   tau(  13) = (   0.3955400   0.6599443   0.4961523  )
        14           S   tau(  14) = (   0.7723040   0.3227663   0.1425685  )
        15           S   tau(  15) = (   0.7723040   0.6688099   0.5266415  )
        16           S   tau(  16) = (   0.9199910   0.4030488   0.5295070  )
        17           S   tau(  17) = (   0.0800090   0.6753606   0.5295070  )
        18           S   tau(  18) = (   0.0800090   0.3162156   0.1397029  )
        19           S   tau(  19) = (   0.3955400   0.3316320   0.1730577  )
        20           S   tau(  20) = (   0.6044600   0.0593201   0.1730577  )

   Crystallographic axes

     site n.     atom                  positions (cryst. coord.)
         1           V   tau(   1) = (  0.9317530  0.7500000  0.0000000  )
         2           V   tau(   2) = (  0.0682470  0.2500000  0.0000000  )
         3           Ag  tau(   3) = (  0.4365230  0.2500000  0.0000000  )
         4           Ag  tau(   4) = (  0.5634770  0.7500000  0.0000000  )
         5           P   tau(   5) = (  0.2479700  0.7088830  0.1537700  )
         6           P   tau(   6) = (  0.7520300  0.2088830  0.1537700  )
         7           P   tau(   7) = (  0.7520300  0.2911170  0.8462300  )
         8           P   tau(   8) = (  0.2479700  0.7911170  0.8462300  )
         9           S   tau(   9) = (  0.9199910  0.0136720  0.2087580  )
        10           S   tau(  10) = (  0.6044600  0.4740040  0.7414000  )
        11           S   tau(  11) = (  0.2276960  0.0243270  0.2130400  )
        12           S   tau(  12) = (  0.2276960  0.4756730  0.7869600  )
        13           S   tau(  13) = (  0.3955400  0.9740040  0.7414000  )
        14           S   tau(  14) = (  0.7723040  0.5243270  0.2130400  )
        15           S   tau(  15) = (  0.7723040  0.9756730  0.7869600  )
        16           S   tau(  16) = (  0.9199910  0.4863280  0.7912420  )
        17           S   tau(  17) = (  0.0800090  0.9863280  0.7912420  )
        18           S   tau(  18) = (  0.0800090  0.5136720  0.2087580  )
        19           S   tau(  19) = (  0.3955400  0.5259960  0.2586000  )
        20           S   tau(  20) = (  0.6044600  0.0259960  0.2586000  )

     number of k points=    10
                       cart. coord. in units 2pi/alat
        k(    1) = (   0.0000000   0.0000000   0.0000000), wk =   0.0740741
        k(    2) = (   0.0000000   0.0000000   0.4980998), wk =   0.1481481
        k(    3) = (   0.0000000   0.6120435  -0.1597223), wk =   0.1481481
        k(    4) = (   0.0000000   0.6120435   0.3383775), wk =   0.1481481
        k(    5) = (   0.0000000   0.6120435  -0.6578220), wk =   0.1481481
        k(    6) = (   0.3333333   0.0000000   0.0000000), wk =   0.1481481
        k(    7) = (   0.3333333   0.0000000   0.4980998), wk =   0.2962963
        k(    8) = (   0.3333333   0.6120435  -0.1597223), wk =   0.2962963
        k(    9) = (   0.3333333   0.6120435   0.3383775), wk =   0.2962963
        k(   10) = (   0.3333333   0.6120435  -0.6578220), wk =   0.2962963

                       cryst. coord.
        k(    1) = (   0.0000000   0.0000000   0.0000000), wk =   0.0740741
        k(    2) = (   0.0000000   0.0000000   0.3333333), wk =   0.1481481
        k(    3) = (   0.0000000   0.3333333  -0.0000000), wk =   0.1481481
        k(    4) = (   0.0000000   0.3333333   0.3333333), wk =   0.1481481
        k(    5) = (   0.0000000   0.3333333  -0.3333333), wk =   0.1481481
        k(    6) = (   0.3333333   0.0000000   0.0000000), wk =   0.1481481
        k(    7) = (   0.3333333   0.0000000   0.3333333), wk =   0.2962963
        k(    8) = (   0.3333333   0.3333333  -0.0000000), wk =   0.2962963
        k(    9) = (   0.3333333   0.3333333   0.3333333), wk =   0.2962963
        k(   10) = (   0.3333333   0.3333333  -0.3333333), wk =   0.2962963

     Check: negative core charge=   -0.000002

     Initial potential from superposition of free atoms

     starting charge     155.9959, renormalised to     156.0000

     negative rho (up, down):  1.950E-03 0.000E+00
     Starting wfcs are  104 randomized atomic wfcs +  152 random wfcs

     Self-consistent Calculation

     iteration #  1     ecut=    30.00 Ry     beta= 0.70
     Davidson diagonalization with overlap

     ethr =  1.00E-02,  avg # of iterations =  7.1

     Threshold (ethr) on eigenvalues was too large:
     Diagonalizing with lowered threshold

     Davidson diagonalization with overlap

[...]

     negative rho (up, down):  3.222E-03 0.000E+00

     total energy              =   -1209.97402986 Ry
     estimated scf accuracy    <       0.73721521 Ry

[...]

     total energy              =   -1210.19149047 Ry
     estimated scf accuracy    <       0.00000140 Ry

     iteration # 13     ecut=    30.00 Ry     beta= 0.70
     Davidson diagonalization with overlap

     ethr =  8.97E-10,  avg # of iterations =  2.0

     negative rho (up, down):  3.072E-03 0.000E+00

     End of self-consistent calculation

          k = 0.0000 0.0000 0.0000 (  8681 PWs)   bands (ev):

   -86.3178 -86.3169 -59.2900 -59.2854 -49.3855 -49.3725 -49.3568 -49.3556
   -49.3515 -49.3498 -33.2650 -33.2635 -33.0947 -33.0872 -32.9991 -32.9570
   -10.7142 -10.5383  -9.5446  -9.4261  -8.1434  -7.6789  -7.6711  -7.6616
    -7.4827  -7.4084  -7.3288  -7.2974  -4.7856  -4.2960  -2.8823  -2.7106
    -1.1118  -0.9102  -0.5758  -0.5694  -0.5012  -0.1834  -0.1262  -0.0422
     0.1733   0.7475   1.1901   1.4988   1.6900   1.8315   1.8434   1.8655
     1.9844   2.0221   2.0961   2.1707   2.2549   2.3058   2.3063   2.3599
     2.5618   2.6406   2.7604   2.7732   2.8673   2.9705   3.1231   3.1372
     3.2615   3.3942   3.3995   3.4729   3.5092   3.6335   4.1318   4.3736
     4.4287   4.5297   4.7680   4.8400   5.4068   5.5171   5.5395   5.9265
     6.1391   6.3442   7.1805   7.3484   7.6665   7.7690   7.7877   8.0644
     8.2828   8.3230   8.6469   8.9569   9.0193   9.0606   9.0883   9.2578
     9.3587   9.5213  10.1609  10.2296  10.5285  10.7497  11.1017  11.3950
    11.4964  11.5964  11.6244  11.8517  11.8599  12.2686  12.3527  12.5545
    12.7876  12.8514  13.0845  13.1354  13.6375  13.7416  13.7748  13.8144
    13.8884  14.0088  14.0497  14.3036  14.4397  14.6762  14.6961  14.7238
    14.8955  15.0209  15.1910  15.3468  15.3611  15.5969  15.7169  15.8207
    16.1793  16.3901  16.5856  16.6018  16.6664  16.6745  16.8775  16.9333
    17.1201  17.1495  17.2985  17.4790  17.6153  17.6429  18.1252  18.1526
    18.3709  18.4379  18.5187  18.5362  18.6040  18.6341  18.9026  19.2050
    19.2848  19.4157  19.5300  19.5757  19.6595  19.7329  20.2621  20.2700
    20.2924  20.4127  20.5564  20.6808  20.7118  20.7855  20.7912  20.8165
    21.0065  21.0702  21.1359  21.3075  21.4347  21.8234  21.8666  21.9252
    22.7857  22.9567  22.9839  22.9990  23.0890  23.2983  23.3471  23.3487
    23.4932  23.5216  23.8871  23.9352  24.2216  24.2516  24.3174  24.5470
    24.6310  24.6684  24.7500  24.8872  24.9811  25.0274  25.1644  25.1700
    25.2081  25.2879  25.6118  25.6187  25.6227  25.7993  25.8068  25.9107
    26.1228  26.1820  26.3116  26.5307  26.5829  26.6518  26.7260  26.8292
    26.9589  27.0517  27.0756  27.2125  27.3416  27.4155  27.5066  27.5322
    27.8324  27.8606  27.9116  28.0219  28.0643  28.2335  28.2688  28.4134
    28.4747  28.6472  28.7023  29.0291  29.0311  29.2015  29.3806  29.4453
    29.5355  29.6266  29.9121  29.9193  30.0676  30.3837  30.5050  30.5738

     occupation numbers
     1.0000   1.0000   1.0000   1.0000   1.0000   1.0000   1.0000   1.0000
     1.0000   1.0000   1.0000   1.0000   1.0000   1.0000   1.0000   1.0000
     1.0000   1.0000   1.0000   1.0000   1.0000   1.0000   1.0000   1.0000
     1.0000   1.0000   1.0000   1.0000   1.0000   1.0000   1.0000   1.0000
     1.0000   1.0000   1.0000   1.0000   1.0000   1.0000   1.0000   1.0000
     1.0000   1.0000   1.0000   1.0000   1.0000   1.0000   1.0000   1.0000
     1.0000   1.0000   1.0000   1.0000   1.0000   1.0000   1.0000   1.0000
     1.0000   1.0000   1.0000   1.0000   1.0000   1.0000   1.0000   1.0000
     1.0000   1.0000   1.0000   1.0000   1.0000   1.0000   1.0000   1.0000
     1.0000   1.0000   1.0000   1.0000   1.0000   1.0000   0.0000   0.0000
     0.0000   0.0000   0.0000   0.0000   0.0000   0.0000   0.0000   0.0000
     0.0000   0.0000   0.0000   0.0000   0.0000   0.0000   0.0000   0.0000
     0.0000   0.0000   0.0000   0.0000   0.0000   0.0000   0.0000   0.0000
     0.0000   0.0000   0.0000   0.0000   0.0000   0.0000   0.0000   0.0000
     0.0000   0.0000   0.0000   0.0000   0.0000   0.0000   0.0000   0.0000
     0.0000   0.0000   0.0000   0.0000   0.0000   0.0000   0.0000   0.0000
     0.0000   0.0000   0.0000   0.0000   0.0000   0.0000   0.0000   0.0000
     0.0000   0.0000   0.0000   0.0000   0.0000   0.0000   0.0000   0.0000
     0.0000   0.0000   0.0000   0.0000   0.0000   0.0000   0.0000   0.0000
     0.0000   0.0000   0.0000   0.0000   0.0000   0.0000   0.0000   0.0000
     0.0000   0.0000   0.0000   0.0000   0.0000   0.0000   0.0000   0.0000
     0.0000   0.0000   0.0000   0.0000   0.0000   0.0000   0.0000   0.0000
     0.0000   0.0000   0.0000   0.0000   0.0000   0.0000   0.0000   0.0000
     0.0000   0.0000   0.0000   0.0000   0.0000   0.0000   0.0000   0.0000
     0.0000   0.0000   0.0000   0.0000   0.0000   0.0000   0.0000   0.0000
     0.0000   0.0000   0.0000   0.0000   0.0000   0.0000   0.0000   0.0000
     0.0000   0.0000   0.0000   0.0000   0.0000   0.0000   0.0000   0.0000
     0.0000   0.0000   0.0000   0.0000   0.0000   0.0000   0.0000   0.0000
     0.0000   0.0000   0.0000   0.0000   0.0000   0.0000   0.0000   0.0000
     0.0000   0.0000   0.0000   0.0000   0.0000   0.0000   0.0000   0.0000
     0.0000   0.0000   0.0000   0.0000   0.0000   0.0000   0.0000   0.0000
     0.0000   0.0000   0.0000   0.0000   0.0000   0.0000   0.0000   0.0000

[...]

          k = 0.3333 0.6120-0.6578 (  8639 PWs)   bands (ev):

   -86.3176 -86.3171 -59.2887 -59.2865 -49.3806 -49.3742 -49.3563 -49.3552
   -49.3495 -49.3487 -33.2638 -33.2630 -33.0938 -33.0904 -32.9868 -32.9659
   -10.5677 -10.4986  -9.4644  -9.4188  -8.1251  -8.0322  -7.7777  -7.7402
    -7.5263  -7.5073  -7.4314  -7.4221  -4.3403  -4.1614  -2.7840  -2.6964
    -0.8410  -0.7338  -0.5776  -0.4714  -0.2916  -0.1349   0.1483   0.1563
     0.4890   0.5945   1.4592   1.5104   1.5880   1.6110   1.8152   1.8840
     1.8991   1.9589   1.9905   2.0396   2.2133   2.2480   2.2972   2.3587
     2.4217   2.5140   2.5709   2.6712   2.7106   2.8184   2.8732   2.9211
     3.0969   3.1249   3.4403   3.5805   3.7020   3.7881   4.1091   4.3125
     4.4685   4.6259   4.7219   4.7340   5.1936   5.2646   5.6704   5.9367
     6.3615   6.4601   7.1870   7.3133   7.4743   7.5867   7.8042   8.2539
     8.3799   8.5275   8.6920   8.8221   8.9401   9.0787   9.1172   9.1769
     9.3347   9.4767  10.0232  10.2072  10.4204  10.6033  11.2195  11.5121
    11.7238  11.8125  11.8752  12.0558  12.1054  12.3220  12.4131  12.5006
    12.7045  12.8454  13.0634  13.1966  13.3565  13.4461  13.6358  13.7480
    13.8459  14.0413  14.2573  14.2948  14.4013  14.5429  14.6648  14.6934
    14.8636  14.9269  15.0048  15.3081  15.3828  15.5768  15.8903  15.9666
    16.0809  16.1682  16.3309  16.3479  16.5390  16.6529  16.8779  16.9158
    17.2003  17.2402  17.4277  17.5231  17.6892  17.9066  18.1780  18.2320
    18.3203  18.5003  18.7198  18.7956  18.9380  19.0435  19.2776  19.3429
    19.3510  19.5933  19.6833  19.7816  19.7958  20.0770  20.1005  20.2485
    20.3386  20.4346  20.5301  20.6424  20.8274  21.0625  21.1009  21.2426
    21.5369  21.5777  21.6350  21.7592  21.7943  21.9382  22.1481  22.3128
    22.4064  22.4903  22.5671  22.6382  22.7802  22.9423  23.0673  23.2926
    23.3463  23.4786  23.6241  23.7494  23.8425  23.9332  23.9793  24.0948
    24.1648  24.3061  24.3742  24.5003  24.5685  24.7236  24.8849  25.0039
    25.1231  25.2069  25.4395  25.4926  25.6632  25.8057  25.9044  26.0133
    26.1135  26.2514  26.3528  26.4665  26.6139  26.7153  26.7475  26.8278
    26.9004  27.0185  27.0923  27.1661  27.2809  27.3524  27.4799  27.6245
    27.7545  27.8307  28.0242  28.0873  28.1437  28.3215  28.4860  28.5343
    28.6607  28.8095  28.8463  29.0001  29.0646  29.1533  29.2926  29.5025
    29.5070  29.7928  29.9107  29.9589  29.9876  30.1495  30.2499  30.3618

     occupation numbers
     1.0000   1.0000   1.0000   1.0000   1.0000   1.0000   1.0000   1.0000
     1.0000   1.0000   1.0000   1.0000   1.0000   1.0000   1.0000   1.0000
     1.0000   1.0000   1.0000   1.0000   1.0000   1.0000   1.0000   1.0000
     1.0000   1.0000   1.0000   1.0000   1.0000   1.0000   1.0000   1.0000
     1.0000   1.0000   1.0000   1.0000   1.0000   1.0000   1.0000   1.0000
     1.0000   1.0000   1.0000   1.0000   1.0000   1.0000   1.0000   1.0000
     1.0000   1.0000   1.0000   1.0000   1.0000   1.0000   1.0000   1.0000
     1.0000   1.0000   1.0000   1.0000   1.0000   1.0000   1.0000   1.0000
     1.0000   1.0000   1.0000   1.0000   1.0000   1.0000   1.0000   1.0000
     1.0000   1.0000   1.0000   1.0000   1.0000   1.0000   0.0000   0.0000
     0.0000   0.0000   0.0000   0.0000   0.0000   0.0000   0.0000   0.0000
     0.0000   0.0000   0.0000   0.0000   0.0000   0.0000   0.0000   0.0000
     0.0000   0.0000   0.0000   0.0000   0.0000   0.0000   0.0000   0.0000
     0.0000   0.0000   0.0000   0.0000   0.0000   0.0000   0.0000   0.0000
     0.0000   0.0000   0.0000   0.0000   0.0000   0.0000   0.0000   0.0000
     0.0000   0.0000   0.0000   0.0000   0.0000   0.0000   0.0000   0.0000
     0.0000   0.0000   0.0000   0.0000   0.0000   0.0000   0.0000   0.0000
     0.0000   0.0000   0.0000   0.0000   0.0000   0.0000   0.0000   0.0000
     0.0000   0.0000   0.0000   0.0000   0.0000   0.0000   0.0000   0.0000
     0.0000   0.0000   0.0000   0.0000   0.0000   0.0000   0.0000   0.0000
     0.0000   0.0000   0.0000   0.0000   0.0000   0.0000   0.0000   0.0000
     0.0000   0.0000   0.0000   0.0000   0.0000   0.0000   0.0000   0.0000
     0.0000   0.0000   0.0000   0.0000   0.0000   0.0000   0.0000   0.0000
     0.0000   0.0000   0.0000   0.0000   0.0000   0.0000   0.0000   0.0000
     0.0000   0.0000   0.0000   0.0000   0.0000   0.0000   0.0000   0.0000
     0.0000   0.0000   0.0000   0.0000   0.0000   0.0000   0.0000   0.0000
     0.0000   0.0000   0.0000   0.0000   0.0000   0.0000   0.0000   0.0000
     0.0000   0.0000   0.0000   0.0000   0.0000   0.0000   0.0000   0.0000
     0.0000   0.0000   0.0000   0.0000   0.0000   0.0000   0.0000   0.0000
     0.0000   0.0000   0.0000   0.0000   0.0000   0.0000   0.0000   0.0000
     0.0000   0.0000   0.0000   0.0000   0.0000   0.0000   0.0000   0.0000
     0.0000   0.0000   0.0000   0.0000   0.0000   0.0000   0.0000   0.0000

     highest occupied, lowest unoccupied level (ev):     5.5171    5.5395

!    total energy              =   -1210.19148990 Ry
     estimated scf accuracy    <       0.00000093 Ry

     The total energy is the sum of the following terms:
     one-electron contribution =    -948.20675325 Ry
     hartree contribution      =     519.78598843 Ry
     xc contribution           =    -212.18026059 Ry
     ewald contribution        =    -569.59046449 Ry

     convergence has been achieved in  13 iterations

     Writing all to output data dir bands_nm/myprefix.save/

     General routines

     Parallel routines

   This run was terminated on:  19: 4:24  15Jul2023

   JOB DONE.