     Program PWSCF v.7.1 starts on 15Jul2023 at 18:42:26

     Reading input from espresso_11486.pwi
Warning: card &CELL ignored
Warning: card / ignored

     Current dimensions of program PWSCF are:
     Max number of different atomic species (ntypx) = 10
     Max number of k-points (npk) =  40000
     Max angular momentum in pseudopotentials (lmaxx) =  4
     Message from routine setup:
     using ibrav=0 with symmetry is DISCOURAGED, use correct ibrav instead

     K-points division:     npool     =       2
     R & G space division:  proc/nbgrp/npool/nimage =       4
     Subspace diagonalization in iterative solution of the eigenvalue problem:
     one sub-group per band group will be used

     Using Slab Decomposition

     bravais-lattice index     =            0
     lattice parameter (alat)  =       7.6504  a.u.
     unit-cell volume          =    1830.5001 (a.u.)^3
     number of atoms/cell      =           12
     number of atomic types    =            3
     number of electrons       =       138.00
     number of Kohn-Sham states=          256
     kinetic-energy cutoff     =      30.0000  Ry
     charge density cutoff     =     240.0000  Ry
     scf convergence threshold =      1.0E-06
     mixing beta               =       0.7000
     number of iterations used =            8  plain     mixing
     Exchange-correlation=  SLA  PW   PBX  PBC
                           (   1   4   3   4   0   0   0)

     celldm(1)=   7.650445  celldm(2)=   0.000000  celldm(3)=   0.000000
     celldm(4)=   0.000000  celldm(5)=   0.000000  celldm(6)=   0.000000

     crystal axes: (cart. coord. in units of alat)
               a(1) = (   1.000000   0.000000   0.000000 )
               a(2) = (  -0.500000   0.866025   0.000000 )
               a(3) = (   0.000000   0.000000   4.720404 )

     reciprocal axes: (cart. coord. in units 2 pi/alat)
               b(1) = (  1.000000  0.577351  0.000000 )
               b(2) = (  0.000000  1.154701  0.000000 )
               b(3) = (  0.000000  0.000000  0.211846 )

     PseudoPot. # 1 for Ag read from file:
     /lustre07/scratch/pragov/crystal_structure_design/utils/SSSP/Ag_ONCV_PBE-1.0.oncvpsp.upf
     MD5 check sum: 94f47bd0669c641108e45594df92fabc
     Pseudo is Norm-conserving, Zval = 19.0
     Generated using ONCVPSP code by D. R. Hamann
     Using radial grid of 1398 points,  6 beta functions with:
                l(1) =   0
                l(2) =   0
                l(3) =   1
                l(4) =   1
                l(5) =   2
                l(6) =   2

     PseudoPot. # 2 for Bi read from file:
     /lustre07/scratch/pragov/crystal_structure_design/utils/SSSP/Bi_pbe_v1.uspp.F.UPF
     MD5 check sum: cceb9f28ec65b6d7ff33140f5b0b1758
     Pseudo is Ultrasoft + core correction, Zval = 15.0
     Generated by new atomic code, or converted to UPF format
     Using radial grid of  899 points,  6 beta functions with:
                l(1) =   0
                l(2) =   0
                l(3) =   1
                l(4) =   1
                l(5) =   2
                l(6) =   2
     Q(r) pseudized with  6 coefficients,  rinner =    1.000   1.000   1.000
                                                       1.000   1.000

     PseudoPot. # 3 for S  read from file:
     /lustre07/scratch/pragov/crystal_structure_design/utils/SSSP/s_pbe_v1.4.uspp.F.UPF
     MD5 check sum: 88d86576ff6df21479756cfb9bdac1df
     Pseudo is Ultrasoft + core correction, Zval =  6.0
     Generated by new atomic code, or converted to UPF format
     Using radial grid of  907 points,  6 beta functions with:
                l(1) =   0
                l(2) =   0
                l(3) =   1
                l(4) =   1
                l(5) =   2
                l(6) =   2
     Q(r) pseudized with  8 coefficients,  rinner =    1.300   1.300   1.300
                                                       1.300   1.300

     atomic species   valence    mass     pseudopotential
        Ag            19.00   107.86820     Ag( 1.00)
        Bi            15.00   208.98040     Bi( 1.00)
        S              6.00    32.06000     S ( 1.00)

     12 Sym. Ops., with inversion, found

                                    s                        frac. trans.

      isym =  1     identity

 cryst.   s( 1) = (     1          0          0      )
                  (     0          1          0      )
                  (     0          0          1      )

 cart.    s( 1) = (  1.0000000  0.0000000  0.0000000 )
                  (  0.0000000  1.0000000  0.0000000 )
                  (  0.0000000  0.0000000  1.0000000 )

      isym =  2     180 deg rotation - cart. axis [1,0,0]

[...]

      isym =  3     120 deg rotation - cryst. axis [0,0,1]

[...]

      isym =  6     180 deg rotation - cryst. axis [1,1,0]

[...]

      isym =  7     inversion

[...]

      isym =  8     inv. 180 deg rotation - cart. axis [1,0,0]

[...]

      isym =  9     inv. 120 deg rotation - cryst. axis [0,0,1]

 cryst.   s( 9) = (     0         -1          0      )
                  (     1          1          0      )
                  (     0          0         -1      )

 cart.    s( 9) = (  0.5000002  0.8660255  0.0000000 )
                  ( -0.8660253  0.4999998  0.0000000 )
                  (  0.0000000  0.0000000 -1.0000000 )

[...]

 cryst.   s(10) = (     1          1          0      )
                  (    -1          0          0      )
                  (     0          0         -1      )

 cart.    s(10) = (  0.4999998 -0.8660255  0.0000000 )
                  (  0.8660253  0.5000002  0.0000000 )
                  (  0.0000000  0.0000000 -1.0000000 )

[...]

      isym = 12     inv. 180 deg rotation - cryst. axis [1,1,0]

 cryst.   s(12) = (     0         -1          0      )
                  (    -1          0          0      )
                  (     0          0          1      )

 cart.    s(12) = (  0.5000002 -0.8660253  0.0000000 )
                  ( -0.8660253 -0.5000002  0.0000000 )
                  (  0.0000000  0.0000000  1.0000000 )

   Cartesian axes

     site n.     atom                  positions (alat units)
         1           Ag  tau(   1) = (  -0.0000007   0.5773505   3.1565483  )
         2           Ag  tau(   2) = (   0.5000004   0.2886748   1.5638557  )
         3           Ag  tau(   3) = (   0.0000000   0.0000000   0.0000000  )
         4           Bi  tau(   4) = (   0.5000004   0.2886748   3.9412022  )
         5           Bi  tau(   5) = (  -0.0000007   0.5773505   0.7792018  )
         6           Bi  tau(   6) = (   0.0000000   0.0000000   2.3602020  )
         7           S   tau(   7) = (   0.5000004   0.2886748   2.7683045  )
         8           S   tau(   8) = (   0.0000000   0.0000000   3.5366164  )
         9           S   tau(   9) = (  -0.0000007   0.5773505   4.3461468  )
        10           S   tau(  10) = (   0.0000000   0.0000000   1.1837876  )
        11           S   tau(  11) = (   0.5000004   0.2886748   0.3742572  )
        12           S   tau(  12) = (  -0.0000007   0.5773505   1.9520995  )

   Crystallographic axes

     site n.     atom                  positions (cryst. coord.)
         1           Ag  tau(   1) = (  0.3333330  0.6666670  0.6687030  )
         2           Ag  tau(   2) = (  0.6666670  0.3333330  0.3312970  )
         3           Ag  tau(   3) = (  0.0000000  0.0000000  0.0000000  )
         4           Bi  tau(   4) = (  0.6666670  0.3333330  0.8349290  )
         5           Bi  tau(   5) = (  0.3333330  0.6666670  0.1650710  )
         6           Bi  tau(   6) = (  0.0000000  0.0000000  0.5000000  )
         7           S   tau(   7) = (  0.6666670  0.3333330  0.5864550  )
         8           S   tau(   8) = (  0.0000000  0.0000000  0.7492190  )
         9           S   tau(   9) = (  0.3333330  0.6666670  0.9207150  )
        10           S   tau(  10) = (  0.0000000  0.0000000  0.2507810  )
        11           S   tau(  11) = (  0.6666670  0.3333330  0.0792850  )
        12           S   tau(  12) = (  0.3333330  0.6666670  0.4135450  )

     number of k points=     7
                       cart. coord. in units 2pi/alat
        k(    1) = (   0.0000000   0.0000000   0.0000000), wk =   0.0740741
        k(    2) = (   0.0000000   0.0000000   0.0706154), wk =   0.1481481
        k(    3) = (   0.0000000   0.3849002   0.0000000), wk =   0.4444444
        k(    4) = (   0.0000000   0.3849002   0.0706154), wk =   0.4444444
        k(    5) = (   0.3333333   0.5773505   0.0000000), wk =   0.1481481
        k(    6) = (   0.3333333   0.5773505   0.0706154), wk =   0.2962963
        k(    7) = (   0.0000000   0.3849002  -0.0706154), wk =   0.4444444

                       cryst. coord.
        k(    1) = (   0.0000000   0.0000000   0.0000000), wk =   0.0740741
        k(    2) = (   0.0000000   0.0000000   0.3333333), wk =   0.1481481
        k(    3) = (   0.0000000   0.3333333   0.0000000), wk =   0.4444444
        k(    4) = (   0.0000000   0.3333333   0.3333333), wk =   0.4444444
        k(    5) = (   0.3333333   0.3333333   0.0000000), wk =   0.1481481
        k(    6) = (   0.3333333   0.3333333   0.3333333), wk =   0.2962963
        k(    7) = (   0.0000000   0.3333333  -0.3333333), wk =   0.4444444

     Check: negative core charge=   -0.000004

     Initial potential from superposition of free atoms

     starting charge     134.9988, renormalised to     138.0000

     negative rho (up, down):  1.283E-01 0.000E+00
     Starting wfcs are   81 randomized atomic wfcs +  175 random wfcs

     Self-consistent Calculation

     iteration #  1     ecut=    30.00 Ry     beta= 0.70
     Davidson diagonalization with overlap

     ethr =  1.00E-02,  avg # of iterations =  9.3

     negative rho (up, down):  1.249E-01 0.000E+00

     total energy              =   -1559.41535774 Ry
     estimated scf accuracy    <       3.82523568 Ry

[...]

     c_bands:  1 eigenvalues not converged
     ethr =  8.23E-06,  avg # of iterations =  9.9

[...]

     total energy              =   -1561.86204219 Ry
     estimated scf accuracy    <       0.00000376 Ry

     iteration # 12     ecut=    30.00 Ry     beta= 0.70
     Davidson diagonalization with overlap

     ethr =  2.72E-09,  avg # of iterations =  1.0

     negative rho (up, down):  1.243E-01 0.000E+00

     End of self-consistent calculation

          k = 0.0000 0.0000 0.0000 (  5115 PWs)   bands (ev):

   -82.2877 -82.2356 -82.2356 -45.3372 -45.3245 -45.3245 -45.2850 -45.2821
   -45.2719 -45.2719 -45.2706 -45.2706 -13.4247 -13.4246 -13.3943 -13.3943
   -13.3943 -13.3942 -13.3928 -13.3869 -13.3869 -13.3869 -13.3869 -13.3625
   -13.3625 -13.3580 -13.3580  -4.4903  -4.3752  -4.3055  -2.9138  -2.8466
    -2.5506   0.5023   0.8910   0.8918   5.5504   5.5728   5.5728   5.6119
     5.6838   5.6838   5.7084   5.7084   6.0556   6.4844   6.4844   6.5382
     6.5382   6.5641   6.5641   7.2018   7.2039   7.4779   7.6932   7.6932
     7.9448   7.9448   7.9623   7.9629   7.9629   8.6780   8.6780   8.6951
     8.6951   8.7549   8.7558   9.0893   9.0893  10.3840  10.4149  10.5751
    11.7363  11.7363  12.2078  12.2078  12.2130  12.2131  13.7882  14.3704
    14.4580  15.6449  15.7356  16.6421  16.6421  16.7192  16.7192  17.2247
    17.2248  17.3805  17.5150  17.6334  17.6406  18.1399  18.1400  18.1459
    18.1459  18.4688  18.4737  18.6219  18.6219  19.5683  19.8153  19.8153
    19.8369  19.8369  20.1401  20.1401  20.4996  21.3324  21.3324  22.2236
    22.2465  22.7806  22.7806  22.7848  22.7848  23.1846  23.6411  24.6776
    24.6777  24.7425  24.7927  25.6885  25.7466  26.4102  26.4102  26.4694
    26.4694  26.6949  26.6949  26.7423  26.7423  26.8744  27.0446  28.6739
    28.6739  29.7341  29.8400  30.0660  30.3290  30.3290  30.3703  30.3703
    31.8678  32.0619  32.2583  32.2583  32.5278  32.5278  32.6387  32.7146
    32.8145  32.8145  32.8400  32.8400  33.0372  33.0372  33.0664  33.0935
    33.1296  33.1296  33.1326  33.1327  33.1556  33.6240  33.7518  33.7518
    33.7936  33.7936  34.2013  34.2479  34.2479  34.2622  35.3951  35.4032
    35.4286  35.5017  35.5179  35.5179  35.5582  35.5582  35.7036  35.8146
    35.8465  35.8465  36.9539  37.0579  37.0579  37.7926  37.7926  38.2264
    38.2264  38.2704  38.2765  38.2765  38.4013  38.6555  38.6696  39.0994
    39.4022  39.4022  39.5697  39.5697  39.5930  39.5931  39.9482  40.7055
    41.1964  41.1964  41.2131  41.2131  42.1379  42.1574  42.4681  42.5236
    42.5586  42.8632  43.0258  43.0310  43.0310  43.0374  43.0374  43.0958
    43.2613  43.2614  43.5717  43.5717  43.5800  43.5800  44.1642  44.2654
    44.3120  44.3120  44.8850  44.9568  45.6662  45.6662  45.7740  45.7741
    45.8809  45.8809  45.9024  46.7986  46.7986  46.8290  46.8909  46.8909
    47.0841  47.1057  47.1706  47.1706  47.7676  47.7678  47.7841  47.7842

     occupation numbers
     1.0000   1.0000   1.0000   1.0000   1.0000   1.0000   1.0000   1.0000
     1.0000   1.0000   1.0000   1.0000   1.0000   1.0000   1.0000   1.0000
     1.0000   1.0000   1.0000   1.0000   1.0000   1.0000   1.0000   1.0000
     1.0000   1.0000   1.0000   1.0000   1.0000   1.0000   1.0000   1.0000
     1.0000   1.0000   1.0000   1.0000   1.0000   1.0000   1.0000   1.0000
     1.0000   1.0000   1.0000   1.0000   1.0000   1.0000   1.0000   1.0000
     1.0000   1.0000   1.0000   1.0000   1.0000   1.0000   1.0000   1.0000
     1.0000   1.0000   1.0000   1.0000   1.0000   1.0000   1.0000   1.0000
     1.0000   1.0000   1.0000   1.0000   1.0000   0.0000   0.0000   0.0000
     0.0000   0.0000   0.0000   0.0000   0.0000   0.0000   0.0000   0.0000
     0.0000   0.0000   0.0000   0.0000   0.0000   0.0000   0.0000   0.0000
     0.0000   0.0000   0.0000   0.0000   0.0000   0.0000   0.0000   0.0000
     0.0000   0.0000   0.0000   0.0000   0.0000   0.0000   0.0000   0.0000
     0.0000   0.0000   0.0000   0.0000   0.0000   0.0000   0.0000   0.0000
     0.0000   0.0000   0.0000   0.0000   0.0000   0.0000   0.0000   0.0000
     0.0000   0.0000   0.0000   0.0000   0.0000   0.0000   0.0000   0.0000
     0.0000   0.0000   0.0000   0.0000   0.0000   0.0000   0.0000   0.0000
     0.0000   0.0000   0.0000   0.0000   0.0000   0.0000   0.0000   0.0000
     0.0000   0.0000   0.0000   0.0000   0.0000   0.0000   0.0000   0.0000
     0.0000   0.0000   0.0000   0.0000   0.0000   0.0000   0.0000   0.0000
     0.0000   0.0000   0.0000   0.0000   0.0000   0.0000   0.0000   0.0000
     0.0000   0.0000   0.0000   0.0000   0.0000   0.0000   0.0000   0.0000
     0.0000   0.0000   0.0000   0.0000   0.0000   0.0000   0.0000   0.0000
     0.0000   0.0000   0.0000   0.0000   0.0000   0.0000   0.0000   0.0000
     0.0000   0.0000   0.0000   0.0000   0.0000   0.0000   0.0000   0.0000
     0.0000   0.0000   0.0000   0.0000   0.0000   0.0000   0.0000   0.0000
     0.0000   0.0000   0.0000   0.0000   0.0000   0.0000   0.0000   0.0000
     0.0000   0.0000   0.0000   0.0000   0.0000   0.0000   0.0000   0.0000
     0.0000   0.0000   0.0000   0.0000   0.0000   0.0000   0.0000   0.0000
     0.0000   0.0000   0.0000   0.0000   0.0000   0.0000   0.0000   0.0000
     0.0000   0.0000   0.0000   0.0000   0.0000   0.0000   0.0000   0.0000
     0.0000   0.0000   0.0000   0.0000   0.0000   0.0000   0.0000   0.0000

[...]

          k = 0.0000 0.3849-0.0706 (  5049 PWs)   bands (ev):

   -82.2876 -82.2355 -82.2355 -45.3374 -45.3207 -45.3191 -45.2840 -45.2834
   -45.2677 -45.2671 -45.2661 -45.2656 -13.4184 -13.4183 -13.4118 -13.4118
   -13.3979 -13.3979 -13.3865 -13.3861 -13.3861 -13.3799 -13.3661 -13.3612
   -13.3612 -13.3568 -13.3325  -3.5218  -3.4573  -3.3650  -2.5317  -2.4379
    -2.3399  -0.1840  -0.1580  -0.1070   4.6381   4.7146   4.9082   5.2239
     5.4295   5.4920   5.6426   5.7539   5.9243   6.0001   6.2249   6.2571
     6.2937   6.5040   6.5947   6.6260   6.6824   6.6999   6.8884   6.9089
     6.9225   7.0089   7.0820   7.6509   7.6714   8.0072   8.0109   8.0446
     8.3119   8.7939   8.9600   8.9892   9.0550  10.8903  11.2440  11.5249
    12.4444  12.6216  12.7212  12.7288  12.9873  13.1292  14.5094  14.5950
    14.6403  14.8923  15.0113  15.0713  16.5305  16.7650  17.0058  17.3894
    17.4969  17.5943  17.8467  17.9150  18.2907  18.8558  18.9230  19.0262
    19.3846  19.8782  19.9253  20.1961  20.7265  20.7784  21.3250  21.4665
    22.0169  22.0718  22.1209  22.7090  22.7876  23.1337  23.2784  23.3256
    23.3663  23.4312  23.5335  24.3138  24.5760  24.7078  24.7626  25.1196
    25.2745  25.3578  25.4814  25.6005  25.6634  25.6742  25.8012  25.8295
    25.9445  26.0193  26.1251  26.7250  26.7869  27.0707  27.1008  27.1508
    27.6415  27.6931  28.0914  28.3535  28.5812  28.7381  28.8769  28.9757
    29.0423  30.0492  30.0914  30.2338  30.5268  30.7391  30.8349  31.2443
    31.6513  31.8570  31.9052  32.0433  32.2587  32.3915  32.4287  32.6219
    32.7987  32.8900  32.9282  33.0631  33.2369  33.4321  33.5950  33.6413
    33.7409  33.8735  34.0805  34.5716  34.5948  34.6904  34.6979  34.9468
    35.0593  35.3168  35.4303  35.4449  35.4640  35.4670  35.6374  35.6917
    35.7913  36.0595  36.3170  36.5211  36.7583  36.9158  36.9827  37.0478
    37.3924  37.6929  37.8070  37.9158  38.0695  38.1601  38.2225  38.6476
    38.9525  38.9577  39.2501  39.4866  39.5686  39.7788  39.8525  40.2702
    40.3777  40.3827  40.4696  40.5762  41.1516  41.2911  41.3277  41.7995
    42.0000  42.1279  42.1561  42.2155  42.3262  42.5023  42.7106  42.8584
    43.0349  43.1143  43.1552  43.3353  43.5010  43.6685  43.7091  43.8133
    43.8882  44.0601  44.0888  44.2300  44.3776  44.4972  44.5345  44.6651
    44.8221  44.9158  45.2782  45.3756  45.4813  45.6290  45.8690  46.2753
    46.4294  46.4566  46.5120  46.5620  46.6469  46.7128  46.8175  46.8921

     occupation numbers
     1.0000   1.0000   1.0000   1.0000   1.0000   1.0000   1.0000   1.0000
     1.0000   1.0000   1.0000   1.0000   1.0000   1.0000   1.0000   1.0000
     1.0000   1.0000   1.0000   1.0000   1.0000   1.0000   1.0000   1.0000
     1.0000   1.0000   1.0000   1.0000   1.0000   1.0000   1.0000   1.0000
     1.0000   1.0000   1.0000   1.0000   1.0000   1.0000   1.0000   1.0000
     1.0000   1.0000   1.0000   1.0000   1.0000   1.0000   1.0000   1.0000
     1.0000   1.0000   1.0000   1.0000   1.0000   1.0000   1.0000   1.0000
     1.0000   1.0000   1.0000   1.0000   1.0000   1.0000   1.0000   1.0000
     1.0000   1.0000   1.0000   1.0000   1.0000   0.0000   0.0000   0.0000
     0.0000   0.0000   0.0000   0.0000   0.0000   0.0000   0.0000   0.0000
     0.0000   0.0000   0.0000   0.0000   0.0000   0.0000   0.0000   0.0000
     0.0000   0.0000   0.0000   0.0000   0.0000   0.0000   0.0000   0.0000
     0.0000   0.0000   0.0000   0.0000   0.0000   0.0000   0.0000   0.0000
     0.0000   0.0000   0.0000   0.0000   0.0000   0.0000   0.0000   0.0000
     0.0000   0.0000   0.0000   0.0000   0.0000   0.0000   0.0000   0.0000
     0.0000   0.0000   0.0000   0.0000   0.0000   0.0000   0.0000   0.0000
     0.0000   0.0000   0.0000   0.0000   0.0000   0.0000   0.0000   0.0000
     0.0000   0.0000   0.0000   0.0000   0.0000   0.0000   0.0000   0.0000
     0.0000   0.0000   0.0000   0.0000   0.0000   0.0000   0.0000   0.0000
     0.0000   0.0000   0.0000   0.0000   0.0000   0.0000   0.0000   0.0000
     0.0000   0.0000   0.0000   0.0000   0.0000   0.0000   0.0000   0.0000
     0.0000   0.0000   0.0000   0.0000   0.0000   0.0000   0.0000   0.0000
     0.0000   0.0000   0.0000   0.0000   0.0000   0.0000   0.0000   0.0000
     0.0000   0.0000   0.0000   0.0000   0.0000   0.0000   0.0000   0.0000
     0.0000   0.0000   0.0000   0.0000   0.0000   0.0000   0.0000   0.0000
     0.0000   0.0000   0.0000   0.0000   0.0000   0.0000   0.0000   0.0000
     0.0000   0.0000   0.0000   0.0000   0.0000   0.0000   0.0000   0.0000
     0.0000   0.0000   0.0000   0.0000   0.0000   0.0000   0.0000   0.0000
     0.0000   0.0000   0.0000   0.0000   0.0000   0.0000   0.0000   0.0000
     0.0000   0.0000   0.0000   0.0000   0.0000   0.0000   0.0000   0.0000
     0.0000   0.0000   0.0000   0.0000   0.0000   0.0000   0.0000   0.0000
     0.0000   0.0000   0.0000   0.0000   0.0000   0.0000   0.0000   0.0000

     highest occupied, lowest unoccupied level (ev):     9.4420   10.3363

!    total energy              =   -1561.86204194 Ry
     estimated scf accuracy    <       0.00000056 Ry

     The total energy is the sum of the following terms:
     one-electron contribution =    -670.14938599 Ry
     hartree contribution      =     397.89718917 Ry
     xc contribution           =    -325.65094432 Ry
     ewald contribution        =    -963.95890080 Ry

     convergence has been achieved in  12 iterations

     Writing all to output data dir bands_nm/myprefix.save/

     General routines

     Parallel routines

   This run was terminated on:  18:43:41  15Jul2023

   JOB DONE.