     Program PWSCF v.7.1 starts on 17Jul2023 at  0:55:19

     Reading input from espresso_1996.pwi
Warning: card &CELL ignored
Warning: card / ignored

     Current dimensions of program PWSCF are:
     Max number of different atomic species (ntypx) = 10
     Max number of k-points (npk) =  40000
     Max angular momentum in pseudopotentials (lmaxx) =  4
     file Mg.pbe-n-kjpaw_psl.0.3.0.UPF: wavefunction(s)  3S renormalized
     file O.pbe-n-kjpaw_psl.0.1.UPF: wavefunction(s)  2P renormalized
     Message from routine setup:
     using ibrav=0 with symmetry is DISCOURAGED, use correct ibrav instead

     K-points division:     npool     =       2
     R & G space division:  proc/nbgrp/npool/nimage =       4
     Subspace diagonalization in iterative solution of the eigenvalue problem:
     one sub-group per band group will be used

     Using Slab Decomposition

     bravais-lattice index     =            0
     lattice parameter (alat)  =      14.1226  a.u.
     unit-cell volume          =    1883.3307 (a.u.)^3
     number of atoms/cell      =           20
     number of atomic types    =            4
     number of electrons       =       136.00
     number of Kohn-Sham states=          256
     kinetic-energy cutoff     =      30.0000  Ry
     charge density cutoff     =     240.0000  Ry
     scf convergence threshold =      1.0E-06
     mixing beta               =       0.7000
     number of iterations used =            8  plain     mixing
     Exchange-correlation= SLA  PW   PBX  PBC
                           (   1   4   3   4   0   0   0)

     celldm(1)=  14.122579  celldm(2)=   0.000000  celldm(3)=   0.000000
     celldm(4)=   0.000000  celldm(5)=   0.000000  celldm(6)=   0.000000

     crystal axes: (cart. coord. in units of alat)
               a(1) = (   1.000000   0.000000   0.000000 )
               a(2) = (  -0.424943   0.905220   0.000000 )
               a(3) = (   0.000000   0.000000   0.738636 )

     reciprocal axes: (cart. coord. in units 2 pi/alat)
               b(1) = (  1.000000  0.469436  0.000000 )
               b(2) = (  0.000000  1.104704  0.000000 )
               b(3) = (  0.000000  0.000000  1.353847 )

     PseudoPot. # 1 for Mg read from file:
     /lustre07/scratch/pragov/crystal_structure_design/utils/SSSP/Mg.pbe-n-kjpaw_psl.0.3.0.UPF
     MD5 check sum: 24ecedc7f3e3cbe212e682f4413594e4
     Pseudo is Projector augmented-wave + core cor, Zval =  2.0
     Generated using "atomic" code by A. Dal Corso  v.5.0.99 svn rev. 10869
     Shape of augmentation charge: PSQ
     Using radial grid of 1129 points,  4 beta functions with:
                l(1) =   0
                l(2) =   0
                l(3) =   1
                l(4) =   1
     Q(r) pseudized with 0 coefficients

     PseudoPot. # 2 for V  read from file:
     /lustre07/scratch/pragov/crystal_structure_design/utils/SSSP/v_pbe_v1.4.uspp.F.UPF
     MD5 check sum: 22b79981416ebb76fdaf5b1b8640f6fb
     Pseudo is Ultrasoft + core correction, Zval = 13.0
     Generated by new atomic code, or converted to UPF format
     Using radial grid of  853 points,  6 beta functions with:
                l(1) =   0
                l(2) =   0
                l(3) =   1
                l(4) =   1
                l(5) =   2
                l(6) =   2
     Q(r) pseudized with  8 coefficients,  rinner =    1.100   1.100   1.100
                                                       1.100   1.100

     PseudoPot. # 3 for Bi read from file:
     /lustre07/scratch/pragov/crystal_structure_design/utils/SSSP/Bi_pbe_v1.uspp.F.UPF
     MD5 check sum: cceb9f28ec65b6d7ff33140f5b0b1758
     Pseudo is Ultrasoft + core correction, Zval = 15.0
     Generated by new atomic code, or converted to UPF format
     Using radial grid of  899 points,  6 beta functions with:
                l(1) =   0
                l(2) =   0
                l(3) =   1
                l(4) =   1
                l(5) =   2
                l(6) =   2
     Q(r) pseudized with  6 coefficients,  rinner =    1.000   1.000   1.000
                                                       1.000   1.000

     PseudoPot. # 4 for O  read from file:
     /lustre07/scratch/pragov/crystal_structure_design/utils/SSSP/O.pbe-n-kjpaw_psl.0.1.UPF
     MD5 check sum: 0234752ac141de4415c5fc33072bef88
     Pseudo is Projector augmented-wave + core cor, Zval =  6.0
     Generated using "atomic" code by A. Dal Corso  v.5.0.99 svn rev. 10869
     Shape of augmentation charge: BESSEL
     Using radial grid of 1095 points,  4 beta functions with:
                l(1) =   0
                l(2) =   0
                l(3) =   1
                l(4) =   1
     Q(r) pseudized with 0 coefficients

     atomic species   valence    mass     pseudopotential
        Mg             2.00    24.30500     Mg( 1.00)
        V             13.00    50.94150     V ( 1.00)
        Bi            15.00   208.98040     Bi( 1.00)
        O              6.00    15.99900     O ( 1.00)

      4 Sym. Ops., with inversion, found ( 2 have fractional translation)

                                    s                        frac. trans.

      isym =  1     identity

 cryst.   s( 1) = (     1          0          0      )
                  (     0          1          0      )
                  (     0          0          1      )

 cart.    s( 1) = (  1.0000000 -0.0000000  0.0000000 )
                  (  0.0000000  1.0000000  0.0000000 )
                  (  0.0000000  0.0000000  1.0000000 )

      isym =  2     180 deg rotation - cart. axis [0,0,1]

 cryst.   s( 2) = (    -1          0          0      )    f =( -0.0000000 )
                  (     0         -1          0      )       (  0.0000000 )
                  (     0          0          1      )       ( -0.5000000 )

 cart.    s( 2) = ( -1.0000000  0.0000000  0.0000000 )    f =( -0.0000000 )
                  (  0.0000000 -1.0000000  0.0000000 )       (  0.0000000 )
                  (  0.0000000  0.0000000  1.0000000 )       ( -0.3693179 )

      isym =  3     inversion

 cryst.   s( 3) = (    -1          0          0      )
                  (     0         -1          0      )
                  (     0          0         -1      )

 cart.    s( 3) = ( -1.0000000  0.0000000  0.0000000 )
                  (  0.0000000 -1.0000000  0.0000000 )
                  (  0.0000000  0.0000000 -1.0000000 )

      isym =  4     inv. 180 deg rotation - cart. axis [0,0,1]

 cryst.   s( 4) = (     1          0          0      )    f =(  0.0000000 )
                  (     0          1          0      )       (  0.0000000 )
                  (     0          0         -1      )       (  0.5000000 )

 cart.    s( 4) = (  1.0000000 -0.0000000  0.0000000 )    f =(  0.0000000 )
                  (  0.0000000  1.0000000  0.0000000 )       (  0.0000000 )
                  (  0.0000000  0.0000000 -1.0000000 )       (  0.3693179 )

   Cartesian axes

     site n.     atom                  positions (alat units)
         1           Mg  tau(   1) = (   0.3059276   0.1968944   0.1846590  )
         2           Mg  tau(   2) = (   0.2691292   0.7083256   0.5539769  )
         3           Mg  tau(   3) = (   0.5268259   0.5446193   0.1846590  )
         4           Mg  tau(   4) = (   0.0482309   0.3606007   0.5539769  )
         5           V   tau(   5) = (   0.0043951   0.6324754   0.1846590  )
         6           V   tau(   6) = (   0.5706618   0.2727446   0.5539769  )
         7           Bi  tau(   7) = (  -0.2974050   0.8241992   0.5539769  )
         8           Bi  tau(   8) = (   0.8724619   0.0810208   0.1846590  )
         9           O   tau(   9) = (  -0.0066786   0.8616645   0.1846590  )
        10           O   tau(  10) = (   0.5817354   0.0435556   0.5539769  )
        11           O   tau(  11) = (   0.7828340   0.3601128   0.5539769  )
        12           O   tau(  12) = (  -0.2077771   0.5451072   0.1846590  )
        13           O   tau(  13) = (   0.4553597   0.3459923   0.3614699  )
        14           O   tau(  14) = (   0.1196972   0.5592277   0.7307878  )
        15           O   tau(  15) = (   0.1196972   0.5592277   0.3771659  )
        16           O   tau(  16) = (   0.4553597   0.3459923   0.0078480  )
        17           O   tau(  17) = (   0.0985935   0.1552000   0.0000000  )
        18           O   tau(  18) = (   0.4764634   0.7500201   0.3693179  )
        19           O   tau(  19) = (   0.0985935   0.1552000   0.3693179  )
        20           O   tau(  20) = (   0.4764634   0.7500201   0.0000000  )

   Crystallographic axes

     site n.     atom                  positions (cryst. coord.)
         1           Mg  tau(   1) = (  0.3983570  0.2175100  0.2500000  )
         2           Mg  tau(   2) = (  0.6016430  0.7824900  0.7500000  )
         3           Mg  tau(   3) = (  0.7824900  0.6016430  0.2500000  )
         4           Mg  tau(   4) = (  0.2175100  0.3983570  0.7500000  )
         5           V   tau(   5) = (  0.3013020  0.6986980  0.2500000  )
         6           V   tau(   6) = (  0.6986980  0.3013020  0.7500000  )
         7           Bi  tau(   7) = (  0.0895040  0.9104960  0.7500000  )
         8           Bi  tau(   8) = (  0.9104960  0.0895040  0.2500000  )
         9           O   tau(   9) = (  0.3978180  0.9518840  0.2500000  )
        10           O   tau(  10) = (  0.6021820  0.0481160  0.7500000  )
        11           O   tau(  11) = (  0.9518840  0.3978180  0.7500000  )
        12           O   tau(  12) = (  0.0481160  0.6021820  0.2500000  )
        13           O   tau(  13) = (  0.6177810  0.3822190  0.4893750  )
        14           O   tau(  14) = (  0.3822190  0.6177810  0.9893750  )
        15           O   tau(  15) = (  0.3822190  0.6177810  0.5106250  )
        16           O   tau(  16) = (  0.6177810  0.3822190  0.0106250  )
        17           O   tau(  17) = (  0.1714500  0.1714500  0.0000000  )
        18           O   tau(  18) = (  0.8285500  0.8285500  0.5000000  )
        19           O   tau(  19) = (  0.1714500  0.1714500  0.5000000  )
        20           O   tau(  20) = (  0.8285500  0.8285500  0.0000000  )

     number of k points=    10
                       cart. coord. in units 2pi/alat
        k(    1) = (   0.0000000   0.0000000   0.0000000), wk =   0.0740741
        k(    2) = (   0.0000000   0.0000000   0.4512824), wk =   0.1481481
        k(    3) = (   0.0000000   0.3682346   0.0000000), wk =   0.1481481
        k(    4) = (   0.0000000   0.3682346   0.4512824), wk =   0.2962963
        k(    5) = (   0.3333333   0.1564788   0.0000000), wk =   0.1481481
        k(    6) = (   0.3333333   0.1564788   0.4512824), wk =   0.2962963
        k(    7) = (   0.3333333   0.5247134   0.0000000), wk =   0.1481481
        k(    8) = (   0.3333333   0.5247134   0.4512824), wk =   0.2962963
        k(    9) = (   0.3333333  -0.2117558   0.0000000), wk =   0.1481481
        k(   10) = (   0.3333333  -0.2117558   0.4512824), wk =   0.2962963

                       cryst. coord.
        k(    1) = (   0.0000000   0.0000000   0.0000000), wk =   0.0740741
        k(    2) = (   0.0000000   0.0000000   0.3333333), wk =   0.1481481
        k(    3) = (   0.0000000   0.3333333   0.0000000), wk =   0.1481481
        k(    4) = (   0.0000000   0.3333333   0.3333333), wk =   0.2962963
        k(    5) = (   0.3333333   0.0000000   0.0000000), wk =   0.1481481
        k(    6) = (   0.3333333   0.0000000   0.3333333), wk =   0.2962963
        k(    7) = (   0.3333333   0.3333333   0.0000000), wk =   0.1481481
        k(    8) = (   0.3333333   0.3333333   0.3333333), wk =   0.2962963
        k(    9) = (   0.3333333  -0.3333333   0.0000000), wk =   0.1481481
        k(   10) = (   0.3333333  -0.3333333   0.3333333), wk =   0.2962963

     Check: negative core charge=   -0.000009

     Initial potential from superposition of free atoms

     starting charge     133.9937, renormalised to     136.0000

     negative rho (up, down):  7.992E-02 0.000E+00
     Starting wfcs are  102 randomized atomic wfcs +  154 random wfcs
     Checking if some PAW data can be deallocated...

     Self-consistent Calculation

     iteration #  1     ecut=    30.00 Ry     beta= 0.70
     Davidson diagonalization with overlap

     ethr =  1.00E-02,  avg # of iterations =  8.9

     negative rho (up, down):  8.017E-02 0.000E+00

     total energy              =   -1291.57848337 Ry
     estimated scf accuracy    <       7.60315846 Ry

[...]

     total energy              =   -1296.02825233 Ry
     estimated scf accuracy    <       0.00000317 Ry

     iteration # 13     ecut=    30.00 Ry     beta= 0.70
     Davidson diagonalization with overlap

     ethr =  2.33E-09,  avg # of iterations =  3.8

     negative rho (up, down):  7.906E-02 0.000E+00

     End of self-consistent calculation

          k = 0.0000 0.0000 0.0000 (  5227 PWs)   bands (ev):

   -58.6770 -58.6767 -32.6413 -32.6407 -32.5831 -32.5818 -32.5533 -32.5530
   -16.7546 -16.7381 -16.7094 -16.5869 -16.5830 -16.5827 -16.5665 -16.5463
   -16.5455 -16.5235 -12.6749 -11.6560 -11.4859 -11.4222 -11.2449 -11.0469
   -10.9942 -10.9833 -10.9350 -10.8550 -10.7826 -10.6650  -4.5803  -3.0146
     0.7730   0.7969   1.3776   1.5235   1.6802   1.8308   1.8741   1.8854
     2.0148   2.1367   2.1540   2.1975   2.2076   2.2835   2.4828   2.6038
     2.6734   2.7832   2.8798   3.2236   3.3383   3.4468   3.5881   3.6834
     3.8936   3.9966   4.2316   4.3403   4.4223   4.5135   4.5455   4.6298
     4.6940   4.7034   4.7178   5.0790   8.3387   8.5772   8.7101   8.7730
     8.8665   9.4681   9.5952   9.7755   9.9462  10.0105  10.0229  10.1512
    10.2091  10.3283  10.9193  11.2362  11.2377  13.2871  13.7327  13.8578
    14.9183  15.0812  15.5021  15.7372  16.0323  16.2874  16.3025  16.3451
    16.4685  16.6809  17.3665  17.4347  17.7687  17.9711  18.1855  18.3546
    18.5666  18.6308  18.8882  19.1606  19.3321  19.8495  19.8899  20.2678
    20.3044  20.8541  21.0169  21.0458  21.4751  21.8379  21.8642  22.1146
    22.4738  22.5097  22.6593  22.8664  22.9230  23.0797  23.1098  23.4111
    24.0065  24.4160  24.4597  24.9647  25.2803  25.3475  25.8009  25.8621
    25.9742  26.3312  26.5623  26.5807  26.6021  26.6097  26.9748  27.0297
    27.1551  27.2135  27.7078  27.8149  27.8971  28.3727  28.3829  28.4466
    28.6434  28.7837  28.8099  29.0580  29.0756  29.2314  29.3181  29.4733
    29.4904  29.7247  30.0584  30.0910  30.3034  30.3806  31.3075  31.4518
    31.4737  31.7285  31.8431  31.8966  31.8986  32.0098  32.0454  32.0459
    32.2198  32.2525  32.2671  32.3304  32.6438  33.1580  33.2126  33.3313
    33.5616  33.6124  33.6550  33.7735  34.1077  34.3876  34.4949  34.6756
    34.7415  34.9482  35.0086  35.0158  35.6964  36.2679  36.3310  36.3614
    36.4036  36.4212  36.4443  36.5835  36.7864  36.9614  37.4099  37.4959
    37.6689  37.8658  38.1094  38.2367  38.3314  38.7554  38.9279  39.0610
    39.1226  39.3492  39.6014  39.6440  40.0444  40.1538  40.2045  40.4602
    40.7715  40.7747  40.9932  41.1532  41.6209  41.8457  41.8631  41.9675
    42.5752  42.6316  42.7909  42.8797  42.8938  42.9841  43.0868  43.2627
    43.3405  43.3483  43.4464  43.4894  43.6543  43.6698  43.8460  44.2594
    44.5547  44.5646  44.5727  44.5974  44.7835  44.9011  44.9383  45.0701

     occupation numbers
     1.0000   1.0000   1.0000   1.0000   1.0000   1.0000   1.0000   1.0000
     1.0000   1.0000   1.0000   1.0000   1.0000   1.0000   1.0000   1.0000
     1.0000   1.0000   1.0000   1.0000   1.0000   1.0000   1.0000   1.0000
     1.0000   1.0000   1.0000   1.0000   1.0000   1.0000   1.0000   1.0000
     1.0000   1.0000   1.0000   1.0000   1.0000   1.0000   1.0000   1.0000
     1.0000   1.0000   1.0000   1.0000   1.0000   1.0000   1.0000   1.0000
     1.0000   1.0000   1.0000   1.0000   1.0000   1.0000   1.0000   1.0000
     1.0000   1.0000   1.0000   1.0000   1.0000   1.0000   1.0000   1.0000
     1.0000   1.0000   1.0000   1.0000   0.0000   0.0000   0.0000   0.0000
     0.0000   0.0000   0.0000   0.0000   0.0000   0.0000   0.0000   0.0000
     0.0000   0.0000   0.0000   0.0000   0.0000   0.0000   0.0000   0.0000
     0.0000   0.0000   0.0000   0.0000   0.0000   0.0000   0.0000   0.0000
     0.0000   0.0000   0.0000   0.0000   0.0000   0.0000   0.0000   0.0000
     0.0000   0.0000   0.0000   0.0000   0.0000   0.0000   0.0000   0.0000
     0.0000   0.0000   0.0000   0.0000   0.0000   0.0000   0.0000   0.0000
     0.0000   0.0000   0.0000   0.0000   0.0000   0.0000   0.0000   0.0000
     0.0000   0.0000   0.0000   0.0000   0.0000   0.0000   0.0000   0.0000
     0.0000   0.0000   0.0000   0.0000   0.0000   0.0000   0.0000   0.0000
     0.0000   0.0000   0.0000   0.0000   0.0000   0.0000   0.0000   0.0000
     0.0000   0.0000   0.0000   0.0000   0.0000   0.0000   0.0000   0.0000
     0.0000   0.0000   0.0000   0.0000   0.0000   0.0000   0.0000   0.0000
     0.0000   0.0000   0.0000   0.0000   0.0000   0.0000   0.0000   0.0000
     0.0000   0.0000   0.0000   0.0000   0.0000   0.0000   0.0000   0.0000
     0.0000   0.0000   0.0000   0.0000   0.0000   0.0000   0.0000   0.0000
     0.0000   0.0000   0.0000   0.0000   0.0000   0.0000   0.0000   0.0000
     0.0000   0.0000   0.0000   0.0000   0.0000   0.0000   0.0000   0.0000
     0.0000   0.0000   0.0000   0.0000   0.0000   0.0000   0.0000   0.0000
     0.0000   0.0000   0.0000   0.0000   0.0000   0.0000   0.0000   0.0000
     0.0000   0.0000   0.0000   0.0000   0.0000   0.0000   0.0000   0.0000
     0.0000   0.0000   0.0000   0.0000   0.0000   0.0000   0.0000   0.0000
     0.0000   0.0000   0.0000   0.0000   0.0000   0.0000   0.0000   0.0000
     0.0000   0.0000   0.0000   0.0000   0.0000   0.0000   0.0000   0.0000

[...]

          k = 0.3333-0.2118 0.4513 (  5216 PWs)   bands (ev):

   -58.6769 -58.6768 -32.6410 -32.6406 -32.5817 -32.5816 -32.5543 -32.5539
   -16.7338 -16.7195 -16.7096 -16.6121 -16.5770 -16.5764 -16.5738 -16.5688
   -16.5455 -16.5326 -12.3481 -11.6571 -11.4828 -11.3827 -11.3135 -11.1796
   -11.1289 -10.9374 -10.9078 -10.8977 -10.8539 -10.8110  -4.0665  -3.3067
     1.1211   1.2387   1.3145   1.3762   1.4917   1.5134   1.6214   1.9217
     1.9388   2.2512   2.2596   2.3465   2.3985   2.4829   2.6497   2.6999
     2.7957   2.8447   3.1043   3.1828   3.3366   3.3440   3.5121   3.6322
     3.7472   3.9023   3.9787   4.1112   4.1202   4.4605   4.4733   4.5098
     4.5906   4.6256   4.6780   4.7163   8.5087   8.6026   8.6497   8.7203
     9.4829   9.6089   9.6658   9.6810   9.7445   9.9659  10.0127  10.0777
    10.1343  10.3006  10.6221  11.0446  12.6337  13.2484  13.8347  14.8167
    14.9458  15.0551  15.2301  15.4233  15.4742  15.6475  16.1050  16.2324
    17.0103  17.4233  17.4920  17.6401  18.1925  18.2372  18.3604  18.5191
    18.7424  18.9707  19.0932  19.5608  19.7583  20.0831  20.1584  20.3967
    20.4597  20.5531  20.7487  20.9429  21.1112  21.5908  21.7506  21.8391
    22.1722  22.3328  22.4605  22.4626  22.7175  22.7862  23.0733  23.4236
    23.4353  23.7832  23.8589  24.0540  24.1239  24.4954  24.6254  25.1123
    25.2646  25.3297  25.6793  25.7408  26.2115  26.4416  26.6595  26.8713
    27.1075  27.4207  27.5921  27.7844  27.9295  28.4909  28.5854  28.7283
    28.9802  29.0530  29.2349  29.5421  29.5437  29.9219  30.2141  30.2852
    30.3892  30.6133  30.8378  30.8448  30.9841  31.1510  31.2290  31.2548
    31.5928  31.9699  32.0458  32.1636  32.1657  32.2556  32.2659  32.3015
    32.4824  32.7921  32.8045  33.0544  33.0668  33.4431  33.5038  33.5845
    33.7346  34.1070  34.1076  34.1758  34.2703  34.6383  34.7770  34.8374
    35.1370  35.2144  35.4925  35.9108  36.1416  36.1532  36.4056  36.4177
    36.4726  36.7680  36.8972  36.9968  37.1862  37.3852  37.7455  37.7939
    37.8577  38.0301  38.0303  38.3057  38.5218  38.6002  38.8052  38.9583
    39.0544  39.2324  39.2373  39.5888  39.6491  39.7552  39.8441  39.9466
    40.0926  40.1356  40.3045  40.7678  40.9024  40.9076  41.0323  41.2975
    41.3829  41.5670  41.6794  41.7643  42.1666  42.1774  42.3229  42.6207
    42.6839  42.7202  42.9658  43.2115  43.2327  43.3118  43.3529  43.6106
    43.6117  43.9628  44.0306  44.1227  44.2710  44.3657  44.5619  45.0341

     occupation numbers
     1.0000   1.0000   1.0000   1.0000   1.0000   1.0000   1.0000   1.0000
     1.0000   1.0000   1.0000   1.0000   1.0000   1.0000   1.0000   1.0000
     1.0000   1.0000   1.0000   1.0000   1.0000   1.0000   1.0000   1.0000
     1.0000   1.0000   1.0000   1.0000   1.0000   1.0000   1.0000   1.0000
     1.0000   1.0000   1.0000   1.0000   1.0000   1.0000   1.0000   1.0000
     1.0000   1.0000   1.0000   1.0000   1.0000   1.0000   1.0000   1.0000
     1.0000   1.0000   1.0000   1.0000   1.0000   1.0000   1.0000   1.0000
     1.0000   1.0000   1.0000   1.0000   1.0000   1.0000   1.0000   1.0000
     1.0000   1.0000   1.0000   1.0000   0.0000   0.0000   0.0000   0.0000
     0.0000   0.0000   0.0000   0.0000   0.0000   0.0000   0.0000   0.0000
     0.0000   0.0000   0.0000   0.0000   0.0000   0.0000   0.0000   0.0000
     0.0000   0.0000   0.0000   0.0000   0.0000   0.0000   0.0000   0.0000
     0.0000   0.0000   0.0000   0.0000   0.0000   0.0000   0.0000   0.0000
     0.0000   0.0000   0.0000   0.0000   0.0000   0.0000   0.0000   0.0000
     0.0000   0.0000   0.0000   0.0000   0.0000   0.0000   0.0000   0.0000
     0.0000   0.0000   0.0000   0.0000   0.0000   0.0000   0.0000   0.0000
     0.0000   0.0000   0.0000   0.0000   0.0000   0.0000   0.0000   0.0000
     0.0000   0.0000   0.0000   0.0000   0.0000   0.0000   0.0000   0.0000
     0.0000   0.0000   0.0000   0.0000   0.0000   0.0000   0.0000   0.0000
     0.0000   0.0000   0.0000   0.0000   0.0000   0.0000   0.0000   0.0000
     0.0000   0.0000   0.0000   0.0000   0.0000   0.0000   0.0000   0.0000
     0.0000   0.0000   0.0000   0.0000   0.0000   0.0000   0.0000   0.0000
     0.0000   0.0000   0.0000   0.0000   0.0000   0.0000   0.0000   0.0000
     0.0000   0.0000   0.0000   0.0000   0.0000   0.0000   0.0000   0.0000
     0.0000   0.0000   0.0000   0.0000   0.0000   0.0000   0.0000   0.0000
     0.0000   0.0000   0.0000   0.0000   0.0000   0.0000   0.0000   0.0000
     0.0000   0.0000   0.0000   0.0000   0.0000   0.0000   0.0000   0.0000
     0.0000   0.0000   0.0000   0.0000   0.0000   0.0000   0.0000   0.0000
     0.0000   0.0000   0.0000   0.0000   0.0000   0.0000   0.0000   0.0000
     0.0000   0.0000   0.0000   0.0000   0.0000   0.0000   0.0000   0.0000
     0.0000   0.0000   0.0000   0.0000   0.0000   0.0000   0.0000   0.0000
     0.0000   0.0000   0.0000   0.0000   0.0000   0.0000   0.0000   0.0000

     highest occupied, lowest unoccupied level (ev):     5.1381    8.3205

!    total energy              =   -1296.02825306 Ry
     estimated scf accuracy    <       0.00000001 Ry

     The total energy is the sum of the following terms:
     one-electron contribution =    -509.80084441 Ry
     hartree contribution      =     325.55803067 Ry
     xc contribution           =    -264.42487851 Ry
     ewald contribution        =    -607.93705431 Ry
     one-center paw contrib.   =    -239.42350650 Ry
      -> PAW hartree energy AE =       2.60625129 Ry
      -> PAW hartree energy PS =      -2.60238347 Ry
      -> PAW xc energy AE      =     -97.90326005 Ry
      -> PAW xc energy PS      =       4.05157202 Ry
      -> total E_H with PAW    =     325.56189849 Ry
      -> total E_XC with PAW   =    -358.27656654 Ry

     convergence has been achieved in  13 iterations

     Writing all to output data dir bands_nm/myprefix.save/

     General routines

     Parallel routines

     PAW routines

   This run was terminated on:   0:56:24  17Jul2023

   JOB DONE.