     Program PWSCF v.7.1 starts on 16Jul2023 at 17:59:12

     Reading input from espresso_23937.pwi
Warning: card &CELL ignored
Warning: card / ignored

     Current dimensions of program PWSCF are:
     Max number of different atomic species (ntypx) = 10
     Max number of k-points (npk) =  40000
     Max angular momentum in pseudopotentials (lmaxx) =  4
     file Ce.paw.z_12.atompaw.wentzcovitch.v1.2.upf: wavefunction(s)  6S 0P 5D 0D 4F 0F renormalized
     file O.pbe-n-kjpaw_psl.0.1.UPF: wavefunction(s)  2P renormalized

     K-points division:     npool     =       2
     R & G space division:  proc/nbgrp/npool/nimage =       4
     Subspace diagonalization in iterative solution of the eigenvalue problem:
     one sub-group per band group will be used

     Using Slab Decomposition

     bravais-lattice index     =            0
     lattice parameter (alat)  =      26.3443  a.u.
     unit-cell volume          =    1889.8663 (a.u.)^3
     number of atoms/cell      =           19
     number of atomic types    =            3
     number of electrons       =       152.00
     number of Kohn-Sham states=          256
     kinetic-energy cutoff     =      30.0000  Ry
     charge density cutoff     =     240.0000  Ry
     scf convergence threshold =      1.0E-06
     mixing beta               =       0.7000
     number of iterations used =            8  plain     mixing
     Exchange-correlation= SLA  PW   PBX  PBC
                           (   1   4   3   4   0   0   0)

     celldm(1)=  26.344292  celldm(2)=   0.000000  celldm(3)=   0.000000
     celldm(4)=   0.000000  celldm(5)=   0.000000  celldm(6)=   0.000000

     crystal axes: (cart. coord. in units of alat)
               a(1) = (   1.000000   0.000000   0.000000 )
               a(2) = (   0.963646   0.267183   0.000000 )
               a(3) = (   0.076544   0.010415   0.386868 )

     reciprocal axes: (cart. coord. in units 2 pi/alat)
               b(1) = (  1.000000 -3.606686 -0.100760 )
               b(2) = (  0.000000  3.742751 -0.100760 )
               b(3) = (  0.000000  0.000000  2.584863 )

     PseudoPot. # 1 for Ce read from file:
     /lustre07/scratch/pragov/crystal_structure_design/utils/SSSP/Ce.paw.z_12.atompaw.wentzcovitch.v1.2.upf
     MD5 check sum: 2241420ff980c77e0c917a2dc8a7e08e
     Pseudo is Projector augmented-wave + core cor, Zval = 12.0
     Generated using ATOMPAW code
     Shape of augmentation charge: BESSEL
     Using radial grid of 1102 points,  8 beta functions with:
                l(1) =   0
                l(2) =   0
                l(3) =   1
                l(4) =   1
                l(5) =   2
                l(6) =   2
                l(7) =   3
                l(8) =   3
     Q(r) pseudized with 0 coefficients

     PseudoPot. # 2 for Y  read from file:
     /lustre07/scratch/pragov/crystal_structure_design/utils/SSSP/Y_pbe_v1.uspp.F.UPF
     MD5 check sum: 2cf71db95cafeb975fc457bd7f14888e
     Pseudo is Ultrasoft + core correction, Zval = 11.0
     Generated by new atomic code, or converted to UPF format
     Using radial grid of  885 points,  6 beta functions with:
                l(1) =   0
                l(2) =   0
                l(3) =   1
                l(4) =   1
                l(5) =   2
                l(6) =   2
     Q(r) pseudized with  6 coefficients,  rinner =    1.200   1.200   1.200
                                                       1.200   1.200

     PseudoPot. # 3 for O  read from file:
     /lustre07/scratch/pragov/crystal_structure_design/utils/SSSP/O.pbe-n-kjpaw_psl.0.1.UPF
     MD5 check sum: 0234752ac141de4415c5fc33072bef88
     Pseudo is Projector augmented-wave + core cor, Zval =  6.0
     Generated using "atomic" code by A. Dal Corso  v.5.0.99 svn rev. 10869
     Shape of augmentation charge: BESSEL
     Using radial grid of 1095 points,  4 beta functions with:
                l(1) =   0
                l(2) =   0
                l(3) =   1
                l(4) =   1
     Q(r) pseudized with 0 coefficients

     atomic species   valence    mass     pseudopotential
        Ce            12.00   140.11600     Ce( 1.00)
        Y             11.00    88.90584     Y ( 1.00)
        O              6.00    15.99900     O ( 1.00)

     No symmetry found

                                    s                        frac. trans.

      isym =  1     identity

 cryst.   s( 1) = (     1          0          0      )
                  (     0          1          0      )
                  (     0          0          1      )

 cart.    s( 1) = (  1.0000000  0.0000000 -0.0000000 )
                  (  0.0000000  1.0000000 -0.0000000 )
                  (  0.0000000  0.0000000  1.0000000 )

   Cartesian axes

     site n.     atom                  positions (alat units)
         1           Ce  tau(   1) = (   1.6934868   0.2304240   0.0562196  )
         2           Ce  tau(   2) = (   0.6056773   0.0824114   0.2792411  )
         3           Ce  tau(   3) = (   0.8778981   0.1194511   0.2196766  )
         4           Y   tau(   4) = (   0.0120529   0.0016400   0.0197206  )
         5           Y   tau(   5) = (   1.1570033   0.1574275   0.1656397  )
         6           Y   tau(   6) = (   1.4326414   0.1949321   0.1131839  )
         7           Y   tau(   7) = (   0.3410754   0.0464084   0.3114335  )
         8           O   tau(   8) = (   0.4002402   0.0544586   0.0152743  )
         9           O   tau(   9) = (   0.1809492   0.0246208   0.0638111  )
        10           O   tau(  10) = (   1.8441939   0.2509300   0.1269885  )
        11           O   tau(  11) = (   0.7311876   0.0994889   0.1504795  )
        12           O   tau(  12) = (   1.0055704   0.1368228   0.1030229  )
        13           O   tau(  13) = (   1.5825307   0.2153268   0.1804246  )
        14           O   tau(  14) = (   0.1603683   0.0218205   0.2657371  )
        15           O   tau(  15) = (   0.4669014   0.0635289   0.2058530  )
        16           O   tau(  16) = (   1.3030985   0.1773059   0.2287103  )
        17           O   tau(  17) = (   1.6150148   0.2197467   0.3753409  )
        18           O   tau(  18) = (   0.7737440   0.1052794   0.3432460  )
        19           O   tau(  19) = (   1.9085106   0.2596812   0.3130715  )

   Crystallographic axes

     site n.     atom                  positions (cryst. coord.)
         1           Ce  tau(   1) = (  0.8567550  0.8567550  0.1453200  )
         2           Ce  tau(   2) = (  0.2803090  0.2803090  0.7218000  )
         3           Ce  tau(   3) = (  0.4249410  0.4249410  0.5678340  )
         4           Y   tau(   4) = (  0.0041510  0.0041510  0.0509750  )
         5           Y   tau(   5) = (  0.5725220  0.5725220  0.4281560  )
         6           Y   tau(   6) = (  0.7181780  0.7181780  0.2925650  )
         7           Y   tau(   7) = (  0.1423150  0.1423150  0.8050130  )
         8           O   tau(   8) = (  0.2022860  0.2022860  0.0394820  )
         9           O   tau(   9) = (  0.0857200  0.0857200  0.1649430  )
        10           O   tau(  10) = (  0.9263730  0.9263730  0.3282480  )
        11           O   tau(  11) = (  0.3572000  0.3572000  0.3889690  )
        12           O   tau(  12) = (  0.5017130  0.5017130  0.2663000  )
        13           O   tau(  13) = (  0.7877350  0.7877350  0.4663730  )
        14           O   tau(  14) = (  0.0548930  0.0548930  0.6868940  )
        15           O   tau(  15) = (  0.2170310  0.2170310  0.5321020  )
        16           O   tau(  16) = (  0.6405670  0.6405670  0.5911850  )
        17           O   tau(  17) = (  0.7846380  0.7846380  0.9702050  )
        18           O   tau(  18) = (  0.3594490  0.3594490  0.8872440  )
        19           O   tau(  19) = (  0.9403770  0.9403770  0.8092470  )

     number of k points=    14
                       cart. coord. in units 2pi/alat
        k(    1) = (   0.0000000   0.0000000   0.0000000), wk =   0.0740741
        k(    2) = (   0.0000000   0.0000000   0.8616211), wk =   0.1481481
        k(    3) = (   0.0000000   1.2475836  -0.0335866), wk =   0.1481481
        k(    4) = (   0.0000000   1.2475836   0.8280345), wk =   0.1481481
        k(    5) = (   0.0000000   1.2475836  -0.8952077), wk =   0.1481481
        k(    6) = (   0.3333333  -1.2022286  -0.0335866), wk =   0.1481481
        k(    7) = (   0.3333333  -1.2022286   0.8280345), wk =   0.1481481
        k(    8) = (   0.3333333  -1.2022286  -0.8952077), wk =   0.1481481
        k(    9) = (   0.3333333   0.0453550  -0.0671732), wk =   0.1481481
        k(   10) = (   0.3333333   0.0453550   0.7944479), wk =   0.1481481
        k(   11) = (   0.3333333   0.0453550  -0.9287944), wk =   0.1481481
        k(   12) = (   0.3333333  -2.4498122   0.0000000), wk =   0.1481481
        k(   13) = (   0.3333333  -2.4498122   0.8616211), wk =   0.1481481
        k(   14) = (   0.3333333  -2.4498122  -0.8616211), wk =   0.1481481

                       cryst. coord.
        k(    1) = (   0.0000000   0.0000000   0.0000000), wk =   0.0740741
        k(    2) = (   0.0000000   0.0000000   0.3333333), wk =   0.1481481
        k(    3) = (   0.0000000   0.3333333   0.0000000), wk =   0.1481481
        k(    4) = (   0.0000000   0.3333333   0.3333333), wk =   0.1481481
        k(    5) = (   0.0000000   0.3333333  -0.3333333), wk =   0.1481481
        k(    6) = (   0.3333333  -0.0000000   0.0000000), wk =   0.1481481
        k(    7) = (   0.3333333  -0.0000000   0.3333333), wk =   0.1481481
        k(    8) = (   0.3333333  -0.0000000  -0.3333333), wk =   0.1481481
        k(    9) = (   0.3333333   0.3333333   0.0000000), wk =   0.1481481
        k(   10) = (   0.3333333   0.3333333   0.3333333), wk =   0.1481481
        k(   11) = (   0.3333333   0.3333333  -0.3333333), wk =   0.1481481
        k(   12) = (   0.3333333  -0.3333333  -0.0000000), wk =   0.1481481
        k(   13) = (   0.3333333  -0.3333333   0.3333333), wk =   0.1481481
        k(   14) = (   0.3333333  -0.3333333  -0.3333333), wk =   0.1481481

     Check: negative core charge=   -0.000012

     Initial potential from superposition of free atoms

     starting charge     151.9611, renormalised to     152.0000

     negative rho (up, down):  1.737E-01 0.000E+00
     Starting wfcs are  196 randomized atomic wfcs +   60 random wfcs
     Checking if some PAW data can be deallocated...

     Self-consistent Calculation

     iteration #  1     ecut=    30.00 Ry     beta= 0.70
     Davidson diagonalization with overlap

     ethr =  1.00E-02,  avg # of iterations =  6.1

     negative rho (up, down):  1.776E-01 0.000E+00

     total energy              =   -2260.42777939 Ry
     estimated scf accuracy    <      19.21727287 Ry

[...]

     total energy              =   -2298.45000566 Ry
     estimated scf accuracy    <       0.00000144 Ry

     iteration # 30     ecut=    30.00 Ry     beta= 0.70
     Davidson diagonalization with overlap

     ethr =  9.48E-10,  avg # of iterations =  1.0

     negative rho (up, down):  1.803E-01 0.000E+00

     End of self-consistent calculation

          k = 0.0000 0.0000 0.0000 (  5219 PWs)   bands (ev):

   -30.9991 -30.9476 -30.6779 -30.6398 -23.6563 -23.4797 -23.2957 -11.7689
   -11.4201 -11.3332 -11.1908 -11.0981 -11.0938 -11.0101 -10.8538 -10.8188
   -10.7608 -10.7439 -10.5480  -9.5354  -8.7310  -8.4181  -8.0497  -7.5865
    -7.4380  -7.1502  -7.0538  -6.6051  -6.3050  -6.2545  -6.0629  -5.9759
    -5.7944  -5.6993  -5.3442  -5.2284  -5.0028  -4.5636  -4.1133  -3.2280
     5.3540   5.4110   5.4432   5.5281   5.7551   6.0479   6.1289   6.4007
     6.4638   6.4662   6.4799   6.5919   6.7169   6.9598   7.0603   7.1946
     7.2443   7.5641   7.6565   7.7097   7.7165   7.8018   7.8485   7.9141
     7.9910   8.0965   8.1888   8.2829   8.2896   8.3420   8.4757   8.6479
     8.7326   8.8890   9.1479   9.2736  10.7784  10.8434  10.8969  10.8981
    10.9406  10.9955  11.0411  11.0594  11.1218  11.1534  11.2255  11.2295
    11.2973  11.3327  11.3655  11.4359  11.4681  11.5953  11.6046  11.6732
    11.9126  12.4529  13.5759  14.4621  14.6410  14.8563  14.9390  15.0169
    15.1546  15.1798  15.3378  15.4523  15.5964  15.6585  15.7778  16.1298
    16.2024  16.5056  16.5123  16.5472  16.8554  16.9817  17.0442  17.4084
    17.4847  17.6984  17.7044  18.0225  18.2640  18.5092  18.7934  18.9379
    19.0383  19.0508  19.4183  19.6954  19.8950  20.0166  20.2605  20.4747
    20.6440  20.9274  21.4527  21.4965  22.1927  22.4198  22.5917  22.7924
    23.3247  23.5613  23.8782  23.9015  24.0840  24.2791  24.5877  24.8717
    24.9443  25.1328  25.3438  25.4979  25.9683  26.2707  26.6374  26.6951
    26.9267  27.1552  27.6947  27.8529  28.2790  28.3699  28.5916  28.9350
    29.3062  29.5664  29.7957  29.8358  30.2611  30.5138  30.5397  30.8116
    30.8952  31.1935  31.3780  31.4834  31.6703  31.7639  31.8552  32.0235
    32.1313  32.5369  32.6289  32.6946  32.8564  33.2371  33.2851  33.5042
    33.6460  33.8645  33.9359  34.1166  34.1845  34.4063  34.9250  35.2280
    35.3023  35.4451  35.6080  35.6472  35.9070  35.9103  35.9348  36.5374
    36.7432  36.7544  36.7948  37.0660  37.1844  37.5696  37.7359  37.7689
    37.9742  38.1122  38.1520  38.2334  38.3072  38.5341  38.5586  38.6442
    38.8381  39.2090  39.2595  39.3664  39.7788  39.9605  40.0218  40.1167
    40.4887  40.5163  40.7296  40.7531  40.8888  40.9069  41.2893  41.3309
    41.3594  41.7289  41.8449  41.9015  42.1739  42.3970  42.6311  42.7890
    42.8393  42.9773  42.9885  43.0778  43.4004  43.5045  43.7455  43.8439

     occupation numbers
     1.0000   1.0000   1.0000   1.0000   1.0000   1.0000   1.0000   1.0000
     1.0000   1.0000   1.0000   1.0000   1.0000   1.0000   1.0000   1.0000
     1.0000   1.0000   1.0000   1.0000   1.0000   1.0000   1.0000   1.0000
     1.0000   1.0000   1.0000   1.0000   1.0000   1.0000   1.0000   1.0000
     1.0000   1.0000   1.0000   1.0000   1.0000   1.0000   1.0000   1.0000
     1.0000   1.0000   1.0000   1.0000   1.0000   1.0000   1.0000   1.0000
     1.0000   1.0000   1.0000   1.0000   1.0000   1.0000   1.0000   1.0000
     1.0000   1.0000   1.0000   1.0000   1.0000   1.0000   1.0000   1.0000
     1.0000   1.0000   1.0000   1.0000   1.0000   1.0000   1.0000   1.0000
     1.0000   1.0000   1.0000   1.0000   0.0000   0.0000   0.0000   0.0000
     0.0000   0.0000   0.0000   0.0000   0.0000   0.0000   0.0000   0.0000
     0.0000   0.0000   0.0000   0.0000   0.0000   0.0000   0.0000   0.0000
     0.0000   0.0000   0.0000   0.0000   0.0000   0.0000   0.0000   0.0000
     0.0000   0.0000   0.0000   0.0000   0.0000   0.0000   0.0000   0.0000
     0.0000   0.0000   0.0000   0.0000   0.0000   0.0000   0.0000   0.0000
     0.0000   0.0000   0.0000   0.0000   0.0000   0.0000   0.0000   0.0000
     0.0000   0.0000   0.0000   0.0000   0.0000   0.0000   0.0000   0.0000
     0.0000   0.0000   0.0000   0.0000   0.0000   0.0000   0.0000   0.0000
     0.0000   0.0000   0.0000   0.0000   0.0000   0.0000   0.0000   0.0000
     0.0000   0.0000   0.0000   0.0000   0.0000   0.0000   0.0000   0.0000
     0.0000   0.0000   0.0000   0.0000   0.0000   0.0000   0.0000   0.0000
     0.0000   0.0000   0.0000   0.0000   0.0000   0.0000   0.0000   0.0000
     0.0000   0.0000   0.0000   0.0000   0.0000   0.0000   0.0000   0.0000
     0.0000   0.0000   0.0000   0.0000   0.0000   0.0000   0.0000   0.0000
     0.0000   0.0000   0.0000   0.0000   0.0000   0.0000   0.0000   0.0000
     0.0000   0.0000   0.0000   0.0000   0.0000   0.0000   0.0000   0.0000
     0.0000   0.0000   0.0000   0.0000   0.0000   0.0000   0.0000   0.0000
     0.0000   0.0000   0.0000   0.0000   0.0000   0.0000   0.0000   0.0000
     0.0000   0.0000   0.0000   0.0000   0.0000   0.0000   0.0000   0.0000
     0.0000   0.0000   0.0000   0.0000   0.0000   0.0000   0.0000   0.0000
     0.0000   0.0000   0.0000   0.0000   0.0000   0.0000   0.0000   0.0000
     0.0000   0.0000   0.0000   0.0000   0.0000   0.0000   0.0000   0.0000

[...]

          k = 0.3333-2.4498-0.8616 (  5246 PWs)   bands (ev):

   -30.9789 -30.9399 -30.6594 -30.6316 -23.5582 -23.4417 -23.2464 -11.8826
   -11.5641 -11.4652 -11.3486 -11.1898 -11.1327 -11.0418 -10.9894 -10.9512
   -10.8949 -10.7491 -10.7108  -9.3939  -9.1532  -8.8559  -8.5724  -8.0648
    -7.5521  -7.3889  -6.9608  -6.4983  -6.2825  -6.1460  -6.1050  -5.8590
    -5.7082  -5.4023  -5.0582  -4.8231  -4.4184  -4.1164  -3.8541  -3.8225
     5.8140   5.9817   6.0351   6.1539   6.1759   6.3757   6.4940   6.6268
     6.6793   6.7831   6.8170   6.8856   6.9405   7.0872   7.1554   7.2229
     7.3007   7.3722   7.4294   7.5498   7.6520   7.7292   7.8056   7.8649
     7.9830   8.0298   8.1229   8.1668   8.2947   8.4027   8.4650   8.5867
     8.6783   8.7768   8.8567   8.9528  10.7868  10.8211  10.8729  10.9023
    10.9453  10.9833  11.0165  11.0256  11.0818  11.1147  11.1309  11.1713
    11.2192  11.2571  11.3046  11.3345  11.3490  11.4157  11.4400  11.6448
    11.8160  13.3307  13.8102  14.2704  14.5736  14.6654  14.9207  15.0370
    15.1313  15.4218  15.5864  15.7555  15.8633  15.9109  16.2139  16.3282
    16.3496  16.4704  16.6830  16.9301  17.0565  17.1605  17.2139  17.3673
    17.4739  17.5660  17.7270  17.9062  18.1770  18.2792  18.4258  18.7009
    18.9204  19.0403  19.1652  19.5154  19.6556  19.8979  20.0922  20.2298
    20.4718  20.9351  21.1563  21.5849  21.7888  22.0802  22.3024  22.8092
    23.3105  23.7460  24.0132  24.2807  24.6009  24.9956  25.3255  25.4902
    25.6539  25.8333  26.0036  26.5003  26.5963  26.9124  26.9831  27.1889
    27.4839  27.6451  27.9208  27.9727  28.1429  28.3232  28.4085  28.6343
    28.7951  28.9624  29.1444  29.3394  29.5612  29.6209  29.7545  29.9866
    30.0836  30.2846  30.6023  30.7532  30.8813  31.1238  31.4068  31.6733
    31.9213  32.0544  32.2082  32.5005  32.7602  32.7752  32.9595  33.1228
    33.2537  33.4360  33.6246  33.7080  33.8459  34.0485  34.1691  34.4767
    34.6719  34.8925  35.2510  35.3670  35.7094  35.9512  36.0806  36.1692
    36.4255  36.6176  36.9759  37.1246  37.3347  37.5233  37.6340  37.7825
    37.8916  38.0891  38.2604  38.3476  38.4702  38.7295  38.8184  38.9375
    39.0270  39.2090  39.3502  39.4977  39.5933  39.6766  39.8749  39.9589
    40.0558  40.3452  40.4557  40.6305  40.7469  40.9268  41.1015  41.1627
    41.3922  41.4878  41.6636  41.8035  41.9336  42.0393  42.1750  42.2809
    42.5405  42.6523  42.9147  42.9913  43.1501  43.3076  43.3653  43.4732

     occupation numbers
     1.0000   1.0000   1.0000   1.0000   1.0000   1.0000   1.0000   1.0000
     1.0000   1.0000   1.0000   1.0000   1.0000   1.0000   1.0000   1.0000
     1.0000   1.0000   1.0000   1.0000   1.0000   1.0000   1.0000   1.0000
     1.0000   1.0000   1.0000   1.0000   1.0000   1.0000   1.0000   1.0000
     1.0000   1.0000   1.0000   1.0000   1.0000   1.0000   1.0000   1.0000
     1.0000   1.0000   1.0000   1.0000   1.0000   1.0000   1.0000   1.0000
     1.0000   1.0000   1.0000   1.0000   1.0000   1.0000   1.0000   1.0000
     1.0000   1.0000   1.0000   1.0000   1.0000   1.0000   1.0000   1.0000
     1.0000   1.0000   1.0000   1.0000   1.0000   1.0000   1.0000   1.0000
     1.0000   1.0000   1.0000   1.0000   0.0000   0.0000   0.0000   0.0000
     0.0000   0.0000   0.0000   0.0000   0.0000   0.0000   0.0000   0.0000
     0.0000   0.0000   0.0000   0.0000   0.0000   0.0000   0.0000   0.0000
     0.0000   0.0000   0.0000   0.0000   0.0000   0.0000   0.0000   0.0000
     0.0000   0.0000   0.0000   0.0000   0.0000   0.0000   0.0000   0.0000
     0.0000   0.0000   0.0000   0.0000   0.0000   0.0000   0.0000   0.0000
     0.0000   0.0000   0.0000   0.0000   0.0000   0.0000   0.0000   0.0000
     0.0000   0.0000   0.0000   0.0000   0.0000   0.0000   0.0000   0.0000
     0.0000   0.0000   0.0000   0.0000   0.0000   0.0000   0.0000   0.0000
     0.0000   0.0000   0.0000   0.0000   0.0000   0.0000   0.0000   0.0000
     0.0000   0.0000   0.0000   0.0000   0.0000   0.0000   0.0000   0.0000
     0.0000   0.0000   0.0000   0.0000   0.0000   0.0000   0.0000   0.0000
     0.0000   0.0000   0.0000   0.0000   0.0000   0.0000   0.0000   0.0000
     0.0000   0.0000   0.0000   0.0000   0.0000   0.0000   0.0000   0.0000
     0.0000   0.0000   0.0000   0.0000   0.0000   0.0000   0.0000   0.0000
     0.0000   0.0000   0.0000   0.0000   0.0000   0.0000   0.0000   0.0000
     0.0000   0.0000   0.0000   0.0000   0.0000   0.0000   0.0000   0.0000
     0.0000   0.0000   0.0000   0.0000   0.0000   0.0000   0.0000   0.0000
     0.0000   0.0000   0.0000   0.0000   0.0000   0.0000   0.0000   0.0000
     0.0000   0.0000   0.0000   0.0000   0.0000   0.0000   0.0000   0.0000
     0.0000   0.0000   0.0000   0.0000   0.0000   0.0000   0.0000   0.0000
     0.0000   0.0000   0.0000   0.0000   0.0000   0.0000   0.0000   0.0000
     0.0000   0.0000   0.0000   0.0000   0.0000   0.0000   0.0000   0.0000

     highest occupied, lowest unoccupied level (ev):     9.2736   10.7784

!    total energy              =   -2298.45000532 Ry
     estimated scf accuracy    <       0.00000050 Ry

     The total energy is the sum of the following terms:
     one-electron contribution =    -208.27050956 Ry
     hartree contribution      =     201.22868670 Ry
     xc contribution           =    -219.24394851 Ry
     ewald contribution        =    -743.64887834 Ry
     one-center paw contrib.   =   -1328.51535560 Ry
      -> PAW hartree energy AE =     129.12301392 Ry
      -> PAW hartree energy PS =    -128.59015977 Ry
      -> PAW xc energy AE      =   -1250.53140423 Ry
      -> PAW xc energy PS      =      35.77271838 Ry
      -> total E_H with PAW    =     201.76154085 Ry
      -> total E_XC with PAW   =   -1434.00263437 Ry

     convergence has been achieved in  30 iterations

     Writing all to output data dir bands_nm/myprefix.save/

     General routines

     Parallel routines

     PAW routines

   This run was terminated on:  18:10:43  16Jul2023

   JOB DONE.