     Program PWSCF v.7.0 starts on  6Jun2023 at 10:12:49

     K-points division:     npool     =       2
     R & G space division:  proc/nbgrp/npool/nimage =       4

     Reading input from espresso_16249.pwi
Warning: card &CELL ignored
Warning: card / ignored

     Current dimensions of program PWSCF are:
     Max number of different atomic species (ntypx) = 10
     Max number of k-points (npk) =  40000
     Max angular momentum in pseudopotentials (lmaxx) =  4
     Message from routine setup:
     using ibrav=0 with symmetry is DISCOURAGED, use correct ibrav instead

     Using Slab Decomposition

     bravais-lattice index     =            0
     lattice parameter (alat)  =      14.2180  a.u.
     unit-cell volume          =    1875.0210 (a.u.)^3
     number of atoms/cell      =           10
     number of atomic types    =            3
     number of electrons       =        80.00
     number of Kohn-Sham states=           64
     kinetic-energy cutoff     =      30.0000  Ry
     charge density cutoff     =     240.0000  Ry
     scf convergence threshold =      1.0E-06
     mixing beta               =       0.7000
     number of iterations used =            8  plain     mixing
     Exchange-correlation=  SLA  PW   PBX  PBC
                           (   1   4   3   4   0   0   0)

     celldm(1)=  14.217976  celldm(2)=   0.000000  celldm(3)=   0.000000
     celldm(4)=   0.000000  celldm(5)=   0.000000  celldm(6)=   0.000000

     crystal axes: (cart. coord. in units of alat)
               a(1) = (   1.000000   0.000000   0.000000 )
               a(2) = (   0.549775   0.835313   0.000000 )
               a(3) = (   0.549775   0.296323   0.780987 )

     reciprocal axes: (cart. coord. in units 2 pi/alat)
               b(1) = (  1.000000 -0.658166 -0.454227 )
               b(2) = (  0.000000  1.197156 -0.454227 )
               b(3) = (  0.000000  0.000000  1.280432 )

     PseudoPot. # 1 for Na read from file:
     /home/pragov/projects/rrg-bengioy-ad/pragov/crystal_structure_design/SSSP/na_pbe_v1.5.uspp.F.UPF
     MD5 check sum: 44600605ef58000f06b90626533354dc
     Pseudo is Ultrasoft, Zval =  9.0
     Generated by new atomic code, or converted to UPF format
     Using radial grid of  819 points,  5 beta functions with:
                l(1) =   0
                l(2) =   0
                l(3) =   1
                l(4) =   1
                l(5) =   2
     Q(r) pseudized with  8 coefficients,  rinner =    1.250   1.250   1.250
                                                       1.250   1.250

     PseudoPot. # 2 for Y  read from file:
     /home/pragov/projects/rrg-bengioy-ad/pragov/crystal_structure_design/SSSP/Y_pbe_v1.uspp.F.UPF
     MD5 check sum: 2cf71db95cafeb975fc457bd7f14888e
     Pseudo is Ultrasoft + core correction, Zval = 11.0
     Generated by new atomic code, or converted to UPF format
     Using radial grid of  885 points,  6 beta functions with:
                l(1) =   0
                l(2) =   0
                l(3) =   1
                l(4) =   1
                l(5) =   2
                l(6) =   2
     Q(r) pseudized with  6 coefficients,  rinner =    1.200   1.200   1.200
                                                       1.200   1.200

     PseudoPot. # 3 for Cl read from file:
     /home/pragov/projects/rrg-bengioy-ad/pragov/crystal_structure_design/SSSP/cl_pbe_v1.4.uspp.F.UPF
     MD5 check sum: fc6f6913ecf08c9257cb748ef0700058
     Pseudo is Ultrasoft + core correction, Zval =  7.0
     Generated by new atomic code, or converted to UPF format
     Using radial grid of  909 points,  6 beta functions with:
                l(1) =   0
                l(2) =   0
                l(3) =   1
                l(4) =   1
                l(5) =   2
                l(6) =   2
     Q(r) pseudized with  8 coefficients,  rinner =    1.300   1.300   1.300
                                                       1.300   1.300

     atomic species   valence    mass     pseudopotential
        Na             9.00    22.98977     Na( 1.00)
        Y             11.00    88.90584     Y ( 1.00)
        Cl             7.00    35.45000     Cl( 1.00)

      2 Sym. Ops., with inversion, found

                                    s                        frac. trans.

      isym =  1     identity

 cryst.   s( 1) = (     1          0          0      )
                  (     0          1          0      )
                  (     0          0          1      )

 cart.    s( 1) = (  1.0000000 -0.0000000 -0.0000000 )
                  (  0.0000000  1.0000000 -0.0000000 )
                  (  0.0000000  0.0000000  1.0000000 )

      isym =  2     inversion

 cryst.   s( 2) = (    -1          0          0      )
                  (     0         -1          0      )
                  (     0          0         -1      )

 cart.    s( 2) = ( -1.0000000  0.0000000  0.0000000 )
                  (  0.0000000 -1.0000000  0.0000000 )
                  (  0.0000000  0.0000000 -1.0000000 )

   Cartesian axes

     site n.     atom                  positions (alat units)
         1           Na  tau(   1) = (   1.6802361   0.9056301   0.6250111  )
         2           Na  tau(   2) = (   1.0497749   0.5658180   0.3904933  )
         3           Na  tau(   3) = (   0.4193137   0.2260058   0.1559755  )
         4           Y   tau(   4) = (   0.0000000   0.0000000   0.0000000  )
         5           Cl  tau(   5) = (   1.2417711   0.4471384   0.6960325  )
         6           Cl  tau(   6) = (   1.0561950   0.9315248   0.4930548  )
         7           Cl  tau(   7) = (   1.3587841   0.5922879   0.1711439  )
         8           Cl  tau(   8) = (   0.7407657   0.5393481   0.6098428  )
         9           Cl  tau(   9) = (   1.0433548   0.2001112   0.2879318  )
        10           Cl  tau(  10) = (   0.8577787   0.6844975   0.0849542  )

   Crystallographic axes

     site n.     atom                  positions (cryst. coord.)
         1           Na  tau(   1) = (  0.8002840  0.8002840  0.8002840  )
         2           Na  tau(   2) = (  0.5000000  0.5000000  0.5000000  )
         3           Na  tau(   3) = (  0.1997160  0.1997160  0.1997160  )
         4           Y   tau(   4) = (  0.0000000  0.0000000  0.0000000  )
         5           Cl  tau(   5) = (  0.6313230  0.2191380  0.8912220  )
         6           Cl  tau(   6) = (  0.2191380  0.8912220  0.6313230  )
         7           Cl  tau(   7) = (  0.8912220  0.6313230  0.2191380  )
         8           Cl  tau(   8) = (  0.1087780  0.3686770  0.7808620  )
         9           Cl  tau(   9) = (  0.7808620  0.1087780  0.3686770  )
        10           Cl  tau(  10) = (  0.3686770  0.7808620  0.1087780  )

     number of k points=    14
                       cart. coord. in units 2pi/alat
        k(    1) = (   0.0000000   0.0000000   0.0000000), wk =   0.0740741
        k(    2) = (   0.0000000   0.0000000   0.4268105), wk =   0.1481481
        k(    3) = (   0.0000000   0.3990521  -0.1514089), wk =   0.1481481
        k(    4) = (   0.0000000   0.3990521   0.2754016), wk =   0.1481481
        k(    5) = (   0.0000000   0.3990521  -0.5782195), wk =   0.1481481
        k(    6) = (   0.3333333  -0.2193888  -0.1514089), wk =   0.1481481
        k(    7) = (   0.3333333  -0.2193888   0.2754016), wk =   0.1481481
        k(    8) = (   0.3333333  -0.2193888  -0.5782195), wk =   0.1481481
        k(    9) = (   0.3333333   0.1796633  -0.3028178), wk =   0.1481481
        k(   10) = (   0.3333333   0.1796633   0.1239927), wk =   0.1481481
        k(   11) = (   0.3333333   0.1796633  -0.7296284), wk =   0.1481481
        k(   12) = (   0.3333333  -0.6184409  -0.0000000), wk =   0.1481481
        k(   13) = (   0.3333333  -0.6184409   0.4268105), wk =   0.1481481
        k(   14) = (   0.3333333  -0.6184409  -0.4268105), wk =   0.1481481

                       cryst. coord.
        k(    1) = (   0.0000000   0.0000000   0.0000000), wk =   0.0740741
        k(    2) = (   0.0000000   0.0000000   0.3333333), wk =   0.1481481
        k(    3) = (   0.0000000   0.3333333  -0.0000000), wk =   0.1481481
        k(    4) = (   0.0000000   0.3333333   0.3333333), wk =   0.1481481
        k(    5) = (   0.0000000   0.3333333  -0.3333333), wk =   0.1481481
        k(    6) = (   0.3333333   0.0000000   0.0000000), wk =   0.1481481
        k(    7) = (   0.3333333   0.0000000   0.3333333), wk =   0.1481481
        k(    8) = (   0.3333333   0.0000000  -0.3333333), wk =   0.1481481
        k(    9) = (   0.3333333   0.3333333  -0.0000000), wk =   0.1481481
        k(   10) = (   0.3333333   0.3333333   0.3333333), wk =   0.1481481
        k(   11) = (   0.3333333   0.3333333  -0.3333333), wk =   0.1481481
        k(   12) = (   0.3333333  -0.3333333   0.0000000), wk =   0.1481481
        k(   13) = (   0.3333333  -0.3333333   0.3333333), wk =   0.1481481
        k(   14) = (   0.3333333  -0.3333333  -0.3333333), wk =   0.1481481

     Check: negative core charge=   -0.000002

     Initial potential from superposition of free atoms

     starting charge      79.9766, renormalised to      80.0000

     negative rho (up, down):  1.345E-01 0.000E+00
     Starting wfcs are   52 randomized atomic wfcs +   12 random wfcs

     Self-consistent Calculation

     iteration #  1     ecut=    30.00 Ry     beta= 0.70
     Davidson diagonalization with overlap

     ethr =  1.00E-02,  avg # of iterations =  6.7

     Threshold (ethr) on eigenvalues was too large:
     Diagonalizing with lowered threshold

     Davidson diagonalization with overlap

[...]

     negative rho (up, down):  1.385E-01 0.000E+00

     total energy              =    -574.63683847 Ry
     estimated scf accuracy    <       0.32051680 Ry

[...]

     total energy              =    -574.74030433 Ry
     estimated scf accuracy    <       0.00000187 Ry

     iteration #  7     ecut=    30.00 Ry     beta= 0.70
     Davidson diagonalization with overlap

     ethr =  2.33E-09,  avg # of iterations =  3.9

     negative rho (up, down):  1.355E-01 0.000E+00

     End of self-consistent calculation

          k = 0.0000 0.0000 0.0000 (  5187 PWs)   bands (ev):

   -48.6159 -48.6155 -48.5746 -40.0293 -20.5302 -20.5296 -20.5198 -20.5198
   -20.5144 -20.5144 -20.4818 -20.4818 -20.4754 -20.0557 -20.0501 -20.0501
   -12.2242 -11.8815 -11.8815 -11.7765 -11.7602 -11.7602  -1.6967  -1.0742
    -1.0742  -1.0594  -0.8663  -0.8663  -0.8538  -0.6434  -0.6434  -0.0989
     0.0202   0.2248   0.2248   0.4130   0.4130   0.4714   0.4714   0.4962
     5.8810   5.9654   5.9654   6.0424   7.8992   7.8992   8.0544   9.2260
     9.3314   9.6358   9.6358  10.0787  10.4603  10.4603  10.7213  10.8923
    10.8923  11.1274  11.1274  11.8062  11.8063  11.8698  12.4238  12.4966

     occupation numbers
     1.0000   1.0000   1.0000   1.0000   1.0000   1.0000   1.0000   1.0000
     1.0000   1.0000   1.0000   1.0000   1.0000   1.0000   1.0000   1.0000
     1.0000   1.0000   1.0000   1.0000   1.0000   1.0000   1.0000   1.0000
     1.0000   1.0000   1.0000   1.0000   1.0000   1.0000   1.0000   1.0000
     1.0000   1.0000   1.0000   1.0000   1.0000   1.0000   1.0000   1.0000
     0.0000   0.0000   0.0000   0.0000   0.0000   0.0000   0.0000   0.0000
     0.0000   0.0000   0.0000   0.0000   0.0000   0.0000   0.0000   0.0000
     0.0000   0.0000   0.0000   0.0000   0.0000   0.0000   0.0000   0.0000

[...]

          k = 0.3333-0.6184-0.4268 (  5191 PWs)   bands (ev):

   -48.6159 -48.6157 -48.5747 -40.0293 -20.5308 -20.5298 -20.5209 -20.5186
   -20.5149 -20.5144 -20.4819 -20.4817 -20.4758 -20.0565 -20.0502 -20.0501
   -12.0544 -11.9550 -11.8905 -11.8368 -11.7928 -11.7680  -1.4802  -1.2590
    -1.1329  -0.9327  -0.8643  -0.7466  -0.5957  -0.4800  -0.3705  -0.1014
    -0.0757  -0.0233   0.0482   0.0682   0.2588   0.3441   0.4409   0.4606
     5.9173   5.9551   6.0158   7.2711   7.5419   8.0508   8.5038   8.6641
     9.0932   9.2436   9.7277   9.7917  10.0872  10.2080  10.7987  10.8532
    11.0259  11.3455  11.4847  11.6338  11.6783  11.9187  12.2262  12.6947

     occupation numbers
     1.0000   1.0000   1.0000   1.0000   1.0000   1.0000   1.0000   1.0000
     1.0000   1.0000   1.0000   1.0000   1.0000   1.0000   1.0000   1.0000
     1.0000   1.0000   1.0000   1.0000   1.0000   1.0000   1.0000   1.0000
     1.0000   1.0000   1.0000   1.0000   1.0000   1.0000   1.0000   1.0000
     1.0000   1.0000   1.0000   1.0000   1.0000   1.0000   1.0000   1.0000
     0.0000   0.0000   0.0000   0.0000   0.0000   0.0000   0.0000   0.0000
     0.0000   0.0000   0.0000   0.0000   0.0000   0.0000   0.0000   0.0000
     0.0000   0.0000   0.0000   0.0000   0.0000   0.0000   0.0000   0.0000

     highest occupied, lowest unoccupied level (ev):     0.5136    5.8445

!    total energy              =    -574.74030511 Ry
     estimated scf accuracy    <       0.00000060 Ry

     The total energy is the sum of the following terms:
     one-electron contribution =    -345.09509449 Ry
     hartree contribution      =     193.96557343 Ry
     xc contribution           =    -121.98696934 Ry
     ewald contribution        =    -301.62381471 Ry

     convergence has been achieved in   7 iterations

     Writing all to output data dir calculations_bands/myprefix.save/

     General routines

     Parallel routines

   This run was terminated on:  10:13: 7   6Jun2023

   JOB DONE.