     Program PWSCF v.7.1 starts on 17Jul2023 at  1:38:45

     Reading input from espresso_26363.pwi
Warning: card &CELL ignored
Warning: card / ignored

     Current dimensions of program PWSCF are:
     Max number of different atomic species (ntypx) = 10
     Max number of k-points (npk) =  40000
     Max angular momentum in pseudopotentials (lmaxx) =  4
     file O.pbe-n-kjpaw_psl.0.1.UPF: wavefunction(s)  2P renormalized

     K-points division:     npool     =       2
     R & G space division:  proc/nbgrp/npool/nimage =       4
     Subspace diagonalization in iterative solution of the eigenvalue problem:
     one sub-group per band group will be used

     Using Slab Decomposition

     bravais-lattice index     =            0
     lattice parameter (alat)  =      10.4288  a.u.
     unit-cell volume          =    1625.2240 (a.u.)^3
     number of atoms/cell      =           18
     number of atomic types    =            3
     number of electrons       =       148.00
     number of Kohn-Sham states=          256
     kinetic-energy cutoff     =      30.0000  Ry
     charge density cutoff     =     240.0000  Ry
     scf convergence threshold =      1.0E-06
     mixing beta               =       0.7000
     number of iterations used =            8  plain     mixing
     Exchange-correlation= SLA  PW   PBX  PBC
                           (   1   4   3   4   0   0   0)

     celldm(1)=  10.428803  celldm(2)=   0.000000  celldm(3)=   0.000000
     celldm(4)=   0.000000  celldm(5)=   0.000000  celldm(6)=   0.000000

     crystal axes: (cart. coord. in units of alat)
               a(1) = (   1.000000   0.000000   0.000000 )
               a(2) = (   0.000132   1.011660   0.000000 )
               a(3) = (   0.000582   0.005135   1.416365 )

     reciprocal axes: (cart. coord. in units 2 pi/alat)
               b(1) = (  1.000000 -0.000131 -0.000410 )
               b(2) = (  0.000000  0.988474 -0.003584 )
               b(3) = (  0.000000  0.000000  0.706033 )

     PseudoPot. # 1 for Ca read from file:
     /lustre07/scratch/pragov/crystal_structure_design/utils/SSSP/Ca_pbe_v1.uspp.F.UPF
     MD5 check sum: 403a4c14b9e4d4dfdc3024c9a3812218
     Pseudo is Ultrasoft + core correction, Zval = 10.0
     Generated by new atomic code, or converted to UPF format
     Using radial grid of  845 points,  6 beta functions with:
                l(1) =   0
                l(2) =   0
                l(3) =   1
                l(4) =   1
                l(5) =   2
                l(6) =   2
     Q(r) pseudized with  8 coefficients,  rinner =    1.500   1.500   1.500
                                                       1.500   1.500

     PseudoPot. # 2 for W  read from file:
     /lustre07/scratch/pragov/crystal_structure_design/utils/SSSP/W_pbe_v1.2.uspp.F.UPF
     MD5 check sum: 9c083fa34c2a2ea0f02f1f893e16e1c8
     Pseudo is Ultrasoft + core correction, Zval = 14.0
     Generated by new atomic code, or converted to UPF format
     Using radial grid of  923 points,  8 beta functions with:
                l(1) =   0
                l(2) =   0
                l(3) =   0
                l(4) =   1
                l(5) =   1
                l(6) =   2
                l(7) =   2
                l(8) =   3
     Q(r) pseudized with  6 coefficients,  rinner =    1.350   1.350   1.350
                                                       1.350   1.350   1.350
                                                       1.350

     PseudoPot. # 3 for O  read from file:
     /lustre07/scratch/pragov/crystal_structure_design/utils/SSSP/O.pbe-n-kjpaw_psl.0.1.UPF
     MD5 check sum: 0234752ac141de4415c5fc33072bef88
     Pseudo is Projector augmented-wave + core cor, Zval =  6.0
     Generated using "atomic" code by A. Dal Corso  v.5.0.99 svn rev. 10869
     Shape of augmentation charge: BESSEL
     Using radial grid of 1095 points,  4 beta functions with:
                l(1) =   0
                l(2) =   0
                l(3) =   1
                l(4) =   1
     Q(r) pseudized with 0 coefficients

     atomic species   valence    mass     pseudopotential
        Ca            10.00    40.07800     Ca( 1.00)
        W             14.00   183.84000     W ( 1.00)
        O              6.00    15.99900     O ( 1.00)

     No symmetry found

                                    s                        frac. trans.

      isym =  1     identity

 cryst.   s( 1) = (     1          0          0      )
                  (     0          1          0      )
                  (     0          0          1      )

 cart.    s( 1) = (  1.0000000  0.0000000 -0.0000000 )
                  (  0.0000000  1.0000000  0.0000000 )
                  (  0.0000000  0.0000000  1.0000000 )

   Cartesian axes

     site n.     atom                  positions (alat units)
         1           Ca  tau(   1) = (   0.5087184   0.5479165   0.3552994  )
         2           Ca  tau(   2) = (   0.0091145   0.9708903   1.0614382  )
         3           W   tau(   3) = (   0.5020805   0.0083198   1.4146003  )
         4           W   tau(   4) = (   0.0008940   0.5046440   1.4159048  )
         5           W   tau(   5) = (   0.0014400   0.5061393   0.7063880  )
         6           W   tau(   6) = (   0.4996003   0.0098424   0.7067251  )
         7           O   tau(   7) = (   0.7036558   0.3031339   0.6487349  )
         8           O   tau(   8) = (   0.1982972   0.2184253   0.7644647  )
         9           O   tau(   9) = (   0.7959929   0.7795978   0.0414046  )
        10           O   tau(  10) = (   0.2811715   0.7246771   1.3813328  )
        11           O   tau(  11) = (   0.2835135   0.7312211   0.7503648  )
        12           O   tau(  12) = (   0.7914537   0.7871517   0.6697297  )
        13           O   tau(  13) = (   0.1909100   0.2204790   1.3579231  )
        14           O   tau(  14) = (   0.7105359   0.3040751   0.0564790  )
        15           O   tau(  15) = (   0.0800246   0.4916072   0.3468381  )
        16           O   tau(  16) = (   0.5748828   0.0190131   1.0535561  )
        17           O   tau(  17) = (   0.4498608   0.9963298   0.3620201  )
        18           O   tau(  18) = (   0.9469741   0.5270596   1.0702947  )

   Crystallographic axes

     site n.     atom                  positions (cryst. coord.)
         1           Ca  tau(   1) = (  0.5085010  0.5403280  0.2508530  )
         2           Ca  tau(   2) = (  0.0085520  0.9558960  0.7494100  )
         3           W   tau(   3) = (  0.5014990  0.0031540  0.9987540  )
         4           W   tau(   4) = (  0.0002470  0.4937530  0.9996750  )
         5           W   tau(   5) = (  0.0010840  0.4977740  0.4987330  )
         6           W   tau(   6) = (  0.4993090  0.0071960  0.4989710  )
         7           O   tau(   7) = (  0.7033500  0.2973150  0.4580280  )
         8           O   tau(   8) = (  0.1979550  0.2131680  0.5397370  )
         9           O   tau(   9) = (  0.7958740  0.7704640  0.0292330  )
        10           O   tau(  10) = (  0.2805100  0.7113740  0.9752660  )
        11           O   tau(  11) = (  0.2831100  0.7201040  0.5297820  )
        12           O   tau(  12) = (  0.7910760  0.7756790  0.4728510  )
        13           O   tau(  13) = (  0.1903240  0.2130710  0.9587380  )
        14           O   tau(  14) = (  0.7104730  0.3003680  0.0398760  )
        15           O   tau(  15) = (  0.0798180  0.4846980  0.2448790  )
        16           O   tau(  16) = (  0.5744480  0.0150180  0.7438450  )
        17           O   tau(  17) = (  0.4495820  0.9835490  0.2555980  )
        18           O   tau(  18) = (  0.9464660  0.5171490  0.7556630  )

     number of k points=    14
                       cart. coord. in units 2pi/alat
        k(    1) = (   0.0000000   0.0000000   0.0000000), wk =   0.0740741
        k(    2) = (   0.0000000   0.0000000   0.2353442), wk =   0.1481481
        k(    3) = (   0.0000000   0.3294915  -0.0011947), wk =   0.1481481
        k(    4) = (   0.0000000   0.3294915   0.2341495), wk =   0.1481481
        k(    5) = (   0.0000000   0.3294915  -0.2365389), wk =   0.1481481
        k(    6) = (   0.3333333  -0.0000436  -0.0001368), wk =   0.1481481
        k(    7) = (   0.3333333  -0.0000436   0.2352074), wk =   0.1481481
        k(    8) = (   0.3333333  -0.0000436  -0.2354810), wk =   0.1481481
        k(    9) = (   0.3333333   0.3294479  -0.0013314), wk =   0.1481481
        k(   10) = (   0.3333333   0.3294479   0.2340128), wk =   0.1481481
        k(   11) = (   0.3333333   0.3294479  -0.2366757), wk =   0.1481481
        k(   12) = (   0.3333333  -0.3295350   0.0010579), wk =   0.1481481
        k(   13) = (   0.3333333  -0.3295350   0.2364021), wk =   0.1481481
        k(   14) = (   0.3333333  -0.3295350  -0.2342863), wk =   0.1481481

                       cryst. coord.
        k(    1) = (   0.0000000   0.0000000   0.0000000), wk =   0.0740741
        k(    2) = (   0.0000000   0.0000000   0.3333333), wk =   0.1481481
        k(    3) = (   0.0000000   0.3333333  -0.0000000), wk =   0.1481481
        k(    4) = (   0.0000000   0.3333333   0.3333333), wk =   0.1481481
        k(    5) = (   0.0000000   0.3333333  -0.3333333), wk =   0.1481481
        k(    6) = (   0.3333333   0.0000000  -0.0000000), wk =   0.1481481
        k(    7) = (   0.3333333   0.0000000   0.3333333), wk =   0.1481481
        k(    8) = (   0.3333333   0.0000000  -0.3333333), wk =   0.1481481
        k(    9) = (   0.3333333   0.3333333   0.0000000), wk =   0.1481481
        k(   10) = (   0.3333333   0.3333333   0.3333333), wk =   0.1481481
        k(   11) = (   0.3333333   0.3333333  -0.3333333), wk =   0.1481481
        k(   12) = (   0.3333333  -0.3333333   0.0000000), wk =   0.1481481
        k(   13) = (   0.3333333  -0.3333333   0.3333333), wk =   0.1481481
        k(   14) = (   0.3333333  -0.3333333  -0.3333333), wk =   0.1481481

     Check: negative core charge=   -0.000010

     Initial potential from superposition of free atoms

     starting charge     147.5877, renormalised to     148.0000

     negative rho (up, down):  2.525E-01 0.000E+00
     Starting wfcs are  120 randomized atomic wfcs +  136 random wfcs
     Checking if some PAW data can be deallocated...

     Self-consistent Calculation

     iteration #  1     ecut=    30.00 Ry     beta= 0.70
     Davidson diagonalization with overlap

     ethr =  1.00E-02,  avg # of iterations =  6.0

     negative rho (up, down):  2.407E-01 0.000E+00

     total energy              =   -1284.12245877 Ry
     estimated scf accuracy    <       5.19687510 Ry

[...]

     total energy              =   -1286.88316010 Ry
     estimated scf accuracy    <       0.00001625 Ry

     iteration # 14     ecut=    30.00 Ry     beta= 0.70
     Davidson diagonalization with overlap

     ethr =  1.10E-08,  avg # of iterations =  1.0

     negative rho (up, down):  2.455E-01 0.000E+00

     End of self-consistent calculation

          k = 0.0000 0.0000 0.0000 (  4493 PWs)   bands (ev):

   -66.1145 -66.0809 -65.9903 -65.9118 -30.7972 -30.7371 -30.4027 -30.3998
   -30.3441 -30.3055 -30.2981 -30.2309 -30.2187 -30.2099 -30.1496 -30.1333
   -30.0597 -29.9777 -12.0120 -11.9378 -11.9249 -11.8833 -11.8756 -11.8645
   -10.2563  -9.6807  -9.6476  -9.3974  -9.3689  -9.3447  -8.7408  -8.6483
    -8.6263  -8.5890  -8.5411  -8.5021   1.7837   1.9365   1.9619   2.0355
     2.0733   2.1149   2.8431   3.1550   3.1884   3.1912   4.4039   4.4189
     4.6618   4.6952   4.8828   4.9045   4.9585   5.2508   5.3504   5.3830
     5.6760   5.7127   5.9911   6.1430   6.3614   6.4372   6.5011   6.6905
     6.6985   6.7420   6.8531   6.8868   7.2804   7.3289   7.3695   7.4158
     9.0558   9.2043   9.2522   9.3856  11.1747  11.2172  11.6545  11.7303
    11.8439  12.1000  12.2648  12.8113  13.4594  13.5918  13.6075  13.7391
    14.0399  14.4967  14.5283  14.5624  14.5721  14.6646  14.8884  15.0838
    15.2791  15.3814  15.7181  15.8802  17.3729  17.4792  18.2648  18.4334
    18.4557  18.6816  18.7731  19.0240  19.0680  20.5963  21.1182  21.3707
    21.4636  21.7204  21.8083  21.8348  21.9949  22.0296  22.6734  22.7116
    22.9300  22.9654  23.0387  23.3758  23.5286  23.5966  23.9880  24.2526
    24.2971  24.4748  24.7937  24.9287  25.2124  26.7297  26.9714  27.1801
    27.5105  27.6104  27.6396  27.7811  28.3475  28.7345  29.3953  29.5163
    29.8469  29.9813  30.1924  30.7566  30.8042  30.8738  30.9834  31.0972
    31.5304  31.6413  31.6925  31.8944  31.9716  32.1204  32.3711  32.5785
    32.6048  32.7334  32.9895  33.4196  33.5256  33.5894  34.0904  34.4690
    35.1478  35.5860  35.9000  35.9633  36.0307  36.1628  36.2656  36.4465
    36.8200  36.9151  37.2492  37.2643  37.6374  37.7226  37.7736  38.0524
    38.2337  38.2915  38.5545  38.7859  39.0611  39.0854  39.1161  39.3920
    39.4257  39.5585  39.5841  39.9653  40.4247  40.5868  40.7422  40.8434
    40.9246  41.1186  41.1764  41.2729  41.4182  41.5225  41.5863  41.7268
    41.8792  42.0692  42.2062  42.4503  42.9064  43.1003  43.2056  43.3560
    43.5286  43.6195  43.6850  43.7353  44.2680  44.4386  44.7307  44.7782
    45.0019  45.3025  45.4845  45.6287  45.8271  46.0395  46.3270  46.4260
    46.5137  46.5666  46.7558  46.9361  47.0003  47.1292  47.2705  47.4200
    47.5701  47.6974  47.7606  48.0883  48.1727  48.2236  48.4772  48.6611
    48.9114  49.0642  49.2308  49.6543  49.9659  50.2097  50.2978  50.4215

     occupation numbers
     1.0000   1.0000   1.0000   1.0000   1.0000   1.0000   1.0000   1.0000
     1.0000   1.0000   1.0000   1.0000   1.0000   1.0000   1.0000   1.0000
     1.0000   1.0000   1.0000   1.0000   1.0000   1.0000   1.0000   1.0000
     1.0000   1.0000   1.0000   1.0000   1.0000   1.0000   1.0000   1.0000
     1.0000   1.0000   1.0000   1.0000   1.0000   1.0000   1.0000   1.0000
     1.0000   1.0000   1.0000   1.0000   1.0000   1.0000   1.0000   1.0000
     1.0000   1.0000   1.0000   1.0000   1.0000   1.0000   1.0000   1.0000
     1.0000   1.0000   1.0000   1.0000   1.0000   1.0000   1.0000   1.0000
     1.0000   1.0000   1.0000   1.0000   1.0000   1.0000   1.0000   1.0000
     1.0000   1.0000   0.0000   0.0000   0.0000   0.0000   0.0000   0.0000
     0.0000   0.0000   0.0000   0.0000   0.0000   0.0000   0.0000   0.0000
     0.0000   0.0000   0.0000   0.0000   0.0000   0.0000   0.0000   0.0000
     0.0000   0.0000   0.0000   0.0000   0.0000   0.0000   0.0000   0.0000
     0.0000   0.0000   0.0000   0.0000   0.0000   0.0000   0.0000   0.0000
     0.0000   0.0000   0.0000   0.0000   0.0000   0.0000   0.0000   0.0000
     0.0000   0.0000   0.0000   0.0000   0.0000   0.0000   0.0000   0.0000
     0.0000   0.0000   0.0000   0.0000   0.0000   0.0000   0.0000   0.0000
     0.0000   0.0000   0.0000   0.0000   0.0000   0.0000   0.0000   0.0000
     0.0000   0.0000   0.0000   0.0000   0.0000   0.0000   0.0000   0.0000
     0.0000   0.0000   0.0000   0.0000   0.0000   0.0000   0.0000   0.0000
     0.0000   0.0000   0.0000   0.0000   0.0000   0.0000   0.0000   0.0000
     0.0000   0.0000   0.0000   0.0000   0.0000   0.0000   0.0000   0.0000
     0.0000   0.0000   0.0000   0.0000   0.0000   0.0000   0.0000   0.0000
     0.0000   0.0000   0.0000   0.0000   0.0000   0.0000   0.0000   0.0000
     0.0000   0.0000   0.0000   0.0000   0.0000   0.0000   0.0000   0.0000
     0.0000   0.0000   0.0000   0.0000   0.0000   0.0000   0.0000   0.0000
     0.0000   0.0000   0.0000   0.0000   0.0000   0.0000   0.0000   0.0000
     0.0000   0.0000   0.0000   0.0000   0.0000   0.0000   0.0000   0.0000
     0.0000   0.0000   0.0000   0.0000   0.0000   0.0000   0.0000   0.0000
     0.0000   0.0000   0.0000   0.0000   0.0000   0.0000   0.0000   0.0000
     0.0000   0.0000   0.0000   0.0000   0.0000   0.0000   0.0000   0.0000
     0.0000   0.0000   0.0000   0.0000   0.0000   0.0000   0.0000   0.0000

[...]

          k = 0.3333-0.3295-0.2343 (  4527 PWs)   bands (ev):

   -66.1146 -66.0810 -65.9903 -65.9118 -30.7991 -30.7394 -30.3993 -30.3984
   -30.3424 -30.3018 -30.2968 -30.2369 -30.2187 -30.2090 -30.1496 -30.1328
   -30.0609 -29.9809 -11.9836 -11.9812 -11.9542 -11.9121 -11.8987 -11.8733
    -9.7110  -9.6146  -9.5207  -9.4148  -9.3189  -9.2291  -8.9539  -8.8684
    -8.8070  -8.7350  -8.6405  -8.5822   1.9509   1.9845   2.5430   2.5626
     2.6096   2.7178   3.2313   3.3869   3.7734   3.8276   3.9462   4.0330
     4.1673   4.2411   4.4349   4.5035   4.6113   4.8071   4.9728   5.1918
     5.3599   5.4615   5.7749   5.8298   5.8773   6.0031   6.2089   6.3071
     6.4353   6.5538   6.6541   6.6980   6.7269   6.7816   7.2815   7.3384
     9.9072  10.3180  10.7757  10.8458  11.0247  11.1572  11.3922  11.6295
    11.6724  11.8344  11.9078  12.2192  13.7359  13.8310  14.3084  14.3769
    14.6495  14.7169  14.8377  15.0005  15.1659  15.2011  15.3194  15.4170
    15.5945  15.7237  15.8264  16.0927  16.8098  17.1291  17.3518  17.7197
    17.7585  18.1081  18.6108  18.9616  19.4270  19.6885  20.0393  20.1529
    21.3559  21.7123  21.9539  22.0808  22.2413  22.4474  22.5844  22.8240
    22.8918  23.0781  23.5153  23.6441  24.0191  24.2169  24.4220  24.5990
    24.7159  24.9155  25.1034  25.3288  25.7775  25.8989  26.3200  26.6401
    26.9986  27.4956  27.7538  27.8379  28.0578  28.4422  28.9210  29.1718
    29.2606  29.4913  29.6533  29.8892  30.2587  30.4104  30.6514  30.8757
    31.3237  31.5022  31.5896  31.6823  32.0817  32.3057  32.5340  32.6367
    33.0117  33.1059  33.3433  33.5871  33.9349  34.0891  34.2890  34.4954
    34.6936  34.9898  35.3307  35.4718  35.5741  35.9070  36.2021  36.3004
    36.5721  36.8145  36.9031  37.1127  37.2633  37.6385  37.8200  37.8423
    38.1091  38.2162  38.4601  38.6560  39.0106  39.2268  39.3523  39.4876
    39.6362  39.7765  40.0910  40.2294  40.6195  40.7408  40.9708  41.1427
    41.3663  41.6209  41.7029  41.8449  41.9832  42.1763  42.2848  42.5794
    42.6920  42.7718  43.1131  43.2112  43.3183  43.4067  43.5997  43.7148
    43.9474  44.0893  44.1594  44.3847  44.4986  44.6151  44.7819  44.9238
    45.1530  45.4351  45.5058  45.6795  45.8194  45.9279  46.0341  46.1616
    46.2324  46.4750  46.5369  46.7985  46.8932  47.1196  47.3279  47.4737
    47.5697  47.7550  47.8867  48.0597  48.1815  48.3162  48.4099  48.7630
    48.9969  49.0760  49.1988  49.3442  49.4327  49.6330  49.8136  49.9035

     occupation numbers
     1.0000   1.0000   1.0000   1.0000   1.0000   1.0000   1.0000   1.0000
     1.0000   1.0000   1.0000   1.0000   1.0000   1.0000   1.0000   1.0000
     1.0000   1.0000   1.0000   1.0000   1.0000   1.0000   1.0000   1.0000
     1.0000   1.0000   1.0000   1.0000   1.0000   1.0000   1.0000   1.0000
     1.0000   1.0000   1.0000   1.0000   1.0000   1.0000   1.0000   1.0000
     1.0000   1.0000   1.0000   1.0000   1.0000   1.0000   1.0000   1.0000
     1.0000   1.0000   1.0000   1.0000   1.0000   1.0000   1.0000   1.0000
     1.0000   1.0000   1.0000   1.0000   1.0000   1.0000   1.0000   1.0000
     1.0000   1.0000   1.0000   1.0000   1.0000   1.0000   1.0000   1.0000
     1.0000   1.0000   0.0000   0.0000   0.0000   0.0000   0.0000   0.0000
     0.0000   0.0000   0.0000   0.0000   0.0000   0.0000   0.0000   0.0000
     0.0000   0.0000   0.0000   0.0000   0.0000   0.0000   0.0000   0.0000
     0.0000   0.0000   0.0000   0.0000   0.0000   0.0000   0.0000   0.0000
     0.0000   0.0000   0.0000   0.0000   0.0000   0.0000   0.0000   0.0000
     0.0000   0.0000   0.0000   0.0000   0.0000   0.0000   0.0000   0.0000
     0.0000   0.0000   0.0000   0.0000   0.0000   0.0000   0.0000   0.0000
     0.0000   0.0000   0.0000   0.0000   0.0000   0.0000   0.0000   0.0000
     0.0000   0.0000   0.0000   0.0000   0.0000   0.0000   0.0000   0.0000
     0.0000   0.0000   0.0000   0.0000   0.0000   0.0000   0.0000   0.0000
     0.0000   0.0000   0.0000   0.0000   0.0000   0.0000   0.0000   0.0000
     0.0000   0.0000   0.0000   0.0000   0.0000   0.0000   0.0000   0.0000
     0.0000   0.0000   0.0000   0.0000   0.0000   0.0000   0.0000   0.0000
     0.0000   0.0000   0.0000   0.0000   0.0000   0.0000   0.0000   0.0000
     0.0000   0.0000   0.0000   0.0000   0.0000   0.0000   0.0000   0.0000
     0.0000   0.0000   0.0000   0.0000   0.0000   0.0000   0.0000   0.0000
     0.0000   0.0000   0.0000   0.0000   0.0000   0.0000   0.0000   0.0000
     0.0000   0.0000   0.0000   0.0000   0.0000   0.0000   0.0000   0.0000
     0.0000   0.0000   0.0000   0.0000   0.0000   0.0000   0.0000   0.0000
     0.0000   0.0000   0.0000   0.0000   0.0000   0.0000   0.0000   0.0000
     0.0000   0.0000   0.0000   0.0000   0.0000   0.0000   0.0000   0.0000
     0.0000   0.0000   0.0000   0.0000   0.0000   0.0000   0.0000   0.0000
     0.0000   0.0000   0.0000   0.0000   0.0000   0.0000   0.0000   0.0000

     highest occupied, lowest unoccupied level (ev):    10.3340    9.2522

!    total energy              =   -1286.88316137 Ry
     estimated scf accuracy    <       0.00000085 Ry

     The total energy is the sum of the following terms:
     one-electron contribution =    -425.78776303 Ry
     hartree contribution      =     279.00456434 Ry
     xc contribution           =    -277.26535186 Ry
     ewald contribution        =    -748.58138049 Ry
     one-center paw contrib.   =    -114.25323034 Ry
      -> PAW hartree energy AE =       0.00000000 Ry
      -> PAW hartree energy PS =       0.00000000 Ry
      -> PAW xc energy AE      =       0.00000000 Ry
      -> PAW xc energy PS      =       0.00000000 Ry
      -> total E_H with PAW    =     279.00456434 Ry
      -> total E_XC with PAW   =    -277.26535186 Ry

     convergence has been achieved in  14 iterations

     Writing all to output data dir bands_nm/myprefix.save/

     General routines

     Parallel routines

     PAW routines

   This run was terminated on:   1:40:57  17Jul2023

   JOB DONE.