     Program PWSCF v.7.1 starts on 17Jul2023 at  3:45:51

     Reading input from espresso_22295.pwi
Warning: card &CELL ignored
Warning: card / ignored

     Current dimensions of program PWSCF are:
     Max number of different atomic species (ntypx) = 10
     Max number of k-points (npk) =  40000
     Max angular momentum in pseudopotentials (lmaxx) =  4
     file Pr.paw.z_13.atompaw.wentzcovitch.v1.2.upf: wavefunction(s)  6S 0P 5D 0D 4F 0F renormalized
     file O.pbe-n-kjpaw_psl.0.1.UPF: wavefunction(s)  2P renormalized
     Message from routine setup:
     using ibrav=0 with symmetry is DISCOURAGED, use correct ibrav instead

     K-points division:     npool     =       2
     R & G space division:  proc/nbgrp/npool/nimage =       4
     Subspace diagonalization in iterative solution of the eigenvalue problem:
     one sub-group per band group will be used

     Using Slab Decomposition

     bravais-lattice index     =            0
     lattice parameter (alat)  =      14.0042  a.u.
     unit-cell volume          =    3274.0664 (a.u.)^3
     number of atoms/cell      =           20
     number of atomic types    =            3
     number of electrons       =       176.00
     number of Kohn-Sham states=          256
     kinetic-energy cutoff     =      30.0000  Ry
     charge density cutoff     =     240.0000  Ry
     scf convergence threshold =      1.0E-06
     mixing beta               =       0.7000
     number of iterations used =            8  plain     mixing
     Exchange-correlation= SLA  PW   PBX  PBC
                           (   1   4   3   4   0   0   0)

     celldm(1)=  14.004176  celldm(2)=   0.000000  celldm(3)=   0.000000
     celldm(4)=   0.000000  celldm(5)=   0.000000  celldm(6)=   0.000000

     crystal axes: (cart. coord. in units of alat)
               a(1) = (   1.000000   0.000000   0.000000 )
               a(2) = (   0.000000   1.001624   0.000000 )
               a(3) = (   0.000000   0.204289   1.190173 )

     reciprocal axes: (cart. coord. in units 2 pi/alat)
               b(1) = (  1.000000  0.000000  0.000000 )
               b(2) = (  0.000000  0.998378 -0.171369 )
               b(3) = (  0.000000  0.000000  0.840214 )

     PseudoPot. # 1 for Pr read from file:
     /lustre07/scratch/pragov/crystal_structure_design/utils/SSSP/Pr.paw.z_13.atompaw.wentzcovitch.v1.2.upf
     MD5 check sum: e0f8e046fa815e336ba020f7e7bc75cb
     Pseudo is Projector augmented-wave + core cor, Zval = 13.0
     Generated using ATOMPAW code
     Shape of augmentation charge: BESSEL
     Using radial grid of 1103 points,  8 beta functions with:
                l(1) =   0
                l(2) =   0
                l(3) =   1
                l(4) =   1
                l(5) =   2
                l(6) =   2
                l(7) =   3
                l(8) =   3
     Q(r) pseudized with 0 coefficients

     PseudoPot. # 2 for Se read from file:
     /lustre07/scratch/pragov/crystal_structure_design/utils/SSSP/Se_pbe_v1.uspp.F.UPF
     MD5 check sum: 1b3568f3a8ae88f9a2a0ad0698632c85
     Pseudo is Ultrasoft + core correction, Zval =  6.0
     Generated by new atomic code, or converted to UPF format
     Using radial grid of  877 points,  6 beta functions with:
                l(1) =   0
                l(2) =   0
                l(3) =   1
                l(4) =   1
                l(5) =   2
                l(6) =   2
     Q(r) pseudized with  8 coefficients,  rinner =    1.300   1.300   1.300
                                                       1.300   1.300

     PseudoPot. # 3 for O  read from file:
     /lustre07/scratch/pragov/crystal_structure_design/utils/SSSP/O.pbe-n-kjpaw_psl.0.1.UPF
     MD5 check sum: 0234752ac141de4415c5fc33072bef88
     Pseudo is Projector augmented-wave + core cor, Zval =  6.0
     Generated using "atomic" code by A. Dal Corso  v.5.0.99 svn rev. 10869
     Shape of augmentation charge: BESSEL
     Using radial grid of 1095 points,  4 beta functions with:
                l(1) =   0
                l(2) =   0
                l(3) =   1
                l(4) =   1
     Q(r) pseudized with 0 coefficients

     atomic species   valence    mass     pseudopotential
        Pr            13.00   140.90766     Pr( 1.00)
        Se             6.00    78.97100     Se( 1.00)
        O              6.00    15.99900     O ( 1.00)

      4 Sym. Ops., with inversion, found ( 2 have fractional translation)

                                    s                        frac. trans.

      isym =  1     identity

 cryst.   s( 1) = (     1          0          0      )
                  (     0          1          0      )
                  (     0          0          1      )

 cart.    s( 1) = (  1.0000000  0.0000000  0.0000000 )
                  (  0.0000000  1.0000000  0.0000000 )
                  (  0.0000000  0.0000000  1.0000000 )

      isym =  2     180 deg rotation - cart. axis [1,0,0]

 cryst.   s( 2) = (     1          0          0      )    f =( -0.5000000 )
                  (     0         -1          0      )       ( -0.5000000 )
                  (     0          0         -1      )       (  0.0000000 )

 cart.    s( 2) = (  1.0000000  0.0000000  0.0000000 )    f =( -0.5000000 )
                  (  0.0000000 -1.0000000  0.0000000 )       ( -0.5008121 )
                  (  0.0000000  0.0000000 -1.0000000 )       (  0.0000000 )

      isym =  3     inversion

 cryst.   s( 3) = (    -1          0          0      )
                  (     0         -1          0      )
                  (     0          0         -1      )

 cart.    s( 3) = ( -1.0000000  0.0000000  0.0000000 )
                  (  0.0000000 -1.0000000  0.0000000 )
                  (  0.0000000  0.0000000 -1.0000000 )

      isym =  4     inv. 180 deg rotation - cart. axis [1,0,0]

 cryst.   s( 4) = (    -1          0          0      )    f =(  0.5000000 )
                  (     0          1          0      )       (  0.5000000 )
                  (     0          0          1      )       (  0.0000000 )

 cart.    s( 4) = ( -1.0000000  0.0000000  0.0000000 )    f =(  0.5000000 )
                  (  0.0000000  1.0000000  0.0000000 )       (  0.5008121 )
                  (  0.0000000  0.0000000  1.0000000 )       (  0.0000000 )

   Cartesian axes

     site n.     atom                  positions (alat units)
         1           Pr  tau(   1) = (   0.0520660   0.7767259   0.1700507  )
         2           Pr  tau(   2) = (   0.5520660   0.9300000   1.0201219  )
         3           Pr  tau(   3) = (   0.9479340   0.4291878   1.0201219  )
         4           Pr  tau(   4) = (   0.4479340   0.2759138   0.1700507  )
         5           Pr  tau(   5) = (   0.1478040   0.7917409   0.6838303  )
         6           Pr  tau(   6) = (   0.6478040   0.9149849   0.5063422  )
         7           Pr  tau(   7) = (   0.8521960   0.4141728   0.5063422  )
         8           Pr  tau(   8) = (   0.3521960   0.2909288   0.6838303  )
         9           Se  tau(   9) = (   0.7222960   0.9884784   0.0914898  )
        10           Se  tau(  10) = (   0.6291070   0.5699145   0.8091233  )
        11           Se  tau(  11) = (   0.3708930   0.6359992   0.3810492  )
        12           Se  tau(  12) = (   0.8708930   1.0707266   0.8091233  )
        13           Se  tau(  13) = (   0.2222960   0.7182474   1.0986828  )
        14           Se  tau(  14) = (   0.2777040   0.2174353   1.0986828  )
        15           Se  tau(  15) = (   0.7777040   0.4876663   0.0914898  )
        16           Se  tau(  16) = (   0.1291070   0.1351871   0.3810492  )
        17           O   tau(  17) = (   0.0850910   0.4766605   0.7310183  )
        18           O   tau(  18) = (   0.4149090   0.9774727   0.7310183  )
        19           O   tau(  19) = (   0.9149090   0.7292532   0.4591543  )
        20           O   tau(  20) = (   0.5850910   0.2284411   0.4591543  )

   Crystallographic axes

     site n.     atom                  positions (cryst. coord.)
         1           Pr  tau(   1) = (  0.0520660  0.7463250  0.1428790  )
         2           Pr  tau(   2) = (  0.5520660  0.7536750  0.8571210  )
         3           Pr  tau(   3) = (  0.9479340  0.2536750  0.8571210  )
         4           Pr  tau(   4) = (  0.4479340  0.2463250  0.1428790  )
         5           Pr  tau(   5) = (  0.1478040  0.6732700  0.5745640  )
         6           Pr  tau(   6) = (  0.6478040  0.8267300  0.4254360  )
         7           Pr  tau(   7) = (  0.8521960  0.3267300  0.4254360  )
         8           Pr  tau(   8) = (  0.3521960  0.1732700  0.5745640  )
         9           Se  tau(   9) = (  0.7222960  0.9711970  0.0768710  )
        10           Se  tau(  10) = (  0.6291070  0.4303320  0.6798370  )
        11           Se  tau(  11) = (  0.3708930  0.5696680  0.3201630  )
        12           Se  tau(  12) = (  0.8708930  0.9303320  0.6798370  )
        13           Se  tau(  13) = (  0.2222960  0.5288030  0.9231290  )
        14           Se  tau(  14) = (  0.2777040  0.0288030  0.9231290  )
        15           Se  tau(  15) = (  0.7777040  0.4711970  0.0768710  )
        16           Se  tau(  16) = (  0.1291070  0.0696680  0.3201630  )
        17           O   tau(  17) = (  0.0850910  0.3506140  0.6142120  )
        18           O   tau(  18) = (  0.4149090  0.8506140  0.6142120  )
        19           O   tau(  19) = (  0.9149090  0.6493860  0.3857880  )
        20           O   tau(  20) = (  0.5850910  0.1493860  0.3857880  )

     number of k points=    10
                       cart. coord. in units 2pi/alat
        k(    1) = (   0.0000000   0.0000000   0.0000000), wk =   0.0740741
        k(    2) = (   0.0000000   0.0000000   0.2800714), wk =   0.1481481
        k(    3) = (   0.0000000   0.3327928  -0.0571229), wk =   0.1481481
        k(    4) = (   0.0000000   0.3327928   0.2229486), wk =   0.1481481
        k(    5) = (   0.0000000   0.3327928  -0.3371943), wk =   0.1481481
        k(    6) = (   0.3333333   0.0000000   0.0000000), wk =   0.1481481
        k(    7) = (   0.3333333   0.0000000   0.2800714), wk =   0.2962963
        k(    8) = (   0.3333333   0.3327928  -0.0571229), wk =   0.2962963
        k(    9) = (   0.3333333   0.3327928   0.2229486), wk =   0.2962963
        k(   10) = (   0.3333333   0.3327928  -0.3371943), wk =   0.2962963

                       cryst. coord.
        k(    1) = (   0.0000000   0.0000000   0.0000000), wk =   0.0740741
        k(    2) = (   0.0000000   0.0000000   0.3333333), wk =   0.1481481
        k(    3) = (   0.0000000   0.3333333  -0.0000000), wk =   0.1481481
        k(    4) = (   0.0000000   0.3333333   0.3333333), wk =   0.1481481
        k(    5) = (   0.0000000   0.3333333  -0.3333333), wk =   0.1481481
        k(    6) = (   0.3333333   0.0000000   0.0000000), wk =   0.1481481
        k(    7) = (   0.3333333   0.0000000   0.3333333), wk =   0.2962963
        k(    8) = (   0.3333333   0.3333333  -0.0000000), wk =   0.2962963
        k(    9) = (   0.3333333   0.3333333   0.3333333), wk =   0.2962963
        k(   10) = (   0.3333333   0.3333333  -0.3333333), wk =   0.2962963

     Check: negative core charge=   -0.000003

     Initial potential from superposition of free atoms

     starting charge     175.9401, renormalised to     176.0000
     Starting wfcs are  304 randomized atomic wfcs
     Checking if some PAW data can be deallocated...

     Self-consistent Calculation

     iteration #  1     ecut=    30.00 Ry     beta= 0.70
     Davidson diagonalization with overlap

     ethr =  1.00E-02,  avg # of iterations =  9.1

     total energy              =   -4568.06517159 Ry
     estimated scf accuracy    <      17.58706843 Ry

[...]

     total energy              =   -4584.42482600 Ry
     estimated scf accuracy    <       0.00000298 Ry

     iteration #126     ecut=    30.00 Ry     beta= 0.70
     Davidson diagonalization with overlap

     ethr =  6.79E-10,  avg # of iterations =  1.1

     End of self-consistent calculation

          k = 0.0000 0.0000 0.0000 (  9075 PWs)   bands (ev):

   -26.3090 -26.2808 -26.2788 -26.2758 -26.2622 -26.2347 -26.2337 -26.2321
   -10.7792 -10.1804 -10.1527  -9.7276  -8.6483  -8.5999  -8.5577  -8.5274
    -8.5195  -8.4567  -8.4488  -8.4417  -8.3959  -8.3611  -8.3549  -8.3467
    -8.3378  -8.2578  -8.2236  -8.2045  -8.2000  -8.1623  -8.1392  -8.1356
    -7.4007  -6.7829  -6.7817  -5.9543  -3.3394  -2.7314  -2.6397  -2.6300
    -2.6252  -2.5890  -2.5128  -2.4940   4.5629   4.8154   4.9330   5.1310
     5.2211   5.2879   5.3735   5.4596   5.4626   5.5628   5.7203   5.7482
     5.7666   6.0767   6.1217   6.1272   6.1499   6.3387   6.3654   6.5709
     6.8895   6.9378   6.9493   7.0591   7.0622   7.2435   7.2938   7.4043
     7.5084   7.5277   7.6490   7.7199   7.9608   8.2028   8.2417   8.4178
     9.8087   9.8282   9.8316   9.8331   9.8447   9.8605   9.8695   9.8745
     9.8856   9.8933   9.8959   9.8962   9.8977   9.9221   9.9281   9.9365
     9.9457   9.9474   9.9507   9.9642   9.9831   9.9860   9.9901   9.9945
    10.0042  10.0134  10.0176  10.0329  10.0335  10.0427  10.0484  10.0608
    10.0667  10.0674  10.0760  10.0924  10.0971  10.1026  10.1054  10.1201
    10.1226  10.1296  10.1590  10.1681  10.1828  10.1843  10.1981  10.2118
    10.2162  10.2381  10.2581  10.2949  10.3072  10.3241  10.3489  10.3697
    11.1065  11.5222  11.5430  11.8683  11.9727  12.2180  12.2336  12.4011
    12.4550  12.7024  12.7330  12.7540  12.8246  12.9368  12.9605  12.9946
    13.2041  13.2331  13.2712  13.4768  13.5764  13.6065  13.6539  13.8619
    13.9363  13.9977  14.2106  14.2209  14.3921  14.5951  14.7055  14.7785
    14.8436  14.8960  15.0131  15.1012  15.1023  15.1311  15.4572  15.5038
    15.5809  15.6060  16.1695  16.3399  16.4789  16.6249  16.8328  17.1639
    17.6668  17.7306  17.9051  17.9944  18.1699  18.3041  18.4967  18.5980
    18.6438  18.7540  18.9552  19.1644  19.2609  19.3319  19.3425  19.7014
    19.7497  19.8360  19.9619  20.1074  20.1988  20.2924  20.8785  20.8915
    20.9542  21.0908  21.1411  21.3573  21.6279  21.6362  21.7748  21.8289
    22.0191  22.2196  22.5037  22.5280  22.8271  22.8855  23.0006  23.0701
    23.4159  23.7096  23.7509  24.0157  24.1975  24.2695  24.2855  24.3632
    24.5755  24.6493  24.8254  24.9814  25.1232  25.2181  25.2425  25.3342
    25.3956  25.6567  26.0261  26.0769  26.1219  26.2311  26.4132  26.6186
    26.6218  26.6824  26.7040  26.8497  27.0652  27.1125  27.1734  27.1814

     occupation numbers
     1.0000   1.0000   1.0000   1.0000   1.0000   1.0000   1.0000   1.0000
     1.0000   1.0000   1.0000   1.0000   1.0000   1.0000   1.0000   1.0000
     1.0000   1.0000   1.0000   1.0000   1.0000   1.0000   1.0000   1.0000
     1.0000   1.0000   1.0000   1.0000   1.0000   1.0000   1.0000   1.0000
     1.0000   1.0000   1.0000   1.0000   1.0000   1.0000   1.0000   1.0000
     1.0000   1.0000   1.0000   1.0000   1.0000   1.0000   1.0000   1.0000
     1.0000   1.0000   1.0000   1.0000   1.0000   1.0000   1.0000   1.0000
     1.0000   1.0000   1.0000   1.0000   1.0000   1.0000   1.0000   1.0000
     1.0000   1.0000   1.0000   1.0000   1.0000   1.0000   1.0000   1.0000
     1.0000   1.0000   1.0000   1.0000   1.0000   1.0000   1.0000   1.0000
     1.0000   1.0000   1.0000   1.0000   1.0000   1.0000   1.0000   1.0000
     0.0000   0.0000   0.0000   0.0000   0.0000   0.0000   0.0000   0.0000
     0.0000   0.0000   0.0000   0.0000   0.0000   0.0000   0.0000   0.0000
     0.0000   0.0000   0.0000   0.0000   0.0000   0.0000   0.0000   0.0000
     0.0000   0.0000   0.0000   0.0000   0.0000   0.0000   0.0000   0.0000
     0.0000   0.0000   0.0000   0.0000   0.0000   0.0000   0.0000   0.0000
     0.0000   0.0000   0.0000   0.0000   0.0000   0.0000   0.0000   0.0000
     0.0000   0.0000   0.0000   0.0000   0.0000   0.0000   0.0000   0.0000
     0.0000   0.0000   0.0000   0.0000   0.0000   0.0000   0.0000   0.0000
     0.0000   0.0000   0.0000   0.0000   0.0000   0.0000   0.0000   0.0000
     0.0000   0.0000   0.0000   0.0000   0.0000   0.0000   0.0000   0.0000
     0.0000   0.0000   0.0000   0.0000   0.0000   0.0000   0.0000   0.0000
     0.0000   0.0000   0.0000   0.0000   0.0000   0.0000   0.0000   0.0000
     0.0000   0.0000   0.0000   0.0000   0.0000   0.0000   0.0000   0.0000
     0.0000   0.0000   0.0000   0.0000   0.0000   0.0000   0.0000   0.0000
     0.0000   0.0000   0.0000   0.0000   0.0000   0.0000   0.0000   0.0000
     0.0000   0.0000   0.0000   0.0000   0.0000   0.0000   0.0000   0.0000
     0.0000   0.0000   0.0000   0.0000   0.0000   0.0000   0.0000   0.0000
     0.0000   0.0000   0.0000   0.0000   0.0000   0.0000   0.0000   0.0000
     0.0000   0.0000   0.0000   0.0000   0.0000   0.0000   0.0000   0.0000
     0.0000   0.0000   0.0000   0.0000   0.0000   0.0000   0.0000   0.0000
     0.0000   0.0000   0.0000   0.0000   0.0000   0.0000   0.0000   0.0000

[...]

          k = 0.3333 0.3328-0.3372 (  9099 PWs)   bands (ev):

   -26.2924 -26.2881 -26.2833 -26.2791 -26.2526 -26.2477 -26.2337 -26.2304
   -10.5391 -10.3136 -10.1688  -9.9677  -8.6088  -8.5886  -8.5754  -8.5348
    -8.4571  -8.4459  -8.4343  -8.4191  -8.3946  -8.3717  -8.3408  -8.3150
    -8.2993  -8.2820  -8.2465  -8.2294  -8.2270  -8.1972  -8.1825  -8.1690
    -7.0588  -6.7824  -6.6479  -6.3124  -2.9892  -2.8158  -2.7499  -2.7210
    -2.6532  -2.6017  -2.5566  -2.5048   4.7718   4.8972   5.0243   5.1387
     5.2177   5.2819   5.3744   5.4812   5.5311   5.6831   5.7628   5.7949
     5.9035   5.9960   6.1276   6.2315   6.2949   6.3085   6.4505   6.5478
     6.5860   6.6351   6.8753   7.0539   7.0871   7.1930   7.2306   7.3972
     7.4317   7.5576   7.6142   7.7799   7.8347   7.9149   8.0615   8.1180
     9.8258   9.8276   9.8353   9.8395   9.8453   9.8496   9.8537   9.8588
     9.8708   9.8764   9.8950   9.9002   9.9031   9.9168   9.9264   9.9380
     9.9409   9.9493   9.9595   9.9657   9.9842   9.9878   9.9964  10.0029
    10.0156  10.0247  10.0284  10.0407  10.0452  10.0520  10.0582  10.0632
    10.0692  10.0760  10.0819  10.0838  10.0878  10.0939  10.1021  10.1062
    10.1165  10.1244  10.1339  10.1389  10.1551  10.1572  10.1877  10.2066
    10.2336  10.2500  10.2670  10.2914  10.3037  10.3070  10.3318  10.3479
    11.2154  11.3937  11.6164  11.8611  11.9363  12.0728  12.1968  12.2410
    12.4586  12.4981  12.5374  12.7377  12.8593  13.0344  13.0991  13.2560
    13.3431  13.3785  13.4926  13.6061  13.6661  13.7673  13.8376  13.9020
    14.0881  14.1717  14.2489  14.3263  14.4671  14.5729  14.5885  14.6230
    14.8207  15.0310  15.1691  15.2011  15.2889  15.3836  15.5203  15.5942
    15.9036  16.1850  16.3907  16.4165  16.6475  16.7548  17.0793  17.1848
    17.4505  17.6402  17.8285  17.9267  18.0499  18.2500  18.2977  18.4304
    18.5536  18.6376  18.6934  18.8043  18.9944  19.2820  19.3904  19.4732
    19.6389  19.7009  19.9079  20.0621  20.2930  20.4378  20.5072  20.6299
    20.7267  21.1204  21.2165  21.2432  21.3089  21.4210  21.7636  21.8521
    21.9978  22.0991  22.2868  22.5074  22.7285  22.8728  23.0020  23.1701
    23.2869  23.5210  23.6692  23.7786  23.8371  24.0039  24.2736  24.3498
    24.4980  24.6364  24.7539  24.9094  24.9376  25.1849  25.2639  25.3235
    25.4923  25.5770  25.6940  25.7644  25.8348  25.9829  26.0689  26.2884
    26.4681  26.5733  26.7590  26.8722  27.0032  27.1663  27.3081  27.3410

     occupation numbers
     1.0000   1.0000   1.0000   1.0000   1.0000   1.0000   1.0000   1.0000
     1.0000   1.0000   1.0000   1.0000   1.0000   1.0000   1.0000   1.0000
     1.0000   1.0000   1.0000   1.0000   1.0000   1.0000   1.0000   1.0000
     1.0000   1.0000   1.0000   1.0000   1.0000   1.0000   1.0000   1.0000
     1.0000   1.0000   1.0000   1.0000   1.0000   1.0000   1.0000   1.0000
     1.0000   1.0000   1.0000   1.0000   1.0000   1.0000   1.0000   1.0000
     1.0000   1.0000   1.0000   1.0000   1.0000   1.0000   1.0000   1.0000
     1.0000   1.0000   1.0000   1.0000   1.0000   1.0000   1.0000   1.0000
     1.0000   1.0000   1.0000   1.0000   1.0000   1.0000   1.0000   1.0000
     1.0000   1.0000   1.0000   1.0000   1.0000   1.0000   1.0000   1.0000
     1.0000   1.0000   1.0000   1.0000   1.0000   1.0000   1.0000   1.0000
     0.0000   0.0000   0.0000   0.0000   0.0000   0.0000   0.0000   0.0000
     0.0000   0.0000   0.0000   0.0000   0.0000   0.0000   0.0000   0.0000
     0.0000   0.0000   0.0000   0.0000   0.0000   0.0000   0.0000   0.0000
     0.0000   0.0000   0.0000   0.0000   0.0000   0.0000   0.0000   0.0000
     0.0000   0.0000   0.0000   0.0000   0.0000   0.0000   0.0000   0.0000
     0.0000   0.0000   0.0000   0.0000   0.0000   0.0000   0.0000   0.0000
     0.0000   0.0000   0.0000   0.0000   0.0000   0.0000   0.0000   0.0000
     0.0000   0.0000   0.0000   0.0000   0.0000   0.0000   0.0000   0.0000
     0.0000   0.0000   0.0000   0.0000   0.0000   0.0000   0.0000   0.0000
     0.0000   0.0000   0.0000   0.0000   0.0000   0.0000   0.0000   0.0000
     0.0000   0.0000   0.0000   0.0000   0.0000   0.0000   0.0000   0.0000
     0.0000   0.0000   0.0000   0.0000   0.0000   0.0000   0.0000   0.0000
     0.0000   0.0000   0.0000   0.0000   0.0000   0.0000   0.0000   0.0000
     0.0000   0.0000   0.0000   0.0000   0.0000   0.0000   0.0000   0.0000
     0.0000   0.0000   0.0000   0.0000   0.0000   0.0000   0.0000   0.0000
     0.0000   0.0000   0.0000   0.0000   0.0000   0.0000   0.0000   0.0000
     0.0000   0.0000   0.0000   0.0000   0.0000   0.0000   0.0000   0.0000
     0.0000   0.0000   0.0000   0.0000   0.0000   0.0000   0.0000   0.0000
     0.0000   0.0000   0.0000   0.0000   0.0000   0.0000   0.0000   0.0000
     0.0000   0.0000   0.0000   0.0000   0.0000   0.0000   0.0000   0.0000
     0.0000   0.0000   0.0000   0.0000   0.0000   0.0000   0.0000   0.0000

     highest occupied, lowest unoccupied level (ev):     9.8745    9.8659

!    total energy              =   -4584.42482562 Ry
     estimated scf accuracy    <       0.00000075 Ry

     The total energy is the sum of the following terms:
     one-electron contribution =    -237.34816136 Ry
     hartree contribution      =     237.56830042 Ry
     xc contribution           =    -363.49779860 Ry
     ewald contribution        =    -826.27954845 Ry
     one-center paw contrib.   =   -3394.86761764 Ry
      -> PAW hartree energy AE =     188.12134925 Ry
      -> PAW hartree energy PS =    -188.29732580 Ry
      -> PAW xc energy AE      =   -1290.40720654 Ry
      -> PAW xc energy PS      =      31.79697048 Ry
      -> total E_H with PAW    =     237.39232388 Ry
      -> total E_XC with PAW   =   -1622.10803466 Ry

     convergence has been achieved in 126 iterations

     Writing all to output data dir bands_nm/myprefix.save/

     General routines

     Parallel routines

     PAW routines

   This run was terminated on:   4: 3:34  17Jul2023

   JOB DONE.