     Program PWSCF v.7.1 starts on 15Jul2023 at 22:49:21

     Reading input from espresso_2745.pwi
Warning: card &CELL ignored
Warning: card / ignored

     Current dimensions of program PWSCF are:
     Max number of different atomic species (ntypx) = 10
     Max number of k-points (npk) =  40000
     Max angular momentum in pseudopotentials (lmaxx) =  4
     file Sm.paw.z_16.atompaw.wentzcovitch.v1.2.upf: wavefunction(s)  6S 0P 5D 0D 4F 0F renormalized
     file Er.paw.z_22.atompaw.wentzcovitch.v1.2.upf: wavefunction(s)  6S 0P 5D 0D 4F 0F renormalized
     file O.pbe-n-kjpaw_psl.0.1.UPF: wavefunction(s)  2P renormalized
     Message from routine setup:
     using ibrav=0 with symmetry is DISCOURAGED, use correct ibrav instead

     K-points division:     npool     =       2
     R & G space division:  proc/nbgrp/npool/nimage =       4
     Subspace diagonalization in iterative solution of the eigenvalue problem:
     one sub-group per band group will be used

     Using Slab Decomposition

     bravais-lattice index     =            0
     lattice parameter (alat)  =      10.8530  a.u.
     unit-cell volume          =    1960.1983 (a.u.)^3
     number of atoms/cell      =           20
     number of atomic types    =            3
     number of electrons       =       224.00
     number of Kohn-Sham states=          256
     kinetic-energy cutoff     =      30.0000  Ry
     charge density cutoff     =     240.0000  Ry
     scf convergence threshold =      1.0E-06
     mixing beta               =       0.7000
     number of iterations used =            8  plain     mixing
     Exchange-correlation= SLA  PW   PBX  PBC
                           (   1   4   3   4   0   0   0)

     celldm(1)=  10.853039  celldm(2)=   0.000000  celldm(3)=   0.000000
     celldm(4)=   0.000000  celldm(5)=   0.000000  celldm(6)=   0.000000

     crystal axes: (cart. coord. in units of alat)
               a(1) = (   1.000000   0.000000   0.000000 )
               a(2) = (   0.000000   1.044757   0.000000 )
               a(3) = (   0.000000   0.000000   1.467678 )

     reciprocal axes: (cart. coord. in units 2 pi/alat)
               b(1) = (  1.000000  0.000000  0.000000 )
               b(2) = (  0.000000  0.957161  0.000000 )
               b(3) = (  0.000000  0.000000  0.681348 )

     PseudoPot. # 1 for Sm read from file:
     /lustre07/scratch/pragov/crystal_structure_design/utils/SSSP/Sm.paw.z_16.atompaw.wentzcovitch.v1.2.upf
     MD5 check sum: d38221e44bcfc3c784cbdb498a69732f
     Pseudo is Projector augmented-wave + core cor, Zval = 16.0
     Generated using ATOMPAW code
     Shape of augmentation charge: BESSEL
     Using radial grid of 1107 points,  8 beta functions with:
                l(1) =   0
                l(2) =   0
                l(3) =   1
                l(4) =   1
                l(5) =   2
                l(6) =   2
                l(7) =   3
                l(8) =   3
     Q(r) pseudized with 0 coefficients

     PseudoPot. # 2 for Er read from file:
     /lustre07/scratch/pragov/crystal_structure_design/utils/SSSP/Er.paw.z_22.atompaw.wentzcovitch.v1.2.upf
     MD5 check sum: 5ba6a5c626b1678e031aafe1da34e245
     Pseudo is Projector augmented-wave + core cor, Zval = 22.0
     Generated using ATOMPAW code
     Shape of augmentation charge: BESSEL
     Using radial grid of 1114 points,  8 beta functions with:
                l(1) =   0
                l(2) =   0
                l(3) =   1
                l(4) =   1
                l(5) =   2
                l(6) =   2
                l(7) =   3
                l(8) =   3
     Q(r) pseudized with 0 coefficients

     PseudoPot. # 3 for O  read from file:
     /lustre07/scratch/pragov/crystal_structure_design/utils/SSSP/O.pbe-n-kjpaw_psl.0.1.UPF
     MD5 check sum: 0234752ac141de4415c5fc33072bef88
     Pseudo is Projector augmented-wave + core cor, Zval =  6.0
     Generated using "atomic" code by A. Dal Corso  v.5.0.99 svn rev. 10869
     Shape of augmentation charge: BESSEL
     Using radial grid of 1095 points,  4 beta functions with:
                l(1) =   0
                l(2) =   0
                l(3) =   1
                l(4) =   1
     Q(r) pseudized with 0 coefficients

     atomic species   valence    mass     pseudopotential
        Sm            16.00   150.36000     Sm( 1.00)
        Er            22.00   167.25900     Er( 1.00)
        O              6.00    15.99900     O ( 1.00)

      8 Sym. Ops., with inversion, found ( 6 have fractional translation)

                                    s                        frac. trans.

      isym =  1     identity

 cryst.   s( 1) = (     1          0          0      )
                  (     0          1          0      )
                  (     0          0          1      )

 cart.    s( 1) = (  1.0000000  0.0000000  0.0000000 )
                  (  0.0000000  1.0000000  0.0000000 )
                  (  0.0000000  0.0000000  1.0000000 )

      isym =  2     180 deg rotation - cart. axis [0,0,1]

 cryst.   s( 2) = (    -1          0          0      )    f =(  0.0000000 )
                  (     0         -1          0      )       ( -0.0000000 )
                  (     0          0          1      )       ( -0.5000000 )

 cart.    s( 2) = ( -1.0000000  0.0000000  0.0000000 )    f =(  0.0000000 )
                  (  0.0000000 -1.0000000  0.0000000 )       ( -0.0000000 )
                  (  0.0000000  0.0000000  1.0000000 )       ( -0.7338389 )

[...]

      isym =  4     180 deg rotation - cart. axis [1,0,0]

[...]

      isym =  5     inversion

 cryst.   s( 5) = (    -1          0          0      )
                  (     0         -1          0      )
                  (     0          0         -1      )

 cart.    s( 5) = ( -1.0000000  0.0000000  0.0000000 )
                  (  0.0000000 -1.0000000  0.0000000 )
                  (  0.0000000  0.0000000 -1.0000000 )

      isym =  6     inv. 180 deg rotation - cart. axis [0,0,1]

[...]

      isym =  8     inv. 180 deg rotation - cart. axis [1,0,0]

 cryst.   s( 8) = (    -1          0          0      )    f =(  0.5000000 )
                  (     0          1          0      )       ( -0.5000000 )
                  (     0          0          1      )       (  0.0000000 )

 cart.    s( 8) = ( -1.0000000  0.0000000  0.0000000 )    f =(  0.5000000 )
                  (  0.0000000  1.0000000  0.0000000 )       ( -0.5223784 )
                  (  0.0000000  0.0000000  1.0000000 )       (  0.0000000 )

   Cartesian axes

     site n.     atom                  positions (alat units)
         1           Sm  tau(   1) = (   0.9823710   0.0545227   0.3669194  )
         2           Sm  tau(   2) = (   0.4823710   0.4678556   1.1007583  )
         3           Sm  tau(   3) = (   0.5176290   0.5769011   0.3669194  )
         4           Sm  tau(   4) = (   0.0176290   0.9902340   1.1007583  )
         5           Er  tau(   5) = (   0.5000000   0.0000000   0.0000000  )
         6           Er  tau(   6) = (   0.5000000   0.0000000   0.7338389  )
         7           Er  tau(   7) = (   0.0000000   0.5223784   0.0000000  )
         8           Er  tau(   8) = (   0.0000000   0.5223784   0.7338389  )
         9           O   tau(   9) = (   0.6398220   0.0750240   1.1007583  )
        10           O   tau(  10) = (   0.1873160   0.1988674   0.8421784  )
        11           O   tau(  11) = (   0.1873160   0.1988674   1.3593382  )
        12           O   tau(  12) = (   0.6873160   0.3235110   0.6254993  )
        13           O   tau(  13) = (   0.6873160   0.3235110   0.1083396  )
        14           O   tau(  14) = (   0.1398220   0.4473544   0.3669194  )
        15           O   tau(  15) = (   0.8601780   0.5974023   1.1007583  )
        16           O   tau(  16) = (   0.3126840   0.7212457   1.3593382  )
        17           O   tau(  17) = (   0.3126840   0.7212457   0.8421784  )
        18           O   tau(  18) = (   0.8126840   0.8458894   0.1083396  )
        19           O   tau(  19) = (   0.8126840   0.8458894   0.6254993  )
        20           O   tau(  20) = (   0.3601780   0.9697327   0.3669194  )

   Crystallographic axes

     site n.     atom                  positions (cryst. coord.)
         1           Sm  tau(   1) = (  0.9823710  0.0521870  0.2500000  )
         2           Sm  tau(   2) = (  0.4823710  0.4478130  0.7500000  )
         3           Sm  tau(   3) = (  0.5176290  0.5521870  0.2500000  )
         4           Sm  tau(   4) = (  0.0176290  0.9478130  0.7500000  )
         5           Er  tau(   5) = (  0.5000000  0.0000000  0.0000000  )
         6           Er  tau(   6) = (  0.5000000  0.0000000  0.5000000  )
         7           Er  tau(   7) = (  0.0000000  0.5000000  0.0000000  )
         8           Er  tau(   8) = (  0.0000000  0.5000000  0.5000000  )
         9           O   tau(   9) = (  0.6398220  0.0718100  0.7500000  )
        10           O   tau(  10) = (  0.1873160  0.1903480  0.5738170  )
        11           O   tau(  11) = (  0.1873160  0.1903480  0.9261830  )
        12           O   tau(  12) = (  0.6873160  0.3096520  0.4261830  )
        13           O   tau(  13) = (  0.6873160  0.3096520  0.0738170  )
        14           O   tau(  14) = (  0.1398220  0.4281900  0.2500000  )
        15           O   tau(  15) = (  0.8601780  0.5718100  0.7500000  )
        16           O   tau(  16) = (  0.3126840  0.6903480  0.9261830  )
        17           O   tau(  17) = (  0.3126840  0.6903480  0.5738170  )
        18           O   tau(  18) = (  0.8126840  0.8096520  0.0738170  )
        19           O   tau(  19) = (  0.8126840  0.8096520  0.4261830  )
        20           O   tau(  20) = (  0.3601780  0.9281900  0.2500000  )

     number of k points=     8
                       cart. coord. in units 2pi/alat
        k(    1) = (   0.0000000   0.0000000   0.0000000), wk =   0.0740741
        k(    2) = (   0.0000000   0.0000000   0.2271162), wk =   0.1481481
        k(    3) = (   0.0000000   0.3190535   0.0000000), wk =   0.1481481
        k(    4) = (   0.0000000   0.3190535   0.2271162), wk =   0.2962963
        k(    5) = (   0.3333333   0.0000000   0.0000000), wk =   0.1481481
        k(    6) = (   0.3333333   0.0000000   0.2271162), wk =   0.2962963
        k(    7) = (   0.3333333   0.3190535   0.0000000), wk =   0.2962963
        k(    8) = (   0.3333333   0.3190535   0.2271162), wk =   0.5925926

                       cryst. coord.
        k(    1) = (   0.0000000   0.0000000   0.0000000), wk =   0.0740741
        k(    2) = (   0.0000000   0.0000000   0.3333333), wk =   0.1481481
        k(    3) = (   0.0000000   0.3333333   0.0000000), wk =   0.1481481
        k(    4) = (   0.0000000   0.3333333   0.3333333), wk =   0.2962963
        k(    5) = (   0.3333333   0.0000000   0.0000000), wk =   0.1481481
        k(    6) = (   0.3333333   0.0000000   0.3333333), wk =   0.2962963
        k(    7) = (   0.3333333   0.3333333   0.0000000), wk =   0.2962963
        k(    8) = (   0.3333333   0.3333333   0.3333333), wk =   0.5925926

     Check: negative core charge=   -0.000011

     Initial potential from superposition of free atoms

     starting charge     223.9608, renormalised to     224.0000
     Starting wfcs are  304 randomized atomic wfcs
     Checking if some PAW data can be deallocated...

     Self-consistent Calculation

     iteration #  1     ecut=    30.00 Ry     beta= 0.70
     Davidson diagonalization with overlap

     ethr =  1.00E-02,  avg # of iterations =  9.1

     total energy              =   -6405.72473730 Ry
     estimated scf accuracy    <      49.77854919 Ry

[...]

     total energy              =   -6461.13016643 Ry
     estimated scf accuracy    <       0.00000136 Ry

     iteration #118     ecut=    30.00 Ry     beta= 0.70
     Davidson diagonalization with overlap

     ethr =  5.23E-10,  avg # of iterations =  1.0

     End of self-consistent calculation

          k = 0.0000 0.0000 0.0000 (  5443 PWs)   bands (ev):

   -34.9338 -34.9313 -34.9273 -34.9250 -26.6105 -26.6062 -26.5909 -26.5861
    -9.9192  -9.8987  -9.8296  -9.7614  -9.6596  -9.5747  -9.2670  -9.2412
    -9.2394  -9.2254  -9.1709  -9.1547  -7.3018  -7.2519  -7.2052  -6.8950
    -6.7855  -6.7150  -6.5147  -6.4600  -6.3966  -6.3268  -6.2632  -6.2278
    -5.3810  -4.8958  -4.6234  -4.1507  -4.1318  -4.0236  -3.9053  -3.8837
    -3.8417  -3.5923  -3.2038  -3.1195   7.5291   7.8083   7.9881   8.1138
     8.3046   8.4817   8.4973   8.5228   8.6489   8.7030   8.9040   8.9225
     9.1660   9.1906   9.1912   9.2432   9.2579   9.3366   9.4471   9.5242
     9.6130   9.6158   9.6483   9.7338   9.7914   9.9403   9.9424   9.9727
    10.0783  10.1162  10.1183  10.1231  10.1844  10.1952  10.3008  10.4124
    12.3747  12.3781  12.3868  12.3870  12.3946  12.4204  12.4231  12.4295
    12.4444  12.4787  12.4854  12.4885  12.4935  12.4996  12.5055  12.5152
    12.5284  12.5435  12.5469  12.5472  12.5520  12.5698  12.5849  12.5871
    12.5939  12.5971  12.5997  12.6117  12.6138  12.6364  12.6517  12.6634
    12.6662  12.6744  12.6795  12.7059  12.7284  12.7292  12.7338  12.7351
    12.7899  12.7900  12.8061  12.8194  12.8278  12.8319  12.8609  12.8769
    12.8772  12.9376  12.9583  12.9627  13.0055  13.0243  13.0685  13.0815
    15.7958  16.7754  16.8662  16.8851  16.9022  17.1748  17.1813  17.2629
    17.4007  17.4374  17.4512  17.6360  17.8643  18.0990  18.3256  18.3523
    18.4910  18.5809  18.6953  18.9635  19.0680  19.1520  19.3399  19.3989
    19.5815  19.6034  19.6114  19.6705  19.7511  19.9499  20.2791  20.6597
    20.9425  21.5404  21.6242  21.6835  22.0858  22.1737  22.1999  22.2555
    22.3482  23.1165  23.5403  23.7742  24.1053  24.3304  24.5448  24.6257
    24.6881  24.7594  24.8404  25.1075  25.2315  25.5900  25.6720  26.0045
    26.0275  26.4250  26.4284  26.4737  26.5478  26.7555  27.7670  28.4125
    28.5050  28.8354  28.8551  29.7046  29.8826  29.8944  29.9038  29.9380
    30.0560  30.1799  30.3684  31.3766  31.3853  31.4901  31.5175  31.8024
    31.8916  31.9961  32.5576  32.6925  32.7533  32.9274  32.9393  33.3524
    34.0406  34.2278  34.2372  34.2510  34.9740  35.0442  35.1563  35.3996
    35.4956  35.5281  35.5375  36.2030  36.3374  36.3383  36.6008  36.6270
    36.7421  37.2867  37.3050  37.3821  37.5850  37.5868  37.6915  37.8824
    37.9843  38.4239  38.6083  38.7459  38.8303  39.0286  39.0788  39.4566

     occupation numbers
     1.0000   1.0000   1.0000   1.0000   1.0000   1.0000   1.0000   1.0000
     1.0000   1.0000   1.0000   1.0000   1.0000   1.0000   1.0000   1.0000
     1.0000   1.0000   1.0000   1.0000   1.0000   1.0000   1.0000   1.0000
     1.0000   1.0000   1.0000   1.0000   1.0000   1.0000   1.0000   1.0000
     1.0000   1.0000   1.0000   1.0000   1.0000   1.0000   1.0000   1.0000
     1.0000   1.0000   1.0000   1.0000   1.0000   1.0000   1.0000   1.0000
     1.0000   1.0000   1.0000   1.0000   1.0000   1.0000   1.0000   1.0000
     1.0000   1.0000   1.0000   1.0000   1.0000   1.0000   1.0000   1.0000
     1.0000   1.0000   1.0000   1.0000   1.0000   1.0000   1.0000   1.0000
     1.0000   1.0000   1.0000   1.0000   1.0000   1.0000   1.0000   1.0000
     1.0000   1.0000   1.0000   1.0000   1.0000   1.0000   1.0000   1.0000
     1.0000   1.0000   1.0000   1.0000   1.0000   1.0000   1.0000   1.0000
     1.0000   1.0000   1.0000   1.0000   1.0000   1.0000   1.0000   1.0000
     1.0000   1.0000   1.0000   1.0000   1.0000   1.0000   1.0000   1.0000
     0.0000   0.0000   0.0000   0.0000   0.0000   0.0000   0.0000   0.0000
     0.0000   0.0000   0.0000   0.0000   0.0000   0.0000   0.0000   0.0000
     0.0000   0.0000   0.0000   0.0000   0.0000   0.0000   0.0000   0.0000
     0.0000   0.0000   0.0000   0.0000   0.0000   0.0000   0.0000   0.0000
     0.0000   0.0000   0.0000   0.0000   0.0000   0.0000   0.0000   0.0000
     0.0000   0.0000   0.0000   0.0000   0.0000   0.0000   0.0000   0.0000
     0.0000   0.0000   0.0000   0.0000   0.0000   0.0000   0.0000   0.0000
     0.0000   0.0000   0.0000   0.0000   0.0000   0.0000   0.0000   0.0000
     0.0000   0.0000   0.0000   0.0000   0.0000   0.0000   0.0000   0.0000
     0.0000   0.0000   0.0000   0.0000   0.0000   0.0000   0.0000   0.0000
     0.0000   0.0000   0.0000   0.0000   0.0000   0.0000   0.0000   0.0000
     0.0000   0.0000   0.0000   0.0000   0.0000   0.0000   0.0000   0.0000
     0.0000   0.0000   0.0000   0.0000   0.0000   0.0000   0.0000   0.0000
     0.0000   0.0000   0.0000   0.0000   0.0000   0.0000   0.0000   0.0000
     0.0000   0.0000   0.0000   0.0000   0.0000   0.0000   0.0000   0.0000
     0.0000   0.0000   0.0000   0.0000   0.0000   0.0000   0.0000   0.0000
     0.0000   0.0000   0.0000   0.0000   0.0000   0.0000   0.0000   0.0000
     0.0000   0.0000   0.0000   0.0000   0.0000   0.0000   0.0000   0.0000

[...]

          k = 0.3333 0.3191 0.2271 (  5435 PWs)   bands (ev):

   -34.9307 -34.9295 -34.9291 -34.9279 -26.6025 -26.6002 -26.5968 -26.5945
    -9.8597  -9.8530  -9.7414  -9.7341  -9.5778  -9.5665  -9.4181  -9.3855
    -9.3322  -9.2928  -9.2215  -9.2076  -7.2219  -7.1701  -7.0187  -6.9513
    -6.6878  -6.6270  -6.5609  -6.5509  -6.4731  -6.4481  -6.3356  -6.3047
    -4.7126  -4.6043  -4.5688  -4.4941  -4.2232  -4.0618  -3.9685  -3.8548
    -3.5747  -3.5196  -3.4625  -3.3995   7.9535   8.0434   8.0592   8.1478
     8.3016   8.3549   8.4789   8.6063   8.6619   8.7507   8.8534   8.8784
     8.9430   9.0113   9.0447   9.1606   9.1928   9.2454   9.3377   9.4196
     9.4530   9.5039   9.6384   9.6503   9.8278   9.8571   9.9112   9.9715
    10.0082  10.0859  10.0999  10.1635  10.1836  10.2342  10.3243  10.3461
    12.4110  12.4169  12.4288  12.4312  12.4387  12.4404  12.4476  12.4533
    12.4668  12.4740  12.4797  12.4842  12.4899  12.4941  12.4981  12.5060
    12.5115  12.5185  12.5291  12.5470  12.5510  12.5578  12.5694  12.5820
    12.5956  12.5990  12.6066  12.6144  12.6261  12.6281  12.6360  12.6375
    12.6468  12.6538  12.6674  12.6770  12.7113  12.7174  12.7322  12.7577
    12.7732  12.7881  12.7962  12.8055  12.8208  12.8477  12.8644  12.8795
    12.8879  12.9014  12.9393  12.9444  12.9705  12.9854  13.0076  13.0171
    16.5160  16.6230  16.6854  16.8704  17.0289  17.0727  17.2115  17.3829
    17.5221  17.6353  17.6979  17.7532  17.8511  18.0603  18.1673  18.2904
    18.5266  18.6030  18.6280  19.0445  19.1102  19.4073  19.4599  19.5180
    19.5836  19.7242  19.9066  19.9695  20.2053  20.2442  20.4636  20.6838
    20.9350  20.9994  21.3437  21.7352  21.9435  22.0710  22.3482  22.3788
    22.5149  22.7807  22.9704  22.9848  23.7933  23.9602  24.0646  24.1832
    24.4657  24.6897  25.3233  25.4183  25.5112  25.8562  25.9940  26.2490
    26.7192  26.9117  27.0608  27.1694  27.3043  27.6120  27.9126  28.1105
    28.4727  28.6011  28.9048  29.0332  29.3680  29.4586  29.5540  29.7709
    30.0217  30.4046  30.6308  30.7727  31.0663  31.1875  31.6768  31.8473
    31.9969  32.2519  32.4425  32.6810  33.0422  33.4396  33.5669  33.6748
    33.9209  34.1449  34.2114  34.3623  34.4703  34.5400  34.6808  35.2316
    35.3392  35.5647  35.7511  35.8262  35.9302  36.1882  36.3866  36.5113
    36.5699  36.7353  36.9482  36.9909  37.2316  37.3887  37.5832  37.7308
    38.0106  38.2876  38.3918  38.4828  38.7860  38.8848  39.1322  39.2434

     occupation numbers
     1.0000   1.0000   1.0000   1.0000   1.0000   1.0000   1.0000   1.0000
     1.0000   1.0000   1.0000   1.0000   1.0000   1.0000   1.0000   1.0000
     1.0000   1.0000   1.0000   1.0000   1.0000   1.0000   1.0000   1.0000
     1.0000   1.0000   1.0000   1.0000   1.0000   1.0000   1.0000   1.0000
     1.0000   1.0000   1.0000   1.0000   1.0000   1.0000   1.0000   1.0000
     1.0000   1.0000   1.0000   1.0000   1.0000   1.0000   1.0000   1.0000
     1.0000   1.0000   1.0000   1.0000   1.0000   1.0000   1.0000   1.0000
     1.0000   1.0000   1.0000   1.0000   1.0000   1.0000   1.0000   1.0000
     1.0000   1.0000   1.0000   1.0000   1.0000   1.0000   1.0000   1.0000
     1.0000   1.0000   1.0000   1.0000   1.0000   1.0000   1.0000   1.0000
     1.0000   1.0000   1.0000   1.0000   1.0000   1.0000   1.0000   1.0000
     1.0000   1.0000   1.0000   1.0000   1.0000   1.0000   1.0000   1.0000
     1.0000   1.0000   1.0000   1.0000   1.0000   1.0000   1.0000   1.0000
     1.0000   1.0000   1.0000   1.0000   1.0000   1.0000   1.0000   1.0000
     0.0000   0.0000   0.0000   0.0000   0.0000   0.0000   0.0000   0.0000
     0.0000   0.0000   0.0000   0.0000   0.0000   0.0000   0.0000   0.0000
     0.0000   0.0000   0.0000   0.0000   0.0000   0.0000   0.0000   0.0000
     0.0000   0.0000   0.0000   0.0000   0.0000   0.0000   0.0000   0.0000
     0.0000   0.0000   0.0000   0.0000   0.0000   0.0000   0.0000   0.0000
     0.0000   0.0000   0.0000   0.0000   0.0000   0.0000   0.0000   0.0000
     0.0000   0.0000   0.0000   0.0000   0.0000   0.0000   0.0000   0.0000
     0.0000   0.0000   0.0000   0.0000   0.0000   0.0000   0.0000   0.0000
     0.0000   0.0000   0.0000   0.0000   0.0000   0.0000   0.0000   0.0000
     0.0000   0.0000   0.0000   0.0000   0.0000   0.0000   0.0000   0.0000
     0.0000   0.0000   0.0000   0.0000   0.0000   0.0000   0.0000   0.0000
     0.0000   0.0000   0.0000   0.0000   0.0000   0.0000   0.0000   0.0000
     0.0000   0.0000   0.0000   0.0000   0.0000   0.0000   0.0000   0.0000
     0.0000   0.0000   0.0000   0.0000   0.0000   0.0000   0.0000   0.0000
     0.0000   0.0000   0.0000   0.0000   0.0000   0.0000   0.0000   0.0000
     0.0000   0.0000   0.0000   0.0000   0.0000   0.0000   0.0000   0.0000
     0.0000   0.0000   0.0000   0.0000   0.0000   0.0000   0.0000   0.0000
     0.0000   0.0000   0.0000   0.0000   0.0000   0.0000   0.0000   0.0000

     highest occupied, lowest unoccupied level (ev):    12.6634   12.6467

!    total energy              =   -6461.13016516 Ry
     total all-electron energy =     -7767.292874 Ry
     estimated scf accuracy    <       0.00000073 Ry

     The total energy is the sum of the following terms:
     one-electron contribution =   -1235.32167075 Ry
     hartree contribution      =     741.76685917 Ry
     xc contribution           =    -293.78199543 Ry
     ewald contribution        =   -1808.41013212 Ry
     one-center paw contrib.   =   -3865.38322603 Ry
      -> PAW hartree energy AE =     379.66795313 Ry
      -> PAW hartree energy PS =    -370.51350268 Ry
      -> PAW xc energy AE      =   -1407.93283548 Ry
      -> PAW xc energy PS      =      50.26980008 Ry
      -> total E_H with PAW    =     750.92130962 Ry
      -> total E_XC with PAW   =   -1651.44503084 Ry

     convergence has been achieved in 118 iterations

     Writing all to output data dir bands_nm/myprefix.save/

     General routines

     Parallel routines

     PAW routines

   This run was terminated on:  22:56:35  15Jul2023

   JOB DONE.