     Program PWSCF v.7.1 starts on 14Jul2023 at  2:23:50

     Reading input from espresso_7539.pwi
Warning: card &CELL ignored
Warning: card / ignored

     Current dimensions of program PWSCF are:
     Max number of different atomic species (ntypx) = 10
     Max number of k-points (npk) =  40000
     Max angular momentum in pseudopotentials (lmaxx) =  4
     file In.pbe-dn-rrkjus_psl.0.2.2.UPF: wavefunction(s)  5S renormalized
     file Cu.paw.z_11.ld1.psl.v1.0.0-low.upf: wavefunction(s)  4S 3D renormalized
     Message from routine setup:
     using ibrav=0 with symmetry is DISCOURAGED, use correct ibrav instead

     K-points division:     npool     =       2
     R & G space division:  proc/nbgrp/npool/nimage =       4
     Subspace diagonalization in iterative solution of the eigenvalue problem:
     a serial algorithm will be used

     Using Slab Decomposition

     bravais-lattice index     =            0
     lattice parameter (alat)  =       7.9146  a.u.
     unit-cell volume          =    1447.9895 (a.u.)^3
     number of atoms/cell      =            7
     number of atomic types    =            4
     number of electrons       =        62.00
     number of Kohn-Sham states=           64
     kinetic-energy cutoff     =      30.0000  Ry
     charge density cutoff     =     240.0000  Ry
     scf convergence threshold =      1.0E-06
     mixing beta               =       0.7000
     number of iterations used =            8  plain     mixing
     Exchange-correlation= SLA  PW   PBX  PBC
                           (   1   4   3   4   0   0   0)

     celldm(1)=   7.914560  celldm(2)=   0.000000  celldm(3)=   0.000000
     celldm(4)=   0.000000  celldm(5)=   0.000000  celldm(6)=   0.000000

     crystal axes: (cart. coord. in units of alat)
               a(1) = (   1.000000   0.000000   0.000000 )
               a(2) = (   0.000000   1.746829   0.000000 )
               a(3) = (  -0.500000  -0.296450   1.671994 )

     reciprocal axes: (cart. coord. in units 2 pi/alat)
               b(1) = (  1.000000  0.000000  0.299044 )
               b(2) = (  0.000000  0.572466  0.101500 )
               b(3) = (  0.000000  0.000000  0.598088 )

     PseudoPot. # 1 for In read from file:
     /lustre07/scratch/pragov/crystal_structure_design/utils/SSSP/In.pbe-dn-rrkjus_psl.0.2.2.UPF
     MD5 check sum: 25e7c42c3b55b68f4bf926be2e7201a4
     Pseudo is Ultrasoft + core correction, Zval = 13.0
     Generated using "atomic" code by A. Dal Corso  v.5.0.99 svn rev. 10869
     Using radial grid of 1241 points,  6 beta functions with:
                l(1) =   0
                l(2) =   0
                l(3) =   1
                l(4) =   1
                l(5) =   2
                l(6) =   2
     Q(r) pseudized with 0 coefficients

     PseudoPot. # 2 for Cu read from file:
     /lustre07/scratch/pragov/crystal_structure_design/utils/SSSP/Cu.paw.z_11.ld1.psl.v1.0.0-low.upf
     MD5 check sum: 619f40885d92a09a85a8b37550532d0c
     Pseudo is Projector augmented-wave + core cor, Zval = 11.0
     Generated using &quot;atomic&quot; code by A. Dal Corso  v.6.3MaX
     Shape of augmentation charge: PSQ
     Using radial grid of 1199 points,  6 beta functions with:
                l(1) =   0
                l(2) =   0
                l(3) =   1
                l(4) =   1
                l(5) =   2
                l(6) =   2
     Q(r) pseudized with 0 coefficients

     PseudoPot. # 3 for Se read from file:
     /lustre07/scratch/pragov/crystal_structure_design/utils/SSSP/Se_pbe_v1.uspp.F.UPF
     MD5 check sum: 1b3568f3a8ae88f9a2a0ad0698632c85
     Pseudo is Ultrasoft + core correction, Zval =  6.0
     Generated by new atomic code, or converted to UPF format
     Using radial grid of  877 points,  6 beta functions with:
                l(1) =   0
                l(2) =   0
                l(3) =   1
                l(4) =   1
                l(5) =   2
                l(6) =   2
     Q(r) pseudized with  8 coefficients,  rinner =    1.300   1.300   1.300
                                                       1.300   1.300

     PseudoPot. # 4 for I  read from file:
     /lustre07/scratch/pragov/crystal_structure_design/utils/SSSP/I.pbe-n-kjpaw_psl.0.2.UPF
     MD5 check sum: d4ef18d9c8f18dc85e5843bca1e50dc0
     Pseudo is Projector augmented-wave + core cor, Zval =  7.0
     Generated using "atomic" code by A. Dal Corso  v.5.0.99 svn rev. 10869
     Shape of augmentation charge: PSQ
     Using radial grid of 1247 points,  4 beta functions with:
                l(1) =   0
                l(2) =   0
                l(3) =   1
                l(4) =   1
     Q(r) pseudized with 0 coefficients

     atomic species   valence    mass     pseudopotential
        In            13.00   114.81800     In( 1.00)
        Cu            11.00    63.54600     Cu( 1.00)
        Se             6.00    78.97100     Se( 1.00)
        I              7.00   126.90447     I ( 1.00)

      2 Sym. Ops. (no inversion) found

                                    s                        frac. trans.

      isym =  1     identity

 cryst.   s( 1) = (     1          0          0      )
                  (     0          1          0      )
                  (     0          0          1      )

 cart.    s( 1) = (  1.0000000  0.0000000  0.0000000 )
                  (  0.0000000  1.0000000 -0.0000000 )
                  (  0.0000000  0.0000000  1.0000000 )

      isym =  2     inv. 180 deg rotation - cart. axis [1,0,0]

 cryst.   s( 2) = (    -1          0          0      )
                  (     0          1          0      )
                  (     1          0          1      )

 cart.    s( 2) = ( -1.0000000  0.0000000  0.0000000 )
                  (  0.0000000  1.0000000 -0.0000000 )
                  (  0.0000000  0.0000000  1.0000000 )

   Cartesian axes

     site n.     atom                  positions (alat units)
         1           In  tau(   1) = (   0.0000000   1.1622489   1.4463749  )
         2           In  tau(   2) = (   0.0000000  -0.0025278   0.6349262  )
         3           Cu  tau(   3) = (   0.5000000   0.8675810   0.6470983  )
         4           Se  tau(   4) = (   0.5000005  -0.2602053   1.6625854  )
         5           Se  tau(   5) = (   0.5000005   0.3166995   0.8380618  )
         6           Se  tau(   6) = (   0.0000000   1.1288110   0.8161302  )
         7           I   tau(   7) = (   0.5000000   0.8440718   0.0158003  )

   Crystallographic axes

     site n.     atom                  positions (cryst. coord.)
         1           In  tau(   1) = (  0.4325300  0.8121550  0.8650600  )
         2           In  tau(   2) = (  0.1898710  0.0629980  0.3797420  )
         3           Cu  tau(   3) = (  0.6935110  0.5623410  0.3870220  )
         4           Se  tau(   4) = (  0.9971870  0.0197940  0.9943730  )
         5           Se  tau(   5) = (  0.7506180  0.2663630  0.5012350  )
         6           Se  tau(   6) = (  0.2440590  0.7290430  0.4881180  )
         7           I   tau(   7) = (  0.5047250  0.4848060  0.0094500  )

     number of k points=    10
                       cart. coord. in units 2pi/alat
        k(    1) = (   0.0000000   0.0000000   0.0000000), wk =   0.0740741
        k(    2) = (   0.0000000   0.0000000   0.1993628), wk =   0.1481481
        k(    3) = (   0.0000000   0.1908219   0.0338334), wk =   0.1481481
        k(    4) = (   0.0000000   0.1908219   0.2331962), wk =   0.1481481
        k(    5) = (   0.0000000   0.1908219  -0.1655294), wk =   0.1481481
        k(    6) = (   0.3333333   0.0000000   0.0996814), wk =   0.2962963
        k(    7) = (   0.3333333   0.0000000   0.2990442), wk =   0.1481481
        k(    8) = (   0.3333333   0.1908219   0.1335148), wk =   0.2962963
        k(    9) = (   0.3333333   0.1908219   0.3328776), wk =   0.2962963
        k(   10) = (   0.3333333   0.1908219  -0.0658480), wk =   0.2962963

                       cryst. coord.
        k(    1) = (   0.0000000   0.0000000   0.0000000), wk =   0.0740741
        k(    2) = (   0.0000000   0.0000000   0.3333333), wk =   0.1481481
        k(    3) = (   0.0000000   0.3333333  -0.0000000), wk =   0.1481481
        k(    4) = (   0.0000000   0.3333333   0.3333333), wk =   0.1481481
        k(    5) = (   0.0000000   0.3333333  -0.3333333), wk =   0.1481481
        k(    6) = (   0.3333333   0.0000000   0.0000000), wk =   0.2962963
        k(    7) = (   0.3333333   0.0000000   0.3333333), wk =   0.1481481
        k(    8) = (   0.3333333   0.3333333   0.0000000), wk =   0.2962963
        k(    9) = (   0.3333333   0.3333333   0.3333333), wk =   0.2962963
        k(   10) = (   0.3333333   0.3333333  -0.3333333), wk =   0.2962963

     Check: negative core charge=   -0.000001

     Initial potential from superposition of free atoms

     starting charge      61.9920, renormalised to      62.0000
     Starting wfcs are   43 randomized atomic wfcs +   21 random wfcs
     Checking if some PAW data can be deallocated...

     Self-consistent Calculation

     iteration #  1     ecut=    30.00 Ry     beta= 0.70
     Davidson diagonalization with overlap

     ethr =  1.00E-02,  avg # of iterations =  8.5

     Threshold (ethr) on eigenvalues was too large:
     Diagonalizing with lowered threshold

     Davidson diagonalization with overlap

[...]

     negative rho (up, down):  2.771E-07 0.000E+00

     total energy              =   -1012.58343361 Ry
     estimated scf accuracy    <       0.24527812 Ry

[...]

     total energy              =   -1012.68850286 Ry
     estimated scf accuracy    <       0.00000201 Ry

     iteration # 10     ecut=    30.00 Ry     beta= 0.70
     Davidson diagonalization with overlap

     ethr =  3.24E-09,  avg # of iterations =  1.0

     negative rho (up, down):  1.306E-06 0.000E+00

     End of self-consistent calculation

          k = 0.0000 0.0000 0.0000 (  4001 PWs)   bands (ev):

   -10.0403  -9.9828  -9.8621  -9.8049  -9.7849  -9.7683  -9.6862  -9.6347
    -9.5708  -9.5397  -8.4258  -7.5751  -7.3780  -7.2983  -1.0911  -0.3439
     0.8238   1.6891   1.9599   1.9625   2.3157   2.6075   2.8714   2.9519
     3.4555   3.6130   3.6948   4.0930   4.7352   4.8976   5.0504   5.2088
     6.0497   8.0099   8.4692   9.0953   9.4868   9.6801  10.1504  10.2365
    10.6728  11.2809  11.6236  12.1000  12.7082  13.0003  13.7579  14.0709
    14.4828  14.8800  15.3586  15.4311  15.5769  16.3262  16.3277  16.5317
    16.6247  16.7301  17.0983  17.2931  17.4820  17.5734  17.9116  18.1481

     occupation numbers
     1.0000   1.0000   1.0000   1.0000   1.0000   1.0000   1.0000   1.0000
     1.0000   1.0000   1.0000   1.0000   1.0000   1.0000   1.0000   1.0000
     1.0000   1.0000   1.0000   1.0000   1.0000   1.0000   1.0000   1.0000
     1.0000   1.0000   1.0000   1.0000   1.0000   1.0000   1.0000   0.0000
     0.0000   0.0000   0.0000   0.0000   0.0000   0.0000   0.0000   0.0000
     0.0000   0.0000   0.0000   0.0000   0.0000   0.0000   0.0000   0.0000
     0.0000   0.0000   0.0000   0.0000   0.0000   0.0000   0.0000   0.0000
     0.0000   0.0000   0.0000   0.0000   0.0000   0.0000   0.0000   0.0000

[...]

          k = 0.3333 0.1908-0.0658 (  4015 PWs)   bands (ev):

   -10.0756  -9.9809  -9.8991  -9.8155  -9.7917  -9.7831  -9.6789  -9.6434
    -9.5556  -9.5536  -7.8790  -7.4608  -7.3449  -7.0722  -1.0676  -0.6360
     0.6710   1.1777   1.5559   1.8199   2.0447   2.2080   2.3613   2.5776
     3.0893   3.2028   3.5705   3.7784   3.9431   4.2493   4.4310   6.5250
     6.9723   8.0730   8.2060   8.7785   9.6206   9.9789  10.4840  10.9982
    11.4567  11.6915  12.0554  12.3823  12.7814  13.2540  13.3739  13.9804
    14.3447  14.7861  15.1507  15.3965  15.7526  16.0178  16.2463  16.9091
    17.2570  17.5317  17.9643  18.4071  18.8418  19.0956  19.3092  19.7608

     occupation numbers
     1.0000   1.0000   1.0000   1.0000   1.0000   1.0000   1.0000   1.0000
     1.0000   1.0000   1.0000   1.0000   1.0000   1.0000   1.0000   1.0000
     1.0000   1.0000   1.0000   1.0000   1.0000   1.0000   1.0000   1.0000
     1.0000   1.0000   1.0000   1.0000   1.0000   1.0000   1.0000   0.0000
     0.0000   0.0000   0.0000   0.0000   0.0000   0.0000   0.0000   0.0000
     0.0000   0.0000   0.0000   0.0000   0.0000   0.0000   0.0000   0.0000
     0.0000   0.0000   0.0000   0.0000   0.0000   0.0000   0.0000   0.0000
     0.0000   0.0000   0.0000   0.0000   0.0000   0.0000   0.0000   0.0000

     highest occupied, lowest unoccupied level (ev):     5.0504    5.2088

!    total energy              =   -1012.68850322 Ry
     estimated scf accuracy    <       0.00000014 Ry

     The total energy is the sum of the following terms:
     one-electron contribution =    -236.03846338 Ry
     hartree contribution      =     163.05892884 Ry
     xc contribution           =    -270.75611317 Ry
     ewald contribution        =    -258.61901923 Ry
     one-center paw contrib.   =    -410.33383629 Ry
      -> PAW hartree energy AE =       0.00000000 Ry
      -> PAW hartree energy PS =       0.00000000 Ry
      -> PAW xc energy AE      =       0.00000000 Ry
      -> PAW xc energy PS      =       0.00000000 Ry
      -> total E_H with PAW    =     163.05892884 Ry
      -> total E_XC with PAW   =    -270.75611317 Ry

     convergence has been achieved in  10 iterations

     Writing all to output data dir bands_nm/myprefix.save/

     General routines

     Parallel routines

     PAW routines

   This run was terminated on:   2:23:59  14Jul2023

   JOB DONE.