     Program PWSCF v.7.1 starts on 14Jul2023 at 18: 0:23

     Reading input from espresso_14763.pwi
Warning: card &CELL ignored
Warning: card / ignored

     Current dimensions of program PWSCF are:
     Max number of different atomic species (ntypx) = 10
     Max number of k-points (npk) =  40000
     Max angular momentum in pseudopotentials (lmaxx) =  4
     Message from routine setup:
     using ibrav=0 with symmetry is DISCOURAGED, use correct ibrav instead

     K-points division:     npool     =       2
     R & G space division:  proc/nbgrp/npool/nimage =       4
     Subspace diagonalization in iterative solution of the eigenvalue problem:
     a serial algorithm will be used

     Using Slab Decomposition

     bravais-lattice index     =            0
     lattice parameter (alat)  =       8.4678  a.u.
     unit-cell volume          =    2928.6566 (a.u.)^3
     number of atoms/cell      =           12
     number of atomic types    =            2
     number of electrons       =       126.00
     number of Kohn-Sham states=           64
     kinetic-energy cutoff     =      30.0000  Ry
     charge density cutoff     =     240.0000  Ry
     scf convergence threshold =      1.0E-06
     mixing beta               =       0.7000
     number of iterations used =            8  plain     mixing
     Exchange-correlation= SLA  PW   PBE  PBE
                           (   1   4   3   4   0   0   0)

     celldm(1)=   8.467767  celldm(2)=   0.000000  celldm(3)=   0.000000
     celldm(4)=   0.000000  celldm(5)=   0.000000  celldm(6)=   0.000000

     crystal axes: (cart. coord. in units of alat)
               a(1) = (   1.000000   0.000000   0.000000 )
               a(2) = (  -0.500000   0.866025   0.000000 )
               a(3) = (   0.000000   0.000000   5.569690 )

     reciprocal axes: (cart. coord. in units 2 pi/alat)
               b(1) = (  1.000000  0.577350  0.000000 )
               b(2) = (  0.000000  1.154700  0.000000 )
               b(3) = (  0.000000  0.000000  0.179543 )

     PseudoPot. # 1 for Bi read from file:
     /lustre07/scratch/pragov/crystal_structure_design/utils/SSSP/Bi_pbe_v1.uspp.F.UPF
     MD5 check sum: cceb9f28ec65b6d7ff33140f5b0b1758
     Pseudo is Ultrasoft + core correction, Zval = 15.0
     Generated by new atomic code, or converted to UPF format
     Using radial grid of  899 points,  6 beta functions with:
                l(1) =   0
                l(2) =   0
                l(3) =   1
                l(4) =   1
                l(5) =   2
                l(6) =   2
     Q(r) pseudized with  6 coefficients,  rinner =    1.000   1.000   1.000
                                                       1.000   1.000

     PseudoPot. # 2 for Te read from file:
     /lustre07/scratch/pragov/crystal_structure_design/utils/SSSP/Te_pbe_v1.uspp.F.UPF
     MD5 check sum: c319670d6894cc26e93307826a071b75
     Pseudo is Ultrasoft + core correction, Zval =  6.0
     Generated by new atomic code, or converted to UPF format
     Using radial grid of  891 points,  5 beta functions with:
                l(1) =   0
                l(2) =   0
                l(3) =   1
                l(4) =   1
                l(5) =   2
     Q(r) pseudized with  6 coefficients,  rinner =    1.800   1.800   1.800
                                                       1.800   1.800

     atomic species   valence    mass     pseudopotential
        Bi            15.00   208.98040     Bi( 1.00)
        Te             6.00   127.60000     Te( 1.00)

     12 Sym. Ops., with inversion, found

                                    s                        frac. trans.

      isym =  1     identity

 cryst.   s( 1) = (     1          0          0      )
                  (     0          1          0      )
                  (     0          0          1      )

 cart.    s( 1) = (  1.0000000  0.0000000  0.0000000 )
                  (  0.0000000  1.0000000  0.0000000 )
                  (  0.0000000  0.0000000  1.0000000 )

      isym =  2     180 deg rotation - cart. axis [1,0,0]

[...]

      isym =  3     120 deg rotation - cryst. axis [0,0,1]

[...]

      isym =  6     180 deg rotation - cryst. axis [1,1,0]

[...]

      isym =  7     inversion

[...]

      isym =  8     inv. 180 deg rotation - cart. axis [1,0,0]

[...]

      isym =  9     inv. 120 deg rotation - cryst. axis [0,0,1]

 cryst.   s( 9) = (     0         -1          0      )
                  (     1          1          0      )
                  (     0          0         -1      )

 cart.    s( 9) = (  0.4999999  0.8660253  0.0000000 )
                  ( -0.8660255  0.5000001  0.0000000 )
                  (  0.0000000  0.0000000 -1.0000000 )

[...]

 cryst.   s(10) = (     1          1          0      )
                  (    -1          0          0      )
                  (     0          0         -1      )

 cart.    s(10) = (  0.5000001 -0.8660253  0.0000000 )
                  (  0.8660255  0.4999999  0.0000000 )
                  (  0.0000000  0.0000000 -1.0000000 )

[...]

      isym = 12     inv. 180 deg rotation - cryst. axis [1,1,0]

 cryst.   s(12) = (     0         -1          0      )
                  (    -1          0          0      )
                  (     0          0          1      )

 cart.    s(12) = (  0.4999999 -0.8660255  0.0000000 )
                  ( -0.8660255 -0.4999999  0.0000000 )
                  (  0.0000000  0.0000000  1.0000000 )

   Cartesian axes

     site n.     atom                  positions (alat units)
         1           Bi  tau(   1) = (  -0.0000004   0.5773506   1.6207742  )
         2           Bi  tau(   2) = (   0.5000005   0.2886749   3.9489158  )
         3           Bi  tau(   3) = (   0.0000000   0.0000000   4.8529990  )
         4           Bi  tau(   4) = (   0.0000000   0.0000000   0.7166910  )
         5           Bi  tau(   5) = (   0.5000005   0.2886749   2.5975419  )
         6           Bi  tau(   6) = (  -0.0000004   0.5773506   2.9721481  )
         7           Te  tau(   7) = (  -0.0000004   0.5773506   0.3378908  )
         8           Te  tau(   8) = (   0.5000005   0.2886749   5.2317992  )
         9           Te  tau(   9) = (   0.0000000   0.0000000   3.5639834  )
        10           Te  tau(  10) = (   0.0000000   0.0000000   2.0057066  )
        11           Te  tau(  11) = (   0.5000005   0.2886749   1.1714729  )
        12           Te  tau(  12) = (  -0.0000004   0.5773506   4.3982171  )

   Crystallographic axes

     site n.     atom                  positions (cryst. coord.)
         1           Bi  tau(   1) = (  0.3333330  0.6666670  0.2909990  )
         2           Bi  tau(   2) = (  0.6666670  0.3333330  0.7090010  )
         3           Bi  tau(   3) = (  0.0000000  0.0000000  0.8713230  )
         4           Bi  tau(   4) = (  0.0000000  0.0000000  0.1286770  )
         5           Bi  tau(   5) = (  0.6666670  0.3333330  0.4663710  )
         6           Bi  tau(   6) = (  0.3333330  0.6666670  0.5336290  )
         7           Te  tau(   7) = (  0.3333330  0.6666670  0.0606660  )
         8           Te  tau(   8) = (  0.6666670  0.3333330  0.9393340  )
         9           Te  tau(   9) = (  0.0000000  0.0000000  0.6398890  )
        10           Te  tau(  10) = (  0.0000000  0.0000000  0.3601110  )
        11           Te  tau(  11) = (  0.6666670  0.3333330  0.2103300  )
        12           Te  tau(  12) = (  0.3333330  0.6666670  0.7896700  )

     number of k points=     7
                       cart. coord. in units 2pi/alat
        k(    1) = (   0.0000000   0.0000000   0.0000000), wk =   0.0740741
        k(    2) = (   0.0000000   0.0000000   0.0598477), wk =   0.1481481
        k(    3) = (   0.0000000   0.3849002   0.0000000), wk =   0.4444444
        k(    4) = (   0.0000000   0.3849002   0.0598477), wk =   0.4444444
        k(    5) = (   0.3333333   0.5773502   0.0000000), wk =   0.1481481
        k(    6) = (   0.3333333   0.5773502   0.0598477), wk =   0.2962963
        k(    7) = (   0.0000000   0.3849002  -0.0598477), wk =   0.4444444

                       cryst. coord.
        k(    1) = (   0.0000000   0.0000000   0.0000000), wk =   0.0740741
        k(    2) = (   0.0000000   0.0000000   0.3333333), wk =   0.1481481
        k(    3) = (   0.0000000   0.3333333   0.0000000), wk =   0.4444444
        k(    4) = (   0.0000000   0.3333333   0.3333333), wk =   0.4444444
        k(    5) = (   0.3333333   0.3333333   0.0000000), wk =   0.1481481
        k(    6) = (   0.3333333   0.3333333   0.3333333), wk =   0.2962963
        k(    7) = (   0.0000000   0.3333333  -0.3333333), wk =   0.4444444

     Check: negative core charge=   -0.000002

     Initial potential from superposition of free atoms

     starting charge     119.9984, renormalised to     126.0000

     negative rho (up, down):  2.669E-01 0.000E+00
     Starting wfcs are   78 randomized atomic wfcs

     Self-consistent Calculation

     iteration #  1     ecut=    30.00 Ry     beta= 0.70
     Davidson diagonalization with overlap

     ethr =  1.00E-02,  avg # of iterations =  6.9

     negative rho (up, down):  2.574E-01 0.000E+00

     total energy              =   -1023.05088914 Ry
     estimated scf accuracy    <     284.15256862 Ry

[...]

     total energy              =   -1270.79125167 Ry
     estimated scf accuracy    <       0.00001887 Ry

     iteration # 22     ecut=    30.00 Ry     beta= 0.70
     Davidson diagonalization with overlap

     ethr =  1.50E-08,  avg # of iterations =  5.1

     negative rho (up, down):  2.585E-01 0.000E+00

     End of self-consistent calculation

          k = 0.0000 0.0000 0.0000 (  8201 PWs)   bands (ev):

   -15.9838 -15.9838 -15.9838 -15.9838 -15.9613 -15.9613 -15.9613 -15.9613
   -15.9604 -15.9604 -15.9466 -15.9466 -15.9466 -15.9466 -15.9323 -15.9322
   -15.9312 -15.9312 -15.9311 -15.9311 -15.1729 -15.1729 -15.0714 -15.0501
   -15.0501 -14.9349 -14.8960 -14.8960 -14.8102 -14.8102  -5.8183  -5.7781
    -5.3920  -5.2809  -4.7387  -3.7411  -3.7093  -2.1355  -2.1148  -1.1212
    -1.0472  -0.5847   4.8319   5.1477   5.1683   5.4113   5.4113   5.4297
     5.4297   5.5874   5.5874   5.6017   5.6595   5.6595   5.7271   6.1325
     6.1325   6.2130   6.2130   6.8275   7.0787   7.0788   7.2849   7.5094

     occupation numbers
     1.0000   1.0000   1.0000   1.0000   1.0000   1.0000   1.0000   1.0000
     1.0000   1.0000   1.0000   1.0000   1.0000   1.0000   1.0000   1.0000
     1.0000   1.0000   1.0000   1.0000   1.0000   1.0000   1.0000   1.0000
     1.0000   1.0000   1.0000   1.0000   1.0000   1.0000   1.0000   1.0000
     1.0000   1.0000   1.0000   1.0000   1.0000   1.0000   1.0000   1.0000
     1.0000   1.0000   1.0000   1.0000   1.0000   1.0000   1.0000   1.0000
     1.0000   1.0000   1.0000   1.0000   1.0000   1.0000   1.0000   1.0000
     1.0000   1.0000   1.0000   1.0000   1.0000   1.0000   1.0000   0.0000

[...]

          k = 0.0000 0.3849-0.0598 (  8129 PWs)   bands (ev):

   -15.9864 -15.9864 -15.9758 -15.9758 -15.9664 -15.9664 -15.9623 -15.9623
   -15.9558 -15.9558 -15.9499 -15.9499 -15.9389 -15.9389 -15.9357 -15.9357
   -15.9318 -15.9318 -15.9274 -15.9273 -15.1649 -15.1044 -15.0644 -15.0240
   -15.0080 -14.9572 -14.9309 -14.9041 -14.8909 -14.8119  -4.9595  -4.9340
    -4.6132  -4.5475  -3.9503  -3.4290  -3.4067  -2.6492  -2.5708  -2.1878
    -2.0931  -1.6376   2.7640   2.8247   3.5888   3.7432   4.0054   4.2266
     4.2348   4.2722   4.7279   4.7603   4.8252   4.8610   5.1169   5.3925
     5.8388   5.8981   6.0319   6.0730   6.3502   6.4365   6.9639   7.7908

     occupation numbers
     1.0000   1.0000   1.0000   1.0000   1.0000   1.0000   1.0000   1.0000
     1.0000   1.0000   1.0000   1.0000   1.0000   1.0000   1.0000   1.0000
     1.0000   1.0000   1.0000   1.0000   1.0000   1.0000   1.0000   1.0000
     1.0000   1.0000   1.0000   1.0000   1.0000   1.0000   1.0000   1.0000
     1.0000   1.0000   1.0000   1.0000   1.0000   1.0000   1.0000   1.0000
     1.0000   1.0000   1.0000   1.0000   1.0000   1.0000   1.0000   1.0000
     1.0000   1.0000   1.0000   1.0000   1.0000   1.0000   1.0000   1.0000
     1.0000   1.0000   1.0000   1.0000   1.0000   1.0000   1.0000   0.0000

     highest occupied, lowest unoccupied level (ev):     7.3272    7.4600

!    total energy              =   -1270.79125309 Ry
     estimated scf accuracy    <       0.00000047 Ry

     The total energy is the sum of the following terms:
     one-electron contribution =    -519.55056457 Ry
     hartree contribution      =     324.14465927 Ry
     xc contribution           =    -474.09240835 Ry
     ewald contribution        =    -601.29293943 Ry

     convergence has been achieved in  22 iterations

     Writing all to output data dir bands_nm/myprefix.save/

     General routines

     Parallel routines

   This run was terminated on:  18: 0:57  14Jul2023

   JOB DONE.