     Program PWSCF v.7.0 starts on  7Jun2023 at  9: 1:41

     K-points division:     npool     =       2
     R & G space division:  proc/nbgrp/npool/nimage =       4

     Reading input from espresso_8231.pwi
Warning: card &CELL ignored
Warning: card / ignored

     Current dimensions of program PWSCF are:
     Max number of different atomic species (ntypx) = 10
     Max number of k-points (npk) =  40000
     Max angular momentum in pseudopotentials (lmaxx) =  4
     file O.pbe-n-kjpaw_psl.0.1.UPF: wavefunction(s)  2P renormalized
     Message from routine setup:
     using ibrav=0 with symmetry is DISCOURAGED, use correct ibrav instead

     Using Slab Decomposition

     bravais-lattice index     =            0
     lattice parameter (alat)  =      13.4341  a.u.
     unit-cell volume          =    1404.7335 (a.u.)^3
     number of atoms/cell      =           12
     number of atomic types    =            4
     number of electrons       =        84.00
     number of Kohn-Sham states=           64
     kinetic-energy cutoff     =      30.0000  Ry
     charge density cutoff     =     240.0000  Ry
     scf convergence threshold =      1.0E-06
     mixing beta               =       0.7000
     number of iterations used =            8  plain     mixing
     Exchange-correlation=  SLA  PW   PBX  PBC
                           (   1   4   3   4   0   0   0)

     celldm(1)=  13.434110  celldm(2)=   0.000000  celldm(3)=   0.000000
     celldm(4)=   0.000000  celldm(5)=   0.000000  celldm(6)=   0.000000

     crystal axes: (cart. coord. in units of alat)
               a(1) = (   1.000000   0.000000   0.000000 )
               a(2) = (   0.000000   0.624456   0.000000 )
               a(3) = (   0.000000   0.099445   0.927823 )

     reciprocal axes: (cart. coord. in units 2 pi/alat)
               b(1) = (  1.000000  0.000000  0.000000 )
               b(2) = (  0.000000  1.601393 -0.171639 )
               b(3) = (  0.000000  0.000000  1.077792 )

     PseudoPot. # 1 for Y  read from file:
     /home/pragov/projects/rrg-bengioy-ad/pragov/crystal_structure_design/SSSP/Y_pbe_v1.uspp.F.UPF
     MD5 check sum: 2cf71db95cafeb975fc457bd7f14888e
     Pseudo is Ultrasoft + core correction, Zval = 11.0
     Generated by new atomic code, or converted to UPF format
     Using radial grid of  885 points,  6 beta functions with:
                l(1) =   0
                l(2) =   0
                l(3) =   1
                l(4) =   1
                l(5) =   2
                l(6) =   2
     Q(r) pseudized with  6 coefficients,  rinner =    1.200   1.200   1.200
                                                       1.200   1.200

     PseudoPot. # 2 for Se read from file:
     /home/pragov/projects/rrg-bengioy-ad/pragov/crystal_structure_design/SSSP/Se_pbe_v1.uspp.F.UPF
     MD5 check sum: 1b3568f3a8ae88f9a2a0ad0698632c85
     Pseudo is Ultrasoft + core correction, Zval =  6.0
     Generated by new atomic code, or converted to UPF format
     Using radial grid of  877 points,  6 beta functions with:
                l(1) =   0
                l(2) =   0
                l(3) =   1
                l(4) =   1
                l(5) =   2
                l(6) =   2
     Q(r) pseudized with  8 coefficients,  rinner =    1.300   1.300   1.300
                                                       1.300   1.300

     PseudoPot. # 3 for O  read from file:
     /home/pragov/projects/rrg-bengioy-ad/pragov/crystal_structure_design/SSSP/O.pbe-n-kjpaw_psl.0.1.UPF
     MD5 check sum: 0234752ac141de4415c5fc33072bef88
     Pseudo is Projector augmented-wave + core cor, Zval =  6.0
     Generated using "atomic" code by A. Dal Corso  v.5.0.99 svn rev. 10869
     Shape of augmentation charge: BESSEL
     Using radial grid of 1095 points,  4 beta functions with:
                l(1) =   0
                l(2) =   0
                l(3) =   1
                l(4) =   1
     Q(r) pseudized with 0 coefficients

     PseudoPot. # 4 for F  read from file:
     /home/pragov/projects/rrg-bengioy-ad/pragov/crystal_structure_design/SSSP/f_pbe_v1.4.uspp.F.UPF
     MD5 check sum: 4c38b6a325caf53ec0e86aed9459de46
     Pseudo is Ultrasoft, Zval =  7.0
     Generated by new atomic code, or converted to UPF format
     Using radial grid of  799 points,  4 beta functions with:
                l(1) =   0
                l(2) =   0
                l(3) =   1
                l(4) =   1
     Q(r) pseudized with  8 coefficients,  rinner =    0.950   0.950   0.950

     atomic species   valence    mass     pseudopotential
        Y             11.00    88.90584     Y ( 1.00)
        Se             6.00    78.97100     Se( 1.00)
        O              6.00    15.99900     O ( 1.00)
        F              7.00    18.99840     F ( 1.00)

      4 Sym. Ops., with inversion, found ( 2 have fractional translation)

                                    s                        frac. trans.

      isym =  1     identity

 cryst.   s( 1) = (     1          0          0      )
                  (     0          1          0      )
                  (     0          0          1      )

 cart.    s( 1) = (  1.0000000  0.0000000  0.0000000 )
                  (  0.0000000  1.0000000 -0.0000000 )
                  (  0.0000000  0.0000000  1.0000000 )

      isym =  2     180 deg rotation - cart. axis [1,0,0]

 cryst.   s( 2) = (     1          0          0      )    f =( -0.5000000 )
                  (     0         -1          0      )       ( -0.0000000 )
                  (     0          0         -1      )       (  0.0000000 )

 cart.    s( 2) = (  1.0000000  0.0000000  0.0000000 )    f =( -0.5000000 )
                  (  0.0000000 -1.0000000  0.0000000 )       ( -0.0000000 )
                  (  0.0000000  0.0000000 -1.0000000 )       (  0.0000000 )

      isym =  3     inversion

 cryst.   s( 3) = (    -1          0          0      )
                  (     0         -1          0      )
                  (     0          0         -1      )

 cart.    s( 3) = ( -1.0000000  0.0000000  0.0000000 )
                  (  0.0000000 -1.0000000  0.0000000 )
                  (  0.0000000  0.0000000 -1.0000000 )

      isym =  4     inv. 180 deg rotation - cart. axis [1,0,0]

 cryst.   s( 4) = (    -1          0          0      )    f =(  0.5000000 )
                  (     0          1          0      )       (  0.0000000 )
                  (     0          0          1      )       (  0.0000000 )

 cart.    s( 4) = ( -1.0000000  0.0000000  0.0000000 )    f =(  0.5000000 )
                  (  0.0000000  1.0000000 -0.0000000 )       (  0.0000000 )
                  (  0.0000000  0.0000000  1.0000000 )       (  0.0000000 )

   Cartesian axes

     site n.     atom                  positions (alat units)
         1           Y   tau(   1) = (   0.2500000   0.3734585   0.3380338  )
         2           Y   tau(   2) = (   0.7500000   0.3504430   0.5897893  )
         3           Se  tau(   3) = (   0.7500000   0.4394401   0.1373605  )
         4           Se  tau(   4) = (   0.2500000   0.2844614   0.7904626  )
         5           O   tau(   5) = (   0.2500000   0.3696273   0.0145343  )
         6           O   tau(   6) = (   0.7500000   0.3542742   0.9132888  )
         7           O   tau(   7) = (   0.5739140   0.3826547   0.2995969  )
         8           O   tau(   8) = (   0.0739140   0.3412468   0.6282263  )
         9           O   tau(   9) = (   0.4260860   0.3412468   0.6282263  )
        10           O   tau(  10) = (   0.9260860   0.3826547   0.2995969  )
        11           F   tau(  11) = (   0.2500000   0.0601282   0.3256242  )
        12           F   tau(  12) = (   0.7500000   0.6637733   0.6021990  )

   Crystallographic axes

     site n.     atom                  positions (cryst. coord.)
         1           Y   tau(   1) = (  0.2500000  0.5400340  0.3643300  )
         2           Y   tau(   2) = (  0.7500000  0.4599660  0.6356700  )
         3           Se  tau(   3) = (  0.7500000  0.6801400  0.1480460  )
         4           Se  tau(   4) = (  0.2500000  0.3198600  0.8519540  )
         5           O   tau(   5) = (  0.2500000  0.5894240  0.0156650  )
         6           O   tau(   6) = (  0.7500000  0.4105760  0.9843350  )
         7           O   tau(   7) = (  0.5739140  0.5613580  0.3229030  )
         8           O   tau(   8) = (  0.0739140  0.4386420  0.6770970  )
         9           O   tau(   9) = (  0.4260860  0.4386420  0.6770970  )
        10           O   tau(  10) = (  0.9260860  0.5613580  0.3229030  )
        11           F   tau(  11) = (  0.2500000  0.0403990  0.3509550  )
        12           F   tau(  12) = (  0.7500000  0.9596010  0.6490450  )

     number of k points=    10
                       cart. coord. in units 2pi/alat
        k(    1) = (   0.0000000   0.0000000   0.0000000), wk =   0.0740741
        k(    2) = (   0.0000000   0.0000000   0.3592639), wk =   0.1481481
        k(    3) = (   0.0000000   0.5337977  -0.0572131), wk =   0.1481481
        k(    4) = (   0.0000000   0.5337977   0.3020507), wk =   0.1481481
        k(    5) = (   0.0000000   0.5337977  -0.4164770), wk =   0.1481481
        k(    6) = (   0.3333333   0.0000000   0.0000000), wk =   0.1481481
        k(    7) = (   0.3333333   0.0000000   0.3592639), wk =   0.2962963
        k(    8) = (   0.3333333   0.5337977  -0.0572131), wk =   0.2962963
        k(    9) = (   0.3333333   0.5337977   0.3020507), wk =   0.2962963
        k(   10) = (   0.3333333   0.5337977  -0.4164770), wk =   0.2962963

                       cryst. coord.
        k(    1) = (   0.0000000   0.0000000   0.0000000), wk =   0.0740741
        k(    2) = (   0.0000000   0.0000000   0.3333333), wk =   0.1481481
        k(    3) = (   0.0000000   0.3333333   0.0000000), wk =   0.1481481
        k(    4) = (   0.0000000   0.3333333   0.3333333), wk =   0.1481481
        k(    5) = (   0.0000000   0.3333333  -0.3333333), wk =   0.1481481
        k(    6) = (   0.3333333   0.0000000   0.0000000), wk =   0.1481481
        k(    7) = (   0.3333333   0.0000000   0.3333333), wk =   0.2962963
        k(    8) = (   0.3333333   0.3333333   0.0000000), wk =   0.2962963
        k(    9) = (   0.3333333   0.3333333   0.3333333), wk =   0.2962963
        k(   10) = (   0.3333333   0.3333333  -0.3333333), wk =   0.2962963

     Check: negative core charge=   -0.000009

     Initial potential from superposition of free atoms

     starting charge      83.9909, renormalised to      84.0000

     negative rho (up, down):  8.668E-02 0.000E+00
     Starting wfcs are   66 randomized atomic wfcs
     Checking if some PAW data can be deallocated...

     Self-consistent Calculation

     iteration #  1     ecut=    30.00 Ry     beta= 0.70
     Davidson diagonalization with overlap

     ethr =  1.00E-02,  avg # of iterations =  4.1

     negative rho (up, down):  8.899E-02 0.000E+00

     total energy              =    -608.36611471 Ry
     estimated scf accuracy    <       3.24409471 Ry

[...]

     total energy              =    -609.97788845 Ry
     estimated scf accuracy    <       0.00000102 Ry

     iteration #  9     ecut=    30.00 Ry     beta= 0.70
     Davidson diagonalization with overlap

     ethr =  1.21E-09,  avg # of iterations =  2.4

     negative rho (up, down):  9.064E-02 0.000E+00

     End of self-consistent calculation

          k = 0.0000 0.0000 0.0000 (  3891 PWs)   bands (ev):

   -36.8693 -36.8597 -18.1204 -18.1143 -17.3126 -17.1997 -17.1291 -16.9875
   -16.9751 -16.9018 -16.4118 -16.2150 -13.6777 -13.5483 -13.4845 -13.2633
    -6.9545  -6.5550  -1.9832  -1.8078  -1.6895  -0.8436  -0.8121  -0.6562
     0.5488   0.5516   0.6100   0.6565   0.6640   0.8265   1.0650   1.1104
     1.3721   1.8007   2.0583   2.3232   2.4014   2.5313   2.6058   2.7280
     2.7379   2.8215   7.8573   8.5539   8.6209   8.6959   9.0967   9.0994
     9.5354   9.6704   9.7798  10.0028  10.1667  10.4094  11.2337  11.2872
    11.6391  12.2780  12.8809  13.2439  13.7153  14.5529  14.6001  14.6562

     occupation numbers
     1.0000   1.0000   1.0000   1.0000   1.0000   1.0000   1.0000   1.0000
     1.0000   1.0000   1.0000   1.0000   1.0000   1.0000   1.0000   1.0000
     1.0000   1.0000   1.0000   1.0000   1.0000   1.0000   1.0000   1.0000
     1.0000   1.0000   1.0000   1.0000   1.0000   1.0000   1.0000   1.0000
     1.0000   1.0000   1.0000   1.0000   1.0000   1.0000   1.0000   1.0000
     1.0000   1.0000   0.0000   0.0000   0.0000   0.0000   0.0000   0.0000
     0.0000   0.0000   0.0000   0.0000   0.0000   0.0000   0.0000   0.0000
     0.0000   0.0000   0.0000   0.0000   0.0000   0.0000   0.0000   0.0000

[...]

          k = 0.3333 0.5338-0.4165 (  3906 PWs)   bands (ev):

   -36.8624 -36.8576 -18.9736 -18.9683 -17.5365 -17.4520 -17.0694 -16.9177
   -15.8470 -15.8280 -15.7709 -15.7311 -13.8754 -13.7814 -13.6186 -13.5204
    -6.7663  -6.5466  -1.8611  -1.7750  -1.4369  -1.1957  -0.9758  -0.9051
    -0.6208  -0.6098   0.3887   0.4233   0.4768   0.5851   0.9742   1.0833
     1.4923   1.8570   1.9120   2.1439   2.2755   2.3355   2.5791   2.7424
     3.2203   3.2998   7.8131   8.2337   8.9315   9.0790   9.4461   9.8452
    10.0476  10.0720  10.2505  10.3411  10.5823  11.1300  11.6846  12.1102
    12.7326  12.7642  13.2805  13.3696  13.5368  13.9213  14.7435  15.2104

     occupation numbers
     1.0000   1.0000   1.0000   1.0000   1.0000   1.0000   1.0000   1.0000
     1.0000   1.0000   1.0000   1.0000   1.0000   1.0000   1.0000   1.0000
     1.0000   1.0000   1.0000   1.0000   1.0000   1.0000   1.0000   1.0000
     1.0000   1.0000   1.0000   1.0000   1.0000   1.0000   1.0000   1.0000
     1.0000   1.0000   1.0000   1.0000   1.0000   1.0000   1.0000   1.0000
     1.0000   1.0000   0.0000   0.0000   0.0000   0.0000   0.0000   0.0000
     0.0000   0.0000   0.0000   0.0000   0.0000   0.0000   0.0000   0.0000
     0.0000   0.0000   0.0000   0.0000   0.0000   0.0000   0.0000   0.0000

     highest occupied, lowest unoccupied level (ev):     3.4170    7.5776

!    total energy              =    -609.97788874 Ry
     estimated scf accuracy    <       0.00000011 Ry

     The total energy is the sum of the following terms:
     one-electron contribution =    -254.55316028 Ry
     hartree contribution      =     166.72450150 Ry
     xc contribution           =    -166.79323338 Ry
     ewald contribution        =    -298.19078526 Ry
     one-center paw contrib.   =     -57.16521132 Ry
      -> PAW hartree energy AE =       0.00000000 Ry
      -> PAW hartree energy PS =       0.00000000 Ry
      -> PAW xc energy AE      =       0.00000000 Ry
      -> PAW xc energy PS      =       0.00000000 Ry
      -> total E_H with PAW    =     166.72450150 Ry
      -> total E_XC with PAW   =    -166.79323338 Ry

     convergence has been achieved in   9 iterations

     Writing all to output data dir calculations_bands/myprefix.save/

     General routines

     Parallel routines

     PAW routines

   This run was terminated on:   9: 1:51   7Jun2023

   JOB DONE.