     Program PWSCF v.7.1 starts on 14Jul2023 at  2:14:16

     Reading input from espresso_6991.pwi
Warning: card &CELL ignored
Warning: card / ignored

     Current dimensions of program PWSCF are:
     Max number of different atomic species (ntypx) = 10
     Max number of k-points (npk) =  40000
     Max angular momentum in pseudopotentials (lmaxx) =  4
     file Cd.pbe-dn-rrkjus_psl.0.3.1.UPF: wavefunction(s)  4D renormalized
     file Ga.pbe-dn-kjpaw_psl.1.0.0.UPF: wavefunction(s)  4S renormalized
     Message from routine setup:
     using ibrav=0 with symmetry is DISCOURAGED, use correct ibrav instead

     K-points division:     npool     =       2
     R & G space division:  proc/nbgrp/npool/nimage =       4
     Subspace diagonalization in iterative solution of the eigenvalue problem:
     a serial algorithm will be used

     Using Slab Decomposition

     bravais-lattice index     =            0
     lattice parameter (alat)  =      11.8857  a.u.
     unit-cell volume          =    2575.3038 (a.u.)^3
     number of atoms/cell      =           11
     number of atomic types    =            3
     number of electrons       =        98.00
     number of Kohn-Sham states=           64
     kinetic-energy cutoff     =      30.0000  Ry
     charge density cutoff     =     240.0000  Ry
     scf convergence threshold =      1.0E-06
     mixing beta               =       0.7000
     number of iterations used =            8  plain     mixing
     Exchange-correlation= SLA  PW   PBE  PBE
                           (   1   4   3   4   0   0   0)

     celldm(1)=  11.885714  celldm(2)=   0.000000  celldm(3)=   0.000000
     celldm(4)=   0.000000  celldm(5)=   0.000000  celldm(6)=   0.000000

     crystal axes: (cart. coord. in units of alat)
               a(1) = (   1.000000   0.000000   0.000000 )
               a(2) = (   0.000000   1.429375   0.000000 )
               a(3) = (  -0.500000   0.404846   1.073016 )

     reciprocal axes: (cart. coord. in units 2 pi/alat)
               b(1) = (  1.000000  0.000000  0.465976 )
               b(2) = (  0.000000  0.699606 -0.263960 )
               b(3) = (  0.000000  0.000000  0.931952 )

     PseudoPot. # 1 for Cd read from file:
     /lustre07/scratch/pragov/crystal_structure_design/utils/SSSP/Cd.pbe-dn-rrkjus_psl.0.3.1.UPF
     MD5 check sum: 558e9f355611b531a870a69ef6ace9e2
     Pseudo is Ultrasoft + core correction, Zval = 12.0
     Generated using "atomic" code by A. Dal Corso  v.5.0.99 svn rev. 10869
     Using radial grid of 1239 points,  6 beta functions with:
                l(1) =   0
                l(2) =   0
                l(3) =   1
                l(4) =   1
                l(5) =   2
                l(6) =   2
     Q(r) pseudized with 0 coefficients

     PseudoPot. # 2 for Ga read from file:
     /lustre07/scratch/pragov/crystal_structure_design/utils/SSSP/Ga.pbe-dn-kjpaw_psl.1.0.0.UPF
     MD5 check sum: a27b4342b1af7e5f338de752e9ed7044
     Pseudo is Projector augmented-wave + core cor, Zval = 13.0
     Generated using "atomic" code by A. Dal Corso  v.5.1
     Shape of augmentation charge: PSQ
     Using radial grid of 1205 points,  6 beta functions with:
                l(1) =   0
                l(2) =   0
                l(3) =   1
                l(4) =   1
                l(5) =   2
                l(6) =   2
     Q(r) pseudized with 0 coefficients

     PseudoPot. # 3 for Te read from file:
     /lustre07/scratch/pragov/crystal_structure_design/utils/SSSP/Te_pbe_v1.uspp.F.UPF
     MD5 check sum: c319670d6894cc26e93307826a071b75
     Pseudo is Ultrasoft + core correction, Zval =  6.0
     Generated by new atomic code, or converted to UPF format
     Using radial grid of  891 points,  5 beta functions with:
                l(1) =   0
                l(2) =   0
                l(3) =   1
                l(4) =   1
                l(5) =   2
     Q(r) pseudized with  6 coefficients,  rinner =    1.800   1.800   1.800
                                                       1.800   1.800

     atomic species   valence    mass     pseudopotential
        Cd            12.00   112.41400     Cd( 1.00)
        Ga            13.00    69.72300     Ga( 1.00)
        Te             6.00   127.60000     Te( 1.00)

      2 Sym. Ops. (no inversion) found ( 1 have fractional translation)

                                    s                        frac. trans.

      isym =  1     identity

 cryst.   s( 1) = (     1          0          0      )
                  (     0          1          0      )
                  (     0          0          1      )

 cart.    s( 1) = (  1.0000000  0.0000000  0.0000000 )
                  (  0.0000000  1.0000000 -0.0000000 )
                  (  0.0000000  0.0000000  1.0000000 )

      isym =  2     180 deg rotation - cart. axis [1,0,0]

 cryst.   s( 2) = (     1          0          0      )    f =( -0.3333340 )
                  (     0         -1          0      )       ( -0.3333330 )
                  (    -1          0         -1      )       (  0.3333330 )

 cart.    s( 2) = (  1.0000000  0.0000000  0.0000001 )    f =( -0.5000005 )
                  (  0.0000000 -1.0000000  0.0000000 )       ( -0.3415094 )
                  (  0.0000000  0.0000000 -1.0000000 )       (  0.3576718 )

   Cartesian axes

     site n.     atom                  positions (alat units)
         1           Cd  tau(   1) = (  -0.0026025   1.4101593   0.0192961  )
         2           Cd  tau(   2) = (   0.5325765   0.3731783   0.3576718  )
         3           Cd  tau(   3) = (  -0.0026031   0.7655715   0.6960486  )
         4           Ga  tau(   4) = (   0.4893744   1.1311711   1.0680215  )
         5           Ga  tau(   5) = (  -0.0106261   1.4494058   0.7203395  )
         6           Te  tau(   6) = (   0.2739975   1.0463496   0.0155319  )
         7           Te  tau(   7) = (   0.7380950   1.4043448   0.3874212  )
         8           Te  tau(   8) = (   0.2348474   0.3750086   0.7183276  )
         9           Te  tau(   9) = (  -0.2651521   0.7761930   1.0700334  )
        10           Te  tau(  10) = (   0.7380950   0.7713870   0.3279224  )
        11           Te  tau(  11) = (   0.2739969   1.1293812   0.6998127  )

   Crystallographic axes

     site n.     atom                  positions (cryst. coord.)
         1           Cd  tau(   1) = (  0.0063890  0.9814630  0.0179830  )
         2           Cd  tau(   2) = (  0.6992430  0.1666670  0.3333330  )
         3           Cd  tau(   3) = (  0.3217390  0.3518700  0.6486840  )
         4           Ga  tau(   4) = (  0.9870470  0.5094600  0.9953450  )
         5           Ga  tau(   5) = (  0.3250350  0.8238730  0.6713220  )
         6           Te  tau(   6) = (  0.2812350  0.7279330  0.0144750  )
         7           Te  tau(   7) = (  0.9186240  0.8802250  0.3610580  )
         8           Te  tau(   8) = (  0.5695710  0.0727490  0.6694470  )
         9           Te  tau(   9) = (  0.2334580  0.2605840  0.9972200  )
        10           Te  tau(  10) = (  0.8908990  0.4531090  0.3056080  )
        11           Te  tau(  11) = (  0.6000930  0.6054000  0.6521920  )

     number of k points=    10
                       cart. coord. in units 2pi/alat
        k(    1) = (   0.0000000   0.0000000   0.0000000), wk =   0.0740741
        k(    2) = (   0.0000000   0.0000000   0.3106507), wk =   0.1481481
        k(    3) = (   0.0000000   0.2332021  -0.0879865), wk =   0.1481481
        k(    4) = (   0.0000000   0.2332021   0.2226642), wk =   0.1481481
        k(    5) = (   0.0000000   0.2332021  -0.3986372), wk =   0.1481481
        k(    6) = (   0.3333333   0.0000000   0.1553254), wk =   0.2962963
        k(    7) = (   0.3333333   0.0000000   0.4659761), wk =   0.1481481
        k(    8) = (   0.3333333   0.2332021   0.0673389), wk =   0.2962963
        k(    9) = (   0.3333333   0.2332021   0.3779896), wk =   0.2962963
        k(   10) = (   0.3333333   0.2332021  -0.2433118), wk =   0.2962963

                       cryst. coord.
        k(    1) = (   0.0000000   0.0000000   0.0000000), wk =   0.0740741
        k(    2) = (   0.0000000   0.0000000   0.3333333), wk =   0.1481481
        k(    3) = (   0.0000000   0.3333333  -0.0000000), wk =   0.1481481
        k(    4) = (   0.0000000   0.3333333   0.3333333), wk =   0.1481481
        k(    5) = (   0.0000000   0.3333333  -0.3333333), wk =   0.1481481
        k(    6) = (   0.3333333   0.0000000   0.0000000), wk =   0.2962963
        k(    7) = (   0.3333333   0.0000000   0.3333333), wk =   0.1481481
        k(    8) = (   0.3333333   0.3333333  -0.0000000), wk =   0.2962963
        k(    9) = (   0.3333333   0.3333333   0.3333333), wk =   0.2962963
        k(   10) = (   0.3333333   0.3333333  -0.3333333), wk =   0.2962963

     Initial potential from superposition of free atoms

     starting charge      97.9781, renormalised to      98.0000
     Starting wfcs are   69 randomized atomic wfcs
     Checking if some PAW data can be deallocated...

     Self-consistent Calculation

     iteration #  1     ecut=    30.00 Ry     beta= 0.70
     Davidson diagonalization with overlap

     ethr =  1.00E-02,  avg # of iterations =  3.8

     Threshold (ethr) on eigenvalues was too large:
     Diagonalizing with lowered threshold

     Davidson diagonalization with overlap

[...]

     total energy              =   -1081.64926633 Ry
     estimated scf accuracy    <       0.22653170 Ry

[...]

     total energy              =   -1081.73413007 Ry
     estimated scf accuracy    <       0.00000115 Ry

     iteration #  9     ecut=    30.00 Ry     beta= 0.70
     Davidson diagonalization with overlap

     ethr =  1.17E-09,  avg # of iterations =  3.8

     End of self-consistent calculation

          k = 0.0000 0.0000 0.0000 (  7127 PWs)   bands (ev):

   -10.3678 -10.3617 -10.3525 -10.3498 -10.3491 -10.3248 -10.3061 -10.3041
   -10.2967 -10.2929  -6.9077  -6.1840  -6.0399  -5.8491  -5.7782  -5.7778
    -3.4870  -3.4742  -3.4527  -3.4146  -3.3836  -3.3807  -3.3601  -3.3477
    -3.3225  -3.3079  -3.2964  -3.2920  -3.2355  -3.1011  -3.0893  -1.3835
    -0.9389   0.5235   0.5422   1.3931   1.7577   1.8451   2.1731   2.1907
     2.5575   2.7349   3.0981   3.2328   3.2389   3.4345   4.4252   4.6009
     4.6181   5.1992   6.6404   6.7180   7.0012   7.1730   7.3399   8.1787
     8.6120   8.7969   8.8918   9.0970   9.2333   9.3335   9.5463   9.5950

     occupation numbers
     1.0000   1.0000   1.0000   1.0000   1.0000   1.0000   1.0000   1.0000
     1.0000   1.0000   1.0000   1.0000   1.0000   1.0000   1.0000   1.0000
     1.0000   1.0000   1.0000   1.0000   1.0000   1.0000   1.0000   1.0000
     1.0000   1.0000   1.0000   1.0000   1.0000   1.0000   1.0000   1.0000
     1.0000   1.0000   1.0000   1.0000   1.0000   1.0000   1.0000   1.0000
     1.0000   1.0000   1.0000   1.0000   1.0000   1.0000   1.0000   1.0000
     1.0000   0.0000   0.0000   0.0000   0.0000   0.0000   0.0000   0.0000
     0.0000   0.0000   0.0000   0.0000   0.0000   0.0000   0.0000   0.0000

[...]

          k = 0.3333 0.2332-0.2433 (  7140 PWs)   bands (ev):

   -10.3674 -10.3652 -10.3506 -10.3497 -10.3441 -10.3312 -10.3056 -10.3045
   -10.2957 -10.2936  -6.5849  -6.3580  -6.0379  -5.9646  -5.8790  -5.7758
    -3.4839  -3.4655  -3.4525  -3.4320  -3.4144  -3.3819  -3.3575  -3.3395
    -3.3268  -3.3148  -3.3076  -3.2956  -3.2255  -3.1476  -3.1179  -1.2288
    -0.8334   0.5199   0.7337   1.0471   1.5324   1.7652   2.1158   2.3331
     2.7365   2.8726   3.0436   3.1699   3.2562   3.5960   3.8415   4.2274
     4.3884   5.9228   6.3889   7.1105   7.2852   7.4169   8.3816   8.5358
     8.8344   8.9419   9.1671   9.2595   9.3472   9.5951   9.8061  10.0917

     occupation numbers
     1.0000   1.0000   1.0000   1.0000   1.0000   1.0000   1.0000   1.0000
     1.0000   1.0000   1.0000   1.0000   1.0000   1.0000   1.0000   1.0000
     1.0000   1.0000   1.0000   1.0000   1.0000   1.0000   1.0000   1.0000
     1.0000   1.0000   1.0000   1.0000   1.0000   1.0000   1.0000   1.0000
     1.0000   1.0000   1.0000   1.0000   1.0000   1.0000   1.0000   1.0000
     1.0000   1.0000   1.0000   1.0000   1.0000   1.0000   1.0000   1.0000
     1.0000   0.0000   0.0000   0.0000   0.0000   0.0000   0.0000   0.0000
     0.0000   0.0000   0.0000   0.0000   0.0000   0.0000   0.0000   0.0000

     highest occupied, lowest unoccupied level (ev):     4.6181    5.1992

!    total energy              =   -1081.73413041 Ry
     estimated scf accuracy    <       0.00000011 Ry

     The total energy is the sum of the following terms:
     one-electron contribution =    -463.18298674 Ry
     hartree contribution      =     301.71764404 Ry
     xc contribution           =    -291.32658483 Ry
     ewald contribution        =    -407.10073355 Ry
     one-center paw contrib.   =    -221.84146932 Ry
      -> PAW hartree energy AE =       0.00000000 Ry
      -> PAW hartree energy PS =       0.00000000 Ry
      -> PAW xc energy AE      =       0.00000000 Ry
      -> PAW xc energy PS      =       0.00000000 Ry
      -> total E_H with PAW    =     301.71764404 Ry
      -> total E_XC with PAW   =    -291.32658483 Ry

     convergence has been achieved in   9 iterations

     Writing all to output data dir bands_nm/myprefix.save/

     General routines

     Parallel routines

     PAW routines

   This run was terminated on:   2:14:46  14Jul2023

   JOB DONE.