     Program PWSCF v.7.1 starts on 15Jul2023 at 14:22:37

     Reading input from espresso_18008.pwi
Warning: card &CELL ignored
Warning: card / ignored

     Current dimensions of program PWSCF are:
     Max number of different atomic species (ntypx) = 10
     Max number of k-points (npk) =  40000
     Max angular momentum in pseudopotentials (lmaxx) =  4
     file Ba.pbe-spn-kjpaw_psl.1.0.0.UPF: wavefunction(s)  5S 6S renormalized
     file Eu.paw.z_17.atompaw.wentzcovitch.v1.2.upf: wavefunction(s)  6S 0P 5D 0D 4F 0F renormalized
     file O.pbe-n-kjpaw_psl.0.1.UPF: wavefunction(s)  2P renormalized
     Message from routine setup:
     the system is metallic, specify occupations
     Message from routine setup:
     using ibrav=0 with symmetry is DISCOURAGED, use correct ibrav instead

     K-points division:     npool     =       2
     R & G space division:  proc/nbgrp/npool/nimage =       4
     Subspace diagonalization in iterative solution of the eigenvalue problem:
     a serial algorithm will be used

     Using Slab Decomposition

     bravais-lattice index     =            0
     lattice parameter (alat)  =       7.9811  a.u.
     unit-cell volume          =    1016.7304 (a.u.)^3
     number of atoms/cell      =           10
     number of atomic types    =            4
     number of electrons       =        87.00 (up:  47.00, down:  40.00)
     number of Kohn-Sham states=           64
     kinetic-energy cutoff     =      30.0000  Ry
     charge density cutoff     =     240.0000  Ry
     scf convergence threshold =      1.0E-06
     mixing beta               =       0.7000
     number of iterations used =            8  plain     mixing
     Exchange-correlation= SLA  PW   PBX  PBC
                           (   1   4   3   4   0   0   0)

     celldm(1)=   7.981098  celldm(2)=   0.000000  celldm(3)=   0.000000
     celldm(4)=   0.000000  celldm(5)=   0.000000  celldm(6)=   0.000000

     crystal axes: (cart. coord. in units of alat)
               a(1) = (   1.000000   0.000000   0.000000 )
               a(2) = (   0.000000   1.000000   0.000000 )
               a(3) = (   0.000000   0.000000   1.999945 )

     reciprocal axes: (cart. coord. in units 2 pi/alat)
               b(1) = (  1.000000  0.000000  0.000000 )
               b(2) = (  0.000000  1.000000  0.000000 )
               b(3) = (  0.000000  0.000000  0.500014 )

     PseudoPot. # 1 for Ba read from file:
     /lustre07/scratch/pragov/crystal_structure_design/utils/SSSP/Ba.pbe-spn-kjpaw_psl.1.0.0.UPF
     MD5 check sum: c432291d3e53af55f19d5e8866385beb
     Pseudo is Projector augmented-wave + core cor, Zval = 10.0
     Generated using "atomic" code by A. Dal Corso  v.5.1
     Shape of augmentation charge: PSQ
     Using radial grid of 1251 points,  7 beta functions with:
                l(1) =   0
                l(2) =   0
                l(3) =   0
                l(4) =   1
                l(5) =   1
                l(6) =   2
                l(7) =   2
     Q(r) pseudized with 0 coefficients

     PseudoPot. # 2 for Eu read from file:
     /lustre07/scratch/pragov/crystal_structure_design/utils/SSSP/Eu.paw.z_17.atompaw.wentzcovitch.v1.2.upf
     MD5 check sum: 52b6e423bc4e840b6e0dc4248fa51623
     Pseudo is Projector augmented-wave + core cor, Zval = 17.0
     Generated using ATOMPAW code
     Shape of augmentation charge: BESSEL
     Using radial grid of 1109 points,  8 beta functions with:
                l(1) =   0
                l(2) =   0
                l(3) =   1
                l(4) =   1
                l(5) =   2
                l(6) =   2
                l(7) =   3
                l(8) =   3
     Q(r) pseudized with 0 coefficients

     PseudoPot. # 3 for Zr read from file:
     /lustre07/scratch/pragov/crystal_structure_design/utils/SSSP/Zr_pbe_v1.uspp.F.UPF
     MD5 check sum: 5db81b1e868ab7776c4564c113de050b
     Pseudo is Ultrasoft + core correction, Zval = 12.0
     Generated by new atomic code, or converted to UPF format
     Using radial grid of  887 points,  6 beta functions with:
                l(1) =   0
                l(2) =   0
                l(3) =   1
                l(4) =   1
                l(5) =   2
                l(6) =   2
     Q(r) pseudized with  6 coefficients,  rinner =    1.200   1.200   1.200
                                                       1.200   1.200

     PseudoPot. # 4 for O  read from file:
     /lustre07/scratch/pragov/crystal_structure_design/utils/SSSP/O.pbe-n-kjpaw_psl.0.1.UPF
     MD5 check sum: 0234752ac141de4415c5fc33072bef88
     Pseudo is Projector augmented-wave + core cor, Zval =  6.0
     Generated using "atomic" code by A. Dal Corso  v.5.0.99 svn rev. 10869
     Shape of augmentation charge: BESSEL
     Using radial grid of 1095 points,  4 beta functions with:
                l(1) =   0
                l(2) =   0
                l(3) =   1
                l(4) =   1
     Q(r) pseudized with 0 coefficients

     atomic species   valence    mass     pseudopotential
        Ba            10.00   137.32700     Ba( 1.00)
        Eu            17.00   151.96400     Eu( 1.00)
        Zr            12.00    91.22400     Zr( 1.00)
        O              6.00    15.99900     O ( 1.00)

     Starting magnetic structure
     atomic species   magnetization
        Ba           0.000
        Eu           0.000
        Zr           0.000
        O            0.000

     16 Sym. Ops., with inversion, found

                                    s                        frac. trans.

      isym =  1     identity

 cryst.   s( 1) = (     1          0          0      )
                  (     0          1          0      )
                  (     0          0          1      )

 cart.    s( 1) = (  1.0000000  0.0000000  0.0000000 )
                  (  0.0000000  1.0000000  0.0000000 )
                  (  0.0000000  0.0000000  1.0000000 )

      isym =  2     180 deg rotation - cart. axis [0,0,1]

[...]

      isym =  8      90 deg rotation - cart. axis [0,0,1]

[...]

      isym =  9     inversion

 cryst.   s( 9) = (    -1          0          0      )
                  (     0         -1          0      )
                  (     0          0         -1      )

 cart.    s( 9) = ( -1.0000000  0.0000000  0.0000000 )
                  (  0.0000000 -1.0000000  0.0000000 )
                  (  0.0000000  0.0000000 -1.0000000 )

      isym = 10     inv. 180 deg rotation - cart. axis [0,0,1]

 cryst.   s(10) = (     1          0          0      )
                  (     0          1          0      )
                  (     0          0         -1      )

 cart.    s(10) = (  1.0000000  0.0000000  0.0000000 )
                  (  0.0000000  1.0000000  0.0000000 )
                  (  0.0000000  0.0000000 -1.0000000 )

[...]

      isym = 16     inv.  90 deg rotation - cart. axis [0,0,1]

 cryst.   s(16) = (     0         -1          0      )
                  (     1          0          0      )
                  (     0          0         -1      )

 cart.    s(16) = (  0.0000000  1.0000000  0.0000000 )
                  ( -1.0000000  0.0000000  0.0000000 )
                  (  0.0000000  0.0000000 -1.0000000 )

   Cartesian axes

     site n.     atom                  positions (alat units)
         1           Ba  tau(   1) = (   0.5000000   0.5000000   0.9999723  )
         2           Eu  tau(   2) = (   0.5000000   0.5000000   0.0000000  )
         3           Zr  tau(   3) = (   0.0000000   0.0000000   1.5071840  )
         4           Zr  tau(   4) = (   0.0000000   0.0000000   0.4927605  )
         5           O   tau(   5) = (   0.0000000   0.5000000   1.5150549  )
         6           O   tau(   6) = (   0.0000000   0.5000000   0.4848897  )
         7           O   tau(   7) = (   0.5000000   0.0000000   1.5150549  )
         8           O   tau(   8) = (   0.5000000   0.0000000   0.4848897  )
         9           O   tau(   9) = (   0.0000000   0.0000000   0.0000000  )
        10           O   tau(  10) = (   0.0000000   0.0000000   0.9999723  )

   Crystallographic axes

     site n.     atom                  positions (cryst. coord.)
         1           Ba  tau(   1) = (  0.5000000  0.5000000  0.5000000  )
         2           Eu  tau(   2) = (  0.5000000  0.5000000  0.0000000  )
         3           Zr  tau(   3) = (  0.0000000  0.0000000  0.7536129  )
         4           Zr  tau(   4) = (  0.0000000  0.0000000  0.2463871  )
         5           O   tau(   5) = (  0.0000000  0.5000000  0.7575484  )
         6           O   tau(   6) = (  0.0000000  0.5000000  0.2424516  )
         7           O   tau(   7) = (  0.5000000  0.0000000  0.7575484  )
         8           O   tau(   8) = (  0.5000000  0.0000000  0.2424516  )
         9           O   tau(   9) = (  0.0000000  0.0000000  0.0000000  )
        10           O   tau(  10) = (  0.0000000  0.0000000  0.5000000  )

     number of k points=     6
                       cart. coord. in units 2pi/alat
        k(    1) = (   0.0000000   0.0000000   0.0000000), wk =   0.0370370
        k(    2) = (   0.0000000   0.0000000   0.1666713), wk =   0.0740741
        k(    3) = (   0.0000000   0.3333333   0.0000000), wk =   0.1481481
        k(    4) = (   0.0000000   0.3333333   0.1666713), wk =   0.2962963
        k(    5) = (   0.3333333   0.3333333   0.0000000), wk =   0.1481481
        k(    6) = (   0.3333333   0.3333333   0.1666713), wk =   0.2962963

                       cryst. coord.
        k(    1) = (   0.0000000   0.0000000   0.0000000), wk =   0.0370370
        k(    2) = (   0.0000000   0.0000000   0.3333333), wk =   0.0740741
        k(    3) = (   0.0000000   0.3333333   0.0000000), wk =   0.1481481
        k(    4) = (   0.0000000   0.3333333   0.3333333), wk =   0.2962963
        k(    5) = (   0.3333333   0.3333333   0.0000000), wk =   0.1481481
        k(    6) = (   0.3333333   0.3333333   0.3333333), wk =   0.2962963

     Check: negative core charge=   -0.000011
     Generating pointlists ...
     new r_m :   0.2917 (alat units)  2.3279 (a.u.) for type    1
     new r_m :   0.2873 (alat units)  2.2930 (a.u.) for type    2
     new r_m :   0.2033 (alat units)  1.6223 (a.u.) for type    3
     new r_m :   0.2033 (alat units)  1.6223 (a.u.) for type    4

     Initial potential from superposition of free atoms

     starting charge      86.9740, renormalised to      87.0000

     negative rho (up, down):  6.019E-02 6.019E-02
     Starting wfcs are   87 randomized atomic wfcs
     Checking if some PAW data can be deallocated...

     Self-consistent Calculation

     iteration #  1     ecut=    30.00 Ry     beta= 0.70
     Davidson diagonalization with overlap

     ethr =  1.00E-02,  avg # of iterations =  7.9

     negative rho (up, down):  6.331E-02 6.331E-02

     total energy              =   -1526.58303485 Ry
     estimated scf accuracy    <       4.02387485 Ry

     total magnetization       =     7.00 Bohr mag/cell
     absolute magnetization    =     7.18 Bohr mag/cell

[...]

     total energy              =   -1528.15349755 Ry
     estimated scf accuracy    <       0.00000199 Ry

[...]

     iteration # 23     ecut=    30.00 Ry     beta= 0.70
     Davidson diagonalization with overlap

     ethr =  2.29E-09,  avg # of iterations =  1.1

     negative rho (up, down):  6.522E-02 6.543E-02

     Magnetic moment per site  (integrated on atomic sphere of radius R)
     atom   1 (R=0.292)  charge=  7.1506  magn=  0.0025
     atom   2 (R=0.287)  charge= 14.4987  magn=  6.7901
     atom   3 (R=0.203)  charge=  7.4842  magn=  0.0161
     atom   4 (R=0.203)  charge=  7.4842  magn=  0.0161
     atom   5 (R=0.203)  charge=  5.6670  magn= -0.0092
     atom   6 (R=0.203)  charge=  5.6670  magn= -0.0092
     atom   7 (R=0.203)  charge=  5.6670  magn= -0.0092
     atom   8 (R=0.203)  charge=  5.6670  magn= -0.0092
     atom   9 (R=0.203)  charge=  5.6803  magn= -0.0143
     atom  10 (R=0.203)  charge=  5.6595  magn= -0.0004

     End of self-consistent calculation

 ------ SPIN UP ------------

          k = 0.0000 0.0000 0.0000 (  2787 PWs)   bands (ev):

   -37.4419 -37.4389 -29.1280 -15.9457 -15.6698 -15.5805 -15.5785 -15.5785
   -15.5722 -15.5722  -8.1991  -7.9192  -7.9192  -6.8454  -6.5325  -6.4928
    -6.4854  -6.4642  -5.6399  -0.9078  -0.9078  -0.8873   6.0508   7.7024
     7.7024   7.7040   7.8175   7.8175   8.0423   8.0800   8.1794   8.1794
     8.7499   8.7688   8.7688   9.2199   9.2199   9.4254   9.4375   9.4375
    12.5519  12.7050  12.7458  12.7485  12.7485  12.7723  12.7723  12.8150
    12.8293  12.8293  13.4708  14.0035  14.0317  14.2608  15.2827  15.2827
    15.6603  15.7523  16.1294  16.8832  16.9012  16.9131  16.9633  16.9633

     occupation numbers
     1.0000   1.0000   1.0000   1.0000   1.0000   1.0000   1.0000   1.0000
     1.0000   1.0000   1.0000   1.0000   1.0000   1.0000   1.0000   1.0000
     1.0000   1.0000   1.0000   1.0000   1.0000   1.0000   1.0000   1.0000
     1.0000   1.0000   1.0000   1.0000   1.0000   1.0000   1.0000   1.0000
     1.0000   1.0000   1.0000   1.0000   1.0000   1.0000   1.0000   1.0000
     1.0000   1.0000   1.0000   1.0000   1.0000   1.0000   1.0000   0.0000
     0.0000   0.0000   0.0000   0.0000   0.0000   0.0000   0.0000   0.0000
     0.0000   0.0000   0.0000   0.0000   0.0000   0.0000   0.0000   0.0000

[...]

 ------ SPIN DOWN ----------

[...]

          k = 0.3333 0.3333 0.1667 (  2839 PWs)   bands (ev):

   -37.4155 -37.4139 -26.0420 -15.8269 -15.7264 -15.7203 -15.7178 -15.7160
   -15.6482 -15.5986  -6.5930  -6.2141  -6.1856  -6.1090  -5.9141  -5.8861
    -5.4735  -5.3930  -5.3113  -1.1484  -1.0171  -1.0006   6.3792   6.5366
     6.5917   6.6075   6.6222   6.7391   6.9129   6.9391   7.0229   7.3175
     7.4772   8.0588   8.7822   8.9170   9.2000   9.2011   9.3400   9.4405
    14.8646  14.9182  15.2590  15.3612  15.3703  15.3714  16.4880  16.6425
    16.7261  16.8154  16.8196  17.0189  17.1930  17.2646  17.3089  17.3713
    17.4672  17.4960  17.5361  17.5523  17.8056  17.8781  18.1517  18.8068

     occupation numbers
     1.0000   1.0000   1.0000   1.0000   1.0000   1.0000   1.0000   1.0000
     1.0000   1.0000   1.0000   1.0000   1.0000   1.0000   1.0000   1.0000
     1.0000   1.0000   1.0000   1.0000   1.0000   1.0000   1.0000   1.0000
     1.0000   1.0000   1.0000   1.0000   1.0000   1.0000   1.0000   1.0000
     1.0000   1.0000   1.0000   1.0000   1.0000   1.0000   1.0000   1.0000
     0.0000   0.0000   0.0000   0.0000   0.0000   0.0000   0.0000   0.0000
     0.0000   0.0000   0.0000   0.0000   0.0000   0.0000   0.0000   0.0000
     0.0000   0.0000   0.0000   0.0000   0.0000   0.0000   0.0000   0.0000

     highest occupied, lowest unoccupied level (ev):    12.7723   12.8150

!    total energy              =   -1528.15349647 Ry
     estimated scf accuracy    <       0.00000097 Ry

     The total energy is the sum of the following terms:
     one-electron contribution =    -176.67349870 Ry
     hartree contribution      =     145.68343558 Ry
     xc contribution           =    -122.17909537 Ry
     ewald contribution        =    -486.19046678 Ry
     one-center paw contrib.   =    -888.79387120 Ry
      -> PAW hartree energy AE =     188.42433724 Ry
      -> PAW hartree energy PS =    -181.10967658 Ry
      -> PAW xc energy AE      =    -878.53754014 Ry
      -> PAW xc energy PS      =      39.55827029 Ry
      -> total E_H with PAW    =     152.99809624 Ry
      -> total E_XC with PAW   =    -961.15836521 Ry

     total magnetization       =     7.00 Bohr mag/cell
     absolute magnetization    =     7.11 Bohr mag/cell

     convergence has been achieved in  23 iterations

     Writing all to output data dir bands_nm/myprefix.save/

     General routines

     Parallel routines

     PAW routines

   This run was terminated on:  14:23:43  15Jul2023

   JOB DONE.