     Program PWSCF v.7.1 starts on 15Jul2023 at 14:38: 2

     Reading input from espresso_9346.pwi
Warning: card &CELL ignored
Warning: card / ignored

     Current dimensions of program PWSCF are:
     Max number of different atomic species (ntypx) = 10
     Max number of k-points (npk) =  40000
     Max angular momentum in pseudopotentials (lmaxx) =  4
     file Cu.paw.z_11.ld1.psl.v1.0.0-low.upf: wavefunction(s)  4S 3D renormalized
     file O.pbe-n-kjpaw_psl.0.1.UPF: wavefunction(s)  2P renormalized
     Message from routine setup:
     the system is metallic, specify occupations
     Message from routine setup:
     using ibrav=0 with symmetry is DISCOURAGED, use correct ibrav instead

     K-points division:     npool     =       2
     R & G space division:  proc/nbgrp/npool/nimage =       4
     Subspace diagonalization in iterative solution of the eigenvalue problem:
     a serial algorithm will be used

     Using Slab Decomposition

     bravais-lattice index     =            0
     lattice parameter (alat)  =      12.0300  a.u.
     unit-cell volume          =    1293.1985 (a.u.)^3
     number of atoms/cell      =           13
     number of atomic types    =            4
     number of electrons       =        89.00 (up:  45.00, down:  44.00)
     number of Kohn-Sham states=           64
     kinetic-energy cutoff     =      30.0000  Ry
     charge density cutoff     =     240.0000  Ry
     scf convergence threshold =      1.0E-06
     mixing beta               =       0.7000
     number of iterations used =            8  plain     mixing
     Exchange-correlation= SLA  PW   PBX  PBC
                           (   1   4   3   4   0   0   0)

     celldm(1)=  12.029974  celldm(2)=   0.000000  celldm(3)=   0.000000
     celldm(4)=   0.000000  celldm(5)=   0.000000  celldm(6)=   0.000000

     crystal axes: (cart. coord. in units of alat)
               a(1) = (   1.000000   0.000000   0.000000 )
               a(2) = (   0.674940   0.737872   0.000000 )
               a(3) = (   0.270717   0.119261   1.006677 )

     reciprocal axes: (cart. coord. in units 2 pi/alat)
               b(1) = (  1.000000 -0.914712 -0.160556 )
               b(2) = (  0.000000  1.355248 -0.160556 )
               b(3) = (  0.000000  0.000000  0.993368 )

     PseudoPot. # 1 for Sr read from file:
     /lustre07/scratch/pragov/crystal_structure_design/utils/SSSP/Sr_pbe_v1.uspp.F.UPF
     MD5 check sum: 6b418c05fbe9db5448babca5e47b7a5b
     Pseudo is Ultrasoft + core correction, Zval = 10.0
     Generated by new atomic code, or converted to UPF format
     Using radial grid of  883 points,  6 beta functions with:
                l(1) =   0
                l(2) =   0
                l(3) =   1
                l(4) =   1
                l(5) =   2
                l(6) =   2
     Q(r) pseudized with  6 coefficients,  rinner =    1.400   1.400   1.400
                                                       1.400   1.400

     PseudoPot. # 2 for Cu read from file:
     /lustre07/scratch/pragov/crystal_structure_design/utils/SSSP/Cu.paw.z_11.ld1.psl.v1.0.0-low.upf
     MD5 check sum: 619f40885d92a09a85a8b37550532d0c
     Pseudo is Projector augmented-wave + core cor, Zval = 11.0
     Generated using &quot;atomic&quot; code by A. Dal Corso  v.6.3MaX
     Shape of augmentation charge: PSQ
     Using radial grid of 1199 points,  6 beta functions with:
                l(1) =   0
                l(2) =   0
                l(3) =   1
                l(4) =   1
                l(5) =   2
                l(6) =   2
     Q(r) pseudized with 0 coefficients

     PseudoPot. # 3 for P  read from file:
     /lustre07/scratch/pragov/crystal_structure_design/utils/SSSP/P.pbe-n-rrkjus_psl.1.0.0.UPF
     MD5 check sum: 8b930f418f0a4573dca56cd030ffe088
     Pseudo is Ultrasoft + core correction, Zval =  5.0
     Generated using "atomic" code by A. Dal Corso  v.5.1
     Using radial grid of 1147 points,  6 beta functions with:
                l(1) =   0
                l(2) =   0
                l(3) =   1
                l(4) =   1
                l(5) =   2
                l(6) =   2
     Q(r) pseudized with 0 coefficients

     PseudoPot. # 4 for O  read from file:
     /lustre07/scratch/pragov/crystal_structure_design/utils/SSSP/O.pbe-n-kjpaw_psl.0.1.UPF
     MD5 check sum: 0234752ac141de4415c5fc33072bef88
     Pseudo is Projector augmented-wave + core cor, Zval =  6.0
     Generated using "atomic" code by A. Dal Corso  v.5.0.99 svn rev. 10869
     Shape of augmentation charge: BESSEL
     Using radial grid of 1095 points,  4 beta functions with:
                l(1) =   0
                l(2) =   0
                l(3) =   1
                l(4) =   1
     Q(r) pseudized with 0 coefficients

     atomic species   valence    mass     pseudopotential
        Sr            10.00    87.62000     Sr( 1.00)
        Cu            11.00    63.54600     Cu( 1.00)
        P              5.00    30.97376     P ( 1.00)
        O              6.00    15.99900     O ( 1.00)

     Starting magnetic structure
     atomic species   magnetization
        Sr           0.000
        Cu           0.000
        P            0.000
        O            0.000

      2 Sym. Ops., with inversion, found

                                    s                        frac. trans.

      isym =  1     identity

 cryst.   s( 1) = (     1          0          0      )
                  (     0          1          0      )
                  (     0          0          1      )

 cart.    s( 1) = (  1.0000000  0.0000000  0.0000000 )
                  (  0.0000000  1.0000000  0.0000000 )
                  (  0.0000000  0.0000000  1.0000000 )

      isym =  2     inversion

 cryst.   s( 2) = (    -1          0          0      )
                  (     0         -1          0      )
                  (     0          0         -1      )

 cart.    s( 2) = ( -1.0000000  0.0000000  0.0000000 )
                  (  0.0000000 -1.0000000  0.0000000 )
                  (  0.0000000  0.0000000 -1.0000000 )

   Cartesian axes

     site n.     atom                  positions (alat units)
         1           Sr  tau(   1) = (   1.4479133   0.6378585   0.2181458  )
         2           Sr  tau(   2) = (   0.4977440   0.2192744   0.7885308  )
         3           Cu  tau(   3) = (   0.9728286   0.4285664   0.5033383  )
         4           P   tau(   4) = (   0.3171405   0.1397119   0.2918074  )
         5           P   tau(   5) = (   1.6285168   0.7174209   0.7148692  )
         6           O   tau(   6) = (   0.6882168   0.5277453   0.5672663  )
         7           O   tau(   7) = (   1.0917434   0.7055135   0.4394103  )
         8           O   tau(   8) = (   1.2574405   0.3293875   0.4394103  )
         9           O   tau(   9) = (   0.8539139   0.1516194   0.5672663  )
        10           O   tau(  10) = (   0.4927244   0.2170630   0.1424880  )
        11           O   tau(  11) = (   1.8170569   0.8004797   0.8379062  )
        12           O   tau(  12) = (   0.1286003   0.0566531   0.1687703  )
        13           O   tau(  13) = (   1.4529329   0.6400698   0.8641885  )

   Crystallographic axes

     site n.     atom                  positions (cryst. coord.)
         1           Sr  tau(   1) = (  0.8294320  0.8294320  0.2166990  )
         2           Sr  tau(   2) = (  0.1705680  0.1705680  0.7833010  )
         3           Cu  tau(   3) = (  0.5000000  0.5000000  0.5000000  )
         4           P   tau(   4) = (  0.1424930  0.1424930  0.2898720  )
         5           P   tau(   5) = (  0.8575070  0.8575070  0.7101280  )
         6           O   tau(   6) = (  0.1144040  0.6241480  0.5635040  )
         7           O   tau(   7) = (  0.3758520  0.8855960  0.4364960  )
         8           O   tau(   8) = (  0.8855960  0.3758520  0.4364960  )
         9           O   tau(   9) = (  0.6241480  0.1144040  0.5635040  )
        10           O   tau(  10) = (  0.2712970  0.2712970  0.1415430  )
        11           O   tau(  11) = (  0.9503180  0.9503180  0.8323490  )
        12           O   tau(  12) = (  0.0496820  0.0496820  0.1676510  )
        13           O   tau(  13) = (  0.7287030  0.7287030  0.8584570  )

     number of k points=    14
                       cart. coord. in units 2pi/alat
        k(    1) = (   0.0000000   0.0000000   0.0000000), wk =   0.0370370
        k(    2) = (   0.0000000   0.0000000   0.3311226), wk =   0.0740741
        k(    3) = (   0.0000000   0.4517494  -0.0535186), wk =   0.0740741
        k(    4) = (   0.0000000   0.4517494   0.2776040), wk =   0.0740741
        k(    5) = (   0.0000000   0.4517494  -0.3846412), wk =   0.0740741
        k(    6) = (   0.3333333  -0.3049039  -0.0535186), wk =   0.0740741
        k(    7) = (   0.3333333  -0.3049039   0.2776040), wk =   0.0740741
        k(    8) = (   0.3333333  -0.3049039  -0.3846412), wk =   0.0740741
        k(    9) = (   0.3333333   0.1468455  -0.1070372), wk =   0.0740741
        k(   10) = (   0.3333333   0.1468455   0.2240854), wk =   0.0740741
        k(   11) = (   0.3333333   0.1468455  -0.4381598), wk =   0.0740741
        k(   12) = (   0.3333333  -0.7566533   0.0000000), wk =   0.0740741
        k(   13) = (   0.3333333  -0.7566533   0.3311226), wk =   0.0740741
        k(   14) = (   0.3333333  -0.7566533  -0.3311226), wk =   0.0740741

                       cryst. coord.
        k(    1) = (   0.0000000   0.0000000   0.0000000), wk =   0.0370370
        k(    2) = (   0.0000000   0.0000000   0.3333333), wk =   0.0740741
        k(    3) = (   0.0000000   0.3333333   0.0000000), wk =   0.0740741
        k(    4) = (   0.0000000   0.3333333   0.3333333), wk =   0.0740741
        k(    5) = (   0.0000000   0.3333333  -0.3333333), wk =   0.0740741
        k(    6) = (   0.3333333   0.0000000   0.0000000), wk =   0.0740741
        k(    7) = (   0.3333333   0.0000000   0.3333333), wk =   0.0740741
        k(    8) = (   0.3333333   0.0000000  -0.3333333), wk =   0.0740741
        k(    9) = (   0.3333333   0.3333333   0.0000000), wk =   0.0740741
        k(   10) = (   0.3333333   0.3333333   0.3333333), wk =   0.0740741
        k(   11) = (   0.3333333   0.3333333  -0.3333333), wk =   0.0740741
        k(   12) = (   0.3333333  -0.3333333  -0.0000000), wk =   0.0740741
        k(   13) = (   0.3333333  -0.3333333   0.3333333), wk =   0.0740741
        k(   14) = (   0.3333333  -0.3333333  -0.3333333), wk =   0.0740741

     Check: negative core charge=   -0.000011
     Generating pointlists ...
     new r_m :   0.1616 (alat units)  1.9439 (a.u.) for type    1
     new r_m :   0.1271 (alat units)  1.5289 (a.u.) for type    2
     new r_m :   0.0990 (alat units)  1.1908 (a.u.) for type    3
     new r_m :   0.0990 (alat units)  1.1908 (a.u.) for type    4

     Initial potential from superposition of free atoms

     starting charge      88.9321, renormalised to      89.0000

     negative rho (up, down):  6.282E-02 6.282E-02
     Starting wfcs are   75 randomized atomic wfcs
     Checking if some PAW data can be deallocated...

     Self-consistent Calculation

     iteration #  1     ecut=    30.00 Ry     beta= 0.70
     Davidson diagonalization with overlap

     ethr =  1.00E-02,  avg # of iterations =  3.0

     negative rho (up, down):  6.411E-02 6.410E-02

     total energy              =    -714.03279189 Ry
     estimated scf accuracy    <       3.06027804 Ry

     total magnetization       =     1.00 Bohr mag/cell
     absolute magnetization    =     1.01 Bohr mag/cell

[...]

     c_bands:  1 eigenvalues not converged
     c_bands:  1 eigenvalues not converged
     c_bands:  1 eigenvalues not converged
     ethr =  2.55E-05,  avg # of iterations = 12.6

[...]

     total energy              =    -715.46018927 Ry
     estimated scf accuracy    <       0.00000139 Ry

[...]

     iteration # 10     ecut=    30.00 Ry     beta= 0.70
     Davidson diagonalization with overlap

     ethr =  1.56E-09,  avg # of iterations =  2.6

     negative rho (up, down):  6.591E-02 6.591E-02

     Magnetic moment per site  (integrated on atomic sphere of radius R)
     atom   1 (R=0.162)  charge=  7.0908  magn=  0.0001
     atom   2 (R=0.162)  charge=  7.0908  magn=  0.0001
     atom   3 (R=0.127)  charge=  8.5225  magn=  0.6095
     atom   4 (R=0.099)  charge=  0.8425  magn=  0.0014
     atom   5 (R=0.099)  charge=  0.8425  magn=  0.0014
     atom   6 (R=0.099)  charge=  4.2374  magn=  0.0656
     atom   7 (R=0.099)  charge=  4.2374  magn=  0.0656
     atom   8 (R=0.099)  charge=  4.2374  magn=  0.0656
     atom   9 (R=0.099)  charge=  4.2374  magn=  0.0656
     atom  10 (R=0.099)  charge=  4.2280  magn=  0.0188
     atom  11 (R=0.099)  charge=  4.2554  magn=  0.0015
     atom  12 (R=0.099)  charge=  4.2554  magn=  0.0015
     atom  13 (R=0.099)  charge=  4.2280  magn=  0.0188

     End of self-consistent calculation

 ------ SPIN UP ------------

          k = 0.0000 0.0000 0.0000 (  3561 PWs)   bands (ev):

   -27.6085 -27.5950 -15.7091 -15.4904 -13.3906 -13.2402 -13.2347 -13.2259
   -12.9181 -12.7339  -9.6627  -9.6209  -9.6164  -9.6039  -9.4653  -9.3938
    -3.3503  -2.7999  -0.9232  -0.7750  -0.2832  -0.2270   0.0096   0.5320
     0.8305   1.3314   1.4711   1.7761   1.8140   2.2193   2.5010   2.9583
     3.1015   3.2354   3.2893   3.3147   3.4110   3.6805   3.7611   3.9176
     4.0691   4.0727   4.1333   4.4429   5.3379   9.1236  11.0520  11.9153
    12.5386  12.6037  12.7611  12.9650  13.0469  13.1789  13.4040  13.5048
    13.7163  13.7686  14.3942  14.4539  14.6111  14.7373  14.8883  15.4068

     occupation numbers
     1.0000   1.0000   1.0000   1.0000   1.0000   1.0000   1.0000   1.0000
     1.0000   1.0000   1.0000   1.0000   1.0000   1.0000   1.0000   1.0000
     1.0000   1.0000   1.0000   1.0000   1.0000   1.0000   1.0000   1.0000
     1.0000   1.0000   1.0000   1.0000   1.0000   1.0000   1.0000   1.0000
     1.0000   1.0000   1.0000   1.0000   1.0000   1.0000   1.0000   1.0000
     1.0000   1.0000   1.0000   1.0000   1.0000   0.0000   0.0000   0.0000
     0.0000   0.0000   0.0000   0.0000   0.0000   0.0000   0.0000   0.0000
     0.0000   0.0000   0.0000   0.0000   0.0000   0.0000   0.0000   0.0000

[...]

 ------ SPIN DOWN ----------

[...]

          k = 0.3333-0.7567-0.3311 (  3575 PWs)   bands (ev):

   -27.6035 -27.5976 -15.5869 -15.4698 -13.4433 -13.2129 -13.1573 -13.0350
   -12.8023 -12.7460  -9.6566  -9.5904  -9.5729  -9.5642  -9.5207  -9.4798
    -2.5145  -2.4408  -0.8775  -0.6301  -0.3835  -0.0176   0.0396   0.4690
     1.1339   1.6730   1.7489   1.8039   2.0589   2.2196   2.4618   2.6846
     2.7584   2.8858   3.1851   3.3706   3.6282   3.8846   3.9391   3.9805
     4.1280   4.2371   4.3954   4.5820   6.1908  10.8010  11.2696  11.8832
    12.2709  12.4826  12.7579  13.0753  13.1212  13.2875  13.3627  13.4018
    13.5854  13.8603  14.1838  14.4364  14.6967  15.1168  15.4741  15.6180

     occupation numbers
     1.0000   1.0000   1.0000   1.0000   1.0000   1.0000   1.0000   1.0000
     1.0000   1.0000   1.0000   1.0000   1.0000   1.0000   1.0000   1.0000
     1.0000   1.0000   1.0000   1.0000   1.0000   1.0000   1.0000   1.0000
     1.0000   1.0000   1.0000   1.0000   1.0000   1.0000   1.0000   1.0000
     1.0000   1.0000   1.0000   1.0000   1.0000   1.0000   1.0000   1.0000
     1.0000   1.0000   1.0000   1.0000   0.0000   0.0000   0.0000   0.0000
     0.0000   0.0000   0.0000   0.0000   0.0000   0.0000   0.0000   0.0000
     0.0000   0.0000   0.0000   0.0000   0.0000   0.0000   0.0000   0.0000

     highest occupied, lowest unoccupied level (ev):     5.4947    6.0915

!    total energy              =    -715.46018954 Ry
     estimated scf accuracy    <       0.00000030 Ry

     The total energy is the sum of the following terms:
     one-electron contribution =    -248.26340733 Ry
     hartree contribution      =     179.60212305 Ry
     xc contribution           =    -150.46300897 Ry
     ewald contribution        =    -330.34272240 Ry
     one-center paw contrib.   =    -165.99317388 Ry
      -> PAW hartree energy AE =       0.00000000 Ry
      -> PAW hartree energy PS =       0.00000000 Ry
      -> PAW xc energy AE      =       0.00000000 Ry
      -> PAW xc energy PS      =       0.00000000 Ry
      -> total E_H with PAW    =     179.60212305 Ry
      -> total E_XC with PAW   =    -150.46300897 Ry

     total magnetization       =     1.00 Bohr mag/cell
     absolute magnetization    =     1.08 Bohr mag/cell

     convergence has been achieved in  10 iterations

     Writing all to output data dir bands_nm/myprefix.save/

     General routines

     Parallel routines

     PAW routines

   This run was terminated on:  14:38:24  15Jul2023

   JOB DONE.