     Program PWSCF v.7.1 starts on 14Jul2023 at  2: 6:43

     Reading input from espresso_6681.pwi
Warning: card &CELL ignored
Warning: card / ignored

     Current dimensions of program PWSCF are:
     Max number of different atomic species (ntypx) = 10
     Max number of k-points (npk) =  40000
     Max angular momentum in pseudopotentials (lmaxx) =  4
     Message from routine setup:
     using ibrav=0 with symmetry is DISCOURAGED, use correct ibrav instead

     K-points division:     npool     =       2
     R & G space division:  proc/nbgrp/npool/nimage =       4
     Subspace diagonalization in iterative solution of the eigenvalue problem:
     a serial algorithm will be used

     Using Slab Decomposition

     bravais-lattice index     =            0
     lattice parameter (alat)  =      13.7702  a.u.
     unit-cell volume          =    1846.3261 (a.u.)^3
     number of atoms/cell      =           13
     number of atomic types    =            4
     number of electrons       =        60.00
     number of Kohn-Sham states=           64
     kinetic-energy cutoff     =      30.0000  Ry
     charge density cutoff     =     240.0000  Ry
     scf convergence threshold =      1.0E-06
     mixing beta               =       0.7000
     number of iterations used =            8  plain     mixing
     Exchange-correlation=  SLA  PW   PBX  PBC
                           (   1   4   3   4   0   0   0)

     celldm(1)=  13.770228  celldm(2)=   0.000000  celldm(3)=   0.000000
     celldm(4)=   0.000000  celldm(5)=   0.000000  celldm(6)=   0.000000

     crystal axes: (cart. coord. in units of alat)
               a(1) = (   1.000000   0.000000   0.000000 )
               a(2) = (   0.500000   0.866025   0.000000 )
               a(3) = (   0.500000   0.288675   0.816497 )

     reciprocal axes: (cart. coord. in units 2 pi/alat)
               b(1) = (  1.000000 -0.577350 -0.408248 )
               b(2) = (  0.000000  1.154701 -0.408248 )
               b(3) = (  0.000000  0.000000  1.224745 )

     PseudoPot. # 1 for Li read from file:
     /lustre07/scratch/pragov/crystal_structure_design/utils/SSSP/li_pbe_v1.4.uspp.F.UPF
     MD5 check sum: e912e257baa3777c20ea3d68f190483c
     Pseudo is Ultrasoft, Zval =  3.0
     Generated by new atomic code, or converted to UPF format
     Using radial grid of  751 points,  5 beta functions with:
                l(1) =   0
                l(2) =   0
                l(3) =   0
                l(4) =   1
                l(5) =   1
     Q(r) pseudized with 10 coefficients,  rinner =    1.150   1.150   1.150

     PseudoPot. # 2 for P  read from file:
     /lustre07/scratch/pragov/crystal_structure_design/utils/SSSP/P.pbe-n-rrkjus_psl.1.0.0.UPF
     MD5 check sum: 8b930f418f0a4573dca56cd030ffe088
     Pseudo is Ultrasoft + core correction, Zval =  5.0
     Generated using "atomic" code by A. Dal Corso  v.5.1
     Using radial grid of 1147 points,  6 beta functions with:
                l(1) =   0
                l(2) =   0
                l(3) =   1
                l(4) =   1
                l(5) =   2
                l(6) =   2
     Q(r) pseudized with 0 coefficients

     PseudoPot. # 3 for S  read from file:
     /lustre07/scratch/pragov/crystal_structure_design/utils/SSSP/s_pbe_v1.4.uspp.F.UPF
     MD5 check sum: 88d86576ff6df21479756cfb9bdac1df
     Pseudo is Ultrasoft + core correction, Zval =  6.0
     Generated by new atomic code, or converted to UPF format
     Using radial grid of  907 points,  6 beta functions with:
                l(1) =   0
                l(2) =   0
                l(3) =   1
                l(4) =   1
                l(5) =   2
                l(6) =   2
     Q(r) pseudized with  8 coefficients,  rinner =    1.300   1.300   1.300
                                                       1.300   1.300

     PseudoPot. # 4 for Br read from file:
     /lustre07/scratch/pragov/crystal_structure_design/utils/SSSP/br_pbe_v1.4.uspp.F.UPF
     MD5 check sum: d3ffb7b29f6225aa16fe06858fb2a80b
     Pseudo is Ultrasoft + core correction, Zval =  7.0
     Generated by new atomic code, or converted to UPF format
     Using radial grid of  879 points,  6 beta functions with:
                l(1) =   0
                l(2) =   0
                l(3) =   1
                l(4) =   1
                l(5) =   2
                l(6) =   2
     Q(r) pseudized with  8 coefficients,  rinner =    1.100   1.100   1.100
                                                       1.100   1.100

     atomic species   valence    mass     pseudopotential
        Li             3.00     6.94000     Li( 1.00)
        P              5.00    30.97376     P ( 1.00)
        S              6.00    32.06000     S ( 1.00)
        Br             7.00    79.90400     Br( 1.00)

      6 Sym. Ops. (no inversion) found

                                    s                        frac. trans.

      isym =  1     identity

 cryst.   s( 1) = (     1          0          0      )
                  (     0          1          0      )
                  (     0          0          1      )

 cart.    s( 1) = (  1.0000000  0.0000000  0.0000000 )
                  (  0.0000000  1.0000000  0.0000000 )
                  (  0.0000000  0.0000000  1.0000000 )

      isym =  2     120 deg rotation - cryst. axis [0,0,1]

[...]

      isym =  3     120 deg rotation - cryst. axis [0,0,-1]

[...]

      isym =  4     inv. 180 deg rotation - cart. axis [1,0,0]

[...]

      isym =  5     inv. 180 deg rotation - cryst. axis [0,1,0]

[...]

      isym =  6     inv. 180 deg rotation - cryst. axis [1,1,0]

 cryst.   s( 6) = (     1         -1          0      )
                  (     0         -1          0      )
                  (     0         -1          1      )

 cart.    s( 6) = (  0.5000000 -0.8660254 -0.0000000 )
                  ( -0.8660254 -0.5000000 -0.0000000 )
                  (  0.0000000  0.0000000  1.0000000 )

   Cartesian axes

     site n.     atom                  positions (alat units)
         1           Li  tau(   1) = (   1.2732390   0.9969459   0.4272229  )
         2           Li  tau(   2) = (   1.7267610   0.7351049   0.7975220  )
         3           Li  tau(   3) = (   1.2732390   0.7351049   0.7975220  )
         4           Li  tau(   4) = (   1.7267610   0.9969459   0.4272229  )
         5           Li  tau(   5) = (   1.5000000   0.6041844   0.4272229  )
         6           Li  tau(   6) = (   1.5000000   1.1278665   0.7975220  )
         7           P   tau(   7) = (   1.0000000   0.5773503   0.4082483  )
         8           S   tau(   8) = (   1.0000000   0.8432847   0.3142263  )
         9           S   tau(   9) = (   1.2303060   0.4443830   0.3142263  )
        10           S   tau(  10) = (   0.7696940   0.4443830   0.3142263  )
        11           S   tau(  11) = (   1.0000000   0.5773503   0.6903144  )
        12           S   tau(  12) = (   1.5000000   0.8660254   0.6123724  )
        13           Br  tau(  13) = (   0.0000000   0.0000000   0.0000000  )

   Crystallographic axes

     site n.     atom                  positions (cryst. coord.)
         1           Li  tau(   1) = (  0.5232390  0.9767610  0.5232390  )
         2           Li  tau(   2) = (  0.9767610  0.5232390  0.9767610  )
         3           Li  tau(   3) = (  0.5232390  0.5232390  0.9767610  )
         4           Li  tau(   4) = (  0.9767610  0.9767610  0.5232390  )
         5           Li  tau(   5) = (  0.9767610  0.5232390  0.5232390  )
         6           Li  tau(   6) = (  0.5232390  0.9767610  0.9767610  )
         7           P   tau(   7) = (  0.5000000  0.5000000  0.5000000  )
         8           S   tau(   8) = (  0.3848470  0.8454590  0.3848470  )
         9           S   tau(   9) = (  0.8454590  0.3848470  0.3848470  )
        10           S   tau(  10) = (  0.3848470  0.3848470  0.3848470  )
        11           S   tau(  11) = (  0.3848470  0.3848470  0.8454590  )
        12           S   tau(  12) = (  0.7500000  0.7500000  0.7500000  )
        13           Br  tau(  13) = (  0.0000000  0.0000000  0.0000000  )

     number of k points=     6
                       cart. coord. in units 2pi/alat
        k(    1) = (   0.0000000   0.0000000   0.0000000), wk =   0.0740741
        k(    2) = (   0.0000000   0.0000000   0.4082483), wk =   0.1481481
        k(    3) = (   0.0000000   0.3849002  -0.1360828), wk =   0.4444444
        k(    4) = (   0.0000000   0.3849002   0.2721655), wk =   0.4444444
        k(    5) = (   0.0000000   0.3849002  -0.5443311), wk =   0.4444444
        k(    6) = (   0.3333333  -0.5773503  -0.0000000), wk =   0.4444444

                       cryst. coord.
        k(    1) = (   0.0000000   0.0000000   0.0000000), wk =   0.0740741
        k(    2) = (   0.0000000   0.0000000   0.3333333), wk =   0.1481481
        k(    3) = (   0.0000000   0.3333333   0.0000000), wk =   0.4444444
        k(    4) = (   0.0000000   0.3333333   0.3333333), wk =   0.4444444
        k(    5) = (   0.0000000   0.3333333  -0.3333333), wk =   0.4444444
        k(    6) = (   0.3333333  -0.3333333  -0.0000000), wk =   0.4444444

     Initial potential from superposition of free atoms

     starting charge      57.2952, renormalised to      60.0000
     Starting wfcs are   58 randomized atomic wfcs +    6 random wfcs

     Self-consistent Calculation

     iteration #  1     ecut=    30.00 Ry     beta= 0.70
     Davidson diagonalization with overlap

     ethr =  1.00E-02,  avg # of iterations =  9.0

     total energy              =    -268.87563401 Ry
     estimated scf accuracy    <       0.82679304 Ry

[...]

     total energy              =    -269.24832586 Ry
     estimated scf accuracy    <       0.00000150 Ry

     iteration #  8     ecut=    30.00 Ry     beta= 0.70
     Davidson diagonalization with overlap

     ethr =  2.51E-09,  avg # of iterations =  3.0

     End of self-consistent calculation

          k = 0.0000 0.0000 0.0000 (  5065 PWs)   bands (ev):

   -42.7292 -42.7249 -42.7249 -42.7249 -42.7232 -42.7232 -13.2477 -10.4024
   -10.2526 -10.2526 -10.2526  -8.7233  -6.3429  -2.9102  -2.9102  -2.9102
    -0.4299  -0.4299  -0.0679  -0.0679  -0.0679   0.4886   0.4886   0.4886
     1.0723   1.0723   1.0723   1.5674   1.5674   1.5674   3.6971   5.5162
     5.5162   5.5163   5.9497   7.7775   7.7775   7.7775   8.5084   8.5084
     8.8675   8.8675   8.8675   9.8248   9.8248  10.5869  10.5869  10.5869
    11.2501  11.6412  11.6412  11.6412  11.7270  11.7271  11.8878  11.8878
    11.8878  12.3296  12.3296  12.3296  12.6474  13.8663  13.8663  13.8665

     occupation numbers
     1.0000   1.0000   1.0000   1.0000   1.0000   1.0000   1.0000   1.0000
     1.0000   1.0000   1.0000   1.0000   1.0000   1.0000   1.0000   1.0000
     1.0000   1.0000   1.0000   1.0000   1.0000   1.0000   1.0000   1.0000
     1.0000   1.0000   1.0000   1.0000   1.0000   1.0000   0.0000   0.0000
     0.0000   0.0000   0.0000   0.0000   0.0000   0.0000   0.0000   0.0000
     0.0000   0.0000   0.0000   0.0000   0.0000   0.0000   0.0000   0.0000
     0.0000   0.0000   0.0000   0.0000   0.0000   0.0000   0.0000   0.0000
     0.0000   0.0000   0.0000   0.0000   0.0000   0.0000   0.0000   0.0000

[...]

          k = 0.3333-0.5774-0.0000 (  5118 PWs)   bands (ev):

   -42.7284 -42.7257 -42.7256 -42.7254 -42.7240 -42.7238 -13.2292 -10.4219
   -10.3455 -10.2540 -10.2466  -8.7287  -5.9655  -3.2543  -2.7934  -2.7437
    -0.6172  -0.5790  -0.3427  -0.2294  -0.0988   0.4161   0.6785   0.7240
     0.7870   0.7916   0.9301   1.4583   1.5133   1.5438   5.0265   5.7151
     6.1623   6.4966   6.9242   7.3435   7.6658   7.8955   8.4608   8.5346
     8.6545   8.8346   8.8355   8.9579   9.3597   9.3685   9.6187   9.9835
    10.1865  10.3435  11.2499  11.3237  11.5702  11.7797  11.8678  12.2267
    12.5826  12.7627  12.9239  12.9685  13.0367  14.0327  14.2052  14.3105

     occupation numbers
     1.0000   1.0000   1.0000   1.0000   1.0000   1.0000   1.0000   1.0000
     1.0000   1.0000   1.0000   1.0000   1.0000   1.0000   1.0000   1.0000
     1.0000   1.0000   1.0000   1.0000   1.0000   1.0000   1.0000   1.0000
     1.0000   1.0000   1.0000   1.0000   1.0000   1.0000   0.0000   0.0000
     0.0000   0.0000   0.0000   0.0000   0.0000   0.0000   0.0000   0.0000
     0.0000   0.0000   0.0000   0.0000   0.0000   0.0000   0.0000   0.0000
     0.0000   0.0000   0.0000   0.0000   0.0000   0.0000   0.0000   0.0000
     0.0000   0.0000   0.0000   0.0000   0.0000   0.0000   0.0000   0.0000

     highest occupied, lowest unoccupied level (ev):     1.5674    3.6971

!    total energy              =    -269.24832643 Ry
     estimated scf accuracy    <       0.00000012 Ry

     The total energy is the sum of the following terms:
     one-electron contribution =     -79.88091613 Ry
     hartree contribution      =      50.84647606 Ry
     xc contribution           =     -93.59244809 Ry
     ewald contribution        =    -146.62143826 Ry

     convergence has been achieved in   8 iterations

     Writing all to output data dir bands_nm/myprefix.save/

     General routines

     Parallel routines

   This run was terminated on:   2: 6:50  14Jul2023

   JOB DONE.