     Program PWSCF v.7.1 starts on 12Jul2023 at 16:34:57

     Reading input from espresso_22752.pwi
Warning: card &CELL ignored
Warning: card / ignored

     Current dimensions of program PWSCF are:
     Max number of different atomic species (ntypx) = 10
     Max number of k-points (npk) =  40000
     Max angular momentum in pseudopotentials (lmaxx) =  4
     Message from routine setup:
     using ibrav=0 with symmetry is DISCOURAGED, use correct ibrav instead

     K-points division:     npool     =       2
     R & G space division:  proc/nbgrp/npool/nimage =       8
     Subspace diagonalization in iterative solution of the eigenvalue problem:
     a serial algorithm will be used

     Using Slab Decomposition

     bravais-lattice index     =            0
     lattice parameter (alat)  =      13.5944  a.u.
     unit-cell volume          =     657.7578 (a.u.)^3
     number of atoms/cell      =            4
     number of atomic types    =            3
     number of electrons       =        36.00
     number of Kohn-Sham states=           64
     kinetic-energy cutoff     =      30.0000  Ry
     charge density cutoff     =     240.0000  Ry
     scf convergence threshold =      1.0E-06
     mixing beta               =       0.7000
     number of iterations used =            8  plain     mixing
     Exchange-correlation=  SLA  PW   PBX  PBC
                           (   1   4   3   4   0   0   0)

     celldm(1)=  13.594366  celldm(2)=   0.000000  celldm(3)=   0.000000
     celldm(4)=   0.000000  celldm(5)=   0.000000  celldm(6)=   0.000000

     crystal axes: (cart. coord. in units of alat)
               a(1) = (   1.000000   0.000000   0.000000 )
               a(2) = (   0.840078   0.542466   0.000000 )
               a(3) = (   0.840078   0.247660   0.482632 )

     reciprocal axes: (cart. coord. in units 2 pi/alat)
               b(1) = (  1.000000 -1.548627 -0.945947 )
               b(2) = (  0.000000  1.843433 -0.945947 )
               b(3) = (  0.000000  0.000000  2.071970 )

     PseudoPot. # 1 for Na read from file:
     /lustre07/scratch/pragov/crystal_structure_design/utils/SSSP/na_pbe_v1.5.uspp.F.UPF
     MD5 check sum: 44600605ef58000f06b90626533354dc
     Pseudo is Ultrasoft, Zval =  9.0
     Generated by new atomic code, or converted to UPF format
     Using radial grid of  819 points,  5 beta functions with:
                l(1) =   0
                l(2) =   0
                l(3) =   1
                l(4) =   1
                l(5) =   2
     Q(r) pseudized with  8 coefficients,  rinner =    1.250   1.250   1.250
                                                       1.250   1.250

     PseudoPot. # 2 for Bi read from file:
     /lustre07/scratch/pragov/crystal_structure_design/utils/SSSP/Bi_pbe_v1.uspp.F.UPF
     MD5 check sum: cceb9f28ec65b6d7ff33140f5b0b1758
     Pseudo is Ultrasoft + core correction, Zval = 15.0
     Generated by new atomic code, or converted to UPF format
     Using radial grid of  899 points,  6 beta functions with:
                l(1) =   0
                l(2) =   0
                l(3) =   1
                l(4) =   1
                l(5) =   2
                l(6) =   2
     Q(r) pseudized with  6 coefficients,  rinner =    1.000   1.000   1.000
                                                       1.000   1.000

     PseudoPot. # 3 for S  read from file:
     /lustre07/scratch/pragov/crystal_structure_design/utils/SSSP/s_pbe_v1.4.uspp.F.UPF
     MD5 check sum: 88d86576ff6df21479756cfb9bdac1df
     Pseudo is Ultrasoft + core correction, Zval =  6.0
     Generated by new atomic code, or converted to UPF format
     Using radial grid of  907 points,  6 beta functions with:
                l(1) =   0
                l(2) =   0
                l(3) =   1
                l(4) =   1
                l(5) =   2
                l(6) =   2
     Q(r) pseudized with  8 coefficients,  rinner =    1.300   1.300   1.300
                                                       1.300   1.300

     atomic species   valence    mass     pseudopotential
        Na             9.00    22.98977     Na( 1.00)
        Bi            15.00   208.98040     Bi( 1.00)
        S              6.00    32.06000     S ( 1.00)

      2 Sym. Ops., with inversion, found

                                    s                        frac. trans.

      isym =  1     identity

 cryst.   s( 1) = (     1          0          0      )
                  (     0          1          0      )
                  (     0          0          1      )

 cart.    s( 1) = (  1.0000000  0.0000000  0.0000000 )
                  (  0.0000000  1.0000000  0.0000000 )
                  (  0.0000000  0.0000000  1.0000000 )

      isym =  2     inversion

 cryst.   s( 2) = (    -1          0          0      )
                  (     0         -1          0      )
                  (     0          0         -1      )

 cart.    s( 2) = ( -1.0000000  0.0000000 -0.0000000 )
                  (  0.0000000 -1.0000000  0.0000000 )
                  (  0.0000000  0.0000000 -1.0000000 )

   Cartesian axes

     site n.     atom                  positions (alat units)
         1           Na  tau(   1) = (   1.3400777   0.3950631   0.2413162  )
         2           Bi  tau(   2) = (   0.0000000   0.0000000   0.0000000  )
         3           S   tau(   3) = (   0.6806576   0.2006620   0.1225703  )
         4           S   tau(   4) = (   1.9994977   0.5894641   0.3600621  )

   Crystallographic axes

     site n.     atom                  positions (cryst. coord.)
         1           Na  tau(   1) = (  0.5000000  0.5000000  0.5000000  )
         2           Bi  tau(   2) = (  0.0000000  0.0000000  0.0000000  )
         3           S   tau(   3) = (  0.2539620  0.2539620  0.2539620  )
         4           S   tau(   4) = (  0.7460380  0.7460380  0.7460380  )

     number of k points=    14
                       cart. coord. in units 2pi/alat
        k(    1) = (   0.0000000   0.0000000   0.0000000), wk =   0.0740741
        k(    2) = (   0.0000000   0.0000000   0.6906568), wk =   0.1481481
        k(    3) = (   0.0000000   0.6144777  -0.3153157), wk =   0.1481481
        k(    4) = (   0.0000000   0.6144777   0.3753411), wk =   0.1481481
        k(    5) = (   0.0000000   0.6144777  -1.0059724), wk =   0.1481481
        k(    6) = (   0.3333333  -0.5162090  -0.3153157), wk =   0.1481481
        k(    7) = (   0.3333333  -0.5162090   0.3753411), wk =   0.1481481
        k(    8) = (   0.3333333  -0.5162090  -1.0059724), wk =   0.1481481
        k(    9) = (   0.3333333   0.0982687  -0.6306313), wk =   0.1481481
        k(   10) = (   0.3333333   0.0982687   0.0600254), wk =   0.1481481
        k(   11) = (   0.3333333   0.0982687  -1.3212881), wk =   0.1481481
        k(   12) = (   0.3333333  -1.1306868   0.0000000), wk =   0.1481481
        k(   13) = (   0.3333333  -1.1306868   0.6906568), wk =   0.1481481
        k(   14) = (   0.3333333  -1.1306868  -0.6906568), wk =   0.1481481

                       cryst. coord.
        k(    1) = (   0.0000000   0.0000000   0.0000000), wk =   0.0740741
        k(    2) = (   0.0000000   0.0000000   0.3333333), wk =   0.1481481
        k(    3) = (   0.0000000   0.3333333   0.0000000), wk =   0.1481481
        k(    4) = (   0.0000000   0.3333333   0.3333333), wk =   0.1481481
        k(    5) = (   0.0000000   0.3333333  -0.3333333), wk =   0.1481481
        k(    6) = (   0.3333333   0.0000000   0.0000000), wk =   0.1481481
        k(    7) = (   0.3333333   0.0000000   0.3333333), wk =   0.1481481
        k(    8) = (   0.3333333   0.0000000  -0.3333333), wk =   0.1481481
        k(    9) = (   0.3333333   0.3333333   0.0000000), wk =   0.1481481
        k(   10) = (   0.3333333   0.3333333   0.3333333), wk =   0.1481481
        k(   11) = (   0.3333333   0.3333333  -0.3333333), wk =   0.1481481
        k(   12) = (   0.3333333  -0.3333333   0.0000000), wk =   0.1481481
        k(   13) = (   0.3333333  -0.3333333   0.3333333), wk =   0.1481481
        k(   14) = (   0.3333333  -0.3333333  -0.3333333), wk =   0.1481481

     Check: negative core charge=   -0.000004

     Initial potential from superposition of free atoms

     starting charge      34.9936, renormalised to      36.0000

     negative rho (up, down):  4.368E-02 0.000E+00
     Starting wfcs are   22 randomized atomic wfcs +   42 random wfcs

     Self-consistent Calculation

     iteration #  1     ecut=    30.00 Ry     beta= 0.70
     Davidson diagonalization with overlap

     ethr =  1.00E-02,  avg # of iterations =  7.9

     negative rho (up, down):  4.037E-02 0.000E+00

     total energy              =    -328.81788816 Ry
     estimated scf accuracy    <       0.55271948 Ry

[...]

     total energy              =    -329.02557976 Ry
     estimated scf accuracy    <       0.00037765 Ry

     iteration #  6     ecut=    30.00 Ry     beta= 0.70
     Davidson diagonalization with overlap

     ethr =  1.05E-06,  avg # of iterations =  2.4

     negative rho (up, down):  4.179E-02 0.000E+00

     End of self-consistent calculation

          k = 0.0000 0.0000 0.0000 (  1817 PWs)   bands (ev):

   -44.9749 -16.8826 -16.8794 -16.8794 -16.6288 -16.6035 -16.6035 -16.5993
   -16.5993  -7.4440  -5.5488  -2.2805   4.4779   4.6310   4.6310   4.8195
     5.0291   5.0291   7.4483   8.7718   8.7718  11.5175  13.5037  13.6081
    13.6081  14.9504  15.8279  15.8504  15.8504  16.3397  16.4388  16.4388
    18.3991  18.3991  19.8438  19.8438  19.8919  21.3762  25.0539  25.0539
    25.5342  26.6068  26.6068  27.5960  28.3289  28.4798  28.4798  28.7789
    28.7789  29.0127  29.7566  29.7819  29.7819  30.7190  31.3997  31.3997
    32.2260  32.6173  32.8837  33.3004  33.3004  34.0226  34.0226  37.1982

     occupation numbers
     1.0000   1.0000   1.0000   1.0000   1.0000   1.0000   1.0000   1.0000
     1.0000   1.0000   1.0000   1.0000   1.0000   1.0000   1.0000   1.0000
     1.0000   1.0000   0.0000   0.0000   0.0000   0.0000   0.0000   0.0000
     0.0000   0.0000   0.0000   0.0000   0.0000   0.0000   0.0000   0.0000
     0.0000   0.0000   0.0000   0.0000   0.0000   0.0000   0.0000   0.0000
     0.0000   0.0000   0.0000   0.0000   0.0000   0.0000   0.0000   0.0000
     0.0000   0.0000   0.0000   0.0000   0.0000   0.0000   0.0000   0.0000
     0.0000   0.0000   0.0000   0.0000   0.0000   0.0000   0.0000   0.0000

[...]

          k = 0.3333-1.1307-0.6907 (  1823 PWs)   bands (ev):

   -44.9746 -16.8875 -16.8819 -16.8813 -16.6242 -16.6164 -16.6033 -16.6002
   -16.5786  -6.4304  -5.3591  -3.1950   2.1815   3.5219   3.6182   4.2753
     5.0195   5.0671   8.5603   9.5508   9.8518  11.0806  12.4308  13.1401
    14.8653  15.5253  15.9124  16.8372  17.2130  17.6347  18.2932  19.1747
    19.7506  19.8475  21.9083  22.1025  22.4079  22.4275  22.5586  22.6856
    22.8284  23.8265  24.7169  25.3115  26.3538  27.0584  27.3776  28.3595
    28.4907  28.7554  29.0404  29.6669  30.7117  30.8223  31.4217  31.7235
    32.2283  32.5591  32.7116  33.0149  33.8285  34.6171  34.8570  35.4213

     occupation numbers
     1.0000   1.0000   1.0000   1.0000   1.0000   1.0000   1.0000   1.0000
     1.0000   1.0000   1.0000   1.0000   1.0000   1.0000   1.0000   1.0000
     1.0000   1.0000   0.0000   0.0000   0.0000   0.0000   0.0000   0.0000
     0.0000   0.0000   0.0000   0.0000   0.0000   0.0000   0.0000   0.0000
     0.0000   0.0000   0.0000   0.0000   0.0000   0.0000   0.0000   0.0000
     0.0000   0.0000   0.0000   0.0000   0.0000   0.0000   0.0000   0.0000
     0.0000   0.0000   0.0000   0.0000   0.0000   0.0000   0.0000   0.0000
     0.0000   0.0000   0.0000   0.0000   0.0000   0.0000   0.0000   0.0000

     highest occupied, lowest unoccupied level (ev):     5.5940    7.3158

!    total energy              =    -329.02564663 Ry
     estimated scf accuracy    <       0.00000099 Ry

     The total energy is the sum of the following terms:
     one-electron contribution =    -136.60895974 Ry
     hartree contribution      =      84.38580076 Ry
     xc contribution           =     -95.90744166 Ry
     ewald contribution        =    -180.89504599 Ry

     convergence has been achieved in   6 iterations

     Writing all to output data dir bands_nm/myprefix.save/

     General routines

     Parallel routines

   This run was terminated on:  16:35: 2  12Jul2023

   JOB DONE.