     Program PWSCF v.7.0 starts on  7Jun2023 at  7:23:25

     K-points division:     npool     =       2
     R & G space division:  proc/nbgrp/npool/nimage =       4

     Reading input from espresso_4206.pwi
Warning: card &CELL ignored
Warning: card / ignored

     Current dimensions of program PWSCF are:
     Max number of different atomic species (ntypx) = 10
     Max number of k-points (npk) =  40000
     Max angular momentum in pseudopotentials (lmaxx) =  4
     file Nb.pbe-spn-kjpaw_psl.0.3.0.UPF: wavefunction(s)  4S 4P renormalized
     file O.pbe-n-kjpaw_psl.0.1.UPF: wavefunction(s)  2P renormalized
     Message from routine setup:
     using ibrav=0 with symmetry is DISCOURAGED, use correct ibrav instead

     Using Slab Decomposition

     bravais-lattice index     =            0
     lattice parameter (alat)  =      12.3299  a.u.
     unit-cell volume          =     995.4490 (a.u.)^3
     number of atoms/cell      =           12
     number of atomic types    =            3
     number of electrons       =       120.00
     number of Kohn-Sham states=           64
     kinetic-energy cutoff     =      30.0000  Ry
     charge density cutoff     =     240.0000  Ry
     scf convergence threshold =      1.0E-06
     mixing beta               =       0.7000
     number of iterations used =            8  plain     mixing
     Exchange-correlation= SLA  PW   PBX  PBC
                           (   1   4   3   4   0   0   0)

     celldm(1)=  12.329887  celldm(2)=   0.000000  celldm(3)=   0.000000
     celldm(4)=   0.000000  celldm(5)=   0.000000  celldm(6)=   0.000000

     crystal axes: (cart. coord. in units of alat)
               a(1) = (   1.000000   0.000000   0.000000 )
               a(2) = (  -0.414250   0.910163   0.000000 )
               a(3) = (   0.282062   0.438280   0.583475 )

     reciprocal axes: (cart. coord. in units 2 pi/alat)
               b(1) = (  1.000000  0.455139 -0.825296 )
               b(2) = (  0.000000  1.098704 -0.825296 )
               b(3) = (  0.000000  0.000000  1.713868 )

     PseudoPot. # 1 for Tm read from file:
     /home/pragov/projects/rrg-bengioy-ad/pragov/crystal_structure_design/SSSP/Tm.GGA-PBE-paw-v1.0.UPF
     MD5 check sum: e502ddec747d736c64e0ed72ddfd7d4c
     Pseudo is Projector augmented-wave + core cor, Zval = 23.0
     Generated using ATOMPAW code
     Shape of augmentation charge: BESSEL
     Using radial grid of 1116 points,  8 beta functions with:
                l(1) =   0
                l(2) =   0
                l(3) =   1
                l(4) =   1
                l(5) =   2
                l(6) =   2
                l(7) =   3
                l(8) =   3
     Q(r) pseudized with 0 coefficients

     PseudoPot. # 2 for Nb read from file:
     /home/pragov/projects/rrg-bengioy-ad/pragov/crystal_structure_design/SSSP/Nb.pbe-spn-kjpaw_psl.0.3.0.UPF
     MD5 check sum: 411d72ad547312f8017e2943ceca08cc
     Pseudo is Projector augmented-wave + core cor, Zval = 13.0
     Generated using "atomic" code by A. Dal Corso  v.5.0.99 svn rev. 10869
     Shape of augmentation charge: PSQ
     Using radial grid of 1227 points,  6 beta functions with:
                l(1) =   0
                l(2) =   0
                l(3) =   1
                l(4) =   1
                l(5) =   2
                l(6) =   2
     Q(r) pseudized with 0 coefficients

     PseudoPot. # 3 for O  read from file:
     /home/pragov/projects/rrg-bengioy-ad/pragov/crystal_structure_design/SSSP/O.pbe-n-kjpaw_psl.0.1.UPF
     MD5 check sum: 0234752ac141de4415c5fc33072bef88
     Pseudo is Projector augmented-wave + core cor, Zval =  6.0
     Generated using "atomic" code by A. Dal Corso  v.5.0.99 svn rev. 10869
     Shape of augmentation charge: BESSEL
     Using radial grid of 1095 points,  4 beta functions with:
                l(1) =   0
                l(2) =   0
                l(3) =   1
                l(4) =   1
     Q(r) pseudized with 0 coefficients

     atomic species   valence    mass     pseudopotential
        Tm            23.00   168.93422     Tm( 1.00)
        Nb            13.00    92.90637     Nb( 1.00)
        O              6.00    15.99900     O ( 1.00)

      2 Sym. Ops., with inversion, found

                                    s                        frac. trans.

      isym =  1     identity

 cryst.   s( 1) = (     1          0          0      )
                  (     0          1          0      )
                  (     0          0          1      )

 cart.    s( 1) = (  1.0000000  0.0000000 -0.0000000 )
                  (  0.0000000  1.0000000 -0.0000000 )
                  (  0.0000000  0.0000000  1.0000000 )

      isym =  2     inversion

 cryst.   s( 2) = (    -1          0          0      )
                  (     0         -1          0      )
                  (     0          0         -1      )

 cart.    s( 2) = ( -1.0000000 -0.0000000  0.0000000 )
                  (  0.0000000 -1.0000000  0.0000000 )
                  (  0.0000000  0.0000000 -1.0000000 )

   Cartesian axes

     site n.     atom                  positions (alat units)
         1           Tm  tau(   1) = (   0.8885495   0.2266770   0.1458688  )
         2           Tm  tau(   2) = (  -0.0207380   1.1217658   0.4376065  )
         3           Nb  tau(   3) = (   0.6562353   0.6860889   0.4376065  )
         4           Nb  tau(   4) = (   0.2115762   0.6623538   0.1458688  )
         5           O   tau(   5) = (  -0.0565258   0.5697541   0.0929972  )
         6           O   tau(   6) = (   0.9243374   0.7786887   0.4904782  )
         7           O   tau(   7) = (   0.1847957   0.9447298   0.1987405  )
         8           O   tau(   8) = (   0.6171075   1.0581181   0.4597634  )
         9           O   tau(   9) = (   0.2507040   0.2903247   0.1237120  )
        10           O   tau(  10) = (   0.6830158   0.4037129   0.3847349  )
        11           O   tau(  11) = (   0.5663921   0.7808543   0.1680257  )
        12           O   tau(  12) = (   0.3014195   0.5675885   0.4154496  )

   Crystallographic axes

     site n.     atom                  positions (cryst. coord.)
         1           Tm  tau(   1) = (  0.8713340  0.1286660  0.2500000  )
         2           Tm  tau(   2) = (  0.1286660  0.8713340  0.7500000  )
         3           Nb  tau(   3) = (  0.6073460  0.3926540  0.7500000  )
         4           Nb  tau(   4) = (  0.3926540  0.6073460  0.2500000  )
         5           O   tau(   5) = (  0.1260410  0.5492410  0.1593850  )
         6           O   tau(   6) = (  0.8739590  0.4507590  0.8406150  )
         7           O   tau(   7) = (  0.4507590  0.8739590  0.3406150  )
         8           O   tau(   8) = (  0.7192570  0.7831180  0.7879740  )
         9           O   tau(   9) = (  0.2807430  0.2168820  0.2120260  )
        10           O   tau(  10) = (  0.5492410  0.1260410  0.6593850  )
        11           O   tau(  11) = (  0.7831180  0.7192570  0.2879740  )
        12           O   tau(  12) = (  0.2168820  0.2807430  0.7120260  )

     number of k points=    14
                       cart. coord. in units 2pi/alat
        k(    1) = (   0.0000000   0.0000000   0.0000000), wk =   0.0740741
        k(    2) = (   0.0000000   0.0000000   0.5712895), wk =   0.1481481
        k(    3) = (   0.0000000   0.3662348  -0.2750986), wk =   0.1481481
        k(    4) = (   0.0000000   0.3662348   0.2961908), wk =   0.1481481
        k(    5) = (   0.0000000   0.3662348  -0.8463881), wk =   0.1481481
        k(    6) = (   0.3333333   0.1517128  -0.2750986), wk =   0.1481481
        k(    7) = (   0.3333333   0.1517128   0.2961908), wk =   0.1481481
        k(    8) = (   0.3333333   0.1517128  -0.8463881), wk =   0.1481481
        k(    9) = (   0.3333333   0.5179476  -0.5501972), wk =   0.1481481
        k(   10) = (   0.3333333   0.5179476   0.0210922), wk =   0.1481481
        k(   11) = (   0.3333333   0.5179476  -1.1214867), wk =   0.1481481
        k(   12) = (   0.3333333  -0.2145219  -0.0000000), wk =   0.1481481
        k(   13) = (   0.3333333  -0.2145219   0.5712895), wk =   0.1481481
        k(   14) = (   0.3333333  -0.2145219  -0.5712895), wk =   0.1481481

                       cryst. coord.
        k(    1) = (   0.0000000   0.0000000   0.0000000), wk =   0.0740741
        k(    2) = (   0.0000000   0.0000000   0.3333333), wk =   0.1481481
        k(    3) = (   0.0000000   0.3333333  -0.0000000), wk =   0.1481481
        k(    4) = (   0.0000000   0.3333333   0.3333333), wk =   0.1481481
        k(    5) = (   0.0000000   0.3333333  -0.3333333), wk =   0.1481481
        k(    6) = (   0.3333333   0.0000000  -0.0000000), wk =   0.1481481
        k(    7) = (   0.3333333   0.0000000   0.3333333), wk =   0.1481481
        k(    8) = (   0.3333333   0.0000000  -0.3333333), wk =   0.1481481
        k(    9) = (   0.3333333   0.3333333  -0.0000000), wk =   0.1481481
        k(   10) = (   0.3333333   0.3333333   0.3333333), wk =   0.1481481
        k(   11) = (   0.3333333   0.3333333  -0.3333333), wk =   0.1481481
        k(   12) = (   0.3333333  -0.3333333   0.0000000), wk =   0.1481481
        k(   13) = (   0.3333333  -0.3333333   0.3333333), wk =   0.1481481
        k(   14) = (   0.3333333  -0.3333333  -0.3333333), wk =   0.1481481

     Check: negative core charge=   -0.000019

     Initial potential from superposition of free atoms

     starting charge     119.9870, renormalised to     120.0000
     Starting wfcs are  116 randomized atomic wfcs
     Checking if some PAW data can be deallocated...

     Self-consistent Calculation

     iteration #  1     ecut=    30.00 Ry     beta= 0.70
     Davidson diagonalization with overlap

     ethr =  1.00E-02,  avg # of iterations =  2.0

     total energy              =   -2892.05868030 Ry
     estimated scf accuracy    <       5.63624951 Ry

[...]

     total energy              =   -2895.34227315 Ry
     estimated scf accuracy    <       0.00000960 Ry

     iteration # 62     ecut=    30.00 Ry     beta= 0.70
     Davidson diagonalization with overlap

     ethr =  1.14E-09,  avg # of iterations =  1.0

     End of self-consistent calculation

          k = 0.0000 0.0000 0.0000 (  2753 PWs)   bands (ev):

   -43.7674 -43.7552 -37.5990 -37.5864 -20.0383 -20.0184 -19.9946 -19.9278
   -19.9076 -19.9053 -11.0244 -10.9116 -10.8660 -10.8535 -10.7952 -10.5879
    -6.7110  -5.6593  -5.3447  -5.2714  -5.1750  -5.1499  -5.1409  -5.0303
     6.2822   6.3399   6.5451   6.6119   6.6180   6.7060   7.4001   7.5907
     8.1330   8.4197   8.5221   8.6397   8.7216   8.9129   8.9992   9.0960
     9.3825   9.4750   9.5758   9.6196  10.1180  10.1240  10.2865  10.6181
    11.2541  11.2821  11.2910  11.3020  11.3119  11.3546  11.3734  11.3782
    11.3827  11.4292  11.4588  11.4599  11.4975  11.5398  14.4619  14.7418

     occupation numbers
     1.0000   1.0000   1.0000   1.0000   1.0000   1.0000   1.0000   1.0000
     1.0000   1.0000   1.0000   1.0000   1.0000   1.0000   1.0000   1.0000
     1.0000   1.0000   1.0000   1.0000   1.0000   1.0000   1.0000   1.0000
     1.0000   1.0000   1.0000   1.0000   1.0000   1.0000   1.0000   1.0000
     1.0000   1.0000   1.0000   1.0000   1.0000   1.0000   1.0000   1.0000
     1.0000   1.0000   1.0000   1.0000   1.0000   1.0000   1.0000   1.0000
     1.0000   1.0000   1.0000   1.0000   1.0000   1.0000   1.0000   1.0000
     1.0000   1.0000   1.0000   1.0000   0.0000   0.0000   0.0000   0.0000

[...]

          k = 0.3333-0.2145-0.5713 (  2752 PWs)   bands (ev):

   -43.7639 -43.7586 -37.5943 -37.5911 -20.0408 -20.0238 -19.9832 -19.9505
   -19.9009 -19.8959 -11.0264 -10.9849 -10.9271 -10.8019 -10.6872 -10.6493
    -6.0200  -5.7756  -5.6945  -5.5786  -5.2258  -5.1860  -5.0880  -4.9659
     6.4488   6.6110   6.7639   6.9451   7.1451   7.3009   7.3661   7.6734
     7.7133   8.0733   8.1313   8.5129   8.6450   8.7566   8.9226   9.1870
     9.2855   9.4692   9.5007   9.6414   9.8803  10.1336  10.2056  10.2752
    11.2413  11.2615  11.2640  11.2880  11.3110  11.3217  11.3641  11.3790
    11.3945  11.4146  11.4538  11.4710  11.4821  11.4978  14.4837  14.5914

     occupation numbers
     1.0000   1.0000   1.0000   1.0000   1.0000   1.0000   1.0000   1.0000
     1.0000   1.0000   1.0000   1.0000   1.0000   1.0000   1.0000   1.0000
     1.0000   1.0000   1.0000   1.0000   1.0000   1.0000   1.0000   1.0000
     1.0000   1.0000   1.0000   1.0000   1.0000   1.0000   1.0000   1.0000
     1.0000   1.0000   1.0000   1.0000   1.0000   1.0000   1.0000   1.0000
     1.0000   1.0000   1.0000   1.0000   1.0000   1.0000   1.0000   1.0000
     1.0000   1.0000   1.0000   1.0000   1.0000   1.0000   1.0000   1.0000
     1.0000   1.0000   1.0000   1.0000   0.0000   0.0000   0.0000   0.0000

     highest occupied, lowest unoccupied level (ev):    11.4744   11.4620

!    total energy              =   -2895.34227281 Ry

     total all-electron energy =    -18377.531364 Ry
     estimated scf accuracy    <       0.00000073 Ry

     The total energy is the sum of the following terms:
     one-electron contribution =    -707.46924274 Ry
     hartree contribution      =     386.41439244 Ry
     xc contribution           =    -188.35651037 Ry
     ewald contribution        =    -917.00541991 Ry
     one-center paw contrib.   =   -1468.92549223 Ry
      -> PAW hartree energy AE =     776.07769894 Ry
      -> PAW hartree energy PS =    -682.30575471 Ry
      -> PAW xc energy AE      =   -1137.99091888 Ry
      -> PAW xc energy PS      =      68.45857774 Ry
      -> total E_H with PAW    =     480.18633667 Ry
      -> total E_XC with PAW   =   -1257.88885151 Ry

     convergence has been achieved in  62 iterations

     Writing all to output data dir calculations_bands/myprefix.save/

     General routines

     Parallel routines

     PAW routines

   This run was terminated on:   7:25:22   7Jun2023

   JOB DONE.