     Program PWSCF v.7.1 starts on 12Jul2023 at 15:12: 8

     Reading input from espresso_22375.pwi
Warning: card &CELL ignored
Warning: card / ignored

     Current dimensions of program PWSCF are:
     Max number of different atomic species (ntypx) = 10
     Max number of k-points (npk) =  40000
     Max angular momentum in pseudopotentials (lmaxx) =  4
     Message from routine setup:
     using ibrav=0 with symmetry is DISCOURAGED, use correct ibrav instead

     K-points division:     npool     =       2
     R & G space division:  proc/nbgrp/npool/nimage =       8
     Subspace diagonalization in iterative solution of the eigenvalue problem:
     a serial algorithm will be used

     Using Slab Decomposition

     bravais-lattice index     =            0
     lattice parameter (alat)  =       6.1522  a.u.
     unit-cell volume          =    2250.4275 (a.u.)^3
     number of atoms/cell      =           12
     number of atomic types    =            4
     number of electrons       =       104.00
     number of Kohn-Sham states=           64
     kinetic-energy cutoff     =      30.0000  Ry
     charge density cutoff     =     240.0000  Ry
     scf convergence threshold =      1.0E-06
     mixing beta               =       0.7000
     number of iterations used =            8  plain     mixing
     Exchange-correlation=  SLA  PW   PBX  PBC
                           (   1   4   3   4   0   0   0)

     celldm(1)=   6.152152  celldm(2)=   0.000000  celldm(3)=   0.000000
     celldm(4)=   0.000000  celldm(5)=   0.000000  celldm(6)=   0.000000

     crystal axes: (cart. coord. in units of alat)
               a(1) = (   1.000000   0.000000   0.000000 )
               a(2) = (  -0.500000   0.866025   0.000000 )
               a(3) = (   0.000000   0.000000  11.159720 )

     reciprocal axes: (cart. coord. in units 2 pi/alat)
               b(1) = (  1.000000  0.577351  0.000000 )
               b(2) = (  0.000000  1.154701  0.000000 )
               b(3) = (  0.000000  0.000000  0.089608 )

     PseudoPot. # 1 for Mo read from file:
     /lustre07/scratch/pragov/crystal_structure_design/utils/SSSP/Mo_ONCV_PBE-1.0.oncvpsp.upf
     MD5 check sum: 1b5d28e075c9ccadda658a603575cd1f
     Pseudo is Norm-conserving, Zval = 14.0
     Generated using ONCVPSP code by D. R. Hamann
     Using radial grid of 1526 points,  6 beta functions with:
                l(1) =   0
                l(2) =   0
                l(3) =   1
                l(4) =   1
                l(5) =   2
                l(6) =   2

     PseudoPot. # 2 for W  read from file:
     /lustre07/scratch/pragov/crystal_structure_design/utils/SSSP/W_pbe_v1.2.uspp.F.UPF
     MD5 check sum: 9c083fa34c2a2ea0f02f1f893e16e1c8
     Pseudo is Ultrasoft + core correction, Zval = 14.0
     Generated by new atomic code, or converted to UPF format
     Using radial grid of  923 points,  8 beta functions with:
                l(1) =   0
                l(2) =   0
                l(3) =   0
                l(4) =   1
                l(5) =   1
                l(6) =   2
                l(7) =   2
                l(8) =   3
     Q(r) pseudized with  6 coefficients,  rinner =    1.350   1.350   1.350
                                                       1.350   1.350   1.350
                                                       1.350

     PseudoPot. # 3 for Se read from file:
     /lustre07/scratch/pragov/crystal_structure_design/utils/SSSP/Se_pbe_v1.uspp.F.UPF
     MD5 check sum: 1b3568f3a8ae88f9a2a0ad0698632c85
     Pseudo is Ultrasoft + core correction, Zval =  6.0
     Generated by new atomic code, or converted to UPF format
     Using radial grid of  877 points,  6 beta functions with:
                l(1) =   0
                l(2) =   0
                l(3) =   1
                l(4) =   1
                l(5) =   2
                l(6) =   2
     Q(r) pseudized with  8 coefficients,  rinner =    1.300   1.300   1.300
                                                       1.300   1.300

     PseudoPot. # 4 for S  read from file:
     /lustre07/scratch/pragov/crystal_structure_design/utils/SSSP/s_pbe_v1.4.uspp.F.UPF
     MD5 check sum: 88d86576ff6df21479756cfb9bdac1df
     Pseudo is Ultrasoft + core correction, Zval =  6.0
     Generated by new atomic code, or converted to UPF format
     Using radial grid of  907 points,  6 beta functions with:
                l(1) =   0
                l(2) =   0
                l(3) =   1
                l(4) =   1
                l(5) =   2
                l(6) =   2
     Q(r) pseudized with  8 coefficients,  rinner =    1.300   1.300   1.300
                                                       1.300   1.300

     atomic species   valence    mass     pseudopotential
        Mo            14.00    95.95000     Mo( 1.00)
        W             14.00   183.84000     W ( 1.00)
        Se             6.00    78.97100     Se( 1.00)
        S              6.00    32.06000     S ( 1.00)

     12 Sym. Ops., with inversion, found

                                    s                        frac. trans.

      isym =  1     identity

 cryst.   s( 1) = (     1          0          0      )
                  (     0          1          0      )
                  (     0          0          1      )

 cart.    s( 1) = (  1.0000000  0.0000000  0.0000000 )
                  (  0.0000000  1.0000000  0.0000000 )
                  (  0.0000000  0.0000000  1.0000000 )

      isym =  2     180 deg rotation - cart. axis [1,0,0]

[...]

      isym =  3     120 deg rotation - cryst. axis [0,0,1]

[...]

      isym =  6     180 deg rotation - cryst. axis [1,1,0]

[...]

      isym =  7     inversion

[...]

      isym =  8     inv. 180 deg rotation - cart. axis [1,0,0]

[...]

      isym =  9     inv. 120 deg rotation - cryst. axis [0,0,1]

 cryst.   s( 9) = (     0         -1          0      )
                  (     1          1          0      )
                  (     0          0         -1      )

 cart.    s( 9) = (  0.5000002  0.8660255  0.0000000 )
                  ( -0.8660253  0.4999998  0.0000000 )
                  (  0.0000000  0.0000000 -1.0000000 )

[...]

 cryst.   s(10) = (     1          1          0      )
                  (    -1          0          0      )
                  (     0          0         -1      )

 cart.    s(10) = (  0.4999998 -0.8660255  0.0000000 )
                  (  0.8660253  0.5000002  0.0000000 )
                  (  0.0000000  0.0000000 -1.0000000 )

[...]

      isym = 12     inv. 180 deg rotation - cryst. axis [1,1,0]

 cryst.   s(12) = (     0         -1          0      )
                  (    -1          0          0      )
                  (     0          0          1      )

 cart.    s(12) = (  0.5000002 -0.8660253  0.0000000 )
                  ( -0.8660253 -0.5000002  0.0000000 )
                  (  0.0000000  0.0000000  1.0000000 )

   Cartesian axes

     site n.     atom                  positions (alat units)
         1           Mo  tau(   1) = (  -0.0000006   0.5773505   8.0144977  )
         2           Mo  tau(   2) = (   0.5000004   0.2886748   3.1452219  )
         3           W   tau(   3) = (  -0.0000006   0.5773505   1.0481320  )
         4           W   tau(   4) = (   0.5000004   0.2886748  10.1115876  )
         5           Se  tau(   5) = (  -0.0000006   0.5773505   3.6667268  )
         6           Se  tau(   6) = (   0.5000004   0.2886748   7.4929929  )
         7           Se  tau(   7) = (   0.5000004   0.2886748   8.5361365  )
         8           Se  tau(   8) = (  -0.0000006   0.5773505   2.6235831  )
         9           S   tau(   9) = (  -0.0000006   0.5773505  10.5877059  )
        10           S   tau(  10) = (   0.5000004   0.2886748   0.5720137  )
        11           S   tau(  11) = (   0.5000004   0.2886748   1.5242838  )
        12           S   tau(  12) = (  -0.0000006   0.5773505   9.6354359  )

   Crystallographic axes

     site n.     atom                  positions (cryst. coord.)
         1           Mo  tau(   1) = (  0.3333330  0.6666670  0.7181630  )
         2           Mo  tau(   2) = (  0.6666670  0.3333330  0.2818370  )
         3           W   tau(   3) = (  0.3333330  0.6666670  0.0939210  )
         4           W   tau(   4) = (  0.6666670  0.3333330  0.9060790  )
         5           Se  tau(   5) = (  0.3333330  0.6666670  0.3285680  )
         6           Se  tau(   6) = (  0.6666670  0.3333330  0.6714320  )
         7           Se  tau(   7) = (  0.6666670  0.3333330  0.7649060  )
         8           Se  tau(   8) = (  0.3333330  0.6666670  0.2350940  )
         9           S   tau(   9) = (  0.3333330  0.6666670  0.9487430  )
        10           S   tau(  10) = (  0.6666670  0.3333330  0.0512570  )
        11           S   tau(  11) = (  0.6666670  0.3333330  0.1365880  )
        12           S   tau(  12) = (  0.3333330  0.6666670  0.8634120  )

     number of k points=     7
                       cart. coord. in units 2pi/alat
        k(    1) = (   0.0000000   0.0000000   0.0000000), wk =   0.0740741
        k(    2) = (   0.0000000   0.0000000   0.0298693), wk =   0.1481481
        k(    3) = (   0.0000000   0.3849002   0.0000000), wk =   0.4444444
        k(    4) = (   0.0000000   0.3849002   0.0298693), wk =   0.4444444
        k(    5) = (   0.3333333   0.5773504   0.0000000), wk =   0.1481481
        k(    6) = (   0.3333333   0.5773504   0.0298693), wk =   0.2962963
        k(    7) = (   0.0000000   0.3849002  -0.0298693), wk =   0.4444444

                       cryst. coord.
        k(    1) = (   0.0000000   0.0000000   0.0000000), wk =   0.0740741
        k(    2) = (   0.0000000   0.0000000   0.3333333), wk =   0.1481481
        k(    3) = (   0.0000000   0.3333333   0.0000000), wk =   0.4444444
        k(    4) = (   0.0000000   0.3333333   0.3333333), wk =   0.4444444
        k(    5) = (   0.3333333   0.3333333   0.0000000), wk =   0.1481481
        k(    6) = (   0.3333333   0.3333333   0.3333333), wk =   0.2962963
        k(    7) = (   0.0000000   0.3333333  -0.3333333), wk =   0.4444444

     Check: negative core charge=   -0.000001

     Initial potential from superposition of free atoms

     starting charge     103.7969, renormalised to     104.0000

     negative rho (up, down):  1.287E-01 0.000E+00
     Starting wfcs are   78 randomized atomic wfcs

     Self-consistent Calculation

     iteration #  1     ecut=    30.00 Ry     beta= 0.70
     Davidson diagonalization with overlap

     ethr =  1.00E-02,  avg # of iterations =  2.6

     negative rho (up, down):  1.355E-01 0.000E+00

     total energy              =    -733.52981867 Ry
     estimated scf accuracy    <     145.02003849 Ry

[...]

     c_bands:  1 eigenvalues not converged
     ethr =  5.30E-05,  avg # of iterations =  5.0

[...]

     total energy              =    -863.99876994 Ry
     estimated scf accuracy    <       0.00000104 Ry

     iteration # 32     ecut=    30.00 Ry     beta= 0.70
     Davidson diagonalization with overlap

     ethr =  1.00E-09,  avg # of iterations =  1.6

     negative rho (up, down):  1.274E-01 0.000E+00

     End of self-consistent calculation

          k = 0.0000 0.0000 0.0000 (  6335 PWs)   bands (ev):

   -68.8062 -68.8062 -54.9035 -54.9034 -33.0595 -33.0593 -32.8926 -32.8926
   -32.8925 -32.8925 -29.1407 -29.1406 -28.8229 -28.8229 -28.8228 -28.8228
    -9.3361  -9.3100  -8.5706  -8.5704  -7.7437  -7.6993  -7.6153  -7.6061
    -0.9818  -0.7945   0.2891   0.2963   2.3099   2.3099   2.3115   2.3115
     2.9360   3.2787   3.4626   3.4626   3.4680   3.4681   3.8261   3.8836
     3.8836   3.8838   3.8838   4.0343   4.8301   4.8301   4.8301   4.8301
     5.1546   5.3056   5.5886   5.7330   7.9484   7.9484   7.9492   7.9493
     8.1581   8.1581   8.1796   8.1796   8.7851   8.7851   8.7851   8.7852

     occupation numbers
     1.0000   1.0000   1.0000   1.0000   1.0000   1.0000   1.0000   1.0000
     1.0000   1.0000   1.0000   1.0000   1.0000   1.0000   1.0000   1.0000
     1.0000   1.0000   1.0000   1.0000   1.0000   1.0000   1.0000   1.0000
     1.0000   1.0000   1.0000   1.0000   1.0000   1.0000   1.0000   1.0000
     1.0000   1.0000   1.0000   1.0000   1.0000   1.0000   1.0000   1.0000
     1.0000   1.0000   1.0000   1.0000   1.0000   1.0000   1.0000   1.0000
     1.0000   1.0000   1.0000   1.0000   0.0000   0.0000   0.0000   0.0000
     0.0000   0.0000   0.0000   0.0000   0.0000   0.0000   0.0000   0.0000

[...]

          k = 0.0000 0.3849-0.0299 (  6223 PWs)   bands (ev):

   -68.7971 -68.7971 -54.8827 -54.8827 -33.0886 -33.0886 -33.0239 -33.0239
   -32.9388 -32.9387 -29.0947 -29.0947 -29.0422 -29.0421 -28.8738 -28.8737
    -8.0105  -7.9897  -7.2819  -7.2675  -7.2362  -7.2219  -6.8729  -6.8728
    -0.4133  -0.3633   0.7034   0.7676   0.8161   0.8871   0.9172   0.9781
     1.6291   1.6300   1.9297   1.9301   2.1217   2.1305   3.3708   3.4251
     3.4369   3.4562   3.4583   3.5102   3.9425   3.9572   4.1749   4.2173
     4.7731   4.7733   4.9846   4.9847   7.6137   7.6685   7.6700   7.6894
     7.8475   7.9686   7.9687   8.0014   8.5989   8.7526   8.9798   9.0429

     occupation numbers
     1.0000   1.0000   1.0000   1.0000   1.0000   1.0000   1.0000   1.0000
     1.0000   1.0000   1.0000   1.0000   1.0000   1.0000   1.0000   1.0000
     1.0000   1.0000   1.0000   1.0000   1.0000   1.0000   1.0000   1.0000
     1.0000   1.0000   1.0000   1.0000   1.0000   1.0000   1.0000   1.0000
     1.0000   1.0000   1.0000   1.0000   1.0000   1.0000   1.0000   1.0000
     1.0000   1.0000   1.0000   1.0000   1.0000   1.0000   1.0000   1.0000
     1.0000   1.0000   1.0000   1.0000   0.0000   0.0000   0.0000   0.0000
     0.0000   0.0000   0.0000   0.0000   0.0000   0.0000   0.0000   0.0000

     highest occupied, lowest unoccupied level (ev):     5.9040    6.7900

!    total energy              =    -863.99876991 Ry
     estimated scf accuracy    <       0.00000012 Ry

     The total energy is the sum of the following terms:
     one-electron contribution =   -3720.04530640 Ry
     hartree contribution      =    1883.78901173 Ry
     xc contribution           =    -266.51646080 Ry
     ewald contribution        =    1238.77398556 Ry

     convergence has been achieved in  32 iterations

     Writing all to output data dir bands_nm/myprefix.save/

     General routines

     Parallel routines

   This run was terminated on:  15:12:33  12Jul2023

   JOB DONE.