     Program PWSCF v.7.1 starts on 15Jul2023 at 22:55:44

     Reading input from espresso_8036.pwi
Warning: card &CELL ignored
Warning: card / ignored

     Current dimensions of program PWSCF are:
     Max number of different atomic species (ntypx) = 10
     Max number of k-points (npk) =  40000
     Max angular momentum in pseudopotentials (lmaxx) =  4
     file Cd.pbe-dn-rrkjus_psl.0.3.1.UPF: wavefunction(s)  4D renormalized
     Message from routine setup:
     using ibrav=0 with symmetry is DISCOURAGED, use correct ibrav instead

     K-points division:     npool     =       2
     R & G space division:  proc/nbgrp/npool/nimage =       4
     Subspace diagonalization in iterative solution of the eigenvalue problem:
     one sub-group per band group will be used

     Using Slab Decomposition

     bravais-lattice index     =            0
     lattice parameter (alat)  =       7.7845  a.u.
     unit-cell volume          =    3921.4585 (a.u.)^3
     number of atoms/cell      =           20
     number of atomic types    =            3
     number of electrons       =       168.00
     number of Kohn-Sham states=          256
     kinetic-energy cutoff     =      30.0000  Ry
     charge density cutoff     =     240.0000  Ry
     scf convergence threshold =      1.0E-06
     mixing beta               =       0.7000
     number of iterations used =            8  plain     mixing
     Exchange-correlation=  SLA  PW   PBX  PBC
                           (   1   4   3   4   0   0   0)

     celldm(1)=   7.784538  celldm(2)=   0.000000  celldm(3)=   0.000000
     celldm(4)=   0.000000  celldm(5)=   0.000000  celldm(6)=   0.000000

     crystal axes: (cart. coord. in units of alat)
               a(1) = (   1.000000   0.000000   0.000000 )
               a(2) = (   0.000000   2.236317   0.000000 )
               a(3) = (   0.000000   0.000000   3.717199 )

     reciprocal axes: (cart. coord. in units 2 pi/alat)
               b(1) = (  1.000000  0.000000  0.000000 )
               b(2) = (  0.000000  0.447164  0.000000 )
               b(3) = (  0.000000  0.000000  0.269020 )

     PseudoPot. # 1 for Rb read from file:
     /lustre07/scratch/pragov/crystal_structure_design/utils/SSSP/Rb_ONCV_PBE-1.0.oncvpsp.upf
     MD5 check sum: 55a5172d6bfbce6759a58e35d43f6aa9
     Pseudo is Norm-conserving, Zval =  9.0
     Generated using ONCVPSP code by D. R. Hamann
     Using radial grid of 2308 points,  6 beta functions with:
                l(1) =   0
                l(2) =   0
                l(3) =   1
                l(4) =   1
                l(5) =   2
                l(6) =   2

     PseudoPot. # 2 for Cd read from file:
     /lustre07/scratch/pragov/crystal_structure_design/utils/SSSP/Cd.pbe-dn-rrkjus_psl.0.3.1.UPF
     MD5 check sum: 558e9f355611b531a870a69ef6ace9e2
     Pseudo is Ultrasoft + core correction, Zval = 12.0
     Generated using "atomic" code by A. Dal Corso  v.5.0.99 svn rev. 10869
     Using radial grid of 1239 points,  6 beta functions with:
                l(1) =   0
                l(2) =   0
                l(3) =   1
                l(4) =   1
                l(5) =   2
                l(6) =   2
     Q(r) pseudized with 0 coefficients

     PseudoPot. # 3 for Cl read from file:
     /lustre07/scratch/pragov/crystal_structure_design/utils/SSSP/cl_pbe_v1.4.uspp.F.UPF
     MD5 check sum: fc6f6913ecf08c9257cb748ef0700058
     Pseudo is Ultrasoft + core correction, Zval =  7.0
     Generated by new atomic code, or converted to UPF format
     Using radial grid of  909 points,  6 beta functions with:
                l(1) =   0
                l(2) =   0
                l(3) =   1
                l(4) =   1
                l(5) =   2
                l(6) =   2
     Q(r) pseudized with  8 coefficients,  rinner =    1.300   1.300   1.300
                                                       1.300   1.300

     atomic species   valence    mass     pseudopotential
        Rb             9.00    85.46780     Rb( 1.00)
        Cd            12.00   112.41400     Cd( 1.00)
        Cl             7.00    35.45000     Cl( 1.00)

      8 Sym. Ops., with inversion, found ( 6 have fractional translation)

                                    s                        frac. trans.

      isym =  1     identity

 cryst.   s( 1) = (     1          0          0      )
                  (     0          1          0      )
                  (     0          0          1      )

 cart.    s( 1) = (  1.0000000  0.0000000  0.0000000 )
                  (  0.0000000  1.0000000  0.0000000 )
                  (  0.0000000  0.0000000  1.0000000 )

      isym =  2     180 deg rotation - cart. axis [0,0,1]

 cryst.   s( 2) = (    -1          0          0      )    f =(  0.0000000 )
                  (     0         -1          0      )       (  0.5000000 )
                  (     0          0          1      )       ( -0.5000000 )

 cart.    s( 2) = ( -1.0000000  0.0000000  0.0000000 )    f =(  0.0000000 )
                  (  0.0000000 -1.0000000  0.0000000 )       (  1.1181583 )
                  (  0.0000000  0.0000000  1.0000000 )       ( -1.8585996 )

[...]

      isym =  4     180 deg rotation - cart. axis [1,0,0]

[...]

      isym =  5     inversion

 cryst.   s( 5) = (    -1          0          0      )
                  (     0         -1          0      )
                  (     0          0         -1      )

 cart.    s( 5) = ( -1.0000000  0.0000000  0.0000000 )
                  (  0.0000000 -1.0000000  0.0000000 )
                  (  0.0000000  0.0000000 -1.0000000 )

      isym =  6     inv. 180 deg rotation - cart. axis [0,0,1]

[...]

      isym =  8     inv. 180 deg rotation - cart. axis [1,0,0]

 cryst.   s( 8) = (    -1          0          0      )    f =(  0.5000000 )
                  (     0          1          0      )       (  0.0000000 )
                  (     0          0          1      )       (  0.0000000 )

 cart.    s( 8) = ( -1.0000000  0.0000000  0.0000000 )    f =(  0.5000000 )
                  (  0.0000000  1.0000000  0.0000000 )       (  0.0000000 )
                  (  0.0000000  0.0000000  1.0000000 )       (  0.0000000 )

   Cartesian axes

     site n.     atom                  positions (alat units)
         1           Rb  tau(   1) = (   0.7500000   1.2740520   0.6473948  )
         2           Rb  tau(   2) = (   0.2500000   0.9622647   3.0698043  )
         3           Rb  tau(   3) = (   0.7500000   0.1558936   1.2112047  )
         4           Rb  tau(   4) = (   0.2500000   2.0804231   2.5059944  )
         5           Cd  tau(   5) = (   0.7500000   1.8675123   3.5094263  )
         6           Cd  tau(   6) = (   0.2500000   0.3688044   0.2077728  )
         7           Cd  tau(   7) = (   0.7500000   0.7493539   2.0663724  )
         8           Cd  tau(   8) = (   0.2500000   1.4869628   1.6508267  )
         9           Cl  tau(   9) = (   0.7500000   2.1835262   0.3627838  )
        10           Cl  tau(  10) = (   0.7500000   0.7296654   3.7031927  )
        11           Cl  tau(  11) = (   0.2500000   0.3884929   1.8445931  )
        12           Cl  tau(  12) = (   0.7500000   1.8478238   1.8726060  )
        13           Cl  tau(  13) = (   0.2500000   1.7480706   1.0910797  )
        14           Cl  tau(  14) = (   0.7500000   0.4882461   2.6261194  )
        15           Cl  tau(  15) = (   0.2500000   0.6299123   0.7675198  )
        16           Cl  tau(  16) = (   0.2500000   0.0527905   3.3544153  )
        17           Cl  tau(  17) = (   0.7500000   1.0653656   1.4958158  )
        18           Cl  tau(  18) = (   0.2500000   1.1709488   2.2213833  )
        19           Cl  tau(  19) = (   0.7500000   1.6064044   2.9496793  )
        20           Cl  tau(  20) = (   0.2500000   1.5066513   0.0140064  )

   Crystallographic axes

     site n.     atom                  positions (cryst. coord.)
         1           Rb  tau(   1) = (  0.7500000  0.5697100  0.1741620  )
         2           Rb  tau(   2) = (  0.2500000  0.4302900  0.8258380  )
         3           Rb  tau(   3) = (  0.7500000  0.0697100  0.3258380  )
         4           Rb  tau(   4) = (  0.2500000  0.9302900  0.6741620  )
         5           Cd  tau(   5) = (  0.7500000  0.8350840  0.9441050  )
         6           Cd  tau(   6) = (  0.2500000  0.1649160  0.0558950  )
         7           Cd  tau(   7) = (  0.7500000  0.3350840  0.5558950  )
         8           Cd  tau(   8) = (  0.2500000  0.6649160  0.4441050  )
         9           Cl  tau(   9) = (  0.7500000  0.9763940  0.0975960  )
        10           Cl  tau(  10) = (  0.7500000  0.3262800  0.9962320  )
        11           Cl  tau(  11) = (  0.2500000  0.1737200  0.4962320  )
        12           Cl  tau(  12) = (  0.7500000  0.8262800  0.5037680  )
        13           Cl  tau(  13) = (  0.2500000  0.7816740  0.2935220  )
        14           Cl  tau(  14) = (  0.7500000  0.2183260  0.7064780  )
        15           Cl  tau(  15) = (  0.2500000  0.2816740  0.2064780  )
        16           Cl  tau(  16) = (  0.2500000  0.0236060  0.9024040  )
        17           Cl  tau(  17) = (  0.7500000  0.4763930  0.4024040  )
        18           Cl  tau(  18) = (  0.2500000  0.5236060  0.5975960  )
        19           Cl  tau(  19) = (  0.7500000  0.7183260  0.7935220  )
        20           Cl  tau(  20) = (  0.2500000  0.6737200  0.0037680  )

     number of k points=     8
                       cart. coord. in units 2pi/alat
        k(    1) = (   0.0000000   0.0000000   0.0000000), wk =   0.0740741
        k(    2) = (   0.0000000   0.0000000   0.0896733), wk =   0.1481481
        k(    3) = (   0.0000000   0.1490546   0.0000000), wk =   0.1481481
        k(    4) = (   0.0000000   0.1490546   0.0896733), wk =   0.2962963
        k(    5) = (   0.3333333   0.0000000   0.0000000), wk =   0.1481481
        k(    6) = (   0.3333333   0.0000000   0.0896733), wk =   0.2962963
        k(    7) = (   0.3333333   0.1490546   0.0000000), wk =   0.2962963
        k(    8) = (   0.3333333   0.1490546   0.0896733), wk =   0.5925926

                       cryst. coord.
        k(    1) = (   0.0000000   0.0000000   0.0000000), wk =   0.0740741
        k(    2) = (   0.0000000   0.0000000   0.3333333), wk =   0.1481481
        k(    3) = (   0.0000000   0.3333333   0.0000000), wk =   0.1481481
        k(    4) = (   0.0000000   0.3333333   0.3333333), wk =   0.2962963
        k(    5) = (   0.3333333   0.0000000   0.0000000), wk =   0.1481481
        k(    6) = (   0.3333333   0.0000000   0.3333333), wk =   0.2962963
        k(    7) = (   0.3333333   0.3333333   0.0000000), wk =   0.2962963
        k(    8) = (   0.3333333   0.3333333   0.3333333), wk =   0.5925926

     Check: negative core charge=   -0.000001

     Initial potential from superposition of free atoms

     starting charge     167.8813, renormalised to     168.0000

     negative rho (up, down):  1.809E-01 0.000E+00
     Starting wfcs are  104 randomized atomic wfcs +  152 random wfcs

     Self-consistent Calculation

     iteration #  1     ecut=    30.00 Ry     beta= 0.70
     Davidson diagonalization with overlap

     ethr =  1.00E-02,  avg # of iterations =  8.6

     Threshold (ethr) on eigenvalues was too large:
     Diagonalizing with lowered threshold

     Davidson diagonalization with overlap

[...]

     negative rho (up, down):  1.857E-01 0.000E+00

     total energy              =   -1086.02653260 Ry
     estimated scf accuracy    <       0.55496926 Ry

[...]

     total energy              =   -1086.19562352 Ry
     estimated scf accuracy    <       0.00000379 Ry

     iteration #  7     ecut=    30.00 Ry     beta= 0.70
     Davidson diagonalization with overlap

     ethr =  2.26E-09,  avg # of iterations =  4.2

     negative rho (up, down):  1.799E-01 0.000E+00

     End of self-consistent calculation

          k = 0.0000 0.0000 0.0000 ( 10865 PWs)   bands (ev):

   -22.1202 -22.1199 -22.1185 -22.1181 -11.2457 -11.2387 -10.9214 -10.9102
   -10.6940 -10.6918 -10.6812 -10.6639 -10.4744 -10.4577 -10.4461 -10.4431
    -6.2307  -6.2199  -6.2158  -6.2121  -6.1924  -6.1835  -6.1237  -6.1218
    -6.1205  -6.1170  -6.1135  -6.1114  -4.1337  -4.1326  -4.1075  -4.1057
    -4.0948  -4.0901  -3.9807  -3.9766  -3.9649  -3.9549  -3.9035  -3.8919
    -3.8813  -3.8800  -3.8487  -3.8475  -3.8359  -3.8251  -3.7787  -3.7765
    -0.7896  -0.7453  -0.6633  -0.4858  -0.0935   0.0026   0.5049   0.6041
     0.6113   0.7737   0.9193   0.9996   1.0715   1.1171   1.1206   1.1650
     1.2028   1.3150   1.5104   1.5120   1.5894   1.7155   1.7563   1.7574
     1.7585   1.7689   1.7750   1.7827   1.8450   1.8865   1.9140   1.9352
     1.9460   1.9727   1.9983   2.0180   5.6148   6.2690   6.5095   6.7325
     8.2349   8.5384   8.5646   8.5984   8.6188   8.7824   9.3687   9.4558
     9.5021   9.7398   9.9207  10.0907  10.6548  10.6880  10.7849  10.8262
    10.9506  10.9656  10.9659  11.1088  11.1498  11.2964  11.4636  11.5197
    11.5317  11.5706  11.6337  11.7374  11.8278  11.9663  12.0601  12.2102
    12.2889  12.3065  12.3782  12.5260  12.5360  12.6625  12.6847  12.8908
    12.8944  13.1867  13.1959  13.4854  13.5848  13.7982  13.9659  13.9993
    14.0438  14.1233  14.1708  14.3183  14.3933  14.5434  14.7161  14.7462
    14.8557  14.9041  15.0899  15.3310  15.4446  15.5190  15.5603  15.6019
    15.6896  15.7463  15.7605  15.7980  15.9407  16.3273  16.4781  16.7900
    16.8285  16.8567  16.9256  16.9371  17.0244  17.3089  17.4408  17.4718
    17.5121  17.5297  17.5512  17.7223  17.7761  18.0363  18.1410  18.2431
    18.3399  18.3970  18.4167  18.5653  18.6974  18.9132  19.0175  19.0562
    19.0643  19.0739  19.2748  19.5947  19.6416  19.6538  20.0816  20.1198
    20.1309  20.1759  20.3211  20.4762  20.5999  20.7053  20.9291  21.0468
    21.0833  21.3837  21.4170  21.4928  21.6227  21.7701  21.7945  21.8508
    21.9446  21.9944  22.0988  22.2015  22.2474  22.3795  22.4834  22.8052
    22.8203  22.9613  23.0142  23.0734  23.1824  23.2197  23.3112  23.4853
    23.5344  23.5513  23.8290  23.8340  23.9333  23.9520  23.9770  24.0059
    24.0715  24.3972  24.4449  24.4739  24.5210  24.6799  24.9074  25.0664
    25.0882  25.2362  25.2881  25.3590  25.4323  25.5191  25.5403  25.5886
    25.7188  25.7617  25.8139  25.8723  25.9834  26.1169  26.5271  26.6741

     occupation numbers
     1.0000   1.0000   1.0000   1.0000   1.0000   1.0000   1.0000   1.0000
     1.0000   1.0000   1.0000   1.0000   1.0000   1.0000   1.0000   1.0000
     1.0000   1.0000   1.0000   1.0000   1.0000   1.0000   1.0000   1.0000
     1.0000   1.0000   1.0000   1.0000   1.0000   1.0000   1.0000   1.0000
     1.0000   1.0000   1.0000   1.0000   1.0000   1.0000   1.0000   1.0000
     1.0000   1.0000   1.0000   1.0000   1.0000   1.0000   1.0000   1.0000
     1.0000   1.0000   1.0000   1.0000   1.0000   1.0000   1.0000   1.0000
     1.0000   1.0000   1.0000   1.0000   1.0000   1.0000   1.0000   1.0000
     1.0000   1.0000   1.0000   1.0000   1.0000   1.0000   1.0000   1.0000
     1.0000   1.0000   1.0000   1.0000   1.0000   1.0000   1.0000   1.0000
     1.0000   1.0000   1.0000   1.0000   0.0000   0.0000   0.0000   0.0000
     0.0000   0.0000   0.0000   0.0000   0.0000   0.0000   0.0000   0.0000
     0.0000   0.0000   0.0000   0.0000   0.0000   0.0000   0.0000   0.0000
     0.0000   0.0000   0.0000   0.0000   0.0000   0.0000   0.0000   0.0000
     0.0000   0.0000   0.0000   0.0000   0.0000   0.0000   0.0000   0.0000
     0.0000   0.0000   0.0000   0.0000   0.0000   0.0000   0.0000   0.0000
     0.0000   0.0000   0.0000   0.0000   0.0000   0.0000   0.0000   0.0000
     0.0000   0.0000   0.0000   0.0000   0.0000   0.0000   0.0000   0.0000
     0.0000   0.0000   0.0000   0.0000   0.0000   0.0000   0.0000   0.0000
     0.0000   0.0000   0.0000   0.0000   0.0000   0.0000   0.0000   0.0000
     0.0000   0.0000   0.0000   0.0000   0.0000   0.0000   0.0000   0.0000
     0.0000   0.0000   0.0000   0.0000   0.0000   0.0000   0.0000   0.0000
     0.0000   0.0000   0.0000   0.0000   0.0000   0.0000   0.0000   0.0000
     0.0000   0.0000   0.0000   0.0000   0.0000   0.0000   0.0000   0.0000
     0.0000   0.0000   0.0000   0.0000   0.0000   0.0000   0.0000   0.0000
     0.0000   0.0000   0.0000   0.0000   0.0000   0.0000   0.0000   0.0000
     0.0000   0.0000   0.0000   0.0000   0.0000   0.0000   0.0000   0.0000
     0.0000   0.0000   0.0000   0.0000   0.0000   0.0000   0.0000   0.0000
     0.0000   0.0000   0.0000   0.0000   0.0000   0.0000   0.0000   0.0000
     0.0000   0.0000   0.0000   0.0000   0.0000   0.0000   0.0000   0.0000
     0.0000   0.0000   0.0000   0.0000   0.0000   0.0000   0.0000   0.0000
     0.0000   0.0000   0.0000   0.0000   0.0000   0.0000   0.0000   0.0000

[...]

          k = 0.3333 0.1491 0.0897 ( 10901 PWs)   bands (ev):

   -22.1048 -22.1047 -22.1041 -22.1040 -11.0709 -11.0701 -10.9153 -10.9151
   -10.6788 -10.6788 -10.5988 -10.5979 -10.4342 -10.4283 -10.4204 -10.4178
    -6.3637  -6.3616  -6.3321  -6.3295  -6.2083  -6.2081  -6.2018  -6.2010
    -6.1632  -6.1600  -6.1555  -6.1524  -4.0947  -4.0929  -4.0169  -4.0160
    -3.9472  -3.9464  -3.9266  -3.9261  -3.8865  -3.8861  -3.8753  -3.8743
    -3.8339  -3.8332  -3.8291  -3.8285  -3.8192  -3.8189  -3.8120  -3.8112
    -1.0137  -0.9847  -0.8761  -0.8748  -0.0151  -0.0007   0.1106   0.1177
     0.3242   0.3469   0.5414   0.5611   0.6608   0.6778   0.8816   0.9181
     1.1820   1.2101   1.3533   1.3978   1.4713   1.4868   1.5199   1.5331
     1.5609   1.5817   1.6480   1.6605   1.6946   1.7090   1.7807   1.8077
     1.9126   1.9226   2.0273   2.0406   6.7708   6.8015   6.9777   7.0036
     9.0726   9.2384   9.3456   9.5046   9.6875   9.8021  10.0455  10.1229
    10.1947  10.2858  10.3210  10.4401  10.5723  10.6561  10.6988  10.8360
    10.9704  11.0056  11.1547  11.1985  11.3003  11.3431  11.4456  11.4772
    11.5068  11.5653  11.6512  11.6914  11.8124  11.8436  11.9415  12.0032
    12.0257  12.0637  12.2388  12.3532  12.5174  12.6497  12.7730  12.7975
    12.9365  12.9970  13.0391  13.1269  13.1835  13.2095  13.3301  13.5075
    13.6168  13.8122  14.0733  14.1543  14.4350  14.4831  15.1016  15.1514
    15.2157  15.4608  15.5202  15.7361  15.7573  15.9065  15.9686  16.0474
    16.1549  16.1848  16.5029  16.5347  16.6142  16.6542  16.8071  16.8589
    16.9781  17.0457  17.0824  17.3558  17.5471  17.6305  17.7748  17.8728
    18.0503  18.1514  18.2248  18.3851  18.4744  18.5049  18.6608  18.7102
    18.8036  18.9570  19.0228  19.2740  19.3460  19.3797  19.5116  19.5650
    19.6827  19.7670  19.9668  20.0649  20.1157  20.1987  20.2626  20.3781
    20.4905  20.5680  20.6585  20.7011  20.7865  20.8492  20.8891  20.9348
    21.0828  21.1107  21.1606  21.2324  21.3046  21.3344  21.4119  21.5889
    21.6497  21.7465  21.8322  21.8675  21.9727  22.0289  22.1554  22.2125
    22.3392  22.3912  22.5102  22.6051  22.6413  22.7504  22.8070  22.9105
    22.9606  23.2002  23.2734  23.3717  23.4036  23.5274  23.5510  23.6211
    23.7103  23.9125  23.9913  24.0798  24.1855  24.3481  24.3835  24.5398
    24.5966  24.6301  24.8163  24.8779  24.9185  25.0414  25.1070  25.1789
    25.3835  25.4572  25.6846  25.7131  25.7787  25.8626  26.0489  26.1127

     occupation numbers
     1.0000   1.0000   1.0000   1.0000   1.0000   1.0000   1.0000   1.0000
     1.0000   1.0000   1.0000   1.0000   1.0000   1.0000   1.0000   1.0000
     1.0000   1.0000   1.0000   1.0000   1.0000   1.0000   1.0000   1.0000
     1.0000   1.0000   1.0000   1.0000   1.0000   1.0000   1.0000   1.0000
     1.0000   1.0000   1.0000   1.0000   1.0000   1.0000   1.0000   1.0000
     1.0000   1.0000   1.0000   1.0000   1.0000   1.0000   1.0000   1.0000
     1.0000   1.0000   1.0000   1.0000   1.0000   1.0000   1.0000   1.0000
     1.0000   1.0000   1.0000   1.0000   1.0000   1.0000   1.0000   1.0000
     1.0000   1.0000   1.0000   1.0000   1.0000   1.0000   1.0000   1.0000
     1.0000   1.0000   1.0000   1.0000   1.0000   1.0000   1.0000   1.0000
     1.0000   1.0000   1.0000   1.0000   0.0000   0.0000   0.0000   0.0000
     0.0000   0.0000   0.0000   0.0000   0.0000   0.0000   0.0000   0.0000
     0.0000   0.0000   0.0000   0.0000   0.0000   0.0000   0.0000   0.0000
     0.0000   0.0000   0.0000   0.0000   0.0000   0.0000   0.0000   0.0000
     0.0000   0.0000   0.0000   0.0000   0.0000   0.0000   0.0000   0.0000
     0.0000   0.0000   0.0000   0.0000   0.0000   0.0000   0.0000   0.0000
     0.0000   0.0000   0.0000   0.0000   0.0000   0.0000   0.0000   0.0000
     0.0000   0.0000   0.0000   0.0000   0.0000   0.0000   0.0000   0.0000
     0.0000   0.0000   0.0000   0.0000   0.0000   0.0000   0.0000   0.0000
     0.0000   0.0000   0.0000   0.0000   0.0000   0.0000   0.0000   0.0000
     0.0000   0.0000   0.0000   0.0000   0.0000   0.0000   0.0000   0.0000
     0.0000   0.0000   0.0000   0.0000   0.0000   0.0000   0.0000   0.0000
     0.0000   0.0000   0.0000   0.0000   0.0000   0.0000   0.0000   0.0000
     0.0000   0.0000   0.0000   0.0000   0.0000   0.0000   0.0000   0.0000
     0.0000   0.0000   0.0000   0.0000   0.0000   0.0000   0.0000   0.0000
     0.0000   0.0000   0.0000   0.0000   0.0000   0.0000   0.0000   0.0000
     0.0000   0.0000   0.0000   0.0000   0.0000   0.0000   0.0000   0.0000
     0.0000   0.0000   0.0000   0.0000   0.0000   0.0000   0.0000   0.0000
     0.0000   0.0000   0.0000   0.0000   0.0000   0.0000   0.0000   0.0000
     0.0000   0.0000   0.0000   0.0000   0.0000   0.0000   0.0000   0.0000
     0.0000   0.0000   0.0000   0.0000   0.0000   0.0000   0.0000   0.0000
     0.0000   0.0000   0.0000   0.0000   0.0000   0.0000   0.0000   0.0000

     highest occupied, lowest unoccupied level (ev):     2.0545    5.6148

!    total energy              =   -1086.19562513 Ry
     estimated scf accuracy    <       0.00000033 Ry

     The total energy is the sum of the following terms:
     one-electron contribution =    -398.68712355 Ry
     hartree contribution      =     288.09524504 Ry
     xc contribution           =    -315.17996711 Ry
     ewald contribution        =    -660.42377951 Ry

     convergence has been achieved in   7 iterations

     Writing all to output data dir bands_nm/myprefix.save/

     General routines

     Parallel routines

   This run was terminated on:  22:56:51  15Jul2023

   JOB DONE.