     Program PWSCF v.7.1 starts on 13Jul2023 at  6:14: 9

     Reading input from espresso_25358.pwi
Warning: card &CELL ignored
Warning: card / ignored

     Current dimensions of program PWSCF are:
     Max number of different atomic species (ntypx) = 10
     Max number of k-points (npk) =  40000
     Max angular momentum in pseudopotentials (lmaxx) =  4
     Message from routine setup:
     using ibrav=0 with symmetry is DISCOURAGED, use correct ibrav instead

     K-points division:     npool     =       2
     R & G space division:  proc/nbgrp/npool/nimage =       8
     Subspace diagonalization in iterative solution of the eigenvalue problem:
     a serial algorithm will be used

     Using Slab Decomposition

     bravais-lattice index     =            0
     lattice parameter (alat)  =       6.0879  a.u.
     unit-cell volume          =    2206.5211 (a.u.)^3
     number of atoms/cell      =           12
     number of atomic types    =            4
     number of electrons       =       104.00
     number of Kohn-Sham states=           64
     kinetic-energy cutoff     =      30.0000  Ry
     charge density cutoff     =     240.0000  Ry
     scf convergence threshold =      1.0E-06
     mixing beta               =       0.7000
     number of iterations used =            8  plain     mixing
     Exchange-correlation=  SLA  PW   PBX  PBC
                           (   1   4   3   4   0   0   0)

     celldm(1)=   6.087912  celldm(2)=   0.000000  celldm(3)=   0.000000
     celldm(4)=   0.000000  celldm(5)=   0.000000  celldm(6)=   0.000000

     crystal axes: (cart. coord. in units of alat)
               a(1) = (   1.000000   0.000000   0.000000 )
               a(2) = (  -0.500000   0.866025   0.000000 )
               a(3) = (   0.000000   0.000000  11.292039 )

     reciprocal axes: (cart. coord. in units 2 pi/alat)
               b(1) = (  1.000000  0.577350  0.000000 )
               b(2) = (  0.000000  1.154701  0.000000 )
               b(3) = (  0.000000  0.000000  0.088558 )

     PseudoPot. # 1 for Mo read from file:
     /lustre07/scratch/pragov/crystal_structure_design/utils/SSSP/Mo_ONCV_PBE-1.0.oncvpsp.upf
     MD5 check sum: 1b5d28e075c9ccadda658a603575cd1f
     Pseudo is Norm-conserving, Zval = 14.0
     Generated using ONCVPSP code by D. R. Hamann
     Using radial grid of 1526 points,  6 beta functions with:
                l(1) =   0
                l(2) =   0
                l(3) =   1
                l(4) =   1
                l(5) =   2
                l(6) =   2

     PseudoPot. # 2 for W  read from file:
     /lustre07/scratch/pragov/crystal_structure_design/utils/SSSP/W_pbe_v1.2.uspp.F.UPF
     MD5 check sum: 9c083fa34c2a2ea0f02f1f893e16e1c8
     Pseudo is Ultrasoft + core correction, Zval = 14.0
     Generated by new atomic code, or converted to UPF format
     Using radial grid of  923 points,  8 beta functions with:
                l(1) =   0
                l(2) =   0
                l(3) =   0
                l(4) =   1
                l(5) =   1
                l(6) =   2
                l(7) =   2
                l(8) =   3
     Q(r) pseudized with  6 coefficients,  rinner =    1.350   1.350   1.350
                                                       1.350   1.350   1.350
                                                       1.350

     PseudoPot. # 3 for Se read from file:
     /lustre07/scratch/pragov/crystal_structure_design/utils/SSSP/Se_pbe_v1.uspp.F.UPF
     MD5 check sum: 1b3568f3a8ae88f9a2a0ad0698632c85
     Pseudo is Ultrasoft + core correction, Zval =  6.0
     Generated by new atomic code, or converted to UPF format
     Using radial grid of  877 points,  6 beta functions with:
                l(1) =   0
                l(2) =   0
                l(3) =   1
                l(4) =   1
                l(5) =   2
                l(6) =   2
     Q(r) pseudized with  8 coefficients,  rinner =    1.300   1.300   1.300
                                                       1.300   1.300

     PseudoPot. # 4 for S  read from file:
     /lustre07/scratch/pragov/crystal_structure_design/utils/SSSP/s_pbe_v1.4.uspp.F.UPF
     MD5 check sum: 88d86576ff6df21479756cfb9bdac1df
     Pseudo is Ultrasoft + core correction, Zval =  6.0
     Generated by new atomic code, or converted to UPF format
     Using radial grid of  907 points,  6 beta functions with:
                l(1) =   0
                l(2) =   0
                l(3) =   1
                l(4) =   1
                l(5) =   2
                l(6) =   2
     Q(r) pseudized with  8 coefficients,  rinner =    1.300   1.300   1.300
                                                       1.300   1.300

     atomic species   valence    mass     pseudopotential
        Mo            14.00    95.95000     Mo( 1.00)
        W             14.00   183.84000     W ( 1.00)
        Se             6.00    78.97100     Se( 1.00)
        S              6.00    32.06000     S ( 1.00)

      6 Sym. Ops. (no inversion) found

                                    s                        frac. trans.

      isym =  1     identity

 cryst.   s( 1) = (     1          0          0      )
                  (     0          1          0      )
                  (     0          0          1      )

 cart.    s( 1) = (  1.0000000 -0.0000000  0.0000000 )
                  (  0.0000000  1.0000000  0.0000000 )
                  (  0.0000000  0.0000000  1.0000000 )

      isym =  2     120 deg rotation - cryst. axis [0,0,1]

[...]

      isym =  3     120 deg rotation - cryst. axis [0,0,-1]

[...]

      isym =  4     inv. 180 deg rotation - cart. axis [1,0,0]

[...]

      isym =  5     inv. 180 deg rotation - cryst. axis [0,1,0]

[...]

      isym =  6     inv. 180 deg rotation - cryst. axis [1,1,0]

 cryst.   s( 6) = (     0         -1          0      )
                  (    -1          0          0      )
                  (     0          0          1      )

 cart.    s( 6) = (  0.5000001 -0.8660253  0.0000000 )
                  ( -0.8660253 -0.5000001  0.0000000 )
                  (  0.0000000  0.0000000  1.0000000 )

   Cartesian axes

     site n.     atom                  positions (alat units)
         1           Mo  tau(   1) = (   0.5000005   0.2886748   3.1820852  )
         2           W   tau(   2) = (  -0.0000006   0.5773505   1.0605144  )
         3           W   tau(   3) = (  -0.0000006   0.5773505   5.3033737  )
         4           W   tau(   4) = (   0.5000005   0.2886748   7.4251139  )
         5           Se  tau(   5) = (  -0.0000006   0.5773505   7.9594644  )
         6           Se  tau(   6) = (  -0.0000006   0.5773505   6.8908536  )
         7           S   tau(   7) = (  -0.0000006   0.5773505   3.6651473  )
         8           S   tau(   8) = (   0.5000005   0.2886748   0.5756343  )
         9           S   tau(   9) = (   0.5000005   0.2886748   4.8185952  )
        10           S   tau(  10) = (   0.5000005   0.2886748   1.5453945  )
        11           S   tau(  11) = (   0.5000005   0.2886748   5.7879828  )
        12           S   tau(  12) = (  -0.0000006   0.5773505   2.6987972  )

   Crystallographic axes

     site n.     atom                  positions (cryst. coord.)
         1           Mo  tau(   1) = (  0.6666670  0.3333330  0.2817990  )
         2           W   tau(   2) = (  0.3333330  0.6666670  0.0939170  )
         3           W   tau(   3) = (  0.3333330  0.6666670  0.4696560  )
         4           W   tau(   4) = (  0.6666670  0.3333330  0.6575530  )
         5           Se  tau(   5) = (  0.3333330  0.6666670  0.7048740  )
         6           Se  tau(   6) = (  0.3333330  0.6666670  0.6102400  )
         7           S   tau(   7) = (  0.3333330  0.6666670  0.3245780  )
         8           S   tau(   8) = (  0.6666670  0.3333330  0.0509770  )
         9           S   tau(   9) = (  0.6666670  0.3333330  0.4267250  )
        10           S   tau(  10) = (  0.6666670  0.3333330  0.1368570  )
        11           S   tau(  11) = (  0.6666670  0.3333330  0.5125720  )
        12           S   tau(  12) = (  0.3333330  0.6666670  0.2390000  )

     number of k points=     7
                       cart. coord. in units 2pi/alat
        k(    1) = (   0.0000000   0.0000000   0.0000000), wk =   0.0740741
        k(    2) = (   0.0000000   0.0000000   0.0295193), wk =   0.1481481
        k(    3) = (   0.0000000   0.3849002   0.0000000), wk =   0.4444444
        k(    4) = (   0.0000000   0.3849002   0.0295193), wk =   0.4444444
        k(    5) = (   0.3333333   0.5773504   0.0000000), wk =   0.1481481
        k(    6) = (   0.3333333   0.5773504   0.0295193), wk =   0.2962963
        k(    7) = (   0.0000000  -0.3849002   0.0295193), wk =   0.4444444

                       cryst. coord.
        k(    1) = (   0.0000000   0.0000000   0.0000000), wk =   0.0740741
        k(    2) = (   0.0000000   0.0000000   0.3333333), wk =   0.1481481
        k(    3) = (   0.0000000   0.3333333   0.0000000), wk =   0.4444444
        k(    4) = (   0.0000000   0.3333333   0.3333333), wk =   0.4444444
        k(    5) = (   0.3333333   0.3333333   0.0000000), wk =   0.1481481
        k(    6) = (   0.3333333   0.3333333   0.3333333), wk =   0.2962963
        k(    7) = (   0.0000000  -0.3333333   0.3333333), wk =   0.4444444

     Check: negative core charge=   -0.000002

     Initial potential from superposition of free atoms

     starting charge     103.6976, renormalised to     104.0000

     negative rho (up, down):  1.850E-01 0.000E+00
     Starting wfcs are   81 randomized atomic wfcs

     Self-consistent Calculation

     iteration #  1     ecut=    30.00 Ry     beta= 0.70
     Davidson diagonalization with overlap

     ethr =  1.00E-02,  avg # of iterations =  3.0

     negative rho (up, down):  1.887E-01 0.000E+00

     total energy              =    -685.67300950 Ry
     estimated scf accuracy    <     178.50833636 Ry

[...]

     c_bands:  1 eigenvalues not converged
     c_bands:  2 eigenvalues not converged
     ethr =  1.00E-02,  avg # of iterations = 20.6

[...]

     total energy              =    -846.98672442 Ry
     estimated scf accuracy    <       0.00000387 Ry

     iteration # 43     ecut=    30.00 Ry     beta= 0.70
     Davidson diagonalization with overlap

     ethr =  3.73E-09,  avg # of iterations =  5.0

     negative rho (up, down):  1.838E-01 0.000E+00

     End of self-consistent calculation

          k = 0.0000 0.0000 0.0000 (  6143 PWs)   bands (ev):

   -68.6560 -68.6436 -67.7134 -55.7007 -32.9330 -32.9195 -32.7329 -32.7329
   -32.7219 -32.7219 -32.0718 -31.7787 -31.7787 -29.8671 -29.6238 -29.6238
    -9.2944  -9.2921  -8.8526  -8.8408  -7.7260  -7.6925  -7.6415  -7.5574
    -0.9167  -0.8698  -0.3372  -0.2499   2.4926   2.4926   2.4978   2.4978
     2.5405   2.5405   2.9448   3.1965   3.5828   3.5828   3.6218   3.6567
     3.6567   3.6631   3.6632   3.9445   4.1184   4.1184   5.1249   5.2384
     5.2384   5.3728   5.5588   5.7516   7.8045   7.8045   8.0682   8.0682
     8.1374   8.1375   8.1454   8.1455   8.3218   8.3219   8.3298   8.3298

     occupation numbers
     1.0000   1.0000   1.0000   1.0000   1.0000   1.0000   1.0000   1.0000
     1.0000   1.0000   1.0000   1.0000   1.0000   1.0000   1.0000   1.0000
     1.0000   1.0000   1.0000   1.0000   1.0000   1.0000   1.0000   1.0000
     1.0000   1.0000   1.0000   1.0000   1.0000   1.0000   1.0000   1.0000
     1.0000   1.0000   1.0000   1.0000   1.0000   1.0000   1.0000   1.0000
     1.0000   1.0000   1.0000   1.0000   1.0000   1.0000   1.0000   1.0000
     1.0000   1.0000   1.0000   1.0000   0.0000   0.0000   0.0000   0.0000
     0.0000   0.0000   0.0000   0.0000   0.0000   0.0000   0.0000   0.0000

[...]

          k = 0.0000-0.3849 0.0295 (  6120 PWs)   bands (ev):

   -68.6456 -68.6332 -67.7030 -55.6771 -32.9518 -32.9410 -32.8931 -32.8795
   -32.7844 -32.7735 -32.0303 -31.9935 -31.8293 -29.8716 -29.8182 -29.6813
    -7.9077  -7.9045  -7.6259  -7.3376  -7.1969  -7.1891  -7.0732  -6.8578
    -0.3284  -0.3241   0.0060   0.6228   0.8452   0.8661   0.9229   0.9374
     1.0976   1.2978   1.6077   1.6750   2.2659   2.2720   2.2932   3.4114
     3.4754   3.6260   3.6455   3.6482   3.6828   3.6962   3.9326   4.2194
     4.2538   4.2872   4.8247   5.2467   7.3223   7.4434   7.8708   7.8786
     7.8980   7.9778   8.2670   8.4808   8.6975   8.9324   8.9785   9.5307

     occupation numbers
     1.0000   1.0000   1.0000   1.0000   1.0000   1.0000   1.0000   1.0000
     1.0000   1.0000   1.0000   1.0000   1.0000   1.0000   1.0000   1.0000
     1.0000   1.0000   1.0000   1.0000   1.0000   1.0000   1.0000   1.0000
     1.0000   1.0000   1.0000   1.0000   1.0000   1.0000   1.0000   1.0000
     1.0000   1.0000   1.0000   1.0000   1.0000   1.0000   1.0000   1.0000
     1.0000   1.0000   1.0000   1.0000   1.0000   1.0000   1.0000   1.0000
     1.0000   1.0000   1.0000   1.0000   0.0000   0.0000   0.0000   0.0000
     0.0000   0.0000   0.0000   0.0000   0.0000   0.0000   0.0000   0.0000

     highest occupied, lowest unoccupied level (ev):     6.2201    6.7066

!    total energy              =    -846.98672470 Ry
     estimated scf accuracy    <       0.00000094 Ry

     The total energy is the sum of the following terms:
     one-electron contribution =   -3811.78481218 Ry
     hartree contribution      =    1928.77566967 Ry
     xc contribution           =    -249.60617615 Ry
     ewald contribution        =    1285.62859395 Ry

     convergence has been achieved in  43 iterations

     Writing all to output data dir bands_nm/myprefix.save/

     General routines

     Parallel routines

   This run was terminated on:   6:15:51  13Jul2023

   JOB DONE.