     Program PWSCF v.7.1 starts on 15Jul2023 at 21:44:51

     Reading input from espresso_13585.pwi
Warning: card &CELL ignored
Warning: card / ignored

     Current dimensions of program PWSCF are:
     Max number of different atomic species (ntypx) = 10
     Max number of k-points (npk) =  40000
     Max angular momentum in pseudopotentials (lmaxx) =  4
     file O.pbe-n-kjpaw_psl.0.1.UPF: wavefunction(s)  2P renormalized

     K-points division:     npool     =       2
     R & G space division:  proc/nbgrp/npool/nimage =       4
     Subspace diagonalization in iterative solution of the eigenvalue problem:
     one sub-group per band group will be used

     Using Slab Decomposition

     bravais-lattice index     =            0
     lattice parameter (alat)  =      13.9007  a.u.
     unit-cell volume          =    1916.7671 (a.u.)^3
     number of atoms/cell      =           18
     number of atomic types    =            4
     number of electrons       =       148.00
     number of Kohn-Sham states=          256
     kinetic-energy cutoff     =      30.0000  Ry
     charge density cutoff     =     240.0000  Ry
     scf convergence threshold =      1.0E-06
     mixing beta               =       0.7000
     number of iterations used =            8  plain     mixing
     Exchange-correlation= SLA  PW   PBX  PBC
                           (   1   4   3   4   0   0   0)

     celldm(1)=  13.900688  celldm(2)=   0.000000  celldm(3)=   0.000000
     celldm(4)=   0.000000  celldm(5)=   0.000000  celldm(6)=   0.000000

     crystal axes: (cart. coord. in units of alat)
               a(1) = (   1.000000   0.000000   0.000000 )
               a(2) = (  -0.021025   0.999779   0.000000 )
               a(3) = (  -0.466347  -0.522549   0.713767 )

     reciprocal axes: (cart. coord. in units 2 pi/alat)
               b(1) = (  1.000000  0.021029  0.668755 )
               b(2) = (  0.000000  1.000221  0.732262 )
               b(3) = (  0.000000  0.000000  1.401017 )

     PseudoPot. # 1 for Rb read from file:
     /lustre07/scratch/pragov/crystal_structure_design/utils/SSSP/Rb_ONCV_PBE-1.0.oncvpsp.upf
     MD5 check sum: 55a5172d6bfbce6759a58e35d43f6aa9
     Pseudo is Norm-conserving, Zval =  9.0
     Generated using ONCVPSP code by D. R. Hamann
     Using radial grid of 2308 points,  6 beta functions with:
                l(1) =   0
                l(2) =   0
                l(3) =   1
                l(4) =   1
                l(5) =   2
                l(6) =   2

     PseudoPot. # 2 for Sb read from file:
     /lustre07/scratch/pragov/crystal_structure_design/utils/SSSP/sb_pbe_v1.4.uspp.F.UPF
     MD5 check sum: 9bc50dfb53373b713f5709b9110fe27f
     Pseudo is Ultrasoft + core correction, Zval = 15.0
     Generated by new atomic code, or converted to UPF format
     Using radial grid of  891 points,  6 beta functions with:
                l(1) =   0
                l(2) =   0
                l(3) =   1
                l(4) =   1
                l(5) =   2
                l(6) =   2
     Q(r) pseudized with  8 coefficients,  rinner =    1.350   1.350   1.350
                                                       1.350   1.350

     PseudoPot. # 3 for Mo read from file:
     /lustre07/scratch/pragov/crystal_structure_design/utils/SSSP/Mo_ONCV_PBE-1.0.oncvpsp.upf
     MD5 check sum: 1b5d28e075c9ccadda658a603575cd1f
     Pseudo is Norm-conserving, Zval = 14.0
     Generated using ONCVPSP code by D. R. Hamann
     Using radial grid of 1526 points,  6 beta functions with:
                l(1) =   0
                l(2) =   0
                l(3) =   1
                l(4) =   1
                l(5) =   2
                l(6) =   2

     PseudoPot. # 4 for O  read from file:
     /lustre07/scratch/pragov/crystal_structure_design/utils/SSSP/O.pbe-n-kjpaw_psl.0.1.UPF
     MD5 check sum: 0234752ac141de4415c5fc33072bef88
     Pseudo is Projector augmented-wave + core cor, Zval =  6.0
     Generated using "atomic" code by A. Dal Corso  v.5.0.99 svn rev. 10869
     Shape of augmentation charge: BESSEL
     Using radial grid of 1095 points,  4 beta functions with:
                l(1) =   0
                l(2) =   0
                l(3) =   1
                l(4) =   1
     Q(r) pseudized with 0 coefficients

     atomic species   valence    mass     pseudopotential
        Rb             9.00    85.46780     Rb( 1.00)
        Sb            15.00   121.76000     Sb( 1.00)
        Mo            14.00    95.95000     Mo( 1.00)
        O              6.00    15.99900     O ( 1.00)

     No symmetry found

                                    s                        frac. trans.

      isym =  1     identity

 cryst.   s( 1) = (     1          0          0      )
                  (     0          1          0      )
                  (     0          0          1      )

 cart.    s( 1) = (  1.0000000  0.0000000  0.0000000 )
                  (  0.0000000  1.0000000  0.0000000 )
                  (  0.0000000  0.0000000  1.0000000 )

   Cartesian axes

     site n.     atom                  positions (alat units)
         1           Rb  tau(   1) = (  -0.2488294   0.5142062   0.5105169  )
         2           Rb  tau(   2) = (   0.7243626  -0.0006517   0.1536334  )
         3           Sb  tau(   3) = (   0.2687756  -0.2631828   0.3594902  )
         4           Sb  tau(   4) = (   0.4914365   0.4979811   0.0026067  )
         5           Mo  tau(   5) = (   0.2312143   0.2430938   0.3367503  )
         6           Mo  tau(   6) = (   0.5181354   0.0023408   0.6936338  )
         7           O   tau(   7) = (   0.4557848   0.1747203   0.5358057  )
         8           O   tau(   8) = (   0.0713438  -0.2222470   0.5387186  )
         9           O   tau(   9) = (   0.2613269  -0.0065428   0.2676505  )
        10           O   tau(  10) = (   0.7488262   0.4981264   0.0935328  )
        11           O   tau(  11) = (   0.4656903  -0.2038209   0.5389834  )
        12           O   tau(  12) = (   0.0781956   0.1727768   0.5358506  )
        13           O   tau(  13) = (   0.0575621   0.3018064   0.1789221  )
        14           O   tau(  14) = (   0.4463587   0.6945086   0.1818350  )
        15           O   tau(  15) = (   0.2530171   0.4792603   0.4504163  )
        16           O   tau(  16) = (  -0.2316490  -0.0225155   0.6245341  )
        17           O   tau(  17) = (   0.0515664   0.6793530   0.1789671  )
        18           O   tau(  18) = (   0.4362278   0.2998619   0.1820998  )

   Crystallographic axes

     site n.     atom                  positions (cryst. coord.)
         1           Rb  tau(   1) = (  0.1033950  0.8881520  0.7152430  )
         2           Rb  tau(   2) = (  0.8270920  0.1118480  0.2152430  )
         3           Sb  tau(   3) = (  0.5036520 -0.0000000  0.5036520  )
         4           Sb  tau(   4) = (  0.5036520  0.5000000  0.0036520  )
         5           Mo  tau(   5) = (  0.4615300  0.4897370  0.4717930  )
         6           Mo  tau(   6) = (  0.9820560  0.5102630  0.9717930  )
         7           O   tau(   7) = (  0.8177820  0.5671090  0.7506730  )
         8           O   tau(   8) = (  0.4269410  0.1721870  0.7547540  )
         9           O   tau(   9) = (  0.4401820  0.1894460  0.3749830  )
        10           O   tau(  10) = (  0.8218520  0.5667270  0.1310410  )
        11           O   tau(  11) = (  0.8218520  0.1908110  0.7551250  )
        12           O   tau(  12) = (  0.4401820  0.5651980  0.7507360  )
        13           O   tau(  13) = (  0.1835640  0.4328910  0.2506730  )
        14           O   tau(  14) = (  0.5825670  0.8278130  0.2547540  )
        15           O   tau(  15) = (  0.5643140  0.8091890  0.6310410  )
        16           O   tau(  16) = (  0.1855380  0.4348020  0.8749830  )
        17           O   tau(  17) = (  0.1855380  0.8105540  0.2507360  )
        18           O   tau(  18) = (  0.5643140  0.4332730  0.2551250  )

     number of k points=    14
                       cart. coord. in units 2pi/alat
        k(    1) = (   0.0000000   0.0000000   0.0000000), wk =   0.0740741
        k(    2) = (   0.0000000   0.0000000   0.4670058), wk =   0.1481481
        k(    3) = (   0.0000000   0.3334070   0.2440873), wk =   0.1481481
        k(    4) = (   0.0000000   0.3334070   0.7110931), wk =   0.1481481
        k(    5) = (   0.0000000   0.3334070  -0.2229184), wk =   0.1481481
        k(    6) = (   0.3333333   0.0070098   0.2229184), wk =   0.1481481
        k(    7) = (   0.3333333   0.0070098   0.6899242), wk =   0.1481481
        k(    8) = (   0.3333333   0.0070098  -0.2440873), wk =   0.1481481
        k(    9) = (   0.3333333   0.3404168   0.4670058), wk =   0.1481481
        k(   10) = (   0.3333333   0.3404168   0.9340115), wk =   0.1481481
        k(   11) = (   0.3333333   0.3404168   0.0000000), wk =   0.1481481
        k(   12) = (   0.3333333  -0.3263972  -0.0211689), wk =   0.1481481
        k(   13) = (   0.3333333  -0.3263972   0.4458369), wk =   0.1481481
        k(   14) = (   0.3333333  -0.3263972  -0.4881746), wk =   0.1481481

                       cryst. coord.
        k(    1) = (   0.0000000   0.0000000   0.0000000), wk =   0.0740741
        k(    2) = (   0.0000000   0.0000000   0.3333333), wk =   0.1481481
        k(    3) = (   0.0000000   0.3333333   0.0000000), wk =   0.1481481
        k(    4) = (   0.0000000   0.3333333   0.3333333), wk =   0.1481481
        k(    5) = (   0.0000000   0.3333333  -0.3333333), wk =   0.1481481
        k(    6) = (   0.3333333   0.0000000   0.0000000), wk =   0.1481481
        k(    7) = (   0.3333333   0.0000000   0.3333333), wk =   0.1481481
        k(    8) = (   0.3333333   0.0000000  -0.3333333), wk =   0.1481481
        k(    9) = (   0.3333333   0.3333333   0.0000000), wk =   0.1481481
        k(   10) = (   0.3333333   0.3333333   0.3333333), wk =   0.1481481
        k(   11) = (   0.3333333   0.3333333  -0.3333333), wk =   0.1481481
        k(   12) = (   0.3333333  -0.3333333  -0.0000000), wk =   0.1481481
        k(   13) = (   0.3333333  -0.3333333   0.3333333), wk =   0.1481481
        k(   14) = (   0.3333333  -0.3333333  -0.3333333), wk =   0.1481481

     Check: negative core charge=   -0.000013

     Initial potential from superposition of free atoms

     starting charge     145.9485, renormalised to     148.0000
     Starting wfcs are   96 randomized atomic wfcs +  160 random wfcs
     Checking if some PAW data can be deallocated...

     Self-consistent Calculation

     iteration #  1     ecut=    30.00 Ry     beta= 0.70
     Davidson diagonalization with overlap

     ethr =  1.00E-02,  avg # of iterations =  7.0

     total energy              =   -1238.33154251 Ry
     estimated scf accuracy    <       6.49696339 Ry

[...]

     c_bands:  1 eigenvalues not converged
     ethr =  1.85E-05,  avg # of iterations = 10.6

[...]

     total energy              =   -1241.84051079 Ry
     estimated scf accuracy    <       0.00009489 Ry

     iteration # 12     ecut=    30.00 Ry     beta= 0.70
     Davidson diagonalization with overlap

     ethr =  6.41E-08,  avg # of iterations =  1.0

     End of self-consistent calculation

          k = 0.0000 0.0000 0.0000 (  5267 PWs)   bands (ev):

   -56.1044 -56.1024 -30.3788 -30.3077 -30.2256 -30.2218 -30.1863 -30.1787
   -22.9982 -22.9703 -22.9576 -22.8901 -22.7738 -22.7716 -22.7565 -22.7402
   -22.7393 -22.7289 -18.9050 -18.8919 -12.9911 -12.0851 -11.7618 -11.5603
   -11.1829 -11.1111 -11.0786 -11.0553 -11.0522 -10.9378 -10.9042 -10.5392
    -3.5037  -3.0526  -3.0501  -3.0221  -2.9779  -2.9468  -2.9365  -1.7366
    -0.0623   0.2749   0.8487   0.8948   1.2872   1.5558   1.6834   1.8146
     1.8297   1.8338   1.8453   2.0623   2.5223   2.8669   2.9461   3.1274
     3.1443   3.5948   3.9969   4.0501   4.2247   4.2638   4.5109   4.5354
     4.5462   4.6498   4.6530   4.6835   4.7112   4.8380   4.8503   4.8571
     5.0408   5.2217   7.8422   8.4895   8.4897   8.5747   8.6303   8.9273
     9.3601  10.4290  11.0027  12.4310  12.8859  13.2626  13.4558  13.5165
    13.6714  13.8968  13.9064  13.9595  14.2430  14.3646  14.5443  14.6451
    15.0954  15.8225  15.9217  16.0364  16.0548  16.3091  16.5368  16.8914
    17.1745  17.1887  17.4982  17.7125  18.7987  18.9994  19.2229  19.5953
    19.6929  19.9380  20.1485  20.2442  20.9744  20.9846  21.1561  21.1775
    21.4003  21.4645  22.0010  22.3239  22.4039  22.4260  22.4267  22.4399
    22.8995  22.9666  22.9674  23.4749  23.9262  24.0132  24.1238  24.2822
    24.4287  24.4823  24.7775  25.0661  25.1890  25.2477  25.6296  26.5412
    26.5486  26.5884  26.6808  26.8649  27.3233  27.3488  27.5723  27.6898
    28.2429  28.5182  28.6474  28.8454  29.1974  29.3037  29.3474  29.7361
    29.9847  30.0211  30.4128  30.5488  30.7372  30.9919  31.2225  31.3656
    31.4720  31.7811  31.8288  31.9865  32.2413  32.7491  32.7612  32.8155
    32.8683  33.0081  33.0115  33.2413  33.3328  33.5469  33.5512  33.7237
    33.9036  34.1164  34.2096  34.3852  34.5093  34.7300  35.1554  35.2736
    35.2965  35.4138  35.7351  35.9882  36.1024  36.5703  36.9811  36.9979
    37.1708  37.4754  37.4959  37.5005  37.7968  37.9065  37.9633  38.0222
    38.1110  38.3322  38.3932  38.4059  38.4855  38.5659  38.7149  39.0750
    39.1232  39.7557  39.8156  39.8863  40.0921  40.1339  40.1577  40.4634
    40.4742  40.4958  40.9168  41.0350  41.1528  41.1825  41.2681  41.5128
    41.5393  41.6944  41.7331  41.9587  42.3421  42.3720  42.4963  42.5099
    42.7185  42.8018  43.0591  43.1929  43.2074  43.5397  43.7996  43.8013
    43.9314  43.9592  44.0642  44.3590  44.4451  44.4754  44.5478  44.7242

     occupation numbers
     1.0000   1.0000   1.0000   1.0000   1.0000   1.0000   1.0000   1.0000
     1.0000   1.0000   1.0000   1.0000   1.0000   1.0000   1.0000   1.0000
     1.0000   1.0000   1.0000   1.0000   1.0000   1.0000   1.0000   1.0000
     1.0000   1.0000   1.0000   1.0000   1.0000   1.0000   1.0000   1.0000
     1.0000   1.0000   1.0000   1.0000   1.0000   1.0000   1.0000   1.0000
     1.0000   1.0000   1.0000   1.0000   1.0000   1.0000   1.0000   1.0000
     1.0000   1.0000   1.0000   1.0000   1.0000   1.0000   1.0000   1.0000
     1.0000   1.0000   1.0000   1.0000   1.0000   1.0000   1.0000   1.0000
     1.0000   1.0000   1.0000   1.0000   1.0000   1.0000   1.0000   1.0000
     1.0000   1.0000   0.0000   0.0000   0.0000   0.0000   0.0000   0.0000
     0.0000   0.0000   0.0000   0.0000   0.0000   0.0000   0.0000   0.0000
     0.0000   0.0000   0.0000   0.0000   0.0000   0.0000   0.0000   0.0000
     0.0000   0.0000   0.0000   0.0000   0.0000   0.0000   0.0000   0.0000
     0.0000   0.0000   0.0000   0.0000   0.0000   0.0000   0.0000   0.0000
     0.0000   0.0000   0.0000   0.0000   0.0000   0.0000   0.0000   0.0000
     0.0000   0.0000   0.0000   0.0000   0.0000   0.0000   0.0000   0.0000
     0.0000   0.0000   0.0000   0.0000   0.0000   0.0000   0.0000   0.0000
     0.0000   0.0000   0.0000   0.0000   0.0000   0.0000   0.0000   0.0000
     0.0000   0.0000   0.0000   0.0000   0.0000   0.0000   0.0000   0.0000
     0.0000   0.0000   0.0000   0.0000   0.0000   0.0000   0.0000   0.0000
     0.0000   0.0000   0.0000   0.0000   0.0000   0.0000   0.0000   0.0000
     0.0000   0.0000   0.0000   0.0000   0.0000   0.0000   0.0000   0.0000
     0.0000   0.0000   0.0000   0.0000   0.0000   0.0000   0.0000   0.0000
     0.0000   0.0000   0.0000   0.0000   0.0000   0.0000   0.0000   0.0000
     0.0000   0.0000   0.0000   0.0000   0.0000   0.0000   0.0000   0.0000
     0.0000   0.0000   0.0000   0.0000   0.0000   0.0000   0.0000   0.0000
     0.0000   0.0000   0.0000   0.0000   0.0000   0.0000   0.0000   0.0000
     0.0000   0.0000   0.0000   0.0000   0.0000   0.0000   0.0000   0.0000
     0.0000   0.0000   0.0000   0.0000   0.0000   0.0000   0.0000   0.0000
     0.0000   0.0000   0.0000   0.0000   0.0000   0.0000   0.0000   0.0000
     0.0000   0.0000   0.0000   0.0000   0.0000   0.0000   0.0000   0.0000
     0.0000   0.0000   0.0000   0.0000   0.0000   0.0000   0.0000   0.0000

[...]

          k = 0.3333-0.3264-0.4882 (  5332 PWs)   bands (ev):

   -56.1046 -56.1026 -30.3791 -30.3078 -30.2258 -30.2221 -30.1867 -30.1790
   -22.9744 -22.9744 -22.9671 -22.9233 -22.7770 -22.7753 -22.7571 -22.7512
   -22.7393 -22.7343 -18.9010 -18.8955 -12.6239 -12.3644 -11.8528 -11.6794
   -11.5066 -11.4780 -11.4135 -10.9773 -10.9310 -10.4843 -10.4623 -10.4509
    -3.0521  -3.0435  -3.0198  -3.0066  -2.9500  -2.9356  -2.7723  -1.8103
    -0.1891  -0.0757   0.1390   0.3693   0.3711   1.2364   1.4087   1.6024
     1.7118   2.1408   2.6998   2.8433   2.9740   3.1564   3.2319   3.4142
     3.4913   3.5737   3.5812   3.7862   3.9204   4.0237   4.1569   4.1954
     4.3844   4.4667   4.6003   4.8961   4.8980   4.9745   5.0877   5.2011
     5.4080   5.5324   7.9117   8.2632   8.3378   8.3490   8.6110   8.8737
     9.9223  10.7204  11.1670  11.9318  12.6806  12.9699  13.0546  13.1042
    13.1839  13.8923  14.1380  14.2355  14.7621  14.8039  15.1385  15.2424
    15.4406  15.4742  15.5778  15.8198  15.9926  16.0112  16.6043  16.7365
    16.7703  17.1717  17.3076  17.9472  17.9665  18.8901  18.9971  19.3806
    19.4179  20.0414  20.2854  20.3947  20.5825  20.7474  21.0292  21.3926
    21.4879  21.5870  21.7751  22.0721  22.2020  22.2894  22.5589  22.8483
    23.3021  23.3130  23.3553  23.6602  23.6696  23.8939  24.1502  24.3301
    24.3982  24.6697  24.9481  25.0837  25.2363  25.4960  25.7555  26.0155
    26.2084  26.7497  26.8340  27.2308  27.4807  27.6226  27.9490  28.1190
    28.2731  28.6806  28.8903  29.0325  29.3045  29.4358  29.4933  29.6074
    30.0240  30.1455  30.4651  30.4851  30.5825  30.7275  30.8604  31.2371
    31.3232  31.5797  31.6698  31.7690  32.3207  32.6599  32.7770  32.8012
    32.8934  32.9538  33.0891  33.1889  33.8324  33.9134  34.0183  34.2091
    34.3616  34.4894  34.6181  34.7071  34.7195  35.0186  35.0504  35.3472
    35.3947  35.5246  35.8549  35.9249  36.0466  36.2094  36.2414  36.3803
    36.3895  36.8492  37.2078  37.2641  37.3182  37.4792  37.5745  37.6259
    37.9680  38.2175  38.2759  38.4128  38.4165  38.4719  38.6774  38.8821
    38.9539  39.2661  39.6007  39.8045  39.9248  40.1055  40.2448  40.3527
    40.4729  40.4977  40.6601  40.7209  40.7930  41.1262  41.2249  41.2877
    41.5095  41.6387  41.7259  41.8353  42.0067  42.2839  42.5079  42.6145
    42.6349  42.8061  43.0405  43.0953  43.1478  43.3841  43.4647  43.6917
    43.7597  43.8664  44.0590  44.1121  44.1697  44.4222  44.4452  44.5473

     occupation numbers
     1.0000   1.0000   1.0000   1.0000   1.0000   1.0000   1.0000   1.0000
     1.0000   1.0000   1.0000   1.0000   1.0000   1.0000   1.0000   1.0000
     1.0000   1.0000   1.0000   1.0000   1.0000   1.0000   1.0000   1.0000
     1.0000   1.0000   1.0000   1.0000   1.0000   1.0000   1.0000   1.0000
     1.0000   1.0000   1.0000   1.0000   1.0000   1.0000   1.0000   1.0000
     1.0000   1.0000   1.0000   1.0000   1.0000   1.0000   1.0000   1.0000
     1.0000   1.0000   1.0000   1.0000   1.0000   1.0000   1.0000   1.0000
     1.0000   1.0000   1.0000   1.0000   1.0000   1.0000   1.0000   1.0000
     1.0000   1.0000   1.0000   1.0000   1.0000   1.0000   1.0000   1.0000
     1.0000   1.0000   0.0000   0.0000   0.0000   0.0000   0.0000   0.0000
     0.0000   0.0000   0.0000   0.0000   0.0000   0.0000   0.0000   0.0000
     0.0000   0.0000   0.0000   0.0000   0.0000   0.0000   0.0000   0.0000
     0.0000   0.0000   0.0000   0.0000   0.0000   0.0000   0.0000   0.0000
     0.0000   0.0000   0.0000   0.0000   0.0000   0.0000   0.0000   0.0000
     0.0000   0.0000   0.0000   0.0000   0.0000   0.0000   0.0000   0.0000
     0.0000   0.0000   0.0000   0.0000   0.0000   0.0000   0.0000   0.0000
     0.0000   0.0000   0.0000   0.0000   0.0000   0.0000   0.0000   0.0000
     0.0000   0.0000   0.0000   0.0000   0.0000   0.0000   0.0000   0.0000
     0.0000   0.0000   0.0000   0.0000   0.0000   0.0000   0.0000   0.0000
     0.0000   0.0000   0.0000   0.0000   0.0000   0.0000   0.0000   0.0000
     0.0000   0.0000   0.0000   0.0000   0.0000   0.0000   0.0000   0.0000
     0.0000   0.0000   0.0000   0.0000   0.0000   0.0000   0.0000   0.0000
     0.0000   0.0000   0.0000   0.0000   0.0000   0.0000   0.0000   0.0000
     0.0000   0.0000   0.0000   0.0000   0.0000   0.0000   0.0000   0.0000
     0.0000   0.0000   0.0000   0.0000   0.0000   0.0000   0.0000   0.0000
     0.0000   0.0000   0.0000   0.0000   0.0000   0.0000   0.0000   0.0000
     0.0000   0.0000   0.0000   0.0000   0.0000   0.0000   0.0000   0.0000
     0.0000   0.0000   0.0000   0.0000   0.0000   0.0000   0.0000   0.0000
     0.0000   0.0000   0.0000   0.0000   0.0000   0.0000   0.0000   0.0000
     0.0000   0.0000   0.0000   0.0000   0.0000   0.0000   0.0000   0.0000
     0.0000   0.0000   0.0000   0.0000   0.0000   0.0000   0.0000   0.0000
     0.0000   0.0000   0.0000   0.0000   0.0000   0.0000   0.0000   0.0000

     highest occupied, lowest unoccupied level (ev):     5.5324    7.8363

!    total energy              =   -1241.84052604 Ry
     estimated scf accuracy    <       0.00000058 Ry

     The total energy is the sum of the following terms:
     one-electron contribution =    -700.32299184 Ry
     hartree contribution      =     420.81793994 Ry
     xc contribution           =    -223.47026536 Ry
     ewald contribution        =    -624.54713219 Ry
     one-center paw contrib.   =    -114.31807658 Ry
      -> PAW hartree energy AE =       0.00000000 Ry
      -> PAW hartree energy PS =       0.00000000 Ry
      -> PAW xc energy AE      =       0.00000000 Ry
      -> PAW xc energy PS      =       0.00000000 Ry
      -> total E_H with PAW    =     420.81793994 Ry
      -> total E_XC with PAW   =    -223.47026536 Ry

     convergence has been achieved in  12 iterations

     Writing all to output data dir bands_nm/myprefix.save/

     General routines

     Parallel routines

     PAW routines

   This run was terminated on:  21:46:56  15Jul2023

   JOB DONE.