     Program PWSCF v.7.1 starts on 13Jul2023 at  8:58:44

     Reading input from espresso_25619.pwi
Warning: card &CELL ignored
Warning: card / ignored

     Current dimensions of program PWSCF are:
     Max number of different atomic species (ntypx) = 10
     Max number of k-points (npk) =  40000
     Max angular momentum in pseudopotentials (lmaxx) =  4
     Message from routine setup:
     using ibrav=0 with symmetry is DISCOURAGED, use correct ibrav instead

     K-points division:     npool     =       2
     R & G space division:  proc/nbgrp/npool/nimage =       8
     Subspace diagonalization in iterative solution of the eigenvalue problem:
     a serial algorithm will be used

     Using Slab Decomposition

     bravais-lattice index     =            0
     lattice parameter (alat)  =      15.5092  a.u.
     unit-cell volume          =    2063.0566 (a.u.)^3
     number of atoms/cell      =           10
     number of atomic types    =            3
     number of electrons       =        90.00
     number of Kohn-Sham states=           64
     kinetic-energy cutoff     =      30.0000  Ry
     charge density cutoff     =     240.0000  Ry
     scf convergence threshold =      1.0E-06
     mixing beta               =       0.7000
     number of iterations used =            8  plain     mixing
     Exchange-correlation=  SLA  PW   PBX  PBC
                           (   1   4   3   4   0   0   0)

     celldm(1)=  15.509183  celldm(2)=   0.000000  celldm(3)=   0.000000
     celldm(4)=   0.000000  celldm(5)=   0.000000  celldm(6)=   0.000000

     crystal axes: (cart. coord. in units of alat)
               a(1) = (   1.000000   0.000000   0.000000 )
               a(2) = (   0.313690   0.949525   0.000000 )
               a(3) = (  -0.620076  -0.525633   0.582422 )

     reciprocal axes: (cart. coord. in units 2 pi/alat)
               b(1) = (  1.000000 -0.330365  0.766499 )
               b(2) = (  0.000000  1.053158  0.950469 )
               b(3) = (  0.000000  0.000000  1.716968 )

     PseudoPot. # 1 for Rb read from file:
     /lustre07/scratch/pragov/crystal_structure_design/utils/SSSP/Rb_ONCV_PBE-1.0.oncvpsp.upf
     MD5 check sum: 55a5172d6bfbce6759a58e35d43f6aa9
     Pseudo is Norm-conserving, Zval =  9.0
     Generated using ONCVPSP code by D. R. Hamann
     Using radial grid of 2308 points,  6 beta functions with:
                l(1) =   0
                l(2) =   0
                l(3) =   1
                l(4) =   1
                l(5) =   2
                l(6) =   2

     PseudoPot. # 2 for Mn read from file:
     /lustre07/scratch/pragov/crystal_structure_design/utils/SSSP/mn_pbe_v1.5.uspp.F.UPF
     MD5 check sum: 82ef2b46521d7a7d9e736dc3972e4928
     Pseudo is Ultrasoft + core correction, Zval = 15.0
     Generated by new atomic code, or converted to UPF format
     Using radial grid of  859 points,  6 beta functions with:
                l(1) =   0
                l(2) =   0
                l(3) =   1
                l(4) =   1
                l(5) =   2
                l(6) =   2
     Q(r) pseudized with  8 coefficients,  rinner =    0.950   0.950   0.950
                                                       0.950   0.950

     PseudoPot. # 3 for S  read from file:
     /lustre07/scratch/pragov/crystal_structure_design/utils/SSSP/s_pbe_v1.4.uspp.F.UPF
     MD5 check sum: 88d86576ff6df21479756cfb9bdac1df
     Pseudo is Ultrasoft + core correction, Zval =  6.0
     Generated by new atomic code, or converted to UPF format
     Using radial grid of  907 points,  6 beta functions with:
                l(1) =   0
                l(2) =   0
                l(3) =   1
                l(4) =   1
                l(5) =   2
                l(6) =   2
     Q(r) pseudized with  8 coefficients,  rinner =    1.300   1.300   1.300
                                                       1.300   1.300

     atomic species   valence    mass     pseudopotential
        Rb             9.00    85.46780     Rb( 1.00)
        Mn            15.00    54.93804     Mn( 1.00)
        S              6.00    32.06000     S ( 1.00)

      2 Sym. Ops., with inversion, found

                                    s                        frac. trans.

      isym =  1     identity

 cryst.   s( 1) = (     1          0          0      )
                  (     0          1          0      )
                  (     0          0          1      )

 cart.    s( 1) = (  1.0000000  0.0000000  0.0000000 )
                  (  0.0000000  1.0000000 -0.0000000 )
                  (  0.0000000  0.0000000  1.0000000 )

      isym =  2     inversion

 cryst.   s( 2) = (    -1          0          0      )
                  (     0         -1          0      )
                  (     0          0         -1      )

 cart.    s( 2) = ( -1.0000000 -0.0000000  0.0000000 )
                  (  0.0000000 -1.0000000  0.0000000 )
                  (  0.0000000  0.0000000 -1.0000000 )

   Cartesian axes

     site n.     atom                  positions (alat units)
         1           Rb  tau(   1) = (   0.9121093   0.5301530   0.0939697  )
         2           Rb  tau(   2) = (  -0.2184958  -0.1062604   0.4884523  )
         3           Rb  tau(   3) = (   0.3709824   0.4617044   0.3851807  )
         4           Rb  tau(   4) = (   0.3226311  -0.0378118   0.1972413  )
         5           Mn  tau(   5) = (  -0.0765966   0.1059732   0.1456055  )
         6           Mn  tau(   6) = (  -0.2297899   0.3179195   0.4368165  )
         7           S   tau(   7) = (   0.6480122   0.2144043   0.1848450  )
         8           S   tau(   8) = (   0.0456013   0.2094884   0.3975770  )
         9           S   tau(   9) = (   0.4399496  -0.3361013   0.4760560  )
        10           S   tau(  10) = (   0.2536639   0.7599939   0.1063660  )

   Crystallographic axes

     site n.     atom                  positions (cryst. coord.)
         1           Rb  tau(   1) = (  0.8089930  0.6476500  0.1613430  )
         2           Rb  tau(   2) = (  0.1910070  0.3523500  0.8386570  )
         3           Rb  tau(   3) = (  0.5136920  0.8523500  0.6613430  )
         4           Rb  tau(   4) = (  0.4863080  0.1476500  0.3386570  )
         5           Mn  tau(   5) = ( -0.0000000  0.2500000  0.2500000  )
         6           Mn  tau(   6) = (  0.0000000  0.7500000  0.7500000  )
         7           S   tau(   7) = (  0.7188640  0.4014910  0.3173730  )
         8           S   tau(   8) = (  0.2811360  0.5985090  0.6826270  )
         9           S   tau(   9) = (  0.9158820  0.0985090  0.8173730  )
        10           S   tau(  10) = (  0.0841180  0.9014910  0.1826270  )

     number of k points=    14
                       cart. coord. in units 2pi/alat
        k(    1) = (   0.0000000   0.0000000   0.0000000), wk =   0.0740741
        k(    2) = (   0.0000000   0.0000000   0.5723227), wk =   0.1481481
        k(    3) = (   0.0000000   0.3510525   0.3168231), wk =   0.1481481
        k(    4) = (   0.0000000   0.3510525   0.8891458), wk =   0.1481481
        k(    5) = (   0.0000000   0.3510525  -0.2554996), wk =   0.1481481
        k(    6) = (   0.3333333  -0.1101216   0.2554996), wk =   0.1481481
        k(    7) = (   0.3333333  -0.1101216   0.8278223), wk =   0.1481481
        k(    8) = (   0.3333333  -0.1101216  -0.3168231), wk =   0.1481481
        k(    9) = (   0.3333333   0.2409309   0.5723227), wk =   0.1481481
        k(   10) = (   0.3333333   0.2409309   1.1446455), wk =   0.1481481
        k(   11) = (   0.3333333   0.2409309  -0.0000000), wk =   0.1481481
        k(   12) = (   0.3333333  -0.4611742  -0.0613235), wk =   0.1481481
        k(   13) = (   0.3333333  -0.4611742   0.5109992), wk =   0.1481481
        k(   14) = (   0.3333333  -0.4611742  -0.6336462), wk =   0.1481481

                       cryst. coord.
        k(    1) = (   0.0000000   0.0000000   0.0000000), wk =   0.0740741
        k(    2) = (   0.0000000   0.0000000   0.3333333), wk =   0.1481481
        k(    3) = (   0.0000000   0.3333333  -0.0000000), wk =   0.1481481
        k(    4) = (   0.0000000   0.3333333   0.3333333), wk =   0.1481481
        k(    5) = (   0.0000000   0.3333333  -0.3333333), wk =   0.1481481
        k(    6) = (   0.3333333  -0.0000000   0.0000000), wk =   0.1481481
        k(    7) = (   0.3333333  -0.0000000   0.3333333), wk =   0.1481481
        k(    8) = (   0.3333333  -0.0000000  -0.3333333), wk =   0.1481481
        k(    9) = (   0.3333333   0.3333333  -0.0000000), wk =   0.1481481
        k(   10) = (   0.3333333   0.3333333   0.3333333), wk =   0.1481481
        k(   11) = (   0.3333333   0.3333333  -0.3333333), wk =   0.1481481
        k(   12) = (   0.3333333  -0.3333333   0.0000000), wk =   0.1481481
        k(   13) = (   0.3333333  -0.3333333   0.3333333), wk =   0.1481481
        k(   14) = (   0.3333333  -0.3333333  -0.3333333), wk =   0.1481481

     Check: negative core charge=   -0.000008

     Initial potential from superposition of free atoms

     starting charge      88.9006, renormalised to      90.0000
     Starting wfcs are   62 randomized atomic wfcs +    2 random wfcs

     Self-consistent Calculation

     iteration #  1     ecut=    30.00 Ry     beta= 0.70
     Davidson diagonalization with overlap

     ethr =  1.00E-02,  avg # of iterations =  5.8

     Threshold (ethr) on eigenvalues was too large:
     Diagonalizing with lowered threshold

     Davidson diagonalization with overlap

[...]

     total energy              =    -714.46380563 Ry
     estimated scf accuracy    <       0.94423108 Ry

[...]

     total energy              =    -714.85933884 Ry
     estimated scf accuracy    <       0.00001075 Ry

     iteration # 12     ecut=    30.00 Ry     beta= 0.70
     Davidson diagonalization with overlap

     ethr =  5.84E-09,  avg # of iterations =  1.0

     End of self-consistent calculation

          k = 0.0000 0.0000 0.0000 (  5725 PWs)   bands (ev):

   -73.1817 -73.1800 -41.9435 -41.9400 -41.9362 -41.9201 -41.9172 -41.9099
   -21.9498 -21.9295 -21.9097 -21.9061  -6.9624  -6.7666  -6.7413  -6.5287
    -6.2920  -6.2145  -6.1944  -6.1854  -6.0385  -6.0333  -6.0098  -5.9459
    -5.9170  -5.9137  -5.7894  -5.6550   1.3427   1.7401   2.3277   2.6891
     2.7075   2.7538   2.7543   2.7949   2.8597   2.9338   3.1884   3.6630
     5.1853   5.2908   5.3095   5.8734   5.8797   6.0785   6.2114   6.4727
     6.5842   6.6747   6.8241   8.8880   8.9034   9.3294   9.4827   9.8324
     9.9809  10.0428  10.1992  10.4649  10.7742  10.8267  11.1996  11.4281

     occupation numbers
     1.0000   1.0000   1.0000   1.0000   1.0000   1.0000   1.0000   1.0000
     1.0000   1.0000   1.0000   1.0000   1.0000   1.0000   1.0000   1.0000
     1.0000   1.0000   1.0000   1.0000   1.0000   1.0000   1.0000   1.0000
     1.0000   1.0000   1.0000   1.0000   1.0000   1.0000   1.0000   1.0000
     1.0000   1.0000   1.0000   1.0000   1.0000   1.0000   1.0000   1.0000
     1.0000   1.0000   1.0000   1.0000   1.0000   0.0000   0.0000   0.0000
     0.0000   0.0000   0.0000   0.0000   0.0000   0.0000   0.0000   0.0000
     0.0000   0.0000   0.0000   0.0000   0.0000   0.0000   0.0000   0.0000

[...]

          k = 0.3333-0.4612-0.6336 (  5704 PWs)   bands (ev):

   -73.1810 -73.1804 -41.9383 -41.9378 -41.9308 -41.9196 -41.9182 -41.9159
   -21.9354 -21.9278 -21.9181 -21.9136  -7.1090  -6.7993  -6.7726  -6.7388
    -6.2442  -6.0853  -6.0766  -6.0571  -6.0154  -5.9762  -5.9545  -5.9482
    -5.9439  -5.9314  -5.7624  -5.6818   1.5537   1.7505   2.3054   2.3598
     2.5437   2.6110   2.7699   2.7705   2.8260   3.1075   3.1919   3.4743
     5.2025   5.2554   5.6379   5.8981   5.9004   5.9242   6.3174   6.4232
     6.4691   6.4755   8.5652   8.6363   8.6979   8.9059   9.1676   9.2394
     9.4941   9.5922  10.0044  10.6722  10.7912  11.1470  11.2821  11.3792

     occupation numbers
     1.0000   1.0000   1.0000   1.0000   1.0000   1.0000   1.0000   1.0000
     1.0000   1.0000   1.0000   1.0000   1.0000   1.0000   1.0000   1.0000
     1.0000   1.0000   1.0000   1.0000   1.0000   1.0000   1.0000   1.0000
     1.0000   1.0000   1.0000   1.0000   1.0000   1.0000   1.0000   1.0000
     1.0000   1.0000   1.0000   1.0000   1.0000   1.0000   1.0000   1.0000
     1.0000   1.0000   1.0000   1.0000   1.0000   0.0000   0.0000   0.0000
     0.0000   0.0000   0.0000   0.0000   0.0000   0.0000   0.0000   0.0000
     0.0000   0.0000   0.0000   0.0000   0.0000   0.0000   0.0000   0.0000

     highest occupied, lowest unoccupied level (ev):     5.9352    5.9242

!    total energy              =    -714.85934014 Ry
     estimated scf accuracy    <       0.00000031 Ry

     The total energy is the sum of the following terms:
     one-electron contribution =    -514.21824421 Ry
     hartree contribution      =     280.83106645 Ry
     xc contribution           =    -116.45497888 Ry
     ewald contribution        =    -365.01718351 Ry

     convergence has been achieved in  12 iterations

     Writing all to output data dir bands_nm/myprefix.save/

     General routines

     Parallel routines

   This run was terminated on:   8:59:23  13Jul2023

   JOB DONE.