     Program PWSCF v.7.1 starts on 15Jul2023 at 19: 3:43

     Reading input from espresso_2649.pwi
Warning: card &CELL ignored
Warning: card / ignored

     Current dimensions of program PWSCF are:
     Max number of different atomic species (ntypx) = 10
     Max number of k-points (npk) =  40000
     Max angular momentum in pseudopotentials (lmaxx) =  4
     file O.pbe-n-kjpaw_psl.0.1.UPF: wavefunction(s)  2P renormalized
     Message from routine setup:
     using ibrav=0 with symmetry is DISCOURAGED, use correct ibrav instead

     K-points division:     npool     =       2
     R & G space division:  proc/nbgrp/npool/nimage =       4
     Subspace diagonalization in iterative solution of the eigenvalue problem:
     one sub-group per band group will be used

     Using Slab Decomposition

     bravais-lattice index     =            0
     lattice parameter (alat)  =      15.9787  a.u.
     unit-cell volume          =    1715.3891 (a.u.)^3
     number of atoms/cell      =           16
     number of atomic types    =            3
     number of electrons       =       144.00
     number of Kohn-Sham states=          256
     kinetic-energy cutoff     =      30.0000  Ry
     charge density cutoff     =     240.0000  Ry
     scf convergence threshold =      1.0E-06
     mixing beta               =       0.7000
     number of iterations used =            8  plain     mixing
     Exchange-correlation= SLA  PW   PBX  PBC
                           (   1   4   3   4   0   0   0)

     celldm(1)=  15.978697  celldm(2)=   0.000000  celldm(3)=   0.000000
     celldm(4)=   0.000000  celldm(5)=   0.000000  celldm(6)=   0.000000

     crystal axes: (cart. coord. in units of alat)
               a(1) = (   1.000000   0.000000   0.000000 )
               a(2) = (  -0.773660   0.633601   0.000000 )
               a(3) = (   0.000000   0.000000   0.663625 )

     reciprocal axes: (cart. coord. in units 2 pi/alat)
               b(1) = (  1.000000  1.221051  0.000000 )
               b(2) = (  0.000000  1.578280  0.000000 )
               b(3) = (  0.000000  0.000000  1.506876 )

     PseudoPot. # 1 for Ti read from file:
     /lustre07/scratch/pragov/crystal_structure_design/utils/SSSP/ti_pbe_v1.4.uspp.F.UPF
     MD5 check sum: 88a00a6731bd790ddea75d31a80cb452
     Pseudo is Ultrasoft + core correction, Zval = 12.0
     Generated by new atomic code, or converted to UPF format
     Using radial grid of  851 points,  6 beta functions with:
                l(1) =   0
                l(2) =   0
                l(3) =   1
                l(4) =   1
                l(5) =   2
                l(6) =   2
     Q(r) pseudized with  6 coefficients,  rinner =    1.000   1.000   1.000
                                                       1.000   1.000

     PseudoPot. # 2 for Bi read from file:
     /lustre07/scratch/pragov/crystal_structure_design/utils/SSSP/Bi_pbe_v1.uspp.F.UPF
     MD5 check sum: cceb9f28ec65b6d7ff33140f5b0b1758
     Pseudo is Ultrasoft + core correction, Zval = 15.0
     Generated by new atomic code, or converted to UPF format
     Using radial grid of  899 points,  6 beta functions with:
                l(1) =   0
                l(2) =   0
                l(3) =   1
                l(4) =   1
                l(5) =   2
                l(6) =   2
     Q(r) pseudized with  6 coefficients,  rinner =    1.000   1.000   1.000
                                                       1.000   1.000

     PseudoPot. # 3 for O  read from file:
     /lustre07/scratch/pragov/crystal_structure_design/utils/SSSP/O.pbe-n-kjpaw_psl.0.1.UPF
     MD5 check sum: 0234752ac141de4415c5fc33072bef88
     Pseudo is Projector augmented-wave + core cor, Zval =  6.0
     Generated using "atomic" code by A. Dal Corso  v.5.0.99 svn rev. 10869
     Shape of augmentation charge: BESSEL
     Using radial grid of 1095 points,  4 beta functions with:
                l(1) =   0
                l(2) =   0
                l(3) =   1
                l(4) =   1
     Q(r) pseudized with 0 coefficients

     atomic species   valence    mass     pseudopotential
        Ti            12.00    47.86700     Ti( 1.00)
        Bi            15.00   208.98040     Bi( 1.00)
        O              6.00    15.99900     O ( 1.00)

      2 Sym. Ops. (no inversion) found ( 1 have fractional translation)

                                    s                        frac. trans.

      isym =  1     identity

 cryst.   s( 1) = (     1          0          0      )
                  (     0          1          0      )
                  (     0          0          1      )

 cart.    s( 1) = (  1.0000000  0.0000000  0.0000000 )
                  (  0.0000000  1.0000000  0.0000000 )
                  (  0.0000000  0.0000000  1.0000000 )

      isym =  2     180 deg rotation - cart. axis [0,0,1]

 cryst.   s( 2) = (    -1          0          0      )    f =(  0.0000000 )
                  (     0         -1          0      )       (  0.0000000 )
                  (     0          0          1      )       (  0.5000000 )

 cart.    s( 2) = ( -1.0000000  0.0000000  0.0000000 )    f =(  0.0000000 )
                  (  0.0000000 -1.0000000  0.0000000 )       (  0.0000000 )
                  (  0.0000000  0.0000000  1.0000000 )       (  0.3318124 )

   Cartesian axes

     site n.     atom                  positions (alat units)
         1           Ti  tau(   1) = (   0.0431060   0.1206681   0.5136933  )
         2           Ti  tau(   2) = (   0.1832342   0.5129332   0.1818810  )
         3           Bi  tau(   3) = (  -0.1429867   0.5557323   0.4825686  )
         4           Bi  tau(   4) = (  -0.2363956   0.2942501   0.1507563  )
         5           Bi  tau(   5) = (   0.4627358   0.3393511   0.4825686  )
         6           Bi  tau(   6) = (   0.3693270   0.0778690   0.1507563  )
         7           O   tau(   7) = (  -0.0896678   0.2818905   0.5605552  )
         8           O   tau(   8) = (  -0.0216383   0.4723276   0.2287428  )
         9           O   tau(   9) = (  -0.3295070   0.4878787   0.0048710  )
        10           O   tau(  10) = (  -0.3377066   0.4649252   0.3366834  )
        11           O   tau(  11) = (   0.5558472   0.1457226   0.3366834  )
        12           O   tau(  12) = (   0.5640468   0.1686761   0.0048710  )
        13           O   tau(  13) = (   0.2479785   0.1612737   0.5605552  )
        14           O   tau(  14) = (   0.3160080   0.3517108   0.2287428  )
        15           O   tau(  15) = (   0.2080750   0.5824709   0.6362714  )
        16           O   tau(  16) = (   0.0182652   0.0511304   0.3044591  )

   Crystallographic axes

     site n.     atom                  positions (cryst. coord.)
         1           Ti  tau(   1) = (  0.1904480  0.1904480  0.7740720  )
         2           Ti  tau(   2) = (  0.8095520  0.8095520  0.2740720  )
         3           Bi  tau(   3) = (  0.5355910  0.8771010  0.7271710  )
         4           Bi  tau(   4) = (  0.1228990  0.4644090  0.2271710  )
         5           Bi  tau(   5) = (  0.8771010  0.5355910  0.7271710  )
         6           Bi  tau(   6) = (  0.4644090  0.1228990  0.2271710  )
         7           O   tau(   7) = (  0.2545350  0.4449020  0.8446870  )
         8           O   tau(   8) = (  0.5550980  0.7454650  0.3446870  )
         9           O   tau(   9) = (  0.2662180  0.7700090  0.0073400  )
        10           O   tau(  10) = (  0.2299910  0.7337820  0.5073400  )
        11           O   tau(  11) = (  0.7337820  0.2299910  0.5073400  )
        12           O   tau(  12) = (  0.7700090  0.2662180  0.0073400  )
        13           O   tau(  13) = (  0.4449020  0.2545350  0.8446870  )
        14           O   tau(  14) = (  0.7454650  0.5550980  0.3446870  )
        15           O   tau(  15) = (  0.9193020  0.9193020  0.9587820  )
        16           O   tau(  16) = (  0.0806980  0.0806980  0.4587820  )

     number of k points=    10
                       cart. coord. in units 2pi/alat
        k(    1) = (   0.0000000   0.0000000   0.0000000), wk =   0.0740741
        k(    2) = (   0.0000000   0.0000000   0.5022919), wk =   0.1481481
        k(    3) = (   0.0000000   0.5260932   0.0000000), wk =   0.1481481
        k(    4) = (   0.0000000   0.5260932   0.5022919), wk =   0.2962963
        k(    5) = (   0.3333333   0.4070171   0.0000000), wk =   0.1481481
        k(    6) = (   0.3333333   0.4070171   0.5022919), wk =   0.2962963
        k(    7) = (   0.3333333   0.9331104   0.0000000), wk =   0.1481481
        k(    8) = (   0.3333333   0.9331104   0.5022919), wk =   0.2962963
        k(    9) = (   0.3333333  -0.1190761   0.0000000), wk =   0.1481481
        k(   10) = (   0.3333333  -0.1190761   0.5022919), wk =   0.2962963

                       cryst. coord.
        k(    1) = (   0.0000000   0.0000000   0.0000000), wk =   0.0740741
        k(    2) = (   0.0000000   0.0000000   0.3333333), wk =   0.1481481
        k(    3) = (   0.0000000   0.3333333   0.0000000), wk =   0.1481481
        k(    4) = (   0.0000000   0.3333333   0.3333333), wk =   0.2962963
        k(    5) = (   0.3333333   0.0000000   0.0000000), wk =   0.1481481
        k(    6) = (   0.3333333   0.0000000   0.3333333), wk =   0.2962963
        k(    7) = (   0.3333333   0.3333333   0.0000000), wk =   0.1481481
        k(    8) = (   0.3333333   0.3333333   0.3333333), wk =   0.2962963
        k(    9) = (   0.3333333  -0.3333333   0.0000000), wk =   0.1481481
        k(   10) = (   0.3333333  -0.3333333   0.3333333), wk =   0.2962963

     Check: negative core charge=   -0.000012

     Initial potential from superposition of free atoms

     starting charge     137.9997, renormalised to     144.0000

     negative rho (up, down):  1.770E-01 0.000E+00
     Starting wfcs are   96 randomized atomic wfcs +  160 random wfcs
     Checking if some PAW data can be deallocated...

     Self-consistent Calculation

     iteration #  1     ecut=    30.00 Ry     beta= 0.70
     Davidson diagonalization with overlap

     ethr =  1.00E-02,  avg # of iterations = 12.5

     negative rho (up, down):  1.593E-01 0.000E+00

     total energy              =   -1394.97161360 Ry
     estimated scf accuracy    <       3.43587100 Ry

[...]

     total energy              =   -1396.45955495 Ry
     estimated scf accuracy    <       0.00000126 Ry

     iteration # 11     ecut=    30.00 Ry     beta= 0.70
     Davidson diagonalization with overlap

     ethr =  8.77E-10,  avg # of iterations =  1.0

     negative rho (up, down):  1.650E-01 0.000E+00

     End of self-consistent calculation

          k = 0.0000 0.0000 0.0000 (  4773 PWs)   bands (ev):

   -48.3480 -48.3419 -24.8108 -24.7614 -24.7016 -24.6939 -24.6919 -24.6877
   -14.3032 -14.2935 -14.2778 -14.1160 -14.1113 -14.1041 -14.0954 -14.0944
   -14.0873 -14.0827 -14.0581 -14.0502 -14.0427 -14.0420 -14.0332 -14.0255
   -14.0139 -14.0133 -14.0074 -14.0053 -10.5771  -9.3702  -9.2619  -9.0898
    -8.9921  -8.6916  -8.5636  -8.4891  -8.4302  -8.2661  -2.0816  -1.9564
    -1.6397   0.3130   3.3548   3.4907   3.5244   3.5942   3.6392   4.0378
     4.1611   4.2758   4.4337   4.6997   4.7120   4.9788   5.0988   5.3161
     5.5612   5.6841   5.7775   5.9109   5.9533   5.9737   6.1343   6.3174
     6.4623   6.5643   6.6514   6.9228   6.9797   7.1040   7.4200   7.6377
    10.2024  10.9068  10.9130  10.9768  11.3050  11.6829  11.7684  11.9061
    12.0860  12.1789  12.5050  12.8235  13.1098  13.4412  13.6120  13.8902
    14.0693  14.1706  14.2151  14.4886  14.7504  14.9368  15.4929  17.0142
    17.3498  17.8317  18.1318  18.4597  18.9509  19.0692  19.1295  19.1314
    20.0206  20.5758  21.0125  21.2398  21.2418  21.4678  21.7210  22.4576
    22.4775  22.9193  23.0393  23.1259  23.7370  23.7846  23.8893  23.9486
    24.3703  24.4011  24.8065  25.3157  25.5109  25.6769  26.2136  26.4895
    26.6936  26.6951  27.1192  27.4695  27.6811  27.7732  27.9136  27.9372
    28.1193  28.5284  28.5393  28.7420  28.8242  29.0062  29.1347  29.2773
    29.5544  29.5864  29.6603  29.9681  29.9866  30.3124  30.4712  30.9404
    30.9449  30.9766  31.0396  31.1826  31.8799  32.0136  32.2593  32.3927
    32.5880  33.1329  33.1455  33.1837  33.1990  33.3547  33.7035  33.7646
    33.8779  33.9063  34.2904  34.5977  34.7578  34.7637  34.7921  34.8121
    34.8180  35.0096  35.2130  35.3631  35.3714  35.4136  35.8950  36.0277
    36.1251  36.2040  36.6403  36.7591  36.9490  37.2919  37.3004  37.3996
    37.5596  37.7837  37.9369  38.3360  38.4996  38.5629  38.9453  39.1092
    39.1931  39.1987  39.3802  39.4564  40.1703  40.3434  40.6327  40.6631
    40.9182  41.1020  41.2910  41.3397  41.4274  41.7881  41.7888  41.7999
    42.2799  42.4414  42.7484  42.8791  43.0250  43.1167  43.1224  43.7827
    43.8121  43.8809  44.0887  44.1245  44.1990  44.6341  44.6595  44.8005
    45.0823  45.3852  45.4442  45.4615  45.8254  45.8737  46.0474  46.0558
    46.2433  46.4799  46.5787  46.7219  46.9564  47.0428  47.0534  47.0903
    47.2637  47.8176  48.1127  48.2317  48.3504  48.5069  48.7046  48.7530

     occupation numbers
     1.0000   1.0000   1.0000   1.0000   1.0000   1.0000   1.0000   1.0000
     1.0000   1.0000   1.0000   1.0000   1.0000   1.0000   1.0000   1.0000
     1.0000   1.0000   1.0000   1.0000   1.0000   1.0000   1.0000   1.0000
     1.0000   1.0000   1.0000   1.0000   1.0000   1.0000   1.0000   1.0000
     1.0000   1.0000   1.0000   1.0000   1.0000   1.0000   1.0000   1.0000
     1.0000   1.0000   1.0000   1.0000   1.0000   1.0000   1.0000   1.0000
     1.0000   1.0000   1.0000   1.0000   1.0000   1.0000   1.0000   1.0000
     1.0000   1.0000   1.0000   1.0000   1.0000   1.0000   1.0000   1.0000
     1.0000   1.0000   1.0000   1.0000   1.0000   1.0000   1.0000   1.0000
     0.0000   0.0000   0.0000   0.0000   0.0000   0.0000   0.0000   0.0000
     0.0000   0.0000   0.0000   0.0000   0.0000   0.0000   0.0000   0.0000
     0.0000   0.0000   0.0000   0.0000   0.0000   0.0000   0.0000   0.0000
     0.0000   0.0000   0.0000   0.0000   0.0000   0.0000   0.0000   0.0000
     0.0000   0.0000   0.0000   0.0000   0.0000   0.0000   0.0000   0.0000
     0.0000   0.0000   0.0000   0.0000   0.0000   0.0000   0.0000   0.0000
     0.0000   0.0000   0.0000   0.0000   0.0000   0.0000   0.0000   0.0000
     0.0000   0.0000   0.0000   0.0000   0.0000   0.0000   0.0000   0.0000
     0.0000   0.0000   0.0000   0.0000   0.0000   0.0000   0.0000   0.0000
     0.0000   0.0000   0.0000   0.0000   0.0000   0.0000   0.0000   0.0000
     0.0000   0.0000   0.0000   0.0000   0.0000   0.0000   0.0000   0.0000
     0.0000   0.0000   0.0000   0.0000   0.0000   0.0000   0.0000   0.0000
     0.0000   0.0000   0.0000   0.0000   0.0000   0.0000   0.0000   0.0000
     0.0000   0.0000   0.0000   0.0000   0.0000   0.0000   0.0000   0.0000
     0.0000   0.0000   0.0000   0.0000   0.0000   0.0000   0.0000   0.0000
     0.0000   0.0000   0.0000   0.0000   0.0000   0.0000   0.0000   0.0000
     0.0000   0.0000   0.0000   0.0000   0.0000   0.0000   0.0000   0.0000
     0.0000   0.0000   0.0000   0.0000   0.0000   0.0000   0.0000   0.0000
     0.0000   0.0000   0.0000   0.0000   0.0000   0.0000   0.0000   0.0000
     0.0000   0.0000   0.0000   0.0000   0.0000   0.0000   0.0000   0.0000
     0.0000   0.0000   0.0000   0.0000   0.0000   0.0000   0.0000   0.0000
     0.0000   0.0000   0.0000   0.0000   0.0000   0.0000   0.0000   0.0000
     0.0000   0.0000   0.0000   0.0000   0.0000   0.0000   0.0000   0.0000

[...]

          k = 0.3333-0.1191 0.5023 (  4783 PWs)   bands (ev):

   -48.3466 -48.3434 -24.8005 -24.7763 -24.6997 -24.6958 -24.6885 -24.6869
   -14.2920 -14.2806 -14.2464 -14.1437 -14.1043 -14.1011 -14.0977 -14.0898
   -14.0825 -14.0759 -14.0689 -14.0506 -14.0502 -14.0413 -14.0377 -14.0281
   -14.0268 -14.0264 -14.0169 -14.0135 -10.2413  -9.5090  -9.3354  -9.0910
    -9.0426  -8.7434  -8.5909  -8.5111  -8.4385  -8.3558  -1.9779  -1.7451
    -1.3103  -0.2198   3.1171   3.2910   3.7304   3.7999   3.9298   3.9922
     4.1535   4.4379   4.4952   4.6628   4.6802   5.0719   5.0883   5.2898
     5.3212   5.4651   5.6422   5.7270   5.9996   6.0563   6.2157   6.3501
     6.4629   6.5088   6.7563   6.7628   7.0342   7.0455   7.3066   7.3178
    10.9525  11.0552  11.0911  11.4343  11.4721  11.7535  11.8124  12.2723
    12.2854  12.3369  12.5736  12.5992  12.9150  13.1168  13.2039  13.4604
    13.6565  13.8869  14.0548  14.2097  14.4158  14.5268  16.5582  16.9610
    17.7888  18.2262  18.2399  18.7694  19.0233  19.1253  19.5888  19.9350
    20.1269  20.5545  20.5572  21.1447  21.2239  21.4238  21.6755  22.1920
    22.1927  22.4486  22.6934  22.9581  23.1979  23.5017  23.6770  23.9625
    24.1049  24.5325  24.6302  24.9572  25.3277  25.4159  26.0435  26.1359
    26.3192  26.5358  26.9792  27.0255  27.4427  27.5281  27.9018  28.1576
    28.3327  28.3901  28.5888  28.6414  29.0665  29.0939  29.2443  29.2970
    29.6793  29.8384  29.9730  30.2955  30.5082  30.5228  30.7659  31.1062
    31.2355  31.6880  31.6944  31.7225  31.9429  32.0781  32.4030  32.5598
    32.8236  32.9665  33.2179  33.2213  33.2812  33.4113  33.6235  33.7532
    34.0889  34.2288  34.3914  34.4057  34.7665  34.7703  34.7738  34.7770
    34.7835  35.0464  35.1293  35.1989  35.5589  35.6198  35.8203  36.0768
    36.1811  36.2067  36.7785  36.9208  37.2620  37.3049  37.4331  37.7622
    37.8045  37.9876  38.1789  38.2385  38.5449  38.6136  39.0213  39.0754
    39.4063  39.4388  39.6327  39.7674  39.8646  40.1574  40.2683  40.4227
    40.4826  40.8530  40.9096  41.0197  41.1694  41.3839  41.5261  41.6109
    42.0575  42.1363  42.3135  42.4169  42.7925  42.8206  43.0570  43.4194
    43.5531  43.6810  44.1970  44.4251  44.4361  44.4693  44.7187  44.8092
    45.0679  45.1205  45.3466  45.5979  45.6839  45.7527  45.8032  45.9269
    46.2587  46.3158  46.5647  46.6012  46.9017  47.0674  47.1840  47.2649
    47.6527  47.6811  47.8680  47.9224  48.2705  48.3067  48.3831  48.4918

     occupation numbers
     1.0000   1.0000   1.0000   1.0000   1.0000   1.0000   1.0000   1.0000
     1.0000   1.0000   1.0000   1.0000   1.0000   1.0000   1.0000   1.0000
     1.0000   1.0000   1.0000   1.0000   1.0000   1.0000   1.0000   1.0000
     1.0000   1.0000   1.0000   1.0000   1.0000   1.0000   1.0000   1.0000
     1.0000   1.0000   1.0000   1.0000   1.0000   1.0000   1.0000   1.0000
     1.0000   1.0000   1.0000   1.0000   1.0000   1.0000   1.0000   1.0000
     1.0000   1.0000   1.0000   1.0000   1.0000   1.0000   1.0000   1.0000
     1.0000   1.0000   1.0000   1.0000   1.0000   1.0000   1.0000   1.0000
     1.0000   1.0000   1.0000   1.0000   1.0000   1.0000   1.0000   1.0000
     0.0000   0.0000   0.0000   0.0000   0.0000   0.0000   0.0000   0.0000
     0.0000   0.0000   0.0000   0.0000   0.0000   0.0000   0.0000   0.0000
     0.0000   0.0000   0.0000   0.0000   0.0000   0.0000   0.0000   0.0000
     0.0000   0.0000   0.0000   0.0000   0.0000   0.0000   0.0000   0.0000
     0.0000   0.0000   0.0000   0.0000   0.0000   0.0000   0.0000   0.0000
     0.0000   0.0000   0.0000   0.0000   0.0000   0.0000   0.0000   0.0000
     0.0000   0.0000   0.0000   0.0000   0.0000   0.0000   0.0000   0.0000
     0.0000   0.0000   0.0000   0.0000   0.0000   0.0000   0.0000   0.0000
     0.0000   0.0000   0.0000   0.0000   0.0000   0.0000   0.0000   0.0000
     0.0000   0.0000   0.0000   0.0000   0.0000   0.0000   0.0000   0.0000
     0.0000   0.0000   0.0000   0.0000   0.0000   0.0000   0.0000   0.0000
     0.0000   0.0000   0.0000   0.0000   0.0000   0.0000   0.0000   0.0000
     0.0000   0.0000   0.0000   0.0000   0.0000   0.0000   0.0000   0.0000
     0.0000   0.0000   0.0000   0.0000   0.0000   0.0000   0.0000   0.0000
     0.0000   0.0000   0.0000   0.0000   0.0000   0.0000   0.0000   0.0000
     0.0000   0.0000   0.0000   0.0000   0.0000   0.0000   0.0000   0.0000
     0.0000   0.0000   0.0000   0.0000   0.0000   0.0000   0.0000   0.0000
     0.0000   0.0000   0.0000   0.0000   0.0000   0.0000   0.0000   0.0000
     0.0000   0.0000   0.0000   0.0000   0.0000   0.0000   0.0000   0.0000
     0.0000   0.0000   0.0000   0.0000   0.0000   0.0000   0.0000   0.0000
     0.0000   0.0000   0.0000   0.0000   0.0000   0.0000   0.0000   0.0000
     0.0000   0.0000   0.0000   0.0000   0.0000   0.0000   0.0000   0.0000
     0.0000   0.0000   0.0000   0.0000   0.0000   0.0000   0.0000   0.0000

     highest occupied, lowest unoccupied level (ev):     7.6377   10.2024

!    total energy              =   -1396.45955515 Ry
     estimated scf accuracy    <       0.00000005 Ry

     The total energy is the sum of the following terms:
     one-electron contribution =    -442.64203466 Ry
     hartree contribution      =     306.38669873 Ry
     xc contribution           =    -368.89044492 Ry
     ewald contribution        =    -796.02800091 Ry
     one-center paw contrib.   =     -95.28577339 Ry
      -> PAW hartree energy AE =       0.00000000 Ry
      -> PAW hartree energy PS =       0.00000000 Ry
      -> PAW xc energy AE      =       0.00000000 Ry
      -> PAW xc energy PS      =       0.00000000 Ry
      -> total E_H with PAW    =     306.38669873 Ry
      -> total E_XC with PAW   =    -368.89044492 Ry

     convergence has been achieved in  11 iterations

     Writing all to output data dir bands_nm/myprefix.save/

     General routines

     Parallel routines

     PAW routines

   This run was terminated on:  19: 4:38  15Jul2023

   JOB DONE.