     Program PWSCF v.7.1 starts on 17Jul2023 at  0:19:46

     Reading input from espresso_17258.pwi
Warning: card &CELL ignored
Warning: card / ignored

     Current dimensions of program PWSCF are:
     Max number of different atomic species (ntypx) = 10
     Max number of k-points (npk) =  40000
     Max angular momentum in pseudopotentials (lmaxx) =  4
     file O.pbe-n-kjpaw_psl.0.1.UPF: wavefunction(s)  2P renormalized
     Message from routine setup:
     using ibrav=0 with symmetry is DISCOURAGED, use correct ibrav instead

     K-points division:     npool     =       2
     R & G space division:  proc/nbgrp/npool/nimage =       4
     Subspace diagonalization in iterative solution of the eigenvalue problem:
     one sub-group per band group will be used

     Using Slab Decomposition

     bravais-lattice index     =            0
     lattice parameter (alat)  =      14.7391  a.u.
     unit-cell volume          =    4590.7984 (a.u.)^3
     number of atoms/cell      =           16
     number of atomic types    =            5
     number of electrons       =       142.00
     number of Kohn-Sham states=          256
     kinetic-energy cutoff     =      30.0000  Ry
     charge density cutoff     =     240.0000  Ry
     scf convergence threshold =      1.0E-06
     mixing beta               =       0.7000
     number of iterations used =            8  plain     mixing
     Exchange-correlation= SLA  PW   PBX  PBC
                           (   1   4   3   4   0   0   0)

     celldm(1)=  14.739060  celldm(2)=   0.000000  celldm(3)=   0.000000
     celldm(4)=   0.000000  celldm(5)=   0.000000  celldm(6)=   0.000000

     crystal axes: (cart. coord. in units of alat)
               a(1) = (   1.000000   0.000000   0.000000 )
               a(2) = (   0.322296   0.986122   0.000000 )
               a(3) = (   0.500000   0.000000   1.453946 )

     reciprocal axes: (cart. coord. in units 2 pi/alat)
               b(1) = (  1.000000 -0.326832 -0.343892 )
               b(2) = (  0.000000  1.014073 -0.000000 )
               b(3) = (  0.000000  0.000000  0.687784 )

     PseudoPot. # 1 for Cs read from file:
     /lustre07/scratch/pragov/crystal_structure_design/utils/SSSP/Cs_pbe_v1.uspp.F.UPF
     MD5 check sum: 3476d69cb178dfad3ffaa59df4e07ca4
     Pseudo is Ultrasoft + core correction, Zval =  9.0
     Generated by new atomic code, or converted to UPF format
     Using radial grid of  905 points,  6 beta functions with:
                l(1) =   0
                l(2) =   0
                l(3) =   1
                l(4) =   1
                l(5) =   2
                l(6) =   2
     Q(r) pseudized with  6 coefficients,  rinner =    1.500   1.500   1.500
                                                       1.500   1.500

     PseudoPot. # 2 for Hg read from file:
     /lustre07/scratch/pragov/crystal_structure_design/utils/SSSP/Hg_ONCV_PBE-1.0.oncvpsp.upf
     MD5 check sum: dd5a8773074bfcf4280086d4d95875c4
     Pseudo is Norm-conserving, Zval = 20.0
     Generated using ONCVPSP code by D. R. Hamann
     Using radial grid of 1262 points,  8 beta functions with:
                l(1) =   0
                l(2) =   0
                l(3) =   1
                l(4) =   1
                l(5) =   2
                l(6) =   2
                l(7) =   3
                l(8) =   3

     PseudoPot. # 3 for H  read from file:
     /lustre07/scratch/pragov/crystal_structure_design/utils/SSSP/H.pbe-rrkjus_psl.1.0.0.UPF
     MD5 check sum: f52b6d4d1c606e5624b1dc7b2218f220
     Pseudo is Ultrasoft, Zval =  1.0
     Generated using "atomic" code by A. Dal Corso  v.5.1
     Using radial grid of  929 points,  2 beta functions with:
                l(1) =   0
                l(2) =   0
     Q(r) pseudized with 0 coefficients

     PseudoPot. # 4 for I  read from file:
     /lustre07/scratch/pragov/crystal_structure_design/utils/SSSP/I.pbe-n-kjpaw_psl.0.2.UPF
     MD5 check sum: d4ef18d9c8f18dc85e5843bca1e50dc0
     Pseudo is Projector augmented-wave + core cor, Zval =  7.0
     Generated using "atomic" code by A. Dal Corso  v.5.0.99 svn rev. 10869
     Shape of augmentation charge: PSQ
     Using radial grid of 1247 points,  4 beta functions with:
                l(1) =   0
                l(2) =   0
                l(3) =   1
                l(4) =   1
     Q(r) pseudized with 0 coefficients

     PseudoPot. # 5 for O  read from file:
     /lustre07/scratch/pragov/crystal_structure_design/utils/SSSP/O.pbe-n-kjpaw_psl.0.1.UPF
     MD5 check sum: 0234752ac141de4415c5fc33072bef88
     Pseudo is Projector augmented-wave + core cor, Zval =  6.0
     Generated using "atomic" code by A. Dal Corso  v.5.0.99 svn rev. 10869
     Shape of augmentation charge: BESSEL
     Using radial grid of 1095 points,  4 beta functions with:
                l(1) =   0
                l(2) =   0
                l(3) =   1
                l(4) =   1
     Q(r) pseudized with 0 coefficients

     atomic species   valence    mass     pseudopotential
        Cs             9.00   132.90545     Cs( 1.00)
        Hg            20.00   200.59200     Hg( 1.00)
        H              1.00     1.00800     H ( 1.00)
        I              7.00   126.90447     I ( 1.00)
        O              6.00    15.99900     O ( 1.00)

      2 Sym. Ops. (no inversion) found

                                    s                        frac. trans.

      isym =  1     identity

 cryst.   s( 1) = (     1          0          0      )
                  (     0          1          0      )
                  (     0          0          1      )

 cart.    s( 1) = (  1.0000000  0.0000000  0.0000000 )
                  (  0.0000000  1.0000000  0.0000000 )
                  (  0.0000000  0.0000000  1.0000000 )

      isym =  2     inv. 180 deg rotation - cart. axis [0,0,1]

 cryst.   s( 2) = (     1          0          0      )
                  (     0          1          0      )
                  (     1          0         -1      )

 cart.    s( 2) = (  1.0000000  0.0000000  0.0000000 )
                  (  0.0000000  1.0000000 -0.0000000 )
                  (  0.0000000  0.0000000 -1.0000000 )

   Cartesian axes

     site n.     atom                  positions (alat units)
         1           Cs  tau(   1) = (   0.6559673   0.7006772   0.3613942  )
         2           Cs  tau(   2) = (   1.1559673   0.7006772   1.0925516  )
         3           Hg  tau(   3) = (   1.1796490   0.3369086   0.5653363  )
         4           Hg  tau(   4) = (   0.6796490   0.3369086   0.8886095  )
         5           Hg  tau(   5) = (   0.2668124   0.2641308   0.0000000  )
         6           H   tau(   6) = (   0.8864039   0.4855458   0.0000000  )
         7           H   tau(   7) = (   0.7146541   0.3881416   0.0000000  )
         8           I   tau(   8) = (   0.2667076   0.6167010   0.0000000  )
         9           I   tau(   9) = (   0.5296243   0.2070935   0.5671799  )
        10           I   tau(  10) = (   1.0296243   0.2070935   0.8867659  )
        11           I   tau(  11) = (   1.1488195   0.6892026   0.5668033  )
        12           I   tau(  12) = (   0.6488195   0.6892026   0.8871425  )
        13           I   tau(  13) = (   1.0308249   0.1540559   0.2865655  )
        14           I   tau(  14) = (   0.5308239   0.1540559   1.1673804  )
        15           I   tau(  15) = (   0.5404666   0.0418520   0.0000000  )
        16           O   tau(  16) = (   0.7623339   0.5041302   0.0000000  )

   Crystallographic axes

     site n.     atom                  positions (cryst. coord.)
         1           Cs  tau(   1) = (  0.3026830  0.7105380  0.2485610  )
         2           Cs  tau(   2) = (  0.5512440  0.7105380  0.7514390  )
         3           Hg  tau(   3) = (  0.8751220  0.3416500  0.3888290  )
         4           Hg  tau(   4) = (  0.2639510  0.3416500  0.6111710  )
         5           Hg  tau(   5) = (  0.1804860  0.2678480  0.0000000  )
         6           H   tau(   6) = (  0.7277120  0.4923790  0.0000000  )
         7           H   tau(   7) = (  0.5877970  0.3936040  0.0000000  )
         8           I   tau(   8) = (  0.0651500  0.6253800  0.0000000  )
         9           I   tau(   9) = (  0.2668910  0.2100080  0.3900970  )
        10           I   tau(  10) = (  0.6569880  0.2100080  0.6099030  )
        11           I   tau(  11) = (  0.7286470  0.6989020  0.3898380  )
        12           I   tau(  12) = (  0.1184850  0.6989020  0.6101620  )
        13           I   tau(  13) = (  0.8819270  0.1562240  0.1970950  )
        14           I   tau(  14) = (  0.0790210  0.1562240  0.8029050  )
        15           I   tau(  15) = (  0.5267880  0.0424410  0.0000000  )
        16           O   tau(  16) = (  0.5975680  0.5112250  0.0000000  )

     number of k points=    10
                       cart. coord. in units 2pi/alat
        k(    1) = (   0.0000000   0.0000000   0.0000000), wk =   0.0740741
        k(    2) = (   0.0000000   0.0000000   0.2292612), wk =   0.1481481
        k(    3) = (   0.0000000   0.3380244  -0.0000000), wk =   0.1481481
        k(    4) = (   0.0000000   0.3380244   0.2292612), wk =   0.2962963
        k(    5) = (   0.3333333  -0.1089440  -0.1146306), wk =   0.2962963
        k(    6) = (   0.3333333  -0.1089440  -0.3438918), wk =   0.1481481
        k(    7) = (   0.3333333   0.2290804  -0.1146306), wk =   0.2962963
        k(    8) = (   0.3333333   0.2290804  -0.3438918), wk =   0.1481481
        k(    9) = (   0.3333333  -0.4469684  -0.1146306), wk =   0.2962963
        k(   10) = (   0.3333333  -0.4469684  -0.3438918), wk =   0.1481481

                       cryst. coord.
        k(    1) = (   0.0000000   0.0000000   0.0000000), wk =   0.0740741
        k(    2) = (   0.0000000   0.0000000   0.3333333), wk =   0.1481481
        k(    3) = (   0.0000000   0.3333333  -0.0000000), wk =   0.1481481
        k(    4) = (   0.0000000   0.3333333   0.3333333), wk =   0.2962963
        k(    5) = (   0.3333333   0.0000000   0.0000000), wk =   0.2962963
        k(    6) = (   0.3333333   0.0000000  -0.3333333), wk =   0.1481481
        k(    7) = (   0.3333333   0.3333333   0.0000000), wk =   0.2962963
        k(    8) = (   0.3333333   0.3333333  -0.3333333), wk =   0.1481481
        k(    9) = (   0.3333333  -0.3333333   0.0000000), wk =   0.2962963
        k(   10) = (   0.3333333  -0.3333333  -0.3333333), wk =   0.1481481

     Check: negative core charge=   -0.000002

     Initial potential from superposition of free atoms

     starting charge     141.9204, renormalised to     142.0000
     Starting wfcs are   94 randomized atomic wfcs +  162 random wfcs
     Checking if some PAW data can be deallocated...

     Self-consistent Calculation

     iteration #  1     ecut=    30.00 Ry     beta= 0.70
     Davidson diagonalization with overlap

     ethr =  1.00E-02,  avg # of iterations =  7.0

     Threshold (ethr) on eigenvalues was too large:
     Diagonalizing with lowered threshold

     Davidson diagonalization with overlap

[...]

     total energy              =   -4131.46023394 Ry
     estimated scf accuracy    <       0.91858440 Ry

[...]

     negative rho (up, down):  4.098E-05 0.000E+00

[...]

     total energy              =   -4131.89011230 Ry
     estimated scf accuracy    <       0.00000959 Ry

     iteration #  8     ecut=    30.00 Ry     beta= 0.70
     Davidson diagonalization with overlap

     ethr =  6.75E-09,  avg # of iterations =  1.1

     negative rho (up, down):  3.776E-06 0.000E+00

     End of self-consistent calculation

          k = 0.0000 0.0000 0.0000 ( 12739 PWs)   bands (ev):

  -112.9157-112.9156-112.8957 -60.7944 -60.7912 -60.7903 -60.7631 -60.7620
   -60.7564 -60.7559 -60.7353 -60.7200 -18.3348 -18.3230 -18.0153  -9.5853
    -9.3974  -9.3819  -9.3334  -9.1475  -9.0302  -8.9860  -8.9566  -5.6415
    -5.1698  -5.1622  -5.1447  -5.1269  -5.1189  -5.1077  -3.8161  -3.8133
    -3.8082  -3.7230  -3.6946  -3.6896  -3.6730  -3.6149  -3.6044  -3.5620
    -3.5556  -3.5115  -3.4939  -3.4580  -3.4468  -2.2118  -2.1424  -1.8425
    -1.7122  -0.1169   0.1434   0.2346   0.3551   0.4398   0.5707   0.6947
     0.8095   0.8751   1.0141   1.0967   1.2059   1.3274   1.3814   1.4493
     1.5024   1.6111   1.6969   1.7152   1.7953   1.9509   1.9754   3.6882
     4.5646   4.6116   6.3497   6.7757   7.0622   7.2151   7.3966   7.6065
     7.7682   7.9056   8.0458   8.0732   8.1724   8.3850   8.6086   8.6670
     8.6897   8.7296   8.7928   8.9465   9.0083   9.2153   9.2747   9.5170
     9.6375   9.7638   9.8461  10.0227  10.0334  10.2368  10.3442  10.3961
    10.4511  10.5884  10.6680  10.7432  10.8082  10.9292  11.1576  11.3561
    11.5500  11.8411  11.9090  11.9516  12.1742  12.3482  12.4325  12.4734
    12.5939  12.6462  12.8578  13.0136  13.1189  13.1622  13.2432  13.4206
    13.5502  13.7772  13.8933  13.9543  14.0507  14.1816  14.3273  14.3805
    14.4900  14.4960  14.6812  14.7552  14.7590  14.9546  14.9721  15.0456
    15.0480  15.2000  15.3502  15.3801  15.4513  15.4827  15.6113  15.8809
    15.9581  16.1278  16.2604  16.3321  16.3966  16.4640  16.6105  16.7094
    16.9122  16.9252  17.0928  17.1156  17.1699  17.4365  17.5619  17.6106
    17.7499  17.8717  17.8937  18.0666  18.0991  18.1200  18.3809  18.4967
    18.5500  18.5769  18.8062  18.9409  19.0206  19.0249  19.2198  19.2622
    19.2776  19.3387  19.3616  19.4923  19.5614  19.6737  19.6997  19.7319
    19.9929  20.0321  20.0325  20.2833  20.3751  20.5386  20.5906  20.7129
    20.8016  20.9103  20.9273  20.9383  21.0575  21.1728  21.3374  21.3487
    21.3818  21.4825  21.4903  21.6055  21.7111  21.7637  21.8621  21.9388
    22.0456  22.1192  22.1997  22.1998  22.3105  22.3548  22.4338  22.5861
    22.5895  22.6621  22.8217  22.9124  23.0341  23.0496  23.2410  23.3234
    23.3974  23.4699  23.5526  23.6471  23.7333  23.8453  23.8852  23.9104
    24.0897  24.1220  24.1288  24.2429  24.3494  24.4842  24.5972  24.6103
    24.7327  24.7938  24.8261  24.9754  25.0232  25.1020  25.1542  25.2788

     occupation numbers
     1.0000   1.0000   1.0000   1.0000   1.0000   1.0000   1.0000   1.0000
     1.0000   1.0000   1.0000   1.0000   1.0000   1.0000   1.0000   1.0000
     1.0000   1.0000   1.0000   1.0000   1.0000   1.0000   1.0000   1.0000
     1.0000   1.0000   1.0000   1.0000   1.0000   1.0000   1.0000   1.0000
     1.0000   1.0000   1.0000   1.0000   1.0000   1.0000   1.0000   1.0000
     1.0000   1.0000   1.0000   1.0000   1.0000   1.0000   1.0000   1.0000
     1.0000   1.0000   1.0000   1.0000   1.0000   1.0000   1.0000   1.0000
     1.0000   1.0000   1.0000   1.0000   1.0000   1.0000   1.0000   1.0000
     1.0000   1.0000   1.0000   1.0000   1.0000   1.0000   1.0000   0.0000
     0.0000   0.0000   0.0000   0.0000   0.0000   0.0000   0.0000   0.0000
     0.0000   0.0000   0.0000   0.0000   0.0000   0.0000   0.0000   0.0000
     0.0000   0.0000   0.0000   0.0000   0.0000   0.0000   0.0000   0.0000
     0.0000   0.0000   0.0000   0.0000   0.0000   0.0000   0.0000   0.0000
     0.0000   0.0000   0.0000   0.0000   0.0000   0.0000   0.0000   0.0000
     0.0000   0.0000   0.0000   0.0000   0.0000   0.0000   0.0000   0.0000
     0.0000   0.0000   0.0000   0.0000   0.0000   0.0000   0.0000   0.0000
     0.0000   0.0000   0.0000   0.0000   0.0000   0.0000   0.0000   0.0000
     0.0000   0.0000   0.0000   0.0000   0.0000   0.0000   0.0000   0.0000
     0.0000   0.0000   0.0000   0.0000   0.0000   0.0000   0.0000   0.0000
     0.0000   0.0000   0.0000   0.0000   0.0000   0.0000   0.0000   0.0000
     0.0000   0.0000   0.0000   0.0000   0.0000   0.0000   0.0000   0.0000
     0.0000   0.0000   0.0000   0.0000   0.0000   0.0000   0.0000   0.0000
     0.0000   0.0000   0.0000   0.0000   0.0000   0.0000   0.0000   0.0000
     0.0000   0.0000   0.0000   0.0000   0.0000   0.0000   0.0000   0.0000
     0.0000   0.0000   0.0000   0.0000   0.0000   0.0000   0.0000   0.0000
     0.0000   0.0000   0.0000   0.0000   0.0000   0.0000   0.0000   0.0000
     0.0000   0.0000   0.0000   0.0000   0.0000   0.0000   0.0000   0.0000
     0.0000   0.0000   0.0000   0.0000   0.0000   0.0000   0.0000   0.0000
     0.0000   0.0000   0.0000   0.0000   0.0000   0.0000   0.0000   0.0000
     0.0000   0.0000   0.0000   0.0000   0.0000   0.0000   0.0000   0.0000
     0.0000   0.0000   0.0000   0.0000   0.0000   0.0000   0.0000   0.0000
     0.0000   0.0000   0.0000   0.0000   0.0000   0.0000   0.0000   0.0000

[...]

          k = 0.3333-0.4470-0.3439 ( 12716 PWs)   bands (ev):

  -112.9156-112.9156-112.8957 -60.7933 -60.7907 -60.7875 -60.7625 -60.7615
   -60.7561 -60.7552 -60.7352 -60.7189 -18.3346 -18.3231 -18.0152  -9.4912
    -9.4536  -9.3905  -9.3308  -9.1524  -9.0376  -9.0173  -8.9678  -5.6248
    -5.1615  -5.1558  -5.1317  -5.1312  -5.1153  -5.1012  -3.8260  -3.8047
    -3.7496  -3.7322  -3.7040  -3.7036  -3.6961  -3.6298  -3.5884  -3.5678
    -3.5616  -3.5408  -3.5055  -3.4540  -3.4431  -2.2097  -2.0658  -1.7343
    -1.6923  -0.1256   0.1329   0.2407   0.3536   0.5471   0.6946   0.7724
     0.8488   0.9105   0.9644   1.1561   1.1779   1.2598   1.2848   1.3914
     1.4272   1.4848   1.5977   1.6085   1.6903   1.7444   1.8618   4.4703
     4.4878   4.5940   6.9219   6.9640   6.9763   7.0862   7.1799   7.6873
     7.8691   7.9231   7.9253   8.0030   8.2886   8.3299   8.4795   8.5125
     8.5951   8.6645   8.7574   8.8437   8.9138   9.1137   9.2370   9.3013
     9.5200   9.5489   9.6991   9.7700   9.9867  10.1435  10.2598  10.4528
    10.5596  10.7231  10.7421  10.8222  10.9889  11.0066  11.2382  11.2560
    11.4850  11.7134  11.7314  11.9842  12.0626  12.1871  12.4616  12.5236
    12.6650  12.8071  12.8815  13.0588  13.1130  13.3721  13.3844  13.5101
    13.7457  13.8006  13.8850  13.9706  14.1080  14.2468  14.2495  14.3861
    14.5535  14.6663  14.7483  14.9135  14.9314  15.0164  15.0700  15.1528
    15.3787  15.4751  15.5301  15.5527  15.6396  15.7212  16.0197  16.1784
    16.1817  16.3620  16.4772  16.4835  16.5741  16.5783  16.8042  16.9483
    16.9855  16.9898  17.1817  17.2668  17.4156  17.4542  17.5608  17.5745
    17.6100  17.7768  17.8484  17.9779  18.0797  18.1274  18.2188  18.2682
    18.3728  18.5307  18.6882  18.6961  18.7317  18.8492  18.8908  18.9024
    19.1137  19.1151  19.1899  19.2528  19.2993  19.3101  19.5419  19.5610
    19.8905  19.9008  19.9715  19.9972  20.1347  20.2359  20.4356  20.4738
    20.4948  20.6320  20.7036  20.8354  20.8694  21.0081  21.0739  21.1113
    21.2085  21.2696  21.4320  21.5862  21.6213  21.7211  21.7501  21.9381
    22.0202  22.0924  22.1351  22.3058  22.3095  22.4333  22.4793  22.5091
    22.5956  22.7155  22.7215  22.7803  22.9675  22.9834  22.9951  23.0516
    23.2259  23.3152  23.3779  23.4032  23.4198  23.5479  23.6061  23.7436
    23.8825  24.0344  24.0831  24.2853  24.2990  24.3636  24.4153  24.5457
    24.6385  24.7000  24.8468  24.9072  24.9619  24.9684  25.1436  25.1532

     occupation numbers
     1.0000   1.0000   1.0000   1.0000   1.0000   1.0000   1.0000   1.0000
     1.0000   1.0000   1.0000   1.0000   1.0000   1.0000   1.0000   1.0000
     1.0000   1.0000   1.0000   1.0000   1.0000   1.0000   1.0000   1.0000
     1.0000   1.0000   1.0000   1.0000   1.0000   1.0000   1.0000   1.0000
     1.0000   1.0000   1.0000   1.0000   1.0000   1.0000   1.0000   1.0000
     1.0000   1.0000   1.0000   1.0000   1.0000   1.0000   1.0000   1.0000
     1.0000   1.0000   1.0000   1.0000   1.0000   1.0000   1.0000   1.0000
     1.0000   1.0000   1.0000   1.0000   1.0000   1.0000   1.0000   1.0000
     1.0000   1.0000   1.0000   1.0000   1.0000   1.0000   1.0000   0.0000
     0.0000   0.0000   0.0000   0.0000   0.0000   0.0000   0.0000   0.0000
     0.0000   0.0000   0.0000   0.0000   0.0000   0.0000   0.0000   0.0000
     0.0000   0.0000   0.0000   0.0000   0.0000   0.0000   0.0000   0.0000
     0.0000   0.0000   0.0000   0.0000   0.0000   0.0000   0.0000   0.0000
     0.0000   0.0000   0.0000   0.0000   0.0000   0.0000   0.0000   0.0000
     0.0000   0.0000   0.0000   0.0000   0.0000   0.0000   0.0000   0.0000
     0.0000   0.0000   0.0000   0.0000   0.0000   0.0000   0.0000   0.0000
     0.0000   0.0000   0.0000   0.0000   0.0000   0.0000   0.0000   0.0000
     0.0000   0.0000   0.0000   0.0000   0.0000   0.0000   0.0000   0.0000
     0.0000   0.0000   0.0000   0.0000   0.0000   0.0000   0.0000   0.0000
     0.0000   0.0000   0.0000   0.0000   0.0000   0.0000   0.0000   0.0000
     0.0000   0.0000   0.0000   0.0000   0.0000   0.0000   0.0000   0.0000
     0.0000   0.0000   0.0000   0.0000   0.0000   0.0000   0.0000   0.0000
     0.0000   0.0000   0.0000   0.0000   0.0000   0.0000   0.0000   0.0000
     0.0000   0.0000   0.0000   0.0000   0.0000   0.0000   0.0000   0.0000
     0.0000   0.0000   0.0000   0.0000   0.0000   0.0000   0.0000   0.0000
     0.0000   0.0000   0.0000   0.0000   0.0000   0.0000   0.0000   0.0000
     0.0000   0.0000   0.0000   0.0000   0.0000   0.0000   0.0000   0.0000
     0.0000   0.0000   0.0000   0.0000   0.0000   0.0000   0.0000   0.0000
     0.0000   0.0000   0.0000   0.0000   0.0000   0.0000   0.0000   0.0000
     0.0000   0.0000   0.0000   0.0000   0.0000   0.0000   0.0000   0.0000
     0.0000   0.0000   0.0000   0.0000   0.0000   0.0000   0.0000   0.0000
     0.0000   0.0000   0.0000   0.0000   0.0000   0.0000   0.0000   0.0000

     highest occupied, lowest unoccupied level (ev):     1.9754    3.6882

!    total energy              =   -4131.89011444 Ry
     estimated scf accuracy    <       0.00000098 Ry

     The total energy is the sum of the following terms:
     one-electron contribution =   -1021.64339799 Ry
     hartree contribution      =     530.55154918 Ry
     xc contribution           =    -485.33068874 Ry
     ewald contribution        =    -581.76220325 Ry
     one-center paw contrib.   =   -2573.70537364 Ry
      -> PAW hartree energy AE =       0.00000000 Ry
      -> PAW hartree energy PS =       0.00000000 Ry
      -> PAW xc energy AE      =       0.00000000 Ry
      -> PAW xc energy PS      =       0.00000000 Ry
      -> total E_H with PAW    =     530.55154918 Ry
      -> total E_XC with PAW   =    -485.33068874 Ry

     convergence has been achieved in   8 iterations

     Writing all to output data dir bands_nm/myprefix.save/

     General routines

     Parallel routines

     PAW routines

   This run was terminated on:   0:21:21  17Jul2023

   JOB DONE.