     Program PWSCF v.7.1 starts on 15Jul2023 at 21:17: 4

     Reading input from espresso_25171.pwi
Warning: card &CELL ignored
Warning: card / ignored

     Current dimensions of program PWSCF are:
     Max number of different atomic species (ntypx) = 10
     Max number of k-points (npk) =  40000
     Max angular momentum in pseudopotentials (lmaxx) =  4
     file O.pbe-n-kjpaw_psl.0.1.UPF: wavefunction(s)  2P renormalized
     Message from routine setup:
     using ibrav=0 with symmetry is DISCOURAGED, use correct ibrav instead

     K-points division:     npool     =       2
     R & G space division:  proc/nbgrp/npool/nimage =       4
     Subspace diagonalization in iterative solution of the eigenvalue problem:
     one sub-group per band group will be used

     Using Slab Decomposition

     bravais-lattice index     =            0
     lattice parameter (alat)  =      13.4211  a.u.
     unit-cell volume          =    1450.2205 (a.u.)^3
     number of atoms/cell      =           14
     number of atomic types    =            3
     number of electrons       =       132.00
     number of Kohn-Sham states=          256
     kinetic-energy cutoff     =      30.0000  Ry
     charge density cutoff     =     240.0000  Ry
     scf convergence threshold =      1.0E-06
     mixing beta               =       0.7000
     number of iterations used =            8  plain     mixing
     Exchange-correlation= SLA  PW   PBX  PBC
                           (   1   4   3   4   0   0   0)

     celldm(1)=  13.421090  celldm(2)=   0.000000  celldm(3)=   0.000000
     celldm(4)=   0.000000  celldm(5)=   0.000000  celldm(6)=   0.000000

     crystal axes: (cart. coord. in units of alat)
               a(1) = (   1.000000   0.000000   0.000000 )
               a(2) = (   0.867937   0.496675   0.000000 )
               a(3) = (   0.741047   0.197040   1.207810 )

     reciprocal axes: (cart. coord. in units 2 pi/alat)
               b(1) = (  1.000000 -1.747496 -0.328462 )
               b(2) = (  0.000000  2.013391 -0.328462 )
               b(3) = (  0.000000  0.000000  0.827945 )

     PseudoPot. # 1 for Y  read from file:
     /lustre07/scratch/pragov/crystal_structure_design/utils/SSSP/Y_pbe_v1.uspp.F.UPF
     MD5 check sum: 2cf71db95cafeb975fc457bd7f14888e
     Pseudo is Ultrasoft + core correction, Zval = 11.0
     Generated by new atomic code, or converted to UPF format
     Using radial grid of  885 points,  6 beta functions with:
                l(1) =   0
                l(2) =   0
                l(3) =   1
                l(4) =   1
                l(5) =   2
                l(6) =   2
     Q(r) pseudized with  6 coefficients,  rinner =    1.200   1.200   1.200
                                                       1.200   1.200

     PseudoPot. # 2 for Hg read from file:
     /lustre07/scratch/pragov/crystal_structure_design/utils/SSSP/Hg_ONCV_PBE-1.0.oncvpsp.upf
     MD5 check sum: dd5a8773074bfcf4280086d4d95875c4
     Pseudo is Norm-conserving, Zval = 20.0
     Generated using ONCVPSP code by D. R. Hamann
     Using radial grid of 1262 points,  8 beta functions with:
                l(1) =   0
                l(2) =   0
                l(3) =   1
                l(4) =   1
                l(5) =   2
                l(6) =   2
                l(7) =   3
                l(8) =   3

     PseudoPot. # 3 for O  read from file:
     /lustre07/scratch/pragov/crystal_structure_design/utils/SSSP/O.pbe-n-kjpaw_psl.0.1.UPF
     MD5 check sum: 0234752ac141de4415c5fc33072bef88
     Pseudo is Projector augmented-wave + core cor, Zval =  6.0
     Generated using "atomic" code by A. Dal Corso  v.5.0.99 svn rev. 10869
     Shape of augmentation charge: BESSEL
     Using radial grid of 1095 points,  4 beta functions with:
                l(1) =   0
                l(2) =   0
                l(3) =   1
                l(4) =   1
     Q(r) pseudized with 0 coefficients

     atomic species   valence    mass     pseudopotential
        Y             11.00    88.90584     Y ( 1.00)
        Hg            20.00   200.59200     Hg( 1.00)
        O              6.00    15.99900     O ( 1.00)

      2 Sym. Ops., with inversion, found

                                    s                        frac. trans.

      isym =  1     identity

 cryst.   s( 1) = (     1          0          0      )
                  (     0          1          0      )
                  (     0          0          1      )

 cart.    s( 1) = (  1.0000000 -0.0000000  0.0000000 )
                  (  0.0000000  1.0000000  0.0000000 )
                  (  0.0000000  0.0000000  1.0000000 )

      isym =  2     inversion

 cryst.   s( 2) = (    -1          0          0      )
                  (     0         -1          0      )
                  (     0          0         -1      )

 cart.    s( 2) = ( -1.0000000  0.0000000  0.0000000 )
                  (  0.0000000 -1.0000000  0.0000000 )
                  (  0.0000000  0.0000000 -1.0000000 )

   Cartesian axes

     site n.     atom                  positions (alat units)
         1           Y   tau(   1) = (   1.5556254   0.4136326   0.6500641  )
         2           Y   tau(   2) = (   0.4462033   0.1186431   0.2421986  )
         3           Y   tau(   3) = (   2.1627801   0.5750719   0.9656118  )
         4           Y   tau(   4) = (   1.0533580   0.2800824   0.5577463  )
         5           Hg  tau(   5) = (   1.7753574   0.4720582   0.1942376  )
         6           Hg  tau(   6) = (   0.8336260   0.2216568   1.0135727  )
         7           O   tau(   7) = (   0.7217898   0.1919201   0.4682959  )
         8           O   tau(   8) = (   1.5286670   0.4064645   0.0660044  )
         9           O   tau(   9) = (   0.5972202   0.1587977   0.8667646  )
        10           O   tau(  10) = (   1.3448640   0.3575923   0.4194158  )
        11           O   tau(  11) = (   1.2641194   0.3361227   0.7883946  )
        12           O   tau(  12) = (   2.0117632   0.5349173   0.3410458  )
        13           O   tau(  13) = (   1.0803163   0.2872504   1.1418059  )
        14           O   tau(  14) = (   1.8871936   0.5017949   0.7395145  )

   Crystallographic axes

     site n.     atom                  positions (cryst. coord.)
         1           Y   tau(   1) = (  0.6192830  0.6192830  0.5382170  )
         2           Y   tau(   2) = (  0.1593220  0.1593220  0.2005270  )
         3           Y   tau(   3) = (  0.8406780  0.8406780  0.7994730  )
         4           Y   tau(   4) = (  0.3807170  0.3807170  0.4617830  )
         5           Hg  tau(   5) = (  0.8866380  0.8866380  0.1608180  )
         6           Hg  tau(   6) = (  0.1133620  0.1133620  0.8391820  )
         7           O   tau(   7) = (  0.2325930  0.2325930  0.3877230  )
         8           O   tau(   8) = (  0.7966920  0.7966920  0.0546480  )
         9           O   tau(   9) = (  0.0350230  0.0350230  0.7176330  )
        10           O   tau(  10) = (  0.5822110  0.5822110  0.3472530  )
        11           O   tau(  11) = (  0.4177890  0.4177890  0.6527470  )
        12           O   tau(  12) = (  0.9649770  0.9649770  0.2823670  )
        13           O   tau(  13) = (  0.2033080  0.2033080  0.9453520  )
        14           O   tau(  14) = (  0.7674070  0.7674070  0.6122770  )

     number of k points=    14
                       cart. coord. in units 2pi/alat
        k(    1) = (   0.0000000   0.0000000   0.0000000), wk =   0.0740741
        k(    2) = (   0.0000000   0.0000000   0.2759815), wk =   0.1481481
        k(    3) = (   0.0000000   0.6711302  -0.1094872), wk =   0.1481481
        k(    4) = (   0.0000000   0.6711302   0.1664943), wk =   0.1481481
        k(    5) = (   0.0000000   0.6711302  -0.3854687), wk =   0.1481481
        k(    6) = (   0.3333333  -0.5824986  -0.1094872), wk =   0.1481481
        k(    7) = (   0.3333333  -0.5824986   0.1664943), wk =   0.1481481
        k(    8) = (   0.3333333  -0.5824986  -0.3854687), wk =   0.1481481
        k(    9) = (   0.3333333   0.0886316  -0.2189744), wk =   0.1481481
        k(   10) = (   0.3333333   0.0886316   0.0570071), wk =   0.1481481
        k(   11) = (   0.3333333   0.0886316  -0.4949559), wk =   0.1481481
        k(   12) = (   0.3333333  -1.2536288  -0.0000000), wk =   0.1481481
        k(   13) = (   0.3333333  -1.2536288   0.2759815), wk =   0.1481481
        k(   14) = (   0.3333333  -1.2536288  -0.2759815), wk =   0.1481481

                       cryst. coord.
        k(    1) = (   0.0000000   0.0000000   0.0000000), wk =   0.0740741
        k(    2) = (   0.0000000   0.0000000   0.3333333), wk =   0.1481481
        k(    3) = (   0.0000000   0.3333333   0.0000000), wk =   0.1481481
        k(    4) = (   0.0000000   0.3333333   0.3333333), wk =   0.1481481
        k(    5) = (   0.0000000   0.3333333  -0.3333333), wk =   0.1481481
        k(    6) = (   0.3333333   0.0000000   0.0000000), wk =   0.1481481
        k(    7) = (   0.3333333   0.0000000   0.3333333), wk =   0.1481481
        k(    8) = (   0.3333333   0.0000000  -0.3333333), wk =   0.1481481
        k(    9) = (   0.3333333   0.3333333   0.0000000), wk =   0.1481481
        k(   10) = (   0.3333333   0.3333333   0.3333333), wk =   0.1481481
        k(   11) = (   0.3333333   0.3333333  -0.3333333), wk =   0.1481481
        k(   12) = (   0.3333333  -0.3333333  -0.0000000), wk =   0.1481481
        k(   13) = (   0.3333333  -0.3333333   0.3333333), wk =   0.1481481
        k(   14) = (   0.3333333  -0.3333333  -0.3333333), wk =   0.1481481

     Check: negative core charge=   -0.000013

     Initial potential from superposition of free atoms

     starting charge     131.9820, renormalised to     132.0000

     negative rho (up, down):  1.743E-01 0.000E+00
     Starting wfcs are  104 randomized atomic wfcs +  152 random wfcs
     Checking if some PAW data can be deallocated...

     Self-consistent Calculation

     iteration #  1     ecut=    30.00 Ry     beta= 0.70
     Davidson diagonalization with overlap

     ethr =  1.00E-02,  avg # of iterations =  7.4

     negative rho (up, down):  1.783E-01 0.000E+00

     total energy              =   -1301.60093978 Ry
     estimated scf accuracy    <       5.00664651 Ry

[...]

     c_bands:  1 eigenvalues not converged
     ethr =  2.30E-05,  avg # of iterations = 11.3

[...]

     total energy              =   -1304.25948787 Ry
     estimated scf accuracy    <       0.00001387 Ry

     iteration # 11     ecut=    30.00 Ry     beta= 0.70
     Davidson diagonalization with overlap

     ethr =  1.05E-08,  avg # of iterations =  1.1

     negative rho (up, down):  1.809E-01 0.000E+00

     End of self-consistent calculation

          k = 0.0000 0.0000 0.0000 (  4015 PWs)   bands (ev):

  -105.9010-105.9006 -53.9405 -53.9384 -53.6787 -53.6736 -53.6730 -53.6518
   -30.9033 -30.8899 -30.6888 -30.6639 -11.6550 -11.4829 -11.2803 -11.1960
   -11.0613 -10.8118 -10.7973 -10.7919 -10.7825 -10.6282 -10.5819 -10.5791
    -7.9859  -7.7428  -7.1272  -7.1000  -6.2735  -6.2709  -5.9190  -5.7788
     2.3737   2.6129   2.8455   3.2074   3.2141   3.2763   3.2805   3.6007
     3.6052   3.9355   4.2564   5.5079   5.9514   6.1854   6.3769   6.4584
     6.7754   6.8665   6.9452   7.0407   7.1577   7.2871   7.4258   7.6107
     7.6909   8.2026   8.3942   8.5022   8.5423   8.6039   8.6466   8.8305
     8.8581   9.0489  11.2761  13.1505  13.7129  14.6559  14.7060  14.9334
    14.9964  15.0175  15.5417  15.8027  15.9950  16.2157  16.2420  16.3249
    16.3262  16.4690  16.9738  17.1424  17.6611  18.0424  18.1656  18.2068
    18.2680  18.4236  18.5502  19.0100  19.2121  19.4076  19.6341  20.2840
    20.7719  21.1503  21.6022  22.3451  22.5012  22.9004  23.6063  23.8180
    24.2832  24.7050  24.9519  25.1790  25.7617  25.8807  26.1151  26.1908
    26.5618  26.7870  26.8529  27.5281  28.0671  28.2284  28.3912  28.5976
    29.5052  29.6631  29.7933  29.9612  30.2301  30.4291  30.5068  30.6114
    30.6858  31.0964  31.2064  31.5120  31.9043  31.9130  32.4997  32.6200
    32.6886  32.8618  33.4348  33.4795  33.5134  34.0943  34.2394  34.6449
    34.8301  34.9990  35.0097  35.2241  35.2423  35.3255  35.7288  36.1712
    36.2459  36.5299  36.8998  37.0006  37.0749  37.1108  37.5410  37.7113
    37.8101  38.0065  38.0946  38.2180  38.4318  38.9199  38.9204  39.1901
    39.2293  39.3839  39.5294  39.7136  39.8088  40.0722  41.0079  41.2250
    41.4924  41.5921  41.6339  41.9854  42.0805  42.0910  42.2644  42.7306
    43.0111  43.0751  43.2487  43.6066  43.9252  44.0645  44.3349  44.5776
    44.6448  44.8000  45.0243  45.0947  45.4531  45.6594  45.8944  46.1392
    46.2357  46.4167  46.9600  47.2827  47.3521  47.5984  47.6764  47.8186
    47.8241  47.9709  48.1117  48.3382  48.6465  48.7787  48.9137  48.9422
    49.2738  49.6561  49.8924  49.9159  50.1033  50.3814  50.5003  50.5316
    50.6365  50.7014  51.1834  51.2081  51.2341  51.2677  51.6932  51.7429
    52.0480  52.3162  52.4851  52.8042  52.8808  52.9655  53.1449  53.1700
    53.2139  53.2196  53.4165  53.6227  54.1010  54.3216  54.4680  54.5365
    54.6397  54.6852  54.8957  55.0291  55.1593  55.3237  55.4610  55.5526

     occupation numbers
     1.0000   1.0000   1.0000   1.0000   1.0000   1.0000   1.0000   1.0000
     1.0000   1.0000   1.0000   1.0000   1.0000   1.0000   1.0000   1.0000
     1.0000   1.0000   1.0000   1.0000   1.0000   1.0000   1.0000   1.0000
     1.0000   1.0000   1.0000   1.0000   1.0000   1.0000   1.0000   1.0000
     1.0000   1.0000   1.0000   1.0000   1.0000   1.0000   1.0000   1.0000
     1.0000   1.0000   1.0000   1.0000   1.0000   1.0000   1.0000   1.0000
     1.0000   1.0000   1.0000   1.0000   1.0000   1.0000   1.0000   1.0000
     1.0000   1.0000   1.0000   1.0000   1.0000   1.0000   1.0000   1.0000
     1.0000   1.0000   0.0000   0.0000   0.0000   0.0000   0.0000   0.0000
     0.0000   0.0000   0.0000   0.0000   0.0000   0.0000   0.0000   0.0000
     0.0000   0.0000   0.0000   0.0000   0.0000   0.0000   0.0000   0.0000
     0.0000   0.0000   0.0000   0.0000   0.0000   0.0000   0.0000   0.0000
     0.0000   0.0000   0.0000   0.0000   0.0000   0.0000   0.0000   0.0000
     0.0000   0.0000   0.0000   0.0000   0.0000   0.0000   0.0000   0.0000
     0.0000   0.0000   0.0000   0.0000   0.0000   0.0000   0.0000   0.0000
     0.0000   0.0000   0.0000   0.0000   0.0000   0.0000   0.0000   0.0000
     0.0000   0.0000   0.0000   0.0000   0.0000   0.0000   0.0000   0.0000
     0.0000   0.0000   0.0000   0.0000   0.0000   0.0000   0.0000   0.0000
     0.0000   0.0000   0.0000   0.0000   0.0000   0.0000   0.0000   0.0000
     0.0000   0.0000   0.0000   0.0000   0.0000   0.0000   0.0000   0.0000
     0.0000   0.0000   0.0000   0.0000   0.0000   0.0000   0.0000   0.0000
     0.0000   0.0000   0.0000   0.0000   0.0000   0.0000   0.0000   0.0000
     0.0000   0.0000   0.0000   0.0000   0.0000   0.0000   0.0000   0.0000
     0.0000   0.0000   0.0000   0.0000   0.0000   0.0000   0.0000   0.0000
     0.0000   0.0000   0.0000   0.0000   0.0000   0.0000   0.0000   0.0000
     0.0000   0.0000   0.0000   0.0000   0.0000   0.0000   0.0000   0.0000
     0.0000   0.0000   0.0000   0.0000   0.0000   0.0000   0.0000   0.0000
     0.0000   0.0000   0.0000   0.0000   0.0000   0.0000   0.0000   0.0000
     0.0000   0.0000   0.0000   0.0000   0.0000   0.0000   0.0000   0.0000
     0.0000   0.0000   0.0000   0.0000   0.0000   0.0000   0.0000   0.0000
     0.0000   0.0000   0.0000   0.0000   0.0000   0.0000   0.0000   0.0000
     0.0000   0.0000   0.0000   0.0000   0.0000   0.0000   0.0000   0.0000

[...]

          k = 0.3333-1.2536-0.2760 (  4037 PWs)   bands (ev):

  -105.9010-105.9006 -53.9367 -53.9345 -53.6866 -53.6831 -53.6736 -53.6503
   -30.8801 -30.8741 -30.6601 -30.6594 -11.6046 -11.5333 -11.3937 -11.3410
   -11.1686 -11.0527 -10.9672 -10.8943 -10.8135 -10.7499 -10.7154 -10.6931
    -7.5238  -7.4849  -7.2529  -7.2173  -6.0674  -5.9848  -5.9104  -5.8671
     2.5267   2.5277   2.9269   3.0169   3.0755   3.2978   3.3662   3.4533
     3.7969   3.9718   5.1220   5.6612   5.7385   6.3176   6.4159   6.7268
     6.7967   6.9137   7.0498   7.1767   7.2698   7.3501   7.6361   7.7141
     7.9027   7.9911   8.0734   8.2049   8.4434   8.5898   8.7159   8.7921
     8.8587   9.0059  11.9475  13.1516  13.8360  14.2629  14.6468  14.7181
    14.8406  15.0956  15.4941  15.7083  15.9058  15.9981  16.1355  16.2753
    16.5340  16.7035  16.8275  17.1572  17.5628  17.6809  17.9916  18.1347
    18.2763  18.3902  18.5132  18.6596  19.4063  20.0797  20.5599  21.1462
    21.3910  21.5264  22.1309  22.2389  22.6019  23.0895  23.2951  23.5908
    23.6468  24.3198  24.6351  25.0012  25.1874  25.5190  26.0721  26.2510
    26.4395  27.1785  27.2027  27.5542  27.8013  27.9030  28.0242  28.1834
    28.3635  29.0363  29.2648  29.3371  29.6565  29.8506  30.3661  30.5361
    31.1632  31.2125  31.3947  31.5497  31.8889  32.0834  32.2629  32.3132
    32.8711  32.9172  33.1132  33.4276  33.7111  33.9451  34.2078  34.2421
    34.6763  35.1604  35.2493  35.5649  35.7775  36.1234  36.1691  36.4003
    36.4927  36.8610  36.9364  37.2803  37.4205  37.5674  37.8758  37.9082
    38.0567  38.1423  38.3153  38.4498  38.8486  39.0227  39.2182  39.2984
    39.5953  39.7503  40.2418  40.4459  40.6419  40.7162  40.9488  41.0517
    41.3039  41.5377  41.6158  41.7843  41.8763  42.2149  42.2868  42.4692
    42.7739  42.9396  42.9936  43.2791  43.5390  43.7065  43.8900  44.1174
    44.2420  44.5494  44.6933  44.9691  45.0134  45.2470  45.4454  45.6654
    45.7581  45.8223  46.0505  46.1985  46.3372  46.5876  46.8493  47.0256
    47.2226  47.3592  47.4774  47.5864  48.0185  48.1539  48.3415  48.5239
    48.6924  48.8792  49.0985  49.3375  49.4657  49.7530  49.8314  49.9901
    50.2079  50.3299  50.6155  50.7320  50.7863  50.8977  51.2425  51.4378
    51.6972  51.9277  52.0539  52.2860  52.5334  52.8072  52.9269  53.2424
    53.3139  53.6386  53.7543  53.9076  54.2734  54.3295  54.4831  54.6496
    54.8962  55.0963  55.1082  55.3750  55.5402  55.7632  56.0033  56.2052

     occupation numbers
     1.0000   1.0000   1.0000   1.0000   1.0000   1.0000   1.0000   1.0000
     1.0000   1.0000   1.0000   1.0000   1.0000   1.0000   1.0000   1.0000
     1.0000   1.0000   1.0000   1.0000   1.0000   1.0000   1.0000   1.0000
     1.0000   1.0000   1.0000   1.0000   1.0000   1.0000   1.0000   1.0000
     1.0000   1.0000   1.0000   1.0000   1.0000   1.0000   1.0000   1.0000
     1.0000   1.0000   1.0000   1.0000   1.0000   1.0000   1.0000   1.0000
     1.0000   1.0000   1.0000   1.0000   1.0000   1.0000   1.0000   1.0000
     1.0000   1.0000   1.0000   1.0000   1.0000   1.0000   1.0000   1.0000
     1.0000   1.0000   0.0000   0.0000   0.0000   0.0000   0.0000   0.0000
     0.0000   0.0000   0.0000   0.0000   0.0000   0.0000   0.0000   0.0000
     0.0000   0.0000   0.0000   0.0000   0.0000   0.0000   0.0000   0.0000
     0.0000   0.0000   0.0000   0.0000   0.0000   0.0000   0.0000   0.0000
     0.0000   0.0000   0.0000   0.0000   0.0000   0.0000   0.0000   0.0000
     0.0000   0.0000   0.0000   0.0000   0.0000   0.0000   0.0000   0.0000
     0.0000   0.0000   0.0000   0.0000   0.0000   0.0000   0.0000   0.0000
     0.0000   0.0000   0.0000   0.0000   0.0000   0.0000   0.0000   0.0000
     0.0000   0.0000   0.0000   0.0000   0.0000   0.0000   0.0000   0.0000
     0.0000   0.0000   0.0000   0.0000   0.0000   0.0000   0.0000   0.0000
     0.0000   0.0000   0.0000   0.0000   0.0000   0.0000   0.0000   0.0000
     0.0000   0.0000   0.0000   0.0000   0.0000   0.0000   0.0000   0.0000
     0.0000   0.0000   0.0000   0.0000   0.0000   0.0000   0.0000   0.0000
     0.0000   0.0000   0.0000   0.0000   0.0000   0.0000   0.0000   0.0000
     0.0000   0.0000   0.0000   0.0000   0.0000   0.0000   0.0000   0.0000
     0.0000   0.0000   0.0000   0.0000   0.0000   0.0000   0.0000   0.0000
     0.0000   0.0000   0.0000   0.0000   0.0000   0.0000   0.0000   0.0000
     0.0000   0.0000   0.0000   0.0000   0.0000   0.0000   0.0000   0.0000
     0.0000   0.0000   0.0000   0.0000   0.0000   0.0000   0.0000   0.0000
     0.0000   0.0000   0.0000   0.0000   0.0000   0.0000   0.0000   0.0000
     0.0000   0.0000   0.0000   0.0000   0.0000   0.0000   0.0000   0.0000
     0.0000   0.0000   0.0000   0.0000   0.0000   0.0000   0.0000   0.0000
     0.0000   0.0000   0.0000   0.0000   0.0000   0.0000   0.0000   0.0000
     0.0000   0.0000   0.0000   0.0000   0.0000   0.0000   0.0000   0.0000

     highest occupied, lowest unoccupied level (ev):     9.0765   11.2761

!    total energy              =   -1304.25949027 Ry
     estimated scf accuracy    <       0.00000060 Ry

     The total energy is the sum of the following terms:
     one-electron contribution =    -502.87526782 Ry
     hartree contribution      =     307.01826871 Ry
     xc contribution           =    -202.65999619 Ry
     ewald contribution        =    -829.55551489 Ry
     one-center paw contrib.   =     -76.18698009 Ry
      -> PAW hartree energy AE =       0.00000000 Ry
      -> PAW hartree energy PS =       0.00000000 Ry
      -> PAW xc energy AE      =       0.00000000 Ry
      -> PAW xc energy PS      =       0.00000000 Ry
      -> total E_H with PAW    =     307.01826871 Ry
      -> total E_XC with PAW   =    -202.65999619 Ry

     convergence has been achieved in  11 iterations

     Writing all to output data dir bands_nm/myprefix.save/

     General routines

     Parallel routines

     PAW routines

   This run was terminated on:  21:18:22  15Jul2023

   JOB DONE.