     Program PWSCF v.7.1 starts on 14Jul2023 at  2:42:23

     Reading input from espresso_17509.pwi
Warning: card &CELL ignored
Warning: card / ignored

     Current dimensions of program PWSCF are:
     Max number of different atomic species (ntypx) = 10
     Max number of k-points (npk) =  40000
     Max angular momentum in pseudopotentials (lmaxx) =  4
     file Al.pbe-n-kjpaw_psl.1.0.0.UPF: wavefunction(s)  3S 3P renormalized
     Message from routine setup:
     using ibrav=0 with symmetry is DISCOURAGED, use correct ibrav instead

     K-points division:     npool     =       2
     R & G space division:  proc/nbgrp/npool/nimage =       4
     Subspace diagonalization in iterative solution of the eigenvalue problem:
     a serial algorithm will be used

     Using Slab Decomposition

     bravais-lattice index     =            0
     lattice parameter (alat)  =      11.9335  a.u.
     unit-cell volume          =    1278.8807 (a.u.)^3
     number of atoms/cell      =            8
     number of atomic types    =            3
     number of electrons       =        48.00
     number of Kohn-Sham states=           64
     kinetic-energy cutoff     =      30.0000  Ry
     charge density cutoff     =     240.0000  Ry
     scf convergence threshold =      1.0E-06
     mixing beta               =       0.7000
     number of iterations used =            8  plain     mixing
     Exchange-correlation= SLA  PW   PBE  PBE
                           (   1   4   3   4   0   0   0)

     celldm(1)=  11.933459  celldm(2)=   0.000000  celldm(3)=   0.000000
     celldm(4)=   0.000000  celldm(5)=   0.000000  celldm(6)=   0.000000

     crystal axes: (cart. coord. in units of alat)
               a(1) = (   1.000000   0.000000   0.000000 )
               a(2) = (  -0.489443   0.872035   0.000000 )
               a(3) = (  -0.255279  -0.436018   0.862972 )

     reciprocal axes: (cart. coord. in units 2 pi/alat)
               b(1) = (  1.000000  0.561265  0.579393 )
               b(2) = (  0.000000  1.146742  0.579393 )
               b(3) = (  0.000000  0.000000  1.158786 )

     PseudoPot. # 1 for Na read from file:
     /lustre07/scratch/pragov/crystal_structure_design/utils/SSSP/na_pbe_v1.5.uspp.F.UPF
     MD5 check sum: 44600605ef58000f06b90626533354dc
     Pseudo is Ultrasoft, Zval =  9.0
     Generated by new atomic code, or converted to UPF format
     Using radial grid of  819 points,  5 beta functions with:
                l(1) =   0
                l(2) =   0
                l(3) =   1
                l(4) =   1
                l(5) =   2
     Q(r) pseudized with  8 coefficients,  rinner =    1.250   1.250   1.250
                                                       1.250   1.250

     PseudoPot. # 2 for Al read from file:
     /lustre07/scratch/pragov/crystal_structure_design/utils/SSSP/Al.pbe-n-kjpaw_psl.1.0.0.UPF
     MD5 check sum: cfc449ca30b5f3223ec38ddd88ac046d
     Pseudo is Projector augmented-wave + core cor, Zval =  3.0
     Generated using "atomic" code by A. Dal Corso  v.5.1
     Shape of augmentation charge: PSQ
     Using radial grid of 1135 points,  6 beta functions with:
                l(1) =   0
                l(2) =   0
                l(3) =   1
                l(4) =   1
                l(5) =   2
                l(6) =   2
     Q(r) pseudized with 0 coefficients

     PseudoPot. # 3 for Se read from file:
     /lustre07/scratch/pragov/crystal_structure_design/utils/SSSP/Se_pbe_v1.uspp.F.UPF
     MD5 check sum: 1b3568f3a8ae88f9a2a0ad0698632c85
     Pseudo is Ultrasoft + core correction, Zval =  6.0
     Generated by new atomic code, or converted to UPF format
     Using radial grid of  877 points,  6 beta functions with:
                l(1) =   0
                l(2) =   0
                l(3) =   1
                l(4) =   1
                l(5) =   2
                l(6) =   2
     Q(r) pseudized with  8 coefficients,  rinner =    1.300   1.300   1.300
                                                       1.300   1.300

     atomic species   valence    mass     pseudopotential
        Na             9.00    22.98977     Na( 1.00)
        Al             3.00    26.98154     Al( 1.00)
        Se             6.00    78.97100     Se( 1.00)

      4 Sym. Ops., with inversion, found ( 2 have fractional translation)

                                    s                        frac. trans.

      isym =  1     identity

 cryst.   s( 1) = (     1          0          0      )
                  (     0          1          0      )
                  (     0          0          1      )

 cart.    s( 1) = (  1.0000000  0.0000000  0.0000000 )
                  (  0.0000000  1.0000000  0.0000000 )
                  (  0.0000000  0.0000000  1.0000000 )

      isym =  2     180 deg rotation - cart. axis [0,0,1]

 cryst.   s( 2) = (    -1          0          0      )    f =( -0.5000000 )
                  (     0         -1          0      )       (  0.5000000 )
                  (     1          1          1      )       (  0.0000000 )

 cart.    s( 2) = ( -1.0000000  0.0000000  0.0000000 )    f =( -0.7447214 )
                  (  0.0000000 -1.0000000  0.0000000 )       (  0.4360177 )
                  (  0.0000000  0.0000000  1.0000000 )       (  0.0000000 )

      isym =  3     inversion

 cryst.   s( 3) = (    -1          0          0      )
                  (     0         -1          0      )
                  (     0          0         -1      )

 cart.    s( 3) = ( -1.0000000  0.0000000  0.0000000 )
                  (  0.0000000 -1.0000000 -0.0000000 )
                  (  0.0000000  0.0000000 -1.0000000 )

      isym =  4     inv. 180 deg rotation - cart. axis [0,0,1]

 cryst.   s( 4) = (     1          0          0      )    f =(  0.5000000 )
                  (     0          1          0      )       (  0.5000000 )
                  (    -1         -1         -1      )       (  0.0000000 )

 cart.    s( 4) = (  1.0000000  0.0000000 -0.0000000 )    f =(  0.2552786 )
                  (  0.0000000  1.0000000 -0.0000000 )       (  0.4360177 )
                  (  0.0000000  0.0000000 -1.0000000 )       (  0.0000000 )

   Cartesian axes

     site n.     atom                  positions (alat units)
         1           Na  tau(   1) = (   0.3829179   0.6540266   0.0000000  )
         2           Na  tau(   2) = (   0.1276393   0.2180089   0.0000000  )
         3           Al  tau(   3) = (  -0.2447214   0.4360177   0.4314862  )
         4           Al  tau(   4) = (   0.5000000   0.0000000   0.4314862  )
         5           Se  tau(   5) = (  -0.1213241   0.0710325   0.4314862  )
         6           Se  tau(   6) = (   0.3723607  -0.2180089   0.7223839  )
         7           Se  tau(   7) = (  -0.1170821   0.6540266   0.1405886  )
         8           Se  tau(   8) = (   0.3766027   0.3649852   0.4314862  )

   Crystallographic axes

     site n.     atom                  positions (cryst. coord.)
         1           Na  tau(   1) = (  0.7500000  0.7500000  0.0000000  )
         2           Na  tau(   2) = (  0.2500000  0.2500000  0.0000000  )
         3           Al  tau(   3) = (  0.2500000  0.7500000  0.5000000  )
         4           Al  tau(   4) = (  0.7500000  0.2500000  0.5000000  )
         5           Se  tau(   5) = (  0.1685440  0.3314560  0.5000000  )
         6           Se  tau(   6) = (  0.6685440  0.1685440  0.8370880  )
         7           Se  tau(   7) = (  0.3314560  0.8314560  0.1629120  )
         8           Se  tau(   8) = (  0.8314560  0.6685440  0.5000000  )

     number of k points=    10
                       cart. coord. in units 2pi/alat
        k(    1) = (   0.0000000   0.0000000   0.0000000), wk =   0.0740741
        k(    2) = (   0.0000000   0.0000000   0.3862619), wk =   0.1481481
        k(    3) = (   0.0000000   0.3822475   0.1931309), wk =   0.2962963
        k(    4) = (   0.0000000   0.3822475   0.5793928), wk =   0.1481481
        k(    5) = (   0.3333333   0.1870883   0.1931309), wk =   0.2962963
        k(    6) = (   0.3333333   0.1870883   0.5793928), wk =   0.1481481
        k(    7) = (   0.3333333   0.5693358   0.3862619), wk =   0.2962963
        k(    8) = (   0.3333333   0.5693358  -0.0000000), wk =   0.1481481
        k(    9) = (   0.3333333  -0.1951592  -0.0000000), wk =   0.1481481
        k(   10) = (   0.3333333  -0.1951592   0.3862619), wk =   0.2962963

                       cryst. coord.
        k(    1) = (   0.0000000   0.0000000   0.0000000), wk =   0.0740741
        k(    2) = (   0.0000000   0.0000000   0.3333333), wk =   0.1481481
        k(    3) = (   0.0000000   0.3333333   0.0000000), wk =   0.2962963
        k(    4) = (   0.0000000   0.3333333   0.3333333), wk =   0.1481481
        k(    5) = (   0.3333333   0.0000000  -0.0000000), wk =   0.2962963
        k(    6) = (   0.3333333   0.0000000   0.3333333), wk =   0.1481481
        k(    7) = (   0.3333333   0.3333333   0.0000000), wk =   0.2962963
        k(    8) = (   0.3333333   0.3333333  -0.3333333), wk =   0.1481481
        k(    9) = (   0.3333333  -0.3333333  -0.0000000), wk =   0.1481481
        k(   10) = (   0.3333333  -0.3333333   0.3333333), wk =   0.2962963

     Initial potential from superposition of free atoms

     starting charge      47.9826, renormalised to      48.0000
     Starting wfcs are   34 randomized atomic wfcs +   30 random wfcs
     Checking if some PAW data can be deallocated...

     Self-consistent Calculation

     iteration #  1     ecut=    30.00 Ry     beta= 0.70
     Davidson diagonalization with overlap

     ethr =  1.00E-02,  avg # of iterations =  7.6

     Threshold (ethr) on eigenvalues was too large:
     Diagonalizing with lowered threshold

     Davidson diagonalization with overlap

[...]

     total energy              =    -444.63847716 Ry
     estimated scf accuracy    <       0.21766828 Ry

[...]

     total energy              =    -444.68895685 Ry
     estimated scf accuracy    <       0.00000229 Ry

     iteration #  6     ecut=    30.00 Ry     beta= 0.70
     Davidson diagonalization with overlap

     ethr =  4.78E-09,  avg # of iterations =  8.4

     End of self-consistent calculation

          k = 0.0000 0.0000 0.0000 (  3563 PWs)   bands (ev):

   -47.6249 -47.6202 -19.6029 -19.5159 -19.5122 -19.5122 -19.5030 -19.5030
    -8.7908  -7.7229  -7.3503  -7.3501  -0.3445  -0.1555   0.1058   0.9630
     0.9631   1.3181   1.3181   2.6887   3.4811   3.5730   3.7440   3.7441
     6.1768   7.8610   8.6067   8.9992   8.9992   9.1304  11.0807  11.0808
    11.3065  11.9011  11.9268  12.1281  12.1445  12.1445  12.3548  12.5039
    12.5040  12.5708  15.0687  15.0688  15.1927  15.4950  15.5583  15.5584
    16.0196  16.4700  16.8007  16.8178  17.0820  17.0821  17.8186  19.7090
    19.7091  19.8351  19.8352  20.0608  20.4194  20.6330  21.0534  21.4402

     occupation numbers
     1.0000   1.0000   1.0000   1.0000   1.0000   1.0000   1.0000   1.0000
     1.0000   1.0000   1.0000   1.0000   1.0000   1.0000   1.0000   1.0000
     1.0000   1.0000   1.0000   1.0000   1.0000   1.0000   1.0000   1.0000
     0.0000   0.0000   0.0000   0.0000   0.0000   0.0000   0.0000   0.0000
     0.0000   0.0000   0.0000   0.0000   0.0000   0.0000   0.0000   0.0000
     0.0000   0.0000   0.0000   0.0000   0.0000   0.0000   0.0000   0.0000
     0.0000   0.0000   0.0000   0.0000   0.0000   0.0000   0.0000   0.0000
     0.0000   0.0000   0.0000   0.0000   0.0000   0.0000   0.0000   0.0000

[...]

          k = 0.3333-0.1952 0.3863 (  3573 PWs)   bands (ev):

   -47.6254 -47.6202 -19.6026 -19.5194 -19.5140 -19.5135 -19.5026 -19.5021
    -8.3908  -7.7863  -7.6113  -7.5856  -1.0713  -0.5545   0.9261   1.3020
     1.6089   2.0706   2.5168   2.6077   2.8526   2.8642   2.9863   3.6915
     7.4965   8.1372   8.2278   8.7223   8.7322   9.4481   9.7988   9.9089
    10.5470  10.5666  10.6064  10.8242  11.8603  12.4207  12.9290  13.3311
    13.4586  13.5402  14.4392  14.6685  15.0487  15.6878  15.7165  16.1846
    16.3897  16.8605  17.3100  17.6020  18.1194  18.5752  18.7817  19.2331
    19.4544  19.6019  19.9241  20.5193  21.0120  21.5633  21.6548  21.7376

     occupation numbers
     1.0000   1.0000   1.0000   1.0000   1.0000   1.0000   1.0000   1.0000
     1.0000   1.0000   1.0000   1.0000   1.0000   1.0000   1.0000   1.0000
     1.0000   1.0000   1.0000   1.0000   1.0000   1.0000   1.0000   1.0000
     0.0000   0.0000   0.0000   0.0000   0.0000   0.0000   0.0000   0.0000
     0.0000   0.0000   0.0000   0.0000   0.0000   0.0000   0.0000   0.0000
     0.0000   0.0000   0.0000   0.0000   0.0000   0.0000   0.0000   0.0000
     0.0000   0.0000   0.0000   0.0000   0.0000   0.0000   0.0000   0.0000
     0.0000   0.0000   0.0000   0.0000   0.0000   0.0000   0.0000   0.0000

     highest occupied, lowest unoccupied level (ev):     3.9468    6.1768

!    total energy              =    -444.68900338 Ry
     estimated scf accuracy    <       0.00000015 Ry

     The total energy is the sum of the following terms:
     one-electron contribution =    -158.12575836 Ry
     hartree contribution      =      96.43842060 Ry
     xc contribution           =    -152.88912676 Ry
     ewald contribution        =    -160.77671637 Ry
     one-center paw contrib.   =     -69.33582250 Ry
      -> PAW hartree energy AE =       0.00000000 Ry
      -> PAW hartree energy PS =       0.00000000 Ry
      -> PAW xc energy AE      =       0.00000000 Ry
      -> PAW xc energy PS      =       0.00000000 Ry
      -> total E_H with PAW    =      96.43842060 Ry
      -> total E_XC with PAW   =    -152.88912676 Ry

     convergence has been achieved in   6 iterations

     Writing all to output data dir bands_nm/myprefix.save/

     General routines

     Parallel routines

     PAW routines

   This run was terminated on:   2:42:39  14Jul2023

   JOB DONE.