     Program PWSCF v.7.0 starts on  6Jun2023 at 21:43:39

     K-points division:     npool     =       2
     R & G space division:  proc/nbgrp/npool/nimage =       4

     Reading input from espresso_503.pwi
Warning: card &CELL ignored
Warning: card / ignored

     Current dimensions of program PWSCF are:
     Max number of different atomic species (ntypx) = 10
     Max number of k-points (npk) =  40000
     Max angular momentum in pseudopotentials (lmaxx) =  4
     file Pb.pbe-dn-kjpaw_psl.0.2.2.UPF: wavefunction(s)  6S renormalized
     file O.pbe-n-kjpaw_psl.0.1.UPF: wavefunction(s)  2P renormalized
     Message from routine setup:
     using ibrav=0 with symmetry is DISCOURAGED, use correct ibrav instead

     Using Slab Decomposition

     bravais-lattice index     =            0
     lattice parameter (alat)  =      11.7167  a.u.
     unit-cell volume          =     971.7929 (a.u.)^3
     number of atoms/cell      =           15
     number of atomic types    =            3
     number of electrons       =        74.00
     number of Kohn-Sham states=           64
     kinetic-energy cutoff     =      30.0000  Ry
     charge density cutoff     =     240.0000  Ry
     scf convergence threshold =      1.0E-06
     mixing beta               =       0.7000
     number of iterations used =            8  plain     mixing
     Exchange-correlation= SLA  PW   PBX  PBC
                           (   1   4   3   4   0   0   0)

     celldm(1)=  11.716721  celldm(2)=   0.000000  celldm(3)=   0.000000
     celldm(4)=   0.000000  celldm(5)=   0.000000  celldm(6)=   0.000000

     crystal axes: (cart. coord. in units of alat)
               a(1) = (   1.000000   0.000000   0.000000 )
               a(2) = (   0.590994   0.806676   0.000000 )
               a(3) = (   0.590994   0.299650   0.748956 )

     reciprocal axes: (cart. coord. in units 2 pi/alat)
               b(1) = (  1.000000 -0.732630 -0.495973 )
               b(2) = (  0.000000  1.239656 -0.495973 )
               b(3) = (  0.000000  0.000000  1.335191 )

     PseudoPot. # 1 for Li read from file:
     /home/pragov/projects/rrg-bengioy-ad/pragov/crystal_structure_design/SSSP/li_pbe_v1.4.uspp.F.UPF
     MD5 check sum: e912e257baa3777c20ea3d68f190483c
     Pseudo is Ultrasoft, Zval =  3.0
     Generated by new atomic code, or converted to UPF format
     Using radial grid of  751 points,  5 beta functions with:
                l(1) =   0
                l(2) =   0
                l(3) =   0
                l(4) =   1
                l(5) =   1
     Q(r) pseudized with 10 coefficients,  rinner =    1.150   1.150   1.150

     PseudoPot. # 2 for Pb read from file:
     /home/pragov/projects/rrg-bengioy-ad/pragov/crystal_structure_design/SSSP/Pb.pbe-dn-kjpaw_psl.0.2.2.UPF
     MD5 check sum: 9d431e6316058b74ade52399a6cf67da
     Pseudo is Projector augmented-wave + core cor, Zval = 14.0
     Generated using "atomic" code by A. Dal Corso  v.5.0.99 svn rev. 10869
     Shape of augmentation charge: PSQ
     Using radial grid of 1281 points,  6 beta functions with:
                l(1) =   0
                l(2) =   0
                l(3) =   1
                l(4) =   1
                l(5) =   2
                l(6) =   2
     Q(r) pseudized with 0 coefficients

     PseudoPot. # 3 for O  read from file:
     /home/pragov/projects/rrg-bengioy-ad/pragov/crystal_structure_design/SSSP/O.pbe-n-kjpaw_psl.0.1.UPF
     MD5 check sum: 0234752ac141de4415c5fc33072bef88
     Pseudo is Projector augmented-wave + core cor, Zval =  6.0
     Generated using "atomic" code by A. Dal Corso  v.5.0.99 svn rev. 10869
     Shape of augmentation charge: BESSEL
     Using radial grid of 1095 points,  4 beta functions with:
                l(1) =   0
                l(2) =   0
                l(3) =   1
                l(4) =   1
     Q(r) pseudized with 0 coefficients

     atomic species   valence    mass     pseudopotential
        Li             3.00     6.94000     Li( 1.00)
        Pb            14.00   207.20000     Pb( 1.00)
        O              6.00    15.99900     O ( 1.00)

      2 Sym. Ops., with inversion, found

                                    s                        frac. trans.

      isym =  1     identity

 cryst.   s( 1) = (     1          0          0      )
                  (     0          1          0      )
                  (     0          0          1      )

 cart.    s( 1) = (  1.0000000 -0.0000000 -0.0000000 )
                  (  0.0000000  1.0000000 -0.0000000 )
                  (  0.0000000  0.0000000  1.0000000 )

      isym =  2     inversion

 cryst.   s( 2) = (    -1          0          0      )
                  (     0         -1          0      )
                  (     0          0         -1      )

 cart.    s( 2) = ( -1.0000000  0.0000000  0.0000000 )
                  (  0.0000000 -1.0000000  0.0000000 )
                  (  0.0000000  0.0000000 -1.0000000 )

   Cartesian axes

     site n.     atom                  positions (alat units)
         1           Li  tau(   1) = (   0.7543005   0.3824500   0.2589098  )
         2           Li  tau(   2) = (   0.8477473   0.6261591   0.5769197  )
         3           Li  tau(   3) = (   1.0061213   0.6522049   0.0770437  )
         4           Li  tau(   4) = (   1.1207299   0.2298349   0.3670523  )
         5           Li  tau(   5) = (   1.3342416   0.4801661   0.1720368  )
         6           Li  tau(   6) = (   1.1758676   0.4541202   0.6719128  )
         7           Li  tau(   7) = (   1.4276884   0.7238752   0.4900467  )
         8           Li  tau(   8) = (   1.0612590   0.8764903   0.3819041  )
         9           Pb  tau(   9) = (   0.0000000   0.0000000   0.0000000  )
        10           O   tau(  10) = (   1.4029417   0.3752123   0.4526154  )
        11           O   tau(  11) = (   0.9014368   0.3053309   0.5687208  )
        12           O   tau(  12) = (   0.7790472   0.7311129   0.2963411  )
        13           O   tau(  13) = (   1.1318054   0.7582495   0.6767309  )
        14           O   tau(  14) = (   1.2805521   0.8009942   0.1802356  )
        15           O   tau(  15) = (   1.0501835   0.3480757   0.0722256  )

   Crystallographic axes

     site n.     atom                  positions (cryst. coord.)
         1           Li  tau(   1) = (  0.3456940  0.3456940  0.3456940  )
         2           Li  tau(   2) = (  0.1028680  0.4900850  0.7702980  )
         3           Li  tau(   3) = (  0.4900850  0.7702980  0.1028680  )
         4           Li  tau(   4) = (  0.7702980  0.1028680  0.4900850  )
         5           Li  tau(   5) = (  0.8971320  0.5099150  0.2297020  )
         6           Li  tau(   6) = (  0.5099150  0.2297020  0.8971320  )
         7           Li  tau(   7) = (  0.6543060  0.6543060  0.6543060  )
         8           Li  tau(   8) = (  0.2297020  0.8971320  0.5099150  )
         9           Pb  tau(   9) = (  0.0000000  0.0000000  0.0000000  )
        10           O   tau(  10) = (  0.9035650  0.2406490  0.6043280  )
        11           O   tau(  11) = (  0.3956720  0.0964350  0.7593510  )
        12           O   tau(  12) = (  0.0964350  0.7593510  0.3956720  )
        13           O   tau(  13) = (  0.2406490  0.6043280  0.9035650  )
        14           O   tau(  14) = (  0.6043280  0.9035650  0.2406490  )
        15           O   tau(  15) = (  0.7593510  0.3956720  0.0964350  )

     number of k points=    14
                       cart. coord. in units 2pi/alat
        k(    1) = (   0.0000000   0.0000000   0.0000000), wk =   0.0740741
        k(    2) = (   0.0000000   0.0000000   0.4450637), wk =   0.1481481
        k(    3) = (   0.0000000   0.4132186  -0.1653244), wk =   0.1481481
        k(    4) = (   0.0000000   0.4132186   0.2797393), wk =   0.1481481
        k(    5) = (   0.0000000   0.4132186  -0.6103881), wk =   0.1481481
        k(    6) = (   0.3333333  -0.2442099  -0.1653244), wk =   0.1481481
        k(    7) = (   0.3333333  -0.2442099   0.2797393), wk =   0.1481481
        k(    8) = (   0.3333333  -0.2442099  -0.6103881), wk =   0.1481481
        k(    9) = (   0.3333333   0.1690087  -0.3306487), wk =   0.1481481
        k(   10) = (   0.3333333   0.1690087   0.1144150), wk =   0.1481481
        k(   11) = (   0.3333333   0.1690087  -0.7757124), wk =   0.1481481
        k(   12) = (   0.3333333  -0.6574285  -0.0000000), wk =   0.1481481
        k(   13) = (   0.3333333  -0.6574285   0.4450637), wk =   0.1481481
        k(   14) = (   0.3333333  -0.6574285  -0.4450637), wk =   0.1481481

                       cryst. coord.
        k(    1) = (   0.0000000   0.0000000   0.0000000), wk =   0.0740741
        k(    2) = (   0.0000000   0.0000000   0.3333333), wk =   0.1481481
        k(    3) = (   0.0000000   0.3333333   0.0000000), wk =   0.1481481
        k(    4) = (   0.0000000   0.3333333   0.3333333), wk =   0.1481481
        k(    5) = (   0.0000000   0.3333333  -0.3333333), wk =   0.1481481
        k(    6) = (   0.3333333  -0.0000000  -0.0000000), wk =   0.1481481
        k(    7) = (   0.3333333  -0.0000000   0.3333333), wk =   0.1481481
        k(    8) = (   0.3333333  -0.0000000  -0.3333333), wk =   0.1481481
        k(    9) = (   0.3333333   0.3333333  -0.0000000), wk =   0.1481481
        k(   10) = (   0.3333333   0.3333333   0.3333333), wk =   0.1481481
        k(   11) = (   0.3333333   0.3333333  -0.3333333), wk =   0.1481481
        k(   12) = (   0.3333333  -0.3333333  -0.0000000), wk =   0.1481481
        k(   13) = (   0.3333333  -0.3333333   0.3333333), wk =   0.1481481
        k(   14) = (   0.3333333  -0.3333333  -0.3333333), wk =   0.1481481

     Check: negative core charge=   -0.000012

     Initial potential from superposition of free atoms

     starting charge      70.3917, renormalised to      74.0000
     Starting wfcs are   73 randomized atomic wfcs
     Checking if some PAW data can be deallocated...

     Self-consistent Calculation

     iteration #  1     ecut=    30.00 Ry     beta= 0.70
     Davidson diagonalization with overlap

     ethr =  1.00E-02,  avg # of iterations =  6.1

     negative rho (up, down):  2.572E-04 0.000E+00

     total energy              =   -1235.96766004 Ry
     estimated scf accuracy    <       2.26864108 Ry

[...]

     total energy              =   -1236.94322753 Ry
     estimated scf accuracy    <       0.00010536 Ry

     iteration #  8     ecut=    30.00 Ry     beta= 0.70
     Davidson diagonalization with overlap

     ethr =  1.42E-07,  avg # of iterations =  3.8

     End of self-consistent calculation

          k = 0.0000 0.0000 0.0000 (  2687 PWs)   bands (ev):

   -39.0968 -39.0912 -38.4780 -38.4009 -38.4008 -38.3980 -38.3979 -38.3489
   -12.3442 -12.3439 -12.1799 -11.4633 -11.3855 -11.3851 -10.6532 -10.6531
   -10.6093  -9.4755  -9.4752  -2.3436   1.1068   1.4843   1.4845   1.8198
     2.4872   2.5352   2.5352   2.5760   3.6528   3.6528   3.8243   3.8245
     4.0274   4.0275   4.0725   4.1110   4.1111   6.4985  11.1521  11.4141
    11.8498  11.8499  12.5224  12.9125  13.2062  13.2062  14.4378  15.6060
    16.7065  16.7445  16.7445  17.0731  17.0733  17.3545  17.4722  17.4724
    19.1489  19.1628  19.1629  20.8447  20.8449  20.9019  21.0234  21.0235

     occupation numbers
     1.0000   1.0000   1.0000   1.0000   1.0000   1.0000   1.0000   1.0000
     1.0000   1.0000   1.0000   1.0000   1.0000   1.0000   1.0000   1.0000
     1.0000   1.0000   1.0000   1.0000   1.0000   1.0000   1.0000   1.0000
     1.0000   1.0000   1.0000   1.0000   1.0000   1.0000   1.0000   1.0000
     1.0000   1.0000   1.0000   1.0000   1.0000   0.0000   0.0000   0.0000
     0.0000   0.0000   0.0000   0.0000   0.0000   0.0000   0.0000   0.0000
     0.0000   0.0000   0.0000   0.0000   0.0000   0.0000   0.0000   0.0000
     0.0000   0.0000   0.0000   0.0000   0.0000   0.0000   0.0000   0.0000

[...]

          k = 0.3333-0.6574-0.4451 (  2696 PWs)   bands (ev):

   -39.0959 -39.0925 -38.4650 -38.4318 -38.4196 -38.3824 -38.3737 -38.3544
   -12.3496 -12.3342 -12.0305 -11.5232 -11.4867 -11.4196 -10.6523 -10.6507
   -10.6059  -9.4979  -9.4757  -2.1800   1.1367   1.5417   1.6811   2.2450
     2.4252   2.7267   2.7959   3.0411   3.1612   3.4018   3.4979   3.5719
     3.6547   3.7297   3.8458   3.8794   4.0599   7.3464  10.8202  11.0574
    11.3428  12.3120  12.9339  13.1044  13.7300  14.0683  14.7738  14.8658
    15.5428  15.8773  16.8618  16.9424  17.1062  17.3231  17.6156  17.9289
    18.0542  18.4498  18.8991  19.2562  19.7755  21.2104  21.3459  21.7505

     occupation numbers
     1.0000   1.0000   1.0000   1.0000   1.0000   1.0000   1.0000   1.0000
     1.0000   1.0000   1.0000   1.0000   1.0000   1.0000   1.0000   1.0000
     1.0000   1.0000   1.0000   1.0000   1.0000   1.0000   1.0000   1.0000
     1.0000   1.0000   1.0000   1.0000   1.0000   1.0000   1.0000   1.0000
     1.0000   1.0000   1.0000   1.0000   1.0000   0.0000   0.0000   0.0000
     0.0000   0.0000   0.0000   0.0000   0.0000   0.0000   0.0000   0.0000
     0.0000   0.0000   0.0000   0.0000   0.0000   0.0000   0.0000   0.0000
     0.0000   0.0000   0.0000   0.0000   0.0000   0.0000   0.0000   0.0000

     highest occupied, lowest unoccupied level (ev):     4.2042    6.4985

!    total energy              =   -1236.94325482 Ry
     estimated scf accuracy    <       0.00000078 Ry

     The total energy is the sum of the following terms:
     one-electron contribution =    -157.78437262 Ry
     hartree contribution      =     110.88375236 Ry
     xc contribution           =    -117.24918079 Ry
     ewald contribution        =    -287.13170501 Ry
     one-center paw contrib.   =    -785.66174876 Ry
      -> PAW hartree energy AE =       0.00000000 Ry
      -> PAW hartree energy PS =       0.00000000 Ry
      -> PAW xc energy AE      =       0.00000000 Ry
      -> PAW xc energy PS      =       0.00000000 Ry
      -> total E_H with PAW    =     110.88375236 Ry
      -> total E_XC with PAW   =    -117.24918079 Ry

     convergence has been achieved in   8 iterations

     Writing all to output data dir calculations_bands/myprefix.save/

     General routines

     Parallel routines

     PAW routines

   This run was terminated on:  21:43:55   6Jun2023

   JOB DONE.