     Program PWSCF v.7.1 starts on 16Jul2023 at 15:21:26

     Reading input from espresso_24580.pwi
Warning: card &CELL ignored
Warning: card / ignored

     Current dimensions of program PWSCF are:
     Max number of different atomic species (ntypx) = 10
     Max number of k-points (npk) =  40000
     Max angular momentum in pseudopotentials (lmaxx) =  4
     file Fe.pbe-spn-kjpaw_psl.0.2.1.UPF: wavefunction(s)  3D renormalized
     file O.pbe-n-kjpaw_psl.0.1.UPF: wavefunction(s)  2P renormalized
     Message from routine setup:
     using ibrav=0 with symmetry is DISCOURAGED, use correct ibrav instead

     K-points division:     npool     =       2
     R & G space division:  proc/nbgrp/npool/nimage =       4
     Subspace diagonalization in iterative solution of the eigenvalue problem:
     a serial algorithm will be used

     Using Slab Decomposition

     bravais-lattice index     =            0
     lattice parameter (alat)  =      10.4380  a.u.
     unit-cell volume          =    1341.9650 (a.u.)^3
     number of atoms/cell      =           14
     number of atomic types    =            3
     number of electrons       =       116.00
     number of Kohn-Sham states=           64
     kinetic-energy cutoff     =      30.0000  Ry
     charge density cutoff     =     240.0000  Ry
     scf convergence threshold =      1.0E-06
     mixing beta               =       0.7000
     number of iterations used =            8  plain     mixing
     Exchange-correlation= SLA  PW   PBX  PBC
                           (   1   4   3   4   0   0   0)

     celldm(1)=  10.438044  celldm(2)=   0.000000  celldm(3)=   0.000000
     celldm(4)=   0.000000  celldm(5)=   0.000000  celldm(6)=   0.000000

     crystal axes: (cart. coord. in units of alat)
               a(1) = (   1.000000   0.000000   0.000000 )
               a(2) = (  -0.431472   0.902126   0.000000 )
               a(3) = (   0.000000   0.000000   1.308026 )

     reciprocal axes: (cart. coord. in units 2 pi/alat)
               b(1) = (  1.000000  0.478283  0.000000 )
               b(2) = (  0.000000  1.108492  0.000000 )
               b(3) = (  0.000000  0.000000  0.764511 )

     PseudoPot. # 1 for Na read from file:
     /lustre07/scratch/pragov/crystal_structure_design/utils/SSSP/na_pbe_v1.5.uspp.F.UPF
     MD5 check sum: 44600605ef58000f06b90626533354dc
     Pseudo is Ultrasoft, Zval =  9.0
     Generated by new atomic code, or converted to UPF format
     Using radial grid of  819 points,  5 beta functions with:
                l(1) =   0
                l(2) =   0
                l(3) =   1
                l(4) =   1
                l(5) =   2
     Q(r) pseudized with  8 coefficients,  rinner =    1.250   1.250   1.250
                                                       1.250   1.250

     PseudoPot. # 2 for Fe read from file:
     /lustre07/scratch/pragov/crystal_structure_design/utils/SSSP/Fe.pbe-spn-kjpaw_psl.0.2.1.UPF
     MD5 check sum: e86618425769142926afa95317d90200
     Pseudo is Projector augmented-wave + core cor, Zval = 16.0
     Generated using "atomic" code by A. Dal Corso  v.5.0.99 svn rev. 10869
     Shape of augmentation charge: PSQ
     Using radial grid of 1191 points,  6 beta functions with:
                l(1) =   0
                l(2) =   0
                l(3) =   1
                l(4) =   1
                l(5) =   2
                l(6) =   2
     Q(r) pseudized with 0 coefficients

     PseudoPot. # 3 for O  read from file:
     /lustre07/scratch/pragov/crystal_structure_design/utils/SSSP/O.pbe-n-kjpaw_psl.0.1.UPF
     MD5 check sum: 0234752ac141de4415c5fc33072bef88
     Pseudo is Projector augmented-wave + core cor, Zval =  6.0
     Generated using "atomic" code by A. Dal Corso  v.5.0.99 svn rev. 10869
     Shape of augmentation charge: BESSEL
     Using radial grid of 1095 points,  4 beta functions with:
                l(1) =   0
                l(2) =   0
                l(3) =   1
                l(4) =   1
     Q(r) pseudized with 0 coefficients

     atomic species   valence    mass     pseudopotential
        Na             9.00    22.98977     Na( 1.00)
        Fe            16.00    55.84500     Fe( 1.00)
        O              6.00    15.99900     O ( 1.00)

      4 Sym. Ops., with inversion, found ( 2 have fractional translation)

                                    s                        frac. trans.

      isym =  1     identity

 cryst.   s( 1) = (     1          0          0      )
                  (     0          1          0      )
                  (     0          0          1      )

 cart.    s( 1) = (  1.0000000 -0.0000000  0.0000000 )
                  (  0.0000000  1.0000000  0.0000000 )
                  (  0.0000000  0.0000000  1.0000000 )

      isym =  2     180 deg rotation - cart. axis [0,0,1]

 cryst.   s( 2) = (    -1          0          0      )    f =(  0.0000000 )
                  (     0         -1          0      )       (  0.0000000 )
                  (     0          0          1      )       (  0.5000000 )

 cart.    s( 2) = ( -1.0000000  0.0000000  0.0000000 )    f =(  0.0000000 )
                  (  0.0000000 -1.0000000  0.0000000 )       (  0.0000000 )
                  (  0.0000000  0.0000000  1.0000000 )       (  0.6540131 )

      isym =  3     inversion

 cryst.   s( 3) = (    -1          0          0      )
                  (     0         -1          0      )
                  (     0          0         -1      )

 cart.    s( 3) = ( -1.0000000  0.0000000  0.0000000 )
                  (  0.0000000 -1.0000000  0.0000000 )
                  (  0.0000000  0.0000000 -1.0000000 )

      isym =  4     inv. 180 deg rotation - cart. axis [0,0,1]

 cryst.   s( 4) = (     1          0          0      )    f =(  0.0000000 )
                  (     0          1          0      )       (  0.0000000 )
                  (     0          0         -1      )       ( -0.5000000 )

 cart.    s( 4) = (  1.0000000 -0.0000000  0.0000000 )    f =(  0.0000000 )
                  (  0.0000000  1.0000000  0.0000000 )       (  0.0000000 )
                  (  0.0000000  0.0000000 -1.0000000 )       ( -0.6540131 )

   Cartesian axes

     site n.     atom                  positions (alat units)
         1           Na  tau(   1) = (   0.2842641   0.4510632   0.0000000  )
         2           Na  tau(   2) = (   0.2842641   0.4510632   0.6540131  )
         3           Na  tau(   3) = (   0.7402509   0.1636962   0.3270066  )
         4           Na  tau(   4) = (  -0.1717226   0.7384301   0.9810197  )
         5           Fe  tau(   5) = (   0.7894033   0.1327199   0.9810197  )
         6           Fe  tau(   6) = (  -0.2208751   0.7694064   0.3270066  )
         7           O   tau(   7) = (   0.6423697   0.2253818   1.2241647  )
         8           O   tau(   8) = (  -0.0738415   0.6767445   0.5701516  )
         9           O   tau(   9) = (  -0.0738415   0.6767445   0.0838615  )
        10           O   tau(  10) = (   0.6423697   0.2253818   0.7378746  )
        11           O   tau(  11) = (   0.0704158   0.2460054   0.9810197  )
        12           O   tau(  12) = (   0.4981124   0.6561210   0.3270066  )
        13           O   tau(  13) = (   0.3769827   0.7324580   0.9810197  )
        14           O   tau(  14) = (   0.1915455   0.1696683   0.3270066  )

   Crystallographic axes

     site n.     atom                  positions (cryst. coord.)
         1           Na  tau(   1) = (  0.5000000  0.5000000  0.0000000  )
         2           Na  tau(   2) = (  0.5000000  0.5000000  0.5000000  )
         3           Na  tau(   3) = (  0.8185440  0.1814560  0.2500000  )
         4           Na  tau(   4) = (  0.1814560  0.8185440  0.7500000  )
         5           Fe  tau(   5) = (  0.8528810  0.1471190  0.7500000  )
         6           Fe  tau(   6) = (  0.1471190  0.8528810  0.2500000  )
         7           O   tau(   7) = (  0.7501660  0.2498340  0.9358870  )
         8           O   tau(   8) = (  0.2498340  0.7501660  0.4358870  )
         9           O   tau(   9) = (  0.2498340  0.7501660  0.0641130  )
        10           O   tau(  10) = (  0.7501660  0.2498340  0.5641130  )
        11           O   tau(  11) = (  0.1880760  0.2726950  0.7500000  )
        12           O   tau(  12) = (  0.8119240  0.7273050  0.2500000  )
        13           O   tau(  13) = (  0.7273050  0.8119240  0.7500000  )
        14           O   tau(  14) = (  0.2726950  0.1880760  0.2500000  )

     number of k points=    10
                       cart. coord. in units 2pi/alat
        k(    1) = (   0.0000000   0.0000000   0.0000000), wk =   0.0740741
        k(    2) = (   0.0000000   0.0000000   0.2548369), wk =   0.1481481
        k(    3) = (   0.0000000   0.3694974   0.0000000), wk =   0.1481481
        k(    4) = (   0.0000000   0.3694974   0.2548369), wk =   0.2962963
        k(    5) = (   0.3333333   0.1594277   0.0000000), wk =   0.1481481
        k(    6) = (   0.3333333   0.1594277   0.2548369), wk =   0.2962963
        k(    7) = (   0.3333333   0.5289251   0.0000000), wk =   0.1481481
        k(    8) = (   0.3333333   0.5289251   0.2548369), wk =   0.2962963
        k(    9) = (   0.3333333  -0.2100697   0.0000000), wk =   0.1481481
        k(   10) = (   0.3333333  -0.2100697   0.2548369), wk =   0.2962963

                       cryst. coord.
        k(    1) = (   0.0000000   0.0000000   0.0000000), wk =   0.0740741
        k(    2) = (   0.0000000   0.0000000   0.3333333), wk =   0.1481481
        k(    3) = (   0.0000000   0.3333333   0.0000000), wk =   0.1481481
        k(    4) = (   0.0000000   0.3333333   0.3333333), wk =   0.2962963
        k(    5) = (   0.3333333  -0.0000000   0.0000000), wk =   0.1481481
        k(    6) = (   0.3333333  -0.0000000   0.3333333), wk =   0.2962963
        k(    7) = (   0.3333333   0.3333333   0.0000000), wk =   0.1481481
        k(    8) = (   0.3333333   0.3333333   0.3333333), wk =   0.2962963
        k(    9) = (   0.3333333  -0.3333333   0.0000000), wk =   0.1481481
        k(   10) = (   0.3333333  -0.3333333   0.3333333), wk =   0.2962963

     Check: negative core charge=   -0.000080

     Initial potential from superposition of free atoms

     starting charge     115.9739, renormalised to     116.0000
     Starting wfcs are   78 randomized atomic wfcs
     Checking if some PAW data can be deallocated...

     Self-consistent Calculation

     iteration #  1     ecut=    30.00 Ry     beta= 0.70
     Davidson diagonalization with overlap

     ethr =  1.00E-02,  avg # of iterations =  2.0

     negative rho (up, down):  5.953E-04 0.000E+00

     total energy              =   -1366.41614474 Ry
     estimated scf accuracy    <       7.80416802 Ry

[...]

     negative rho (up, down):  7.077E-04 0.000E+00

[...]

     total energy              =   -1372.01454895 Ry
     estimated scf accuracy    <       0.00001285 Ry

     iteration # 12     ecut=    30.00 Ry     beta= 0.70
     Davidson diagonalization with overlap

     ethr =  1.11E-08,  avg # of iterations =  3.8

     End of self-consistent calculation

          k = 0.0000 0.0000 0.0000 (  3717 PWs)   bands (ev):

   -85.6774 -85.6761 -51.3291 -51.3281 -51.2274 -51.2068 -51.1491 -51.1355
   -46.7124 -46.7124 -46.1475 -46.1466 -18.6438 -18.6426 -18.6389 -18.6372
   -18.6112 -18.6047 -18.1091 -18.0824 -18.0798 -18.0779 -18.0589 -18.0477
   -14.4720 -14.1966 -13.8047 -13.6523 -13.6349 -13.6048 -13.5751 -13.5723
    -1.6465  -1.4908  -1.4368  -1.3715  -1.3116  -1.2833  -1.2487  -1.2142
    -1.1208  -1.0740  -0.5367  -0.2809   0.3166   0.5866   0.7763   0.9535
     1.0684   1.2384   1.8908   1.9262   1.9406   2.1053   2.3117   2.3564
     3.3331   3.5654   3.6069   4.0187   5.4702   5.5093   5.5798   5.7570

     occupation numbers
     1.0000   1.0000   1.0000   1.0000   1.0000   1.0000   1.0000   1.0000
     1.0000   1.0000   1.0000   1.0000   1.0000   1.0000   1.0000   1.0000
     1.0000   1.0000   1.0000   1.0000   1.0000   1.0000   1.0000   1.0000
     1.0000   1.0000   1.0000   1.0000   1.0000   1.0000   1.0000   1.0000
     1.0000   1.0000   1.0000   1.0000   1.0000   1.0000   1.0000   1.0000
     1.0000   1.0000   1.0000   1.0000   1.0000   1.0000   1.0000   1.0000
     1.0000   1.0000   1.0000   1.0000   1.0000   1.0000   1.0000   1.0000
     1.0000   1.0000   0.0000   0.0000   0.0000   0.0000   0.0000   0.0000

[...]

          k = 0.3333-0.2101 0.2548 (  3728 PWs)   bands (ev):

   -85.6794 -85.6767 -51.3412 -51.3292 -51.2222 -51.2158 -51.1530 -51.1430
   -46.7127 -46.7124 -46.1474 -46.1469 -18.6460 -18.6434 -18.6433 -18.6424
   -18.6116 -18.6073 -18.0940 -18.0827 -18.0817 -18.0749 -18.0643 -18.0633
   -14.3148 -14.2377 -13.7626 -13.7053 -13.6810 -13.6446 -13.5709 -13.5700
    -1.6752  -1.6161  -1.5461  -1.4918  -1.4467  -1.3667  -1.2497  -1.1878
    -1.1368  -1.0940  -0.3170  -0.2578   0.4506   0.6614   0.8113   0.8320
     1.1018   1.1847   2.0322   2.0690   2.0836   2.1247   2.2475   2.3351
     3.5144   3.5426   3.6292   3.8883   5.2900   5.3470   5.5898   5.6708

     occupation numbers
     1.0000   1.0000   1.0000   1.0000   1.0000   1.0000   1.0000   1.0000
     1.0000   1.0000   1.0000   1.0000   1.0000   1.0000   1.0000   1.0000
     1.0000   1.0000   1.0000   1.0000   1.0000   1.0000   1.0000   1.0000
     1.0000   1.0000   1.0000   1.0000   1.0000   1.0000   1.0000   1.0000
     1.0000   1.0000   1.0000   1.0000   1.0000   1.0000   1.0000   1.0000
     1.0000   1.0000   1.0000   1.0000   1.0000   1.0000   1.0000   1.0000
     1.0000   1.0000   1.0000   1.0000   1.0000   1.0000   1.0000   1.0000
     1.0000   1.0000   0.0000   0.0000   0.0000   0.0000   0.0000   0.0000

     highest occupied, lowest unoccupied level (ev):     3.6112    3.6069

!    total energy              =   -1372.01455058 Ry
     estimated scf accuracy    <       0.00000051 Ry

     The total energy is the sum of the following terms:
     one-electron contribution =    -850.72311250 Ry
     hartree contribution      =     464.31146263 Ry
     xc contribution           =    -185.36436061 Ry
     ewald contribution        =    -571.77873445 Ry
     one-center paw contrib.   =    -228.45980565 Ry
      -> PAW hartree energy AE =       0.00000000 Ry
      -> PAW hartree energy PS =       0.00000000 Ry
      -> PAW xc energy AE      =       0.00000000 Ry
      -> PAW xc energy PS      =       0.00000000 Ry
      -> total E_H with PAW    =     464.31146263 Ry
      -> total E_XC with PAW   =    -185.36436061 Ry

     convergence has been achieved in  12 iterations

     Writing all to output data dir bands_nm/myprefix.save/

     General routines

     Parallel routines

     PAW routines

   This run was terminated on:  15:21:34  16Jul2023

   JOB DONE.