     Program PWSCF v.7.1 starts on 13Jul2023 at  4: 3:55

     Reading input from espresso_12913.pwi
Warning: card &CELL ignored
Warning: card / ignored

     Current dimensions of program PWSCF are:
     Max number of different atomic species (ntypx) = 10
     Max number of k-points (npk) =  40000
     Max angular momentum in pseudopotentials (lmaxx) =  4
     file Cd.pbe-dn-rrkjus_psl.0.3.1.UPF: wavefunction(s)  4D renormalized
     Message from routine setup:
     using ibrav=0 with symmetry is DISCOURAGED, use correct ibrav instead

     K-points division:     npool     =       2
     R & G space division:  proc/nbgrp/npool/nimage =       8
     Subspace diagonalization in iterative solution of the eigenvalue problem:
     a serial algorithm will be used

     Using Slab Decomposition

     bravais-lattice index     =            0
     lattice parameter (alat)  =       7.5556  a.u.
     unit-cell volume          =    2324.9718 (a.u.)^3
     number of atoms/cell      =           14
     number of atomic types    =            3
     number of electrons       =       116.00
     number of Kohn-Sham states=           64
     kinetic-energy cutoff     =      30.0000  Ry
     charge density cutoff     =     240.0000  Ry
     scf convergence threshold =      1.0E-06
     mixing beta               =       0.7000
     number of iterations used =            8  plain     mixing
     Exchange-correlation=  SLA  PW   PBX  PBC
                           (   1   4   3   4   0   0   0)

     celldm(1)=   7.555579  celldm(2)=   0.000000  celldm(3)=   0.000000
     celldm(4)=   0.000000  celldm(5)=   0.000000  celldm(6)=   0.000000

     crystal axes: (cart. coord. in units of alat)
               a(1) = (   1.000000   0.000000   0.000000 )
               a(2) = (   0.000000   1.775157   0.000000 )
               a(3) = (   0.000000   0.000000   3.036532 )

     reciprocal axes: (cart. coord. in units 2 pi/alat)
               b(1) = (  1.000000  0.000000  0.000000 )
               b(2) = (  0.000000  0.563331  0.000000 )
               b(3) = (  0.000000  0.000000  0.329323 )

     PseudoPot. # 1 for Na read from file:
     /lustre07/scratch/pragov/crystal_structure_design/utils/SSSP/na_pbe_v1.5.uspp.F.UPF
     MD5 check sum: 44600605ef58000f06b90626533354dc
     Pseudo is Ultrasoft, Zval =  9.0
     Generated by new atomic code, or converted to UPF format
     Using radial grid of  819 points,  5 beta functions with:
                l(1) =   0
                l(2) =   0
                l(3) =   1
                l(4) =   1
                l(5) =   2
     Q(r) pseudized with  8 coefficients,  rinner =    1.250   1.250   1.250
                                                       1.250   1.250

     PseudoPot. # 2 for Cd read from file:
     /lustre07/scratch/pragov/crystal_structure_design/utils/SSSP/Cd.pbe-dn-rrkjus_psl.0.3.1.UPF
     MD5 check sum: 558e9f355611b531a870a69ef6ace9e2
     Pseudo is Ultrasoft + core correction, Zval = 12.0
     Generated using "atomic" code by A. Dal Corso  v.5.0.99 svn rev. 10869
     Using radial grid of 1239 points,  6 beta functions with:
                l(1) =   0
                l(2) =   0
                l(3) =   1
                l(4) =   1
                l(5) =   2
                l(6) =   2
     Q(r) pseudized with 0 coefficients

     PseudoPot. # 3 for Cl read from file:
     /lustre07/scratch/pragov/crystal_structure_design/utils/SSSP/cl_pbe_v1.4.uspp.F.UPF
     MD5 check sum: fc6f6913ecf08c9257cb748ef0700058
     Pseudo is Ultrasoft + core correction, Zval =  7.0
     Generated by new atomic code, or converted to UPF format
     Using radial grid of  909 points,  6 beta functions with:
                l(1) =   0
                l(2) =   0
                l(3) =   1
                l(4) =   1
                l(5) =   2
                l(6) =   2
     Q(r) pseudized with  8 coefficients,  rinner =    1.300   1.300   1.300
                                                       1.300   1.300

     atomic species   valence    mass     pseudopotential
        Na             9.00    22.98977     Na( 1.00)
        Cd            12.00   112.41400     Cd( 1.00)
        Cl             7.00    35.45000     Cl( 1.00)

      8 Sym. Ops., with inversion, found ( 4 have fractional translation)

                                    s                        frac. trans.

      isym =  1     identity

 cryst.   s( 1) = (     1          0          0      )
                  (     0          1          0      )
                  (     0          0          1      )

 cart.    s( 1) = (  1.0000000  0.0000000  0.0000000 )
                  (  0.0000000  1.0000000  0.0000000 )
                  (  0.0000000  0.0000000  1.0000000 )

      isym =  2     180 deg rotation - cart. axis [0,0,1]

 cryst.   s( 2) = (    -1          0          0      )    f =( -0.0000000 )
                  (     0         -1          0      )       (  0.5000000 )
                  (     0          0          1      )       (  0.5000000 )

 cart.    s( 2) = ( -1.0000000  0.0000000  0.0000000 )    f =( -0.0000000 )
                  (  0.0000000 -1.0000000  0.0000000 )       (  0.8875783 )
                  (  0.0000000  0.0000000  1.0000000 )       (  1.5182659 )

[...]

      isym =  4     180 deg rotation - cart. axis [1,0,0]

[...]

      isym =  5     inversion

[...]

      isym =  6     inv. 180 deg rotation - cart. axis [0,0,1]

[...]

 cryst.   s( 7) = (     1          0          0      )    f =(  0.0000000 )
                  (     0         -1          0      )       (  0.5000000 )
                  (     0          0          1      )       (  0.5000000 )

 cart.    s( 7) = (  1.0000000  0.0000000  0.0000000 )    f =(  0.0000000 )
                  (  0.0000000 -1.0000000  0.0000000 )       (  0.8875783 )
                  (  0.0000000  0.0000000  1.0000000 )       (  1.5182659 )

      isym =  8     inv. 180 deg rotation - cart. axis [1,0,0]

 cryst.   s( 8) = (    -1          0          0      )
                  (     0          1          0      )
                  (     0          0          1      )

 cart.    s( 8) = ( -1.0000000  0.0000000  0.0000000 )
                  (  0.0000000  1.0000000  0.0000000 )
                  (  0.0000000  0.0000000  1.0000000 )

   Cartesian axes

     site n.     atom                  positions (alat units)
         1           Na  tau(   1) = (   0.5000000   0.1575966   2.0795172  )
         2           Na  tau(   2) = (   0.5000000   1.6175599   0.9570146  )
         3           Na  tau(   3) = (   0.5000000   0.7299817   0.5612513  )
         4           Na  tau(   4) = (   0.5000000   1.0451749   2.4752805  )
         5           Cd  tau(   5) = (   0.0000000   0.8875783   1.5182659  )
         6           Cd  tau(   6) = (   0.0000000   0.0000000   0.0000000  )
         7           Cl  tau(   7) = (   0.5000000   1.3244088   1.6492558  )
         8           Cl  tau(   8) = (   0.5000000   0.4507478   1.3872760  )
         9           Cl  tau(   9) = (   0.0000000   0.2231709   0.6166073  )
        10           Cl  tau(  10) = (   0.0000000   1.5519857   2.4199246  )
        11           Cl  tau(  11) = (   0.0000000   1.1107492   0.9016587  )
        12           Cl  tau(  12) = (   0.0000000   0.6644074   2.1348732  )
        13           Cl  tau(  13) = (   0.5000000   0.4368305   2.9055419  )
        14           Cl  tau(  14) = (   0.5000000   1.3383260   0.1309899  )

   Crystallographic axes

     site n.     atom                  positions (cryst. coord.)
         1           Na  tau(   1) = (  0.5000000  0.0887790  0.6848330  )
         2           Na  tau(   2) = (  0.5000000  0.9112210  0.3151670  )
         3           Na  tau(   3) = (  0.5000000  0.4112210  0.1848330  )
         4           Na  tau(   4) = (  0.5000000  0.5887790  0.8151670  )
         5           Cd  tau(   5) = (  0.0000000  0.5000000  0.5000000  )
         6           Cd  tau(   6) = (  0.0000000  0.0000000  0.0000000  )
         7           Cl  tau(   7) = (  0.5000000  0.7460800  0.5431380  )
         8           Cl  tau(   8) = (  0.5000000  0.2539200  0.4568620  )
         9           Cl  tau(   9) = (  0.0000000  0.1257190  0.2030630  )
        10           Cl  tau(  10) = (  0.0000000  0.8742810  0.7969370  )
        11           Cl  tau(  11) = (  0.0000000  0.6257190  0.2969370  )
        12           Cl  tau(  12) = (  0.0000000  0.3742810  0.7030630  )
        13           Cl  tau(  13) = (  0.5000000  0.2460800  0.9568620  )
        14           Cl  tau(  14) = (  0.5000000  0.7539200  0.0431380  )

     number of k points=     8
                       cart. coord. in units 2pi/alat
        k(    1) = (   0.0000000   0.0000000   0.0000000), wk =   0.0740741
        k(    2) = (   0.0000000   0.0000000   0.1097744), wk =   0.1481481
        k(    3) = (   0.0000000   0.1877769   0.0000000), wk =   0.1481481
        k(    4) = (   0.0000000   0.1877769   0.1097744), wk =   0.2962963
        k(    5) = (   0.3333333   0.0000000   0.0000000), wk =   0.1481481
        k(    6) = (   0.3333333   0.0000000   0.1097744), wk =   0.2962963
        k(    7) = (   0.3333333   0.1877769   0.0000000), wk =   0.2962963
        k(    8) = (   0.3333333   0.1877769   0.1097744), wk =   0.5925926

                       cryst. coord.
        k(    1) = (   0.0000000   0.0000000   0.0000000), wk =   0.0740741
        k(    2) = (   0.0000000   0.0000000   0.3333333), wk =   0.1481481
        k(    3) = (   0.0000000   0.3333333   0.0000000), wk =   0.1481481
        k(    4) = (   0.0000000   0.3333333   0.3333333), wk =   0.2962963
        k(    5) = (   0.3333333   0.0000000   0.0000000), wk =   0.1481481
        k(    6) = (   0.3333333   0.0000000   0.3333333), wk =   0.2962963
        k(    7) = (   0.3333333   0.3333333   0.0000000), wk =   0.2962963
        k(    8) = (   0.3333333   0.3333333   0.3333333), wk =   0.5925926

     Check: negative core charge=   -0.000001

     Initial potential from superposition of free atoms

     starting charge     115.9650, renormalised to     116.0000

     negative rho (up, down):  1.186E-01 0.000E+00
     Starting wfcs are   70 randomized atomic wfcs

     Self-consistent Calculation

     iteration #  1     ecut=    30.00 Ry     beta= 0.70
     Davidson diagonalization with overlap

     ethr =  1.00E-02,  avg # of iterations =  3.4

     Threshold (ethr) on eigenvalues was too large:
     Diagonalizing with lowered threshold

     Davidson diagonalization with overlap

[...]

     negative rho (up, down):  1.222E-01 0.000E+00

     total energy              =    -893.53115862 Ry
     estimated scf accuracy    <       0.37671589 Ry

[...]

     total energy              =    -893.64868799 Ry
     estimated scf accuracy    <       0.00000123 Ry

     iteration #  8     ecut=    30.00 Ry     beta= 0.70
     Davidson diagonalization with overlap

     ethr =  1.06E-09,  avg # of iterations =  3.6

     negative rho (up, down):  1.180E-01 0.000E+00

     End of self-consistent calculation

          k = 0.0000 0.0000 0.0000 (  6493 PWs)   bands (ev):

   -47.7854 -47.7853 -47.7851 -47.7849 -19.6958 -19.6957 -19.6946 -19.6933
   -19.6895 -19.6886 -19.6886 -19.6885 -19.6880 -19.6869 -19.6791 -19.6786
   -11.5510 -11.3726 -11.2595 -11.1409 -11.0804 -11.0704 -11.0366 -10.9663
    -4.4691  -4.4632  -4.4211  -4.3924  -4.2698  -4.2512  -4.2443  -4.2282
    -4.1674  -4.1643  -1.3906  -1.2251  -0.6303  -0.2369  -0.1974   0.0196
     0.3950   0.4132   0.4972   0.5988   0.8031   0.9676   1.0093   1.0816
     1.1102   1.1212   1.1711   1.2631   1.3108   1.4116   1.4611   1.5935
     1.6290   1.6764   5.3047   6.2964   7.9341   8.2473   8.5353   8.7227

     occupation numbers
     1.0000   1.0000   1.0000   1.0000   1.0000   1.0000   1.0000   1.0000
     1.0000   1.0000   1.0000   1.0000   1.0000   1.0000   1.0000   1.0000
     1.0000   1.0000   1.0000   1.0000   1.0000   1.0000   1.0000   1.0000
     1.0000   1.0000   1.0000   1.0000   1.0000   1.0000   1.0000   1.0000
     1.0000   1.0000   1.0000   1.0000   1.0000   1.0000   1.0000   1.0000
     1.0000   1.0000   1.0000   1.0000   1.0000   1.0000   1.0000   1.0000
     1.0000   1.0000   1.0000   1.0000   1.0000   1.0000   1.0000   1.0000
     1.0000   1.0000   0.0000   0.0000   0.0000   0.0000   0.0000   0.0000

[...]

          k = 0.3333 0.1878 0.1098 (  6450 PWs)   bands (ev):

   -47.7849 -47.7849 -47.7846 -47.7845 -19.6970 -19.6966 -19.6952 -19.6946
   -19.6936 -19.6935 -19.6929 -19.6923 -19.6834 -19.6832 -19.6787 -19.6786
   -11.2691 -11.2312 -11.1228 -11.1013 -11.0945 -11.0651 -11.0383 -11.0145
    -4.3743  -4.3707  -4.2675  -4.2660  -4.2536  -4.2507  -4.2113  -4.2096
    -4.1754  -4.1736  -1.3756  -1.3175  -0.3982  -0.3725  -0.2869  -0.2089
    -0.0317   0.0278   0.1254   0.2662   0.2868   0.4350   0.5853   0.6186
     0.8575   0.9420   1.0069   1.0520   1.1740   1.2419   1.2998   1.3258
     1.5275   1.6100   6.6123   6.6552   8.6544   8.7146   9.2622   9.4628

     occupation numbers
     1.0000   1.0000   1.0000   1.0000   1.0000   1.0000   1.0000   1.0000
     1.0000   1.0000   1.0000   1.0000   1.0000   1.0000   1.0000   1.0000
     1.0000   1.0000   1.0000   1.0000   1.0000   1.0000   1.0000   1.0000
     1.0000   1.0000   1.0000   1.0000   1.0000   1.0000   1.0000   1.0000
     1.0000   1.0000   1.0000   1.0000   1.0000   1.0000   1.0000   1.0000
     1.0000   1.0000   1.0000   1.0000   1.0000   1.0000   1.0000   1.0000
     1.0000   1.0000   1.0000   1.0000   1.0000   1.0000   1.0000   1.0000
     1.0000   1.0000   0.0000   0.0000   0.0000   0.0000   0.0000   0.0000

     highest occupied, lowest unoccupied level (ev):     1.7000    5.3047

!    total energy              =    -893.64868845 Ry
     estimated scf accuracy    <       0.00000009 Ry

     The total energy is the sum of the following terms:
     one-electron contribution =    -470.04613678 Ry
     hartree contribution      =     287.01913712 Ry
     xc contribution           =    -219.14222443 Ry
     ewald contribution        =    -491.47946436 Ry

     convergence has been achieved in   8 iterations

     Writing all to output data dir bands_nm/myprefix.save/

     General routines

     Parallel routines

   This run was terminated on:   4: 4: 1  13Jul2023

   JOB DONE.