     Program PWSCF v.7.0 starts on  7Jun2023 at  8:55:16

     K-points division:     npool     =       2
     R & G space division:  proc/nbgrp/npool/nimage =       4

     Reading input from espresso_8204.pwi
Warning: card &CELL ignored
Warning: card / ignored

     Current dimensions of program PWSCF are:
     Max number of different atomic species (ntypx) = 10
     Max number of k-points (npk) =  40000
     Max angular momentum in pseudopotentials (lmaxx) =  4
     file O.pbe-n-kjpaw_psl.0.1.UPF: wavefunction(s)  2P renormalized

     Using Slab Decomposition

     bravais-lattice index     =            0
     lattice parameter (alat)  =      11.2659  a.u.
     unit-cell volume          =    1344.4892 (a.u.)^3
     number of atoms/cell      =           11
     number of atomic types    =            4
     number of electrons       =        88.00
     number of Kohn-Sham states=           64
     kinetic-energy cutoff     =      30.0000  Ry
     charge density cutoff     =     240.0000  Ry
     scf convergence threshold =      1.0E-06
     mixing beta               =       0.7000
     number of iterations used =            8  plain     mixing
     Exchange-correlation= SLA  PW   PBX  PBC
                           (   1   4   3   4   0   0   0)

     celldm(1)=  11.265851  celldm(2)=   0.000000  celldm(3)=   0.000000
     celldm(4)=   0.000000  celldm(5)=   0.000000  celldm(6)=   0.000000

     crystal axes: (cart. coord. in units of alat)
               a(1) = (   1.000000   0.000000   0.000000 )
               a(2) = (  -0.499998   0.866023   0.000000 )
               a(3) = (  -0.000006  -0.000004   1.085765 )

     reciprocal axes: (cart. coord. in units 2 pi/alat)
               b(1) = (  1.000000  0.577349  0.000007 )
               b(2) = (  0.000000  1.154703  0.000004 )
               b(3) = (  0.000000  0.000000  0.921010 )

     PseudoPot. # 1 for Zr read from file:
     /home/pragov/projects/rrg-bengioy-ad/pragov/crystal_structure_design/SSSP/Zr_pbe_v1.uspp.F.UPF
     MD5 check sum: 5db81b1e868ab7776c4564c113de050b
     Pseudo is Ultrasoft + core correction, Zval = 12.0
     Generated by new atomic code, or converted to UPF format
     Using radial grid of  887 points,  6 beta functions with:
                l(1) =   0
                l(2) =   0
                l(3) =   1
                l(4) =   1
                l(5) =   2
                l(6) =   2
     Q(r) pseudized with  6 coefficients,  rinner =    1.200   1.200   1.200
                                                       1.200   1.200

     PseudoPot. # 2 for Mo read from file:
     /home/pragov/projects/rrg-bengioy-ad/pragov/crystal_structure_design/SSSP/Mo_ONCV_PBE-1.0.oncvpsp.upf
     MD5 check sum: 1b5d28e075c9ccadda658a603575cd1f
     Pseudo is Norm-conserving, Zval = 14.0
     Generated using ONCVPSP code by D. R. Hamann
     Using radial grid of 1526 points,  6 beta functions with:
                l(1) =   0
                l(2) =   0
                l(3) =   1
                l(4) =   1
                l(5) =   2
                l(6) =   2

     PseudoPot. # 3 for W  read from file:
     /home/pragov/projects/rrg-bengioy-ad/pragov/crystal_structure_design/SSSP/W_pbe_v1.2.uspp.F.UPF
     MD5 check sum: 9c083fa34c2a2ea0f02f1f893e16e1c8
     Pseudo is Ultrasoft + core correction, Zval = 14.0
     Generated by new atomic code, or converted to UPF format
     Using radial grid of  923 points,  8 beta functions with:
                l(1) =   0
                l(2) =   0
                l(3) =   0
                l(4) =   1
                l(5) =   1
                l(6) =   2
                l(7) =   2
                l(8) =   3
     Q(r) pseudized with  6 coefficients,  rinner =    1.350   1.350   1.350
                                                       1.350   1.350   1.350
                                                       1.350

     PseudoPot. # 4 for O  read from file:
     /home/pragov/projects/rrg-bengioy-ad/pragov/crystal_structure_design/SSSP/O.pbe-n-kjpaw_psl.0.1.UPF
     MD5 check sum: 0234752ac141de4415c5fc33072bef88
     Pseudo is Projector augmented-wave + core cor, Zval =  6.0
     Generated using "atomic" code by A. Dal Corso  v.5.0.99 svn rev. 10869
     Shape of augmentation charge: BESSEL
     Using radial grid of 1095 points,  4 beta functions with:
                l(1) =   0
                l(2) =   0
                l(3) =   1
                l(4) =   1
     Q(r) pseudized with 0 coefficients

     atomic species   valence    mass     pseudopotential
        Zr            12.00    91.22400     Zr( 1.00)
        Mo            14.00    95.95000     Mo( 1.00)
        W             14.00   183.84000     W ( 1.00)
        O              6.00    15.99900     O ( 1.00)

     No symmetry found

                                    s                        frac. trans.

      isym =  1     identity

 cryst.   s( 1) = (     1          0          0      )
                  (     0          1          0      )
                  (     0          0          1      )

 cart.    s( 1) = (  1.0000000  0.0000000 -0.0000000 )
                  (  0.0000000  1.0000000 -0.0000000 )
                  (  0.0000000  0.0000000  1.0000000 )

   Cartesian axes

     site n.     atom                  positions (alat units)
         1           Zr  tau(   1) = (  -0.0000000  -0.0000000   0.0024386  )
         2           Mo  tau(   2) = (   0.0000028   0.5773489   0.3057426  )
         3           W   tau(   3) = (   0.4999932   0.2886695   0.7797647  )
         4           O   tau(   4) = (   0.0000023   0.5773495   0.5957819  )
         5           O   tau(   5) = (   0.4999942   0.2886697   0.4854443  )
         6           O   tau(   6) = (   0.2485467   0.7208458   0.2024777  )
         7           O   tau(   7) = (  -0.2485418   0.7208450   0.2024788  )
         8           O   tau(   8) = (   0.0000007   0.2903561   0.2024788  )
         9           O   tau(   9) = (   0.2492943   0.1439289   0.8840730  )
        10           O   tau(  10) = (   0.7506943   0.1439289   0.8840719  )
        11           O   tau(  11) = (   0.4999953   0.5781530   0.8840730  )

   Crystallographic axes

     site n.     atom                  positions (cryst. coord.)
         1           Zr  tau(   1) = ( -0.0000000 -0.0000000  0.0022460  )
         2           Mo  tau(   2) = (  0.3333370  0.6666680  0.2815920  )
         3           W   tau(   3) = (  0.6666620  0.3333310  0.7181710  )
         4           O   tau(   4) = (  0.3333390  0.6666700  0.5487210  )
         5           O   tau(   5) = (  0.6666610  0.3333300  0.4470990  )
         6           O   tau(   6) = (  0.6647280  0.8323640  0.1864840  )
         7           O   tau(   7) = (  0.1676390  0.8323630  0.1864850  )
         8           O   tau(   8) = (  0.1676390  0.3352760  0.1864850  )
         9           O   tau(   9) = (  0.3323980  0.1661990  0.8142400  )
        10           O   tau(  10) = (  0.8337980  0.1661990  0.8142390  )
        11           O   tau(  11) = (  0.8337980  0.6675990  0.8142400  )

     number of k points=    14
                       cart. coord. in units 2pi/alat
        k(    1) = (   0.0000000   0.0000000   0.0000000), wk =   0.0740741
        k(    2) = (   0.0000000   0.0000000   0.3070033), wk =   0.1481481
        k(    3) = (   0.0000000   0.3849011   0.0000014), wk =   0.1481481
        k(    4) = (   0.0000000   0.3849011   0.3070047), wk =   0.1481481
        k(    5) = (   0.0000000   0.3849011  -0.3070019), wk =   0.1481481
        k(    6) = (   0.3333333   0.1924498   0.0000024), wk =   0.1481481
        k(    7) = (   0.3333333   0.1924498   0.3070057), wk =   0.1481481
        k(    8) = (   0.3333333   0.1924498  -0.3070009), wk =   0.1481481
        k(    9) = (   0.3333333   0.5773509   0.0000039), wk =   0.1481481
        k(   10) = (   0.3333333   0.5773509   0.3070072), wk =   0.1481481
        k(   11) = (   0.3333333   0.5773509  -0.3069994), wk =   0.1481481
        k(   12) = (   0.3333333  -0.1924514   0.0000010), wk =   0.1481481
        k(   13) = (   0.3333333  -0.1924514   0.3070043), wk =   0.1481481
        k(   14) = (   0.3333333  -0.1924514  -0.3070023), wk =   0.1481481

                       cryst. coord.
        k(    1) = (   0.0000000   0.0000000   0.0000000), wk =   0.0740741
        k(    2) = (   0.0000000   0.0000000   0.3333333), wk =   0.1481481
        k(    3) = (   0.0000000   0.3333333  -0.0000000), wk =   0.1481481
        k(    4) = (   0.0000000   0.3333333   0.3333333), wk =   0.1481481
        k(    5) = (   0.0000000   0.3333333  -0.3333333), wk =   0.1481481
        k(    6) = (   0.3333333  -0.0000000  -0.0000000), wk =   0.1481481
        k(    7) = (   0.3333333  -0.0000000   0.3333333), wk =   0.1481481
        k(    8) = (   0.3333333  -0.0000000  -0.3333333), wk =   0.1481481
        k(    9) = (   0.3333333   0.3333333  -0.0000000), wk =   0.1481481
        k(   10) = (   0.3333333   0.3333333   0.3333333), wk =   0.1481481
        k(   11) = (   0.3333333   0.3333333  -0.3333333), wk =   0.1481481
        k(   12) = (   0.3333333  -0.3333333  -0.0000000), wk =   0.1481481
        k(   13) = (   0.3333333  -0.3333333   0.3333333), wk =   0.1481481
        k(   14) = (   0.3333333  -0.3333333  -0.3333333), wk =   0.1481481

     Check: negative core charge=   -0.000012

     Initial potential from superposition of free atoms

     starting charge      87.8965, renormalised to      88.0000

     negative rho (up, down):  1.211E-01 0.000E+00
     Starting wfcs are   68 randomized atomic wfcs
     Checking if some PAW data can be deallocated...

     Self-consistent Calculation

     iteration #  1     ecut=    30.00 Ry     beta= 0.70
     Davidson diagonalization with overlap

     ethr =  1.00E-02,  avg # of iterations =  3.9

     negative rho (up, down):  1.205E-01 0.000E+00

     total energy              =    -726.54163183 Ry
     estimated scf accuracy    <       4.51907456 Ry

[...]

     total energy              =    -729.07319757 Ry
     estimated scf accuracy    <       0.00000471 Ry

     iteration # 11     ecut=    30.00 Ry     beta= 0.70
     Davidson diagonalization with overlap

     ethr =  5.35E-09,  avg # of iterations =  2.0

     negative rho (up, down):  1.229E-01 0.000E+00

     End of self-consistent calculation

          k = 0.0000 0.0000 0.0000 (  3717 PWs)   bands (ev):

   -70.8275 -58.1100 -44.9448 -35.2062 -35.2062 -35.1884 -32.4328 -32.3691
   -32.3691 -23.0999 -23.0999 -23.0868 -14.1492 -13.6714 -13.6714 -13.5490
   -13.2716 -13.2716 -12.9795 -12.9133  -1.7832  -1.7832  -1.5220  -0.6527
    -0.6527  -0.5508  -0.5508  -0.4897  -0.2438  -0.2437  -0.1790   0.3102
     0.7512   0.7512   1.1688   1.3549   1.3549   1.6535   2.1230   2.4699
     2.4699   2.5159   2.5656   2.5656   5.7147   5.7147   7.2242   7.2242
     7.4908   8.3530   8.3531   8.3757   8.9270   9.0957   9.0957   9.1613
     9.1614   9.5876  12.3079  12.3079  12.8782  13.0683  13.7853  14.2858

     occupation numbers
     1.0000   1.0000   1.0000   1.0000   1.0000   1.0000   1.0000   1.0000
     1.0000   1.0000   1.0000   1.0000   1.0000   1.0000   1.0000   1.0000
     1.0000   1.0000   1.0000   1.0000   1.0000   1.0000   1.0000   1.0000
     1.0000   1.0000   1.0000   1.0000   1.0000   1.0000   1.0000   1.0000
     1.0000   1.0000   1.0000   1.0000   1.0000   1.0000   1.0000   1.0000
     1.0000   1.0000   1.0000   1.0000   0.0000   0.0000   0.0000   0.0000
     0.0000   0.0000   0.0000   0.0000   0.0000   0.0000   0.0000   0.0000
     0.0000   0.0000   0.0000   0.0000   0.0000   0.0000   0.0000   0.0000

[...]

          k = 0.3333-0.1925-0.3070 (  3730 PWs)   bands (ev):

   -70.8275 -58.1100 -44.9448 -35.2064 -35.2064 -35.1884 -32.4329 -32.3693
   -32.3692 -23.1015 -23.0999 -23.0855 -14.0156 -13.8416 -13.6700 -13.4880
   -13.3126 -13.2727 -12.9606 -12.9133  -1.7449  -1.7076  -1.5529  -0.9207
    -0.8587  -0.8172  -0.6356  -0.3821  -0.2332  -0.0911   0.1393   0.3705
     0.8258   0.8718   1.3411   1.4269   1.6481   1.6879   1.8263   2.0983
     2.2454   2.2749   2.3973   2.5686   6.1267   6.6155   6.9074   7.3522
     7.5204   8.0145   8.3186   8.6016   8.7320   9.0837   9.3761   9.4474
     9.6764   9.8708  11.0760  11.9138  12.3411  12.6656  13.4079  14.1637

     occupation numbers
     1.0000   1.0000   1.0000   1.0000   1.0000   1.0000   1.0000   1.0000
     1.0000   1.0000   1.0000   1.0000   1.0000   1.0000   1.0000   1.0000
     1.0000   1.0000   1.0000   1.0000   1.0000   1.0000   1.0000   1.0000
     1.0000   1.0000   1.0000   1.0000   1.0000   1.0000   1.0000   1.0000
     1.0000   1.0000   1.0000   1.0000   1.0000   1.0000   1.0000   1.0000
     1.0000   1.0000   1.0000   1.0000   0.0000   0.0000   0.0000   0.0000
     0.0000   0.0000   0.0000   0.0000   0.0000   0.0000   0.0000   0.0000
     0.0000   0.0000   0.0000   0.0000   0.0000   0.0000   0.0000   0.0000

     highest occupied, lowest unoccupied level (ev):     2.6312    5.7147

!    total energy              =    -729.07319853 Ry
     estimated scf accuracy    <       0.00000063 Ry

     The total energy is the sum of the following terms:
     one-electron contribution =    -391.67155522 Ry
     hartree contribution      =     223.04481118 Ry
     xc contribution           =    -133.28673969 Ry
     ewald contribution        =    -350.93945858 Ry
     one-center paw contrib.   =     -76.22025622 Ry
      -> PAW hartree energy AE =       0.00000000 Ry
      -> PAW hartree energy PS =       0.00000000 Ry
      -> PAW xc energy AE      =       0.00000000 Ry
      -> PAW xc energy PS      =       0.00000000 Ry
      -> total E_H with PAW    =     223.04481118 Ry
      -> total E_XC with PAW   =    -133.28673969 Ry

     convergence has been achieved in  11 iterations

     Writing all to output data dir calculations_bands/myprefix.save/

     General routines

     Parallel routines

     PAW routines

   This run was terminated on:   8:55:34   7Jun2023

   JOB DONE.