     Program PWSCF v.7.1 starts on 15Jul2023 at 21:22:12

     Reading input from espresso_6967.pwi
Warning: card &CELL ignored
Warning: card / ignored

     Current dimensions of program PWSCF are:
     Max number of different atomic species (ntypx) = 10
     Max number of k-points (npk) =  40000
     Max angular momentum in pseudopotentials (lmaxx) =  4
     file Ba.pbe-spn-kjpaw_psl.1.0.0.UPF: wavefunction(s)  5S 6S renormalized
     file Fe.pbe-spn-kjpaw_psl.0.2.1.UPF: wavefunction(s)  3D renormalized
     file O.pbe-n-kjpaw_psl.0.1.UPF: wavefunction(s)  2P renormalized

     K-points division:     npool     =       2
     R & G space division:  proc/nbgrp/npool/nimage =       4
     Subspace diagonalization in iterative solution of the eigenvalue problem:
     one sub-group per band group will be used

     Using Slab Decomposition

     bravais-lattice index     =            0
     lattice parameter (alat)  =      10.9615  a.u.
     unit-cell volume          =    1859.6823 (a.u.)^3
     number of atoms/cell      =           20
     number of atomic types    =            4
     number of electrons       =       172.00
     number of Kohn-Sham states=          256
     kinetic-energy cutoff     =      30.0000  Ry
     charge density cutoff     =     240.0000  Ry
     scf convergence threshold =      1.0E-06
     mixing beta               =       0.7000
     number of iterations used =            8  plain     mixing
     Exchange-correlation= SLA  PW   PBX  PBC
                           (   1   4   3   4   0   0   0)

     celldm(1)=  10.961477  celldm(2)=   0.000000  celldm(3)=   0.000000
     celldm(4)=   0.000000  celldm(5)=   0.000000  celldm(6)=   0.000000

     crystal axes: (cart. coord. in units of alat)
               a(1) = (   1.000000   0.000000   0.000000 )
               a(2) = (  -0.500613   0.865712   0.000000 )
               a(3) = (  -0.498191  -0.289497   1.631016 )

     reciprocal axes: (cart. coord. in units 2 pi/alat)
               b(1) = (  1.000000  0.578268  0.408087 )
               b(2) = (  0.000000  1.155119  0.205027 )
               b(3) = (  0.000000  0.000000  0.613115 )

     PseudoPot. # 1 for Ba read from file:
     /lustre07/scratch/pragov/crystal_structure_design/utils/SSSP/Ba.pbe-spn-kjpaw_psl.1.0.0.UPF
     MD5 check sum: c432291d3e53af55f19d5e8866385beb
     Pseudo is Projector augmented-wave + core cor, Zval = 10.0
     Generated using "atomic" code by A. Dal Corso  v.5.1
     Shape of augmentation charge: PSQ
     Using radial grid of 1251 points,  7 beta functions with:
                l(1) =   0
                l(2) =   0
                l(3) =   0
                l(4) =   1
                l(5) =   1
                l(6) =   2
                l(7) =   2
     Q(r) pseudized with 0 coefficients

     PseudoPot. # 2 for Fe read from file:
     /lustre07/scratch/pragov/crystal_structure_design/utils/SSSP/Fe.pbe-spn-kjpaw_psl.0.2.1.UPF
     MD5 check sum: e86618425769142926afa95317d90200
     Pseudo is Projector augmented-wave + core cor, Zval = 16.0
     Generated using "atomic" code by A. Dal Corso  v.5.0.99 svn rev. 10869
     Shape of augmentation charge: PSQ
     Using radial grid of 1191 points,  6 beta functions with:
                l(1) =   0
                l(2) =   0
                l(3) =   1
                l(4) =   1
                l(5) =   2
                l(6) =   2
     Q(r) pseudized with 0 coefficients

     PseudoPot. # 3 for Mo read from file:
     /lustre07/scratch/pragov/crystal_structure_design/utils/SSSP/Mo_ONCV_PBE-1.0.oncvpsp.upf
     MD5 check sum: 1b5d28e075c9ccadda658a603575cd1f
     Pseudo is Norm-conserving, Zval = 14.0
     Generated using ONCVPSP code by D. R. Hamann
     Using radial grid of 1526 points,  6 beta functions with:
                l(1) =   0
                l(2) =   0
                l(3) =   1
                l(4) =   1
                l(5) =   2
                l(6) =   2

     PseudoPot. # 4 for O  read from file:
     /lustre07/scratch/pragov/crystal_structure_design/utils/SSSP/O.pbe-n-kjpaw_psl.0.1.UPF
     MD5 check sum: 0234752ac141de4415c5fc33072bef88
     Pseudo is Projector augmented-wave + core cor, Zval =  6.0
     Generated using "atomic" code by A. Dal Corso  v.5.0.99 svn rev. 10869
     Shape of augmentation charge: BESSEL
     Using radial grid of 1095 points,  4 beta functions with:
                l(1) =   0
                l(2) =   0
                l(3) =   1
                l(4) =   1
     Q(r) pseudized with 0 coefficients

     atomic species   valence    mass     pseudopotential
        Ba            10.00   137.32700     Ba( 1.00)
        Fe            16.00    55.84500     Fe( 1.00)
        Mo            14.00    95.95000     Mo( 1.00)
        O              6.00    15.99900     O ( 1.00)

     No symmetry found

                                    s                        frac. trans.

      isym =  1     identity

 cryst.   s( 1) = (     1          0          0      )
                  (     0          1          0      )
                  (     0          0          1      )

 cart.    s( 1) = (  1.0000000  0.0000000  0.0000000 )
                  (  0.0000000  1.0000000  0.0000000 )
                  (  0.0000000  0.0000000  1.0000000 )

   Cartesian axes

     site n.     atom                  positions (alat units)
         1           Ba  tau(   1) = (   0.5017356   0.2901824   0.2029229  )
         2           Ba  tau(   2) = (  -0.0006063   0.5745331   1.0207943  )
         3           Ba  tau(   3) = (  -0.4981462   0.2902462   1.4277458  )
         4           Ba  tau(   4) = (  -0.0004883  -0.0023969   0.6104779  )
         5           Fe  tau(   5) = (  -0.4940080   0.2978515   0.8153401  )
         6           Fe  tau(   6) = (   0.4950520   0.8586300   0.0001272  )
         7           Mo  tau(   7) = (   0.0005042   0.5761101   0.4093802  )
         8           Mo  tau(   8) = (   0.0003410  -0.0006088   1.2216621  )
         9           O   tau(   9) = (   0.0042884   0.2906168   1.4240924  )
        10           O   tau(  10) = (   0.4975154  -0.0173542   0.6045590  )
        11           O   tau(  11) = (   0.0023540   0.3050559   0.2105430  )
        12           O   tau(  12) = (  -0.5029502   0.5741730   1.0217452  )
        13           O   tau(  13) = (   0.2384505   0.1324726   1.0266790  )
        14           O   tau(  14) = (   0.2503539   0.7254913   0.2065780  )
        15           O   tau(  15) = (  -0.2530655   0.1376890   1.0181993  )
        16           O   tau(  16) = (  -0.2482253   0.7278971   0.2025494  )
        17           O   tau(  17) = (  -0.2359207  -0.1346777   1.4202676  )
        18           O   tau(  18) = (  -0.2496020   0.4280492   0.6096216  )
        19           O   tau(  19) = (   0.2558499  -0.1399146   1.4287554  )
        20           O   tau(  20) = (   0.2473166   0.4257095   0.6126145  )

   Crystallographic axes

     site n.     atom                  positions (cryst. coord.)
         1           Ba  tau(   1) = (  0.7523490  0.3768000  0.1244150  )
         2           Ba  tau(   2) = (  0.7482010  0.8729450  0.6258640  )
         3           Ba  tau(   3) = (  0.2523390  0.6279960  0.8753720  )
         4           Ba  tau(   4) = (  0.2472540  0.1223960  0.3742930  )
         5           Fe  tau(   5) = (  0.0109600  0.5112210  0.4998970  )
         6           Fe  tau(   6) = (  0.9916220  0.9918460  0.0000780  )
         7           Mo  tau(   7) = (  0.5007130  0.7494100  0.2509970  )
         8           Mo  tau(   8) = (  0.4985340  0.2497710  0.7490190  )
         9           O   tau(   9) = (  0.7534970  0.6276750  0.8731320  )
        10           O   tau(  10) = (  0.7341930  0.1039050  0.3706640  )
        11           O   tau(  11) = (  0.2646780  0.3955430  0.1290870  )
        12           O   tau(  12) = (  0.2460370  0.8727240  0.6264470  )
        13           O   tau(  13) = (  0.7340300  0.3635190  0.6294720  )
        14           O   tau(  14) = (  0.7541840  0.8803830  0.1266560  )
        15           O   tau(  15) = (  0.2420700  0.3678060  0.6242730  )
        16           O   tau(  16) = (  0.2553520  0.8823360  0.1241860  )
        17           O   tau(  17) = (  0.2657930  0.1356250  0.8707870  )
        18           O   tau(  18) = (  0.2467040  0.6194370  0.3737680  )
        19           O   tau(  19) = (  0.7579990  0.1313160  0.8759910  )
        20           O   tau(  20) = (  0.7434910  0.6173480  0.3756030  )

     number of k points=    14
                       cart. coord. in units 2pi/alat
        k(    1) = (   0.0000000   0.0000000   0.0000000), wk =   0.0740741
        k(    2) = (   0.0000000   0.0000000   0.2043716), wk =   0.1481481
        k(    3) = (   0.0000000   0.3850397   0.0683425), wk =   0.1481481
        k(    4) = (   0.0000000   0.3850397   0.2727141), wk =   0.1481481
        k(    5) = (   0.0000000   0.3850397  -0.1360291), wk =   0.1481481
        k(    6) = (   0.3333333   0.1927559   0.1360292), wk =   0.1481481
        k(    7) = (   0.3333333   0.1927559   0.3404007), wk =   0.1481481
        k(    8) = (   0.3333333   0.1927559  -0.0683424), wk =   0.1481481
        k(    9) = (   0.3333333   0.5777956   0.2043716), wk =   0.1481481
        k(   10) = (   0.3333333   0.5777956   0.4087432), wk =   0.1481481
        k(   11) = (   0.3333333   0.5777956   0.0000001), wk =   0.1481481
        k(   12) = (   0.3333333  -0.1922838   0.0676867), wk =   0.1481481
        k(   13) = (   0.3333333  -0.1922838   0.2720583), wk =   0.1481481
        k(   14) = (   0.3333333  -0.1922838  -0.1366849), wk =   0.1481481

                       cryst. coord.
        k(    1) = (   0.0000000   0.0000000   0.0000000), wk =   0.0740741
        k(    2) = (   0.0000000   0.0000000   0.3333333), wk =   0.1481481
        k(    3) = (   0.0000000   0.3333333   0.0000000), wk =   0.1481481
        k(    4) = (   0.0000000   0.3333333   0.3333333), wk =   0.1481481
        k(    5) = (   0.0000000   0.3333333  -0.3333333), wk =   0.1481481
        k(    6) = (   0.3333333   0.0000000   0.0000000), wk =   0.1481481
        k(    7) = (   0.3333333   0.0000000   0.3333333), wk =   0.1481481
        k(    8) = (   0.3333333   0.0000000  -0.3333333), wk =   0.1481481
        k(    9) = (   0.3333333   0.3333333   0.0000000), wk =   0.1481481
        k(   10) = (   0.3333333   0.3333333   0.3333333), wk =   0.1481481
        k(   11) = (   0.3333333   0.3333333  -0.3333333), wk =   0.1481481
        k(   12) = (   0.3333333  -0.3333333   0.0000000), wk =   0.1481481
        k(   13) = (   0.3333333  -0.3333333   0.3333333), wk =   0.1481481
        k(   14) = (   0.3333333  -0.3333333  -0.3333333), wk =   0.1481481

     Check: negative core charge=   -0.000059

     Initial potential from superposition of free atoms

     starting charge     171.9291, renormalised to     172.0000
     Starting wfcs are  114 randomized atomic wfcs +  142 random wfcs
     Checking if some PAW data can be deallocated...

     Self-consistent Calculation

     iteration #  1     ecut=    30.00 Ry     beta= 0.70
     Davidson diagonalization with overlap

     ethr =  1.00E-02,  avg # of iterations =  7.0

     negative rho (up, down):  3.976E-01 0.000E+00

     total energy              =   -3174.18887182 Ry
     estimated scf accuracy    <       6.90731420 Ry

[...]

     negative rho (up, down):  6.638E-02 0.000E+00

[...]

     c_bands:  1 eigenvalues not converged
     ethr =  1.97E-06,  avg # of iterations =  5.3

[...]

     total energy              =   -3177.67621451 Ry
     estimated scf accuracy    <       0.00000157 Ry

     iteration # 24     ecut=    30.00 Ry     beta= 0.70
     Davidson diagonalization with overlap

     ethr =  9.14E-10,  avg # of iterations =  1.0

     End of self-consistent calculation

          k = 0.0000 0.0000 0.0000 (  5173 PWs)   bands (ev):

   -75.8420 -75.7973 -51.7991 -51.7977 -41.4252 -41.4100 -41.3949 -41.3618
   -41.3478 -41.3437 -25.9202 -25.9184 -25.8171 -25.8154 -25.7923 -25.7904
   -15.1201 -15.0187 -15.0098 -14.9303  -7.2478  -7.1475  -6.8193  -6.7627
    -6.6905  -6.5658  -6.4981  -6.3597  -6.3580  -6.3236  -6.2096  -6.2054
    -0.8382  -0.8219  -0.8204  -0.4252  -0.4220  -0.3757  -0.3656  -0.2691
    -0.2476  -0.2460   0.0183   0.0302   5.0550   5.4529   5.5880   5.6837
     5.7801   5.9012   6.1670   6.6620   6.6983   6.7464   6.7763   6.9777
     6.9807   7.1786   7.1872   7.3937   7.4956   7.5135   7.5536   7.7358
     7.7534   8.6463   8.7286   8.7430   8.9727   9.0018   9.0151   9.0905
     9.1673   9.2578   9.4392   9.4654   9.4944   9.6751   9.7287   9.7342
    10.1748  10.1880  10.2546  10.9186  10.9903  11.0447  11.7757  11.8427
    12.0982  12.1684  12.3134  12.4685  12.4743  12.5244  12.9447  13.0987
    14.9141  14.9209  15.6956  16.0023  16.2831  16.3296  16.3314  16.3705
    16.9278  17.0008  17.0184  17.0506  17.1249  17.1567  17.5238  17.6298
    18.0775  18.0825  18.1035  18.4663  18.4747  18.6322  18.7050  19.6669
    19.6882  20.3445  20.4699  21.7033  21.8585  22.0893  23.5723  23.7597
    23.9773  24.0478  24.0581  24.3035  24.9737  25.1078  25.1744  25.4469
    25.4975  25.5978  25.6320  25.7098  26.4012  26.4318  26.5395  26.5443
    26.5629  26.8496  26.8811  26.8840  27.5336  27.9956  28.0233  28.0363
    28.2453  28.2822  28.4900  28.5824  28.8958  29.0588  29.1328  29.1515
    29.2203  29.2312  29.2688  29.2862  29.3309  29.6762  29.7495  30.0550
    30.3145  30.4165  30.6162  30.9310  30.9667  31.0761  31.8659  31.9039
    32.5933  32.6165  32.6230  32.8819  33.3659  33.5045  34.2803  34.3385
    34.3397  34.8264  34.9740  35.0576  35.9622  36.1587  36.2288  36.3712
    36.6219  36.8443  36.9317  36.9688  36.9863  37.0150  37.2362  37.3904
    37.4087  37.6460  38.3368  38.3881  38.4079  38.4609  38.6683  38.8447
    38.9931  39.0958  39.4114  39.4205  39.4799  39.5731  40.0603  40.0985
    40.1137  40.1506  40.1540  40.2735  40.3911  40.4080  40.4373  40.4893
    40.7300  40.9490  41.1086  41.1657  41.5690  41.7523  41.7638  42.4349
    42.4900  42.5171  42.6106  42.7411  42.7469  42.7952  42.8661  42.8925
    42.9543  42.9670  43.5645  43.6032  43.6399  44.1784  44.1990  44.4523
    44.4953  44.6794  44.8258  44.9808  45.1881  45.1968  45.3190  45.3270

     occupation numbers
     1.0000   1.0000   1.0000   1.0000   1.0000   1.0000   1.0000   1.0000
     1.0000   1.0000   1.0000   1.0000   1.0000   1.0000   1.0000   1.0000
     1.0000   1.0000   1.0000   1.0000   1.0000   1.0000   1.0000   1.0000
     1.0000   1.0000   1.0000   1.0000   1.0000   1.0000   1.0000   1.0000
     1.0000   1.0000   1.0000   1.0000   1.0000   1.0000   1.0000   1.0000
     1.0000   1.0000   1.0000   1.0000   1.0000   1.0000   1.0000   1.0000
     1.0000   1.0000   1.0000   1.0000   1.0000   1.0000   1.0000   1.0000
     1.0000   1.0000   1.0000   1.0000   1.0000   1.0000   1.0000   1.0000
     1.0000   1.0000   1.0000   1.0000   1.0000   1.0000   1.0000   1.0000
     1.0000   1.0000   1.0000   1.0000   1.0000   1.0000   1.0000   1.0000
     1.0000   1.0000   1.0000   1.0000   1.0000   1.0000   0.0000   0.0000
     0.0000   0.0000   0.0000   0.0000   0.0000   0.0000   0.0000   0.0000
     0.0000   0.0000   0.0000   0.0000   0.0000   0.0000   0.0000   0.0000
     0.0000   0.0000   0.0000   0.0000   0.0000   0.0000   0.0000   0.0000
     0.0000   0.0000   0.0000   0.0000   0.0000   0.0000   0.0000   0.0000
     0.0000   0.0000   0.0000   0.0000   0.0000   0.0000   0.0000   0.0000
     0.0000   0.0000   0.0000   0.0000   0.0000   0.0000   0.0000   0.0000
     0.0000   0.0000   0.0000   0.0000   0.0000   0.0000   0.0000   0.0000
     0.0000   0.0000   0.0000   0.0000   0.0000   0.0000   0.0000   0.0000
     0.0000   0.0000   0.0000   0.0000   0.0000   0.0000   0.0000   0.0000
     0.0000   0.0000   0.0000   0.0000   0.0000   0.0000   0.0000   0.0000
     0.0000   0.0000   0.0000   0.0000   0.0000   0.0000   0.0000   0.0000
     0.0000   0.0000   0.0000   0.0000   0.0000   0.0000   0.0000   0.0000
     0.0000   0.0000   0.0000   0.0000   0.0000   0.0000   0.0000   0.0000
     0.0000   0.0000   0.0000   0.0000   0.0000   0.0000   0.0000   0.0000
     0.0000   0.0000   0.0000   0.0000   0.0000   0.0000   0.0000   0.0000
     0.0000   0.0000   0.0000   0.0000   0.0000   0.0000   0.0000   0.0000
     0.0000   0.0000   0.0000   0.0000   0.0000   0.0000   0.0000   0.0000
     0.0000   0.0000   0.0000   0.0000   0.0000   0.0000   0.0000   0.0000
     0.0000   0.0000   0.0000   0.0000   0.0000   0.0000   0.0000   0.0000
     0.0000   0.0000   0.0000   0.0000   0.0000   0.0000   0.0000   0.0000
     0.0000   0.0000   0.0000   0.0000   0.0000   0.0000   0.0000   0.0000

[...]

          k = 0.3333-0.1923-0.1367 (  5160 PWs)   bands (ev):

   -75.8406 -75.7970 -51.7990 -51.7977 -41.4144 -41.4004 -41.3846 -41.3669
   -41.3493 -41.3457 -25.9202 -25.9185 -25.8171 -25.8155 -25.7925 -25.7906
   -15.0676 -15.0337 -14.9897 -14.9630  -7.3546  -7.1958  -6.7989  -6.7345
    -6.7260  -6.6435  -6.5425  -6.4376  -6.4250  -6.3292  -6.2189  -6.1970
    -0.5855  -0.5774  -0.3578  -0.3146  -0.2938  -0.2828  -0.2539  -0.1809
    -0.1306  -0.0549  -0.0437   0.0037   4.9122   5.4875   5.6092   5.6402
     5.7312   5.8213   6.0784   6.2979   6.5480   6.6237   6.7345   6.8540
     6.9068   7.0344   7.1277   7.3415   7.3650   7.5391   7.8076   7.9097
     7.9265   7.9343   8.0508   8.4350   8.4759   8.6293   8.7965   8.8837
     8.9265   9.0016   9.0734   9.1033   9.2451   9.3081   9.5036   9.5622
    10.4910  10.7397  10.8109  10.8386  11.1583  11.1837  12.0263  12.1419
    12.1808  12.2325  12.4037  12.4872  12.4969  12.6101  12.7092  12.8064
    14.9330  15.8764  16.1070  16.1371  16.3902  16.7032  16.8769  17.1304
    17.2744  17.3050  17.3706  17.4731  17.5418  17.7254  18.0494  18.4651
    18.4962  18.6707  18.7269  18.7383  18.7569  18.8203  18.8494  18.9530
    19.5552  20.1120  21.5059  21.5736  22.0754  22.1537  22.9756  23.1180
    23.2911  23.4357  23.4696  23.7471  23.9739  24.0507  24.8771  25.0348
    25.0627  25.2974  25.3536  25.5711  25.6749  25.9663  26.0025  26.0795
    26.1014  26.4150  26.7945  26.8218  27.2419  27.7295  27.8154  28.0231
    28.0748  28.2825  28.2859  28.4452  29.0015  29.0692  29.2230  29.3087
    29.3615  29.3932  29.6815  29.8252  30.1514  30.1980  30.2655  30.3407
    30.5456  30.5957  30.9480  31.2717  31.3145  31.3963  31.7333  31.8134
    32.4414  33.0722  33.2862  33.3101  33.4975  33.5831  33.7217  33.7978
    33.8039  34.3113  35.0280  35.3239  35.4671  35.4746  35.8221  35.8606
    36.0481  36.2436  36.4913  36.6147  36.6310  37.1908  37.2002  37.4054
    37.4334  37.7043  37.8756  37.8912  38.5035  38.5951  38.6009  38.6884
    38.7631  38.9841  39.0177  39.3727  39.4164  39.6722  39.7629  39.9352
    39.9645  40.1497  40.2599  40.3845  40.4666  40.5288  40.5827  40.8736
    41.2307  41.2552  41.4208  41.7847  41.9467  42.0559  42.1439  42.3170
    42.4520  42.5636  42.9179  42.9783  43.1637  43.3168  43.4598  43.4739
    43.7173  43.9864  44.2136  44.3270  44.3386  44.3810  44.5535  44.6323
    44.7743  45.1330  45.2515  45.2814  45.4599  45.5252  45.6614  45.7112

     occupation numbers
     1.0000   1.0000   1.0000   1.0000   1.0000   1.0000   1.0000   1.0000
     1.0000   1.0000   1.0000   1.0000   1.0000   1.0000   1.0000   1.0000
     1.0000   1.0000   1.0000   1.0000   1.0000   1.0000   1.0000   1.0000
     1.0000   1.0000   1.0000   1.0000   1.0000   1.0000   1.0000   1.0000
     1.0000   1.0000   1.0000   1.0000   1.0000   1.0000   1.0000   1.0000
     1.0000   1.0000   1.0000   1.0000   1.0000   1.0000   1.0000   1.0000
     1.0000   1.0000   1.0000   1.0000   1.0000   1.0000   1.0000   1.0000
     1.0000   1.0000   1.0000   1.0000   1.0000   1.0000   1.0000   1.0000
     1.0000   1.0000   1.0000   1.0000   1.0000   1.0000   1.0000   1.0000
     1.0000   1.0000   1.0000   1.0000   1.0000   1.0000   1.0000   1.0000
     1.0000   1.0000   1.0000   1.0000   1.0000   1.0000   0.0000   0.0000
     0.0000   0.0000   0.0000   0.0000   0.0000   0.0000   0.0000   0.0000
     0.0000   0.0000   0.0000   0.0000   0.0000   0.0000   0.0000   0.0000
     0.0000   0.0000   0.0000   0.0000   0.0000   0.0000   0.0000   0.0000
     0.0000   0.0000   0.0000   0.0000   0.0000   0.0000   0.0000   0.0000
     0.0000   0.0000   0.0000   0.0000   0.0000   0.0000   0.0000   0.0000
     0.0000   0.0000   0.0000   0.0000   0.0000   0.0000   0.0000   0.0000
     0.0000   0.0000   0.0000   0.0000   0.0000   0.0000   0.0000   0.0000
     0.0000   0.0000   0.0000   0.0000   0.0000   0.0000   0.0000   0.0000
     0.0000   0.0000   0.0000   0.0000   0.0000   0.0000   0.0000   0.0000
     0.0000   0.0000   0.0000   0.0000   0.0000   0.0000   0.0000   0.0000
     0.0000   0.0000   0.0000   0.0000   0.0000   0.0000   0.0000   0.0000
     0.0000   0.0000   0.0000   0.0000   0.0000   0.0000   0.0000   0.0000
     0.0000   0.0000   0.0000   0.0000   0.0000   0.0000   0.0000   0.0000
     0.0000   0.0000   0.0000   0.0000   0.0000   0.0000   0.0000   0.0000
     0.0000   0.0000   0.0000   0.0000   0.0000   0.0000   0.0000   0.0000
     0.0000   0.0000   0.0000   0.0000   0.0000   0.0000   0.0000   0.0000
     0.0000   0.0000   0.0000   0.0000   0.0000   0.0000   0.0000   0.0000
     0.0000   0.0000   0.0000   0.0000   0.0000   0.0000   0.0000   0.0000
     0.0000   0.0000   0.0000   0.0000   0.0000   0.0000   0.0000   0.0000
     0.0000   0.0000   0.0000   0.0000   0.0000   0.0000   0.0000   0.0000
     0.0000   0.0000   0.0000   0.0000   0.0000   0.0000   0.0000   0.0000

     highest occupied, lowest unoccupied level (ev):    11.1837   11.7757

!    total energy              =   -3177.67621410 Ry
     estimated scf accuracy    <       0.00000082 Ry

     The total energy is the sum of the following terms:
     one-electron contribution =    -572.32109563 Ry
     hartree contribution      =     390.45853738 Ry
     xc contribution           =    -270.66940837 Ry
     ewald contribution        =    -958.87169406 Ry
     one-center paw contrib.   =   -1766.27255342 Ry
      -> PAW hartree energy AE =      86.47479731 Ry
      -> PAW hartree energy PS =     -86.13761502 Ry
      -> PAW xc energy AE      =   -1182.74582330 Ry
      -> PAW xc energy PS      =      57.53501004 Ry
      -> total E_H with PAW    =     390.79571967 Ry
      -> total E_XC with PAW   =   -1395.88022163 Ry

     convergence has been achieved in  24 iterations

     Writing all to output data dir bands_nm/myprefix.save/

     General routines

     Parallel routines

     PAW routines

   This run was terminated on:  21:24:31  15Jul2023

   JOB DONE.