     Program PWSCF v.7.1 starts on 14Jul2023 at  2:42: 1

     Reading input from espresso_17498.pwi
Warning: card &CELL ignored
Warning: card / ignored

     Current dimensions of program PWSCF are:
     Max number of different atomic species (ntypx) = 10
     Max number of k-points (npk) =  40000
     Max angular momentum in pseudopotentials (lmaxx) =  4
     file Fe.pbe-spn-kjpaw_psl.0.2.1.UPF: wavefunction(s)  3D renormalized
     Message from routine setup:
     using ibrav=0 with symmetry is DISCOURAGED, use correct ibrav instead

     K-points division:     npool     =       2
     R & G space division:  proc/nbgrp/npool/nimage =       4
     Subspace diagonalization in iterative solution of the eigenvalue problem:
     a serial algorithm will be used

     Using Slab Decomposition

     bravais-lattice index     =            0
     lattice parameter (alat)  =      10.1065  a.u.
     unit-cell volume          =    1024.3529 (a.u.)^3
     number of atoms/cell      =           13
     number of atomic types    =            3
     number of electrons       =       110.00
     number of Kohn-Sham states=           64
     kinetic-energy cutoff     =      30.0000  Ry
     charge density cutoff     =     240.0000  Ry
     scf convergence threshold =      1.0E-06
     mixing beta               =       0.7000
     number of iterations used =            8  plain     mixing
     Exchange-correlation=  SLA  PW   PBX  PBC
                           (   1   4   3   4   0   0   0)

     celldm(1)=  10.106458  celldm(2)=   0.000000  celldm(3)=   0.000000
     celldm(4)=   0.000000  celldm(5)=   0.000000  celldm(6)=   0.000000

     crystal axes: (cart. coord. in units of alat)
               a(1) = (   1.000000   0.000000   0.000000 )
               a(2) = (  -0.488561   0.945280   0.000000 )
               a(3) = (   0.002929  -0.355435   1.049766 )

     reciprocal axes: (cart. coord. in units 2 pi/alat)
               b(1) = (  1.000000  0.516843  0.172205 )
               b(2) = (  0.000000  1.057888  0.358185 )
               b(3) = (  0.000000  0.000000  0.952593 )

     PseudoPot. # 1 for Li read from file:
     /lustre07/scratch/pragov/crystal_structure_design/utils/SSSP/li_pbe_v1.4.uspp.F.UPF
     MD5 check sum: e912e257baa3777c20ea3d68f190483c
     Pseudo is Ultrasoft, Zval =  3.0
     Generated by new atomic code, or converted to UPF format
     Using radial grid of  751 points,  5 beta functions with:
                l(1) =   0
                l(2) =   0
                l(3) =   0
                l(4) =   1
                l(5) =   1
     Q(r) pseudized with 10 coefficients,  rinner =    1.150   1.150   1.150

     PseudoPot. # 2 for Fe read from file:
     /lustre07/scratch/pragov/crystal_structure_design/utils/SSSP/Fe.pbe-spn-kjpaw_psl.0.2.1.UPF
     MD5 check sum: e86618425769142926afa95317d90200
     Pseudo is Projector augmented-wave + core cor, Zval = 16.0
     Generated using "atomic" code by A. Dal Corso  v.5.0.99 svn rev. 10869
     Shape of augmentation charge: PSQ
     Using radial grid of 1191 points,  6 beta functions with:
                l(1) =   0
                l(2) =   0
                l(3) =   1
                l(4) =   1
                l(5) =   2
                l(6) =   2
     Q(r) pseudized with 0 coefficients

     PseudoPot. # 3 for F  read from file:
     /lustre07/scratch/pragov/crystal_structure_design/utils/SSSP/f_pbe_v1.4.uspp.F.UPF
     MD5 check sum: 4c38b6a325caf53ec0e86aed9459de46
     Pseudo is Ultrasoft, Zval =  7.0
     Generated by new atomic code, or converted to UPF format
     Using radial grid of  799 points,  4 beta functions with:
                l(1) =   0
                l(2) =   0
                l(3) =   1
                l(4) =   1
     Q(r) pseudized with  8 coefficients,  rinner =    0.950   0.950   0.950

     atomic species   valence    mass     pseudopotential
        Li             3.00     6.94000     Li( 1.00)
        Fe            16.00    55.84500     Fe( 1.00)
        F              7.00    18.99840     F ( 1.00)

      2 Sym. Ops., with inversion, found

                                    s                        frac. trans.

      isym =  1     identity

 cryst.   s( 1) = (     1          0          0      )
                  (     0          1          0      )
                  (     0          0          1      )

 cart.    s( 1) = (  1.0000000  0.0000000 -0.0000000 )
                  (  0.0000000  1.0000000  0.0000000 )
                  (  0.0000000  0.0000000  1.0000000 )

      isym =  2     inversion

 cryst.   s( 2) = (    -1          0          0      )
                  (     0         -1          0      )
                  (     0          0         -1      )

 cart.    s( 2) = ( -1.0000000  0.0000000  0.0000000 )
                  (  0.0000000 -1.0000000  0.0000000 )
                  (  0.0000000  0.0000000 -1.0000000 )

   Cartesian axes

     site n.     atom                  positions (alat units)
         1           Li  tau(   1) = (   0.0030585   0.7738907   0.2558542  )
         2           Li  tau(   2) = (   0.5113096  -0.1840463   0.7939118  )
         3           Fe  tau(   3) = (   0.0000000   0.0000000   0.0000000  )
         4           Fe  tau(   4) = (   0.0074378   0.2166814   0.6717400  )
         5           Fe  tau(   5) = (   0.5069304   0.3731630   0.3780260  )
         6           F   tau(   6) = (  -0.1532772   0.3904941   0.9852222  )
         7           F   tau(   7) = (  -0.1396350   0.5265896   0.4798806  )
         8           F   tau(   8) = (   0.2002006   0.1103437   0.3327433  )
         9           F   tau(   9) = (   0.1696942  -0.0681670   0.8553735  )
        10           F   tau(  10) = (   0.3446739   0.6580114   0.1943925  )
        11           F   tau(  11) = (   0.3141676   0.4795007   0.7170227  )
        12           F   tau(  12) = (   0.6540032   0.0632548   0.5698854  )
        13           F   tau(  13) = (   0.6676454   0.1993503   0.0645438  )

   Crystallographic axes

     site n.     atom                  positions (cryst. coord.)
         1           Li  tau(   1) = (  0.4470980  0.9103330  0.2437250  )
         2           Li  tau(   2) = (  0.5529020  0.0896670  0.7562750  )
         3           Fe  tau(   3) = (  0.0000000  0.0000000  0.0000000  )
         4           Fe  tau(   4) = (  0.2351050  0.4698320  0.6398950  )
         5           Fe  tau(   5) = (  0.7648950  0.5301680  0.3601050  )
         6           F   tau(   6) = (  0.2182070  0.7659910  0.9385160  )
         7           F   tau(   7) = (  0.2151670  0.7289590  0.4571310  )
         8           F   tau(   8) = (  0.3145310  0.2359150  0.3169690  )
         9           F   tau(   9) = (  0.2817620  0.2342690  0.8148230  )
        10           F   tau(  10) = (  0.7182380  0.7657310  0.1851770  )
        11           F   tau(  11) = (  0.6854690  0.7640850  0.6830310  )
        12           F   tau(  12) = (  0.7848330  0.2710410  0.5428690  )
        13           F   tau(  13) = (  0.7817930  0.2340090  0.0614840  )

     number of k points=    14
                       cart. coord. in units 2pi/alat
        k(    1) = (   0.0000000   0.0000000   0.0000000), wk =   0.0740741
        k(    2) = (   0.0000000   0.0000000   0.3175311), wk =   0.1481481
        k(    3) = (   0.0000000   0.3526294   0.1193950), wk =   0.1481481
        k(    4) = (   0.0000000   0.3526294   0.4369261), wk =   0.1481481
        k(    5) = (   0.0000000   0.3526294  -0.1981360), wk =   0.1481481
        k(    6) = (   0.3333333   0.1722811   0.0574016), wk =   0.1481481
        k(    7) = (   0.3333333   0.1722811   0.3749327), wk =   0.1481481
        k(    8) = (   0.3333333   0.1722811  -0.2601295), wk =   0.1481481
        k(    9) = (   0.3333333   0.5249104   0.1767967), wk =   0.1481481
        k(   10) = (   0.3333333   0.5249104   0.4943277), wk =   0.1481481
        k(   11) = (   0.3333333   0.5249104  -0.1407344), wk =   0.1481481
        k(   12) = (   0.3333333  -0.1803483  -0.0619934), wk =   0.1481481
        k(   13) = (   0.3333333  -0.1803483   0.2555376), wk =   0.1481481
        k(   14) = (   0.3333333  -0.1803483  -0.3795245), wk =   0.1481481

                       cryst. coord.
        k(    1) = (   0.0000000   0.0000000   0.0000000), wk =   0.0740741
        k(    2) = (   0.0000000   0.0000000   0.3333333), wk =   0.1481481
        k(    3) = (   0.0000000   0.3333333   0.0000000), wk =   0.1481481
        k(    4) = (   0.0000000   0.3333333   0.3333333), wk =   0.1481481
        k(    5) = (   0.0000000   0.3333333  -0.3333333), wk =   0.1481481
        k(    6) = (   0.3333333   0.0000000   0.0000000), wk =   0.1481481
        k(    7) = (   0.3333333   0.0000000   0.3333333), wk =   0.1481481
        k(    8) = (   0.3333333   0.0000000  -0.3333333), wk =   0.1481481
        k(    9) = (   0.3333333   0.3333333   0.0000000), wk =   0.1481481
        k(   10) = (   0.3333333   0.3333333   0.3333333), wk =   0.1481481
        k(   11) = (   0.3333333   0.3333333  -0.3333333), wk =   0.1481481
        k(   12) = (   0.3333333  -0.3333333  -0.0000000), wk =   0.1481481
        k(   13) = (   0.3333333  -0.3333333   0.3333333), wk =   0.1481481
        k(   14) = (   0.3333333  -0.3333333  -0.3333333), wk =   0.1481481

     Check: negative core charge=   -0.000129

     Initial potential from superposition of free atoms

     starting charge     109.0972, renormalised to     110.0000
     Starting wfcs are   81 randomized atomic wfcs
     Checking if some PAW data can be deallocated...

     Self-consistent Calculation

     iteration #  1     ecut=    30.00 Ry     beta= 0.70
     Davidson diagonalization with overlap

     ethr =  1.00E-02,  avg # of iterations =  2.0

     total energy              =   -1404.65844109 Ry
     estimated scf accuracy    <       1.52694346 Ry

[...]

     negative rho (up, down):  1.248E-04 0.000E+00

[...]

     c_bands:  1 eigenvalues not converged
     ethr =  7.34E-06,  avg # of iterations =  5.6

[...]

     total energy              =   -1405.39309140 Ry
     estimated scf accuracy    <       0.00000143 Ry

     iteration # 14     ecut=    30.00 Ry     beta= 0.70
     Davidson diagonalization with overlap

     ethr =  1.30E-09,  avg # of iterations =  2.0

     negative rho (up, down):  1.651E-04 0.000E+00

     End of self-consistent calculation

          k = 0.0000 0.0000 0.0000 (  2855 PWs)   bands (ev):

   -81.2906 -81.2904 -81.2280 -46.9692 -46.9621 -46.9207 -46.9072 -46.9027
   -46.8522 -46.8452 -46.8208 -46.7662 -38.9795 -38.9701 -18.3190 -18.0467
   -17.8049 -17.6902 -17.6746 -17.5775 -17.5652 -17.5305  -1.2962  -1.0001
    -0.7265  -0.4488  -0.3626  -0.2669  -0.1148  -0.0803   0.0464   0.0557
     0.3120   0.4123   0.4704   0.7657   0.8600   1.0209   1.2565   1.2767
     1.4274   1.5036   1.5484   1.6333   1.7486   1.8792   4.7926   4.9717
     5.0008   5.0407   5.0443   5.0662   5.1065   5.1128   5.3657   6.3219
     6.3512   6.4514   6.7559   6.8256   7.2362   8.4691  13.5217  13.7553

     occupation numbers
     1.0000   1.0000   1.0000   1.0000   1.0000   1.0000   1.0000   1.0000
     1.0000   1.0000   1.0000   1.0000   1.0000   1.0000   1.0000   1.0000
     1.0000   1.0000   1.0000   1.0000   1.0000   1.0000   1.0000   1.0000
     1.0000   1.0000   1.0000   1.0000   1.0000   1.0000   1.0000   1.0000
     1.0000   1.0000   1.0000   1.0000   1.0000   1.0000   1.0000   1.0000
     1.0000   1.0000   1.0000   1.0000   1.0000   1.0000   1.0000   1.0000
     1.0000   1.0000   1.0000   1.0000   1.0000   1.0000   1.0000   0.0000
     0.0000   0.0000   0.0000   0.0000   0.0000   0.0000   0.0000   0.0000

[...]

          k = 0.3333-0.1803-0.3795 (  2838 PWs)   bands (ev):

   -81.2899 -81.2867 -81.2259 -46.9670 -46.9465 -46.9149 -46.8992 -46.8863
   -46.8526 -46.8416 -46.8175 -46.7510 -38.9778 -38.9711 -18.1877 -18.0934
   -17.8350 -17.7393 -17.6369 -17.6104 -17.5652 -17.5514  -0.9352  -0.8335
    -0.6592  -0.4616  -0.3435  -0.1422  -0.0589  -0.0056   0.0965   0.2317
     0.2661   0.3682   0.6021   0.7473   0.7769   0.9373   1.0130   1.0350
     1.1228   1.2395   1.3796   1.5212   1.7256   1.7929   4.8008   4.9506
     4.9977   5.0326   5.0684   5.1362   5.1556   5.2422   5.2722   6.2010
     6.4363   6.4915   6.6824   6.9436   7.0691  10.6023  11.6803  12.4916

     occupation numbers
     1.0000   1.0000   1.0000   1.0000   1.0000   1.0000   1.0000   1.0000
     1.0000   1.0000   1.0000   1.0000   1.0000   1.0000   1.0000   1.0000
     1.0000   1.0000   1.0000   1.0000   1.0000   1.0000   1.0000   1.0000
     1.0000   1.0000   1.0000   1.0000   1.0000   1.0000   1.0000   1.0000
     1.0000   1.0000   1.0000   1.0000   1.0000   1.0000   1.0000   1.0000
     1.0000   1.0000   1.0000   1.0000   1.0000   1.0000   1.0000   1.0000
     1.0000   1.0000   1.0000   1.0000   1.0000   1.0000   1.0000   0.0000
     0.0000   0.0000   0.0000   0.0000   0.0000   0.0000   0.0000   0.0000

     highest occupied, lowest unoccupied level (ev):     5.3707    6.1970

!    total energy              =   -1405.39309172 Ry
     estimated scf accuracy    <       0.00000024 Ry

     The total energy is the sum of the following terms:
     one-electron contribution =    -757.61130607 Ry
     hartree contribution      =     426.18868253 Ry
     xc contribution           =    -185.88667803 Ry
     ewald contribution        =    -659.88509807 Ry
     one-center paw contrib.   =    -228.19869210 Ry
      -> PAW hartree energy AE =       0.00000000 Ry
      -> PAW hartree energy PS =       0.00000000 Ry
      -> PAW xc energy AE      =       0.00000000 Ry
      -> PAW xc energy PS      =       0.00000000 Ry
      -> total E_H with PAW    =     426.18868253 Ry
      -> total E_XC with PAW   =    -185.88667803 Ry

     convergence has been achieved in  14 iterations

     Writing all to output data dir bands_nm/myprefix.save/

     General routines

     Parallel routines

     PAW routines

   This run was terminated on:   2:42:12  14Jul2023

   JOB DONE.