     Program PWSCF v.7.1 starts on 15Jul2023 at 21:29:16

     Reading input from espresso_8657.pwi
Warning: card &CELL ignored
Warning: card / ignored

     Current dimensions of program PWSCF are:
     Max number of different atomic species (ntypx) = 10
     Max number of k-points (npk) =  40000
     Max angular momentum in pseudopotentials (lmaxx) =  4
     file Ce.paw.z_12.atompaw.wentzcovitch.v1.2.upf: wavefunction(s)  6S 0P 5D 0D 4F 0F renormalized
     Message from routine setup:
     using ibrav=0 with symmetry is DISCOURAGED, use correct ibrav instead

     K-points division:     npool     =       2
     R & G space division:  proc/nbgrp/npool/nimage =       4
     Subspace diagonalization in iterative solution of the eigenvalue problem:
     one sub-group per band group will be used

     Using Slab Decomposition

     bravais-lattice index     =            0
     lattice parameter (alat)  =      11.3405  a.u.
     unit-cell volume          =    2791.1675 (a.u.)^3
     number of atoms/cell      =           20
     number of atomic types    =            3
     number of electrons       =       132.00
     number of Kohn-Sham states=          256
     kinetic-energy cutoff     =      30.0000  Ry
     charge density cutoff     =     240.0000  Ry
     scf convergence threshold =      1.0E-06
     mixing beta               =       0.7000
     number of iterations used =            8  plain     mixing
     Exchange-correlation=  SLA  PW   PBX  PBC
                           (   1   4   3   4   0   0   0)

     celldm(1)=  11.340507  celldm(2)=   0.000000  celldm(3)=   0.000000
     celldm(4)=   0.000000  celldm(5)=   0.000000  celldm(6)=   0.000000

     crystal axes: (cart. coord. in units of alat)
               a(1) = (   1.000000   0.000000   0.000000 )
               a(2) = (   0.000000   1.277404   0.000000 )
               a(3) = (   0.000000   0.000000   1.498167 )

     reciprocal axes: (cart. coord. in units 2 pi/alat)
               b(1) = (  1.000000  0.000000  0.000000 )
               b(2) = (  0.000000  0.782838  0.000000 )
               b(3) = (  0.000000  0.000000  0.667482 )

     PseudoPot. # 1 for Ce read from file:
     /lustre07/scratch/pragov/crystal_structure_design/utils/SSSP/Ce.paw.z_12.atompaw.wentzcovitch.v1.2.upf
     MD5 check sum: 2241420ff980c77e0c917a2dc8a7e08e
     Pseudo is Projector augmented-wave + core cor, Zval = 12.0
     Generated using ATOMPAW code
     Shape of augmentation charge: BESSEL
     Using radial grid of 1102 points,  8 beta functions with:
                l(1) =   0
                l(2) =   0
                l(3) =   1
                l(4) =   1
                l(5) =   2
                l(6) =   2
                l(7) =   3
                l(8) =   3
     Q(r) pseudized with 0 coefficients

     PseudoPot. # 2 for B  read from file:
     /lustre07/scratch/pragov/crystal_structure_design/utils/SSSP/b_pbe_v1.4.uspp.F.UPF
     MD5 check sum: cc6de2960df11db49a60e589f9ebb39b
     Pseudo is Ultrasoft + core correction, Zval =  3.0
     Generated by new atomic code, or converted to UPF format
     Using radial grid of  781 points,  4 beta functions with:
                l(1) =   0
                l(2) =   0
                l(3) =   1
                l(4) =   1
     Q(r) pseudized with  8 coefficients,  rinner =    1.100   1.100   1.100

     PseudoPot. # 3 for S  read from file:
     /lustre07/scratch/pragov/crystal_structure_design/utils/SSSP/s_pbe_v1.4.uspp.F.UPF
     MD5 check sum: 88d86576ff6df21479756cfb9bdac1df
     Pseudo is Ultrasoft + core correction, Zval =  6.0
     Generated by new atomic code, or converted to UPF format
     Using radial grid of  907 points,  6 beta functions with:
                l(1) =   0
                l(2) =   0
                l(3) =   1
                l(4) =   1
                l(5) =   2
                l(6) =   2
     Q(r) pseudized with  8 coefficients,  rinner =    1.300   1.300   1.300
                                                       1.300   1.300

     atomic species   valence    mass     pseudopotential
        Ce            12.00   140.11600     Ce( 1.00)
        B              3.00    10.81000     B ( 1.00)
        S              6.00    32.06000     S ( 1.00)

      4 Sym. Ops. (no inversion) found ( 3 have fractional translation)

                                    s                        frac. trans.

      isym =  1     identity

 cryst.   s( 1) = (     1          0          0      )
                  (     0          1          0      )
                  (     0          0          1      )

 cart.    s( 1) = (  1.0000000  0.0000000  0.0000000 )
                  (  0.0000000  1.0000000  0.0000000 )
                  (  0.0000000  0.0000000  1.0000000 )

      isym =  2     180 deg rotation - cart. axis [0,0,1]

 cryst.   s( 2) = (    -1          0          0      )    f =( -0.0000000 )
                  (     0         -1          0      )       (  0.0000000 )
                  (     0          0          1      )       ( -0.5000000 )

 cart.    s( 2) = ( -1.0000000  0.0000000  0.0000000 )    f =( -0.0000000 )
                  (  0.0000000 -1.0000000  0.0000000 )       (  0.0000000 )
                  (  0.0000000  0.0000000  1.0000000 )       ( -0.7490835 )

      isym =  3     inv. 180 deg rotation - cart. axis [0,1,0]

[...]

      isym =  4     inv. 180 deg rotation - cart. axis [1,0,0]

 cryst.   s( 4) = (    -1          0          0      )    f =(  0.5000000 )
                  (     0          1          0      )       ( -0.5000000 )
                  (     0          0          1      )       (  0.0000000 )

 cart.    s( 4) = ( -1.0000000  0.0000000  0.0000000 )    f =(  0.5000000 )
                  (  0.0000000  1.0000000  0.0000000 )       ( -0.6387019 )
                  (  0.0000000  0.0000000  1.0000000 )       (  0.0000000 )

   Cartesian axes

     site n.     atom                  positions (alat units)
         1           Ce  tau(   1) = (   0.9299250   0.4900683   0.3833734  )
         2           Ce  tau(   2) = (   0.0700750   0.7873355   1.1324570  )
         3           Ce  tau(   3) = (   0.4299250   0.1486336   1.1324570  )
         4           Ce  tau(   4) = (   0.5700750   1.1287703   0.3833734  )
         5           B   tau(   5) = (   0.0951130   1.0810299   0.6397802  )
         6           B   tau(   6) = (   0.9048870   0.1963740   1.3888637  )
         7           B   tau(   7) = (   0.5951130   0.8350760   1.3888637  )
         8           B   tau(   8) = (   0.4048870   0.4423279   0.6397802  )
         9           S   tau(   9) = (   0.5914770   0.6472337   1.1533669  )
        10           S   tau(  10) = (   0.4085230   0.6301702   0.4042834  )
        11           S   tau(  11) = (   0.0914770   1.2688721   0.4042834  )
        12           S   tau(  12) = (   0.9085230   0.0085318   1.1533669  )
        13           S   tau(  13) = (   0.8352090   0.8651218   0.0742641  )
        14           S   tau(  14) = (   0.1647910   0.4122821   0.8233476  )
        15           S   tau(  15) = (   0.3352090   1.0509840   0.8233476  )
        16           S   tau(  16) = (   0.6647910   0.2264198   0.0742641  )
        17           S   tau(  17) = (   0.3633090   1.0272231   1.4335676  )
        18           S   tau(  18) = (   0.6366910   0.2501808   0.6844840  )
        19           S   tau(  19) = (   0.8633090   0.8888828   0.6844840  )
        20           S   tau(  20) = (   0.1366910   0.3885211   1.4335676  )

   Crystallographic axes

     site n.     atom                  positions (cryst. coord.)
         1           Ce  tau(   1) = (  0.9299250  0.3836440  0.2558950  )
         2           Ce  tau(   2) = (  0.0700750  0.6163560  0.7558950  )
         3           Ce  tau(   3) = (  0.4299250  0.1163560  0.7558950  )
         4           Ce  tau(   4) = (  0.5700750  0.8836440  0.2558950  )
         5           B   tau(   5) = (  0.0951130  0.8462710  0.4270420  )
         6           B   tau(   6) = (  0.9048870  0.1537290  0.9270420  )
         7           B   tau(   7) = (  0.5951130  0.6537290  0.9270420  )
         8           B   tau(   8) = (  0.4048870  0.3462710  0.4270420  )
         9           S   tau(   9) = (  0.5914770  0.5066790  0.7698520  )
        10           S   tau(  10) = (  0.4085230  0.4933210  0.2698520  )
        11           S   tau(  11) = (  0.0914770  0.9933210  0.2698520  )
        12           S   tau(  12) = (  0.9085230  0.0066790  0.7698520  )
        13           S   tau(  13) = (  0.8352090  0.6772500  0.0495700  )
        14           S   tau(  14) = (  0.1647910  0.3227500  0.5495700  )
        15           S   tau(  15) = (  0.3352090  0.8227500  0.5495700  )
        16           S   tau(  16) = (  0.6647910  0.1772500  0.0495700  )
        17           S   tau(  17) = (  0.3633090  0.8041490  0.9568810  )
        18           S   tau(  18) = (  0.6366910  0.1958510  0.4568810  )
        19           S   tau(  19) = (  0.8633090  0.6958510  0.4568810  )
        20           S   tau(  20) = (  0.1366910  0.3041490  0.9568810  )

     number of k points=     8
                       cart. coord. in units 2pi/alat
        k(    1) = (   0.0000000   0.0000000   0.0000000), wk =   0.0740741
        k(    2) = (   0.0000000   0.0000000   0.2224941), wk =   0.1481481
        k(    3) = (   0.0000000   0.2609459   0.0000000), wk =   0.1481481
        k(    4) = (   0.0000000   0.2609459   0.2224941), wk =   0.2962963
        k(    5) = (   0.3333333   0.0000000   0.0000000), wk =   0.1481481
        k(    6) = (   0.3333333   0.0000000   0.2224941), wk =   0.2962963
        k(    7) = (   0.3333333   0.2609459   0.0000000), wk =   0.2962963
        k(    8) = (   0.3333333   0.2609459   0.2224941), wk =   0.5925926

                       cryst. coord.
        k(    1) = (   0.0000000   0.0000000   0.0000000), wk =   0.0740741
        k(    2) = (   0.0000000   0.0000000   0.3333333), wk =   0.1481481
        k(    3) = (   0.0000000   0.3333333   0.0000000), wk =   0.1481481
        k(    4) = (   0.0000000   0.3333333   0.3333333), wk =   0.2962963
        k(    5) = (   0.3333333   0.0000000   0.0000000), wk =   0.1481481
        k(    6) = (   0.3333333   0.0000000   0.3333333), wk =   0.2962963
        k(    7) = (   0.3333333   0.3333333   0.0000000), wk =   0.2962963
        k(    8) = (   0.3333333   0.3333333   0.3333333), wk =   0.5925926

     Check: negative core charge=   -0.000002

     Initial potential from superposition of free atoms

     starting charge     131.9705, renormalised to     132.0000
     Starting wfcs are  192 randomized atomic wfcs +   64 random wfcs
     Checking if some PAW data can be deallocated...

     Self-consistent Calculation

     iteration #  1     ecut=    30.00 Ry     beta= 0.70
     Davidson diagonalization with overlap

     ethr =  1.00E-02,  avg # of iterations =  7.9

     total energy              =   -2232.14422213 Ry
     estimated scf accuracy    <       1.43317843 Ry

[...]

     total energy              =   -2244.62424339 Ry
     estimated scf accuracy    <       0.00000643 Ry

     iteration # 32     ecut=    30.00 Ry     beta= 0.70
     Davidson diagonalization with overlap

     ethr =  4.87E-09,  avg # of iterations =  1.0

     End of self-consistent calculation

          k = 0.0000 0.0000 0.0000 (  7743 PWs)   bands (ev):

   -26.5488 -26.5457 -26.5388 -26.5374  -9.7179  -9.6313  -9.6056  -9.5281
    -9.4640  -9.4581  -9.4437  -9.4229  -9.4218  -9.4077  -9.3393  -9.3381
    -6.6608  -6.0363  -5.9867  -5.9278  -4.7800  -4.7699  -4.6288  -4.5779
    -4.5628  -4.4998  -4.4454  -4.4224   1.0651   1.1161   1.4165   1.4599
     2.5956   3.0065   3.1175   3.1333   3.1593   3.2710   3.3477   3.3820
     3.3920   3.8827   4.2898   4.5151   4.5906   4.5925   4.6130   4.8758
     5.2672   5.3068   5.3988   5.5954   5.7760   5.8013   5.9095   5.9248
     5.9584   6.0895   6.1754   6.4520   6.4669   6.4867   6.7445   6.9596
     8.7002   8.7165   8.7215   8.7446   8.7847   8.7855   8.7925   8.7990
     8.8049   8.8053   8.8302   8.8312   8.8518   8.8569   8.8620   8.8948
     8.8956   8.8984   8.9329   8.9399   8.9522   8.9549   8.9607   8.9655
     9.0004   9.0261   9.0306   9.0472   9.7160  10.4075  10.4286  10.4622
    10.7489  10.8040  10.9299  10.9475  11.0177  11.1476  11.3417  11.3568
    11.5886  11.7395  11.7517  11.7992  11.8466  12.0689  12.2398  12.3314
    12.4526  12.5067  12.8196  12.8832  12.9463  13.6940  13.7276  13.9856
    14.0934  14.1485  14.2619  14.4545  14.4564  14.5796  15.0154  15.2710
    15.3444  15.5459  15.6962  15.7735  15.9053  16.1872  16.3581  16.3727
    16.4509  16.4534  16.8584  17.0331  17.0332  17.1698  17.3820  17.5886
    17.7020  17.9874  18.0156  18.3648  18.4118  18.4781  18.5290  18.7068
    18.7809  18.9140  19.1045  19.2837  19.3843  19.4369  19.5800  19.6516
    19.9631  20.0875  20.2040  20.3604  20.5566  20.6154  20.7485  20.9636
    21.0634  21.0854  21.3337  21.3826  21.5336  21.5917  21.6365  21.6467
    21.8394  22.2280  22.4191  22.5904  22.6047  23.0141  23.0539  23.1226
    23.2211  23.4854  23.5842  23.9665  24.2814  24.3746  24.5819  24.8631
    24.9592  25.1558  25.1776  25.2463  25.5266  25.6045  25.7973  25.8178
    25.8298  25.9886  26.2185  26.3160  26.4172  26.4871  26.5243  26.6115
    26.8298  26.8692  26.9138  26.9254  27.0090  27.0852  27.3610  27.5530
    27.7451  27.8547  27.9584  27.9880  28.1515  28.3499  28.4833  28.5727
    28.6873  28.8755  28.9187  28.9315  28.9697  29.0845  29.5766  29.7056
    29.7515  30.0115  30.0460  30.1270  30.1477  30.2162  30.3220  30.4466
    30.4550  30.4899  30.7084  30.8283  30.9448  31.0091  31.0977  31.1798
    31.5440  31.6048  31.6572  31.7793  31.9349  31.9850  32.0882  32.2077

     occupation numbers
     1.0000   1.0000   1.0000   1.0000   1.0000   1.0000   1.0000   1.0000
     1.0000   1.0000   1.0000   1.0000   1.0000   1.0000   1.0000   1.0000
     1.0000   1.0000   1.0000   1.0000   1.0000   1.0000   1.0000   1.0000
     1.0000   1.0000   1.0000   1.0000   1.0000   1.0000   1.0000   1.0000
     1.0000   1.0000   1.0000   1.0000   1.0000   1.0000   1.0000   1.0000
     1.0000   1.0000   1.0000   1.0000   1.0000   1.0000   1.0000   1.0000
     1.0000   1.0000   1.0000   1.0000   1.0000   1.0000   1.0000   1.0000
     1.0000   1.0000   1.0000   1.0000   1.0000   1.0000   1.0000   1.0000
     1.0000   1.0000   0.0000   0.0000   0.0000   0.0000   0.0000   0.0000
     0.0000   0.0000   0.0000   0.0000   0.0000   0.0000   0.0000   0.0000
     0.0000   0.0000   0.0000   0.0000   0.0000   0.0000   0.0000   0.0000
     0.0000   0.0000   0.0000   0.0000   0.0000   0.0000   0.0000   0.0000
     0.0000   0.0000   0.0000   0.0000   0.0000   0.0000   0.0000   0.0000
     0.0000   0.0000   0.0000   0.0000   0.0000   0.0000   0.0000   0.0000
     0.0000   0.0000   0.0000   0.0000   0.0000   0.0000   0.0000   0.0000
     0.0000   0.0000   0.0000   0.0000   0.0000   0.0000   0.0000   0.0000
     0.0000   0.0000   0.0000   0.0000   0.0000   0.0000   0.0000   0.0000
     0.0000   0.0000   0.0000   0.0000   0.0000   0.0000   0.0000   0.0000
     0.0000   0.0000   0.0000   0.0000   0.0000   0.0000   0.0000   0.0000
     0.0000   0.0000   0.0000   0.0000   0.0000   0.0000   0.0000   0.0000
     0.0000   0.0000   0.0000   0.0000   0.0000   0.0000   0.0000   0.0000
     0.0000   0.0000   0.0000   0.0000   0.0000   0.0000   0.0000   0.0000
     0.0000   0.0000   0.0000   0.0000   0.0000   0.0000   0.0000   0.0000
     0.0000   0.0000   0.0000   0.0000   0.0000   0.0000   0.0000   0.0000
     0.0000   0.0000   0.0000   0.0000   0.0000   0.0000   0.0000   0.0000
     0.0000   0.0000   0.0000   0.0000   0.0000   0.0000   0.0000   0.0000
     0.0000   0.0000   0.0000   0.0000   0.0000   0.0000   0.0000   0.0000
     0.0000   0.0000   0.0000   0.0000   0.0000   0.0000   0.0000   0.0000
     0.0000   0.0000   0.0000   0.0000   0.0000   0.0000   0.0000   0.0000
     0.0000   0.0000   0.0000   0.0000   0.0000   0.0000   0.0000   0.0000
     0.0000   0.0000   0.0000   0.0000   0.0000   0.0000   0.0000   0.0000
     0.0000   0.0000   0.0000   0.0000   0.0000   0.0000   0.0000   0.0000

[...]

          k = 0.3333 0.2609 0.2225 (  7747 PWs)   bands (ev):

   -26.5450 -26.5443 -26.5406 -26.5401  -9.6682  -9.6419  -9.5979  -9.5787
    -9.5356  -9.5070  -9.4550  -9.4492  -9.4239  -9.4059  -9.3639  -9.3626
    -6.1426  -5.9994  -5.9589  -5.9190  -4.8083  -4.7715  -4.6920  -4.6758
    -4.5638  -4.5311  -4.4903  -4.4645   1.3666   1.4398   1.4878   1.5891
     2.5900   2.7274   2.8414   2.9238   3.0345   3.1256   3.2332   3.3313
     3.6787   3.8408   4.0851   4.1868   4.6301   4.7233   4.9289   5.0758
     5.1758   5.2645   5.3273   5.4293   5.5590   5.6991   5.8524   5.9680
     6.0874   6.1545   6.2372   6.3591   6.4095   6.4831   6.6921   6.8672
     8.6881   8.7137   8.7302   8.7362   8.7704   8.7787   8.7949   8.8013
     8.8188   8.8255   8.8328   8.8423   8.8531   8.8634   8.8791   8.8878
     8.9101   8.9193   8.9255   8.9357   8.9473   8.9525   8.9610   8.9813
     8.9978   9.0142   9.0352   9.0525   9.7558   9.8976  10.0498  10.1962
    10.5878  10.6175  10.7745  10.8755  10.9356  11.1523  11.3347  11.4190
    11.6011  11.7621  11.9425  12.0195  12.1289  12.2674  12.3275  12.5199
    12.6248  12.7707  12.9174  13.1164  13.5994  13.7022  13.8802  13.9883
    14.1083  14.2161  14.3091  14.5378  14.6580  14.7736  14.9165  15.1161
    15.4167  15.5262  15.8453  15.9550  16.0597  16.1603  16.3106  16.3947
    16.5777  16.6659  16.8654  17.0564  17.1500  17.2642  17.4855  17.6161
    17.7286  17.9221  18.0112  18.1451  18.2258  18.3396  18.5453  18.6815
    18.7654  18.8942  19.0751  19.1348  19.4157  19.5539  19.5950  19.7444
    19.8430  19.9317  20.0809  20.3420  20.4342  20.5299  20.6809  20.8451
    20.9456  21.0587  21.1833  21.2884  21.5225  21.6257  21.7863  21.9707
    22.1375  22.1855  22.3633  22.4976  22.5829  22.8189  23.1095  23.3160
    23.5922  23.6601  23.9205  24.0991  24.2821  24.3789  24.5671  24.6772
    24.7976  24.9161  25.0845  25.1336  25.2437  25.3213  25.5612  25.5853
    25.7249  25.8119  26.0055  26.1137  26.2185  26.3613  26.4510  26.5419
    26.6981  26.8307  27.0237  27.0985  27.2299  27.3888  27.4679  27.6124
    27.7126  27.7857  27.9156  28.0003  28.1803  28.3271  28.3583  28.4840
    28.6328  28.6835  28.9419  29.0867  29.1432  29.2521  29.3118  29.4412
    29.6016  29.6562  29.8636  29.9747  30.0022  30.1633  30.3281  30.3675
    30.4839  30.6239  30.7890  30.8652  30.9492  31.1245  31.1951  31.2617
    31.4248  31.5209  31.6508  31.7848  31.8932  31.9971  32.1009  32.1768

     occupation numbers
     1.0000   1.0000   1.0000   1.0000   1.0000   1.0000   1.0000   1.0000
     1.0000   1.0000   1.0000   1.0000   1.0000   1.0000   1.0000   1.0000
     1.0000   1.0000   1.0000   1.0000   1.0000   1.0000   1.0000   1.0000
     1.0000   1.0000   1.0000   1.0000   1.0000   1.0000   1.0000   1.0000
     1.0000   1.0000   1.0000   1.0000   1.0000   1.0000   1.0000   1.0000
     1.0000   1.0000   1.0000   1.0000   1.0000   1.0000   1.0000   1.0000
     1.0000   1.0000   1.0000   1.0000   1.0000   1.0000   1.0000   1.0000
     1.0000   1.0000   1.0000   1.0000   1.0000   1.0000   1.0000   1.0000
     1.0000   1.0000   0.0000   0.0000   0.0000   0.0000   0.0000   0.0000
     0.0000   0.0000   0.0000   0.0000   0.0000   0.0000   0.0000   0.0000
     0.0000   0.0000   0.0000   0.0000   0.0000   0.0000   0.0000   0.0000
     0.0000   0.0000   0.0000   0.0000   0.0000   0.0000   0.0000   0.0000
     0.0000   0.0000   0.0000   0.0000   0.0000   0.0000   0.0000   0.0000
     0.0000   0.0000   0.0000   0.0000   0.0000   0.0000   0.0000   0.0000
     0.0000   0.0000   0.0000   0.0000   0.0000   0.0000   0.0000   0.0000
     0.0000   0.0000   0.0000   0.0000   0.0000   0.0000   0.0000   0.0000
     0.0000   0.0000   0.0000   0.0000   0.0000   0.0000   0.0000   0.0000
     0.0000   0.0000   0.0000   0.0000   0.0000   0.0000   0.0000   0.0000
     0.0000   0.0000   0.0000   0.0000   0.0000   0.0000   0.0000   0.0000
     0.0000   0.0000   0.0000   0.0000   0.0000   0.0000   0.0000   0.0000
     0.0000   0.0000   0.0000   0.0000   0.0000   0.0000   0.0000   0.0000
     0.0000   0.0000   0.0000   0.0000   0.0000   0.0000   0.0000   0.0000
     0.0000   0.0000   0.0000   0.0000   0.0000   0.0000   0.0000   0.0000
     0.0000   0.0000   0.0000   0.0000   0.0000   0.0000   0.0000   0.0000
     0.0000   0.0000   0.0000   0.0000   0.0000   0.0000   0.0000   0.0000
     0.0000   0.0000   0.0000   0.0000   0.0000   0.0000   0.0000   0.0000
     0.0000   0.0000   0.0000   0.0000   0.0000   0.0000   0.0000   0.0000
     0.0000   0.0000   0.0000   0.0000   0.0000   0.0000   0.0000   0.0000
     0.0000   0.0000   0.0000   0.0000   0.0000   0.0000   0.0000   0.0000
     0.0000   0.0000   0.0000   0.0000   0.0000   0.0000   0.0000   0.0000
     0.0000   0.0000   0.0000   0.0000   0.0000   0.0000   0.0000   0.0000
     0.0000   0.0000   0.0000   0.0000   0.0000   0.0000   0.0000   0.0000

     highest occupied, lowest unoccupied level (ev):     8.7278    8.7215

!    total energy              =   -2244.62424696 Ry
     estimated scf accuracy    <       0.00000061 Ry

     The total energy is the sum of the following terms:
     one-electron contribution =     -30.95897317 Ry
     hartree contribution      =      85.34930628 Ry
     xc contribution           =    -168.45799785 Ry
     ewald contribution        =    -510.87175323 Ry
     one-center paw contrib.   =   -1619.68482900 Ry
      -> PAW hartree energy AE =     133.46501847 Ry
      -> PAW hartree energy PS =    -132.59811974 Ry
      -> PAW xc energy AE      =   -1251.95756351 Ry
      -> PAW xc energy PS      =      36.32704303 Ry
      -> total E_H with PAW    =      86.21620501 Ry
      -> total E_XC with PAW   =   -1384.08851833 Ry

     convergence has been achieved in  32 iterations

     Writing all to output data dir bands_nm/myprefix.save/

     General routines

     Parallel routines

     PAW routines

   This run was terminated on:  21:32:13  15Jul2023

   JOB DONE.