     Program PWSCF v.7.1 starts on 17Jul2023 at  0:53:26

     Reading input from espresso_26225.pwi
Warning: card &CELL ignored
Warning: card / ignored

     Current dimensions of program PWSCF are:
     Max number of different atomic species (ntypx) = 10
     Max number of k-points (npk) =  40000
     Max angular momentum in pseudopotentials (lmaxx) =  4
     Message from routine setup:
     the system is metallic, specify occupations
     Message from routine setup:
     using ibrav=0 with symmetry is DISCOURAGED, use correct ibrav instead

     K-points division:     npool     =       2
     R & G space division:  proc/nbgrp/npool/nimage =       4
     Subspace diagonalization in iterative solution of the eigenvalue problem:
     a serial algorithm will be used

     Using Slab Decomposition

     bravais-lattice index     =            0
     lattice parameter (alat)  =      11.4935  a.u.
     unit-cell volume          =    1037.7387 (a.u.)^3
     number of atoms/cell      =           13
     number of atomic types    =            3
     number of electrons       =        81.00 (up:  41.00, down:  40.00)
     number of Kohn-Sham states=           64
     kinetic-energy cutoff     =      30.0000  Ry
     charge density cutoff     =     240.0000  Ry
     scf convergence threshold =      1.0E-06
     mixing beta               =       0.7000
     number of iterations used =            8  plain     mixing
     Exchange-correlation=  SLA  PW   PBX  PBC
                           (   1   4   3   4   0   0   0)

     celldm(1)=  11.493513  celldm(2)=   0.000000  celldm(3)=   0.000000
     celldm(4)=   0.000000  celldm(5)=   0.000000  celldm(6)=   0.000000

     crystal axes: (cart. coord. in units of alat)
               a(1) = (   1.000000   0.000000   0.000000 )
               a(2) = (   0.000000   0.851062   0.000000 )
               a(3) = (   0.000000   0.326457   0.803098 )

     reciprocal axes: (cart. coord. in units 2 pi/alat)
               b(1) = (  1.000000  0.000000  0.000000 )
               b(2) = (  0.000000  1.175003 -0.477635 )
               b(3) = (  0.000000  0.000000  1.245178 )

     PseudoPot. # 1 for Li read from file:
     /lustre03/project/6004852/pragov/crystal_structure_design/crystal-design/crystal_design/utils/SSSP/li_pbe_v1.4.uspp.F.UPF
     MD5 check sum: e912e257baa3777c20ea3d68f190483c
     Pseudo is Ultrasoft, Zval =  3.0
     Generated by new atomic code, or converted to UPF format
     Using radial grid of  751 points,  5 beta functions with:
                l(1) =   0
                l(2) =   0
                l(3) =   0
                l(4) =   1
                l(5) =   1
     Q(r) pseudized with 10 coefficients,  rinner =    1.150   1.150   1.150

     PseudoPot. # 2 for V  read from file:
     /lustre03/project/6004852/pragov/crystal_structure_design/crystal-design/crystal_design/utils/SSSP/v_pbe_v1.4.uspp.F.UPF
     MD5 check sum: 22b79981416ebb76fdaf5b1b8640f6fb
     Pseudo is Ultrasoft + core correction, Zval = 13.0
     Generated by new atomic code, or converted to UPF format
     Using radial grid of  853 points,  6 beta functions with:
                l(1) =   0
                l(2) =   0
                l(3) =   1
                l(4) =   1
                l(5) =   2
                l(6) =   2
     Q(r) pseudized with  8 coefficients,  rinner =    1.100   1.100   1.100
                                                       1.100   1.100

     PseudoPot. # 3 for F  read from file:
     /lustre03/project/6004852/pragov/crystal_structure_design/crystal-design/crystal_design/utils/SSSP/f_pbe_v1.4.uspp.F.UPF
     MD5 check sum: 4c38b6a325caf53ec0e86aed9459de46
     Pseudo is Ultrasoft, Zval =  7.0
     Generated by new atomic code, or converted to UPF format
     Using radial grid of  799 points,  4 beta functions with:
                l(1) =   0
                l(2) =   0
                l(3) =   1
                l(4) =   1
     Q(r) pseudized with  8 coefficients,  rinner =    0.950   0.950   0.950

     atomic species   valence    mass     pseudopotential
        Li             3.00     6.94000     Li( 1.00)
        V             13.00    50.94150     V ( 1.00)
        F              7.00    18.99840     F ( 1.00)

     Starting magnetic structure
     atomic species   magnetization
        Li           0.000
        V            0.000
        F            0.000

      2 Sym. Ops. (no inversion) found

                                    s                        frac. trans.

      isym =  1     identity

 cryst.   s( 1) = (     1          0          0      )
                  (     0          1          0      )
                  (     0          0          1      )

 cart.    s( 1) = (  1.0000000  0.0000000  0.0000000 )
                  (  0.0000000  1.0000000  0.0000000 )
                  (  0.0000000  0.0000000  1.0000000 )

      isym =  2     180 deg rotation - cart. axis [1,0,0]

 cryst.   s( 2) = (     1          0          0      )
                  (     0         -1          0      )
                  (     0          0         -1      )

 cart.    s( 2) = (  1.0000000  0.0000000  0.0000000 )
                  (  0.0000000 -1.0000000  0.0000000 )
                  (  0.0000000  0.0000000 -1.0000000 )

   Cartesian axes

     site n.     atom                  positions (alat units)
         1           Li  tau(   1) = (   0.8153010   0.1632284   0.4015491  )
         2           Li  tau(   2) = (   0.0078750   0.5887592   0.4015491  )
         3           Li  tau(   3) = (   0.7641610   0.4255308   0.0000000  )
         4           Li  tau(   4) = (   0.2102610   0.4255308   0.0000000  )
         5           V   tau(   5) = (   0.4959880   0.5887592   0.4015491  )
         6           F   tau(   6) = (   0.5103250   0.8391418   0.5886236  )
         7           F   tau(   7) = (   0.9816520   0.8356930   0.5929965  )
         8           F   tau(   8) = (   0.7186600   0.7203767   0.2278703  )
         9           F   tau(   9) = (   0.2793280   0.6944677   0.2142465  )
        10           F   tau(  10) = (   0.2793280   0.4830508   0.5888517  )
        11           F   tau(  11) = (   0.7186600   0.4571418   0.5752280  )
        12           F   tau(  12) = (   0.9816520   0.3418254   0.2101018  )
        13           F   tau(  13) = (   0.5103250   0.3383766   0.2144746  )

   Crystallographic axes

     site n.     atom                  positions (cryst. coord.)
         1           Li  tau(   1) = (  0.8153010 -0.0000000  0.5000000  )
         2           Li  tau(   2) = (  0.0078750  0.5000000  0.5000000  )
         3           Li  tau(   3) = (  0.7641610  0.5000000  0.0000000  )
         4           Li  tau(   4) = (  0.2102610  0.5000000  0.0000000  )
         5           V   tau(   5) = (  0.4959880  0.5000000  0.5000000  )
         6           F   tau(   6) = (  0.5103250  0.7048470  0.7329410  )
         7           F   tau(   7) = (  0.9816520  0.6987060  0.7383860  )
         8           F   tau(   8) = (  0.7186600  0.7376060  0.2837390  )
         9           F   tau(   9) = (  0.2793280  0.7136700  0.2667750  )
        10           F   tau(  10) = (  0.2793280  0.2863300  0.7332250  )
        11           F   tau(  11) = (  0.7186600  0.2623940  0.7162610  )
        12           F   tau(  12) = (  0.9816520  0.3012940  0.2616140  )
        13           F   tau(  13) = (  0.5103250  0.2951530  0.2670590  )

     number of k points=    10
                       cart. coord. in units 2pi/alat
        k(    1) = (   0.0000000   0.0000000   0.0000000), wk =   0.0370370
        k(    2) = (   0.0000000   0.0000000   0.4150592), wk =   0.0740741
        k(    3) = (   0.0000000   0.3916677  -0.1592117), wk =   0.0740741
        k(    4) = (   0.0000000   0.3916677   0.2558475), wk =   0.0740741
        k(    5) = (   0.0000000   0.3916677  -0.5742709), wk =   0.0740741
        k(    6) = (   0.3333333   0.0000000   0.0000000), wk =   0.0740741
        k(    7) = (   0.3333333   0.0000000   0.4150592), wk =   0.1481481
        k(    8) = (   0.3333333   0.3916677  -0.1592117), wk =   0.1481481
        k(    9) = (   0.3333333   0.3916677   0.2558475), wk =   0.1481481
        k(   10) = (   0.3333333   0.3916677  -0.5742709), wk =   0.1481481

                       cryst. coord.
        k(    1) = (   0.0000000   0.0000000   0.0000000), wk =   0.0370370
        k(    2) = (   0.0000000   0.0000000   0.3333333), wk =   0.0740741
        k(    3) = (   0.0000000   0.3333333   0.0000000), wk =   0.0740741
        k(    4) = (   0.0000000   0.3333333   0.3333333), wk =   0.0740741
        k(    5) = (   0.0000000   0.3333333  -0.3333333), wk =   0.0740741
        k(    6) = (   0.3333333   0.0000000   0.0000000), wk =   0.0740741
        k(    7) = (   0.3333333   0.0000000   0.3333333), wk =   0.1481481
        k(    8) = (   0.3333333   0.3333333   0.0000000), wk =   0.1481481
        k(    9) = (   0.3333333   0.3333333   0.3333333), wk =   0.1481481
        k(   10) = (   0.3333333   0.3333333  -0.3333333), wk =   0.1481481

     Check: negative core charge=   -0.000002
     Generating pointlists ...
     new r_m :   0.1280 (alat units)  1.4707 (a.u.) for type    1
     new r_m :   0.1259 (alat units)  1.4474 (a.u.) for type    2
     new r_m :   0.1259 (alat units)  1.4474 (a.u.) for type    3

     Initial potential from superposition of free atoms

     starting charge      79.1958, renormalised to      81.0000

     negative rho (up, down):  6.699E-04 6.699E-04
     Starting wfcs are   62 randomized atomic wfcs +    2 random wfcs

     Self-consistent Calculation

     iteration #  1     ecut=    30.00 Ry     beta= 0.70
     Davidson diagonalization with overlap

     ethr =  1.00E-02,  avg # of iterations =  6.1

     negative rho (up, down):  1.751E-03 1.773E-03

     total energy              =    -590.41574884 Ry
     estimated scf accuracy    <       4.15555776 Ry

     total magnetization       =     1.00 Bohr mag/cell
     absolute magnetization    =     1.00 Bohr mag/cell

[...]

     total energy              =    -593.24577831 Ry
     estimated scf accuracy    <       0.00000129 Ry

[...]

     iteration # 13     ecut=    30.00 Ry     beta= 0.70
     Davidson diagonalization with overlap

     ethr =  1.60E-09,  avg # of iterations =  2.8

     negative rho (up, down):  4.725E-04 1.764E-03

     Magnetic moment per site  (integrated on atomic sphere of radius R)
     atom   1 (R=0.128)  charge=  2.0729  magn=  0.0002
     atom   2 (R=0.128)  charge=  2.0839  magn= -0.0001
     atom   3 (R=0.128)  charge=  2.0801  magn=  0.0002
     atom   4 (R=0.128)  charge=  2.0611  magn=  0.0003
     atom   5 (R=0.126)  charge=  9.2892  magn=  0.7708
     atom   6 (R=0.126)  charge=  6.2101  magn=  0.0132
     atom   7 (R=0.126)  charge=  6.2464  magn= -0.0007
     atom   8 (R=0.126)  charge=  6.2109  magn= -0.0028
     atom   9 (R=0.126)  charge=  6.2062  magn= -0.0005
     atom  10 (R=0.126)  charge=  6.2062  magn= -0.0005
     atom  11 (R=0.126)  charge=  6.2109  magn= -0.0028
     atom  12 (R=0.126)  charge=  6.2464  magn= -0.0007
     atom  13 (R=0.126)  charge=  6.2101  magn=  0.0132

     End of self-consistent calculation

 ------ SPIN UP ------------

          k = 0.0000 0.0000 0.0000 (  2873 PWs)   bands (ev):

   -64.3975 -41.5893 -41.5380 -41.5078 -41.4606 -38.4493 -38.1135 -38.0652
   -21.3266 -20.9320 -20.8012 -20.7660 -20.7516 -20.4783 -19.2987 -19.2105
    -3.8986  -3.8118  -3.7998  -3.7131  -3.5646  -3.2650  -3.1679  -2.8913
    -2.8741  -2.1531  -2.0938  -1.9061  -1.7169  -1.7139  -1.6590  -1.5643
    -1.2832  -1.1975  -1.1652  -0.8202  -0.6516  -0.6045  -0.4510  -0.2366
     2.2364   2.3504   2.3750   4.9563   5.0586   7.5413  10.9390  10.9721
    11.2136  11.6882  13.3905  13.9552  14.0966  14.4897  14.8676  14.9962
    15.1025  15.2957  15.4534  15.9870  16.1872  16.6945  16.9394  17.4013

     occupation numbers
     1.0000   1.0000   1.0000   1.0000   1.0000   1.0000   1.0000   1.0000
     1.0000   1.0000   1.0000   1.0000   1.0000   1.0000   1.0000   1.0000
     1.0000   1.0000   1.0000   1.0000   1.0000   1.0000   1.0000   1.0000
     1.0000   1.0000   1.0000   1.0000   1.0000   1.0000   1.0000   1.0000
     1.0000   1.0000   1.0000   1.0000   1.0000   1.0000   1.0000   1.0000
     1.0000   0.0000   0.0000   0.0000   0.0000   0.0000   0.0000   0.0000
     0.0000   0.0000   0.0000   0.0000   0.0000   0.0000   0.0000   0.0000
     0.0000   0.0000   0.0000   0.0000   0.0000   0.0000   0.0000   0.0000

[...]

 ------ SPIN DOWN ----------

[...]

          k = 0.3333 0.3917-0.5743 (  2873 PWs)   bands (ev):

   -63.3697 -41.5872 -41.5361 -41.5095 -41.4610 -38.0810 -36.7830 -36.7412
   -21.2444 -20.9601 -20.7868 -20.7794 -20.6703 -20.5372 -19.3238 -19.1933
    -3.8934  -3.6418  -3.5893  -3.4344  -3.3588  -3.2042  -2.8994  -2.8012
    -2.7008  -2.2450  -2.1066  -2.0292  -1.8270  -1.7832  -1.7115  -1.6139
    -1.3298  -1.2536  -1.1835  -0.7970  -0.7313  -0.6003  -0.5117  -0.4074
     2.9635   2.9948   4.1204   5.2996   5.4849   9.8766  10.5187  10.8954
    11.1493  11.5484  11.8754  13.5471  14.0380  14.3347  14.6740  15.0070
    15.5689  15.7327  16.1913  16.4121  16.8209  17.1689  17.5170  17.8955

     occupation numbers
     1.0000   1.0000   1.0000   1.0000   1.0000   1.0000   1.0000   1.0000
     1.0000   1.0000   1.0000   1.0000   1.0000   1.0000   1.0000   1.0000
     1.0000   1.0000   1.0000   1.0000   1.0000   1.0000   1.0000   1.0000
     1.0000   1.0000   1.0000   1.0000   1.0000   1.0000   1.0000   1.0000
     1.0000   1.0000   1.0000   1.0000   1.0000   1.0000   1.0000   1.0000
     0.0000   0.0000   0.0000   0.0000   0.0000   0.0000   0.0000   0.0000
     0.0000   0.0000   0.0000   0.0000   0.0000   0.0000   0.0000   0.0000
     0.0000   0.0000   0.0000   0.0000   0.0000   0.0000   0.0000   0.0000

     highest occupied, lowest unoccupied level (ev):     2.2364    2.3504

!    total energy              =    -593.24577847 Ry
     estimated scf accuracy    <       0.00000031 Ry

     The total energy is the sum of the following terms:
     one-electron contribution =    -410.10032925 Ry
     hartree contribution      =     233.18823229 Ry
     xc contribution           =    -108.31527066 Ry
     ewald contribution        =    -308.01841085 Ry

     total magnetization       =     1.00 Bohr mag/cell
     absolute magnetization    =     1.12 Bohr mag/cell

     convergence has been achieved in  13 iterations

     Writing all to output data dir bands_nm_v2/myprefix.save/

     General routines

     Parallel routines

   This run was terminated on:   0:53:42  17Jul2023

   JOB DONE.