     Program PWSCF v.7.1 starts on 12Jul2023 at 17:39:10

     Reading input from espresso_23076.pwi
Warning: card &CELL ignored
Warning: card / ignored

     Current dimensions of program PWSCF are:
     Max number of different atomic species (ntypx) = 10
     Max number of k-points (npk) =  40000
     Max angular momentum in pseudopotentials (lmaxx) =  4
     file O.pbe-n-kjpaw_psl.0.1.UPF: wavefunction(s)  2P renormalized
     Message from routine setup:
     using ibrav=0 with symmetry is DISCOURAGED, use correct ibrav instead

     K-points division:     npool     =       2
     R & G space division:  proc/nbgrp/npool/nimage =       8
     Subspace diagonalization in iterative solution of the eigenvalue problem:
     a serial algorithm will be used

     Using Slab Decomposition

     bravais-lattice index     =            0
     lattice parameter (alat)  =      11.4745  a.u.
     unit-cell volume          =    1068.4738 (a.u.)^3
     number of atoms/cell      =           16
     number of atomic types    =            3
     number of electrons       =       122.00
     number of Kohn-Sham states=           64
     kinetic-energy cutoff     =      30.0000  Ry
     charge density cutoff     =     240.0000  Ry
     scf convergence threshold =      1.0E-06
     mixing beta               =       0.7000
     number of iterations used =            8  plain     mixing
     Exchange-correlation= SLA  PW   PBX  PBC
                           (   1   4   3   4   0   0   0)

     celldm(1)=  11.474510  celldm(2)=   0.000000  celldm(3)=   0.000000
     celldm(4)=   0.000000  celldm(5)=   0.000000  celldm(6)=   0.000000

     crystal axes: (cart. coord. in units of alat)
               a(1) = (   1.000000   0.000000   0.000000 )
               a(2) = (   0.499883   0.866093   0.000000 )
               a(3) = (   0.499883   0.288653   0.816576 )

     reciprocal axes: (cart. coord. in units 2 pi/alat)
               b(1) = (  1.000000 -0.577170 -0.408145 )
               b(2) = (  0.000000  1.154610 -0.408145 )
               b(3) = (  0.000000  0.000000  1.224625 )

     PseudoPot. # 1 for Li read from file:
     /lustre07/scratch/pragov/crystal_structure_design/utils/SSSP/li_pbe_v1.4.uspp.F.UPF
     MD5 check sum: e912e257baa3777c20ea3d68f190483c
     Pseudo is Ultrasoft, Zval =  3.0
     Generated by new atomic code, or converted to UPF format
     Using radial grid of  751 points,  5 beta functions with:
                l(1) =   0
                l(2) =   0
                l(3) =   0
                l(4) =   1
                l(5) =   1
     Q(r) pseudized with 10 coefficients,  rinner =    1.150   1.150   1.150

     PseudoPot. # 2 for V  read from file:
     /lustre07/scratch/pragov/crystal_structure_design/utils/SSSP/v_pbe_v1.4.uspp.F.UPF
     MD5 check sum: 22b79981416ebb76fdaf5b1b8640f6fb
     Pseudo is Ultrasoft + core correction, Zval = 13.0
     Generated by new atomic code, or converted to UPF format
     Using radial grid of  853 points,  6 beta functions with:
                l(1) =   0
                l(2) =   0
                l(3) =   1
                l(4) =   1
                l(5) =   2
                l(6) =   2
     Q(r) pseudized with  8 coefficients,  rinner =    1.100   1.100   1.100
                                                       1.100   1.100

     PseudoPot. # 3 for O  read from file:
     /lustre07/scratch/pragov/crystal_structure_design/utils/SSSP/O.pbe-n-kjpaw_psl.0.1.UPF
     MD5 check sum: 0234752ac141de4415c5fc33072bef88
     Pseudo is Projector augmented-wave + core cor, Zval =  6.0
     Generated using "atomic" code by A. Dal Corso  v.5.0.99 svn rev. 10869
     Shape of augmentation charge: BESSEL
     Using radial grid of 1095 points,  4 beta functions with:
                l(1) =   0
                l(2) =   0
                l(3) =   1
                l(4) =   1
     Q(r) pseudized with 0 coefficients

     atomic species   valence    mass     pseudopotential
        Li             3.00     6.94000     Li( 1.00)
        V             13.00    50.94150     V ( 1.00)
        O              6.00    15.99900     O ( 1.00)

      2 Sym. Ops., with inversion, found

                                    s                        frac. trans.

      isym =  1     identity

 cryst.   s( 1) = (     1          0          0      )
                  (     0          1          0      )
                  (     0          0          1      )

 cart.    s( 1) = (  1.0000000  0.0000000  0.0000000 )
                  (  0.0000000  1.0000000 -0.0000000 )
                  (  0.0000000  0.0000000  1.0000000 )

      isym =  2     inversion

 cryst.   s( 2) = (    -1          0          0      )
                  (     0         -1          0      )
                  (     0          0         -1      )

 cart.    s( 2) = ( -1.0000000 -0.0000000  0.0000000 )
                  (  0.0000000 -1.0000000  0.0000000 )
                  (  0.0000000  0.0000000 -1.0000000 )

   Cartesian axes

     site n.     atom                  positions (alat units)
         1           Li  tau(   1) = (   0.2499413   0.4330466   0.0000000  )
         2           Li  tau(   2) = (   0.2499414   0.1443263   0.4082882  )
         3           Li  tau(   3) = (   0.5000000   0.0000000   0.0000000  )
         4           V   tau(   4) = (   0.0000000   0.0000000   0.0000000  )
         5           V   tau(   5) = (   0.7499414   0.1443263   0.4082882  )
         6           V   tau(   6) = (   0.7499413   0.4330466   0.0000000  )
         7           V   tau(   7) = (   0.4998827   0.5773729   0.4082882  )
         8           V   tau(   8) = (   0.9998827   0.5773729   0.4082882  )
         9           O   tau(   9) = (   0.5143616   0.2970133   0.2100324  )
        10           O   tau(  10) = (   1.2601158   0.4502275   0.6126144  )
        11           O   tau(  11) = (   1.2601158   0.7276421   0.2203139  )
        12           O   tau(  12) = (   1.4854037   0.8577325   0.6065440  )
        13           O   tau(  13) = (   1.0198489   0.8663168   0.6126144  )
        14           O   tau(  14) = (   0.7396495   0.7045183   0.2039620  )
        15           O   tau(  15) = (   0.7396495   0.4271037   0.5962625  )
        16           O   tau(  16) = (   0.9799164   0.2884289   0.2039620  )

   Crystallographic axes

     site n.     atom                  positions (cryst. coord.)
         1           Li  tau(   1) = ( -0.0000000  0.5000000  0.0000000  )
         2           Li  tau(   2) = (  0.0000000 -0.0000000  0.5000000  )
         3           Li  tau(   3) = (  0.5000000  0.0000000  0.0000000  )
         4           V   tau(   4) = (  0.0000000  0.0000000  0.0000000  )
         5           V   tau(   5) = (  0.5000000 -0.0000000  0.5000000  )
         6           V   tau(   6) = (  0.5000000  0.5000000  0.0000000  )
         7           V   tau(   7) = ( -0.0000000  0.5000000  0.5000000  )
         8           V   tau(   8) = (  0.5000000  0.5000000  0.5000000  )
         9           O   tau(   9) = (  0.2572110  0.2572110  0.2572110  )
        10           O   tau(  10) = (  0.7502230  0.2698020  0.7502230  )
        11           O   tau(  11) = (  0.7502230  0.7502230  0.2698020  )
        12           O   tau(  12) = (  0.7427890  0.7427890  0.7427890  )
        13           O   tau(  13) = (  0.2698020  0.7502230  0.7502230  )
        14           O   tau(  14) = (  0.2497770  0.7301980  0.2497770  )
        15           O   tau(  15) = (  0.2497770  0.2497770  0.7301980  )
        16           O   tau(  16) = (  0.7301980  0.2497770  0.2497770  )

     number of k points=    14
                       cart. coord. in units 2pi/alat
        k(    1) = (   0.0000000   0.0000000   0.0000000), wk =   0.0740741
        k(    2) = (   0.0000000   0.0000000   0.4082084), wk =   0.1481481
        k(    3) = (   0.0000000   0.3848701  -0.1360482), wk =   0.1481481
        k(    4) = (   0.0000000   0.3848701   0.2721602), wk =   0.1481481
        k(    5) = (   0.0000000   0.3848701  -0.5442566), wk =   0.1481481
        k(    6) = (   0.3333333  -0.1923898  -0.1360482), wk =   0.1481481
        k(    7) = (   0.3333333  -0.1923898   0.2721602), wk =   0.1481481
        k(    8) = (   0.3333333  -0.1923898  -0.5442566), wk =   0.1481481
        k(    9) = (   0.3333333   0.1924802  -0.2720964), wk =   0.1481481
        k(   10) = (   0.3333333   0.1924802   0.1361120), wk =   0.1481481
        k(   11) = (   0.3333333   0.1924802  -0.6803048), wk =   0.1481481
        k(   12) = (   0.3333333  -0.5772599  -0.0000000), wk =   0.1481481
        k(   13) = (   0.3333333  -0.5772599   0.4082084), wk =   0.1481481
        k(   14) = (   0.3333333  -0.5772599  -0.4082084), wk =   0.1481481

                       cryst. coord.
        k(    1) = (   0.0000000   0.0000000   0.0000000), wk =   0.0740741
        k(    2) = (   0.0000000   0.0000000   0.3333333), wk =   0.1481481
        k(    3) = (   0.0000000   0.3333333   0.0000000), wk =   0.1481481
        k(    4) = (   0.0000000   0.3333333   0.3333333), wk =   0.1481481
        k(    5) = (   0.0000000   0.3333333  -0.3333333), wk =   0.1481481
        k(    6) = (   0.3333333   0.0000000   0.0000000), wk =   0.1481481
        k(    7) = (   0.3333333   0.0000000   0.3333333), wk =   0.1481481
        k(    8) = (   0.3333333   0.0000000  -0.3333333), wk =   0.1481481
        k(    9) = (   0.3333333   0.3333333   0.0000000), wk =   0.1481481
        k(   10) = (   0.3333333   0.3333333   0.3333333), wk =   0.1481481
        k(   11) = (   0.3333333   0.3333333  -0.3333333), wk =   0.1481481
        k(   12) = (   0.3333333  -0.3333333   0.0000000), wk =   0.1481481
        k(   13) = (   0.3333333  -0.3333333   0.3333333), wk =   0.1481481
        k(   14) = (   0.3333333  -0.3333333  -0.3333333), wk =   0.1481481

     Check: negative core charge=   -0.000017

     Initial potential from superposition of free atoms

     starting charge     120.6416, renormalised to     122.0000

     negative rho (up, down):  5.575E-03 0.000E+00
     Starting wfcs are   97 randomized atomic wfcs
     Checking if some PAW data can be deallocated...

     Self-consistent Calculation

     iteration #  1     ecut=    30.00 Ry     beta= 0.70
     Davidson diagonalization with overlap

     ethr =  1.00E-02,  avg # of iterations =  2.0

     negative rho (up, down):  7.556E-03 0.000E+00

     total energy              =   -1099.50917295 Ry
     estimated scf accuracy    <       4.93894656 Ry

[...]

     c_bands:  2 eigenvalues not converged
     ethr =  3.78E-04,  avg # of iterations = 12.6

[...]

     total energy              =   -1102.70677174 Ry
     estimated scf accuracy    <       0.00000645 Ry

     iteration # 53     ecut=    30.00 Ry     beta= 0.70
     Davidson diagonalization with overlap

     ethr =  5.29E-09,  avg # of iterations =  6.3

     negative rho (up, down):  6.407E-03 0.000E+00

     End of self-consistent calculation

          k = 0.0000 0.0000 0.0000 (  2975 PWs)   bands (ev):

   -53.4213 -53.3961 -53.3953 -53.3561 -53.3470 -34.7197 -34.7105 -34.7105
   -27.5233 -27.4563 -27.4560 -27.3119 -27.3116 -27.2656 -27.2378 -27.2144
   -27.2139 -27.1840 -27.1839 -27.1286 -27.1131 -27.1123 -27.0134  -9.0110
    -8.2209  -8.2209  -7.9544  -7.9497  -7.9496  -7.5725  -7.3006   3.4557
     4.0498   4.0498   4.0624   4.8977   4.8977   4.9422   5.5124   5.5125
     6.0895   6.0896   6.1093   6.5929   6.5931   6.8647   6.9137   6.9137
     6.9543   7.0535   7.0536   7.0575   8.0523   8.1204   8.1204  10.1872
    10.1873  10.5851  11.5730  11.5730  11.9019  12.3523  12.3524  12.5717

     occupation numbers
     1.0000   1.0000   1.0000   1.0000   1.0000   1.0000   1.0000   1.0000
     1.0000   1.0000   1.0000   1.0000   1.0000   1.0000   1.0000   1.0000
     1.0000   1.0000   1.0000   1.0000   1.0000   1.0000   1.0000   1.0000
     1.0000   1.0000   1.0000   1.0000   1.0000   1.0000   1.0000   1.0000
     1.0000   1.0000   1.0000   1.0000   1.0000   1.0000   1.0000   1.0000
     1.0000   1.0000   1.0000   1.0000   1.0000   1.0000   1.0000   1.0000
     1.0000   1.0000   1.0000   1.0000   1.0000   1.0000   1.0000   1.0000
     1.0000   1.0000   1.0000   1.0000   1.0000   0.0000   0.0000   0.0000

[...]

          k = 0.3333-0.5773-0.4082 (  2970 PWs)   bands (ev):

   -53.4140 -53.4011 -53.3954 -53.3566 -53.3487 -34.7186 -34.7122 -34.7100
   -27.4535 -27.4150 -27.4001 -27.3364 -27.3141 -27.2733 -27.2484 -27.2227
   -27.2216 -27.2041 -27.1923 -27.1715 -27.1401 -27.1227 -27.0147  -8.5858
    -8.3941  -8.1527  -8.1272  -8.0544  -8.0222  -7.5574  -7.3605   4.3783
     4.6506   4.7553   4.8796   5.0723   5.1051   5.2049   5.2866   5.3616
     5.4694   5.8961   5.9028   6.0917   6.1918   6.2092   6.4228   6.5550
     6.6002   6.7669   6.9697   7.1634   7.2819   7.4594   7.7713  11.0428
    11.3461  11.4577  11.5107  11.8981  11.9032  12.0551  12.1215  12.2680

     occupation numbers
     1.0000   1.0000   1.0000   1.0000   1.0000   1.0000   1.0000   1.0000
     1.0000   1.0000   1.0000   1.0000   1.0000   1.0000   1.0000   1.0000
     1.0000   1.0000   1.0000   1.0000   1.0000   1.0000   1.0000   1.0000
     1.0000   1.0000   1.0000   1.0000   1.0000   1.0000   1.0000   1.0000
     1.0000   1.0000   1.0000   1.0000   1.0000   1.0000   1.0000   1.0000
     1.0000   1.0000   1.0000   1.0000   1.0000   1.0000   1.0000   1.0000
     1.0000   1.0000   1.0000   1.0000   1.0000   1.0000   1.0000   1.0000
     1.0000   1.0000   1.0000   1.0000   1.0000   0.0000   0.0000   0.0000

     highest occupied, lowest unoccupied level (ev):    12.0534   11.9387

!    total energy              =   -1102.70677156 Ry
     estimated scf accuracy    <       0.00000088 Ry

     The total energy is the sum of the following terms:
     one-electron contribution =    -437.86635275 Ry
     hartree contribution      =     274.04512851 Ry
     xc contribution           =    -167.81436215 Ry
     ewald contribution        =    -694.90937221 Ry
     one-center paw contrib.   =     -76.16181296 Ry
      -> PAW hartree energy AE =       0.00000000 Ry
      -> PAW hartree energy PS =       0.00000000 Ry
      -> PAW xc energy AE      =       0.00000000 Ry
      -> PAW xc energy PS      =       0.00000000 Ry
      -> total E_H with PAW    =     274.04512851 Ry
      -> total E_XC with PAW   =    -167.81436215 Ry

     convergence has been achieved in  53 iterations

     Writing all to output data dir bands_nm/myprefix.save/

     General routines

     Parallel routines

     PAW routines

   This run was terminated on:  17:41:45  12Jul2023

   JOB DONE.