     Program PWSCF v.7.1 starts on 17Jul2023 at  0:18:41

     Reading input from espresso_25673.pwi
Warning: card &CELL ignored
Warning: card / ignored

     Current dimensions of program PWSCF are:
     Max number of different atomic species (ntypx) = 10
     Max number of k-points (npk) =  40000
     Max angular momentum in pseudopotentials (lmaxx) =  4
     Message from routine setup:
     the system is metallic, specify occupations
     Message from routine setup:
     using ibrav=0 with symmetry is DISCOURAGED, use correct ibrav instead

     K-points division:     npool     =       2
     R & G space division:  proc/nbgrp/npool/nimage =       4
     Subspace diagonalization in iterative solution of the eigenvalue problem:
     a serial algorithm will be used

     Using Slab Decomposition

     bravais-lattice index     =            0
     lattice parameter (alat)  =      16.8413  a.u.
     unit-cell volume          =    1435.7097 (a.u.)^3
     number of atoms/cell      =            7
     number of atomic types    =            3
     number of electrons       =        61.00 (up:  33.00, down:  28.00)
     number of Kohn-Sham states=           64
     kinetic-energy cutoff     =      30.0000  Ry
     charge density cutoff     =     240.0000  Ry
     scf convergence threshold =      1.0E-06
     mixing beta               =       0.7000
     number of iterations used =            8  plain     mixing
     Exchange-correlation=  SLA  PW   PBX  PBC
                           (   1   4   3   4   0   0   0)

     celldm(1)=  16.841257  celldm(2)=   0.000000  celldm(3)=   0.000000
     celldm(4)=   0.000000  celldm(5)=   0.000000  celldm(6)=   0.000000

     crystal axes: (cart. coord. in units of alat)
               a(1) = (   1.000000   0.000000   0.000000 )
               a(2) = (   0.671190   0.741286   0.000000 )
               a(3) = (  -0.835595  -0.370643   0.405469 )

     reciprocal axes: (cart. coord. in units 2 pi/alat)
               b(1) = (  1.000000 -0.905440  1.233140 )
               b(2) = (  0.000000  1.349008  1.233140 )
               b(3) = (  0.000000  0.000000  2.466280 )

     PseudoPot. # 1 for Rb read from file:
     /lustre03/project/6004852/pragov/crystal_structure_design/crystal-design/crystal_design/utils/SSSP/Rb_ONCV_PBE-1.0.oncvpsp.upf
     MD5 check sum: 55a5172d6bfbce6759a58e35d43f6aa9
     Pseudo is Norm-conserving, Zval =  9.0
     Generated using ONCVPSP code by D. R. Hamann
     Using radial grid of 2308 points,  6 beta functions with:
                l(1) =   0
                l(2) =   0
                l(3) =   1
                l(4) =   1
                l(5) =   2
                l(6) =   2

     PseudoPot. # 2 for Mn read from file:
     /lustre03/project/6004852/pragov/crystal_structure_design/crystal-design/crystal_design/utils/SSSP/mn_pbe_v1.5.uspp.F.UPF
     MD5 check sum: 82ef2b46521d7a7d9e736dc3972e4928
     Pseudo is Ultrasoft + core correction, Zval = 15.0
     Generated by new atomic code, or converted to UPF format
     Using radial grid of  859 points,  6 beta functions with:
                l(1) =   0
                l(2) =   0
                l(3) =   1
                l(4) =   1
                l(5) =   2
                l(6) =   2
     Q(r) pseudized with  8 coefficients,  rinner =    0.950   0.950   0.950
                                                       0.950   0.950

     PseudoPot. # 3 for Cl read from file:
     /lustre03/project/6004852/pragov/crystal_structure_design/crystal-design/crystal_design/utils/SSSP/cl_pbe_v1.4.uspp.F.UPF
     MD5 check sum: fc6f6913ecf08c9257cb748ef0700058
     Pseudo is Ultrasoft + core correction, Zval =  7.0
     Generated by new atomic code, or converted to UPF format
     Using radial grid of  909 points,  6 beta functions with:
                l(1) =   0
                l(2) =   0
                l(3) =   1
                l(4) =   1
                l(5) =   2
                l(6) =   2
     Q(r) pseudized with  8 coefficients,  rinner =    1.300   1.300   1.300
                                                       1.300   1.300

     atomic species   valence    mass     pseudopotential
        Rb             9.00    85.46780     Rb( 1.00)
        Mn            15.00    54.93804     Mn( 1.00)
        Cl             7.00    35.45000     Cl( 1.00)

     Starting magnetic structure
     atomic species   magnetization
        Rb           0.000
        Mn           0.000
        Cl           0.000

      4 Sym. Ops., with inversion, found

                                    s                        frac. trans.

      isym =  1     identity

 cryst.   s( 1) = (     1          0          0      )
                  (     0          1          0      )
                  (     0          0          1      )

 cart.    s( 1) = (  1.0000000  0.0000000  0.0000000 )
                  (  0.0000000  1.0000000  0.0000000 )
                  (  0.0000000  0.0000000  1.0000000 )

      isym =  2     180 deg rotation - cart. axis [0,0,1]

[...]

      isym =  3     inversion

[...]

      isym =  4     inv. 180 deg rotation - cart. axis [0,0,1]

 cryst.   s( 4) = (     1          0          0      )
                  (     0          1          0      )
                  (    -1         -1         -1      )

 cart.    s( 4) = (  1.0000000  0.0000000  0.0000000 )
                  (  0.0000000  1.0000000  0.0000000 )
                  (  0.0000000  0.0000000 -1.0000000 )

   Cartesian axes

     site n.     atom                  positions (alat units)
         1           Rb  tau(   1) = (   0.5981389   0.2653150   0.0000000  )
         2           Rb  tau(   2) = (   1.0730509   0.4759706   0.0000000  )
         3           Mn  tau(   3) = (   0.0000000   0.0000000   0.0000000  )
         4           Cl  tau(   4) = (   1.4112830   0.6259993   0.0000000  )
         5           Cl  tau(   5) = (   0.2599068   0.1152862   0.0000000  )
         6           Cl  tau(   6) = (   0.0822026  -0.1853214   0.2027345  )
         7           Cl  tau(   7) = (  -0.0822026   0.1853214   0.2027345  )

   Crystallographic axes

     site n.     atom                  positions (cryst. coord.)
         1           Rb  tau(   1) = (  0.3579120  0.3579120  0.0000000  )
         2           Rb  tau(   2) = (  0.6420880  0.6420880  0.0000000  )
         3           Mn  tau(   3) = (  0.0000000  0.0000000  0.0000000  )
         4           Cl  tau(   4) = (  0.8444780  0.8444780  0.0000000  )
         5           Cl  tau(   5) = (  0.1555220  0.1555220  0.0000000  )
         6           Cl  tau(   6) = (  0.5000000 -0.0000000  0.5000000  )
         7           Cl  tau(   7) = (  0.0000000  0.5000000  0.5000000  )

     number of k points=    10
                       cart. coord. in units 2pi/alat
        k(    1) = (   0.0000000   0.0000000   0.0000000), wk =   0.0370370
        k(    2) = (   0.0000000   0.0000000   0.8220933), wk =   0.0740741
        k(    3) = (   0.0000000   0.4496693   0.4110466), wk =   0.1481481
        k(    4) = (   0.0000000   0.4496693   1.2331399), wk =   0.0740741
        k(    5) = (   0.3333333  -0.3018134   0.4110466), wk =   0.1481481
        k(    6) = (   0.3333333  -0.3018134   1.2331399), wk =   0.0740741
        k(    7) = (   0.3333333   0.1478558   0.8220933), wk =   0.1481481
        k(    8) = (   0.3333333   0.1478558   0.0000000), wk =   0.0740741
        k(    9) = (   0.3333333  -0.7514827  -0.0000000), wk =   0.0740741
        k(   10) = (   0.3333333  -0.7514827   0.8220933), wk =   0.1481481

                       cryst. coord.
        k(    1) = (   0.0000000   0.0000000   0.0000000), wk =   0.0370370
        k(    2) = (   0.0000000   0.0000000   0.3333333), wk =   0.0740741
        k(    3) = (   0.0000000   0.3333333   0.0000000), wk =   0.1481481
        k(    4) = (   0.0000000   0.3333333   0.3333333), wk =   0.0740741
        k(    5) = (   0.3333333  -0.0000000   0.0000000), wk =   0.1481481
        k(    6) = (   0.3333333  -0.0000000   0.3333333), wk =   0.0740741
        k(    7) = (   0.3333333   0.3333333   0.0000000), wk =   0.1481481
        k(    8) = (   0.3333333   0.3333333  -0.3333333), wk =   0.0740741
        k(    9) = (   0.3333333  -0.3333333   0.0000000), wk =   0.0740741
        k(   10) = (   0.3333333  -0.3333333   0.3333333), wk =   0.1481481

     Check: negative core charge=   -0.000006
     Generating pointlists ...
     new r_m :   0.1526 (alat units)  2.5705 (a.u.) for type    1
     new r_m :   0.1173 (alat units)  1.9752 (a.u.) for type    2
     new r_m :   0.1173 (alat units)  1.9752 (a.u.) for type    3

     Initial potential from superposition of free atoms

     starting charge      60.4504, renormalised to      61.0000

     negative rho (up, down):  3.033E-02 3.033E-02
     Starting wfcs are   39 randomized atomic wfcs +   25 random wfcs

     Self-consistent Calculation

     iteration #  1     ecut=    30.00 Ry     beta= 0.70
     Davidson diagonalization with overlap

     ethr =  1.00E-02,  avg # of iterations =  8.0

     negative rho (up, down):  3.101E-02 3.053E-02

     total energy              =    -442.87235536 Ry
     estimated scf accuracy    <       0.66910013 Ry

     total magnetization       =     5.00 Bohr mag/cell
     absolute magnetization    =     5.00 Bohr mag/cell

[...]

     total energy              =    -443.03287128 Ry
     estimated scf accuracy    <       0.00000464 Ry

[...]

     iteration #  8     ecut=    30.00 Ry     beta= 0.70
     Davidson diagonalization with overlap

     ethr =  7.60E-09,  avg # of iterations =  2.6

     negative rho (up, down):  2.998E-02 2.972E-02

     Magnetic moment per site  (integrated on atomic sphere of radius R)
     atom   1 (R=0.153)  charge=  7.6348  magn=  0.0015
     atom   2 (R=0.153)  charge=  7.6348  magn=  0.0015
     atom   3 (R=0.117)  charge= 13.0346  magn=  4.3852
     atom   4 (R=0.117)  charge=  5.5789  magn=  0.0409
     atom   5 (R=0.117)  charge=  5.5789  magn=  0.0409
     atom   6 (R=0.117)  charge=  5.6063  magn=  0.0674
     atom   7 (R=0.117)  charge=  5.6063  magn=  0.0674

     End of self-consistent calculation

 ------ SPIN UP ------------

          k = 0.0000 0.0000 0.0000 (  3983 PWs)   bands (ev):

   -77.7027 -46.4381 -46.4381 -46.3608 -22.4067 -22.4006 -11.5012 -10.9566
   -10.5528 -10.5482  -6.5059  -6.4981  -6.4981  -6.4931  -6.4931  -6.4700
    -0.6750  -0.6750  -0.3404  -0.1099   0.7149   0.7149   1.0061   1.1934
     1.1934   1.1982   1.5101   1.5264   1.6215   1.6215   1.9513   1.9513
     2.3226   6.3911   7.7200   9.1112   9.2043   9.4185   9.5539   9.9523
     9.9523  10.0714  11.1044  11.5845  12.0030  12.5516  12.5516  12.8131
    13.1255  13.1255  13.6151  13.6151  13.9663  14.4637  14.4637  15.2679
    15.5444  16.3198  17.4131  17.4131  17.5541  17.7326  18.0448  18.0449

     occupation numbers
     1.0000   1.0000   1.0000   1.0000   1.0000   1.0000   1.0000   1.0000
     1.0000   1.0000   1.0000   1.0000   1.0000   1.0000   1.0000   1.0000
     1.0000   1.0000   1.0000   1.0000   1.0000   1.0000   1.0000   1.0000
     1.0000   1.0000   1.0000   1.0000   1.0000   1.0000   1.0000   1.0000
     1.0000   0.0000   0.0000   0.0000   0.0000   0.0000   0.0000   0.0000
     0.0000   0.0000   0.0000   0.0000   0.0000   0.0000   0.0000   0.0000
     0.0000   0.0000   0.0000   0.0000   0.0000   0.0000   0.0000   0.0000
     0.0000   0.0000   0.0000   0.0000   0.0000   0.0000   0.0000   0.0000

[...]

 ------ SPIN DOWN ----------

[...]

          k = 0.3333-0.7515 0.8221 (  3984 PWs)   bands (ev):

   -72.6106 -41.4563 -41.4556 -41.3830 -22.4019 -22.4008 -11.2552 -10.9592
   -10.5159 -10.4696  -6.5136  -6.5092  -6.5003  -6.4806  -6.4701  -6.4633
    -0.7916  -0.3046   0.1740   0.4173   0.4632   0.8538   0.9778   1.2478
     1.2666   1.3181   1.5401   1.8226   5.6596   5.7000   5.7982   5.8954
     6.7275   8.4358   8.8154   9.4129   9.6303  10.0973  10.6298  10.9129
    10.9648  11.1602  11.3475  11.3786  11.4559  11.9148  12.0790  12.6095
    12.7401  13.1752  13.4657  13.6900  13.8210  14.1964  14.4429  14.9363
    15.1705  15.3134  15.5078  15.8853  16.1817  16.2329  16.6615  17.0869

     occupation numbers
     1.0000   1.0000   1.0000   1.0000   1.0000   1.0000   1.0000   1.0000
     1.0000   1.0000   1.0000   1.0000   1.0000   1.0000   1.0000   1.0000
     1.0000   1.0000   1.0000   1.0000   1.0000   1.0000   1.0000   1.0000
     1.0000   1.0000   1.0000   1.0000   0.0000   0.0000   0.0000   0.0000
     0.0000   0.0000   0.0000   0.0000   0.0000   0.0000   0.0000   0.0000
     0.0000   0.0000   0.0000   0.0000   0.0000   0.0000   0.0000   0.0000
     0.0000   0.0000   0.0000   0.0000   0.0000   0.0000   0.0000   0.0000
     0.0000   0.0000   0.0000   0.0000   0.0000   0.0000   0.0000   0.0000

     highest occupied, lowest unoccupied level (ev):     3.3693    5.2674

!    total energy              =    -443.03287258 Ry
     estimated scf accuracy    <       0.00000055 Ry

     The total energy is the sum of the following terms:
     one-electron contribution =    -295.71663531 Ry
     hartree contribution      =     165.33817060 Ry
     xc contribution           =     -79.66166782 Ry
     ewald contribution        =    -232.99274005 Ry

     total magnetization       =     5.00 Bohr mag/cell
     absolute magnetization    =     5.01 Bohr mag/cell

     convergence has been achieved in   8 iterations

     Writing all to output data dir bands_nm_v2/myprefix.save/

     General routines

     Parallel routines

   This run was terminated on:   0:19: 3  17Jul2023

   JOB DONE.