     Program PWSCF v.7.1 starts on 13Jul2023 at  3:36:24

     Reading input from espresso_24953.pwi
Warning: card &CELL ignored
Warning: card / ignored

     Current dimensions of program PWSCF are:
     Max number of different atomic species (ntypx) = 10
     Max number of k-points (npk) =  40000
     Max angular momentum in pseudopotentials (lmaxx) =  4
     file O.pbe-n-kjpaw_psl.0.1.UPF: wavefunction(s)  2P renormalized

     K-points division:     npool     =       2
     R & G space division:  proc/nbgrp/npool/nimage =       8
     Subspace diagonalization in iterative solution of the eigenvalue problem:
     a serial algorithm will be used

     Using Slab Decomposition

     bravais-lattice index     =            0
     lattice parameter (alat)  =      10.0880  a.u.
     unit-cell volume          =    1277.0678 (a.u.)^3
     number of atoms/cell      =           18
     number of atomic types    =            5
     number of electrons       =       118.00
     number of Kohn-Sham states=           64
     kinetic-energy cutoff     =      30.0000  Ry
     charge density cutoff     =     240.0000  Ry
     scf convergence threshold =      1.0E-06
     mixing beta               =       0.7000
     number of iterations used =            8  plain     mixing
     Exchange-correlation=  SLA  PW   PBX  PBC
                           (   1   4   3   4   0   0   0)

     celldm(1)=  10.087985  celldm(2)=   0.000000  celldm(3)=   0.000000
     celldm(4)=   0.000000  celldm(5)=   0.000000  celldm(6)=   0.000000

     crystal axes: (cart. coord. in units of alat)
               a(1) = (   1.000000   0.000000   0.000000 )
               a(2) = (  -0.071861   1.001033   0.000000 )
               a(3) = (  -0.441063  -0.478248   1.242659 )

     reciprocal axes: (cart. coord. in units 2 pi/alat)
               b(1) = (  1.000000  0.071787  0.382563 )
               b(2) = (  0.000000  0.998968  0.384461 )
               b(3) = (  0.000000  0.000000  0.804726 )

     PseudoPot. # 1 for Li read from file:
     /lustre07/scratch/pragov/crystal_structure_design/utils/SSSP/li_pbe_v1.4.uspp.F.UPF
     MD5 check sum: e912e257baa3777c20ea3d68f190483c
     Pseudo is Ultrasoft, Zval =  3.0
     Generated by new atomic code, or converted to UPF format
     Using radial grid of  751 points,  5 beta functions with:
                l(1) =   0
                l(2) =   0
                l(3) =   0
                l(4) =   1
                l(5) =   1
     Q(r) pseudized with 10 coefficients,  rinner =    1.150   1.150   1.150

     PseudoPot. # 2 for Co read from file:
     /lustre07/scratch/pragov/crystal_structure_design/utils/SSSP/Co_pbe_v1.2.uspp.F.UPF
     MD5 check sum: 5f91765df6ddd3222702df6e7b74a16d
     Pseudo is Ultrasoft + core correction, Zval = 17.0
     Generated by new atomic code, or converted to UPF format
     Using radial grid of  863 points,  6 beta functions with:
                l(1) =   0
                l(2) =   0
                l(3) =   1
                l(4) =   1
                l(5) =   2
                l(6) =   2
     Q(r) pseudized with  8 coefficients,  rinner =    1.200   1.200   1.200
                                                       1.200   1.200

     PseudoPot. # 3 for P  read from file:
     /lustre07/scratch/pragov/crystal_structure_design/utils/SSSP/P.pbe-n-rrkjus_psl.1.0.0.UPF
     MD5 check sum: 8b930f418f0a4573dca56cd030ffe088
     Pseudo is Ultrasoft + core correction, Zval =  5.0
     Generated using "atomic" code by A. Dal Corso  v.5.1
     Using radial grid of 1147 points,  6 beta functions with:
                l(1) =   0
                l(2) =   0
                l(3) =   1
                l(4) =   1
                l(5) =   2
                l(6) =   2
     Q(r) pseudized with 0 coefficients

     PseudoPot. # 4 for O  read from file:
     /lustre07/scratch/pragov/crystal_structure_design/utils/SSSP/O.pbe-n-kjpaw_psl.0.1.UPF
     MD5 check sum: 0234752ac141de4415c5fc33072bef88
     Pseudo is Projector augmented-wave + core cor, Zval =  6.0
     Generated using "atomic" code by A. Dal Corso  v.5.0.99 svn rev. 10869
     Shape of augmentation charge: BESSEL
     Using radial grid of 1095 points,  4 beta functions with:
                l(1) =   0
                l(2) =   0
                l(3) =   1
                l(4) =   1
     Q(r) pseudized with 0 coefficients

     PseudoPot. # 5 for F  read from file:
     /lustre07/scratch/pragov/crystal_structure_design/utils/SSSP/f_pbe_v1.4.uspp.F.UPF
     MD5 check sum: 4c38b6a325caf53ec0e86aed9459de46
     Pseudo is Ultrasoft, Zval =  7.0
     Generated by new atomic code, or converted to UPF format
     Using radial grid of  799 points,  4 beta functions with:
                l(1) =   0
                l(2) =   0
                l(3) =   1
                l(4) =   1
     Q(r) pseudized with  8 coefficients,  rinner =    0.950   0.950   0.950

     atomic species   valence    mass     pseudopotential
        Li             3.00     6.94000     Li( 1.00)
        Co            17.00    58.93319     Co( 1.00)
        P              5.00    30.97376     P ( 1.00)
        O              6.00    15.99900     O ( 1.00)
        F              7.00    18.99840     F ( 1.00)

     No symmetry found

                                    s                        frac. trans.

      isym =  1     identity

 cryst.   s( 1) = (     1          0          0      )
                  (     0          1          0      )
                  (     0          0          1      )

 cart.    s( 1) = (  1.0000000  0.0000000 -0.0000000 )
                  (  0.0000000  1.0000000  0.0000000 )
                  (  0.0000000  0.0000000  1.0000000 )

   Cartesian axes

     site n.     atom                  positions (alat units)
         1           Li  tau(   1) = (   0.0722281   0.4892786   0.1504562  )
         2           Li  tau(   2) = (   0.1320074  -0.2607711   1.0696946  )
         3           Li  tau(   3) = (   0.2050189   0.7304635   0.5940594  )
         4           Li  tau(   4) = (   0.4277475   0.1157263   0.8806203  )
         5           Co  tau(   5) = (   0.0008966  -0.0087388   0.0247587  )
         6           Co  tau(   6) = (   0.6947147   0.7563076   0.6270682  )
         7           P   tau(   7) = (   0.5217781   0.2501678   0.3237090  )
         8           P   tau(   8) = (  -0.0436713   0.2631493   0.9530574  )
         9           O   tau(   9) = (  -0.0595727   0.4939282   0.7759897  )
        10           O   tau(  10) = (   0.5186668   0.0394047   0.5250806  )
        11           O   tau(  11) = (   0.0093530   0.0096876   0.8171478  )
        12           O   tau(  12) = (  -0.2964528   0.2375906   1.0969611  )
        13           O   tau(  13) = (   0.7766089   0.2597930   0.1827889  )
        14           O   tau(  14) = (   0.3174320   0.2081525   0.1175083  )
        15           O   tau(  15) = (   0.4631144   0.5038980   0.4520906  )
        16           O   tau(  16) = (   0.1848099   0.3052760   1.1264891  )
        17           F   tau(  17) = (   0.4875445  -0.2485669   0.9298843  )
        18           F   tau(  18) = (  -0.0401758   0.7679399   0.3394932  )

   Crystallographic axes

     site n.     atom                  positions (cryst. coord.)
         1           Li  tau(   1) = (  0.1649110  0.5466180  0.1210760  )
         2           Li  tau(   2) = (  0.5225130  0.1507540  0.8608110  )
         3           Li  tau(   3) = (  0.4847220  0.9581020  0.4780550  )
         4           Li  tau(   4) = (  0.7729480  0.4541710  0.7086580  )
         5           Co  tau(   5) = (  0.0097410  0.0007890  0.0199240  )
         6           Co  tau(   6) = (  0.9889010  0.9966100  0.5046180  )
         7           P   tau(   7) = (  0.6635760  0.3743630  0.2604970  )
         8           P   tau(   8) = (  0.3398240  0.6292910  0.7669500  )
         9           O   tau(   9) = (  0.2727500  0.7917560  0.6244590  )
        10           O   tau(  10) = (  0.7223720  0.2412370  0.4225460  )
        11           O   tau(  11) = (  0.3226590  0.3238390  0.6575800  )
        12           O   tau(  12) = (  0.1402600  0.6590840  0.8827530  )
        13           O   tau(  13) = (  0.8651870  0.3298000  0.1470950  )
        14           O   tau(  14) = (  0.3773290  0.2531150  0.0945620  )
        15           O   tau(  15) = (  0.6722410  0.6771890  0.3638090  )
        16           O   tau(  16) = (  0.6376780  0.7380520  0.9065150  )
        17           F   tau(  17) = (  0.8254400  0.1091940  0.7483020  )
        18           F   tau(  18) = (  0.1448300  0.8976690  0.2731990  )

     number of k points=    14
                       cart. coord. in units 2pi/alat
        k(    1) = (   0.0000000   0.0000000   0.0000000), wk =   0.0740741
        k(    2) = (   0.0000000   0.0000000   0.2682420), wk =   0.1481481
        k(    3) = (   0.0000000   0.3329892   0.1281537), wk =   0.1481481
        k(    4) = (   0.0000000   0.3329892   0.3963956), wk =   0.1481481
        k(    5) = (   0.0000000   0.3329892  -0.1400883), wk =   0.1481481
        k(    6) = (   0.3333333   0.0239291   0.1275210), wk =   0.1481481
        k(    7) = (   0.3333333   0.0239291   0.3957630), wk =   0.1481481
        k(    8) = (   0.3333333   0.0239291  -0.1407209), wk =   0.1481481
        k(    9) = (   0.3333333   0.3569183   0.2556747), wk =   0.1481481
        k(   10) = (   0.3333333   0.3569183   0.5239167), wk =   0.1481481
        k(   11) = (   0.3333333   0.3569183  -0.0125673), wk =   0.1481481
        k(   12) = (   0.3333333  -0.3090601  -0.0006326), wk =   0.1481481
        k(   13) = (   0.3333333  -0.3090601   0.2676093), wk =   0.1481481
        k(   14) = (   0.3333333  -0.3090601  -0.2688746), wk =   0.1481481

                       cryst. coord.
        k(    1) = (   0.0000000   0.0000000   0.0000000), wk =   0.0740741
        k(    2) = (   0.0000000   0.0000000   0.3333333), wk =   0.1481481
        k(    3) = (   0.0000000   0.3333333   0.0000000), wk =   0.1481481
        k(    4) = (   0.0000000   0.3333333   0.3333333), wk =   0.1481481
        k(    5) = (   0.0000000   0.3333333  -0.3333333), wk =   0.1481481
        k(    6) = (   0.3333333   0.0000000   0.0000000), wk =   0.1481481
        k(    7) = (   0.3333333   0.0000000   0.3333333), wk =   0.1481481
        k(    8) = (   0.3333333   0.0000000  -0.3333333), wk =   0.1481481
        k(    9) = (   0.3333333   0.3333333   0.0000000), wk =   0.1481481
        k(   10) = (   0.3333333   0.3333333   0.3333333), wk =   0.1481481
        k(   11) = (   0.3333333   0.3333333  -0.3333333), wk =   0.1481481
        k(   12) = (   0.3333333  -0.3333333  -0.0000000), wk =   0.1481481
        k(   13) = (   0.3333333  -0.3333333   0.3333333), wk =   0.1481481
        k(   14) = (   0.3333333  -0.3333333  -0.3333333), wk =   0.1481481

     Check: negative core charge=   -0.000016

     Initial potential from superposition of free atoms

     starting charge     114.1967, renormalised to     118.0000
     Starting wfcs are   94 randomized atomic wfcs
     Checking if some PAW data can be deallocated...

     Self-consistent Calculation

     iteration #  1     ecut=    30.00 Ry     beta= 0.70
     Davidson diagonalization with overlap

     ethr =  1.00E-02,  avg # of iterations =  2.0

     total energy              =   -1106.38114058 Ry
     estimated scf accuracy    <      10.96906243 Ry

[...]

     c_bands:  1 eigenvalues not converged
     ethr =  5.05E-05,  avg # of iterations =  9.9

[...]

     c_bands:  1 eigenvalues not converged
     ethr =  3.56E-06,  avg # of iterations =  6.1

[...]

     total energy              =   -1113.98952180 Ry
     estimated scf accuracy    <       0.00000163 Ry

     iteration # 21     ecut=    30.00 Ry     beta= 0.70
     Davidson diagonalization with overlap

     ethr =  8.91E-10,  avg # of iterations =  1.0

     End of self-consistent calculation

          k = 0.0000 0.0000 0.0000 (  3537 PWs)   bands (ev):

   -88.2194 -88.2006 -51.7538 -51.6866 -51.6089 -51.5252 -51.1855 -51.1491
   -38.7881 -38.6502 -38.4991 -38.4054 -17.3697 -17.1340 -15.9692 -15.8096
   -13.6286 -13.5532 -13.4617 -13.3803 -13.2753 -13.2234  -3.7595  -3.3785
    -1.7050  -1.1557  -0.9935  -0.9034  -0.5462  -0.4752   0.1055   0.6733
     0.7832   0.9461   1.0229   1.1305   1.3206   1.3888   1.4350   1.5077
     1.7111   2.0041   2.2042   2.5927   2.7305   2.8075   3.2037   3.3224
     3.5553   3.7369   3.8236   3.9079   5.5990   5.6738   5.8481   5.9788
     6.0034   6.0594   6.7108   6.9418   7.1404   7.2484   9.6109  12.5431

     occupation numbers
     1.0000   1.0000   1.0000   1.0000   1.0000   1.0000   1.0000   1.0000
     1.0000   1.0000   1.0000   1.0000   1.0000   1.0000   1.0000   1.0000
     1.0000   1.0000   1.0000   1.0000   1.0000   1.0000   1.0000   1.0000
     1.0000   1.0000   1.0000   1.0000   1.0000   1.0000   1.0000   1.0000
     1.0000   1.0000   1.0000   1.0000   1.0000   1.0000   1.0000   1.0000
     1.0000   1.0000   1.0000   1.0000   1.0000   1.0000   1.0000   1.0000
     1.0000   1.0000   1.0000   1.0000   1.0000   1.0000   1.0000   1.0000
     1.0000   1.0000   1.0000   0.0000   0.0000   0.0000   0.0000   0.0000

[...]

          k = 0.3333-0.3091-0.2689 (  3544 PWs)   bands (ev):

   -88.2194 -88.2005 -51.7536 -51.6872 -51.6077 -51.5241 -51.1851 -51.1497
   -38.7880 -38.6502 -38.4991 -38.4053 -17.3632 -17.1289 -15.8920 -15.8219
   -13.6485 -13.5875 -13.5152 -13.4599 -13.3351 -13.1644  -3.2501  -3.1599
    -1.4310  -1.2332  -1.0567  -0.9202  -0.6792  -0.3425   0.3368   0.5191
     0.6817   0.8582   0.9096   1.0630   1.2382   1.4924   1.5843   1.7369
     1.8652   1.9782   2.1861   2.2378   2.3448   2.4860   2.9924   3.2231
     3.3717   3.4838   3.5448   3.7760   5.7775   5.8124   5.9111   5.9544
     6.0083   6.1059   6.8023   6.8164   6.9278   7.0809  11.5648  12.2027

     occupation numbers
     1.0000   1.0000   1.0000   1.0000   1.0000   1.0000   1.0000   1.0000
     1.0000   1.0000   1.0000   1.0000   1.0000   1.0000   1.0000   1.0000
     1.0000   1.0000   1.0000   1.0000   1.0000   1.0000   1.0000   1.0000
     1.0000   1.0000   1.0000   1.0000   1.0000   1.0000   1.0000   1.0000
     1.0000   1.0000   1.0000   1.0000   1.0000   1.0000   1.0000   1.0000
     1.0000   1.0000   1.0000   1.0000   1.0000   1.0000   1.0000   1.0000
     1.0000   1.0000   1.0000   1.0000   1.0000   1.0000   1.0000   1.0000
     1.0000   1.0000   1.0000   0.0000   0.0000   0.0000   0.0000   0.0000

     highest occupied, lowest unoccupied level (ev):     6.8023    6.7363

!    total energy              =   -1113.98952164 Ry
     estimated scf accuracy    <       0.00000024 Ry

     The total energy is the sum of the following terms:
     one-electron contribution =    -718.62764220 Ry
     hartree contribution      =     410.95620679 Ry
     xc contribution           =    -166.94374259 Ry
     ewald contribution        =    -563.24782185 Ry
     one-center paw contrib.   =     -76.12652179 Ry
      -> PAW hartree energy AE =       0.00000000 Ry
      -> PAW hartree energy PS =       0.00000000 Ry
      -> PAW xc energy AE      =       0.00000000 Ry
      -> PAW xc energy PS      =       0.00000000 Ry
      -> total E_H with PAW    =     410.95620679 Ry
      -> total E_XC with PAW   =    -166.94374259 Ry

     convergence has been achieved in  21 iterations

     Writing all to output data dir bands_nm/myprefix.save/

     General routines

     Parallel routines

     PAW routines

   This run was terminated on:   3:37:11  13Jul2023

   JOB DONE.