     Program PWSCF v.7.1 starts on 12Jul2023 at 19:19: 5

     Reading input from espresso_23151.pwi
Warning: card &CELL ignored
Warning: card / ignored

     Current dimensions of program PWSCF are:
     Max number of different atomic species (ntypx) = 10
     Max number of k-points (npk) =  40000
     Max angular momentum in pseudopotentials (lmaxx) =  4
     file O.pbe-n-kjpaw_psl.0.1.UPF: wavefunction(s)  2P renormalized
     Message from routine setup:
     using ibrav=0 with symmetry is DISCOURAGED, use correct ibrav instead

     K-points division:     npool     =       2
     R & G space division:  proc/nbgrp/npool/nimage =       8
     Subspace diagonalization in iterative solution of the eigenvalue problem:
     a serial algorithm will be used

     Using Slab Decomposition

     bravais-lattice index     =            0
     lattice parameter (alat)  =      12.8066  a.u.
     unit-cell volume          =    1293.4833 (a.u.)^3
     number of atoms/cell      =           10
     number of atomic types    =            4
     number of electrons       =        92.00
     number of Kohn-Sham states=           64
     kinetic-energy cutoff     =      30.0000  Ry
     charge density cutoff     =     240.0000  Ry
     scf convergence threshold =      1.0E-06
     mixing beta               =       0.7000
     number of iterations used =            8  plain     mixing
     Exchange-correlation= SLA  PW   PBX  PBC
                           (   1   4   3   4   0   0   0)

     celldm(1)=  12.806572  celldm(2)=   0.000000  celldm(3)=   0.000000
     celldm(4)=   0.000000  celldm(5)=   0.000000  celldm(6)=   0.000000

     crystal axes: (cart. coord. in units of alat)
               a(1) = (   1.000000   0.000000   0.000000 )
               a(2) = (  -0.662005   0.749500   0.000000 )
               a(3) = (   0.000000   0.000000   0.821657 )

     reciprocal axes: (cart. coord. in units 2 pi/alat)
               b(1) = (  1.000000  0.883263  0.000000 )
               b(2) = (  0.000000  1.334224  0.000000 )
               b(3) = (  0.000000  0.000000  1.217052 )

     PseudoPot. # 1 for Na read from file:
     /lustre07/scratch/pragov/crystal_structure_design/utils/SSSP/na_pbe_v1.5.uspp.F.UPF
     MD5 check sum: 44600605ef58000f06b90626533354dc
     Pseudo is Ultrasoft, Zval =  9.0
     Generated by new atomic code, or converted to UPF format
     Using radial grid of  819 points,  5 beta functions with:
                l(1) =   0
                l(2) =   0
                l(3) =   1
                l(4) =   1
                l(5) =   2
     Q(r) pseudized with  8 coefficients,  rinner =    1.250   1.250   1.250
                                                       1.250   1.250

     PseudoPot. # 2 for Bi read from file:
     /lustre07/scratch/pragov/crystal_structure_design/utils/SSSP/Bi_pbe_v1.uspp.F.UPF
     MD5 check sum: cceb9f28ec65b6d7ff33140f5b0b1758
     Pseudo is Ultrasoft + core correction, Zval = 15.0
     Generated by new atomic code, or converted to UPF format
     Using radial grid of  899 points,  6 beta functions with:
                l(1) =   0
                l(2) =   0
                l(3) =   1
                l(4) =   1
                l(5) =   2
                l(6) =   2
     Q(r) pseudized with  6 coefficients,  rinner =    1.000   1.000   1.000
                                                       1.000   1.000

     PseudoPot. # 3 for Cl read from file:
     /lustre07/scratch/pragov/crystal_structure_design/utils/SSSP/cl_pbe_v1.4.uspp.F.UPF
     MD5 check sum: fc6f6913ecf08c9257cb748ef0700058
     Pseudo is Ultrasoft + core correction, Zval =  7.0
     Generated by new atomic code, or converted to UPF format
     Using radial grid of  909 points,  6 beta functions with:
                l(1) =   0
                l(2) =   0
                l(3) =   1
                l(4) =   1
                l(5) =   2
                l(6) =   2
     Q(r) pseudized with  8 coefficients,  rinner =    1.300   1.300   1.300
                                                       1.300   1.300

     PseudoPot. # 4 for O  read from file:
     /lustre07/scratch/pragov/crystal_structure_design/utils/SSSP/O.pbe-n-kjpaw_psl.0.1.UPF
     MD5 check sum: 0234752ac141de4415c5fc33072bef88
     Pseudo is Projector augmented-wave + core cor, Zval =  6.0
     Generated using "atomic" code by A. Dal Corso  v.5.0.99 svn rev. 10869
     Shape of augmentation charge: BESSEL
     Using radial grid of 1095 points,  4 beta functions with:
                l(1) =   0
                l(2) =   0
                l(3) =   1
                l(4) =   1
     Q(r) pseudized with 0 coefficients

     atomic species   valence    mass     pseudopotential
        Na             9.00    22.98977     Na( 1.00)
        Bi            15.00   208.98040     Bi( 1.00)
        Cl             7.00    35.45000     Cl( 1.00)
        O              6.00    15.99900     O ( 1.00)

      2 Sym. Ops. (no inversion) found

                                    s                        frac. trans.

      isym =  1     identity

 cryst.   s( 1) = (     1          0          0      )
                  (     0          1          0      )
                  (     0          0          1      )

 cart.    s( 1) = (  1.0000000  0.0000000  0.0000000 )
                  (  0.0000000  1.0000000  0.0000000 )
                  (  0.0000000  0.0000000  1.0000000 )

      isym =  2     inv. 180 deg rotation - cart. axis [0,0,1]

 cryst.   s( 2) = (     1          0          0      )
                  (     0          1          0      )
                  (     0          0         -1      )

 cart.    s( 2) = (  1.0000000  0.0000000  0.0000000 )
                  (  0.0000000  1.0000000  0.0000000 )
                  (  0.0000000  0.0000000 -1.0000000 )

   Cartesian axes

     site n.     atom                  positions (alat units)
         1           Na  tau(   1) = (  -0.0806505   0.4873313   0.4108287  )
         2           Bi  tau(   2) = (   0.7387295   0.1178228   0.0000000  )
         3           Bi  tau(   3) = (  -0.3996873   0.6312045   0.0000000  )
         4           Bi  tau(   4) = (   0.4303279   0.2569000   0.4108287  )
         5           Cl  tau(   5) = (   0.1651035   0.3765058   0.0000000  )
         6           Cl  tau(   6) = (  -0.6580842   0.7477315   0.4108287  )
         7           O   tau(   7) = (   0.4991597   0.0066451   0.6215896  )
         8           O   tau(   8) = (   0.6634618   0.3709805   0.2000678  )
         9           O   tau(   9) = (   0.6634618   0.3709805   0.6215896  )
        10           O   tau(  10) = (   0.4991597   0.0066451   0.2000678  )

   Crystallographic axes

     site n.     atom                  positions (cryst. coord.)
         1           Na  tau(   1) = (  0.3497910  0.6502090  0.5000000  )
         2           Bi  tau(   2) = (  0.8427980  0.1572020  0.0000000  )
         3           Bi  tau(   3) = (  0.1578320  0.8421680  0.0000000  )
         4           Bi  tau(   4) = (  0.6572380  0.3427620  0.5000000  )
         5           Cl  tau(   5) = (  0.4976570  0.5023430  0.0000000  )
         6           Cl  tau(   6) = (  0.0023590  0.9976410  0.5000000  )
         7           O   tau(   7) = (  0.5050290  0.0088660  0.7565070  )
         8           O   tau(   8) = (  0.9911350  0.4949710  0.2434930  )
         9           O   tau(   9) = (  0.9911350  0.4949710  0.7565070  )
        10           O   tau(  10) = (  0.5050290  0.0088660  0.2434930  )

     number of k points=    10
                       cart. coord. in units 2pi/alat
        k(    1) = (   0.0000000   0.0000000   0.0000000), wk =   0.0740741
        k(    2) = (   0.0000000   0.0000000   0.4056841), wk =   0.1481481
        k(    3) = (   0.0000000   0.4447412   0.0000000), wk =   0.1481481
        k(    4) = (   0.0000000   0.4447412   0.4056841), wk =   0.2962963
        k(    5) = (   0.3333333   0.2944209   0.0000000), wk =   0.1481481
        k(    6) = (   0.3333333   0.2944209   0.4056841), wk =   0.2962963
        k(    7) = (   0.3333333   0.7391621   0.0000000), wk =   0.1481481
        k(    8) = (   0.3333333   0.7391621   0.4056841), wk =   0.2962963
        k(    9) = (   0.3333333  -0.1503204   0.0000000), wk =   0.1481481
        k(   10) = (   0.3333333  -0.1503204   0.4056841), wk =   0.2962963

                       cryst. coord.
        k(    1) = (   0.0000000   0.0000000   0.0000000), wk =   0.0740741
        k(    2) = (   0.0000000   0.0000000   0.3333333), wk =   0.1481481
        k(    3) = (   0.0000000   0.3333333   0.0000000), wk =   0.1481481
        k(    4) = (   0.0000000   0.3333333   0.3333333), wk =   0.2962963
        k(    5) = (   0.3333333   0.0000000   0.0000000), wk =   0.1481481
        k(    6) = (   0.3333333   0.0000000   0.3333333), wk =   0.2962963
        k(    7) = (   0.3333333   0.3333333   0.0000000), wk =   0.1481481
        k(    8) = (   0.3333333   0.3333333   0.3333333), wk =   0.2962963
        k(    9) = (   0.3333333  -0.3333333   0.0000000), wk =   0.1481481
        k(   10) = (   0.3333333  -0.3333333   0.3333333), wk =   0.2962963

     Check: negative core charge=   -0.000008

     Initial potential from superposition of free atoms

     starting charge      88.9936, renormalised to      92.0000

     negative rho (up, down):  1.637E-01 0.000E+00
     Starting wfcs are   56 randomized atomic wfcs +    8 random wfcs
     Checking if some PAW data can be deallocated...

     Self-consistent Calculation

     iteration #  1     ecut=    30.00 Ry     beta= 0.70
     Davidson diagonalization with overlap

     ethr =  1.00E-02,  avg # of iterations =  7.1

     negative rho (up, down):  1.505E-01 0.000E+00

     total energy              =    -883.64677025 Ry
     estimated scf accuracy    <       2.00268482 Ry

[...]

     total energy              =    -884.57451331 Ry
     estimated scf accuracy    <       0.00000110 Ry

     iteration # 10     ecut=    30.00 Ry     beta= 0.70
     Davidson diagonalization with overlap

     ethr =  1.19E-09,  avg # of iterations =  4.0

     negative rho (up, down):  1.557E-01 0.000E+00

     End of self-consistent calculation

          k = 0.0000 0.0000 0.0000 (  3583 PWs)   bands (ev):

   -42.8719 -15.5386 -15.5060 -15.5034 -15.3691 -15.3522 -15.3509 -15.3350
   -15.3085 -15.2811 -15.2747 -15.2271 -15.1871 -15.1851 -15.1780 -15.1567
   -14.8191 -14.7802 -14.7793 -11.6671 -10.0206 -10.0192  -9.1989  -6.9248
    -6.6187  -3.5257  -3.1954  -0.8995   2.2535   2.3501   3.0872   3.1902
     3.4182   3.9889   4.1010   4.8277   4.9336   5.2010   5.2196   5.2483
     5.3104   5.6450   5.6463   5.8679   6.1369   6.4062   8.7812   9.7952
    10.7638  10.9563  12.0421  12.4070  12.5558  12.8366  13.2408  13.9358
    14.6789  14.9643  16.0832  17.1413  17.2555  17.2673  18.1403  18.4577

     occupation numbers
     1.0000   1.0000   1.0000   1.0000   1.0000   1.0000   1.0000   1.0000
     1.0000   1.0000   1.0000   1.0000   1.0000   1.0000   1.0000   1.0000
     1.0000   1.0000   1.0000   1.0000   1.0000   1.0000   1.0000   1.0000
     1.0000   1.0000   1.0000   1.0000   1.0000   1.0000   1.0000   1.0000
     1.0000   1.0000   1.0000   1.0000   1.0000   1.0000   1.0000   1.0000
     1.0000   1.0000   1.0000   1.0000   1.0000   1.0000   0.0000   0.0000
     0.0000   0.0000   0.0000   0.0000   0.0000   0.0000   0.0000   0.0000
     0.0000   0.0000   0.0000   0.0000   0.0000   0.0000   0.0000   0.0000

[...]

          k = 0.3333-0.1503 0.4057 (  3596 PWs)   bands (ev):

   -42.8721 -15.5240 -15.5021 -15.4632 -15.3880 -15.3521 -15.3484 -15.3408
   -15.3130 -15.3049 -15.2869 -15.2263 -15.2125 -15.1796 -15.1754 -15.1552
   -14.8169 -14.7829 -14.7798 -11.3671 -10.4345  -9.8563  -9.3879  -6.8801
    -6.6847  -3.3094  -2.7643  -1.3226   2.0427   2.4938   2.9119   3.4990
     3.6482   4.1640   4.2810   4.5739   4.8320   5.0171   5.0814   5.1251
     5.2702   5.3299   5.5306   5.8289   6.1300   6.1402   9.8107  10.1975
    11.1712  11.3966  11.5262  12.0137  12.4905  12.5110  12.7695  14.1491
    15.3753  15.4607  15.7230  16.5047  17.0769  17.1182  18.0445  18.4028

     occupation numbers
     1.0000   1.0000   1.0000   1.0000   1.0000   1.0000   1.0000   1.0000
     1.0000   1.0000   1.0000   1.0000   1.0000   1.0000   1.0000   1.0000
     1.0000   1.0000   1.0000   1.0000   1.0000   1.0000   1.0000   1.0000
     1.0000   1.0000   1.0000   1.0000   1.0000   1.0000   1.0000   1.0000
     1.0000   1.0000   1.0000   1.0000   1.0000   1.0000   1.0000   1.0000
     1.0000   1.0000   1.0000   1.0000   1.0000   1.0000   0.0000   0.0000
     0.0000   0.0000   0.0000   0.0000   0.0000   0.0000   0.0000   0.0000
     0.0000   0.0000   0.0000   0.0000   0.0000   0.0000   0.0000   0.0000

     highest occupied, lowest unoccupied level (ev):     6.4062    8.7812

!    total energy              =    -884.57451347 Ry
     estimated scf accuracy    <       0.00000031 Ry

     The total energy is the sum of the following terms:
     one-electron contribution =    -338.29805058 Ry
     hartree contribution      =     222.60927855 Ry
     xc contribution           =    -257.02340625 Ry
     ewald contribution        =    -473.74331704 Ry
     one-center paw contrib.   =     -38.11901814 Ry
      -> PAW hartree energy AE =       0.00000000 Ry
      -> PAW hartree energy PS =       0.00000000 Ry
      -> PAW xc energy AE      =       0.00000000 Ry
      -> PAW xc energy PS      =       0.00000000 Ry
      -> total E_H with PAW    =     222.60927855 Ry
      -> total E_XC with PAW   =    -257.02340625 Ry

     convergence has been achieved in  10 iterations

     Writing all to output data dir bands_nm/myprefix.save/

     General routines

     Parallel routines

     PAW routines

   This run was terminated on:  19:19:23  12Jul2023

   JOB DONE.