     Program PWSCF v.7.1 starts on 16Jul2023 at 13:56:26

     Reading input from espresso_3633.pwi
Warning: card &CELL ignored
Warning: card / ignored

     Current dimensions of program PWSCF are:
     Max number of different atomic species (ntypx) = 10
     Max number of k-points (npk) =  40000
     Max angular momentum in pseudopotentials (lmaxx) =  4
     file Nd.paw.z_14.atompaw.wentzcovitch.v1.2.upf: wavefunction(s)  6S 0P 5D 0D 0F renormalized
     file O.pbe-n-kjpaw_psl.0.1.UPF: wavefunction(s)  2P renormalized
     Message from routine setup:
     using ibrav=0 with symmetry is DISCOURAGED, use correct ibrav instead

     K-points division:     npool     =       2
     R & G space division:  proc/nbgrp/npool/nimage =       4
     Subspace diagonalization in iterative solution of the eigenvalue problem:
     a serial algorithm will be used

     Using Slab Decomposition

     bravais-lattice index     =            0
     lattice parameter (alat)  =      12.3724  a.u.
     unit-cell volume          =    1233.9442 (a.u.)^3
     number of atoms/cell      =           14
     number of atomic types    =            4
     number of electrons       =       124.00
     number of Kohn-Sham states=           64
     kinetic-energy cutoff     =      30.0000  Ry
     charge density cutoff     =     240.0000  Ry
     scf convergence threshold =      1.0E-06
     mixing beta               =       0.7000
     number of iterations used =            8  plain     mixing
     Exchange-correlation= SLA  PW   PBX  PBC
                           (   1   4   3   4   0   0   0)

     celldm(1)=  12.372354  celldm(2)=   0.000000  celldm(3)=   0.000000
     celldm(4)=   0.000000  celldm(5)=   0.000000  celldm(6)=   0.000000

     crystal axes: (cart. coord. in units of alat)
               a(1) = (   1.000000   0.000000   0.000000 )
               a(2) = (  -0.655879   0.754866   0.000000 )
               a(3) = (   0.000000   0.000000   0.863115 )

     reciprocal axes: (cart. coord. in units 2 pi/alat)
               b(1) = (  1.000000  0.868868  0.000000 )
               b(2) = (  0.000000  1.324738  0.000000 )
               b(3) = (  0.000000  0.000000  1.158594 )

     PseudoPot. # 1 for Ca read from file:
     /lustre07/scratch/pragov/crystal_structure_design/utils/SSSP/Ca_pbe_v1.uspp.F.UPF
     MD5 check sum: 403a4c14b9e4d4dfdc3024c9a3812218
     Pseudo is Ultrasoft + core correction, Zval = 10.0
     Generated by new atomic code, or converted to UPF format
     Using radial grid of  845 points,  6 beta functions with:
                l(1) =   0
                l(2) =   0
                l(3) =   1
                l(4) =   1
                l(5) =   2
                l(6) =   2
     Q(r) pseudized with  8 coefficients,  rinner =    1.500   1.500   1.500
                                                       1.500   1.500

     PseudoPot. # 2 for Nd read from file:
     /lustre07/scratch/pragov/crystal_structure_design/utils/SSSP/Nd.paw.z_14.atompaw.wentzcovitch.v1.2.upf
     MD5 check sum: 8a77231a7dfbac907351543c5ef6bfc9
     Pseudo is Projector augmented-wave + core cor, Zval = 14.0
     Generated using ATOMPAW code
     Shape of augmentation charge: BESSEL
     Using radial grid of 1105 points,  8 beta functions with:
                l(1) =   0
                l(2) =   0
                l(3) =   1
                l(4) =   1
                l(5) =   2
                l(6) =   2
                l(7) =   3
                l(8) =   3
     Q(r) pseudized with 0 coefficients

     PseudoPot. # 3 for Cr read from file:
     /lustre07/scratch/pragov/crystal_structure_design/utils/SSSP/cr_pbe_v1.5.uspp.F.UPF
     MD5 check sum: 0d52af634a40206e4dee301ad30da4bf
     Pseudo is Ultrasoft + core correction, Zval = 14.0
     Generated by new atomic code, or converted to UPF format
     Using radial grid of  857 points,  6 beta functions with:
                l(1) =   0
                l(2) =   0
                l(3) =   1
                l(4) =   1
                l(5) =   2
                l(6) =   2
     Q(r) pseudized with  8 coefficients,  rinner =    0.950   0.950   0.950
                                                       0.950   0.950

     PseudoPot. # 4 for O  read from file:
     /lustre07/scratch/pragov/crystal_structure_design/utils/SSSP/O.pbe-n-kjpaw_psl.0.1.UPF
     MD5 check sum: 0234752ac141de4415c5fc33072bef88
     Pseudo is Projector augmented-wave + core cor, Zval =  6.0
     Generated using "atomic" code by A. Dal Corso  v.5.0.99 svn rev. 10869
     Shape of augmentation charge: BESSEL
     Using radial grid of 1095 points,  4 beta functions with:
                l(1) =   0
                l(2) =   0
                l(3) =   1
                l(4) =   1
     Q(r) pseudized with 0 coefficients

     atomic species   valence    mass     pseudopotential
        Ca            10.00    40.07800     Ca( 1.00)
        Nd            14.00   144.24200     Nd( 1.00)
        Cr            14.00    51.99610     Cr( 1.00)
        O              6.00    15.99900     O ( 1.00)

      2 Sym. Ops. (no inversion) found ( 1 have fractional translation)

                                    s                        frac. trans.

      isym =  1     identity

 cryst.   s( 1) = (     1          0          0      )
                  (     0          1          0      )
                  (     0          0          1      )

 cart.    s( 1) = (  1.0000000 -0.0000000  0.0000000 )
                  (  0.0000000  1.0000000  0.0000000 )
                  (  0.0000000  0.0000000  1.0000000 )

      isym =  2     180 deg rotation - cart. axis [0,0,1]

 cryst.   s( 2) = (    -1          0          0      )    f =( -0.0000000 )
                  (     0         -1          0      )       ( -0.0000000 )
                  (     0          0          1      )       ( -0.5000000 )

 cart.    s( 2) = ( -1.0000000  0.0000000  0.0000000 )    f =(  0.0000000 )
                  (  0.0000000 -1.0000000  0.0000000 )       ( -0.0000000 )
                  (  0.0000000  0.0000000  1.0000000 )       ( -0.4315575 )

   Cartesian axes

     site n.     atom                  positions (alat units)
         1           Ca  tau(   1) = (   0.3425200   0.2997256   0.4148475  )
         2           Ca  tau(   2) = (   0.0016011   0.4551405   0.8464050  )
         3           Nd  tau(   3) = (   0.8148048   0.0844250   0.4476062  )
         4           Nd  tau(   4) = (  -0.4706838   0.6704411   0.0160488  )
         5           Cr  tau(   5) = (  -0.2412766   0.5658612   0.4334321  )
         6           Cr  tau(   6) = (   0.5853977   0.1890049   0.0018747  )
         7           O   tau(   7) = (   0.4635471   0.0186656   0.6461054  )
         8           O   tau(   8) = (  -0.1194260   0.7362005   0.2145479  )
         9           O   tau(   9) = (  -0.2899407   0.3621583   0.2145479  )
        10           O   tau(  10) = (   0.6340618   0.3927078   0.6461054  )
        11           O   tau(  11) = (   0.0361626   0.4393849   0.4887198  )
        12           O   tau(  12) = (  -0.5279523   0.6965482   0.3756423  )
        13           O   tau(  13) = (   0.3079585   0.3154812   0.0571624  )
        14           O   tau(  14) = (   0.8720734   0.0583179   0.8071997  )

   Crystallographic axes

     site n.     atom                  positions (cryst. coord.)
         1           Ca  tau(   1) = (  0.6029420  0.3970580  0.4806400  )
         2           Ca  tau(   2) = (  0.3970580  0.6029420  0.9806400  )
         3           Nd  tau(   3) = (  0.8881590  0.1118410  0.5185940  )
         4           Nd  tau(   4) = (  0.1118410  0.8881590  0.0185940  )
         5           Cr  tau(   5) = (  0.2503820  0.7496180  0.5021720  )
         6           Cr  tau(   6) = (  0.7496180  0.2503820  0.0021720  )
         7           O   tau(   7) = (  0.4797650  0.0247270  0.7485740  )
         8           O   tau(   8) = (  0.5202350  0.9752730  0.2485740  )
         9           O   tau(   9) = (  0.0247270  0.4797650  0.2485740  )
        10           O   tau(  10) = (  0.9752730  0.5202350  0.7485740  )
        11           O   tau(  11) = (  0.4179300  0.5820700  0.5662280  )
        12           O   tau(  12) = (  0.0772560  0.9227440  0.4352170  )
        13           O   tau(  13) = (  0.5820700  0.4179300  0.0662280  )
        14           O   tau(  14) = (  0.9227440  0.0772560  0.9352170  )

     number of k points=    10
                       cart. coord. in units 2pi/alat
        k(    1) = (   0.0000000   0.0000000   0.0000000), wk =   0.0740741
        k(    2) = (   0.0000000   0.0000000   0.3861981), wk =   0.1481481
        k(    3) = (   0.0000000   0.4415794   0.0000000), wk =   0.1481481
        k(    4) = (   0.0000000   0.4415794   0.3861981), wk =   0.2962963
        k(    5) = (   0.3333333   0.2896226   0.0000000), wk =   0.1481481
        k(    6) = (   0.3333333   0.2896226   0.3861981), wk =   0.2962963
        k(    7) = (   0.3333333   0.7312020   0.0000000), wk =   0.1481481
        k(    8) = (   0.3333333   0.7312020   0.3861981), wk =   0.2962963
        k(    9) = (   0.3333333  -0.1519568   0.0000000), wk =   0.1481481
        k(   10) = (   0.3333333  -0.1519568   0.3861981), wk =   0.2962963

                       cryst. coord.
        k(    1) = (   0.0000000   0.0000000   0.0000000), wk =   0.0740741
        k(    2) = (   0.0000000   0.0000000   0.3333333), wk =   0.1481481
        k(    3) = (   0.0000000   0.3333333   0.0000000), wk =   0.1481481
        k(    4) = (   0.0000000   0.3333333   0.3333333), wk =   0.2962963
        k(    5) = (   0.3333333  -0.0000000   0.0000000), wk =   0.1481481
        k(    6) = (   0.3333333  -0.0000000   0.3333333), wk =   0.2962963
        k(    7) = (   0.3333333   0.3333333   0.0000000), wk =   0.1481481
        k(    8) = (   0.3333333   0.3333333   0.3333333), wk =   0.2962963
        k(    9) = (   0.3333333  -0.3333333   0.0000000), wk =   0.1481481
        k(   10) = (   0.3333333  -0.3333333   0.3333333), wk =   0.2962963

     Check: negative core charge=   -0.000014

     Initial potential from superposition of free atoms

     starting charge     121.9767, renormalised to     124.0000

     negative rho (up, down):  3.436E-03 0.000E+00
     Starting wfcs are  136 randomized atomic wfcs
     Checking if some PAW data can be deallocated...

     Self-consistent Calculation

     iteration #  1     ecut=    30.00 Ry     beta= 0.70
     Davidson diagonalization with overlap

     ethr =  1.00E-02,  avg # of iterations =  2.0

     negative rho (up, down):  8.306E-04 0.000E+00

     total energy              =   -1889.53842807 Ry
     estimated scf accuracy    <      23.35907743 Ry

[...]

     c_bands:  1 eigenvalues not converged
     ethr =  5.08E-04,  avg # of iterations = 15.4

[...]

     c_bands:  1 eigenvalues not converged
     ethr =  1.26E-09,  avg # of iterations = 17.8

[...]

     total energy              =   -1909.66699859 Ry
     estimated scf accuracy    <       0.00000406 Ry

     iteration #127     ecut=    30.00 Ry     beta= 0.70
     Davidson diagonalization with overlap

     ethr =  1.26E-09,  avg # of iterations = 10.0

     negative rho (up, down):  3.547E-03 0.000E+00

     End of self-consistent calculation

          k = 0.0000 0.0000 0.0000 (  3425 PWs)   bands (ev):

   -60.4617 -60.4614 -31.8967 -31.8854 -31.8071 -31.7936 -31.6912 -31.6900
   -28.4090 -28.3966 -25.0480 -25.0124  -9.7909  -9.7002  -9.5398  -9.5154
    -9.5076  -9.4343  -8.2471  -7.9344  -7.4577  -7.3477  -7.2965  -6.9920
    -6.3522  -6.2738  -5.9853  -5.7581  -5.7432  -5.5070  -4.7563  -4.5201
     4.7773   5.6285   5.8756   6.3135   6.3774   6.5279   6.7213   6.9662
     7.0274   7.2510   7.4281   7.9492   8.1123   8.1557   8.1758   8.2482
     8.3708   8.6510   8.7777   8.8501   9.0525   9.0852   9.2863   9.3725
    10.9032  11.6086  11.6729  12.0572  12.0788  12.1178  12.1473  12.1644

     occupation numbers
     1.0000   1.0000   1.0000   1.0000   1.0000   1.0000   1.0000   1.0000
     1.0000   1.0000   1.0000   1.0000   1.0000   1.0000   1.0000   1.0000
     1.0000   1.0000   1.0000   1.0000   1.0000   1.0000   1.0000   1.0000
     1.0000   1.0000   1.0000   1.0000   1.0000   1.0000   1.0000   1.0000
     1.0000   1.0000   1.0000   1.0000   1.0000   1.0000   1.0000   1.0000
     1.0000   1.0000   1.0000   1.0000   1.0000   1.0000   1.0000   1.0000
     1.0000   1.0000   1.0000   1.0000   1.0000   1.0000   1.0000   1.0000
     1.0000   1.0000   1.0000   1.0000   1.0000   1.0000   0.0000   0.0000

[...]

          k = 0.3333-0.1520 0.3862 (  3413 PWs)   bands (ev):

   -60.4616 -60.4614 -31.8936 -31.8877 -31.8029 -31.7978 -31.6903 -31.6887
   -28.4053 -28.3998 -25.0373 -25.0226  -9.7765  -9.7186  -9.5417  -9.5125
    -9.5055  -9.4435  -8.3418  -8.1860  -7.3839  -7.3826  -7.1796  -6.9276
    -6.3099  -5.9979  -5.8956  -5.7806  -5.6688  -5.6321  -4.7890  -4.5840
     5.1915   5.8834   5.9290   6.1213   6.3597   6.4719   6.6003   6.8889
     7.1004   7.1406   7.2505   7.4129   7.8525   7.9612   8.0436   8.1372
     8.3505   8.5219   8.6348   8.7821   9.0295   9.0987   9.2061   9.2804
    11.4719  11.7776  11.8738  12.0555  12.0706  12.0961  12.1490  12.1800

     occupation numbers
     1.0000   1.0000   1.0000   1.0000   1.0000   1.0000   1.0000   1.0000
     1.0000   1.0000   1.0000   1.0000   1.0000   1.0000   1.0000   1.0000
     1.0000   1.0000   1.0000   1.0000   1.0000   1.0000   1.0000   1.0000
     1.0000   1.0000   1.0000   1.0000   1.0000   1.0000   1.0000   1.0000
     1.0000   1.0000   1.0000   1.0000   1.0000   1.0000   1.0000   1.0000
     1.0000   1.0000   1.0000   1.0000   1.0000   1.0000   1.0000   1.0000
     1.0000   1.0000   1.0000   1.0000   1.0000   1.0000   1.0000   1.0000
     1.0000   1.0000   1.0000   1.0000   1.0000   1.0000   0.0000   0.0000

     highest occupied, lowest unoccupied level (ev):    12.1291   12.1239

!    total energy              =   -1909.66699855 Ry
     estimated scf accuracy    <       0.00000078 Ry

     The total energy is the sum of the following terms:
     one-electron contribution =    -360.15409263 Ry
     hartree contribution      =     259.35764890 Ry
     xc contribution           =    -155.97811632 Ry
     ewald contribution        =    -716.84587894 Ry
     one-center paw contrib.   =    -936.04655957 Ry
      -> PAW hartree energy AE =       0.00000000 Ry
      -> PAW hartree energy PS =       0.00000000 Ry
      -> PAW xc energy AE      =       0.00000000 Ry
      -> PAW xc energy PS      =       0.00000000 Ry
      -> total E_H with PAW    =     259.35764890 Ry
      -> total E_XC with PAW   =    -155.97811632 Ry

     convergence has been achieved in 127 iterations

     Writing all to output data dir bands_nm/myprefix.save/

     General routines

     Parallel routines

     PAW routines

   This run was terminated on:  13:58:46  16Jul2023

   JOB DONE.