     Program PWSCF v.7.1 starts on 16Jul2023 at 14:11:53

     Reading input from espresso_24532.pwi
Warning: card &CELL ignored
Warning: card / ignored

     Current dimensions of program PWSCF are:
     Max number of different atomic species (ntypx) = 10
     Max number of k-points (npk) =  40000
     Max angular momentum in pseudopotentials (lmaxx) =  4
     file O.pbe-n-kjpaw_psl.0.1.UPF: wavefunction(s)  2P renormalized
     Message from routine setup:
     using ibrav=0 with symmetry is DISCOURAGED, use correct ibrav instead

     K-points division:     npool     =       2
     R & G space division:  proc/nbgrp/npool/nimage =       4
     Subspace diagonalization in iterative solution of the eigenvalue problem:
     a serial algorithm will be used

     Using Slab Decomposition

     bravais-lattice index     =            0
     lattice parameter (alat)  =       7.2783  a.u.
     unit-cell volume          =    1802.8179 (a.u.)^3
     number of atoms/cell      =           10
     number of atomic types    =            3
     number of electrons       =        80.00
     number of Kohn-Sham states=           64
     kinetic-energy cutoff     =      30.0000  Ry
     charge density cutoff     =     240.0000  Ry
     scf convergence threshold =      1.0E-06
     mixing beta               =       0.7000
     number of iterations used =            8  plain     mixing
     Exchange-correlation= SLA  PW   PBX  PBC
                           (   1   4   3   4   0   0   0)

     celldm(1)=   7.278303  celldm(2)=   0.000000  celldm(3)=   0.000000
     celldm(4)=   0.000000  celldm(5)=   0.000000  celldm(6)=   0.000000

     crystal axes: (cart. coord. in units of alat)
               a(1) = (   1.000000   0.000000   0.000000 )
               a(2) = (   0.000000   1.999553   0.000000 )
               a(3) = (   0.000000   0.000000   2.338453 )

     reciprocal axes: (cart. coord. in units 2 pi/alat)
               b(1) = (  1.000000  0.000000  0.000000 )
               b(2) = (  0.000000  0.500112  0.000000 )
               b(3) = (  0.000000  0.000000  0.427633 )

     PseudoPot. # 1 for W  read from file:
     /lustre07/scratch/pragov/crystal_structure_design/utils/SSSP/W_pbe_v1.2.uspp.F.UPF
     MD5 check sum: 9c083fa34c2a2ea0f02f1f893e16e1c8
     Pseudo is Ultrasoft + core correction, Zval = 14.0
     Generated by new atomic code, or converted to UPF format
     Using radial grid of  923 points,  8 beta functions with:
                l(1) =   0
                l(2) =   0
                l(3) =   0
                l(4) =   1
                l(5) =   1
                l(6) =   2
                l(7) =   2
                l(8) =   3
     Q(r) pseudized with  6 coefficients,  rinner =    1.350   1.350   1.350
                                                       1.350   1.350   1.350
                                                       1.350

     PseudoPot. # 2 for Br read from file:
     /lustre07/scratch/pragov/crystal_structure_design/utils/SSSP/br_pbe_v1.4.uspp.F.UPF
     MD5 check sum: d3ffb7b29f6225aa16fe06858fb2a80b
     Pseudo is Ultrasoft + core correction, Zval =  7.0
     Generated by new atomic code, or converted to UPF format
     Using radial grid of  879 points,  6 beta functions with:
                l(1) =   0
                l(2) =   0
                l(3) =   1
                l(4) =   1
                l(5) =   2
                l(6) =   2
     Q(r) pseudized with  8 coefficients,  rinner =    1.100   1.100   1.100
                                                       1.100   1.100

     PseudoPot. # 3 for O  read from file:
     /lustre07/scratch/pragov/crystal_structure_design/utils/SSSP/O.pbe-n-kjpaw_psl.0.1.UPF
     MD5 check sum: 0234752ac141de4415c5fc33072bef88
     Pseudo is Projector augmented-wave + core cor, Zval =  6.0
     Generated using "atomic" code by A. Dal Corso  v.5.0.99 svn rev. 10869
     Shape of augmentation charge: BESSEL
     Using radial grid of 1095 points,  4 beta functions with:
                l(1) =   0
                l(2) =   0
                l(3) =   1
                l(4) =   1
     Q(r) pseudized with 0 coefficients

     atomic species   valence    mass     pseudopotential
        W             14.00   183.84000     W ( 1.00)
        Br             7.00    79.90400     Br( 1.00)
        O              6.00    15.99900     O ( 1.00)

      8 Sym. Ops., with inversion, found ( 4 have fractional translation)

                                    s                        frac. trans.

      isym =  1     identity

 cryst.   s( 1) = (     1          0          0      )
                  (     0          1          0      )
                  (     0          0          1      )

 cart.    s( 1) = (  1.0000000  0.0000000  0.0000000 )
                  (  0.0000000  1.0000000  0.0000000 )
                  (  0.0000000  0.0000000  1.0000000 )

      isym =  2     180 deg rotation - cart. axis [0,0,1]

[...]

 cryst.   s( 3) = (    -1          0          0      )    f =(  0.0000000 )
                  (     0          1          0      )       (  0.5000000 )
                  (     0          0         -1      )       (  0.0000000 )

 cart.    s( 3) = ( -1.0000000  0.0000000  0.0000000 )    f =(  0.0000000 )
                  (  0.0000000  1.0000000  0.0000000 )       (  0.9997765 )
                  (  0.0000000  0.0000000 -1.0000000 )       (  0.0000000 )

      isym =  4     180 deg rotation - cart. axis [1,0,0]

[...]

      isym =  5     inversion

[...]

      isym =  6     inv. 180 deg rotation - cart. axis [0,0,1]

 cryst.   s( 6) = (     1          0          0      )
                  (     0          1          0      )
                  (     0          0         -1      )

 cart.    s( 6) = (  1.0000000  0.0000000  0.0000000 )
                  (  0.0000000  1.0000000  0.0000000 )
                  (  0.0000000  0.0000000 -1.0000000 )

[...]

      isym =  8     inv. 180 deg rotation - cart. axis [1,0,0]

 cryst.   s( 8) = (    -1          0          0      )    f =(  0.0000000 )
                  (     0          1          0      )       (  0.5000000 )
                  (     0          0          1      )       (  0.0000000 )

 cart.    s( 8) = ( -1.0000000  0.0000000  0.0000000 )    f =(  0.0000000 )
                  (  0.0000000  1.0000000  0.0000000 )       (  0.9997765 )
                  (  0.0000000  0.0000000  1.0000000 )       (  0.0000000 )

   Cartesian axes

     site n.     atom                  positions (alat units)
         1           W   tau(   1) = (   0.0066080   1.4996647   0.0000000  )
         2           W   tau(   2) = (   0.9933920   0.4998882   0.0000000  )
         3           Br  tau(   3) = (   0.9971950   1.4996647   1.6892445  )
         4           Br  tau(   4) = (   0.9971950   1.4996647   0.6492083  )
         5           Br  tau(   5) = (   0.0028050   0.4998882   1.6892445  )
         6           Br  tau(   6) = (   0.0028050   0.4998882   0.6492083  )
         7           O   tau(   7) = (   0.5010990   1.4996647   0.0000000  )
         8           O   tau(   8) = (   0.0000000   0.9997765   0.0000000  )
         9           O   tau(   9) = (   0.4989010   0.4998882   0.0000000  )
        10           O   tau(  10) = (   0.0000000   0.0000000   0.0000000  )

   Crystallographic axes

     site n.     atom                  positions (cryst. coord.)
         1           W   tau(   1) = (  0.0066080  0.7500000  0.0000000  )
         2           W   tau(   2) = (  0.9933920  0.2500000  0.0000000  )
         3           Br  tau(   3) = (  0.9971950  0.7500000  0.7223770  )
         4           Br  tau(   4) = (  0.9971950  0.7500000  0.2776230  )
         5           Br  tau(   5) = (  0.0028050  0.2500000  0.7223770  )
         6           Br  tau(   6) = (  0.0028050  0.2500000  0.2776230  )
         7           O   tau(   7) = (  0.5010990  0.7500000  0.0000000  )
         8           O   tau(   8) = (  0.0000000  0.5000000  0.0000000  )
         9           O   tau(   9) = (  0.4989010  0.2500000  0.0000000  )
        10           O   tau(  10) = (  0.0000000  0.0000000  0.0000000  )

     number of k points=     8
                       cart. coord. in units 2pi/alat
        k(    1) = (   0.0000000   0.0000000   0.0000000), wk =   0.0740741
        k(    2) = (   0.0000000   0.0000000   0.1425444), wk =   0.1481481
        k(    3) = (   0.0000000   0.1667039   0.0000000), wk =   0.1481481
        k(    4) = (   0.0000000   0.1667039   0.1425444), wk =   0.2962963
        k(    5) = (   0.3333333   0.0000000   0.0000000), wk =   0.1481481
        k(    6) = (   0.3333333   0.0000000   0.1425444), wk =   0.2962963
        k(    7) = (   0.3333333   0.1667039   0.0000000), wk =   0.2962963
        k(    8) = (   0.3333333   0.1667039   0.1425444), wk =   0.5925926

                       cryst. coord.
        k(    1) = (   0.0000000   0.0000000   0.0000000), wk =   0.0740741
        k(    2) = (   0.0000000   0.0000000   0.3333333), wk =   0.1481481
        k(    3) = (   0.0000000   0.3333333   0.0000000), wk =   0.1481481
        k(    4) = (   0.0000000   0.3333333   0.3333333), wk =   0.2962963
        k(    5) = (   0.3333333   0.0000000   0.0000000), wk =   0.1481481
        k(    6) = (   0.3333333   0.0000000   0.3333333), wk =   0.2962963
        k(    7) = (   0.3333333   0.3333333   0.0000000), wk =   0.2962963
        k(    8) = (   0.3333333   0.3333333   0.3333333), wk =   0.5925926

     Check: negative core charge=   -0.000005

     Initial potential from superposition of free atoms

     starting charge      79.7992, renormalised to      80.0000

     negative rho (up, down):  1.284E-01 0.000E+00
     Starting wfcs are   58 randomized atomic wfcs +    6 random wfcs
     Checking if some PAW data can be deallocated...

     Self-consistent Calculation

     iteration #  1     ecut=    30.00 Ry     beta= 0.70
     Davidson diagonalization with overlap

     ethr =  1.00E-02,  avg # of iterations =  7.6

     negative rho (up, down):  1.215E-01 0.000E+00

     total energy              =    -671.05405525 Ry
     estimated scf accuracy    <       2.61482251 Ry

[...]

     total energy              =    -672.52485033 Ry
     estimated scf accuracy    <       0.00003718 Ry

     iteration #  9     ecut=    30.00 Ry     beta= 0.70
     Davidson diagonalization with overlap

     ethr =  4.65E-08,  avg # of iterations =  1.8

     negative rho (up, down):  1.240E-01 0.000E+00

     End of self-consistent calculation

          k = 0.0000 0.0000 0.0000 (  5037 PWs)   bands (ev):

   -73.2126 -73.2123 -37.4977 -37.4293 -37.4060 -37.4031 -37.2320 -37.2289
   -16.8488 -16.5445 -16.3210 -15.2471 -11.6283 -11.4974 -11.3855 -11.2296
    -5.4243  -2.7262  -1.9961  -1.8862  -1.7185  -1.4958  -1.4064  -1.3801
    -0.9645  -0.8686  -0.6289  -0.0414   0.2855   0.2961   0.3351   0.6352
     0.6443   0.7736   0.9779   1.1476   1.2696   1.7829   1.7909   1.9248
     2.1992   3.3922   3.4035   3.4892   5.4140   5.4366   5.7026   6.0738
     6.7787   8.0295   8.7618   9.6036   9.8026  11.0422  11.1196  11.5989
    11.7914  11.7992  12.1547  12.5231  12.9164  13.8519  14.0093  14.0560

     occupation numbers
     1.0000   1.0000   1.0000   1.0000   1.0000   1.0000   1.0000   1.0000
     1.0000   1.0000   1.0000   1.0000   1.0000   1.0000   1.0000   1.0000
     1.0000   1.0000   1.0000   1.0000   1.0000   1.0000   1.0000   1.0000
     1.0000   1.0000   1.0000   1.0000   1.0000   1.0000   1.0000   1.0000
     1.0000   1.0000   1.0000   1.0000   1.0000   1.0000   1.0000   1.0000
     0.0000   0.0000   0.0000   0.0000   0.0000   0.0000   0.0000   0.0000
     0.0000   0.0000   0.0000   0.0000   0.0000   0.0000   0.0000   0.0000
     0.0000   0.0000   0.0000   0.0000   0.0000   0.0000   0.0000   0.0000

[...]

          k = 0.3333 0.1667 0.1425 (  4999 PWs)   bands (ev):

   -73.2121 -73.2119 -37.4782 -37.4563 -37.4547 -37.4442 -37.2288 -37.2273
   -16.3200 -15.6840 -15.5692 -15.5169 -11.4693 -11.4074 -11.2653 -11.1899
    -4.5794  -4.4276  -4.2543  -3.1964  -2.5559  -2.4106  -2.3951  -2.2440
    -2.1688  -1.5577  -1.4809  -1.4662   0.1994   0.2497   0.2677   0.7197
     0.7609   0.7658   1.0055   1.2069   1.3034   1.3223   1.4969   1.5465
     3.6598   4.7406   4.7880   4.8554   5.0218   5.8131   6.8562   7.1461
     9.7321  10.0758  10.1550  10.7448  10.8238  11.0254  11.5248  11.5849
    12.1182  12.1575  12.1984  12.6217  13.1617  13.1938  13.2656  13.3885

     occupation numbers
     1.0000   1.0000   1.0000   1.0000   1.0000   1.0000   1.0000   1.0000
     1.0000   1.0000   1.0000   1.0000   1.0000   1.0000   1.0000   1.0000
     1.0000   1.0000   1.0000   1.0000   1.0000   1.0000   1.0000   1.0000
     1.0000   1.0000   1.0000   1.0000   1.0000   1.0000   1.0000   1.0000
     1.0000   1.0000   1.0000   1.0000   1.0000   1.0000   1.0000   1.0000
     0.0000   0.0000   0.0000   0.0000   0.0000   0.0000   0.0000   0.0000
     0.0000   0.0000   0.0000   0.0000   0.0000   0.0000   0.0000   0.0000
     0.0000   0.0000   0.0000   0.0000   0.0000   0.0000   0.0000   0.0000

     highest occupied, lowest unoccupied level (ev):     1.9615    2.1992

!    total energy              =    -672.52485524 Ry
     estimated scf accuracy    <       0.00000059 Ry

     The total energy is the sum of the following terms:
     one-electron contribution =    -612.57428603 Ry
     hartree contribution      =     326.51391085 Ry
     xc contribution           =    -215.97762026 Ry
     ewald contribution        =    -132.39438975 Ry
     one-center paw contrib.   =     -38.09247005 Ry
      -> PAW hartree energy AE =       0.00000000 Ry
      -> PAW hartree energy PS =       0.00000000 Ry
      -> PAW xc energy AE      =       0.00000000 Ry
      -> PAW xc energy PS      =       0.00000000 Ry
      -> total E_H with PAW    =     326.51391085 Ry
      -> total E_XC with PAW   =    -215.97762026 Ry

     convergence has been achieved in   9 iterations

     Writing all to output data dir bands_nm/myprefix.save/

     General routines

     Parallel routines

     PAW routines

   This run was terminated on:  14:12: 6  16Jul2023

   JOB DONE.