     Program PWSCF v.7.1 starts on 17Jul2023 at  4:26:24

     Reading input from espresso_15520.pwi
Warning: card &CELL ignored
Warning: card / ignored

     Current dimensions of program PWSCF are:
     Max number of different atomic species (ntypx) = 10
     Max number of k-points (npk) =  40000
     Max angular momentum in pseudopotentials (lmaxx) =  4
     file Ho.paw.z_21.atompaw.wentzcovitch.v1.2.upf: wavefunction(s)  6S 0P 5D 0D 4F 0F renormalized
     Message from routine setup:
     using ibrav=0 with symmetry is DISCOURAGED, use correct ibrav instead

     K-points division:     npool     =       2
     R & G space division:  proc/nbgrp/npool/nimage =       4
     Subspace diagonalization in iterative solution of the eigenvalue problem:
     one sub-group per band group will be used

     Using Slab Decomposition

     bravais-lattice index     =            0
     lattice parameter (alat)  =      17.0143  a.u.
     unit-cell volume          =    3050.5854 (a.u.)^3
     number of atoms/cell      =           12
     number of atomic types    =            4
     number of electrons       =       136.00
     number of Kohn-Sham states=          256
     kinetic-energy cutoff     =      30.0000  Ry
     charge density cutoff     =     240.0000  Ry
     scf convergence threshold =      1.0E-06
     mixing beta               =       0.7000
     number of iterations used =            8  plain     mixing
     Exchange-correlation= SLA  PW   PBE  PBE
                           (   1   4   3   4   0   0   0)

     celldm(1)=  17.014322  celldm(2)=   0.000000  celldm(3)=   0.000000
     celldm(4)=   0.000000  celldm(5)=   0.000000  celldm(6)=   0.000000

     crystal axes: (cart. coord. in units of alat)
               a(1) = (   1.000000   0.000000   0.000000 )
               a(2) = (  -0.879286   0.476294   0.000000 )
               a(3) = (   0.000000   0.000000   1.300361 )

     reciprocal axes: (cart. coord. in units 2 pi/alat)
               b(1) = (  1.000000  1.846099  0.000000 )
               b(2) = (  0.000000  2.099543  0.000000 )
               b(3) = (  0.000000  0.000000  0.769017 )

     PseudoPot. # 1 for Cs read from file:
     /lustre07/scratch/pragov/crystal_structure_design/utils/SSSP/Cs_pbe_v1.uspp.F.UPF
     MD5 check sum: 3476d69cb178dfad3ffaa59df4e07ca4
     Pseudo is Ultrasoft + core correction, Zval =  9.0
     Generated by new atomic code, or converted to UPF format
     Using radial grid of  905 points,  6 beta functions with:
                l(1) =   0
                l(2) =   0
                l(3) =   1
                l(4) =   1
                l(5) =   2
                l(6) =   2
     Q(r) pseudized with  6 coefficients,  rinner =    1.500   1.500   1.500
                                                       1.500   1.500

     PseudoPot. # 2 for Ho read from file:
     /lustre07/scratch/pragov/crystal_structure_design/utils/SSSP/Ho.paw.z_21.atompaw.wentzcovitch.v1.2.upf
     MD5 check sum: f900adcc49abc9ab8113872cdbacec3e
     Pseudo is Projector augmented-wave + core cor, Zval = 21.0
     Generated using ATOMPAW code
     Shape of augmentation charge: BESSEL
     Using radial grid of 1114 points,  8 beta functions with:
                l(1) =   0
                l(2) =   0
                l(3) =   1
                l(4) =   1
                l(5) =   2
                l(6) =   2
                l(7) =   3
                l(8) =   3
     Q(r) pseudized with 0 coefficients

     PseudoPot. # 3 for Zn read from file:
     /lustre07/scratch/pragov/crystal_structure_design/utils/SSSP/Zn_pbe_v1.uspp.F.UPF
     MD5 check sum: df62231357ef9e81f77b2b3087fa5675
     Pseudo is Ultrasoft, Zval = 20.0
     Generated by new atomic code, or converted to UPF format
     Using radial grid of  943 points,  6 beta functions with:
                l(1) =   0
                l(2) =   0
                l(3) =   1
                l(4) =   1
                l(5) =   2
                l(6) =   2
     Q(r) pseudized with  8 coefficients,  rinner =    1.100   1.100   1.100
                                                       1.100   1.100

     PseudoPot. # 4 for Te read from file:
     /lustre07/scratch/pragov/crystal_structure_design/utils/SSSP/Te_pbe_v1.uspp.F.UPF
     MD5 check sum: c319670d6894cc26e93307826a071b75
     Pseudo is Ultrasoft + core correction, Zval =  6.0
     Generated by new atomic code, or converted to UPF format
     Using radial grid of  891 points,  5 beta functions with:
                l(1) =   0
                l(2) =   0
                l(3) =   1
                l(4) =   1
                l(5) =   2
     Q(r) pseudized with  6 coefficients,  rinner =    1.800   1.800   1.800
                                                       1.800   1.800

     atomic species   valence    mass     pseudopotential
        Cs             9.00   132.90545     Cs( 1.00)
        Ho            21.00   164.93033     Ho( 1.00)
        Zn            20.00    65.38000     Zn( 1.00)
        Te             6.00   127.60000     Te( 1.00)

      4 Sym. Ops., with inversion, found ( 2 have fractional translation)

                                    s                        frac. trans.

      isym =  1     identity

 cryst.   s( 1) = (     1          0          0      )
                  (     0          1          0      )
                  (     0          0          1      )

 cart.    s( 1) = (  1.0000000  0.0000000  0.0000000 )
                  (  0.0000000  1.0000000  0.0000000 )
                  (  0.0000000  0.0000000  1.0000000 )

      isym =  2     180 deg rotation - cart. axis [0,0,1]

 cryst.   s( 2) = (    -1          0          0      )    f =( -0.0000000 )
                  (     0         -1          0      )       ( -0.0000000 )
                  (     0          0          1      )       (  0.5000000 )

 cart.    s( 2) = ( -1.0000000  0.0000000  0.0000000 )    f =( -0.0000000 )
                  (  0.0000000 -1.0000000  0.0000000 )       ( -0.0000000 )
                  (  0.0000000  0.0000000  1.0000000 )       (  0.6501805 )

      isym =  3     inversion

 cryst.   s( 3) = (    -1          0          0      )
                  (     0         -1          0      )
                  (     0          0         -1      )

 cart.    s( 3) = ( -1.0000000  0.0000000  0.0000000 )
                  (  0.0000000 -1.0000000  0.0000000 )
                  (  0.0000000  0.0000000 -1.0000000 )

      isym =  4     inv. 180 deg rotation - cart. axis [0,0,1]

 cryst.   s( 4) = (     1          0          0      )    f =(  0.0000000 )
                  (     0          1          0      )       (  0.0000000 )
                  (     0          0         -1      )       (  0.5000000 )

 cart.    s( 4) = (  1.0000000  0.0000000  0.0000000 )    f =(  0.0000000 )
                  (  0.0000000  1.0000000  0.0000000 )       (  0.0000000 )
                  (  0.0000000  0.0000000 -1.0000000 )       (  0.6501805 )

   Cartesian axes

     site n.     atom                  positions (alat units)
         1           Cs  tau(   1) = (  -0.4040991   0.3558608   0.9752708  )
         2           Cs  tau(   2) = (   0.5248131   0.1204334   0.3250903  )
         3           Ho  tau(   3) = (   0.0000000   0.0000000   0.0000000  )
         4           Ho  tau(   4) = (   0.0000000   0.0000000   0.6501805  )
         5           Zn  tau(   5) = (  -0.0091183   0.2557552   0.3250903  )
         6           Zn  tau(   6) = (   0.1298323   0.2205390   0.9752708  )
         7           Te  tau(   7) = (   0.8901012   0.0278532   0.9752708  )
         8           Te  tau(   8) = (   0.2812107   0.1821730   1.2261820  )
         9           Te  tau(   9) = (  -0.1604967   0.2941212   0.5760014  )
        10           Te  tau(  10) = (  -0.1604967   0.2941212   0.0741791  )
        11           Te  tau(  11) = (  -0.7693872   0.4484410   0.3250903  )
        12           Te  tau(  12) = (   0.2812107   0.1821730   0.7243596  )

   Crystallographic axes

     site n.     atom                  positions (cryst. coord.)
         1           Cs  tau(   1) = (  0.2528550  0.7471450  0.7500000  )
         2           Cs  tau(   2) = (  0.7471450  0.2528550  0.2500000  )
         3           Ho  tau(   3) = (  0.0000000  0.0000000  0.0000000  )
         4           Ho  tau(   4) = (  0.0000000  0.0000000  0.5000000  )
         5           Zn  tau(   5) = (  0.4630310  0.5369690  0.2500000  )
         6           Zn  tau(   6) = (  0.5369690  0.4630310  0.7500000  )
         7           Te  tau(   7) = (  0.9415210  0.0584790  0.7500000  )
         8           Te  tau(   8) = (  0.6175200  0.3824800  0.9429550  )
         9           Te  tau(   9) = (  0.3824800  0.6175200  0.4429550  )
        10           Te  tau(  10) = (  0.3824800  0.6175200  0.0570450  )
        11           Te  tau(  11) = (  0.0584790  0.9415210  0.2500000  )
        12           Te  tau(  12) = (  0.6175200  0.3824800  0.5570450  )

     number of k points=    10
                       cart. coord. in units 2pi/alat
        k(    1) = (   0.0000000   0.0000000   0.0000000), wk =   0.0740741
        k(    2) = (   0.0000000   0.0000000   0.2563391), wk =   0.1481481
        k(    3) = (   0.0000000   0.6998476   0.0000000), wk =   0.1481481
        k(    4) = (   0.0000000   0.6998476   0.2563391), wk =   0.2962963
        k(    5) = (   0.3333333   0.6153662   0.0000000), wk =   0.1481481
        k(    6) = (   0.3333333   0.6153662   0.2563391), wk =   0.2962963
        k(    7) = (   0.3333333   1.3152138   0.0000000), wk =   0.1481481
        k(    8) = (   0.3333333   1.3152138   0.2563391), wk =   0.2962963
        k(    9) = (   0.3333333  -0.0844814   0.0000000), wk =   0.1481481
        k(   10) = (   0.3333333  -0.0844814   0.2563391), wk =   0.2962963

                       cryst. coord.
        k(    1) = (   0.0000000   0.0000000   0.0000000), wk =   0.0740741
        k(    2) = (   0.0000000   0.0000000   0.3333333), wk =   0.1481481
        k(    3) = (   0.0000000   0.3333333   0.0000000), wk =   0.1481481
        k(    4) = (   0.0000000   0.3333333   0.3333333), wk =   0.2962963
        k(    5) = (   0.3333333   0.0000000   0.0000000), wk =   0.1481481
        k(    6) = (   0.3333333   0.0000000   0.3333333), wk =   0.2962963
        k(    7) = (   0.3333333   0.3333333   0.0000000), wk =   0.1481481
        k(    8) = (   0.3333333   0.3333333   0.3333333), wk =   0.2962963
        k(    9) = (   0.3333333  -0.3333333   0.0000000), wk =   0.1481481
        k(   10) = (   0.3333333  -0.3333333   0.3333333), wk =   0.2962963

     Initial potential from superposition of free atoms

     starting charge     135.9111, renormalised to     136.0000
     Starting wfcs are  140 randomized atomic wfcs +  116 random wfcs
     Checking if some PAW data can be deallocated...

     Self-consistent Calculation

     iteration #  1     ecut=    30.00 Ry     beta= 0.70
     Davidson diagonalization with overlap

     ethr =  1.00E-02,  avg # of iterations =  7.0

     total energy              =   -2843.76627256 Ry
     estimated scf accuracy    <      20.76055129 Ry

[...]

     total energy              =   -2867.82622003 Ry
     estimated scf accuracy    <       0.00000214 Ry

     iteration #125     ecut=    30.00 Ry     beta= 0.70
     Davidson diagonalization with overlap

     ethr =  1.57E-09,  avg # of iterations =  1.0

     End of self-consistent calculation

          k = 0.0000 0.0000 0.0000 (  8469 PWs)   bands (ev):

  -120.2953-120.2942 -74.3996 -74.3973 -74.3941 -74.3906 -74.3903 -74.3852
   -40.9641 -40.9641 -16.2525 -16.2439 -16.2073 -16.2069 -16.1659 -16.1657
   -16.1231 -16.1221  -5.3542  -4.9490  -4.7675  -4.6107  -4.5994  -4.3744
    -2.9263  -2.9171  -2.8891  -2.8359  -2.7794  -2.7760  -1.2043  -1.2026
    -1.1656  -1.1436  -1.1428  -1.1198  -1.1144  -1.1084  -1.1080  -1.0908
     1.5122   1.9099   2.4085   2.9324   2.9618   3.5606   3.7355   4.0820
     4.1323   4.2109   4.5281   4.5938   4.6342   4.6806   4.8811   5.0163
     5.0825   5.1753   5.4357   5.4378   5.4972   5.5404   5.5433   5.5592
     5.5669   5.6035   5.6116   5.7314   5.8391   5.9186   5.9953   6.0555
     7.2210   8.0945   8.2389   8.2733   8.6260   8.9404   9.0405   9.1834
     9.2967   9.3199   9.6702   9.9658   9.9813  10.0339  10.2045  10.4048
    10.5364  10.6001  10.6189  10.6765  10.7002  11.0686  11.3143  11.7403
    11.7917  11.8236  11.8943  12.0236  12.1433  12.3570  12.4504  12.6231
    12.7782  13.3421  13.5937  13.6383  13.7229  13.8969  14.0413  14.1777
    14.3541  14.7286  15.0246  15.0559  15.2418  15.3570  15.6532  15.6762
    15.8163  16.1967  16.2203  16.4212  16.6201  16.7973  16.8084  16.9796
    17.1231  17.3234  17.4058  17.4206  17.5596  17.7749  17.8062  18.0222
    18.0493  18.3902  18.3913  18.4362  18.5921  18.6150  18.6700  18.7710
    18.9913  19.0489  19.2813  19.3211  19.7437  19.8007  20.0587  20.2260
    20.3522  20.4097  20.6884  20.7701  21.2196  21.3085  21.5429  21.5719
    21.7429  21.7586  21.8653  22.0116  22.1499  22.1711  22.3858  22.5004
    22.5706  22.5707  22.6275  22.6534  22.9840  23.0328  23.4636  23.7069
    23.8568  23.8658  23.8886  23.9648  23.9990  24.1064  24.1823  24.9201
    24.9347  25.0992  25.1640  25.4049  25.4071  25.6782  25.7878  25.9314
    25.9869  26.2096  26.2704  26.4460  26.4531  26.9570  26.9594  27.0286
    27.1337  27.4197  27.4546  27.4577  27.4972  27.6186  27.8888  27.8892
    27.9688  28.1697  28.2583  28.4935  28.5219  28.5496  28.7698  28.8101
    29.0416  29.0527  29.1138  29.3007  29.5562  29.8723  29.9416  29.9760
    29.9913  30.0464  30.0688  30.1090  30.2026  30.2117  30.5430  30.5717
    30.8106  30.8225  30.8783  31.2058  31.2209  31.3791  31.4565  31.5679
    31.7536  31.7997  31.8136  31.9588  32.0464  32.1554  32.2644  32.4654
    32.5661  32.7788  32.7941  32.9194  32.9272  33.1466  33.2368  33.3875

     occupation numbers
     1.0000   1.0000   1.0000   1.0000   1.0000   1.0000   1.0000   1.0000
     1.0000   1.0000   1.0000   1.0000   1.0000   1.0000   1.0000   1.0000
     1.0000   1.0000   1.0000   1.0000   1.0000   1.0000   1.0000   1.0000
     1.0000   1.0000   1.0000   1.0000   1.0000   1.0000   1.0000   1.0000
     1.0000   1.0000   1.0000   1.0000   1.0000   1.0000   1.0000   1.0000
     1.0000   1.0000   1.0000   1.0000   1.0000   1.0000   1.0000   1.0000
     1.0000   1.0000   1.0000   1.0000   1.0000   1.0000   1.0000   1.0000
     1.0000   1.0000   1.0000   1.0000   1.0000   1.0000   1.0000   1.0000
     1.0000   1.0000   1.0000   1.0000   0.0000   0.0000   0.0000   0.0000
     0.0000   0.0000   0.0000   0.0000   0.0000   0.0000   0.0000   0.0000
     0.0000   0.0000   0.0000   0.0000   0.0000   0.0000   0.0000   0.0000
     0.0000   0.0000   0.0000   0.0000   0.0000   0.0000   0.0000   0.0000
     0.0000   0.0000   0.0000   0.0000   0.0000   0.0000   0.0000   0.0000
     0.0000   0.0000   0.0000   0.0000   0.0000   0.0000   0.0000   0.0000
     0.0000   0.0000   0.0000   0.0000   0.0000   0.0000   0.0000   0.0000
     0.0000   0.0000   0.0000   0.0000   0.0000   0.0000   0.0000   0.0000
     0.0000   0.0000   0.0000   0.0000   0.0000   0.0000   0.0000   0.0000
     0.0000   0.0000   0.0000   0.0000   0.0000   0.0000   0.0000   0.0000
     0.0000   0.0000   0.0000   0.0000   0.0000   0.0000   0.0000   0.0000
     0.0000   0.0000   0.0000   0.0000   0.0000   0.0000   0.0000   0.0000
     0.0000   0.0000   0.0000   0.0000   0.0000   0.0000   0.0000   0.0000
     0.0000   0.0000   0.0000   0.0000   0.0000   0.0000   0.0000   0.0000
     0.0000   0.0000   0.0000   0.0000   0.0000   0.0000   0.0000   0.0000
     0.0000   0.0000   0.0000   0.0000   0.0000   0.0000   0.0000   0.0000
     0.0000   0.0000   0.0000   0.0000   0.0000   0.0000   0.0000   0.0000
     0.0000   0.0000   0.0000   0.0000   0.0000   0.0000   0.0000   0.0000
     0.0000   0.0000   0.0000   0.0000   0.0000   0.0000   0.0000   0.0000
     0.0000   0.0000   0.0000   0.0000   0.0000   0.0000   0.0000   0.0000
     0.0000   0.0000   0.0000   0.0000   0.0000   0.0000   0.0000   0.0000
     0.0000   0.0000   0.0000   0.0000   0.0000   0.0000   0.0000   0.0000
     0.0000   0.0000   0.0000   0.0000   0.0000   0.0000   0.0000   0.0000
     0.0000   0.0000   0.0000   0.0000   0.0000   0.0000   0.0000   0.0000

[...]

          k = 0.3333-0.0845 0.2563 (  8488 PWs)   bands (ev):

  -120.2954-120.2948 -74.4000 -74.3984 -74.3954 -74.3942 -74.3892 -74.3866
   -40.9641 -40.9641 -16.2503 -16.2460 -16.2074 -16.2071 -16.1659 -16.1658
   -16.1227 -16.1224  -5.3136  -5.1275  -4.6334  -4.5814  -4.5211  -4.4591
    -2.9274  -2.9032  -2.8841  -2.8681  -2.7784  -2.7767  -1.2079  -1.2060
    -1.1523  -1.1409  -1.1381  -1.1211  -1.1208  -1.1176  -1.1134  -1.1007
     1.5597   1.7186   2.5091   2.6460   3.3893   3.8032   3.9584   4.1232
     4.1473   4.2477   4.3320   4.5640   4.5899   4.6545   4.7537   4.8882
     5.0414   5.1212   5.4361   5.4373   5.5114   5.5438   5.5531   5.5565
     5.5762   5.6013   5.6202   5.6721   5.7162   5.7703   5.9159   5.9761
     7.5086   7.8064   7.8885   8.1376   8.9331   9.0188   9.0485   9.2418
     9.4267   9.6760   9.7383   9.8686  10.0395  10.0532  10.4902  10.5168
    10.6628  10.6735  10.6783  10.8645  10.9367  11.1157  11.2492  11.5445
    11.6817  11.9353  11.9592  12.2788  12.2806  12.5910  12.6442  12.8932
    12.9088  13.0145  13.0702  13.6544  13.7626  13.8365  13.9003  14.1868
    14.2193  14.3782  14.5270  14.8503  15.0948  15.1948  15.4849  15.5054
    15.6027  15.7029  15.8165  15.9565  16.1147  16.3135  16.5794  16.6304
    16.8431  17.1587  17.3794  17.4177  17.5208  17.6427  17.7432  17.7926
    18.0594  18.2642  18.5276  18.8479  18.8510  19.1923  19.2021  19.3847
    19.4876  19.5536  19.8098  19.8818  20.1239  20.2838  20.3985  20.6987
    20.7756  20.8710  20.9234  21.1089  21.3186  21.4004  21.4341  21.5237
    21.5388  21.6614  21.8876  21.9730  22.1256  22.2950  22.4477  22.6610
    22.7280  22.7945  23.1041  23.1826  23.2585  23.3277  23.4235  23.4745
    23.7880  23.8783  24.0226  24.0509  24.1354  24.2424  24.3525  24.4895
    24.6722  24.6980  24.8072  24.8178  24.9689  25.1526  25.3426  25.5473
    25.6191  25.7183  26.0754  26.0772  26.3255  26.4673  26.6617  26.7483
    27.0012  27.1190  27.1226  27.2310  27.3126  27.4606  27.6246  27.9057
    27.9061  28.1170  28.2124  28.4307  28.5060  28.7219  28.7552  28.8063
    28.8458  28.9684  29.3350  29.3366  29.3770  29.4172  29.6769  29.7187
    29.7847  29.8096  29.9602  30.1328  30.2150  30.5637  30.6878  30.8584
    30.8928  30.9944  31.1360  31.2363  31.3430  31.3565  31.5125  31.5225
    31.7457  31.7860  31.8498  32.0775  32.1969  32.2927  32.3094  32.3959
    32.4017  32.5393  32.7222  32.7515  32.8453  32.9742  33.1652  33.1973

     occupation numbers
     1.0000   1.0000   1.0000   1.0000   1.0000   1.0000   1.0000   1.0000
     1.0000   1.0000   1.0000   1.0000   1.0000   1.0000   1.0000   1.0000
     1.0000   1.0000   1.0000   1.0000   1.0000   1.0000   1.0000   1.0000
     1.0000   1.0000   1.0000   1.0000   1.0000   1.0000   1.0000   1.0000
     1.0000   1.0000   1.0000   1.0000   1.0000   1.0000   1.0000   1.0000
     1.0000   1.0000   1.0000   1.0000   1.0000   1.0000   1.0000   1.0000
     1.0000   1.0000   1.0000   1.0000   1.0000   1.0000   1.0000   1.0000
     1.0000   1.0000   1.0000   1.0000   1.0000   1.0000   1.0000   1.0000
     1.0000   1.0000   1.0000   1.0000   0.0000   0.0000   0.0000   0.0000
     0.0000   0.0000   0.0000   0.0000   0.0000   0.0000   0.0000   0.0000
     0.0000   0.0000   0.0000   0.0000   0.0000   0.0000   0.0000   0.0000
     0.0000   0.0000   0.0000   0.0000   0.0000   0.0000   0.0000   0.0000
     0.0000   0.0000   0.0000   0.0000   0.0000   0.0000   0.0000   0.0000
     0.0000   0.0000   0.0000   0.0000   0.0000   0.0000   0.0000   0.0000
     0.0000   0.0000   0.0000   0.0000   0.0000   0.0000   0.0000   0.0000
     0.0000   0.0000   0.0000   0.0000   0.0000   0.0000   0.0000   0.0000
     0.0000   0.0000   0.0000   0.0000   0.0000   0.0000   0.0000   0.0000
     0.0000   0.0000   0.0000   0.0000   0.0000   0.0000   0.0000   0.0000
     0.0000   0.0000   0.0000   0.0000   0.0000   0.0000   0.0000   0.0000
     0.0000   0.0000   0.0000   0.0000   0.0000   0.0000   0.0000   0.0000
     0.0000   0.0000   0.0000   0.0000   0.0000   0.0000   0.0000   0.0000
     0.0000   0.0000   0.0000   0.0000   0.0000   0.0000   0.0000   0.0000
     0.0000   0.0000   0.0000   0.0000   0.0000   0.0000   0.0000   0.0000
     0.0000   0.0000   0.0000   0.0000   0.0000   0.0000   0.0000   0.0000
     0.0000   0.0000   0.0000   0.0000   0.0000   0.0000   0.0000   0.0000
     0.0000   0.0000   0.0000   0.0000   0.0000   0.0000   0.0000   0.0000
     0.0000   0.0000   0.0000   0.0000   0.0000   0.0000   0.0000   0.0000
     0.0000   0.0000   0.0000   0.0000   0.0000   0.0000   0.0000   0.0000
     0.0000   0.0000   0.0000   0.0000   0.0000   0.0000   0.0000   0.0000
     0.0000   0.0000   0.0000   0.0000   0.0000   0.0000   0.0000   0.0000
     0.0000   0.0000   0.0000   0.0000   0.0000   0.0000   0.0000   0.0000
     0.0000   0.0000   0.0000   0.0000   0.0000   0.0000   0.0000   0.0000

     highest occupied, lowest unoccupied level (ev):     5.7314    5.6147

!    total energy              =   -2867.82621786 Ry
     estimated scf accuracy    <       0.00000075 Ry

     The total energy is the sum of the following terms:
     one-electron contribution =   -1994.87767922 Ry
     hartree contribution      =    1025.30043609 Ry
     xc contribution           =    -292.37645474 Ry
     ewald contribution        =    -636.19224243 Ry
     one-center paw contrib.   =    -969.68027757 Ry
      -> PAW hartree energy AE =       0.00000000 Ry
      -> PAW hartree energy PS =       0.00000000 Ry
      -> PAW xc energy AE      =       0.00000000 Ry
      -> PAW xc energy PS      =       0.00000000 Ry
      -> total E_H with PAW    =    1025.30043609 Ry
      -> total E_XC with PAW   =    -292.37645474 Ry

     convergence has been achieved in 125 iterations

     Writing all to output data dir bands_nm/myprefix.save/

     General routines

     Parallel routines

     PAW routines

   This run was terminated on:   4:39: 9  17Jul2023

   JOB DONE.