     Program PWSCF v.7.1 starts on 15Jul2023 at 21: 3:43

     Reading input from espresso_25490.pwi
Warning: card &CELL ignored
Warning: card / ignored

     Current dimensions of program PWSCF are:
     Max number of different atomic species (ntypx) = 10
     Max number of k-points (npk) =  40000
     Max angular momentum in pseudopotentials (lmaxx) =  4
     Message from routine setup:
     using ibrav=0 with symmetry is DISCOURAGED, use correct ibrav instead

     K-points division:     npool     =       2
     R & G space division:  proc/nbgrp/npool/nimage =       4
     Subspace diagonalization in iterative solution of the eigenvalue problem:
     one sub-group per band group will be used

     Using Slab Decomposition

     bravais-lattice index     =            0
     lattice parameter (alat)  =      12.5150  a.u.
     unit-cell volume          =    2307.2404 (a.u.)^3
     number of atoms/cell      =           16
     number of atomic types    =            4
     number of electrons       =       172.00
     number of Kohn-Sham states=          256
     kinetic-energy cutoff     =      30.0000  Ry
     charge density cutoff     =     240.0000  Ry
     scf convergence threshold =      1.0E-06
     mixing beta               =       0.7000
     number of iterations used =            8  plain     mixing
     Exchange-correlation=  SLA  PW   PBX  PBC
                           (   1   4   3   4   0   0   0)

     celldm(1)=  12.515036  celldm(2)=   0.000000  celldm(3)=   0.000000
     celldm(4)=   0.000000  celldm(5)=   0.000000  celldm(6)=   0.000000

     crystal axes: (cart. coord. in units of alat)
               a(1) = (   1.000000   0.000000   0.000000 )
               a(2) = (   0.000000   0.976441   0.000000 )
               a(3) = (   0.000000   0.969083   1.205453 )

     reciprocal axes: (cart. coord. in units 2 pi/alat)
               b(1) = (  1.000000  0.000000  0.000000 )
               b(2) = (  0.000000  1.024127 -0.823312 )
               b(3) = (  0.000000  0.000000  0.829563 )

     PseudoPot. # 1 for Zn read from file:
     /lustre07/scratch/pragov/crystal_structure_design/utils/SSSP/Zn_pbe_v1.uspp.F.UPF
     MD5 check sum: df62231357ef9e81f77b2b3087fa5675
     Pseudo is Ultrasoft, Zval = 20.0
     Generated by new atomic code, or converted to UPF format
     Using radial grid of  943 points,  6 beta functions with:
                l(1) =   0
                l(2) =   0
                l(3) =   1
                l(4) =   1
                l(5) =   2
                l(6) =   2
     Q(r) pseudized with  8 coefficients,  rinner =    1.100   1.100   1.100
                                                       1.100   1.100

     PseudoPot. # 2 for Si read from file:
     /lustre07/scratch/pragov/crystal_structure_design/utils/SSSP/Si.pbe-n-rrkjus_psl.1.0.0.UPF
     MD5 check sum: 0b0bb1205258b0d07b9f9672cf965d36
     Pseudo is Ultrasoft + core correction, Zval =  4.0
     Generated using "atomic" code by A. Dal Corso  v.5.1
     Using radial grid of 1141 points,  6 beta functions with:
                l(1) =   0
                l(2) =   0
                l(3) =   1
                l(4) =   1
                l(5) =   2
                l(6) =   2
     Q(r) pseudized with 0 coefficients

     PseudoPot. # 3 for Ag read from file:
     /lustre07/scratch/pragov/crystal_structure_design/utils/SSSP/Ag_ONCV_PBE-1.0.oncvpsp.upf
     MD5 check sum: 94f47bd0669c641108e45594df92fabc
     Pseudo is Norm-conserving, Zval = 19.0
     Generated using ONCVPSP code by D. R. Hamann
     Using radial grid of 1398 points,  6 beta functions with:
                l(1) =   0
                l(2) =   0
                l(3) =   1
                l(4) =   1
                l(5) =   2
                l(6) =   2

     PseudoPot. # 4 for S  read from file:
     /lustre07/scratch/pragov/crystal_structure_design/utils/SSSP/s_pbe_v1.4.uspp.F.UPF
     MD5 check sum: 88d86576ff6df21479756cfb9bdac1df
     Pseudo is Ultrasoft + core correction, Zval =  6.0
     Generated by new atomic code, or converted to UPF format
     Using radial grid of  907 points,  6 beta functions with:
                l(1) =   0
                l(2) =   0
                l(3) =   1
                l(4) =   1
                l(5) =   2
                l(6) =   2
     Q(r) pseudized with  8 coefficients,  rinner =    1.300   1.300   1.300
                                                       1.300   1.300

     atomic species   valence    mass     pseudopotential
        Zn            20.00    65.38000     Zn( 1.00)
        Si             4.00    28.08500     Si( 1.00)
        Ag            19.00   107.86820     Ag( 1.00)
        S              6.00    32.06000     S ( 1.00)

      2 Sym. Ops. (no inversion) found ( 1 have fractional translation)

                                    s                        frac. trans.

      isym =  1     identity

 cryst.   s( 1) = (     1          0          0      )
                  (     0          1          0      )
                  (     0          0          1      )

 cart.    s( 1) = (  1.0000000  0.0000000  0.0000000 )
                  (  0.0000000  1.0000000  0.0000000 )
                  (  0.0000000  0.0000000  1.0000000 )

      isym =  2     inv. 180 deg rotation - cart. axis [1,0,0]

 cryst.   s( 2) = (    -1          0          0      )    f =( -0.0000000 )
                  (     0          1          0      )       ( -0.0000000 )
                  (     0          0          1      )       (  0.5000000 )

 cart.    s( 2) = ( -1.0000000  0.0000000  0.0000000 )    f =( -0.0000000 )
                  (  0.0000000  1.0000000  0.0000000 )       (  0.4845414 )
                  (  0.0000000  0.0000000  1.0000000 )       (  0.6027267 )

   Cartesian axes

     site n.     atom                  positions (alat units)
         1           Zn  tau(   1) = (   0.6861440   1.2426468   0.8187668  )
         2           Zn  tau(   2) = (   0.3138560   0.7581055   0.2160401  )
         3           Si  tau(   3) = (   0.8156060   0.7593405   0.5131121  )
         4           Si  tau(   4) = (   0.1843940   1.2438818   1.1158387  )
         5           Ag  tau(   5) = (   0.6812170   0.2580122   0.2079033  )
         6           Ag  tau(   6) = (   0.3187830   0.7425535   0.8106300  )
         7           Ag  tau(   7) = (   0.8474540   1.7312335   1.1103889  )
         8           Ag  tau(   8) = (   0.1525460   1.2466921   0.5076622  )
         9           S   tau(   9) = (   0.8748030   1.3444684   1.1020049  )
        10           S   tau(  10) = (   0.1251970   0.8599271   0.4992783  )
        11           S   tau(  11) = (   0.6835390   0.8858872   0.7810554  )
        12           S   tau(  12) = (   0.3164610   0.4013458   0.1783287  )
        13           S   tau(  13) = (   0.8006040   0.4352758   0.5288565  )
        14           S   tau(  14) = (   0.1993960   0.9198172   1.1315831  )
        15           S   tau(  15) = (   0.6602420   0.8540375   0.2442586  )
        16           S   tau(  16) = (   0.3397580   1.3385788   0.8469853  )

   Crystallographic axes

     site n.     atom                  positions (cryst. coord.)
         1           Zn  tau(   1) = (  0.6861440  0.5985280  0.6792190  )
         2           Zn  tau(   2) = (  0.3138560  0.5985280  0.1792190  )
         3           Si  tau(   3) = (  0.8156060  0.3552100  0.4256590  )
         4           Si  tau(   4) = (  0.1843940  0.3552100  0.9256590  )
         5           Ag  tau(   5) = (  0.6812170  0.0930680  0.1724690  )
         6           Ag  tau(   6) = (  0.3187830  0.0930680  0.6724690  )
         7           Ag  tau(   7) = (  0.8474540  0.8588070  0.9211380  )
         8           Ag  tau(   8) = (  0.1525460  0.8588070  0.4211380  )
         9           S   tau(   9) = (  0.8748030  0.4696130  0.9141830  )
        10           S   tau(  10) = (  0.1251970  0.4696130  0.4141830  )
        11           S   tau(  11) = (  0.6835390  0.2642090  0.6479350  )
        12           S   tau(  12) = (  0.3164610  0.2642090  0.1479350  )
        13           S   tau(  13) = (  0.8006040  0.0103640  0.4387200  )
        14           S   tau(  14) = (  0.1993960  0.0103640  0.9387200  )
        15           S   tau(  15) = (  0.6602420  0.6735420  0.2026280  )
        16           S   tau(  16) = (  0.3397580  0.6735420  0.7026280  )

     number of k points=    10
                       cart. coord. in units 2pi/alat
        k(    1) = (   0.0000000   0.0000000   0.0000000), wk =   0.0740741
        k(    2) = (   0.0000000   0.0000000   0.2765211), wk =   0.1481481
        k(    3) = (   0.0000000   0.3413757  -0.2744373), wk =   0.1481481
        k(    4) = (   0.0000000   0.3413757   0.0020839), wk =   0.1481481
        k(    5) = (   0.0000000   0.3413757  -0.5509584), wk =   0.1481481
        k(    6) = (   0.3333333   0.0000000   0.0000000), wk =   0.1481481
        k(    7) = (   0.3333333   0.0000000   0.2765211), wk =   0.2962963
        k(    8) = (   0.3333333   0.3413757  -0.2744373), wk =   0.2962963
        k(    9) = (   0.3333333   0.3413757   0.0020839), wk =   0.2962963
        k(   10) = (   0.3333333   0.3413757  -0.5509584), wk =   0.2962963

                       cryst. coord.
        k(    1) = (   0.0000000   0.0000000   0.0000000), wk =   0.0740741
        k(    2) = (   0.0000000   0.0000000   0.3333333), wk =   0.1481481
        k(    3) = (   0.0000000   0.3333333  -0.0000000), wk =   0.1481481
        k(    4) = (   0.0000000   0.3333333   0.3333333), wk =   0.1481481
        k(    5) = (   0.0000000   0.3333333  -0.3333333), wk =   0.1481481
        k(    6) = (   0.3333333   0.0000000   0.0000000), wk =   0.1481481
        k(    7) = (   0.3333333   0.0000000   0.3333333), wk =   0.2962963
        k(    8) = (   0.3333333   0.3333333  -0.0000000), wk =   0.2962963
        k(    9) = (   0.3333333   0.3333333   0.3333333), wk =   0.2962963
        k(   10) = (   0.3333333   0.3333333  -0.3333333), wk =   0.2962963

     Initial potential from superposition of free atoms

     starting charge     171.9971, renormalised to     172.0000
     Starting wfcs are  106 randomized atomic wfcs +  150 random wfcs

     Self-consistent Calculation

     iteration #  1     ecut=    30.00 Ry     beta= 0.70
     Davidson diagonalization with overlap

     ethr =  1.00E-02,  avg # of iterations =  7.0

     Threshold (ethr) on eigenvalues was too large:
     Diagonalizing with lowered threshold

     Davidson diagonalization with overlap

[...]

     total energy              =   -2287.25160266 Ry
     estimated scf accuracy    <       0.88492248 Ry

[...]

     total energy              =   -2287.56072876 Ry
     estimated scf accuracy    <       0.00000821 Ry

     iteration #  8     ecut=    30.00 Ry     beta= 0.70
     Davidson diagonalization with overlap

     ethr =  4.77E-09,  avg # of iterations =  2.0

     End of self-consistent calculation

          k = 0.0000 0.0000 0.0000 (  6377 PWs)   bands (ev):

  -118.4302-118.4297 -84.5360 -84.5360 -84.5301 -84.5301 -72.5513 -72.5479
   -72.5375 -72.5344 -72.5233 -72.5213 -47.6054 -47.6047 -47.5967 -47.5960
   -47.5863 -47.5854 -47.5808 -47.5808 -47.5690 -47.5679 -47.5623 -47.5610
    -6.9331  -6.5760  -5.5927  -5.4390  -5.3724  -5.3325  -5.2879  -5.2452
    -0.6369  -0.3219   0.5124   0.5254   0.5391   0.5621   0.5737   0.6359
     0.6414   0.6577   0.6747   0.8774   1.5159   2.1920   2.1969   2.4202
     2.4590   2.5506   2.9408   3.0155   3.1702   3.2700   3.3091   3.3500
     3.4255   3.4947   3.6163   3.6756   3.7054   3.7609   3.8303   3.8835
     3.9365   3.9827   4.2694   4.2886   4.4661   4.5219   4.5843   4.6630
     4.8104   4.8931   5.0526   5.2859   5.5667   5.5675   5.8852   5.9069
     6.3308   6.7049   6.7721   6.7895   6.8479   6.8835   8.6520   9.8454
    10.2719  10.3102  10.9041  10.9335  11.2595  11.7050  11.7359  11.9968
    12.0594  12.1136  12.5277  12.7255  12.9188  13.0342  13.5070  13.5895
    14.0254  14.0751  14.3180  14.5626  14.7743  14.8127  14.8682  15.1865
    15.3851  15.6355  15.7135  15.9185  16.1658  16.5977  16.7969  16.8371
    16.9293  17.4159  17.7791  18.0889  18.1173  18.3177  18.5157  18.5971
    18.6267  18.7614  18.8756  18.9246  19.0840  19.3882  19.4627  19.5562
    19.7969  19.8284  20.3433  20.3856  20.5239  20.5284  20.7687  21.0482
    21.3380  21.3740  21.5932  21.7859  21.8242  22.3590  22.5032  22.7455
    22.7593  22.9505  23.0866  23.6127  23.6241  23.8528  24.0491  24.2972
    24.3851  24.6550  24.9133  25.0669  25.3206  25.3454  25.4935  25.5250
    25.6889  25.7014  25.8034  26.2686  26.4128  26.5939  26.6974  26.8396
    26.8695  27.0522  27.3077  27.4903  27.9127  27.9369  28.0330  28.0707
    28.1131  28.2668  28.6384  28.9616  28.9637  29.0753  29.1661  29.2880
    29.4400  29.5986  29.7705  29.8928  30.0168  30.1237  30.1311  30.2933
    30.3929  30.5146  30.5734  30.7627  31.0757  31.4093  31.6687  31.6879
    31.8899  32.2709  32.3609  32.4187  32.5091  32.6792  32.7293  32.7835
    33.0487  33.2014  33.4744  33.5468  33.6589  33.6933  33.8730  33.8761
    34.2207  34.4083  34.4531  34.5099  34.6239  34.8406  34.8623  35.0144
    35.0705  35.1540  35.1715  35.5523  35.6981  35.8627  36.0429  36.1323
    36.2223  36.3875  36.5173  36.5536  36.8382  36.9258  37.1157  37.1730
    37.3979  37.4721  37.5384  37.5668  37.7991  37.9188  37.9257  38.0288

     occupation numbers
     1.0000   1.0000   1.0000   1.0000   1.0000   1.0000   1.0000   1.0000
     1.0000   1.0000   1.0000   1.0000   1.0000   1.0000   1.0000   1.0000
     1.0000   1.0000   1.0000   1.0000   1.0000   1.0000   1.0000   1.0000
     1.0000   1.0000   1.0000   1.0000   1.0000   1.0000   1.0000   1.0000
     1.0000   1.0000   1.0000   1.0000   1.0000   1.0000   1.0000   1.0000
     1.0000   1.0000   1.0000   1.0000   1.0000   1.0000   1.0000   1.0000
     1.0000   1.0000   1.0000   1.0000   1.0000   1.0000   1.0000   1.0000
     1.0000   1.0000   1.0000   1.0000   1.0000   1.0000   1.0000   1.0000
     1.0000   1.0000   1.0000   1.0000   1.0000   1.0000   1.0000   1.0000
     1.0000   1.0000   1.0000   1.0000   1.0000   1.0000   1.0000   1.0000
     1.0000   1.0000   1.0000   1.0000   1.0000   1.0000   0.0000   0.0000
     0.0000   0.0000   0.0000   0.0000   0.0000   0.0000   0.0000   0.0000
     0.0000   0.0000   0.0000   0.0000   0.0000   0.0000   0.0000   0.0000
     0.0000   0.0000   0.0000   0.0000   0.0000   0.0000   0.0000   0.0000
     0.0000   0.0000   0.0000   0.0000   0.0000   0.0000   0.0000   0.0000
     0.0000   0.0000   0.0000   0.0000   0.0000   0.0000   0.0000   0.0000
     0.0000   0.0000   0.0000   0.0000   0.0000   0.0000   0.0000   0.0000
     0.0000   0.0000   0.0000   0.0000   0.0000   0.0000   0.0000   0.0000
     0.0000   0.0000   0.0000   0.0000   0.0000   0.0000   0.0000   0.0000
     0.0000   0.0000   0.0000   0.0000   0.0000   0.0000   0.0000   0.0000
     0.0000   0.0000   0.0000   0.0000   0.0000   0.0000   0.0000   0.0000
     0.0000   0.0000   0.0000   0.0000   0.0000   0.0000   0.0000   0.0000
     0.0000   0.0000   0.0000   0.0000   0.0000   0.0000   0.0000   0.0000
     0.0000   0.0000   0.0000   0.0000   0.0000   0.0000   0.0000   0.0000
     0.0000   0.0000   0.0000   0.0000   0.0000   0.0000   0.0000   0.0000
     0.0000   0.0000   0.0000   0.0000   0.0000   0.0000   0.0000   0.0000
     0.0000   0.0000   0.0000   0.0000   0.0000   0.0000   0.0000   0.0000
     0.0000   0.0000   0.0000   0.0000   0.0000   0.0000   0.0000   0.0000
     0.0000   0.0000   0.0000   0.0000   0.0000   0.0000   0.0000   0.0000
     0.0000   0.0000   0.0000   0.0000   0.0000   0.0000   0.0000   0.0000
     0.0000   0.0000   0.0000   0.0000   0.0000   0.0000   0.0000   0.0000
     0.0000   0.0000   0.0000   0.0000   0.0000   0.0000   0.0000   0.0000

[...]

          k = 0.3333 0.3414-0.5510 (  6403 PWs)   bands (ev):

  -118.4308-118.4302 -84.5360 -84.5360 -84.5301 -84.5301 -72.5545 -72.5521
   -72.5371 -72.5344 -72.5252 -72.5237 -47.6060 -47.6057 -47.5983 -47.5974
   -47.5862 -47.5852 -47.5817 -47.5804 -47.5705 -47.5700 -47.5630 -47.5624
    -6.6740  -6.6157  -5.6146  -5.5452  -5.4344  -5.3876  -5.3455  -5.3156
    -0.4414  -0.3928   0.4730   0.4899   0.5140   0.5264   0.6204   0.6382
     0.6613   0.6684   0.7867   0.9098   1.5882   1.8331   2.3153   2.3997
     2.5293   2.5742   2.7545   2.9790   3.1586   3.1936   3.2744   3.2910
     3.4525   3.4624   3.5692   3.6543   3.7735   3.8716   3.9782   4.0804
     4.1350   4.2432   4.3109   4.3494   4.4260   4.5178   4.5867   4.7463
     4.8061   4.9040   5.2108   5.3446   5.5873   5.7453   5.8889   5.9329
     6.0377   6.1720   6.3903   6.5100   6.6274   6.7881   9.9801  10.2138
    10.3685  10.5846  10.8353  10.9973  11.1246  11.2852  11.6035  11.9098
    12.1573  12.2399  12.4833  12.7293  12.9244  13.1163  13.3439  13.5092
    13.6685  13.8461  14.0843  14.2199  14.4143  14.5429  14.8079  14.8858
    15.0594  15.3246  15.6242  15.7307  15.8770  16.1282  16.4368  16.6115
    16.7921  17.1817  17.5129  17.7913  17.9578  18.2653  18.4584  18.5611
    18.7740  18.8078  18.9846  19.3168  19.4580  19.6173  19.7995  20.0357
    20.0981  20.3632  20.7934  21.0452  21.0829  21.3041  21.4731  21.7417
    21.9687  22.0457  22.1564  22.3353  22.4158  22.6160  22.7617  22.8952
    23.1068  23.3832  23.4452  23.6205  23.6881  23.8361  24.0340  24.0972
    24.3213  24.3967  24.6200  24.7065  24.9837  25.1519  25.2481  25.3932
    25.4544  25.7354  25.9438  26.0556  26.1220  26.3003  26.4256  26.5505
    26.7572  26.8274  26.9634  27.3121  27.4445  27.5365  27.6479  27.7898
    27.9764  28.1480  28.2716  28.4678  28.5895  28.7733  28.8711  28.9900
    29.2310  29.2968  29.6437  29.8449  29.9999  30.0915  30.3580  30.4472
    30.5742  30.8180  30.8838  31.0651  31.1621  31.2963  31.4673  31.6274
    31.8260  32.0036  32.0715  32.2188  32.4010  32.4666  32.5307  32.7935
    32.8622  32.9648  33.0642  33.3715  33.4345  33.6477  33.7004  33.7872
    33.9377  34.1601  34.2682  34.4456  34.5973  34.6942  34.9225  35.0989
    35.1668  35.3129  35.4351  35.6377  35.6935  35.7524  35.9568  36.0623
    36.0884  36.3584  36.5475  36.7081  36.8106  36.8846  37.0626  37.1456
    37.2496  37.3704  37.5167  37.7483  37.8853  37.9447  38.0489  38.2119

     occupation numbers
     1.0000   1.0000   1.0000   1.0000   1.0000   1.0000   1.0000   1.0000
     1.0000   1.0000   1.0000   1.0000   1.0000   1.0000   1.0000   1.0000
     1.0000   1.0000   1.0000   1.0000   1.0000   1.0000   1.0000   1.0000
     1.0000   1.0000   1.0000   1.0000   1.0000   1.0000   1.0000   1.0000
     1.0000   1.0000   1.0000   1.0000   1.0000   1.0000   1.0000   1.0000
     1.0000   1.0000   1.0000   1.0000   1.0000   1.0000   1.0000   1.0000
     1.0000   1.0000   1.0000   1.0000   1.0000   1.0000   1.0000   1.0000
     1.0000   1.0000   1.0000   1.0000   1.0000   1.0000   1.0000   1.0000
     1.0000   1.0000   1.0000   1.0000   1.0000   1.0000   1.0000   1.0000
     1.0000   1.0000   1.0000   1.0000   1.0000   1.0000   1.0000   1.0000
     1.0000   1.0000   1.0000   1.0000   1.0000   1.0000   0.0000   0.0000
     0.0000   0.0000   0.0000   0.0000   0.0000   0.0000   0.0000   0.0000
     0.0000   0.0000   0.0000   0.0000   0.0000   0.0000   0.0000   0.0000
     0.0000   0.0000   0.0000   0.0000   0.0000   0.0000   0.0000   0.0000
     0.0000   0.0000   0.0000   0.0000   0.0000   0.0000   0.0000   0.0000
     0.0000   0.0000   0.0000   0.0000   0.0000   0.0000   0.0000   0.0000
     0.0000   0.0000   0.0000   0.0000   0.0000   0.0000   0.0000   0.0000
     0.0000   0.0000   0.0000   0.0000   0.0000   0.0000   0.0000   0.0000
     0.0000   0.0000   0.0000   0.0000   0.0000   0.0000   0.0000   0.0000
     0.0000   0.0000   0.0000   0.0000   0.0000   0.0000   0.0000   0.0000
     0.0000   0.0000   0.0000   0.0000   0.0000   0.0000   0.0000   0.0000
     0.0000   0.0000   0.0000   0.0000   0.0000   0.0000   0.0000   0.0000
     0.0000   0.0000   0.0000   0.0000   0.0000   0.0000   0.0000   0.0000
     0.0000   0.0000   0.0000   0.0000   0.0000   0.0000   0.0000   0.0000
     0.0000   0.0000   0.0000   0.0000   0.0000   0.0000   0.0000   0.0000
     0.0000   0.0000   0.0000   0.0000   0.0000   0.0000   0.0000   0.0000
     0.0000   0.0000   0.0000   0.0000   0.0000   0.0000   0.0000   0.0000
     0.0000   0.0000   0.0000   0.0000   0.0000   0.0000   0.0000   0.0000
     0.0000   0.0000   0.0000   0.0000   0.0000   0.0000   0.0000   0.0000
     0.0000   0.0000   0.0000   0.0000   0.0000   0.0000   0.0000   0.0000
     0.0000   0.0000   0.0000   0.0000   0.0000   0.0000   0.0000   0.0000
     0.0000   0.0000   0.0000   0.0000   0.0000   0.0000   0.0000   0.0000

     highest occupied, lowest unoccupied level (ev):     6.8835    8.6520

!    total energy              =   -2287.56073065 Ry
     estimated scf accuracy    <       0.00000061 Ry

     The total energy is the sum of the following terms:
     one-electron contribution =   -1767.72610061 Ry
     hartree contribution      =     931.69376031 Ry
     xc contribution           =    -272.71315194 Ry
     ewald contribution        =   -1178.81523841 Ry

     convergence has been achieved in   8 iterations

     Writing all to output data dir bands_nm/myprefix.save/

     General routines

     Parallel routines

   This run was terminated on:  21: 4:41  15Jul2023

   JOB DONE.