     Program PWSCF v.7.1 starts on 15Jul2023 at 22:49:48

     Reading input from espresso_10376.pwi
Warning: card &CELL ignored
Warning: card / ignored

     Current dimensions of program PWSCF are:
     Max number of different atomic species (ntypx) = 10
     Max number of k-points (npk) =  40000
     Max angular momentum in pseudopotentials (lmaxx) =  4
     Message from routine setup:
     using ibrav=0 with symmetry is DISCOURAGED, use correct ibrav instead

     K-points division:     npool     =       2
     R & G space division:  proc/nbgrp/npool/nimage =       4
     Subspace diagonalization in iterative solution of the eigenvalue problem:
     one sub-group per band group will be used

     Using Slab Decomposition

     bravais-lattice index     =            0
     lattice parameter (alat)  =      19.3953  a.u.
     unit-cell volume          =    4142.7045 (a.u.)^3
     number of atoms/cell      =           16
     number of atomic types    =            3
     number of electrons       =       144.00
     number of Kohn-Sham states=          256
     kinetic-energy cutoff     =      30.0000  Ry
     charge density cutoff     =     240.0000  Ry
     scf convergence threshold =      1.0E-06
     mixing beta               =       0.7000
     number of iterations used =            8  plain     mixing
     Exchange-correlation= SLA  PW   PBE  PBE
                           (   1   4   3   4   0   0   0)

     celldm(1)=  19.395253  celldm(2)=   0.000000  celldm(3)=   0.000000
     celldm(4)=   0.000000  celldm(5)=   0.000000  celldm(6)=   0.000000

     crystal axes: (cart. coord. in units of alat)
               a(1) = (   1.000000   0.000000   0.000000 )
               a(2) = (   0.000000   0.739523   0.000000 )
               a(3) = (   0.000000   0.169884   0.767796 )

     reciprocal axes: (cart. coord. in units 2 pi/alat)
               b(1) = (  1.000000  0.000000  0.000000 )
               b(2) = (  0.000000  1.352224 -0.299196 )
               b(3) = (  0.000000  0.000000  1.302428 )

     PseudoPot. # 1 for Cs read from file:
     /lustre07/scratch/pragov/crystal_structure_design/utils/SSSP/Cs_pbe_v1.uspp.F.UPF
     MD5 check sum: 3476d69cb178dfad3ffaa59df4e07ca4
     Pseudo is Ultrasoft + core correction, Zval =  9.0
     Generated by new atomic code, or converted to UPF format
     Using radial grid of  905 points,  6 beta functions with:
                l(1) =   0
                l(2) =   0
                l(3) =   1
                l(4) =   1
                l(5) =   2
                l(6) =   2
     Q(r) pseudized with  6 coefficients,  rinner =    1.500   1.500   1.500
                                                       1.500   1.500

     PseudoPot. # 2 for Sb read from file:
     /lustre07/scratch/pragov/crystal_structure_design/utils/SSSP/sb_pbe_v1.4.uspp.F.UPF
     MD5 check sum: 9bc50dfb53373b713f5709b9110fe27f
     Pseudo is Ultrasoft + core correction, Zval = 15.0
     Generated by new atomic code, or converted to UPF format
     Using radial grid of  891 points,  6 beta functions with:
                l(1) =   0
                l(2) =   0
                l(3) =   1
                l(4) =   1
                l(5) =   2
                l(6) =   2
     Q(r) pseudized with  8 coefficients,  rinner =    1.350   1.350   1.350
                                                       1.350   1.350

     PseudoPot. # 3 for Se read from file:
     /lustre07/scratch/pragov/crystal_structure_design/utils/SSSP/Se_pbe_v1.uspp.F.UPF
     MD5 check sum: 1b3568f3a8ae88f9a2a0ad0698632c85
     Pseudo is Ultrasoft + core correction, Zval =  6.0
     Generated by new atomic code, or converted to UPF format
     Using radial grid of  877 points,  6 beta functions with:
                l(1) =   0
                l(2) =   0
                l(3) =   1
                l(4) =   1
                l(5) =   2
                l(6) =   2
     Q(r) pseudized with  8 coefficients,  rinner =    1.300   1.300   1.300
                                                       1.300   1.300

     atomic species   valence    mass     pseudopotential
        Cs             9.00   132.90545     Cs( 1.00)
        Sb            15.00   121.76000     Sb( 1.00)
        Se             6.00    78.97100     Se( 1.00)

      4 Sym. Ops., with inversion, found ( 2 have fractional translation)

                                    s                        frac. trans.

      isym =  1     identity

 cryst.   s( 1) = (     1          0          0      )
                  (     0          1          0      )
                  (     0          0          1      )

 cart.    s( 1) = (  1.0000000  0.0000000  0.0000000 )
                  (  0.0000000  1.0000000 -0.0000000 )
                  (  0.0000000  0.0000000  1.0000000 )

      isym =  2     180 deg rotation - cart. axis [1,0,0]

 cryst.   s( 2) = (     1          0          0      )    f =( -0.5000000 )
                  (     0         -1          0      )       (  0.5000000 )
                  (     0          0         -1      )       ( -0.0000000 )

 cart.    s( 2) = (  1.0000000  0.0000000  0.0000000 )    f =( -0.5000000 )
                  (  0.0000000 -1.0000000  0.0000000 )       (  0.3697613 )
                  (  0.0000000  0.0000000 -1.0000000 )       ( -0.0000000 )

      isym =  3     inversion

 cryst.   s( 3) = (    -1          0          0      )
                  (     0         -1          0      )
                  (     0          0         -1      )

 cart.    s( 3) = ( -1.0000000  0.0000000  0.0000000 )
                  (  0.0000000 -1.0000000  0.0000000 )
                  (  0.0000000  0.0000000 -1.0000000 )

      isym =  4     inv. 180 deg rotation - cart. axis [1,0,0]

 cryst.   s( 4) = (    -1          0          0      )    f =(  0.5000000 )
                  (     0          1          0      )       (  0.5000000 )
                  (     0          0          1      )       (  0.0000000 )

 cart.    s( 4) = ( -1.0000000  0.0000000  0.0000000 )    f =(  0.5000000 )
                  (  0.0000000  1.0000000 -0.0000000 )       (  0.3697613 )
                  (  0.0000000  0.0000000  1.0000000 )       (  0.0000000 )

   Cartesian axes

     site n.     atom                  positions (alat units)
         1           Cs  tau(   1) = (   0.9364820   0.2702858   0.2655677  )
         2           Cs  tau(   2) = (   0.4364820   0.2693599   0.5022287  )
         3           Cs  tau(   3) = (   0.0635180   0.6391213   0.5022287  )
         4           Cs  tau(   4) = (   0.5635180   0.6400471   0.2655677  )
         5           Sb  tau(   5) = (   0.1650920   0.6546376   0.0682410  )
         6           Sb  tau(   6) = (   0.8349080   0.2547695   0.6995555  )
         7           Sb  tau(   7) = (   0.6650920   0.6245308   0.6995555  )
         8           Sb  tau(   8) = (   0.3349080   0.2848763   0.0682410  )
         9           Se  tau(   9) = (   0.0751050   0.2857221   0.6326727  )
        10           Se  tau(  10) = (   0.5751050   0.2539236   0.1351237  )
        11           Se  tau(  11) = (   0.9248950   0.6236849   0.1351237  )
        12           Se  tau(  12) = (   0.4248950   0.6554835   0.6326727  )
        13           Se  tau(  13) = (   0.2484270   0.0855416   0.2388646  )
        14           Se  tau(  14) = (   0.7484270   0.4541042   0.5289319  )
        15           Se  tau(  15) = (   0.7515730   0.8238655   0.5289319  )
        16           Se  tau(  16) = (   0.2515730   0.4553029   0.2388646  )

   Crystallographic axes

     site n.     atom                  positions (cryst. coord.)
         1           Cs  tau(   1) = (  0.9364820  0.2860300  0.3458830  )
         2           Cs  tau(   2) = (  0.4364820  0.2139700  0.6541170  )
         3           Cs  tau(   3) = (  0.0635180  0.7139700  0.6541170  )
         4           Cs  tau(   4) = (  0.5635180  0.7860300  0.3458830  )
         5           Sb  tau(   5) = (  0.1650920  0.8647990  0.0888790  )
         6           Sb  tau(   6) = (  0.8349080  0.1352010  0.9111210  )
         7           Sb  tau(   7) = (  0.6650920  0.6352010  0.9111210  )
         8           Sb  tau(   8) = (  0.3349080  0.3647990  0.0888790  )
         9           Se  tau(   9) = (  0.0751050  0.1970670  0.8240110  )
        10           Se  tau(  10) = (  0.5751050  0.3029330  0.1759890  )
        11           Se  tau(  11) = (  0.9248950  0.8029330  0.1759890  )
        12           Se  tau(  12) = (  0.4248950  0.6970670  0.8240110  )
        13           Se  tau(  13) = (  0.2484270  0.0442040  0.3111040  )
        14           Se  tau(  14) = (  0.7484270  0.4557960  0.6888960  )
        15           Se  tau(  15) = (  0.7515730  0.9557960  0.6888960  )
        16           Se  tau(  16) = (  0.2515730  0.5442040  0.3111040  )

     number of k points=    10
                       cart. coord. in units 2pi/alat
        k(    1) = (   0.0000000   0.0000000   0.0000000), wk =   0.0740741
        k(    2) = (   0.0000000   0.0000000   0.4341428), wk =   0.1481481
        k(    3) = (   0.0000000   0.4507412  -0.0997320), wk =   0.1481481
        k(    4) = (   0.0000000   0.4507412   0.3344108), wk =   0.1481481
        k(    5) = (   0.0000000   0.4507412  -0.5338749), wk =   0.1481481
        k(    6) = (   0.3333333   0.0000000   0.0000000), wk =   0.1481481
        k(    7) = (   0.3333333   0.0000000   0.4341428), wk =   0.2962963
        k(    8) = (   0.3333333   0.4507412  -0.0997320), wk =   0.2962963
        k(    9) = (   0.3333333   0.4507412   0.3344108), wk =   0.2962963
        k(   10) = (   0.3333333   0.4507412  -0.5338749), wk =   0.2962963

                       cryst. coord.
        k(    1) = (   0.0000000   0.0000000   0.0000000), wk =   0.0740741
        k(    2) = (   0.0000000   0.0000000   0.3333333), wk =   0.1481481
        k(    3) = (   0.0000000   0.3333333   0.0000000), wk =   0.1481481
        k(    4) = (   0.0000000   0.3333333   0.3333333), wk =   0.1481481
        k(    5) = (   0.0000000   0.3333333  -0.3333333), wk =   0.1481481
        k(    6) = (   0.3333333   0.0000000   0.0000000), wk =   0.1481481
        k(    7) = (   0.3333333   0.0000000   0.3333333), wk =   0.2962963
        k(    8) = (   0.3333333   0.3333333   0.0000000), wk =   0.2962963
        k(    9) = (   0.3333333   0.3333333   0.3333333), wk =   0.2962963
        k(   10) = (   0.3333333   0.3333333  -0.3333333), wk =   0.2962963

     Check: negative core charge=   -0.000002

     Initial potential from superposition of free atoms

     starting charge     139.8418, renormalised to     144.0000
     Starting wfcs are  120 randomized atomic wfcs +  136 random wfcs

     Self-consistent Calculation

     iteration #  1     ecut=    30.00 Ry     beta= 0.70
     Davidson diagonalization with overlap

     ethr =  1.00E-02,  avg # of iterations =  7.0

     total energy              =   -1340.94157187 Ry
     estimated scf accuracy    <       1.74377038 Ry

[...]

     c_bands:  1 eigenvalues not converged
     ethr =  1.17E-04,  avg # of iterations = 18.6

[...]

     total energy              =   -1341.60762561 Ry
     estimated scf accuracy    <       0.00000920 Ry

     iteration #  8     ecut=    30.00 Ry     beta= 0.70
     Davidson diagonalization with overlap

     ethr =  6.39E-09,  avg # of iterations =  5.0

     End of self-consistent calculation

          k = 0.0000 0.0000 0.0000 ( 11529 PWs)   bands (ev):

   -24.5578 -24.5572 -24.5542 -24.5538 -24.5517 -24.5505 -24.5478 -24.5460
   -24.5074 -24.5072 -24.5068 -24.5067 -24.5050 -24.5039 -24.5037 -24.5030
   -24.4744 -24.4737 -24.4733 -24.4726 -16.7525 -16.7471 -16.7337 -16.7324
    -8.4724  -8.2278  -7.7565  -7.2902  -7.2506  -7.2490  -7.2175  -7.0768
    -4.1803  -3.9884  -3.8630  -3.7868  -3.6873  -3.6653  -3.6436  -3.6255
    -3.5595  -3.5539  -3.5474  -3.5091  -3.4746  -3.4376  -3.2847  -2.8310
     0.6519   1.0449   1.1261   1.1508   1.3889   1.5459   1.5701   1.9189
     2.1192   2.2041   2.2817   3.2013   3.3248   3.3265   3.5473   3.6168
     3.6550   3.7049   3.7676   3.9105   3.9359   3.9471   3.9784   4.2294
     5.7428   6.4929   6.6759   6.7726   6.7947   7.2159   7.3045   7.3957
     7.6256   7.8934   7.9207   8.0076   8.6705   8.9562   9.3638   9.5270
     9.5963   9.6361   9.6676   9.6700   9.8817  10.1360  10.1381  10.3162
    10.6083  10.7812  10.9007  10.9244  11.1115  11.2043  11.3157  11.3944
    11.4202  11.5777  11.5798  11.6712  11.6735  11.8373  11.8459  11.9573
    12.0541  12.1143  12.4836  12.5001  12.7917  12.8804  12.9662  12.9966
    13.0416  13.0520  13.2716  13.4075  13.6365  13.6672  14.0580  14.0963
    14.3277  14.4113  14.5603  14.7809  14.8582  15.1267  15.1734  15.2736
    15.4415  15.5000  15.5930  15.7462  15.8572  15.8964  16.1147  16.1187
    16.2700  16.6759  16.7123  16.7485  16.9592  16.9697  16.9778  17.1124
    17.2779  17.2922  17.4253  17.4818  17.5296  17.5942  17.8792  18.0032
    18.0726  18.1812  18.3788  18.4214  18.4764  18.6619  18.6772  18.7531
    18.7983  18.8104  18.8158  19.0360  19.0878  19.1479  19.4251  19.4700
    19.5897  19.6615  19.6887  19.7628  19.7742  19.8859  20.0616  20.1004
    20.1775  20.2026  20.2604  20.2721  20.4436  20.5061  20.5531  20.6867
    20.7564  20.7977  20.8496  20.9141  20.9183  20.9722  21.0453  21.1975
    21.3644  21.3654  21.3710  21.4163  21.4271  21.6770  21.6798  21.7274
    21.8142  21.9567  21.9826  22.0773  22.3462  22.3924  22.3945  22.4085
    22.6059  22.6206  22.7542  22.8160  22.8519  22.8662  23.0348  23.1992
    23.2497  23.3777  23.4590  23.5043  23.5532  23.5593  23.8294  23.8348
    23.8585  24.0726  24.1114  24.1846  24.2505  24.2924  24.4077  24.4108
    24.7673  24.8292  24.9583  25.0932  25.1418  25.1685  25.3703  25.3998
    25.4907  25.5566  25.5738  25.5959  25.7891  25.8248  25.9294  26.0540

     occupation numbers
     1.0000   1.0000   1.0000   1.0000   1.0000   1.0000   1.0000   1.0000
     1.0000   1.0000   1.0000   1.0000   1.0000   1.0000   1.0000   1.0000
     1.0000   1.0000   1.0000   1.0000   1.0000   1.0000   1.0000   1.0000
     1.0000   1.0000   1.0000   1.0000   1.0000   1.0000   1.0000   1.0000
     1.0000   1.0000   1.0000   1.0000   1.0000   1.0000   1.0000   1.0000
     1.0000   1.0000   1.0000   1.0000   1.0000   1.0000   1.0000   1.0000
     1.0000   1.0000   1.0000   1.0000   1.0000   1.0000   1.0000   1.0000
     1.0000   1.0000   1.0000   1.0000   1.0000   1.0000   1.0000   1.0000
     1.0000   1.0000   1.0000   1.0000   1.0000   1.0000   1.0000   1.0000
     0.0000   0.0000   0.0000   0.0000   0.0000   0.0000   0.0000   0.0000
     0.0000   0.0000   0.0000   0.0000   0.0000   0.0000   0.0000   0.0000
     0.0000   0.0000   0.0000   0.0000   0.0000   0.0000   0.0000   0.0000
     0.0000   0.0000   0.0000   0.0000   0.0000   0.0000   0.0000   0.0000
     0.0000   0.0000   0.0000   0.0000   0.0000   0.0000   0.0000   0.0000
     0.0000   0.0000   0.0000   0.0000   0.0000   0.0000   0.0000   0.0000
     0.0000   0.0000   0.0000   0.0000   0.0000   0.0000   0.0000   0.0000
     0.0000   0.0000   0.0000   0.0000   0.0000   0.0000   0.0000   0.0000
     0.0000   0.0000   0.0000   0.0000   0.0000   0.0000   0.0000   0.0000
     0.0000   0.0000   0.0000   0.0000   0.0000   0.0000   0.0000   0.0000
     0.0000   0.0000   0.0000   0.0000   0.0000   0.0000   0.0000   0.0000
     0.0000   0.0000   0.0000   0.0000   0.0000   0.0000   0.0000   0.0000
     0.0000   0.0000   0.0000   0.0000   0.0000   0.0000   0.0000   0.0000
     0.0000   0.0000   0.0000   0.0000   0.0000   0.0000   0.0000   0.0000
     0.0000   0.0000   0.0000   0.0000   0.0000   0.0000   0.0000   0.0000
     0.0000   0.0000   0.0000   0.0000   0.0000   0.0000   0.0000   0.0000
     0.0000   0.0000   0.0000   0.0000   0.0000   0.0000   0.0000   0.0000
     0.0000   0.0000   0.0000   0.0000   0.0000   0.0000   0.0000   0.0000
     0.0000   0.0000   0.0000   0.0000   0.0000   0.0000   0.0000   0.0000
     0.0000   0.0000   0.0000   0.0000   0.0000   0.0000   0.0000   0.0000
     0.0000   0.0000   0.0000   0.0000   0.0000   0.0000   0.0000   0.0000
     0.0000   0.0000   0.0000   0.0000   0.0000   0.0000   0.0000   0.0000
     0.0000   0.0000   0.0000   0.0000   0.0000   0.0000   0.0000   0.0000

[...]

          k = 0.3333 0.4507-0.5339 ( 11487 PWs)   bands (ev):

   -24.5562 -24.5558 -24.5546 -24.5536 -24.5499 -24.5484 -24.5456 -24.5445
   -24.5079 -24.5071 -24.5058 -24.5050 -24.5043 -24.5035 -24.5033 -24.5027
   -24.4727 -24.4715 -24.4707 -24.4703 -16.7462 -16.7444 -16.7375 -16.7373
    -8.2939  -8.1829  -7.8584  -7.7136  -7.2627  -7.2479  -7.0759  -7.0516
    -4.0400  -3.9587  -3.7571  -3.7212  -3.6612  -3.6413  -3.5814  -3.5744
    -3.5560  -3.5541  -3.5261  -3.5050  -3.4717  -3.4224  -3.2240  -3.0697
     0.7041   0.8569   1.0496   1.1613   1.3561   1.4561   1.6497   1.9066
     2.1551   2.2754   2.4684   2.6638   3.0457   3.1272   3.3193   3.3855
     3.5740   3.6660   3.7595   3.7923   4.0499   4.0774   4.2574   4.3033
     6.3249   6.5432   6.8094   6.9055   7.0907   7.3024   7.3791   7.4141
     7.5492   7.7082   7.8507   7.8822   8.9914   9.0811   9.3152   9.3782
     9.5995   9.6799   9.8205   9.9210  10.0459  10.1044  10.1797  10.2452
    10.3924  10.4372  10.7135  10.7668  10.8554  10.9608  11.0263  11.3498
    11.3817  11.5701  11.6238  11.7799  11.8219  11.9366  12.1153  12.2037
    12.2763  12.4167  12.4610  12.5693  12.7662  12.7999  12.9402  13.2068
    13.2856  13.4240  13.4785  13.7186  13.8591  14.0283  14.1096  14.2050
    14.2893  14.4519  14.5337  14.6448  14.9159  15.0944  15.2281  15.2456
    15.3781  15.5069  15.6335  15.6572  15.7587  15.9281  16.1311  16.2293
    16.2781  16.3738  16.4963  16.5208  16.5723  16.7370  16.9083  17.0674
    17.1625  17.2730  17.3522  17.4889  17.5673  17.6380  17.7006  17.7425
    17.8362  17.9585  18.0784  18.1395  18.2594  18.3489  18.4066  18.5338
    18.5985  18.6478  18.7643  18.9243  18.9847  19.0814  19.2058  19.2718
    19.4132  19.4670  19.4828  19.5835  19.6752  19.7698  19.9222  19.9559
    20.0567  20.1899  20.2133  20.3541  20.3893  20.4268  20.5838  20.6525
    20.6991  20.8307  20.8430  20.8646  20.8869  20.9403  21.0609  21.1690
    21.2397  21.3207  21.4264  21.5014  21.5316  21.6030  21.7704  21.8086
    21.8297  21.9868  22.0371  22.2036  22.3043  22.4144  22.4787  22.5468
    22.6803  22.8346  22.9181  22.9560  22.9812  23.1599  23.2265  23.3194
    23.4848  23.5046  23.5507  23.7330  23.7475  23.8396  23.9194  23.9345
    23.9795  24.1466  24.2509  24.3146  24.3518  24.4442  24.5454  24.6187
    24.6868  24.8425  24.8683  24.9468  25.0308  25.0723  25.1550  25.2344
    25.3320  25.4845  25.5643  25.5913  25.7212  25.8829  25.9446  26.0563

     occupation numbers
     1.0000   1.0000   1.0000   1.0000   1.0000   1.0000   1.0000   1.0000
     1.0000   1.0000   1.0000   1.0000   1.0000   1.0000   1.0000   1.0000
     1.0000   1.0000   1.0000   1.0000   1.0000   1.0000   1.0000   1.0000
     1.0000   1.0000   1.0000   1.0000   1.0000   1.0000   1.0000   1.0000
     1.0000   1.0000   1.0000   1.0000   1.0000   1.0000   1.0000   1.0000
     1.0000   1.0000   1.0000   1.0000   1.0000   1.0000   1.0000   1.0000
     1.0000   1.0000   1.0000   1.0000   1.0000   1.0000   1.0000   1.0000
     1.0000   1.0000   1.0000   1.0000   1.0000   1.0000   1.0000   1.0000
     1.0000   1.0000   1.0000   1.0000   1.0000   1.0000   1.0000   1.0000
     0.0000   0.0000   0.0000   0.0000   0.0000   0.0000   0.0000   0.0000
     0.0000   0.0000   0.0000   0.0000   0.0000   0.0000   0.0000   0.0000
     0.0000   0.0000   0.0000   0.0000   0.0000   0.0000   0.0000   0.0000
     0.0000   0.0000   0.0000   0.0000   0.0000   0.0000   0.0000   0.0000
     0.0000   0.0000   0.0000   0.0000   0.0000   0.0000   0.0000   0.0000
     0.0000   0.0000   0.0000   0.0000   0.0000   0.0000   0.0000   0.0000
     0.0000   0.0000   0.0000   0.0000   0.0000   0.0000   0.0000   0.0000
     0.0000   0.0000   0.0000   0.0000   0.0000   0.0000   0.0000   0.0000
     0.0000   0.0000   0.0000   0.0000   0.0000   0.0000   0.0000   0.0000
     0.0000   0.0000   0.0000   0.0000   0.0000   0.0000   0.0000   0.0000
     0.0000   0.0000   0.0000   0.0000   0.0000   0.0000   0.0000   0.0000
     0.0000   0.0000   0.0000   0.0000   0.0000   0.0000   0.0000   0.0000
     0.0000   0.0000   0.0000   0.0000   0.0000   0.0000   0.0000   0.0000
     0.0000   0.0000   0.0000   0.0000   0.0000   0.0000   0.0000   0.0000
     0.0000   0.0000   0.0000   0.0000   0.0000   0.0000   0.0000   0.0000
     0.0000   0.0000   0.0000   0.0000   0.0000   0.0000   0.0000   0.0000
     0.0000   0.0000   0.0000   0.0000   0.0000   0.0000   0.0000   0.0000
     0.0000   0.0000   0.0000   0.0000   0.0000   0.0000   0.0000   0.0000
     0.0000   0.0000   0.0000   0.0000   0.0000   0.0000   0.0000   0.0000
     0.0000   0.0000   0.0000   0.0000   0.0000   0.0000   0.0000   0.0000
     0.0000   0.0000   0.0000   0.0000   0.0000   0.0000   0.0000   0.0000
     0.0000   0.0000   0.0000   0.0000   0.0000   0.0000   0.0000   0.0000
     0.0000   0.0000   0.0000   0.0000   0.0000   0.0000   0.0000   0.0000

     highest occupied, lowest unoccupied level (ev):     4.4574    5.6288

!    total energy              =   -1341.60764871 Ry
     estimated scf accuracy    <       0.00000047 Ry

     The total energy is the sum of the following terms:
     one-electron contribution =    -571.50053510 Ry
     hartree contribution      =     342.74545207 Ry
     xc contribution           =    -534.62129390 Ry
     ewald contribution        =    -578.23127178 Ry

     convergence has been achieved in   8 iterations

     Writing all to output data dir bands_nm/myprefix.save/

     General routines

     Parallel routines

   This run was terminated on:  22:51:19  15Jul2023

   JOB DONE.