     Program PWSCF v.7.1 starts on 14Jul2023 at 19: 8:39

     Reading input from espresso_21564.pwi
Warning: card &CELL ignored
Warning: card / ignored

     Current dimensions of program PWSCF are:
     Max number of different atomic species (ntypx) = 10
     Max number of k-points (npk) =  40000
     Max angular momentum in pseudopotentials (lmaxx) =  4
     file Nb.pbe-spn-kjpaw_psl.0.3.0.UPF: wavefunction(s)  4S 4P renormalized
     file O.pbe-n-kjpaw_psl.0.1.UPF: wavefunction(s)  2P renormalized
     Message from routine setup:
     using ibrav=0 with symmetry is DISCOURAGED, use correct ibrav instead

     K-points division:     npool     =       2
     R & G space division:  proc/nbgrp/npool/nimage =       4
     Subspace diagonalization in iterative solution of the eigenvalue problem:
     a serial algorithm will be used

     Using Slab Decomposition

     bravais-lattice index     =            0
     lattice parameter (alat)  =      13.0538  a.u.
     unit-cell volume          =    1139.7637 (a.u.)^3
     number of atoms/cell      =           12
     number of atomic types    =            3
     number of electrons       =        96.00
     number of Kohn-Sham states=           64
     kinetic-energy cutoff     =      30.0000  Ry
     charge density cutoff     =     240.0000  Ry
     scf convergence threshold =      1.0E-06
     mixing beta               =       0.7000
     number of iterations used =            8  plain     mixing
     Exchange-correlation= SLA  PW   PBX  PBC
                           (   1   4   3   4   0   0   0)

     celldm(1)=  13.053831  celldm(2)=   0.000000  celldm(3)=   0.000000
     celldm(4)=   0.000000  celldm(5)=   0.000000  celldm(6)=   0.000000

     crystal axes: (cart. coord. in units of alat)
               a(1) = (   1.000000   0.000000   0.000000 )
               a(2) = (   0.840327   0.542080   0.000000 )
               a(3) = (   0.286546   0.084404   0.945230 )

     reciprocal axes: (cart. coord. in units 2 pi/alat)
               b(1) = (  1.000000 -1.550190 -0.164726 )
               b(2) = (  0.000000  1.844746 -0.164726 )
               b(3) = (  0.000000  0.000000  1.057944 )

     PseudoPot. # 1 for Nb read from file:
     /lustre07/scratch/pragov/crystal_structure_design/utils/SSSP/Nb.pbe-spn-kjpaw_psl.0.3.0.UPF
     MD5 check sum: 411d72ad547312f8017e2943ceca08cc
     Pseudo is Projector augmented-wave + core cor, Zval = 13.0
     Generated using "atomic" code by A. Dal Corso  v.5.0.99 svn rev. 10869
     Shape of augmentation charge: PSQ
     Using radial grid of 1227 points,  6 beta functions with:
                l(1) =   0
                l(2) =   0
                l(3) =   1
                l(4) =   1
                l(5) =   2
                l(6) =   2
     Q(r) pseudized with 0 coefficients

     PseudoPot. # 2 for N  read from file:
     /lustre07/scratch/pragov/crystal_structure_design/utils/SSSP/N.pbe-n-radius_5.UPF
     MD5 check sum: 16739722b17309cd8fe442a2ace49922
     Pseudo is Ultrasoft + core correction, Zval =  5.0
     Generated using "atomic" code by A. Dal Corso  v.5.1
     Using radial grid of 1085 points,  4 beta functions with:
                l(1) =   0
                l(2) =   0
                l(3) =   1
                l(4) =   1
     Q(r) pseudized with 0 coefficients

     PseudoPot. # 3 for O  read from file:
     /lustre07/scratch/pragov/crystal_structure_design/utils/SSSP/O.pbe-n-kjpaw_psl.0.1.UPF
     MD5 check sum: 0234752ac141de4415c5fc33072bef88
     Pseudo is Projector augmented-wave + core cor, Zval =  6.0
     Generated using "atomic" code by A. Dal Corso  v.5.0.99 svn rev. 10869
     Shape of augmentation charge: BESSEL
     Using radial grid of 1095 points,  4 beta functions with:
                l(1) =   0
                l(2) =   0
                l(3) =   1
                l(4) =   1
     Q(r) pseudized with 0 coefficients

     atomic species   valence    mass     pseudopotential
        Nb            13.00    92.90637     Nb( 1.00)
        N              5.00    14.00700     N ( 1.00)
        O              6.00    15.99900     O ( 1.00)

      2 Sym. Ops., with inversion, found

                                    s                        frac. trans.

      isym =  1     identity

 cryst.   s( 1) = (     1          0          0      )
                  (     0          1          0      )
                  (     0          0          1      )

 cart.    s( 1) = (  1.0000000  0.0000000  0.0000000 )
                  (  0.0000000  1.0000000  0.0000000 )
                  (  0.0000000  0.0000000  1.0000000 )

      isym =  2     inversion

 cryst.   s( 2) = (    -1          0          0      )
                  (     0         -1          0      )
                  (     0          0         -1      )

 cart.    s( 2) = ( -1.0000000  0.0000000 -0.0000000 )
                  (  0.0000000 -1.0000000  0.0000000 )
                  (  0.0000000  0.0000000 -1.0000000 )

   Cartesian axes

     site n.     atom                  positions (alat units)
         1           Nb  tau(   1) = (   1.7078179   0.5030486   0.2033133  )
         2           Nb  tau(   2) = (   1.7252766   0.5081911   0.7660701  )
         3           Nb  tau(   3) = (   0.4015967   0.1182929   0.1791598  )
         4           Nb  tau(   4) = (   0.4190554   0.1234354   0.7419167  )
         5           N   tau(   5) = (   1.9847449   0.5846192   0.8140793  )
         6           N   tau(   6) = (   1.4041421   0.4135990   0.1399971  )
         7           N   tau(   7) = (   0.7227311   0.2128850   0.8052329  )
         8           N   tau(   8) = (   0.1421283   0.0418648   0.1311507  )
         9           O   tau(   9) = (   0.7340772   0.2162271   0.1984454  )
        10           O   tau(  10) = (   1.7267796   0.5086339   0.4808130  )
        11           O   tau(  11) = (   0.4000937   0.1178501   0.4644170  )
        12           O   tau(  12) = (   1.3927961   0.4102569   0.7467846  )

   Crystallographic axes

     site n.     atom                  positions (cryst. coord.)
         1           Nb  tau(   1) = (  0.8945060  0.8945060  0.2150940  )
         2           Nb  tau(   2) = (  0.8112920  0.8112920  0.8104590  )
         3           Nb  tau(   3) = (  0.1887080  0.1887080  0.1895410  )
         4           Nb  tau(   4) = (  0.1054940  0.1054940  0.7849060  )
         5           N   tau(   5) = (  0.9443740  0.9443740  0.8612500  )
         6           N   tau(   6) = (  0.7399240  0.7399240  0.1481090  )
         7           N   tau(   7) = (  0.2600760  0.2600760  0.8518910  )
         8           N   tau(   8) = (  0.0556260  0.0556260  0.1387500  )
         9           O   tau(   9) = (  0.3661950  0.3661950  0.2099440  )
        10           O   tau(  10) = (  0.8590980  0.8590980  0.5086730  )
        11           O   tau(  11) = (  0.1409020  0.1409020  0.4913270  )
        12           O   tau(  12) = (  0.6338050  0.6338050  0.7900560  )

     number of k points=    14
                       cart. coord. in units 2pi/alat
        k(    1) = (   0.0000000   0.0000000   0.0000000), wk =   0.0740741
        k(    2) = (   0.0000000   0.0000000   0.3526479), wk =   0.1481481
        k(    3) = (   0.0000000   0.6149154  -0.0549087), wk =   0.1481481
        k(    4) = (   0.0000000   0.6149154   0.2977392), wk =   0.1481481
        k(    5) = (   0.0000000   0.6149154  -0.4075566), wk =   0.1481481
        k(    6) = (   0.3333333  -0.5167300  -0.0549087), wk =   0.1481481
        k(    7) = (   0.3333333  -0.5167300   0.2977392), wk =   0.1481481
        k(    8) = (   0.3333333  -0.5167300  -0.4075566), wk =   0.1481481
        k(    9) = (   0.3333333   0.0981854  -0.1098174), wk =   0.1481481
        k(   10) = (   0.3333333   0.0981854   0.2428305), wk =   0.1481481
        k(   11) = (   0.3333333   0.0981854  -0.4624653), wk =   0.1481481
        k(   12) = (   0.3333333  -1.1316454   0.0000000), wk =   0.1481481
        k(   13) = (   0.3333333  -1.1316454   0.3526479), wk =   0.1481481
        k(   14) = (   0.3333333  -1.1316454  -0.3526479), wk =   0.1481481

                       cryst. coord.
        k(    1) = (   0.0000000   0.0000000   0.0000000), wk =   0.0740741
        k(    2) = (   0.0000000   0.0000000   0.3333333), wk =   0.1481481
        k(    3) = (   0.0000000   0.3333333   0.0000000), wk =   0.1481481
        k(    4) = (   0.0000000   0.3333333   0.3333333), wk =   0.1481481
        k(    5) = (   0.0000000   0.3333333  -0.3333333), wk =   0.1481481
        k(    6) = (   0.3333333   0.0000000   0.0000000), wk =   0.1481481
        k(    7) = (   0.3333333   0.0000000   0.3333333), wk =   0.1481481
        k(    8) = (   0.3333333   0.0000000  -0.3333333), wk =   0.1481481
        k(    9) = (   0.3333333   0.3333333   0.0000000), wk =   0.1481481
        k(   10) = (   0.3333333   0.3333333   0.3333333), wk =   0.1481481
        k(   11) = (   0.3333333   0.3333333  -0.3333333), wk =   0.1481481
        k(   12) = (   0.3333333  -0.3333333   0.0000000), wk =   0.1481481
        k(   13) = (   0.3333333  -0.3333333   0.3333333), wk =   0.1481481
        k(   14) = (   0.3333333  -0.3333333  -0.3333333), wk =   0.1481481

     Check: negative core charge=   -0.000019

     Initial potential from superposition of free atoms

     starting charge      95.9915, renormalised to      96.0000
     Starting wfcs are   72 randomized atomic wfcs
     Checking if some PAW data can be deallocated...

     Self-consistent Calculation

     iteration #  1     ecut=    30.00 Ry     beta= 0.70
     Davidson diagonalization with overlap

     ethr =  1.00E-02,  avg # of iterations =  3.0

     total energy              =   -1580.66804391 Ry
     estimated scf accuracy    <       8.20078200 Ry

[...]

     total energy              =   -1585.09176778 Ry
     estimated scf accuracy    <       0.00000229 Ry

     iteration # 13     ecut=    30.00 Ry     beta= 0.70
     Davidson diagonalization with overlap

     ethr =  2.38E-09,  avg # of iterations =  3.1

     End of self-consistent calculation

          k = 0.0000 0.0000 0.0000 (  3175 PWs)   bands (ev):

   -47.1302 -47.1223 -46.5912 -46.5662 -23.3055 -23.2592 -23.2559 -23.2497
   -23.1610 -23.1139 -22.8341 -22.7328 -22.7218 -22.6437 -22.6405 -22.5492
    -9.7203  -9.6640  -8.8098  -8.7078  -5.1182  -4.6795  -4.0236  -3.7809
     3.5406   3.5428   3.8758   3.9573   3.9996   4.2110   4.3780   4.6874
     4.9430   5.2779   5.5191   5.7012   5.8824   5.9492   5.9632   6.2494
     6.2889   6.5923   6.6145   7.2865   7.5098   7.5198   7.5271   8.0124
    10.0529  10.2004  10.5370  10.6502  10.8800  11.4314  12.0351  12.3149
    12.5282  12.7192  13.7886  13.8977  14.0553  14.0632  14.2670  14.7470

     occupation numbers
     1.0000   1.0000   1.0000   1.0000   1.0000   1.0000   1.0000   1.0000
     1.0000   1.0000   1.0000   1.0000   1.0000   1.0000   1.0000   1.0000
     1.0000   1.0000   1.0000   1.0000   1.0000   1.0000   1.0000   1.0000
     1.0000   1.0000   1.0000   1.0000   1.0000   1.0000   1.0000   1.0000
     1.0000   1.0000   1.0000   1.0000   1.0000   1.0000   1.0000   1.0000
     1.0000   1.0000   1.0000   1.0000   1.0000   1.0000   1.0000   1.0000
     0.0000   0.0000   0.0000   0.0000   0.0000   0.0000   0.0000   0.0000
     0.0000   0.0000   0.0000   0.0000   0.0000   0.0000   0.0000   0.0000

[...]

          k = 0.3333-1.1316-0.3526 (  3154 PWs)   bands (ev):

   -47.1270 -47.1200 -46.5831 -46.5706 -23.3889 -23.3790 -23.2827 -23.2265
   -23.1472 -23.1019 -22.8389 -22.7848 -22.7367 -22.7347 -22.6038 -22.5933
    -8.9648  -8.9408  -8.7267  -8.7110  -4.4332  -4.3670  -3.9066  -3.8067
     2.7139   2.7421   3.3997   3.4796   3.7884   3.8869   4.1300   4.2545
     4.4648   4.7505   4.9809   5.0207   5.2654   5.5959   5.8794   6.0313
     6.4762   6.7713   7.0054   7.1048   7.4130   7.5360   7.5690   8.1613
    10.4984  10.7604  11.1259  11.1812  11.3605  11.5755  11.9890  12.1278
    12.2389  12.4845  12.6756  13.0140  13.8500  14.1622  14.6865  15.1814

     occupation numbers
     1.0000   1.0000   1.0000   1.0000   1.0000   1.0000   1.0000   1.0000
     1.0000   1.0000   1.0000   1.0000   1.0000   1.0000   1.0000   1.0000
     1.0000   1.0000   1.0000   1.0000   1.0000   1.0000   1.0000   1.0000
     1.0000   1.0000   1.0000   1.0000   1.0000   1.0000   1.0000   1.0000
     1.0000   1.0000   1.0000   1.0000   1.0000   1.0000   1.0000   1.0000
     1.0000   1.0000   1.0000   1.0000   1.0000   1.0000   1.0000   1.0000
     0.0000   0.0000   0.0000   0.0000   0.0000   0.0000   0.0000   0.0000
     0.0000   0.0000   0.0000   0.0000   0.0000   0.0000   0.0000   0.0000

     highest occupied, lowest unoccupied level (ev):     8.2237    9.8365

!    total energy              =   -1585.09176835 Ry
     estimated scf accuracy    <       0.00000012 Ry

     The total energy is the sum of the following terms:
     one-electron contribution =    -287.01662086 Ry
     hartree contribution      =     189.91992880 Ry
     xc contribution           =    -166.53261291 Ry
     ewald contribution        =    -449.41743704 Ry
     one-center paw contrib.   =    -872.04502635 Ry
      -> PAW hartree energy AE =     131.60298865 Ry
      -> PAW hartree energy PS =    -130.87069336 Ry
      -> PAW xc energy AE      =    -471.16749653 Ry
      -> PAW xc energy PS      =      53.46031394 Ry
      -> total E_H with PAW    =     190.65222409 Ry
      -> total E_XC with PAW   =    -584.23979550 Ry

     convergence has been achieved in  13 iterations

     Writing all to output data dir bands_nm/myprefix.save/

     General routines

     Parallel routines

     PAW routines

   This run was terminated on:  19: 9: 0  14Jul2023

   JOB DONE.