     Program PWSCF v.7.1 starts on 15Jul2023 at 21:29: 8

     Reading input from espresso_15159.pwi
Warning: card &CELL ignored
Warning: card / ignored

     Current dimensions of program PWSCF are:
     Max number of different atomic species (ntypx) = 10
     Max number of k-points (npk) =  40000
     Max angular momentum in pseudopotentials (lmaxx) =  4
     file O.pbe-n-kjpaw_psl.0.1.UPF: wavefunction(s)  2P renormalized
     Message from routine setup:
     using ibrav=0 with symmetry is DISCOURAGED, use correct ibrav instead

     K-points division:     npool     =       2
     R & G space division:  proc/nbgrp/npool/nimage =       4
     Subspace diagonalization in iterative solution of the eigenvalue problem:
     one sub-group per band group will be used

     Using Slab Decomposition

     bravais-lattice index     =            0
     lattice parameter (alat)  =      14.4536  a.u.
     unit-cell volume          =    1982.5466 (a.u.)^3
     number of atoms/cell      =           20
     number of atomic types    =            3
     number of electrons       =       136.00
     number of Kohn-Sham states=          256
     kinetic-energy cutoff     =      30.0000  Ry
     charge density cutoff     =     240.0000  Ry
     scf convergence threshold =      1.0E-06
     mixing beta               =       0.7000
     number of iterations used =            8  plain     mixing
     Exchange-correlation= SLA  PW   PBX  PBC
                           (   1   4   3   4   0   0   0)

     celldm(1)=  14.453593  celldm(2)=   0.000000  celldm(3)=   0.000000
     celldm(4)=   0.000000  celldm(5)=   0.000000  celldm(6)=   0.000000

     crystal axes: (cart. coord. in units of alat)
               a(1) = (   1.000000   0.000000   0.000000 )
               a(2) = (   0.112665   0.993633   0.000000 )
               a(3) = (   0.276993   0.247361   0.660800 )

     reciprocal axes: (cart. coord. in units 2 pi/alat)
               b(1) = (  1.000000 -0.113387 -0.376734 )
               b(2) = (  0.000000  1.006408 -0.376734 )
               b(3) = (  0.000000  0.000000  1.513317 )

     PseudoPot. # 1 for Li read from file:
     /lustre07/scratch/pragov/crystal_structure_design/utils/SSSP/li_pbe_v1.4.uspp.F.UPF
     MD5 check sum: e912e257baa3777c20ea3d68f190483c
     Pseudo is Ultrasoft, Zval =  3.0
     Generated by new atomic code, or converted to UPF format
     Using radial grid of  751 points,  5 beta functions with:
                l(1) =   0
                l(2) =   0
                l(3) =   0
                l(4) =   1
                l(5) =   1
     Q(r) pseudized with 10 coefficients,  rinner =    1.150   1.150   1.150

     PseudoPot. # 2 for V  read from file:
     /lustre07/scratch/pragov/crystal_structure_design/utils/SSSP/v_pbe_v1.4.uspp.F.UPF
     MD5 check sum: 22b79981416ebb76fdaf5b1b8640f6fb
     Pseudo is Ultrasoft + core correction, Zval = 13.0
     Generated by new atomic code, or converted to UPF format
     Using radial grid of  853 points,  6 beta functions with:
                l(1) =   0
                l(2) =   0
                l(3) =   1
                l(4) =   1
                l(5) =   2
                l(6) =   2
     Q(r) pseudized with  8 coefficients,  rinner =    1.100   1.100   1.100
                                                       1.100   1.100

     PseudoPot. # 3 for O  read from file:
     /lustre07/scratch/pragov/crystal_structure_design/utils/SSSP/O.pbe-n-kjpaw_psl.0.1.UPF
     MD5 check sum: 0234752ac141de4415c5fc33072bef88
     Pseudo is Projector augmented-wave + core cor, Zval =  6.0
     Generated using "atomic" code by A. Dal Corso  v.5.0.99 svn rev. 10869
     Shape of augmentation charge: BESSEL
     Using radial grid of 1095 points,  4 beta functions with:
                l(1) =   0
                l(2) =   0
                l(3) =   1
                l(4) =   1
     Q(r) pseudized with 0 coefficients

     atomic species   valence    mass     pseudopotential
        Li             3.00     6.94000     Li( 1.00)
        V             13.00    50.94150     V ( 1.00)
        O              6.00    15.99900     O ( 1.00)

      2 Sym. Ops., with inversion, found

                                    s                        frac. trans.

      isym =  1     identity

 cryst.   s( 1) = (     1          0          0      )
                  (     0          1          0      )
                  (     0          0          1      )

 cart.    s( 1) = (  1.0000000  0.0000000  0.0000000 )
                  (  0.0000000  1.0000000  0.0000000 )
                  (  0.0000000  0.0000000  1.0000000 )

      isym =  2     inversion

 cryst.   s( 2) = (    -1          0          0      )
                  (     0         -1          0      )
                  (     0          0         -1      )

 cart.    s( 2) = ( -1.0000000 -0.0000000 -0.0000000 )
                  (  0.0000000 -1.0000000  0.0000000 )
                  (  0.0000000  0.0000000 -1.0000000 )

   Cartesian axes

     site n.     atom                  positions (alat units)
         1           Li  tau(   1) = (   0.9284795   0.4982407   0.4955999  )
         2           Li  tau(   2) = (   0.4611792   0.7427530   0.1652000  )
         3           Li  tau(   3) = (   0.5888859   0.8785160   0.4955999  )
         4           Li  tau(   4) = (   0.8007728   0.3624778   0.1652000  )
         5           V   tau(   5) = (   0.9909397   1.0532960   0.4711900  )
         6           V   tau(   6) = (   0.3987191   0.1876978   0.1896099  )
         7           V   tau(   7) = (   0.3699212   0.4987138   0.5200099  )
         8           V   tau(   8) = (   1.0197375   0.7422800   0.1407900  )
         9           O   tau(   9) = (   1.1705821   0.5732844   0.5779753  )
        10           O   tau(  10) = (   0.8266370   0.2661344   0.4132246  )
        11           O   tau(  11) = (   0.2190766   0.6677093   0.0828247  )
        12           O   tau(  12) = (   0.5654761   0.2838806   0.0810934  )
        13           O   tau(  13) = (   0.2072774   0.1812496   0.0504415  )
        14           O   tau(  14) = (   0.4842794   0.6535726   0.4114933  )
        15           O   tau(  15) = (   0.5630217   0.9748593   0.2475753  )
        16           O   tau(  16) = (   0.9053794   0.5874212   0.2493066  )
        17           O   tau(  17) = (   1.0477135   0.9317762   0.2799585  )
        18           O   tau(  18) = (   0.8241827   0.9571132   0.5797066  )
        19           O   tau(  19) = (   0.3419453   0.3092175   0.3808415  )
        20           O   tau(  20) = (   1.1823813   1.0597441   0.6103584  )

   Crystallographic axes

     site n.     atom                  positions (cryst. coord.)
         1           Li  tau(   1) = (  0.6852760  0.3147240  0.7500000  )
         2           Li  tau(   2) = (  0.3147240  0.6852760  0.2500000  )
         3           Li  tau(   3) = (  0.3025640  0.6974360  0.7500000  )
         4           Li  tau(   4) = (  0.6974360  0.3025640  0.2500000  )
         5           V   tau(   5) = (  0.6939960  0.8825320  0.7130600  )
         6           V   tau(   6) = (  0.3060040  0.1174680  0.2869400  )
         7           V   tau(   7) = (  0.1174680  0.3060040  0.7869400  )
         8           V   tau(   8) = (  0.8825320  0.6939960  0.2130600  )
         9           O   tau(   9) = (  0.8878360  0.3592150  0.8746600  )
        10           O   tau(  10) = (  0.6407850  0.1121640  0.6253400  )
        11           O   tau(  11) = (  0.1121640  0.6407850  0.1253400  )
        12           O   tau(  12) = (  0.5027370  0.2551490  0.1227200  )
        13           O   tau(  13) = (  0.1677230  0.1634080  0.0763340  )
        14           O   tau(  14) = (  0.2551490  0.5027370  0.6227200  )
        15           O   tau(  15) = (  0.3592150  0.8878360  0.3746600  )
        16           O   tau(  16) = (  0.7448510  0.4972630  0.3772800  )
        17           O   tau(  17) = (  0.8365920  0.8322770  0.4236660  )
        18           O   tau(  18) = (  0.4972630  0.7448510  0.8772800  )
        19           O   tau(  19) = (  0.1634080  0.1677230  0.5763340  )
        20           O   tau(  20) = (  0.8322770  0.8365920  0.9236660  )

     number of k points=    14
                       cart. coord. in units 2pi/alat
        k(    1) = (   0.0000000   0.0000000   0.0000000), wk =   0.0740741
        k(    2) = (   0.0000000   0.0000000   0.5044391), wk =   0.1481481
        k(    3) = (   0.0000000   0.3354693  -0.1255780), wk =   0.1481481
        k(    4) = (   0.0000000   0.3354693   0.3788611), wk =   0.1481481
        k(    5) = (   0.0000000   0.3354693  -0.6300171), wk =   0.1481481
        k(    6) = (   0.3333333  -0.0377958  -0.1255780), wk =   0.1481481
        k(    7) = (   0.3333333  -0.0377958   0.3788611), wk =   0.1481481
        k(    8) = (   0.3333333  -0.0377958  -0.6300171), wk =   0.1481481
        k(    9) = (   0.3333333   0.2976735  -0.2511560), wk =   0.1481481
        k(   10) = (   0.3333333   0.2976735   0.2532831), wk =   0.1481481
        k(   11) = (   0.3333333   0.2976735  -0.7555951), wk =   0.1481481
        k(   12) = (   0.3333333  -0.3732650   0.0000000), wk =   0.1481481
        k(   13) = (   0.3333333  -0.3732650   0.5044391), wk =   0.1481481
        k(   14) = (   0.3333333  -0.3732650  -0.5044391), wk =   0.1481481

                       cryst. coord.
        k(    1) = (   0.0000000   0.0000000   0.0000000), wk =   0.0740741
        k(    2) = (   0.0000000   0.0000000   0.3333333), wk =   0.1481481
        k(    3) = (   0.0000000   0.3333333   0.0000000), wk =   0.1481481
        k(    4) = (   0.0000000   0.3333333   0.3333333), wk =   0.1481481
        k(    5) = (   0.0000000   0.3333333  -0.3333333), wk =   0.1481481
        k(    6) = (   0.3333333   0.0000000   0.0000000), wk =   0.1481481
        k(    7) = (   0.3333333   0.0000000   0.3333333), wk =   0.1481481
        k(    8) = (   0.3333333   0.0000000  -0.3333333), wk =   0.1481481
        k(    9) = (   0.3333333   0.3333333   0.0000000), wk =   0.1481481
        k(   10) = (   0.3333333   0.3333333   0.3333333), wk =   0.1481481
        k(   11) = (   0.3333333   0.3333333  -0.3333333), wk =   0.1481481
        k(   12) = (   0.3333333  -0.3333333  -0.0000000), wk =   0.1481481
        k(   13) = (   0.3333333  -0.3333333   0.3333333), wk =   0.1481481
        k(   14) = (   0.3333333  -0.3333333  -0.3333333), wk =   0.1481481

     Check: negative core charge=   -0.000014

     Initial potential from superposition of free atoms

     starting charge     134.1921, renormalised to     136.0000

     negative rho (up, down):  1.941E-03 0.000E+00
     Starting wfcs are  108 randomized atomic wfcs +  148 random wfcs
     Checking if some PAW data can be deallocated...

     Self-consistent Calculation

     iteration #  1     ecut=    30.00 Ry     beta= 0.70
     Davidson diagonalization with overlap

     ethr =  1.00E-02,  avg # of iterations =  7.1

     negative rho (up, down):  1.517E-02 0.000E+00

     total energy              =   -1131.56350550 Ry
     estimated scf accuracy    <      12.25331383 Ry

[...]

     c_bands:  1 eigenvalues not converged
     ethr =  2.91E-06,  avg # of iterations =  9.3

[...]

     total energy              =   -1139.16467306 Ry
     estimated scf accuracy    <       0.00000177 Ry

     iteration # 13     ecut=    30.00 Ry     beta= 0.70
     Davidson diagonalization with overlap

     ethr =  1.30E-09,  avg # of iterations =  1.0

     negative rho (up, down):  8.148E-03 0.000E+00

     End of self-consistent calculation

          k = 0.0000 0.0000 0.0000 (  5521 PWs)   bands (ev):

   -62.1987 -62.1985 -62.1949 -62.1949 -40.9030 -40.9024 -40.8860 -40.8856
   -36.1572 -36.1567 -36.1219 -36.1215 -36.1036 -36.1027 -36.0991 -36.0985
   -36.0916 -36.0911 -36.0838 -36.0832 -15.2440 -15.1558 -14.8632 -14.8222
   -14.3596 -14.2988 -14.2689 -14.1727 -14.1576 -14.1175 -14.0421 -13.9418
    -2.3874  -2.3495  -2.2674  -2.1629  -1.6544  -1.5398  -1.5245  -1.5193
    -1.3268  -1.1947  -1.1076  -1.0708  -1.0706  -1.0604  -0.7623  -0.6874
    -0.6117  -0.5239  -0.4066  -0.3548  -0.1558   0.0017   0.1739   0.2457
     0.2884   0.3698   0.4015   0.5491   0.8143   1.0695   1.1615   1.2214
     1.2324   1.2526   1.3948   1.4699   4.2791   4.3983   4.8163   4.9374
     4.9400   5.0174   5.4575   5.5228   5.5315   5.7579   6.1624   6.1750
     6.2156   6.3187   7.2446   7.2593   7.3766   7.4214   7.4438   7.5585
     7.6411  10.2468  10.6329  10.7636  10.8380  11.5033  11.6743  12.2540
    12.5628  12.7989  13.0319  13.4241  13.4611  13.5025  14.1294  14.3466
    14.4678  14.7373  15.6578  15.9197  16.1777  16.5179  16.9194  16.9997
    17.0471  17.0545  17.1248  17.2326  17.7427  18.0471  18.2042  18.3259
    18.4484  18.5600  18.7067  18.9601  19.2148  19.6046  19.9649  19.9803
    19.9935  20.4025  20.6506  20.7311  20.9355  21.1103  21.2436  21.3721
    21.5586  21.6580  21.8258  22.0862  22.0980  22.3215  22.9307  23.1276
    23.5000  23.9584  24.0687  24.2329  24.2919  24.3875  24.7094  25.2752
    25.5041  25.5076  25.9770  26.0011  26.2961  26.3050  26.6006  26.6506
    26.7134  26.8850  27.1045  27.1479  27.2226  27.6165  27.7585  27.9196
    28.0215  28.1510  28.4803  28.5920  28.7784  28.8760  29.1015  29.3857
    29.5452  29.8463  29.8710  30.1895  30.4299  30.4687  30.5206  30.5812
    30.6612  30.9525  30.9946  31.3665  31.6290  31.7862  32.2140  32.3768
    32.3958  32.5156  32.7768  32.9340  33.2636  33.3869  33.7554  33.8791
    33.9306  33.9866  34.0781  34.2125  34.2549  34.3169  34.6431  34.6790
    34.7978  35.0550  35.3127  35.4770  35.7667  36.1108  36.1913  36.4097
    36.6888  36.9725  37.2095  37.2532  37.4811  37.4855  37.5524  37.7199
    37.8552  38.0405  38.2872  38.3403  38.4855  38.5405  38.5507  38.7208
    39.1594  39.2285  39.3206  39.3230  39.4341  39.8427  39.9552  40.5364
    40.6867  40.6934  40.7591  40.8588  41.2683  41.3303  41.4296  41.6228
    41.6831  41.7282  41.7472  42.1428  42.1526  42.5744  42.6262  42.8259

     occupation numbers
     1.0000   1.0000   1.0000   1.0000   1.0000   1.0000   1.0000   1.0000
     1.0000   1.0000   1.0000   1.0000   1.0000   1.0000   1.0000   1.0000
     1.0000   1.0000   1.0000   1.0000   1.0000   1.0000   1.0000   1.0000
     1.0000   1.0000   1.0000   1.0000   1.0000   1.0000   1.0000   1.0000
     1.0000   1.0000   1.0000   1.0000   1.0000   1.0000   1.0000   1.0000
     1.0000   1.0000   1.0000   1.0000   1.0000   1.0000   1.0000   1.0000
     1.0000   1.0000   1.0000   1.0000   1.0000   1.0000   1.0000   1.0000
     1.0000   1.0000   1.0000   1.0000   1.0000   1.0000   1.0000   1.0000
     1.0000   1.0000   1.0000   1.0000   0.0000   0.0000   0.0000   0.0000
     0.0000   0.0000   0.0000   0.0000   0.0000   0.0000   0.0000   0.0000
     0.0000   0.0000   0.0000   0.0000   0.0000   0.0000   0.0000   0.0000
     0.0000   0.0000   0.0000   0.0000   0.0000   0.0000   0.0000   0.0000
     0.0000   0.0000   0.0000   0.0000   0.0000   0.0000   0.0000   0.0000
     0.0000   0.0000   0.0000   0.0000   0.0000   0.0000   0.0000   0.0000
     0.0000   0.0000   0.0000   0.0000   0.0000   0.0000   0.0000   0.0000
     0.0000   0.0000   0.0000   0.0000   0.0000   0.0000   0.0000   0.0000
     0.0000   0.0000   0.0000   0.0000   0.0000   0.0000   0.0000   0.0000
     0.0000   0.0000   0.0000   0.0000   0.0000   0.0000   0.0000   0.0000
     0.0000   0.0000   0.0000   0.0000   0.0000   0.0000   0.0000   0.0000
     0.0000   0.0000   0.0000   0.0000   0.0000   0.0000   0.0000   0.0000
     0.0000   0.0000   0.0000   0.0000   0.0000   0.0000   0.0000   0.0000
     0.0000   0.0000   0.0000   0.0000   0.0000   0.0000   0.0000   0.0000
     0.0000   0.0000   0.0000   0.0000   0.0000   0.0000   0.0000   0.0000
     0.0000   0.0000   0.0000   0.0000   0.0000   0.0000   0.0000   0.0000
     0.0000   0.0000   0.0000   0.0000   0.0000   0.0000   0.0000   0.0000
     0.0000   0.0000   0.0000   0.0000   0.0000   0.0000   0.0000   0.0000
     0.0000   0.0000   0.0000   0.0000   0.0000   0.0000   0.0000   0.0000
     0.0000   0.0000   0.0000   0.0000   0.0000   0.0000   0.0000   0.0000
     0.0000   0.0000   0.0000   0.0000   0.0000   0.0000   0.0000   0.0000
     0.0000   0.0000   0.0000   0.0000   0.0000   0.0000   0.0000   0.0000
     0.0000   0.0000   0.0000   0.0000   0.0000   0.0000   0.0000   0.0000
     0.0000   0.0000   0.0000   0.0000   0.0000   0.0000   0.0000   0.0000

[...]

          k = 0.3333-0.3733-0.5044 (  5508 PWs)   bands (ev):

   -62.1979 -62.1978 -62.1956 -62.1956 -40.8999 -40.8996 -40.8885 -40.8884
   -36.1488 -36.1483 -36.1308 -36.1306 -36.1043 -36.1041 -36.1029 -36.1026
   -36.0856 -36.0847 -36.0831 -36.0826 -15.1344 -15.0895 -14.9620 -14.9173
   -14.3509 -14.3145 -14.2728 -14.2305 -14.1066 -14.0510 -14.0359 -13.9830
    -2.3357  -2.3175  -2.2433  -2.2213  -1.6698  -1.5690  -1.4938  -1.4607
    -1.3928  -1.2721  -1.1786  -1.1190  -1.0113  -0.8747  -0.7712  -0.6741
    -0.5814  -0.4163  -0.2614  -0.2013  -0.1382  -0.0576  -0.0207   0.1323
     0.2646   0.4475   0.5221   0.6210   0.7335   0.7975   0.8538   0.9758
     1.1999   1.3787   1.4327   1.5203   4.4483   4.4598   4.8687   4.9474
     5.1814   5.1956   5.2528   5.2964   5.8965   5.9172   5.9884   6.0969
     6.7426   6.8027   6.9678   7.0709   7.1911   7.2265   7.3044   7.3454
     9.0439   9.2449  10.1652  10.5900  10.9015  11.1318  11.6746  12.2159
    12.4964  12.7340  13.0700  13.3294  13.7554  13.9913  14.1122  14.4902
    14.7227  15.1202  15.4376  15.5385  15.9550  16.0688  16.2672  16.6785
    16.8320  17.2508  17.4116  17.6218  17.9535  18.1096  18.2028  18.3802
    18.5731  18.6931  18.8810  18.9504  19.1539  19.4811  19.7740  19.9374
    20.0563  20.3329  20.5400  20.7818  21.1137  21.1887  21.3448  21.6114
    21.7432  22.0350  22.4411  22.5884  22.6794  22.9088  23.1261  23.1799
    23.2178  23.5076  23.6249  23.7926  23.9326  24.3535  24.4292  24.7049
    24.8808  25.1659  25.2759  25.2948  25.6689  25.7684  26.1651  26.2445
    26.4113  26.7762  27.0344  27.1305  27.3932  27.4620  27.7386  28.1566
    28.3095  28.4499  28.7885  29.0513  29.2693  29.3965  29.5931  29.6143
    29.8938  30.0096  30.2442  30.3219  30.5230  30.6250  30.8377  31.1638
    31.2768  31.4633  31.6079  31.8670  31.9284  31.9977  32.1808  32.5662
    32.6895  32.7051  32.9836  33.1285  33.2133  33.4756  33.6391  33.7311
    34.0744  34.1162  34.2670  34.3473  34.5240  34.6971  34.9590  35.1172
    35.2538  35.3959  35.5626  35.6257  35.8726  35.9983  36.1999  36.3122
    36.4345  36.4899  36.6950  36.9553  37.1070  37.3093  37.3844  37.5520
    37.6601  37.7495  37.8588  38.0160  38.1389  38.2639  38.6149  38.7131
    39.0121  39.1659  39.2399  39.3236  39.5041  39.6888  39.8119  39.9026
    40.0281  40.2269  40.4713  40.5583  40.6311  40.6971  40.7364  40.9458
    41.0450  41.2076  41.3100  41.6150  41.7793  41.7872  41.9214  42.0776

     occupation numbers
     1.0000   1.0000   1.0000   1.0000   1.0000   1.0000   1.0000   1.0000
     1.0000   1.0000   1.0000   1.0000   1.0000   1.0000   1.0000   1.0000
     1.0000   1.0000   1.0000   1.0000   1.0000   1.0000   1.0000   1.0000
     1.0000   1.0000   1.0000   1.0000   1.0000   1.0000   1.0000   1.0000
     1.0000   1.0000   1.0000   1.0000   1.0000   1.0000   1.0000   1.0000
     1.0000   1.0000   1.0000   1.0000   1.0000   1.0000   1.0000   1.0000
     1.0000   1.0000   1.0000   1.0000   1.0000   1.0000   1.0000   1.0000
     1.0000   1.0000   1.0000   1.0000   1.0000   1.0000   1.0000   1.0000
     1.0000   1.0000   1.0000   1.0000   0.0000   0.0000   0.0000   0.0000
     0.0000   0.0000   0.0000   0.0000   0.0000   0.0000   0.0000   0.0000
     0.0000   0.0000   0.0000   0.0000   0.0000   0.0000   0.0000   0.0000
     0.0000   0.0000   0.0000   0.0000   0.0000   0.0000   0.0000   0.0000
     0.0000   0.0000   0.0000   0.0000   0.0000   0.0000   0.0000   0.0000
     0.0000   0.0000   0.0000   0.0000   0.0000   0.0000   0.0000   0.0000
     0.0000   0.0000   0.0000   0.0000   0.0000   0.0000   0.0000   0.0000
     0.0000   0.0000   0.0000   0.0000   0.0000   0.0000   0.0000   0.0000
     0.0000   0.0000   0.0000   0.0000   0.0000   0.0000   0.0000   0.0000
     0.0000   0.0000   0.0000   0.0000   0.0000   0.0000   0.0000   0.0000
     0.0000   0.0000   0.0000   0.0000   0.0000   0.0000   0.0000   0.0000
     0.0000   0.0000   0.0000   0.0000   0.0000   0.0000   0.0000   0.0000
     0.0000   0.0000   0.0000   0.0000   0.0000   0.0000   0.0000   0.0000
     0.0000   0.0000   0.0000   0.0000   0.0000   0.0000   0.0000   0.0000
     0.0000   0.0000   0.0000   0.0000   0.0000   0.0000   0.0000   0.0000
     0.0000   0.0000   0.0000   0.0000   0.0000   0.0000   0.0000   0.0000
     0.0000   0.0000   0.0000   0.0000   0.0000   0.0000   0.0000   0.0000
     0.0000   0.0000   0.0000   0.0000   0.0000   0.0000   0.0000   0.0000
     0.0000   0.0000   0.0000   0.0000   0.0000   0.0000   0.0000   0.0000
     0.0000   0.0000   0.0000   0.0000   0.0000   0.0000   0.0000   0.0000
     0.0000   0.0000   0.0000   0.0000   0.0000   0.0000   0.0000   0.0000
     0.0000   0.0000   0.0000   0.0000   0.0000   0.0000   0.0000   0.0000
     0.0000   0.0000   0.0000   0.0000   0.0000   0.0000   0.0000   0.0000
     0.0000   0.0000   0.0000   0.0000   0.0000   0.0000   0.0000   0.0000

     highest occupied, lowest unoccupied level (ev):     1.6078    4.2656

!    total energy              =   -1139.16467299 Ry
     estimated scf accuracy    <       0.00000059 Ry

     The total energy is the sum of the following terms:
     one-electron contribution =    -750.19593743 Ry
     hartree contribution      =     409.63475091 Ry
     xc contribution           =    -180.36278100 Ry
     ewald contribution        =    -503.90521088 Ry
     one-center paw contrib.   =    -114.33549459 Ry
      -> PAW hartree energy AE =       0.00000000 Ry
      -> PAW hartree energy PS =       0.00000000 Ry
      -> PAW xc energy AE      =       0.00000000 Ry
      -> PAW xc energy PS      =       0.00000000 Ry
      -> total E_H with PAW    =     409.63475091 Ry
      -> total E_XC with PAW   =    -180.36278100 Ry

     convergence has been achieved in  13 iterations

     Writing all to output data dir bands_nm/myprefix.save/

     General routines

     Parallel routines

     PAW routines

   This run was terminated on:  21:33:41  15Jul2023

   JOB DONE.