     Program PWSCF v.7.1 starts on 15Jul2023 at 18:40: 9

     Reading input from espresso_18688.pwi
Warning: card &CELL ignored
Warning: card / ignored

     Current dimensions of program PWSCF are:
     Max number of different atomic species (ntypx) = 10
     Max number of k-points (npk) =  40000
     Max angular momentum in pseudopotentials (lmaxx) =  4
     file O.pbe-n-kjpaw_psl.0.1.UPF: wavefunction(s)  2P renormalized
     Message from routine setup:
     using ibrav=0 with symmetry is DISCOURAGED, use correct ibrav instead

     K-points division:     npool     =       2
     R & G space division:  proc/nbgrp/npool/nimage =       4
     Subspace diagonalization in iterative solution of the eigenvalue problem:
     one sub-group per band group will be used

     Using Slab Decomposition

     bravais-lattice index     =            0
     lattice parameter (alat)  =      13.5978  a.u.
     unit-cell volume          =    3562.9705 (a.u.)^3
     number of atoms/cell      =           20
     number of atomic types    =            3
     number of electrons       =       200.00
     number of Kohn-Sham states=          256
     kinetic-energy cutoff     =      30.0000  Ry
     charge density cutoff     =     240.0000  Ry
     scf convergence threshold =      1.0E-06
     mixing beta               =       0.7000
     number of iterations used =            8  plain     mixing
     Exchange-correlation= SLA  PW   PBX  PBC
                           (   1   4   3   4   0   0   0)

     celldm(1)=  13.597757  celldm(2)=   0.000000  celldm(3)=   0.000000
     celldm(4)=   0.000000  celldm(5)=   0.000000  celldm(6)=   0.000000

     crystal axes: (cart. coord. in units of alat)
               a(1) = (   1.000000   0.000000   0.000000 )
               a(2) = (   0.000000   1.001252   0.000000 )
               a(3) = (   0.000000   0.000000   1.415360 )

     reciprocal axes: (cart. coord. in units 2 pi/alat)
               b(1) = (  1.000000  0.000000  0.000000 )
               b(2) = (  0.000000  0.998749  0.000000 )
               b(3) = (  0.000000  0.000000  0.706534 )

     PseudoPot. # 1 for Sr read from file:
     /lustre07/scratch/pragov/crystal_structure_design/utils/SSSP/Sr_pbe_v1.uspp.F.UPF
     MD5 check sum: 6b418c05fbe9db5448babca5e47b7a5b
     Pseudo is Ultrasoft + core correction, Zval = 10.0
     Generated by new atomic code, or converted to UPF format
     Using radial grid of  883 points,  6 beta functions with:
                l(1) =   0
                l(2) =   0
                l(3) =   1
                l(4) =   1
                l(5) =   2
                l(6) =   2
     Q(r) pseudized with  6 coefficients,  rinner =    1.400   1.400   1.400
                                                       1.400   1.400

     PseudoPot. # 2 for Ge read from file:
     /lustre07/scratch/pragov/crystal_structure_design/utils/SSSP/ge_pbe_v1.4.uspp.F.UPF
     MD5 check sum: 9c9eaa91e581c3f09632fb3098b2c6b2
     Pseudo is Ultrasoft + core correction, Zval = 14.0
     Generated by new atomic code, or converted to UPF format
     Using radial grid of  873 points,  6 beta functions with:
                l(1) =   0
                l(2) =   0
                l(3) =   1
                l(4) =   1
                l(5) =   2
                l(6) =   2
     Q(r) pseudized with  8 coefficients,  rinner =    1.400   1.400   1.400
                                                       1.400   1.400

     PseudoPot. # 3 for O  read from file:
     /lustre07/scratch/pragov/crystal_structure_design/utils/SSSP/O.pbe-n-kjpaw_psl.0.1.UPF
     MD5 check sum: 0234752ac141de4415c5fc33072bef88
     Pseudo is Projector augmented-wave + core cor, Zval =  6.0
     Generated using "atomic" code by A. Dal Corso  v.5.0.99 svn rev. 10869
     Shape of augmentation charge: BESSEL
     Using radial grid of 1095 points,  4 beta functions with:
                l(1) =   0
                l(2) =   0
                l(3) =   1
                l(4) =   1
     Q(r) pseudized with 0 coefficients

     atomic species   valence    mass     pseudopotential
        Sr            10.00    87.62000     Sr( 1.00)
        Ge            14.00    72.63000     Ge( 1.00)
        O              6.00    15.99900     O ( 1.00)

      8 Sym. Ops., with inversion, found ( 6 have fractional translation)

                                    s                        frac. trans.

      isym =  1     identity

 cryst.   s( 1) = (     1          0          0      )
                  (     0          1          0      )
                  (     0          0          1      )

 cart.    s( 1) = (  1.0000000  0.0000000  0.0000000 )
                  (  0.0000000  1.0000000  0.0000000 )
                  (  0.0000000  0.0000000  1.0000000 )

      isym =  2     180 deg rotation - cart. axis [0,0,1]

 cryst.   s( 2) = (    -1          0          0      )    f =(  0.0000000 )
                  (     0         -1          0      )       (  0.0000000 )
                  (     0          0          1      )       (  0.5000000 )

 cart.    s( 2) = ( -1.0000000  0.0000000  0.0000000 )    f =(  0.0000000 )
                  (  0.0000000 -1.0000000  0.0000000 )       (  0.0000000 )
                  (  0.0000000  0.0000000  1.0000000 )       (  0.7076801 )

[...]

      isym =  4     180 deg rotation - cart. axis [1,0,0]

[...]

      isym =  5     inversion

 cryst.   s( 5) = (    -1          0          0      )
                  (     0         -1          0      )
                  (     0          0         -1      )

 cart.    s( 5) = ( -1.0000000  0.0000000  0.0000000 )
                  (  0.0000000 -1.0000000  0.0000000 )
                  (  0.0000000  0.0000000 -1.0000000 )

      isym =  6     inv. 180 deg rotation - cart. axis [0,0,1]

[...]

      isym =  8     inv. 180 deg rotation - cart. axis [1,0,0]

 cryst.   s( 8) = (    -1          0          0      )    f =(  0.5000000 )
                  (     0          1          0      )       ( -0.5000000 )
                  (     0          0          1      )       (  0.0000000 )

 cart.    s( 8) = ( -1.0000000  0.0000000  0.0000000 )    f =(  0.5000000 )
                  (  0.0000000  1.0000000  0.0000000 )       ( -0.5006261 )
                  (  0.0000000  0.0000000  1.0000000 )       (  0.0000000 )

   Cartesian axes

     site n.     atom                  positions (alat units)
         1           Sr  tau(   1) = (   0.2221140   0.7784665   1.3708386  )
         2           Sr  tau(   2) = (   0.2778860   0.2778405   0.7522016  )
         3           Sr  tau(   3) = (   0.7221140   0.7234117   0.0445216  )
         4           Sr  tau(   4) = (   0.7778860   0.2227856   0.6631585  )
         5           Sr  tau(   5) = (   0.2221140   0.7784665   0.7522016  )
         6           Sr  tau(   6) = (   0.2778860   0.2778405   1.3708386  )
         7           Sr  tau(   7) = (   0.7221140   0.7234117   0.6631585  )
         8           Sr  tau(   8) = (   0.7778860   0.2227856   0.0445216  )
         9           Sr  tau(   9) = (   0.9393030   0.4919773   1.0615201  )
        10           Sr  tau(  10) = (   0.5606970   0.9926033   1.0615201  )
        11           Sr  tau(  11) = (   0.4393030   0.0086488   0.3538400  )
        12           Sr  tau(  12) = (   0.0606970   0.5092749   0.3538400  )
        13           Ge  tau(  13) = (   0.0050720   0.0207950   1.0615201  )
        14           Ge  tau(  14) = (   0.4949280   0.5214211   1.0615201  )
        15           Ge  tau(  15) = (   0.5050720   0.4798311   0.3538400  )
        16           Ge  tau(  16) = (   0.9949280   0.9804571   0.3538400  )
        17           O   tau(  17) = (   0.5000000   0.0000000   0.7076801  )
        18           O   tau(  18) = (   0.0000000   0.5006261   0.0000000  )
        19           O   tau(  19) = (   0.0000000   0.5006261   0.7076801  )
        20           O   tau(  20) = (   0.5000000   0.0000000   0.0000000  )

   Crystallographic axes

     site n.     atom                  positions (cryst. coord.)
         1           Sr  tau(   1) = (  0.2221140  0.7774930  0.9685440  )
         2           Sr  tau(   2) = (  0.2778860  0.2774930  0.5314560  )
         3           Sr  tau(   3) = (  0.7221140  0.7225070  0.0314560  )
         4           Sr  tau(   4) = (  0.7778860  0.2225070  0.4685440  )
         5           Sr  tau(   5) = (  0.2221140  0.7774930  0.5314560  )
         6           Sr  tau(   6) = (  0.2778860  0.2774930  0.9685440  )
         7           Sr  tau(   7) = (  0.7221140  0.7225070  0.4685440  )
         8           Sr  tau(   8) = (  0.7778860  0.2225070  0.0314560  )
         9           Sr  tau(   9) = (  0.9393030  0.4913620  0.7500000  )
        10           Sr  tau(  10) = (  0.5606970  0.9913620  0.7500000  )
        11           Sr  tau(  11) = (  0.4393030  0.0086380  0.2500000  )
        12           Sr  tau(  12) = (  0.0606970  0.5086380  0.2500000  )
        13           Ge  tau(  13) = (  0.0050720  0.0207690  0.7500000  )
        14           Ge  tau(  14) = (  0.4949280  0.5207690  0.7500000  )
        15           Ge  tau(  15) = (  0.5050720  0.4792310  0.2500000  )
        16           Ge  tau(  16) = (  0.9949280  0.9792310  0.2500000  )
        17           O   tau(  17) = (  0.5000000  0.0000000  0.5000000  )
        18           O   tau(  18) = (  0.0000000  0.5000000  0.0000000  )
        19           O   tau(  19) = (  0.0000000  0.5000000  0.5000000  )
        20           O   tau(  20) = (  0.5000000  0.0000000  0.0000000  )

     number of k points=     8
                       cart. coord. in units 2pi/alat
        k(    1) = (   0.0000000   0.0000000   0.0000000), wk =   0.0740741
        k(    2) = (   0.0000000   0.0000000   0.2355113), wk =   0.1481481
        k(    3) = (   0.0000000   0.3329165   0.0000000), wk =   0.1481481
        k(    4) = (   0.0000000   0.3329165   0.2355113), wk =   0.2962963
        k(    5) = (   0.3333333   0.0000000   0.0000000), wk =   0.1481481
        k(    6) = (   0.3333333   0.0000000   0.2355113), wk =   0.2962963
        k(    7) = (   0.3333333   0.3329165   0.0000000), wk =   0.2962963
        k(    8) = (   0.3333333   0.3329165   0.2355113), wk =   0.5925926

                       cryst. coord.
        k(    1) = (   0.0000000   0.0000000   0.0000000), wk =   0.0740741
        k(    2) = (   0.0000000   0.0000000   0.3333333), wk =   0.1481481
        k(    3) = (   0.0000000   0.3333333   0.0000000), wk =   0.1481481
        k(    4) = (   0.0000000   0.3333333   0.3333333), wk =   0.2962963
        k(    5) = (   0.3333333   0.0000000   0.0000000), wk =   0.1481481
        k(    6) = (   0.3333333   0.0000000   0.3333333), wk =   0.2962963
        k(    7) = (   0.3333333   0.3333333   0.0000000), wk =   0.2962963
        k(    8) = (   0.3333333   0.3333333   0.3333333), wk =   0.5925926

     Check: negative core charge=   -0.000006

     Initial potential from superposition of free atoms

     starting charge     199.5927, renormalised to     200.0000

     negative rho (up, down):  7.483E-01 0.000E+00
     Starting wfcs are  208 randomized atomic wfcs +   48 random wfcs
     Checking if some PAW data can be deallocated...

     Self-consistent Calculation

     iteration #  1     ecut=    30.00 Ry     beta= 0.70
     Davidson diagonalization with overlap

     ethr =  1.00E-02,  avg # of iterations =  7.9

     negative rho (up, down):  7.626E-01 0.000E+00

     total energy              =   -1862.32817379 Ry
     estimated scf accuracy    <       3.87242320 Ry

[...]

     total energy              =   -1864.20974976 Ry
     estimated scf accuracy    <       0.00001078 Ry

     iteration #  9     ecut=    30.00 Ry     beta= 0.70
     Davidson diagonalization with overlap

     ethr =  5.39E-09,  avg # of iterations =  2.0

     negative rho (up, down):  7.860E-01 0.000E+00

     End of self-consistent calculation

          k = 0.0000 0.0000 0.0000 (  9917 PWs)   bands (ev):

   -27.0036 -26.9636 -26.9282 -26.9267 -26.9265 -26.9255 -26.9253 -26.9209
   -26.9196 -26.8900 -26.8879 -26.8865 -14.7154 -14.7153 -14.7152 -14.7147
   -14.7141 -14.7134 -14.7122 -14.7121 -14.7104 -14.7103 -14.7085 -14.7084
   -14.7083 -14.7082 -14.7077 -14.7074 -14.7017 -14.7014 -14.7010 -14.7005
   -11.0550 -10.7265 -10.3042  -9.6525  -9.3654  -9.3334  -9.3216  -9.2908
    -9.2739  -9.2728  -9.2715  -9.2569  -9.2032  -9.1106  -9.0513  -9.0456
    -9.0301  -9.0012  -8.9883  -8.9786  -8.9757  -8.9709  -8.9605  -8.9420
    -8.9235  -8.8120  -8.7910  -8.7703  -8.7671  -8.7602  -8.7514  -8.7417
    -8.7366  -8.7324  -8.7268  -8.7250  -8.6851  -8.0904  -7.7371  -7.4750
     1.1543   1.5487   1.6009   1.7054   4.1257   4.1543   4.1708   4.2188
     4.2789   4.4426   5.1585   5.2567   5.2921   5.3663   5.3725   5.4010
     6.1667   7.0501   7.0657   7.7886   7.7979   7.8576   7.8595   8.0038
     8.0510   8.5647   8.5897   8.6082   8.9557   9.0244   9.3832   9.7909
     9.8386   9.8494   9.8631   9.8977   9.9881  10.1970  10.3387  10.3425
    10.3695  10.6987  11.0269  11.2121  11.5942  11.7039  11.7150  11.7504
    11.8919  11.9608  12.1213  12.1916  12.2164  12.2410  12.4507  12.5614
    12.6940  12.7073  12.8106  12.9282  12.9973  13.1527  13.2884  13.3552
    13.4606  13.5382  13.6808  13.8383  13.8975  14.0109  14.0518  14.0747
    14.1312  14.3614  14.5759  14.6100  14.7022  14.8702  14.9224  14.9355
    15.0444  15.1850  15.2261  15.3725  15.3841  15.4177  15.6435  15.9110
    15.9121  16.0400  16.0644  16.1905  16.2878  16.2988  16.3505  16.6006
    16.7899  16.9780  16.9925  17.1042  17.1659  17.1851  17.3028  17.5195
    17.5521  17.7196  17.7295  17.9467  18.1756  18.2094  18.2754  18.5078
    18.5336  18.5828  18.6146  18.9421  19.1064  19.1687  19.6900  19.7952
    19.8281  19.8897  19.9448  20.1047  20.5325  20.5556  20.7983  20.8639
    20.8949  21.1713  21.1994  21.2856  21.2960  21.5586  21.6066  21.6552
    21.7124  21.8059  21.8296  21.9599  22.1977  22.7209  22.8466  22.8526
    22.9079  22.9945  23.2529  23.3413  23.3942  23.4240  23.4649  23.6883
    23.7588  23.8160  23.8757  23.8976  23.9218  24.0576  24.1924  24.2516
    24.2643  24.4405  24.5101  24.7609  24.9106  25.1591  25.1692  25.4519
    25.4733  25.5037  25.5464  25.6346  25.6805  25.8471  26.0336  26.0635
    26.1127  26.3614  26.4482  26.4917  26.6677  26.9100  26.9290  27.0856

     occupation numbers
     1.0000   1.0000   1.0000   1.0000   1.0000   1.0000   1.0000   1.0000
     1.0000   1.0000   1.0000   1.0000   1.0000   1.0000   1.0000   1.0000
     1.0000   1.0000   1.0000   1.0000   1.0000   1.0000   1.0000   1.0000
     1.0000   1.0000   1.0000   1.0000   1.0000   1.0000   1.0000   1.0000
     1.0000   1.0000   1.0000   1.0000   1.0000   1.0000   1.0000   1.0000
     1.0000   1.0000   1.0000   1.0000   1.0000   1.0000   1.0000   1.0000
     1.0000   1.0000   1.0000   1.0000   1.0000   1.0000   1.0000   1.0000
     1.0000   1.0000   1.0000   1.0000   1.0000   1.0000   1.0000   1.0000
     1.0000   1.0000   1.0000   1.0000   1.0000   1.0000   1.0000   1.0000
     1.0000   1.0000   1.0000   1.0000   1.0000   1.0000   1.0000   1.0000
     1.0000   1.0000   1.0000   1.0000   1.0000   1.0000   1.0000   1.0000
     1.0000   1.0000   1.0000   1.0000   1.0000   1.0000   1.0000   1.0000
     1.0000   1.0000   1.0000   1.0000   0.0000   0.0000   0.0000   0.0000
     0.0000   0.0000   0.0000   0.0000   0.0000   0.0000   0.0000   0.0000
     0.0000   0.0000   0.0000   0.0000   0.0000   0.0000   0.0000   0.0000
     0.0000   0.0000   0.0000   0.0000   0.0000   0.0000   0.0000   0.0000
     0.0000   0.0000   0.0000   0.0000   0.0000   0.0000   0.0000   0.0000
     0.0000   0.0000   0.0000   0.0000   0.0000   0.0000   0.0000   0.0000
     0.0000   0.0000   0.0000   0.0000   0.0000   0.0000   0.0000   0.0000
     0.0000   0.0000   0.0000   0.0000   0.0000   0.0000   0.0000   0.0000
     0.0000   0.0000   0.0000   0.0000   0.0000   0.0000   0.0000   0.0000
     0.0000   0.0000   0.0000   0.0000   0.0000   0.0000   0.0000   0.0000
     0.0000   0.0000   0.0000   0.0000   0.0000   0.0000   0.0000   0.0000
     0.0000   0.0000   0.0000   0.0000   0.0000   0.0000   0.0000   0.0000
     0.0000   0.0000   0.0000   0.0000   0.0000   0.0000   0.0000   0.0000
     0.0000   0.0000   0.0000   0.0000   0.0000   0.0000   0.0000   0.0000
     0.0000   0.0000   0.0000   0.0000   0.0000   0.0000   0.0000   0.0000
     0.0000   0.0000   0.0000   0.0000   0.0000   0.0000   0.0000   0.0000
     0.0000   0.0000   0.0000   0.0000   0.0000   0.0000   0.0000   0.0000
     0.0000   0.0000   0.0000   0.0000   0.0000   0.0000   0.0000   0.0000
     0.0000   0.0000   0.0000   0.0000   0.0000   0.0000   0.0000   0.0000
     0.0000   0.0000   0.0000   0.0000   0.0000   0.0000   0.0000   0.0000

[...]

          k = 0.3333 0.3329 0.2355 (  9892 PWs)   bands (ev):

   -26.9729 -26.9576 -26.9546 -26.9419 -26.9246 -26.9238 -26.9162 -26.9120
   -26.9086 -26.9023 -26.8972 -26.8932 -14.7147 -14.7137 -14.7135 -14.7130
   -14.7121 -14.7118 -14.7110 -14.7109 -14.7099 -14.7095 -14.7093 -14.7089
   -14.7077 -14.7076 -14.7072 -14.7067 -14.7014 -14.7008 -14.7001 -14.7000
   -10.7393 -10.5553 -10.5513 -10.3442  -9.2569  -9.2499  -9.2289  -9.2021
    -9.1935  -9.1825  -9.1657  -9.1546  -9.1370  -9.1221  -9.1169  -9.0973
    -9.0607  -9.0480  -9.0026  -8.9832  -8.9759  -8.9622  -8.9111  -8.8923
    -8.8864  -8.8752  -8.8576  -8.8505  -8.8324  -8.8182  -8.8059  -8.7945
    -8.7885  -8.7629  -8.7495  -8.7430  -8.1339  -7.9400  -7.9324  -7.7712
     1.4922   1.5984   1.6098   1.6509   4.2625   4.3409   4.4488   4.5136
     4.5239   4.6266   4.9052   4.9272   4.9896   5.0285   5.2217   5.2825
     6.5792   6.6798   6.8710   6.9743   7.2183   7.2992   7.5463   7.7193
     7.8514   7.8548   8.0572   8.1085   9.7901  10.0931  10.1294  10.2069
    10.3112  10.4557  10.5206  10.5738  10.6770  10.7053  10.8111  10.9187
    10.9976  11.0334  11.2301  11.3136  11.3340  11.4252  11.5896  11.7063
    11.8101  11.9330  12.0765  12.1213  12.3284  12.3988  12.4413  12.5575
    12.6065  12.6600  12.7040  12.7795  12.9682  13.1481  13.1797  13.3890
    13.4920  13.5576  13.5786  13.6951  13.8089  13.8574  13.9995  14.1019
    14.2147  14.3025  14.3740  14.4379  14.5096  14.5786  14.6726  14.7471
    14.8246  14.9439  15.0109  15.1541  15.2250  15.2869  15.4388  15.4496
    15.5501  15.6378  15.6765  15.7995  15.8901  16.0084  16.1054  16.2437
    16.6926  16.8060  16.9175  16.9911  17.0812  17.1952  17.2517  17.3561
    17.3978  17.4711  17.7760  17.9910  18.0479  18.1506  18.3168  18.3576
    18.5366  18.8882  18.9960  19.1686  19.3431  19.4104  19.6143  19.8476
    19.9747  20.2942  20.3331  20.4404  20.5703  20.6393  20.6817  20.8719
    21.0373  21.1359  21.3078  21.4025  21.5195  21.6494  21.7229  21.8331
    21.9447  22.0073  22.1587  22.3186  22.4362  22.6613  22.8312  22.9059
    23.0291  23.1418  23.1922  23.2868  23.3582  23.4928  23.5829  23.6379
    23.7726  23.9639  24.0601  24.0963  24.1397  24.3150  24.3474  24.4621
    24.5997  24.6595  24.7097  24.8055  24.8428  25.0800  25.1520  25.4118
    25.5669  25.6604  25.7219  25.7968  26.0214  26.0809  26.1547  26.3345
    26.4383  26.4951  26.5391  26.6868  26.7185  26.7913  26.9249  27.0998

     occupation numbers
     1.0000   1.0000   1.0000   1.0000   1.0000   1.0000   1.0000   1.0000
     1.0000   1.0000   1.0000   1.0000   1.0000   1.0000   1.0000   1.0000
     1.0000   1.0000   1.0000   1.0000   1.0000   1.0000   1.0000   1.0000
     1.0000   1.0000   1.0000   1.0000   1.0000   1.0000   1.0000   1.0000
     1.0000   1.0000   1.0000   1.0000   1.0000   1.0000   1.0000   1.0000
     1.0000   1.0000   1.0000   1.0000   1.0000   1.0000   1.0000   1.0000
     1.0000   1.0000   1.0000   1.0000   1.0000   1.0000   1.0000   1.0000
     1.0000   1.0000   1.0000   1.0000   1.0000   1.0000   1.0000   1.0000
     1.0000   1.0000   1.0000   1.0000   1.0000   1.0000   1.0000   1.0000
     1.0000   1.0000   1.0000   1.0000   1.0000   1.0000   1.0000   1.0000
     1.0000   1.0000   1.0000   1.0000   1.0000   1.0000   1.0000   1.0000
     1.0000   1.0000   1.0000   1.0000   1.0000   1.0000   1.0000   1.0000
     1.0000   1.0000   1.0000   1.0000   0.0000   0.0000   0.0000   0.0000
     0.0000   0.0000   0.0000   0.0000   0.0000   0.0000   0.0000   0.0000
     0.0000   0.0000   0.0000   0.0000   0.0000   0.0000   0.0000   0.0000
     0.0000   0.0000   0.0000   0.0000   0.0000   0.0000   0.0000   0.0000
     0.0000   0.0000   0.0000   0.0000   0.0000   0.0000   0.0000   0.0000
     0.0000   0.0000   0.0000   0.0000   0.0000   0.0000   0.0000   0.0000
     0.0000   0.0000   0.0000   0.0000   0.0000   0.0000   0.0000   0.0000
     0.0000   0.0000   0.0000   0.0000   0.0000   0.0000   0.0000   0.0000
     0.0000   0.0000   0.0000   0.0000   0.0000   0.0000   0.0000   0.0000
     0.0000   0.0000   0.0000   0.0000   0.0000   0.0000   0.0000   0.0000
     0.0000   0.0000   0.0000   0.0000   0.0000   0.0000   0.0000   0.0000
     0.0000   0.0000   0.0000   0.0000   0.0000   0.0000   0.0000   0.0000
     0.0000   0.0000   0.0000   0.0000   0.0000   0.0000   0.0000   0.0000
     0.0000   0.0000   0.0000   0.0000   0.0000   0.0000   0.0000   0.0000
     0.0000   0.0000   0.0000   0.0000   0.0000   0.0000   0.0000   0.0000
     0.0000   0.0000   0.0000   0.0000   0.0000   0.0000   0.0000   0.0000
     0.0000   0.0000   0.0000   0.0000   0.0000   0.0000   0.0000   0.0000
     0.0000   0.0000   0.0000   0.0000   0.0000   0.0000   0.0000   0.0000
     0.0000   0.0000   0.0000   0.0000   0.0000   0.0000   0.0000   0.0000
     0.0000   0.0000   0.0000   0.0000   0.0000   0.0000   0.0000   0.0000

     highest occupied, lowest unoccupied level (ev):     8.6082    8.9557

!    total energy              =   -1864.20975169 Ry
     estimated scf accuracy    <       0.00000008 Ry

     The total energy is the sum of the following terms:
     one-electron contribution =    -805.40988118 Ry
     hartree contribution      =     508.05060329 Ry
     xc contribution           =    -482.47652028 Ry
     ewald contribution        =   -1046.27876226 Ry
     one-center paw contrib.   =     -38.09519128 Ry
      -> PAW hartree energy AE =       0.00000000 Ry
      -> PAW hartree energy PS =       0.00000000 Ry
      -> PAW xc energy AE      =       0.00000000 Ry
      -> PAW xc energy PS      =       0.00000000 Ry
      -> total E_H with PAW    =     508.05060329 Ry
      -> total E_XC with PAW   =    -482.47652028 Ry

     convergence has been achieved in   9 iterations

     Writing all to output data dir bands_nm/myprefix.save/

     General routines

     Parallel routines

     PAW routines

   This run was terminated on:  18:41:15  15Jul2023

   JOB DONE.