     Program PWSCF v.7.1 starts on 13Jul2023 at  5:39:32

     Reading input from espresso_25300.pwi
Warning: card &CELL ignored
Warning: card / ignored

     Current dimensions of program PWSCF are:
     Max number of different atomic species (ntypx) = 10
     Max number of k-points (npk) =  40000
     Max angular momentum in pseudopotentials (lmaxx) =  4
     Message from routine setup:
     using ibrav=0 with symmetry is DISCOURAGED, use correct ibrav instead

     K-points division:     npool     =       2
     R & G space division:  proc/nbgrp/npool/nimage =       8
     Subspace diagonalization in iterative solution of the eigenvalue problem:
     a serial algorithm will be used

     Using Slab Decomposition

     bravais-lattice index     =            0
     lattice parameter (alat)  =      12.0276  a.u.
     unit-cell volume          =    1164.3398 (a.u.)^3
     number of atoms/cell      =           10
     number of atomic types    =            3
     number of electrons       =        88.00
     number of Kohn-Sham states=           64
     kinetic-energy cutoff     =      30.0000  Ry
     charge density cutoff     =     240.0000  Ry
     scf convergence threshold =      1.0E-06
     mixing beta               =       0.7000
     number of iterations used =            8  plain     mixing
     Exchange-correlation= PBE
                           (   1   4   3   4   0   0   0)

     celldm(1)=  12.027646  celldm(2)=   0.000000  celldm(3)=   0.000000
     celldm(4)=   0.000000  celldm(5)=   0.000000  celldm(6)=   0.000000

     crystal axes: (cart. coord. in units of alat)
               a(1) = (   1.000000   0.000000   0.000000 )
               a(2) = (  -0.430094   0.821710   0.000000 )
               a(3) = (   0.000000   0.000000   0.814365 )

     reciprocal axes: (cart. coord. in units 2 pi/alat)
               b(1) = (  1.000000  0.523414  0.000000 )
               b(2) = (  0.000000  1.216974  0.000000 )
               b(3) = (  0.000000  0.000000  1.227950 )

     PseudoPot. # 1 for Ge read from file:
     /lustre07/scratch/pragov/crystal_structure_design/utils/SSSP/ge_pbe_v1.4.uspp.F.UPF
     MD5 check sum: 9c9eaa91e581c3f09632fb3098b2c6b2
     Pseudo is Ultrasoft + core correction, Zval = 14.0
     Generated by new atomic code, or converted to UPF format
     Using radial grid of  873 points,  6 beta functions with:
                l(1) =   0
                l(2) =   0
                l(3) =   1
                l(4) =   1
                l(5) =   2
                l(6) =   2
     Q(r) pseudized with  8 coefficients,  rinner =    1.400   1.400   1.400
                                                       1.400   1.400

     PseudoPot. # 2 for Se read from file:
     /lustre07/scratch/pragov/crystal_structure_design/utils/SSSP/Se_pbe_v1.uspp.F.UPF
     MD5 check sum: 1b3568f3a8ae88f9a2a0ad0698632c85
     Pseudo is Ultrasoft + core correction, Zval =  6.0
     Generated by new atomic code, or converted to UPF format
     Using radial grid of  877 points,  6 beta functions with:
                l(1) =   0
                l(2) =   0
                l(3) =   1
                l(4) =   1
                l(5) =   2
                l(6) =   2
     Q(r) pseudized with  8 coefficients,  rinner =    1.300   1.300   1.300
                                                       1.300   1.300

     PseudoPot. # 3 for N  read from file:
     /lustre07/scratch/pragov/crystal_structure_design/utils/SSSP/N.pbe-n-radius_5.UPF
     MD5 check sum: 16739722b17309cd8fe442a2ace49922
     Pseudo is Ultrasoft + core correction, Zval =  5.0
     Generated using "atomic" code by A. Dal Corso  v.5.1
     Using radial grid of 1085 points,  4 beta functions with:
                l(1) =   0
                l(2) =   0
                l(3) =   1
                l(4) =   1
     Q(r) pseudized with 0 coefficients

     atomic species   valence    mass     pseudopotential
        Ge            14.00    72.63000     Ge( 1.00)
        Se             6.00    78.97100     Se( 1.00)
        N              5.00    14.00700     N ( 1.00)

      2 Sym. Ops. (no inversion) found ( 1 have fractional translation)

                                    s                        frac. trans.

      isym =  1     identity

 cryst.   s( 1) = (     1          0          0      )
                  (     0          1          0      )
                  (     0          0          1      )

 cart.    s( 1) = (  1.0000000  0.0000000  0.0000000 )
                  (  0.0000000  1.0000000  0.0000000 )
                  (  0.0000000  0.0000000  1.0000000 )

      isym =  2     180 deg rotation - cart. axis [0,0,1]

 cryst.   s( 2) = (    -1          0          0      )    f =( -0.0000000 )
                  (     0         -1          0      )       ( -0.0000000 )
                  (     0          0          1      )       (  0.5000000 )

 cart.    s( 2) = ( -1.0000000 -0.0000000  0.0000000 )    f =(  0.0000000 )
                  (  0.0000000 -1.0000000  0.0000000 )       ( -0.0000000 )
                  (  0.0000000  0.0000000  1.0000000 )       (  0.4071827 )

   Cartesian axes

     site n.     atom                  positions (alat units)
         1           Ge  tau(   1) = (   0.3532129   0.0279628   0.6789527  )
         2           Ge  tau(   2) = (   0.3456304   0.5474075   0.6789527  )
         3           Ge  tau(   3) = (   0.2166929   0.7937471   0.2717700  )
         4           Ge  tau(   4) = (   0.2242754   0.2743024   0.2717700  )
         5           Se  tau(   5) = (  -0.3054520   0.5835767   0.5489042  )
         6           Se  tau(   6) = (  -0.1246422   0.2381332   0.1417216  )
         7           N   tau(   7) = (   0.3983441   0.0744132   0.1476176  )
         8           N   tau(   8) = (   0.2817407   0.5367960   0.1476176  )
         9           N   tau(   9) = (   0.1715617   0.7472967   0.5548002  )
        10           N   tau(  10) = (   0.2881652   0.2849139   0.5548002  )

   Crystallographic axes

     site n.     atom                  positions (cryst. coord.)
         1           Ge  tau(   1) = (  0.3678490  0.0340300  0.8337200  )
         2           Ge  tau(   2) = (  0.6321510  0.6661810  0.8337200  )
         3           Ge  tau(   3) = (  0.6321510  0.9659700  0.3337200  )
         4           Ge  tau(   4) = (  0.3678490  0.3338190  0.3337200  )
         5           Se  tau(   5) = (  0.0000000  0.7101980  0.6740270  )
         6           Se  tau(   6) = (  0.0000000  0.2898020  0.1740270  )
         7           N   tau(   7) = (  0.4372930  0.0905590  0.1812670  )
         8           N   tau(   8) = (  0.5627070  0.6532670  0.1812670  )
         9           N   tau(   9) = (  0.5627070  0.9094410  0.6812670  )
        10           N   tau(  10) = (  0.4372930  0.3467330  0.6812670  )

     number of k points=    10
                       cart. coord. in units 2pi/alat
        k(    1) = (   0.0000000   0.0000000   0.0000000), wk =   0.0740741
        k(    2) = (   0.0000000   0.0000000   0.4093167), wk =   0.1481481
        k(    3) = (   0.0000000   0.4056582   0.0000000), wk =   0.1481481
        k(    4) = (   0.0000000   0.4056582   0.4093167), wk =   0.2962963
        k(    5) = (   0.3333333   0.1744712   0.0000000), wk =   0.1481481
        k(    6) = (   0.3333333   0.1744712   0.4093167), wk =   0.2962963
        k(    7) = (   0.3333333   0.5801294   0.0000000), wk =   0.1481481
        k(    8) = (   0.3333333   0.5801294   0.4093167), wk =   0.2962963
        k(    9) = (   0.3333333  -0.2311869   0.0000000), wk =   0.1481481
        k(   10) = (   0.3333333  -0.2311869   0.4093167), wk =   0.2962963

                       cryst. coord.
        k(    1) = (   0.0000000   0.0000000   0.0000000), wk =   0.0740741
        k(    2) = (   0.0000000   0.0000000   0.3333333), wk =   0.1481481
        k(    3) = (   0.0000000   0.3333333   0.0000000), wk =   0.1481481
        k(    4) = (   0.0000000   0.3333333   0.3333333), wk =   0.2962963
        k(    5) = (   0.3333333   0.0000000   0.0000000), wk =   0.1481481
        k(    6) = (   0.3333333   0.0000000   0.3333333), wk =   0.2962963
        k(    7) = (   0.3333333   0.3333333   0.0000000), wk =   0.1481481
        k(    8) = (   0.3333333   0.3333333   0.3333333), wk =   0.2962963
        k(    9) = (   0.3333333  -0.3333333   0.0000000), wk =   0.1481481
        k(   10) = (   0.3333333  -0.3333333   0.3333333), wk =   0.2962963

     Check: negative core charge=   -0.000002

     Initial potential from superposition of free atoms

     starting charge      87.9963, renormalised to      88.0000
     Starting wfcs are   60 randomized atomic wfcs +    4 random wfcs

     Self-consistent Calculation

     iteration #  1     ecut=    30.00 Ry     beta= 0.70
     Davidson diagonalization with overlap

     ethr =  1.00E-02,  avg # of iterations =  5.5

     total energy              =   -1021.37558778 Ry
     estimated scf accuracy    <       2.29898086 Ry

[...]

     total energy              =   -1022.47635870 Ry
     estimated scf accuracy    <       0.00000772 Ry

     iteration #  8     ecut=    30.00 Ry     beta= 0.70
     Davidson diagonalization with overlap

     ethr =  8.77E-09,  avg # of iterations =  2.0

     End of self-consistent calculation

          k = 0.0000 0.0000 0.0000 (  3239 PWs)   bands (ev):

   -18.3925 -18.3893 -18.3829 -18.3125 -18.3124 -18.2763 -18.2751 -18.2668
   -18.2607 -18.2584 -18.2444 -18.2345 -18.2189 -18.2156 -18.2138 -18.2080
   -18.2019 -18.1996 -18.1898 -18.1841 -10.6410  -8.2516  -8.0604  -8.0458
    -5.8118  -5.6311  -2.6972  -2.6758  -2.5430   0.5678   0.7736   1.0223
     1.7391   2.9962   3.1601   3.4301   3.9734   4.0054   4.8946   5.1996
     5.2663   5.8623   5.9952   6.0812   7.8963   9.2638   9.2988  10.6421
    10.8589  11.8365  12.0433  12.5796  12.9742  13.2080  13.5984  14.1495
    14.2368  15.0473  15.0542  15.4401  15.7905  16.1527  16.5958  17.1901

     occupation numbers
     1.0000   1.0000   1.0000   1.0000   1.0000   1.0000   1.0000   1.0000
     1.0000   1.0000   1.0000   1.0000   1.0000   1.0000   1.0000   1.0000
     1.0000   1.0000   1.0000   1.0000   1.0000   1.0000   1.0000   1.0000
     1.0000   1.0000   1.0000   1.0000   1.0000   1.0000   1.0000   1.0000
     1.0000   1.0000   1.0000   1.0000   1.0000   1.0000   1.0000   1.0000
     1.0000   1.0000   1.0000   1.0000   0.0000   0.0000   0.0000   0.0000
     0.0000   0.0000   0.0000   0.0000   0.0000   0.0000   0.0000   0.0000
     0.0000   0.0000   0.0000   0.0000   0.0000   0.0000   0.0000   0.0000

[...]

          k = 0.3333-0.2312 0.4093 (  3229 PWs)   bands (ev):

   -18.3895 -18.3793 -18.3711 -18.3495 -18.2911 -18.2802 -18.2696 -18.2676
   -18.2608 -18.2577 -18.2470 -18.2428 -18.2152 -18.2132 -18.2083 -18.2065
   -18.1961 -18.1949 -18.1932 -18.1920  -9.8551  -8.9734  -8.7120  -8.1095
    -5.8672  -5.7250  -2.7284  -1.8786  -1.3100   0.3253   1.0141   1.2578
     1.8853   2.4977   2.7702   3.0758   3.5106   3.7706   4.5546   4.8452
     5.2260   5.5268   6.0968   6.2058   9.1491   9.2664   9.7616  10.3539
    11.7168  11.8625  12.2270  12.5499  12.7767  13.2390  13.6969  13.9628
    14.3918  14.5635  15.2137  15.5843  15.8296  15.9904  16.9142  17.0992

     occupation numbers
     1.0000   1.0000   1.0000   1.0000   1.0000   1.0000   1.0000   1.0000
     1.0000   1.0000   1.0000   1.0000   1.0000   1.0000   1.0000   1.0000
     1.0000   1.0000   1.0000   1.0000   1.0000   1.0000   1.0000   1.0000
     1.0000   1.0000   1.0000   1.0000   1.0000   1.0000   1.0000   1.0000
     1.0000   1.0000   1.0000   1.0000   1.0000   1.0000   1.0000   1.0000
     1.0000   1.0000   1.0000   1.0000   0.0000   0.0000   0.0000   0.0000
     0.0000   0.0000   0.0000   0.0000   0.0000   0.0000   0.0000   0.0000
     0.0000   0.0000   0.0000   0.0000   0.0000   0.0000   0.0000   0.0000

     highest occupied, lowest unoccupied level (ev):     6.2302    7.8963

!    total energy              =   -1022.47636007 Ry
     estimated scf accuracy    <       0.00000027 Ry

     The total energy is the sum of the following terms:
     one-electron contribution =    -737.14231615 Ry
     hartree contribution      =     435.65938721 Ry
     xc contribution           =    -314.72385404 Ry
     ewald contribution        =    -406.26957709 Ry

     convergence has been achieved in   8 iterations

     Writing all to output data dir bands_nm/myprefix.save/

     General routines

     Parallel routines

   This run was terminated on:   5:39:42  13Jul2023

   JOB DONE.