     Program PWSCF v.7.1 starts on 15Jul2023 at 21: 3:47

     Reading input from espresso_7168.pwi
Warning: card &CELL ignored
Warning: card / ignored

     Current dimensions of program PWSCF are:
     Max number of different atomic species (ntypx) = 10
     Max number of k-points (npk) =  40000
     Max angular momentum in pseudopotentials (lmaxx) =  4
     file In.pbe-dn-rrkjus_psl.0.2.2.UPF: wavefunction(s)  5S renormalized
     Message from routine setup:
     using ibrav=0 with symmetry is DISCOURAGED, use correct ibrav instead

     K-points division:     npool     =       2
     R & G space division:  proc/nbgrp/npool/nimage =       4
     Subspace diagonalization in iterative solution of the eigenvalue problem:
     one sub-group per band group will be used

     Using Slab Decomposition

     bravais-lattice index     =            0
     lattice parameter (alat)  =      11.9548  a.u.
     unit-cell volume          =    3469.4072 (a.u.)^3
     number of atoms/cell      =           14
     number of atomic types    =            3
     number of electrons       =       132.00
     number of Kohn-Sham states=          256
     kinetic-energy cutoff     =      30.0000  Ry
     charge density cutoff     =     240.0000  Ry
     scf convergence threshold =      1.0E-06
     mixing beta               =       0.7000
     number of iterations used =            8  plain     mixing
     Exchange-correlation= SLA  PW   PBE  PBE
                           (   1   4   3   4   0   0   0)

     celldm(1)=  11.954835  celldm(2)=   0.000000  celldm(3)=   0.000000
     celldm(4)=   0.000000  celldm(5)=   0.000000  celldm(6)=   0.000000

     crystal axes: (cart. coord. in units of alat)
               a(1) = (   1.000000   0.000000   0.000000 )
               a(2) = (   0.000000   1.000000   0.000000 )
               a(3) = (   0.000000   0.000000   2.030601 )

     reciprocal axes: (cart. coord. in units 2 pi/alat)
               b(1) = (  1.000000  0.000000  0.000000 )
               b(2) = (  0.000000  1.000000  0.000000 )
               b(3) = (  0.000000  0.000000  0.492465 )

     PseudoPot. # 1 for In read from file:
     /lustre07/scratch/pragov/crystal_structure_design/utils/SSSP/In.pbe-dn-rrkjus_psl.0.2.2.UPF
     MD5 check sum: 25e7c42c3b55b68f4bf926be2e7201a4
     Pseudo is Ultrasoft + core correction, Zval = 13.0
     Generated using "atomic" code by A. Dal Corso  v.5.0.99 svn rev. 10869
     Using radial grid of 1241 points,  6 beta functions with:
                l(1) =   0
                l(2) =   0
                l(3) =   1
                l(4) =   1
                l(5) =   2
                l(6) =   2
     Q(r) pseudized with 0 coefficients

     PseudoPot. # 2 for Ag read from file:
     /lustre07/scratch/pragov/crystal_structure_design/utils/SSSP/Ag_ONCV_PBE-1.0.oncvpsp.upf
     MD5 check sum: 94f47bd0669c641108e45594df92fabc
     Pseudo is Norm-conserving, Zval = 19.0
     Generated using ONCVPSP code by D. R. Hamann
     Using radial grid of 1398 points,  6 beta functions with:
                l(1) =   0
                l(2) =   0
                l(3) =   1
                l(4) =   1
                l(5) =   2
                l(6) =   2

     PseudoPot. # 3 for Te read from file:
     /lustre07/scratch/pragov/crystal_structure_design/utils/SSSP/Te_pbe_v1.uspp.F.UPF
     MD5 check sum: c319670d6894cc26e93307826a071b75
     Pseudo is Ultrasoft + core correction, Zval =  6.0
     Generated by new atomic code, or converted to UPF format
     Using radial grid of  891 points,  5 beta functions with:
                l(1) =   0
                l(2) =   0
                l(3) =   1
                l(4) =   1
                l(5) =   2
     Q(r) pseudized with  6 coefficients,  rinner =    1.800   1.800   1.800
                                                       1.800   1.800

     atomic species   valence    mass     pseudopotential
        In            13.00   114.81800     In( 1.00)
        Ag            19.00   107.86820     Ag( 1.00)
        Te             6.00   127.60000     Te( 1.00)

      8 Sym. Ops. (no inversion) found

                                    s                        frac. trans.

      isym =  1     identity

 cryst.   s( 1) = (     1          0          0      )
                  (     0          1          0      )
                  (     0          0          1      )

 cart.    s( 1) = (  1.0000000  0.0000000  0.0000000 )
                  (  0.0000000  1.0000000  0.0000000 )
                  (  0.0000000  0.0000000  1.0000000 )

      isym =  2     180 deg rotation - cart. axis [0,0,1]

[...]

      isym =  4     180 deg rotation - cart. axis [1,0,0]

[...]

      isym =  5     inv. 180 deg rotation - cart. axis [1,1,0]

[...]

      isym =  8     inv.  90 deg rotation - cart. axis [0,0,1]

 cryst.   s( 8) = (     0         -1          0      )
                  (     1          0          0      )
                  (     0          0         -1      )

 cart.    s( 8) = (  0.0000000  1.0000000  0.0000000 )
                  ( -1.0000000  0.0000000  0.0000000 )
                  (  0.0000000  0.0000000 -1.0000000 )

   Cartesian axes

     site n.     atom                  positions (alat units)
         1           In  tau(   1) = (   0.0000000   0.5000000   0.5171798  )
         2           In  tau(   2) = (   0.0000000   0.5000000   1.5134210  )
         3           In  tau(   3) = (   0.5000000   0.0000000   1.5134210  )
         4           In  tau(   4) = (   0.5000000   0.5000000   0.0000000  )
         5           In  tau(   5) = (   0.5000000   0.0000000   0.5171798  )
         6           Ag  tau(   6) = (   0.0000000   0.0000000   1.0153004  )
         7           Te  tau(   7) = (   0.7292670   0.2707330   0.7850242  )
         8           Te  tau(   8) = (   0.2226580   0.7773420   1.8040731  )
         9           Te  tau(   9) = (   0.7773420   0.2226580   1.8040731  )
        10           Te  tau(  10) = (   0.7773420   0.7773420   0.2265277  )
        11           Te  tau(  11) = (   0.2707330   0.7292670   0.7850242  )
        12           Te  tau(  12) = (   0.2226580   0.2226580   0.2265277  )
        13           Te  tau(  13) = (   0.7292670   0.7292670   1.2455767  )
        14           Te  tau(  14) = (   0.2707330   0.2707330   1.2455767  )

   Crystallographic axes

     site n.     atom                  positions (cryst. coord.)
         1           In  tau(   1) = (  0.0000000  0.5000000  0.2546930  )
         2           In  tau(   2) = (  0.0000000  0.5000000  0.7453070  )
         3           In  tau(   3) = (  0.5000000  0.0000000  0.7453070  )
         4           In  tau(   4) = (  0.5000000  0.5000000  0.0000000  )
         5           In  tau(   5) = (  0.5000000  0.0000000  0.2546930  )
         6           Ag  tau(   6) = (  0.0000000  0.0000000  0.5000000  )
         7           Te  tau(   7) = (  0.7292670  0.2707330  0.3865970  )
         8           Te  tau(   8) = (  0.2226580  0.7773420  0.8884430  )
         9           Te  tau(   9) = (  0.7773420  0.2226580  0.8884430  )
        10           Te  tau(  10) = (  0.7773420  0.7773420  0.1115570  )
        11           Te  tau(  11) = (  0.2707330  0.7292670  0.3865970  )
        12           Te  tau(  12) = (  0.2226580  0.2226580  0.1115570  )
        13           Te  tau(  13) = (  0.7292670  0.7292670  0.6134030  )
        14           Te  tau(  14) = (  0.2707330  0.2707330  0.6134030  )

     number of k points=     6
                       cart. coord. in units 2pi/alat
        k(    1) = (   0.0000000   0.0000000   0.0000000), wk =   0.0740741
        k(    2) = (   0.0000000   0.0000000   0.1641550), wk =   0.1481481
        k(    3) = (   0.0000000   0.3333333   0.0000000), wk =   0.2962963
        k(    4) = (   0.0000000   0.3333333   0.1641550), wk =   0.5925926
        k(    5) = (   0.3333333   0.3333333   0.0000000), wk =   0.2962963
        k(    6) = (   0.3333333   0.3333333   0.1641550), wk =   0.5925926

                       cryst. coord.
        k(    1) = (   0.0000000   0.0000000   0.0000000), wk =   0.0740741
        k(    2) = (   0.0000000   0.0000000   0.3333333), wk =   0.1481481
        k(    3) = (   0.0000000   0.3333333   0.0000000), wk =   0.2962963
        k(    4) = (   0.0000000   0.3333333   0.3333333), wk =   0.5925926
        k(    5) = (   0.3333333   0.3333333   0.0000000), wk =   0.2962963
        k(    6) = (   0.3333333   0.3333333   0.3333333), wk =   0.5925926

     Initial potential from superposition of free atoms

     starting charge     131.9794, renormalised to     132.0000
     Starting wfcs are   87 randomized atomic wfcs +  169 random wfcs

     Self-consistent Calculation

     iteration #  1     ecut=    30.00 Ry     beta= 0.70
     Davidson diagonalization with overlap

     ethr =  1.00E-02,  avg # of iterations =  7.3

     Threshold (ethr) on eigenvalues was too large:
     Diagonalizing with lowered threshold

     Davidson diagonalization with overlap

[...]

     total energy              =   -1223.35546545 Ry
     estimated scf accuracy    <       0.47347149 Ry

[...]

     total energy              =   -1223.56755789 Ry
     estimated scf accuracy    <       0.00000688 Ry

     iteration # 11     ecut=    30.00 Ry     beta= 0.70
     Davidson diagonalization with overlap

     ethr =  5.21E-09,  avg # of iterations =  1.0

     End of self-consistent calculation

          k = 0.0000 0.0000 0.0000 (  9623 PWs)   bands (ev):

   -86.9360 -49.9908 -49.9908 -49.9378  -9.7560  -9.7198  -9.7198  -9.6544
    -9.6418  -9.5102  -9.5102  -9.4971  -9.4924  -9.4855  -9.4855  -9.4438
    -9.4438  -9.4363  -9.4363  -9.4012  -9.4010  -9.3981  -9.3968  -9.3794
    -9.3792  -9.3773  -9.3773  -9.3585  -9.3585  -6.5535  -6.0130  -5.7240
    -5.3848  -5.3848  -5.2060  -4.9618  -4.9618  -0.7712  -0.6771  -0.5811
     0.4802   0.5909   1.3463   1.6036   1.6036   1.8093   1.8416   2.2143
     2.2716   2.2907   2.2907   2.3790   2.6207   2.8482   2.8482   3.0449
     3.1912   3.1912   3.4105   3.4105   3.9868   4.0480   4.0480   4.7619
     5.1426   5.1426   5.4291   5.9441   5.9903   6.8095   7.0663   7.0663
     7.1750   7.2959   7.6403   8.2910   8.3101   8.8050   8.8050   9.1626
     9.1626   9.8718   9.9810  10.2742  10.2742  10.3221  10.5217  10.5217
    10.8875  11.3052  11.3517  12.0634  12.0634  12.2552  12.4866  12.7522
    13.1317  13.8444  13.9154  14.4133  14.4133  14.6542  14.6620  14.6620
    14.8882  15.0811  15.1137  15.1281  15.3179  15.3179  15.5502  15.6142
    15.7414  15.8335  15.9356  15.9356  16.2777  16.2777  16.4356  16.6377
    16.6505  16.6505  16.8337  16.8337  16.9010  16.9563  16.9563  16.9799
    17.1171  17.1241  17.2658  17.2658  17.3575  17.4782  17.4782  17.6953
    17.7878  18.2243  18.2483  18.2483  18.6633  19.2347  19.2347  19.3173
    19.6182  20.4444  20.4444  20.5285  20.6569  20.7777  20.8804  20.8804
    20.9448  21.0790  21.0790  21.1466  21.3341  21.5733  21.5733  21.6446
    21.6446  21.6513  21.7895  21.8061  21.8061  21.8764  21.9638  22.0043
    22.0043  22.0199  22.1866  22.2045  22.3510  22.4031  22.4031  22.4074
    22.6482  22.7152  22.7152  22.8527  22.9117  23.0626  23.2506  23.2506
    23.3176  23.4030  23.5850  23.9326  23.9488  24.0922  24.5372  25.0002
    25.0002  25.9443  26.4914  26.4914  26.6380  26.6380  27.0176  27.0176
    27.0722  27.0794  27.2350  27.2350  27.2923  27.6299  27.6299  27.6416
    27.8797  27.8797  27.9324  28.0058  28.0393  28.0393  28.3025  28.3503
    28.3503  28.3635  28.3653  28.5831  28.6852  28.7583  28.8062  28.8869
    29.0553  29.0579  29.0580  29.1114  29.3311  29.3311  29.3739  29.7414
    29.7414  29.8300  29.8314  30.0548  30.0548  30.0719  30.0844  30.7495
    30.9586  30.9586  31.4607  31.6344  31.6487  31.6487  31.6635  31.9458
    32.0339  32.3307  32.3527  32.3528  32.4596  32.7240  32.7251  32.8661

     occupation numbers
     1.0000   1.0000   1.0000   1.0000   1.0000   1.0000   1.0000   1.0000
     1.0000   1.0000   1.0000   1.0000   1.0000   1.0000   1.0000   1.0000
     1.0000   1.0000   1.0000   1.0000   1.0000   1.0000   1.0000   1.0000
     1.0000   1.0000   1.0000   1.0000   1.0000   1.0000   1.0000   1.0000
     1.0000   1.0000   1.0000   1.0000   1.0000   1.0000   1.0000   1.0000
     1.0000   1.0000   1.0000   1.0000   1.0000   1.0000   1.0000   1.0000
     1.0000   1.0000   1.0000   1.0000   1.0000   1.0000   1.0000   1.0000
     1.0000   1.0000   1.0000   1.0000   1.0000   1.0000   1.0000   1.0000
     1.0000   1.0000   0.0000   0.0000   0.0000   0.0000   0.0000   0.0000
     0.0000   0.0000   0.0000   0.0000   0.0000   0.0000   0.0000   0.0000
     0.0000   0.0000   0.0000   0.0000   0.0000   0.0000   0.0000   0.0000
     0.0000   0.0000   0.0000   0.0000   0.0000   0.0000   0.0000   0.0000
     0.0000   0.0000   0.0000   0.0000   0.0000   0.0000   0.0000   0.0000
     0.0000   0.0000   0.0000   0.0000   0.0000   0.0000   0.0000   0.0000
     0.0000   0.0000   0.0000   0.0000   0.0000   0.0000   0.0000   0.0000
     0.0000   0.0000   0.0000   0.0000   0.0000   0.0000   0.0000   0.0000
     0.0000   0.0000   0.0000   0.0000   0.0000   0.0000   0.0000   0.0000
     0.0000   0.0000   0.0000   0.0000   0.0000   0.0000   0.0000   0.0000
     0.0000   0.0000   0.0000   0.0000   0.0000   0.0000   0.0000   0.0000
     0.0000   0.0000   0.0000   0.0000   0.0000   0.0000   0.0000   0.0000
     0.0000   0.0000   0.0000   0.0000   0.0000   0.0000   0.0000   0.0000
     0.0000   0.0000   0.0000   0.0000   0.0000   0.0000   0.0000   0.0000
     0.0000   0.0000   0.0000   0.0000   0.0000   0.0000   0.0000   0.0000
     0.0000   0.0000   0.0000   0.0000   0.0000   0.0000   0.0000   0.0000
     0.0000   0.0000   0.0000   0.0000   0.0000   0.0000   0.0000   0.0000
     0.0000   0.0000   0.0000   0.0000   0.0000   0.0000   0.0000   0.0000
     0.0000   0.0000   0.0000   0.0000   0.0000   0.0000   0.0000   0.0000
     0.0000   0.0000   0.0000   0.0000   0.0000   0.0000   0.0000   0.0000
     0.0000   0.0000   0.0000   0.0000   0.0000   0.0000   0.0000   0.0000
     0.0000   0.0000   0.0000   0.0000   0.0000   0.0000   0.0000   0.0000
     0.0000   0.0000   0.0000   0.0000   0.0000   0.0000   0.0000   0.0000
     0.0000   0.0000   0.0000   0.0000   0.0000   0.0000   0.0000   0.0000

[...]

          k = 0.3333 0.3333 0.1642 (  9625 PWs)   bands (ev):

   -86.9360 -49.9912 -49.9912 -49.9375  -9.7613  -9.7168  -9.7164  -9.6539
    -9.6409  -9.5134  -9.5066  -9.4954  -9.4875  -9.4748  -9.4581  -9.4549
    -9.4475  -9.4427  -9.4352  -9.4254  -9.4244  -9.3927  -9.3893  -9.3881
    -9.3827  -9.3701  -9.3694  -9.3654  -9.3646  -6.0908  -5.7941  -5.7140
    -5.6255  -5.4326  -5.3577  -5.2049  -5.1064  -0.5872  -0.4811  -0.2617
    -0.1705   0.1279   1.3173   1.4215   1.6311   1.6373   1.6769   1.8485
     2.0083   2.1769   2.3917   2.4867   2.6562   2.8862   3.0898   3.1163
     3.4108   3.4324   3.5043   3.6799   3.9241   4.0006   4.1573   4.4184
     4.6790   5.1433   6.0553   6.4129   6.5828   6.6225   6.9150   8.2212
     8.3402   8.5017   8.6214   8.7652   8.8094   9.1785   9.2301   9.2450
     9.4596   9.6656   9.7429   9.9692  10.0039  10.2771  10.3579  10.6746
    11.2947  11.4347  11.5126  11.6536  11.9850  12.0227  12.3411  12.3761
    12.4871  12.7238  12.7437  13.0779  13.3736  13.4498  13.6108  13.6461
    13.8472  14.0209  14.0482  14.2422  14.4930  14.5602  14.7624  14.8536
    15.0205  15.3092  15.3261  15.4626  15.4741  15.6131  15.7543  15.8473
    15.9421  16.1136  16.3854  16.3990  16.5867  16.9007  17.0063  17.2450
    17.2490  17.5678  17.6206  17.6876  18.0574  18.0645  18.3501  18.4448
    18.7403  18.8300  19.2623  19.4004  19.5965  19.6009  19.8866  19.9439
    19.9787  20.1150  20.2244  20.4480  20.5481  20.5804  20.7463  20.8796
    21.0586  21.1647  21.2122  21.2950  21.3395  21.5750  21.6515  21.7808
    21.8660  21.8949  22.1505  22.2486  22.2632  22.5492  22.6214  22.6948
    22.8718  22.8878  23.0236  23.0738  23.3074  23.3685  23.4477  23.5651
    23.7892  23.8233  23.8530  24.0590  24.2623  24.4216  24.7531  24.7592
    24.8327  24.9404  25.0244  25.0577  25.2242  25.5775  25.6302  25.8648
    25.9072  26.2524  26.2925  26.4407  26.4531  26.7069  26.7812  26.9070
    27.0166  27.0801  27.1104  27.1709  27.2565  27.2694  27.3392  27.4669
    27.6108  27.6139  27.7673  27.8209  28.0220  28.0398  28.1850  28.2340
    28.2504  28.4015  28.4579  28.5280  28.5587  28.8020  28.8703  28.9019
    28.9841  28.9904  29.0858  29.2578  29.2979  29.3159  29.3518  29.4218
    29.4752  29.4924  29.6170  29.6476  29.7086  29.8117  29.8683  29.9445
    29.9522  30.0770  30.2790  30.3538  30.5303  30.6531  30.6744  30.8514
    31.0180  31.0341  31.1675  31.3836  31.4396  31.5399  31.7106  31.8382

     occupation numbers
     1.0000   1.0000   1.0000   1.0000   1.0000   1.0000   1.0000   1.0000
     1.0000   1.0000   1.0000   1.0000   1.0000   1.0000   1.0000   1.0000
     1.0000   1.0000   1.0000   1.0000   1.0000   1.0000   1.0000   1.0000
     1.0000   1.0000   1.0000   1.0000   1.0000   1.0000   1.0000   1.0000
     1.0000   1.0000   1.0000   1.0000   1.0000   1.0000   1.0000   1.0000
     1.0000   1.0000   1.0000   1.0000   1.0000   1.0000   1.0000   1.0000
     1.0000   1.0000   1.0000   1.0000   1.0000   1.0000   1.0000   1.0000
     1.0000   1.0000   1.0000   1.0000   1.0000   1.0000   1.0000   1.0000
     1.0000   1.0000   0.0000   0.0000   0.0000   0.0000   0.0000   0.0000
     0.0000   0.0000   0.0000   0.0000   0.0000   0.0000   0.0000   0.0000
     0.0000   0.0000   0.0000   0.0000   0.0000   0.0000   0.0000   0.0000
     0.0000   0.0000   0.0000   0.0000   0.0000   0.0000   0.0000   0.0000
     0.0000   0.0000   0.0000   0.0000   0.0000   0.0000   0.0000   0.0000
     0.0000   0.0000   0.0000   0.0000   0.0000   0.0000   0.0000   0.0000
     0.0000   0.0000   0.0000   0.0000   0.0000   0.0000   0.0000   0.0000
     0.0000   0.0000   0.0000   0.0000   0.0000   0.0000   0.0000   0.0000
     0.0000   0.0000   0.0000   0.0000   0.0000   0.0000   0.0000   0.0000
     0.0000   0.0000   0.0000   0.0000   0.0000   0.0000   0.0000   0.0000
     0.0000   0.0000   0.0000   0.0000   0.0000   0.0000   0.0000   0.0000
     0.0000   0.0000   0.0000   0.0000   0.0000   0.0000   0.0000   0.0000
     0.0000   0.0000   0.0000   0.0000   0.0000   0.0000   0.0000   0.0000
     0.0000   0.0000   0.0000   0.0000   0.0000   0.0000   0.0000   0.0000
     0.0000   0.0000   0.0000   0.0000   0.0000   0.0000   0.0000   0.0000
     0.0000   0.0000   0.0000   0.0000   0.0000   0.0000   0.0000   0.0000
     0.0000   0.0000   0.0000   0.0000   0.0000   0.0000   0.0000   0.0000
     0.0000   0.0000   0.0000   0.0000   0.0000   0.0000   0.0000   0.0000
     0.0000   0.0000   0.0000   0.0000   0.0000   0.0000   0.0000   0.0000
     0.0000   0.0000   0.0000   0.0000   0.0000   0.0000   0.0000   0.0000
     0.0000   0.0000   0.0000   0.0000   0.0000   0.0000   0.0000   0.0000
     0.0000   0.0000   0.0000   0.0000   0.0000   0.0000   0.0000   0.0000
     0.0000   0.0000   0.0000   0.0000   0.0000   0.0000   0.0000   0.0000
     0.0000   0.0000   0.0000   0.0000   0.0000   0.0000   0.0000   0.0000

     highest occupied, lowest unoccupied level (ev):     5.1433    5.4291

!    total energy              =   -1223.56755804 Ry
     estimated scf accuracy    <       0.00000054 Ry

     The total energy is the sum of the following terms:
     one-electron contribution =    -647.10872401 Ry
     hartree contribution      =     393.27065644 Ry
     xc contribution           =    -380.59850627 Ry
     ewald contribution        =    -589.13098420 Ry

     convergence has been achieved in  11 iterations

     Writing all to output data dir bands_nm/myprefix.save/

     General routines

     Parallel routines

   This run was terminated on:  21: 4:44  15Jul2023

   JOB DONE.