     Program PWSCF v.7.1 starts on 16Jul2023 at 20:54:53

     Reading input from espresso_16188.pwi
Warning: card &CELL ignored
Warning: card / ignored

     Current dimensions of program PWSCF are:
     Max number of different atomic species (ntypx) = 10
     Max number of k-points (npk) =  40000
     Max angular momentum in pseudopotentials (lmaxx) =  4
     file K.pbe-spn-kjpaw_psl.1.0.0.UPF: wavefunction(s)  3S renormalized
     Message from routine setup:
     using ibrav=0 with symmetry is DISCOURAGED, use correct ibrav instead

     K-points division:     npool     =       2
     R & G space division:  proc/nbgrp/npool/nimage =       4
     Subspace diagonalization in iterative solution of the eigenvalue problem:
     one sub-group per band group will be used

     Using Slab Decomposition

     bravais-lattice index     =            0
     lattice parameter (alat)  =      15.1932  a.u.
     unit-cell volume          =    4520.7723 (a.u.)^3
     number of atoms/cell      =           18
     number of atomic types    =            3
     number of electrons       =       132.00
     number of Kohn-Sham states=          256
     kinetic-energy cutoff     =      30.0000  Ry
     charge density cutoff     =     240.0000  Ry
     scf convergence threshold =      1.0E-06
     mixing beta               =       0.7000
     number of iterations used =            8  plain     mixing
     Exchange-correlation=  SLA  PW   PBX  PBC
                           (   1   4   3   4   0   0   0)

     celldm(1)=  15.193152  celldm(2)=   0.000000  celldm(3)=   0.000000
     celldm(4)=   0.000000  celldm(5)=   0.000000  celldm(6)=   0.000000

     crystal axes: (cart. coord. in units of alat)
               a(1) = (   1.000000   0.000000   0.000000 )
               a(2) = (   0.000000   0.956366   0.000000 )
               a(3) = (   0.000000   0.950583   1.347860 )

     reciprocal axes: (cart. coord. in units 2 pi/alat)
               b(1) = (  1.000000  0.000000  0.000000 )
               b(2) = (  0.000000  1.045625 -0.737431 )
               b(3) = (  0.000000  0.000000  0.741917 )

     PseudoPot. # 1 for K  read from file:
     /lustre07/scratch/pragov/crystal_structure_design/utils/SSSP/K.pbe-spn-kjpaw_psl.1.0.0.UPF
     MD5 check sum: 7d58810084cac21f60fbe77ea2b688fd
     Pseudo is Projector augmented-wave + core cor, Zval =  9.0
     Generated using "atomic" code by A. Dal Corso  v.5.1
     Shape of augmentation charge: PSQ
     Using radial grid of 1165 points,  6 beta functions with:
                l(1) =   0
                l(2) =   0
                l(3) =   1
                l(4) =   1
                l(5) =   2
                l(6) =   2
     Q(r) pseudized with 0 coefficients

     PseudoPot. # 2 for Te read from file:
     /lustre07/scratch/pragov/crystal_structure_design/utils/SSSP/Te_pbe_v1.uspp.F.UPF
     MD5 check sum: c319670d6894cc26e93307826a071b75
     Pseudo is Ultrasoft + core correction, Zval =  6.0
     Generated by new atomic code, or converted to UPF format
     Using radial grid of  891 points,  5 beta functions with:
                l(1) =   0
                l(2) =   0
                l(3) =   1
                l(4) =   1
                l(5) =   2
     Q(r) pseudized with  6 coefficients,  rinner =    1.800   1.800   1.800
                                                       1.800   1.800

     PseudoPot. # 3 for Br read from file:
     /lustre07/scratch/pragov/crystal_structure_design/utils/SSSP/br_pbe_v1.4.uspp.F.UPF
     MD5 check sum: d3ffb7b29f6225aa16fe06858fb2a80b
     Pseudo is Ultrasoft + core correction, Zval =  7.0
     Generated by new atomic code, or converted to UPF format
     Using radial grid of  879 points,  6 beta functions with:
                l(1) =   0
                l(2) =   0
                l(3) =   1
                l(4) =   1
                l(5) =   2
                l(6) =   2
     Q(r) pseudized with  8 coefficients,  rinner =    1.100   1.100   1.100
                                                       1.100   1.100

     atomic species   valence    mass     pseudopotential
        K              9.00    39.09830     K ( 1.00)
        Te             6.00   127.60000     Te( 1.00)
        Br             7.00    79.90400     Br( 1.00)

      4 Sym. Ops., with inversion, found ( 2 have fractional translation)

                                    s                        frac. trans.

      isym =  1     identity

 cryst.   s( 1) = (     1          0          0      )
                  (     0          1          0      )
                  (     0          0          1      )

 cart.    s( 1) = (  1.0000000  0.0000000  0.0000000 )
                  (  0.0000000  1.0000000 -0.0000000 )
                  (  0.0000000  0.0000000  1.0000000 )

      isym =  2     180 deg rotation - cart. axis [1,0,0]

 cryst.   s( 2) = (     1          0          0      )    f =( -0.5000000 )
                  (     0         -1          0      )       ( -0.0000000 )
                  (     0          0         -1      )       ( -0.5000000 )

 cart.    s( 2) = (  1.0000000  0.0000000  0.0000000 )    f =( -0.5000000 )
                  (  0.0000000 -1.0000000  0.0000000 )       ( -0.4752915 )
                  (  0.0000000  0.0000000 -1.0000000 )       ( -0.6739302 )

      isym =  3     inversion

 cryst.   s( 3) = (    -1          0          0      )
                  (     0         -1          0      )
                  (     0          0         -1      )

 cart.    s( 3) = ( -1.0000000  0.0000000  0.0000000 )
                  (  0.0000000 -1.0000000  0.0000000 )
                  (  0.0000000  0.0000000 -1.0000000 )

      isym =  4     inv. 180 deg rotation - cart. axis [1,0,0]

 cryst.   s( 4) = (    -1          0          0      )    f =(  0.5000000 )
                  (     0          1          0      )       ( -0.0000000 )
                  (     0          0          1      )       ( -0.5000000 )

 cart.    s( 4) = ( -1.0000000  0.0000000  0.0000000 )    f =(  0.5000000 )
                  (  0.0000000  1.0000000 -0.0000000 )       ( -0.4752915 )
                  (  0.0000000  0.0000000  1.0000000 )       ( -0.6739302 )

   Cartesian axes

     site n.     atom                  positions (alat units)
         1           K   tau(   1) = (   0.0722310   0.4919271   0.3356482  )
         2           K   tau(   2) = (   0.5722310   0.9397303   0.3382819  )
         3           K   tau(   3) = (   0.9277690   1.4150218   1.0122121  )
         4           K   tau(   4) = (   0.4277690   0.9672186   1.0095784  )
         5           Te  tau(   5) = (   0.5000000   0.4752915   0.6739302  )
         6           Te  tau(   6) = (   0.0000000   0.0000000   0.0000000  )
         7           Br  tau(   7) = (   0.5144270   1.5068561   1.0059230  )
         8           Br  tau(   8) = (   0.4855730   0.4000928   0.3419373  )
         9           Br  tau(   9) = (   0.8114690   0.6772222   0.0587559  )
        10           Br  tau(  10) = (   0.9855730   1.0315645   0.3319928  )
        11           Br  tau(  11) = (   0.1885310   1.2297267   1.2891044  )
        12           Br  tau(  12) = (   0.6885310   1.1525137   0.7326861  )
        13           Br  tau(  13) = (   0.2865120   0.7776772   0.0522188  )
        14           Br  tau(  14) = (   0.7865120   0.6539801   0.6217114  )
        15           Br  tau(  15) = (   0.7134880   1.1292716   1.2956415  )
        16           Br  tau(  16) = (   0.2134880   1.2529688   0.7261490  )
        17           Br  tau(  17) = (   0.3114690   0.7544352   0.6151742  )
        18           Br  tau(  18) = (   0.0144270   0.8753843   1.0158675  )

   Crystallographic axes

     site n.     atom                  positions (cryst. coord.)
         1           K   tau(   1) = (  0.0722310  0.2668540  0.2490230  )
         2           K   tau(   2) = (  0.5722310  0.7331460  0.2509770  )
         3           K   tau(   3) = (  0.9277690  0.7331460  0.7509770  )
         4           K   tau(   4) = (  0.4277690  0.2668540  0.7490230  )
         5           Te  tau(   5) = (  0.5000000 -0.0000000  0.5000000  )
         6           Te  tau(   6) = (  0.0000000  0.0000000  0.0000000  )
         7           Br  tau(   7) = (  0.5144270  0.8338080  0.7463110  )
         8           Br  tau(   8) = (  0.4855730  0.1661920  0.2536890  )
         9           Br  tau(   9) = (  0.8114690  0.6647920  0.0435920  )
        10           Br  tau(  10) = (  0.9855730  0.8338080  0.2463110  )
        11           Br  tau(  11) = (  0.1885310  0.3352080  0.9564080  )
        12           Br  tau(  12) = (  0.6885310  0.6647920  0.5435920  )
        13           Br  tau(  13) = (  0.2865120  0.7746510  0.0387420  )
        14           Br  tau(  14) = (  0.7865120  0.2253490  0.4612580  )
        15           Br  tau(  15) = (  0.7134880  0.2253490  0.9612580  )
        16           Br  tau(  16) = (  0.2134880  0.7746510  0.5387420  )
        17           Br  tau(  17) = (  0.3114690  0.3352080  0.4564080  )
        18           Br  tau(  18) = (  0.0144270  0.1661920  0.7536890  )

     number of k points=    10
                       cart. coord. in units 2pi/alat
        k(    1) = (   0.0000000   0.0000000   0.0000000), wk =   0.0740741
        k(    2) = (   0.0000000   0.0000000   0.2473055), wk =   0.1481481
        k(    3) = (   0.0000000   0.3485417  -0.2458102), wk =   0.1481481
        k(    4) = (   0.0000000   0.3485417   0.0014954), wk =   0.1481481
        k(    5) = (   0.0000000   0.3485417  -0.4931157), wk =   0.1481481
        k(    6) = (   0.3333333   0.0000000   0.0000000), wk =   0.1481481
        k(    7) = (   0.3333333   0.0000000   0.2473055), wk =   0.2962963
        k(    8) = (   0.3333333   0.3485417  -0.2458102), wk =   0.2962963
        k(    9) = (   0.3333333   0.3485417   0.0014954), wk =   0.2962963
        k(   10) = (   0.3333333   0.3485417  -0.4931157), wk =   0.2962963

                       cryst. coord.
        k(    1) = (   0.0000000   0.0000000   0.0000000), wk =   0.0740741
        k(    2) = (   0.0000000   0.0000000   0.3333333), wk =   0.1481481
        k(    3) = (   0.0000000   0.3333333   0.0000000), wk =   0.1481481
        k(    4) = (   0.0000000   0.3333333   0.3333333), wk =   0.1481481
        k(    5) = (   0.0000000   0.3333333  -0.3333333), wk =   0.1481481
        k(    6) = (   0.3333333   0.0000000   0.0000000), wk =   0.1481481
        k(    7) = (   0.3333333   0.0000000   0.3333333), wk =   0.2962963
        k(    8) = (   0.3333333   0.3333333   0.0000000), wk =   0.2962963
        k(    9) = (   0.3333333   0.3333333   0.3333333), wk =   0.2962963
        k(   10) = (   0.3333333   0.3333333  -0.3333333), wk =   0.2962963

     Check: negative core charge=   -0.000002

     Initial potential from superposition of free atoms

     starting charge     131.9240, renormalised to     132.0000
     Starting wfcs are   88 randomized atomic wfcs +  168 random wfcs
     Checking if some PAW data can be deallocated...

     Self-consistent Calculation

     iteration #  1     ecut=    30.00 Ry     beta= 0.70
     Davidson diagonalization with overlap

     ethr =  1.00E-02,  avg # of iterations =  8.0

     Threshold (ethr) on eigenvalues was too large:
     Diagonalizing with lowered threshold

     Davidson diagonalization with overlap

[...]

     total energy              =   -1068.10022371 Ry
     estimated scf accuracy    <       0.96013133 Ry

[...]

     c_bands:  1 eigenvalues not converged
     ethr =  7.80E-07,  avg # of iterations = 15.7

[...]

     total energy              =   -1068.56450481 Ry
     estimated scf accuracy    <       0.00000617 Ry

     iteration #  7     ecut=    30.00 Ry     beta= 0.70
     Davidson diagonalization with overlap

     ethr =  4.68E-09,  avg # of iterations =  1.3

     End of self-consistent calculation

          k = 0.0000 0.0000 0.0000 ( 12567 PWs)   bands (ev):

   -27.2017 -27.2015 -27.2014 -27.2012 -12.8924 -12.8401 -12.0199 -12.0051
   -11.9832 -11.9572 -11.9463 -11.9444 -11.8663 -11.7934 -11.7905 -11.7608
   -10.6922 -10.6916 -10.6849 -10.6814 -10.6802 -10.6755 -10.6749 -10.6656
   -10.6488 -10.6428 -10.6407 -10.6311  -9.0045  -8.9063  -2.6379  -2.6351
    -2.5946  -2.5658  -2.5468  -2.4741  -0.7812  -0.5945  -0.5933  -0.5857
    -0.5584  -0.0930   0.0062   0.0123   0.0421   0.0569   0.1209   0.1684
     0.2278   0.2749   0.4208   0.4430   0.4628   0.5032   0.5187   0.5336
     0.6146   0.6265   0.6726   0.7130   0.7217   0.8198   0.8482   0.9188
     1.0428   1.3563   3.9067   3.9767   4.0392   4.0927   4.1819   4.3862
     6.0248   7.5034   7.9125   7.9578   8.1160   8.1468   8.3240   8.3735
     8.5260   8.6035   8.6609   8.7551   8.8393   8.8548   8.9255   8.9951
     9.1052   9.1806   9.3410   9.4400   9.6481   9.8340   9.8977   9.9154
    10.0799  10.1536  10.1766  10.2586  10.3136  10.3158  10.3973  10.4718
    10.6414  10.7564  10.7730  10.8560  10.8826  11.1787  11.2184  11.2624
    11.3588  11.4657  11.4833  11.5726  11.8040  11.9728  12.0635  12.2262
    12.3987  12.4036  12.4331  12.4984  12.6344  12.6959  12.7358  13.0368
    13.0547  13.1200  13.1518  13.1522  13.3656  13.5376  13.5421  13.5699
    13.7440  13.9049  13.9893  13.9958  14.0375  14.3866  14.7027  14.7536
    14.8624  14.9491  14.9608  15.0835  15.2971  15.4229  15.4570  15.5787
    15.6066  15.7553  15.7617  15.9202  16.1418  16.2855  16.3050  16.4410
    16.5054  16.5342  16.6688  16.7403  16.9420  17.0519  17.1791  17.1977
    17.3231  17.3977  17.4789  17.6181  17.6225  17.6604  17.7393  17.7454
    17.8332  18.0555  18.2119  18.5131  18.6075  18.6134  18.6695  18.6981
    18.7650  18.7999  19.0480  19.0708  19.1503  19.2108  19.2353  19.2742
    19.3006  19.3756  19.4468  19.4536  19.6942  19.8381  19.8561  19.9422
    20.0395  20.0443  20.0681  20.2257  20.2319  20.4514  20.5281  20.5487
    20.5780  20.7876  20.8755  20.9589  20.9777  21.1019  21.2096  21.3323
    21.4334  21.4431  21.4433  21.6486  21.7256  21.7585  21.8606  21.8879
    21.9785  22.1377  22.1681  22.5209  22.6444  22.7748  22.8818  23.0571
    23.0938  23.2215  23.2782  23.2949  23.4180  23.5170  23.6309  23.6568
    23.8428  23.8701  23.9193  23.9516  23.9616  24.1942  24.2829  24.2974
    24.4294  24.4439  24.5468  24.6267  24.6631  24.8327  24.8509  25.1787

     occupation numbers
     1.0000   1.0000   1.0000   1.0000   1.0000   1.0000   1.0000   1.0000
     1.0000   1.0000   1.0000   1.0000   1.0000   1.0000   1.0000   1.0000
     1.0000   1.0000   1.0000   1.0000   1.0000   1.0000   1.0000   1.0000
     1.0000   1.0000   1.0000   1.0000   1.0000   1.0000   1.0000   1.0000
     1.0000   1.0000   1.0000   1.0000   1.0000   1.0000   1.0000   1.0000
     1.0000   1.0000   1.0000   1.0000   1.0000   1.0000   1.0000   1.0000
     1.0000   1.0000   1.0000   1.0000   1.0000   1.0000   1.0000   1.0000
     1.0000   1.0000   1.0000   1.0000   1.0000   1.0000   1.0000   1.0000
     1.0000   1.0000   0.0000   0.0000   0.0000   0.0000   0.0000   0.0000
     0.0000   0.0000   0.0000   0.0000   0.0000   0.0000   0.0000   0.0000
     0.0000   0.0000   0.0000   0.0000   0.0000   0.0000   0.0000   0.0000
     0.0000   0.0000   0.0000   0.0000   0.0000   0.0000   0.0000   0.0000
     0.0000   0.0000   0.0000   0.0000   0.0000   0.0000   0.0000   0.0000
     0.0000   0.0000   0.0000   0.0000   0.0000   0.0000   0.0000   0.0000
     0.0000   0.0000   0.0000   0.0000   0.0000   0.0000   0.0000   0.0000
     0.0000   0.0000   0.0000   0.0000   0.0000   0.0000   0.0000   0.0000
     0.0000   0.0000   0.0000   0.0000   0.0000   0.0000   0.0000   0.0000
     0.0000   0.0000   0.0000   0.0000   0.0000   0.0000   0.0000   0.0000
     0.0000   0.0000   0.0000   0.0000   0.0000   0.0000   0.0000   0.0000
     0.0000   0.0000   0.0000   0.0000   0.0000   0.0000   0.0000   0.0000
     0.0000   0.0000   0.0000   0.0000   0.0000   0.0000   0.0000   0.0000
     0.0000   0.0000   0.0000   0.0000   0.0000   0.0000   0.0000   0.0000
     0.0000   0.0000   0.0000   0.0000   0.0000   0.0000   0.0000   0.0000
     0.0000   0.0000   0.0000   0.0000   0.0000   0.0000   0.0000   0.0000
     0.0000   0.0000   0.0000   0.0000   0.0000   0.0000   0.0000   0.0000
     0.0000   0.0000   0.0000   0.0000   0.0000   0.0000   0.0000   0.0000
     0.0000   0.0000   0.0000   0.0000   0.0000   0.0000   0.0000   0.0000
     0.0000   0.0000   0.0000   0.0000   0.0000   0.0000   0.0000   0.0000
     0.0000   0.0000   0.0000   0.0000   0.0000   0.0000   0.0000   0.0000
     0.0000   0.0000   0.0000   0.0000   0.0000   0.0000   0.0000   0.0000
     0.0000   0.0000   0.0000   0.0000   0.0000   0.0000   0.0000   0.0000
     0.0000   0.0000   0.0000   0.0000   0.0000   0.0000   0.0000   0.0000

[...]

          k = 0.3333 0.3485-0.4931 ( 12536 PWs)   bands (ev):

   -27.2015 -27.2015 -27.2014 -27.2014 -12.8513 -12.8455 -12.0416 -12.0189
   -12.0103 -11.9725 -11.9692 -11.9473 -11.8229 -11.8138 -11.7744 -11.7642
   -10.6890 -10.6863 -10.6818 -10.6813 -10.6761 -10.6721 -10.6694 -10.6621
   -10.6603 -10.6512 -10.6417 -10.6373  -8.9313  -8.9193  -2.6427  -2.6228
    -2.5623  -2.5420  -2.4968  -2.4820  -0.6195  -0.5555  -0.4486  -0.3889
    -0.3595  -0.3210  -0.2633  -0.2252  -0.1274  -0.0525   0.1014   0.1539
     0.2362   0.2824   0.3087   0.3467   0.3730   0.3876   0.4714   0.5465
     0.5745   0.6243   0.6941   0.6989   0.7541   0.7856   0.8699   0.9077
     1.2218   1.2570   3.9945   4.0316   4.1074   4.1988   4.3041   4.3447
     7.2610   7.6728   7.8773   7.9681   8.1214   8.2709   8.2976   8.4237
     8.4893   8.5879   8.6952   8.7528   8.7988   8.8817   9.0798   9.1018
     9.1359   9.3072   9.3878   9.5404   9.7176   9.7300   9.8170   9.8661
     9.9438   9.9771  10.0414  10.0783  10.2535  10.3086  10.3318  10.4309
    10.5248  10.5983  10.6319  10.7412  10.7782  10.8887  10.9698  11.1396
    11.3182  11.3569  11.5015  11.5466  11.7156  11.8407  11.9799  12.0911
    12.1796  12.2990  12.3598  12.4611  12.4897  12.5769  12.6984  12.8320
    12.9834  13.1689  13.2658  13.3117  13.5115  13.6465  13.7628  13.9180
    14.0147  14.1264  14.1824  14.2599  14.3222  14.4796  14.5230  14.7223
    14.8172  14.8573  14.9833  15.1204  15.2865  15.3316  15.4710  15.5185
    15.6276  15.6506  15.7570  15.8041  15.8260  16.1205  16.2410  16.3083
    16.3568  16.5727  16.6432  16.8660  16.9248  16.9601  17.0010  17.1566
    17.2272  17.3222  17.3529  17.4513  17.4725  17.6294  17.8062  17.8851
    17.9066  17.9985  18.0444  18.2216  18.2960  18.3375  18.5685  18.6012
    18.6225  18.7744  18.7962  18.9118  18.9484  19.1225  19.1731  19.3150
    19.4735  19.5202  19.6735  19.7353  19.8284  19.9129  19.9532  20.1008
    20.1174  20.1932  20.3785  20.5120  20.5787  20.6117  20.6932  20.8545
    20.9168  21.0680  21.0929  21.2016  21.2400  21.3511  21.3810  21.5352
    21.6046  21.6752  21.7371  21.7776  21.8705  21.9957  22.0018  22.1101
    22.2726  22.3297  22.4710  22.5201  22.6122  22.7298  22.7819  22.7929
    22.9371  22.9906  23.1218  23.1831  23.4101  23.4269  23.5769  23.5853
    23.6851  23.7754  23.8786  24.0200  24.0557  24.1578  24.2294  24.3193
    24.3591  24.4595  24.5755  24.6428  24.6776  24.8025  24.9042  25.0664

     occupation numbers
     1.0000   1.0000   1.0000   1.0000   1.0000   1.0000   1.0000   1.0000
     1.0000   1.0000   1.0000   1.0000   1.0000   1.0000   1.0000   1.0000
     1.0000   1.0000   1.0000   1.0000   1.0000   1.0000   1.0000   1.0000
     1.0000   1.0000   1.0000   1.0000   1.0000   1.0000   1.0000   1.0000
     1.0000   1.0000   1.0000   1.0000   1.0000   1.0000   1.0000   1.0000
     1.0000   1.0000   1.0000   1.0000   1.0000   1.0000   1.0000   1.0000
     1.0000   1.0000   1.0000   1.0000   1.0000   1.0000   1.0000   1.0000
     1.0000   1.0000   1.0000   1.0000   1.0000   1.0000   1.0000   1.0000
     1.0000   1.0000   0.0000   0.0000   0.0000   0.0000   0.0000   0.0000
     0.0000   0.0000   0.0000   0.0000   0.0000   0.0000   0.0000   0.0000
     0.0000   0.0000   0.0000   0.0000   0.0000   0.0000   0.0000   0.0000
     0.0000   0.0000   0.0000   0.0000   0.0000   0.0000   0.0000   0.0000
     0.0000   0.0000   0.0000   0.0000   0.0000   0.0000   0.0000   0.0000
     0.0000   0.0000   0.0000   0.0000   0.0000   0.0000   0.0000   0.0000
     0.0000   0.0000   0.0000   0.0000   0.0000   0.0000   0.0000   0.0000
     0.0000   0.0000   0.0000   0.0000   0.0000   0.0000   0.0000   0.0000
     0.0000   0.0000   0.0000   0.0000   0.0000   0.0000   0.0000   0.0000
     0.0000   0.0000   0.0000   0.0000   0.0000   0.0000   0.0000   0.0000
     0.0000   0.0000   0.0000   0.0000   0.0000   0.0000   0.0000   0.0000
     0.0000   0.0000   0.0000   0.0000   0.0000   0.0000   0.0000   0.0000
     0.0000   0.0000   0.0000   0.0000   0.0000   0.0000   0.0000   0.0000
     0.0000   0.0000   0.0000   0.0000   0.0000   0.0000   0.0000   0.0000
     0.0000   0.0000   0.0000   0.0000   0.0000   0.0000   0.0000   0.0000
     0.0000   0.0000   0.0000   0.0000   0.0000   0.0000   0.0000   0.0000
     0.0000   0.0000   0.0000   0.0000   0.0000   0.0000   0.0000   0.0000
     0.0000   0.0000   0.0000   0.0000   0.0000   0.0000   0.0000   0.0000
     0.0000   0.0000   0.0000   0.0000   0.0000   0.0000   0.0000   0.0000
     0.0000   0.0000   0.0000   0.0000   0.0000   0.0000   0.0000   0.0000
     0.0000   0.0000   0.0000   0.0000   0.0000   0.0000   0.0000   0.0000
     0.0000   0.0000   0.0000   0.0000   0.0000   0.0000   0.0000   0.0000
     0.0000   0.0000   0.0000   0.0000   0.0000   0.0000   0.0000   0.0000
     0.0000   0.0000   0.0000   0.0000   0.0000   0.0000   0.0000   0.0000

     highest occupied, lowest unoccupied level (ev):     1.3563    3.7649

!    total energy              =   -1068.56450649 Ry
     estimated scf accuracy    <       0.00000018 Ry

     The total energy is the sum of the following terms:
     one-electron contribution =    -158.64861517 Ry
     hartree contribution      =     126.99584994 Ry
     xc contribution           =    -387.36521830 Ry
     ewald contribution        =    -427.88056652 Ry
     one-center paw contrib.   =    -221.66595645 Ry
      -> PAW hartree energy AE =     112.80653187 Ry
      -> PAW hartree energy PS =    -112.17676148 Ry
      -> PAW xc energy AE      =    -198.61486613 Ry
      -> PAW xc energy PS      =      31.73562839 Ry
      -> total E_H with PAW    =     127.62562034 Ry
      -> total E_XC with PAW   =    -554.24445603 Ry

     convergence has been achieved in   7 iterations

     Writing all to output data dir bands_nm/myprefix.save/

     General routines

     Parallel routines

     PAW routines

   This run was terminated on:  20:57:23  16Jul2023

   JOB DONE.