     Program PWSCF v.7.1 starts on 15Jul2023 at 14:10:38

     Reading input from espresso_7224.pwi
Warning: card &CELL ignored
Warning: card / ignored

     Current dimensions of program PWSCF are:
     Max number of different atomic species (ntypx) = 10
     Max number of k-points (npk) =  40000
     Max angular momentum in pseudopotentials (lmaxx) =  4
     file La.paw.z_11.atompaw.wentzcovitch.v1.2.upf: wavefunction(s)  6S 0P 5D 0D 4F 0F renormalized
     file Ce.paw.z_12.atompaw.wentzcovitch.v1.2.upf: wavefunction(s)  6S 0P 5D 0D 4F 0F renormalized
     file Al.pbe-n-kjpaw_psl.1.0.0.UPF: wavefunction(s)  3S 3P renormalized
     file O.pbe-n-kjpaw_psl.0.1.UPF: wavefunction(s)  2P renormalized
     Message from routine setup:
     the system is metallic, specify occupations
     Message from routine setup:
     using ibrav=0 with symmetry is DISCOURAGED, use correct ibrav instead

     K-points division:     npool     =       2
     R & G space division:  proc/nbgrp/npool/nimage =       4
     Subspace diagonalization in iterative solution of the eigenvalue problem:
     a serial algorithm will be used

     Using Slab Decomposition

     bravais-lattice index     =            0
     lattice parameter (alat)  =      10.1961  a.u.
     unit-cell volume          =     741.9334 (a.u.)^3
     number of atoms/cell      =           10
     number of atomic types    =            4
     number of electrons       =        65.00 (up:  33.00, down:  32.00)
     number of Kohn-Sham states=           64
     kinetic-energy cutoff     =      30.0000  Ry
     charge density cutoff     =     240.0000  Ry
     scf convergence threshold =      1.0E-06
     mixing beta               =       0.7000
     number of iterations used =            8  plain     mixing
     Exchange-correlation= SLA  PW   PBX  PBC
                           (   1   4   3   4   0   0   0)

     celldm(1)=  10.196068  celldm(2)=   0.000000  celldm(3)=   0.000000
     celldm(4)=   0.000000  celldm(5)=   0.000000  celldm(6)=   0.000000

     crystal axes: (cart. coord. in units of alat)
               a(1) = (   1.000000   0.000000   0.000000 )
               a(2) = (   0.500000   0.861573   0.000000 )
               a(3) = (  -0.500000   0.286880   0.812409 )

     reciprocal axes: (cart. coord. in units 2 pi/alat)
               b(1) = (  1.000000 -0.580334  0.820383 )
               b(2) = (  0.000000  1.160668 -0.409859 )
               b(3) = (  0.000000  0.000000  1.230908 )

     PseudoPot. # 1 for La read from file:
     /lustre07/scratch/pragov/crystal_structure_design/utils/SSSP/La.paw.z_11.atompaw.wentzcovitch.v1.2.upf
     MD5 check sum: 754494e15ae71f30e5b5f678af019e01
     Pseudo is Projector augmented-wave + core cor, Zval = 11.0
     Generated using ATOMPAW code
     Shape of augmentation charge: BESSEL
     Using radial grid of 1101 points,  8 beta functions with:
                l(1) =   0
                l(2) =   0
                l(3) =   1
                l(4) =   1
                l(5) =   2
                l(6) =   2
                l(7) =   3
                l(8) =   3
     Q(r) pseudized with 0 coefficients

     PseudoPot. # 2 for Ce read from file:
     /lustre07/scratch/pragov/crystal_structure_design/utils/SSSP/Ce.paw.z_12.atompaw.wentzcovitch.v1.2.upf
     MD5 check sum: 2241420ff980c77e0c917a2dc8a7e08e
     Pseudo is Projector augmented-wave + core cor, Zval = 12.0
     Generated using ATOMPAW code
     Shape of augmentation charge: BESSEL
     Using radial grid of 1102 points,  8 beta functions with:
                l(1) =   0
                l(2) =   0
                l(3) =   1
                l(4) =   1
                l(5) =   2
                l(6) =   2
                l(7) =   3
                l(8) =   3
     Q(r) pseudized with 0 coefficients

     PseudoPot. # 3 for Al read from file:
     /lustre07/scratch/pragov/crystal_structure_design/utils/SSSP/Al.pbe-n-kjpaw_psl.1.0.0.UPF
     MD5 check sum: cfc449ca30b5f3223ec38ddd88ac046d
     Pseudo is Projector augmented-wave + core cor, Zval =  3.0
     Generated using "atomic" code by A. Dal Corso  v.5.1
     Shape of augmentation charge: PSQ
     Using radial grid of 1135 points,  6 beta functions with:
                l(1) =   0
                l(2) =   0
                l(3) =   1
                l(4) =   1
                l(5) =   2
                l(6) =   2
     Q(r) pseudized with 0 coefficients

     PseudoPot. # 4 for O  read from file:
     /lustre07/scratch/pragov/crystal_structure_design/utils/SSSP/O.pbe-n-kjpaw_psl.0.1.UPF
     MD5 check sum: 0234752ac141de4415c5fc33072bef88
     Pseudo is Projector augmented-wave + core cor, Zval =  6.0
     Generated using "atomic" code by A. Dal Corso  v.5.0.99 svn rev. 10869
     Shape of augmentation charge: BESSEL
     Using radial grid of 1095 points,  4 beta functions with:
                l(1) =   0
                l(2) =   0
                l(3) =   1
                l(4) =   1
     Q(r) pseudized with 0 coefficients

     atomic species   valence    mass     pseudopotential
        La            11.00   138.90547     La( 1.00)
        Ce            12.00   140.11600     Ce( 1.00)
        Al             3.00    26.98154     Al( 1.00)
        O              6.00    15.99900     O ( 1.00)

     Starting magnetic structure
     atomic species   magnetization
        La           0.000
        Ce           0.000
        Al           0.000
        O            0.000

      2 Sym. Ops. (no inversion) found ( 1 have fractional translation)

                                    s                        frac. trans.

      isym =  1     identity

 cryst.   s( 1) = (     1          0          0      )
                  (     0          1          0      )
                  (     0          0          1      )

 cart.    s( 1) = (  1.0000000  0.0000000  0.0000000 )
                  (  0.0000000  1.0000000  0.0000000 )
                  (  0.0000000  0.0000000  1.0000000 )

      isym =  2     180 deg rotation - cart. axis [1,0,0]

 cryst.   s( 2) = (     1          0          0      )    f =(  0.0000000 )
                  (     1         -1          0      )       (  0.5000000 )
                  (    -1          0         -1      )       ( -0.5000000 )

 cart.    s( 2) = (  1.0000000 -0.0000002  0.0000003 )    f =(  0.5000001 )
                  (  0.0000000 -1.0000000  0.0000000 )       (  0.2873464 )
                  (  0.0000000  0.0000000 -1.0000000 )       ( -0.4062044 )

   Cartesian axes

     site n.     atom                  positions (alat units)
         1           La  tau(   1) = (   0.4996460   0.2871133   0.2031022  )
         2           Ce  tau(   2) = (   0.5037400   0.8613400   0.6093065  )
         3           Al  tau(   3) = (   0.0001050   0.5740257   0.4060622  )
         4           Al  tau(   4) = (   0.0001050   0.0002010   0.0001422  )
         5           O   tau(   5) = (   0.0030800   0.8613400   0.6093065  )
         6           O   tau(   6) = (   0.9958560   0.2871133   0.2031022  )
         7           O   tau(   7) = (   1.2493670   0.7152827   0.2007974  )
         8           O   tau(   8) = (   0.7493670   0.7205170   0.2054070  )
         9           O   tau(   9) = (   0.2493670   0.4275088   0.6076062  )
        10           O   tau(  10) = (   0.7493670   0.4335982   0.6110069  )

   Crystallographic axes

     site n.     atom                  positions (cryst. coord.)
         1           La  tau(   1) = (  0.4996460  0.2500000  0.2500000  )
         2           Ce  tau(   2) = (  0.5037400  0.7500000  0.7500000  )
         3           Al  tau(   3) = (  0.0001050  0.4998250  0.4998250  )
         4           Al  tau(   4) = (  0.0001050  0.0001750  0.0001750  )
         5           O   tau(   5) = (  0.0030800  0.7500000  0.7500000  )
         6           O   tau(   6) = (  0.9958560  0.2500000  0.2500000  )
         7           O   tau(   7) = (  0.9989950  0.7479070  0.2471630  )
         8           O   tau(   8) = (  0.4997390  0.7520930  0.2528370  )
         9           O   tau(   9) = (  0.4997390  0.2471630  0.7479070  )
        10           O   tau(  10) = (  0.9989950  0.2528370  0.7520930  )

     number of k points=    10
                       cart. coord. in units 2pi/alat
        k(    1) = (   0.0000000   0.0000000   0.0000000), wk =   0.0370370
        k(    2) = (   0.0000000   0.0000000   0.4103025), wk =   0.0740741
        k(    3) = (   0.0000000   0.3868892  -0.1366195), wk =   0.0740741
        k(    4) = (   0.0000000   0.3868892   0.2736830), wk =   0.0740741
        k(    5) = (   0.0000000   0.3868892  -0.5469220), wk =   0.0740741
        k(    6) = (   0.3333333  -0.1934446   0.2734611), wk =   0.1481481
        k(    7) = (   0.3333333  -0.1934446   0.6837636), wk =   0.1481481
        k(    8) = (   0.3333333  -0.1934446  -0.1368414), wk =   0.1481481
        k(    9) = (   0.3333333  -0.5803338   0.4100806), wk =   0.1481481
        k(   10) = (   0.3333333  -0.5803338   0.8203831), wk =   0.0740741

                       cryst. coord.
        k(    1) = (   0.0000000   0.0000000   0.0000000), wk =   0.0370370
        k(    2) = (   0.0000000   0.0000000   0.3333333), wk =   0.0740741
        k(    3) = (   0.0000000   0.3333333   0.0000000), wk =   0.0740741
        k(    4) = (   0.0000000   0.3333333   0.3333333), wk =   0.0740741
        k(    5) = (   0.0000000   0.3333333  -0.3333333), wk =   0.0740741
        k(    6) = (   0.3333333   0.0000000   0.0000000), wk =   0.1481481
        k(    7) = (   0.3333333   0.0000000   0.3333333), wk =   0.1481481
        k(    8) = (   0.3333333   0.0000000  -0.3333333), wk =   0.1481481
        k(    9) = (   0.3333333  -0.3333333   0.0000000), wk =   0.1481481
        k(   10) = (   0.3333333  -0.3333333   0.3333333), wk =   0.0740741

     Check: negative core charge=   -0.000009
     Generating pointlists ...
     new r_m :   0.2046 (alat units)  2.0859 (a.u.) for type    1
     new r_m :   0.2035 (alat units)  2.0746 (a.u.) for type    2
     new r_m :   0.1450 (alat units)  1.4782 (a.u.) for type    3
     new r_m :   0.1450 (alat units)  1.4782 (a.u.) for type    4

     Initial potential from superposition of free atoms

     starting charge      64.9799, renormalised to      65.0000

     negative rho (up, down):  1.755E-05 1.755E-05
     Starting wfcs are   96 randomized atomic wfcs
     Checking if some PAW data can be deallocated...

     Self-consistent Calculation

     iteration #  1     ecut=    30.00 Ry     beta= 0.70
     Davidson diagonalization with overlap

     ethr =  1.00E-02,  avg # of iterations =  6.5

     negative rho (up, down):  2.155E-04 2.362E-04

     total energy              =   -1264.64470842 Ry
     estimated scf accuracy    <       2.32743073 Ry

     total magnetization       =     1.00 Bohr mag/cell
     absolute magnetization    =     1.14 Bohr mag/cell

[...]

     c_bands:  1 eigenvalues not converged
     ethr =  9.76E-05,  avg # of iterations =  5.3

[...]

     total energy              =   -1270.40101199 Ry
     estimated scf accuracy    <       0.00000105 Ry

[...]

     iteration # 26     ecut=    30.00 Ry     beta= 0.70
     Davidson diagonalization with overlap

     ethr =  1.61E-09,  avg # of iterations =  4.0

     negative rho (up, down):  1.149E-04 2.803E-03

     Magnetic moment per site  (integrated on atomic sphere of radius R)
     atom   1 (R=0.205)  charge=  7.1965  magn=  0.0058
     atom   2 (R=0.203)  charge=  8.2601  magn=  0.9500
     atom   3 (R=0.145)  charge=  0.4404  magn=  0.0001
     atom   4 (R=0.145)  charge=  0.4404  magn=  0.0001
     atom   5 (R=0.145)  charge=  5.3085  magn= -0.0031
     atom   6 (R=0.145)  charge=  5.3097  magn= -0.0044
     atom   7 (R=0.145)  charge=  5.3070  magn= -0.0031
     atom   8 (R=0.145)  charge=  5.3070  magn= -0.0031
     atom   9 (R=0.145)  charge=  5.3068  magn= -0.0045
     atom  10 (R=0.145)  charge=  5.3068  magn= -0.0045

     End of self-consistent calculation

 ------ SPIN UP ------------

          k = 0.0000 0.0000 0.0000 (  2085 PWs)   bands (ev):

   -20.9703 -18.9141  -6.8186  -5.5102  -5.4976  -5.4837  -4.7979  -4.7861
    -4.0309  -4.0228  -4.0215  -2.8264  -2.8207  -2.8205   3.9337   6.9847
     6.9992   7.0171   8.8841   8.9127   8.9185   9.9097   9.9100   9.9948
    10.0016  10.0093  11.2488  11.2568  11.2814  11.3298  11.3414  11.3629
    14.1508  14.5131  14.6123  14.6183  14.8078  14.8450  15.0647  15.0878
    15.1825  16.1284  16.1320  16.1360  16.1388  16.4808  16.4901  16.4938
    16.7854  16.8404  16.8772  17.2196  17.2325  17.2652  17.9138  19.7085
    19.7389  20.2414  23.6520  24.5298  24.5574  24.6249  26.2347  26.9664

     occupation numbers
     1.0000   1.0000   1.0000   1.0000   1.0000   1.0000   1.0000   1.0000
     1.0000   1.0000   1.0000   1.0000   1.0000   1.0000   1.0000   1.0000
     1.0000   1.0000   1.0000   1.0000   1.0000   1.0000   1.0000   1.0000
     1.0000   1.0000   1.0000   1.0000   1.0000   1.0000   1.0000   1.0000
     1.0000   0.0000   0.0000   0.0000   0.0000   0.0000   0.0000   0.0000
     0.0000   0.0000   0.0000   0.0000   0.0000   0.0000   0.0000   0.0000
     0.0000   0.0000   0.0000   0.0000   0.0000   0.0000   0.0000   0.0000
     0.0000   0.0000   0.0000   0.0000   0.0000   0.0000   0.0000   0.0000

[...]

 ------ SPIN DOWN ----------

[...]

          k = 0.3333-0.5803 0.8204 (  2075 PWs)   bands (ev):

   -20.5182 -18.9022  -6.8945  -6.7348  -5.9117  -5.7435  -5.1080  -4.9393
    -3.2047  -2.9797  -2.8489  -2.2790  -2.0684  -2.0541   5.7827   5.9597
     7.2016   7.5007   7.6875   8.0637   8.4438   8.6805   8.9455   9.0040
     9.5248   9.7003   9.7718  10.2574  10.2615  10.3856  10.4962  11.1249
    14.9859  14.9950  15.0052  15.1543  15.1772  15.2747  15.7676  15.9717
    15.9781  16.0068  16.0827  16.1420  16.1492  16.3235  17.5587  18.0472
    18.1745  18.9617  18.9659  19.3293  19.3521  19.4822  19.6230  19.6731
    21.5024  21.8678  23.6389  24.0556  24.8092  25.0200  25.1568  25.2945

     occupation numbers
     1.0000   1.0000   1.0000   1.0000   1.0000   1.0000   1.0000   1.0000
     1.0000   1.0000   1.0000   1.0000   1.0000   1.0000   1.0000   1.0000
     1.0000   1.0000   1.0000   1.0000   1.0000   1.0000   1.0000   1.0000
     1.0000   1.0000   1.0000   1.0000   1.0000   1.0000   1.0000   1.0000
     0.0000   0.0000   0.0000   0.0000   0.0000   0.0000   0.0000   0.0000
     0.0000   0.0000   0.0000   0.0000   0.0000   0.0000   0.0000   0.0000
     0.0000   0.0000   0.0000   0.0000   0.0000   0.0000   0.0000   0.0000
     0.0000   0.0000   0.0000   0.0000   0.0000   0.0000   0.0000   0.0000

     highest occupied, lowest unoccupied level (ev):    14.1508   14.4442

!    total energy              =   -1270.40102697 Ry
     total all-electron energy =     -2815.767945 Ry
     estimated scf accuracy    <       0.00000052 Ry

     The total energy is the sum of the following terms:
     one-electron contribution =      -6.37479259 Ry
     hartree contribution      =      56.26202840 Ry
     xc contribution           =     -77.95928399 Ry
     ewald contribution        =    -317.38699018 Ry
     one-center paw contrib.   =    -924.94198862 Ry
      -> PAW hartree energy AE =      79.16982880 Ry
      -> PAW hartree energy PS =     -78.85745338 Ry
      -> PAW xc energy AE      =    -822.75523701 Ry
      -> PAW xc energy PS      =      23.90510917 Ry
      -> total E_H with PAW    =      56.57440382 Ry
      -> total E_XC with PAW   =    -876.80941183 Ry

     total magnetization       =     1.00 Bohr mag/cell
     absolute magnetization    =     1.09 Bohr mag/cell

     convergence has been achieved in  26 iterations

     Writing all to output data dir bands_nm/myprefix.save/

     General routines

     Parallel routines

     PAW routines

   This run was terminated on:  14:11:22  15Jul2023

   JOB DONE.