     Program PWSCF v.7.1 starts on 12Jul2023 at 16: 0:32

     Reading input from espresso_22591.pwi
Warning: card &CELL ignored
Warning: card / ignored

     Current dimensions of program PWSCF are:
     Max number of different atomic species (ntypx) = 10
     Max number of k-points (npk) =  40000
     Max angular momentum in pseudopotentials (lmaxx) =  4
     file O.pbe-n-kjpaw_psl.0.1.UPF: wavefunction(s)  2P renormalized

     K-points division:     npool     =       2
     R & G space division:  proc/nbgrp/npool/nimage =       8
     Subspace diagonalization in iterative solution of the eigenvalue problem:
     a serial algorithm will be used

     Using Slab Decomposition

     bravais-lattice index     =            0
     lattice parameter (alat)  =      15.3497  a.u.
     unit-cell volume          =    1778.9519 (a.u.)^3
     number of atoms/cell      =           16
     number of atomic types    =            4
     number of electrons       =        80.00
     number of Kohn-Sham states=           64
     kinetic-energy cutoff     =      30.0000  Ry
     charge density cutoff     =     240.0000  Ry
     scf convergence threshold =      1.0E-06
     mixing beta               =       0.7000
     number of iterations used =            8  plain     mixing
     Exchange-correlation= SLA  PW   PBX  PBC
                           (   1   4   3   4   0   0   0)

     celldm(1)=  15.349713  celldm(2)=   0.000000  celldm(3)=   0.000000
     celldm(4)=   0.000000  celldm(5)=   0.000000  celldm(6)=   0.000000

     crystal axes: (cart. coord. in units of alat)
               a(1) = (   1.000000   0.000000   0.000000 )
               a(2) = (   0.519631   0.701384   0.000000 )
               a(3) = (   0.480369  -0.010394   0.701306 )

     reciprocal axes: (cart. coord. in units 2 pi/alat)
               b(1) = (  1.000000 -0.740866 -0.695943 )
               b(2) = (  0.000000  1.425753  0.021132 )
               b(3) = (  0.000000  0.000000  1.425910 )

     PseudoPot. # 1 for Cs read from file:
     /lustre07/scratch/pragov/crystal_structure_design/utils/SSSP/Cs_pbe_v1.uspp.F.UPF
     MD5 check sum: 3476d69cb178dfad3ffaa59df4e07ca4
     Pseudo is Ultrasoft + core correction, Zval =  9.0
     Generated by new atomic code, or converted to UPF format
     Using radial grid of  905 points,  6 beta functions with:
                l(1) =   0
                l(2) =   0
                l(3) =   1
                l(4) =   1
                l(5) =   2
                l(6) =   2
     Q(r) pseudized with  6 coefficients,  rinner =    1.500   1.500   1.500
                                                       1.500   1.500

     PseudoPot. # 2 for As read from file:
     /lustre07/scratch/pragov/crystal_structure_design/utils/SSSP/As.pbe-n-rrkjus_psl.0.2.UPF
     MD5 check sum: 767315de957beeeb34f87d97bf945c8f
     Pseudo is Ultrasoft + core correction, Zval =  5.0
     Generated using "atomic" code by A. Dal Corso  v.5.0.99 svn rev. 10869
     Using radial grid of 1209 points,  4 beta functions with:
                l(1) =   0
                l(2) =   0
                l(3) =   1
                l(4) =   1
     Q(r) pseudized with 0 coefficients

     PseudoPot. # 3 for H  read from file:
     /lustre07/scratch/pragov/crystal_structure_design/utils/SSSP/H.pbe-rrkjus_psl.1.0.0.UPF
     MD5 check sum: f52b6d4d1c606e5624b1dc7b2218f220
     Pseudo is Ultrasoft, Zval =  1.0
     Generated using "atomic" code by A. Dal Corso  v.5.1
     Using radial grid of  929 points,  2 beta functions with:
                l(1) =   0
                l(2) =   0
     Q(r) pseudized with 0 coefficients

     PseudoPot. # 4 for O  read from file:
     /lustre07/scratch/pragov/crystal_structure_design/utils/SSSP/O.pbe-n-kjpaw_psl.0.1.UPF
     MD5 check sum: 0234752ac141de4415c5fc33072bef88
     Pseudo is Projector augmented-wave + core cor, Zval =  6.0
     Generated using "atomic" code by A. Dal Corso  v.5.0.99 svn rev. 10869
     Shape of augmentation charge: BESSEL
     Using radial grid of 1095 points,  4 beta functions with:
                l(1) =   0
                l(2) =   0
                l(3) =   1
                l(4) =   1
     Q(r) pseudized with 0 coefficients

     atomic species   valence    mass     pseudopotential
        Cs             9.00   132.90545     Cs( 1.00)
        As             5.00    74.92159     As( 1.00)
        H              1.00     1.00800     H ( 1.00)
        O              6.00    15.99900     O ( 1.00)

     No symmetry found

                                    s                        frac. trans.

      isym =  1     identity

 cryst.   s( 1) = (     1          0          0      )
                  (     0          1          0      )
                  (     0          0          1      )

 cart.    s( 1) = (  1.0000000  0.0000000 -0.0000000 )
                  (  0.0000000  1.0000000  0.0000000 )
                  (  0.0000000  0.0000000  1.0000000 )

   Cartesian axes

     site n.     atom                  positions (alat units)
         1           Cs  tau(   1) = (   1.5000000   0.6848968   0.6951231  )
         2           Cs  tau(   2) = (   1.0000000   0.5121495   0.5197965  )
         3           As  tau(   3) = (   1.5000000   0.3500959   0.3553232  )
         4           As  tau(   4) = (   1.0000000   0.1773486   0.1799966  )
         5           H   tau(   5) = (   0.7181675   0.1575554   0.3593109  )
         6           H   tau(   6) = (   0.6509080   0.6266813   0.2426191  )
         7           H   tau(   7) = (   1.3490920   0.2333052   0.6302080  )
         8           H   tau(   8) = (   1.2818325   0.3569365   0.1628630  )
         9           O   tau(   9) = (   0.4115831   0.3618709   0.1564629  )
        10           O   tau(  10) = (   0.6510023   0.4947469   0.3698221  )
        11           O   tau(  11) = (   0.9012796   0.1509679   0.3630103  )
        12           O   tau(  12) = (   0.8556282   0.1508008   0.0188953  )
        13           O   tau(  13) = (   0.1443718   0.0166584   0.1510642  )
        14           O   tau(  14) = (   1.0987194   0.3607331   0.1563310  )
        15           O   tau(  15) = (   1.3489987   0.3624494   0.5001732  )
        16           O   tau(  16) = (   0.5884169   0.1510829   0.3641499  )

   Crystallographic axes

     site n.     atom                  positions (cryst. coord.)
         1           Cs  tau(   1) = (  0.5088170  0.9911830  0.9911830  )
         2           Cs  tau(   2) = (  0.2588170  0.7411830  0.7411830  )
         3           As  tau(   3) = (  0.9933410  0.5066590  0.5066590  )
         4           As  tau(   4) = (  0.7433410  0.2566590  0.2566590  )
         5           H   tau(   5) = (  0.3513800  0.2322280  0.5123450  )
         6           H   tau(   6) = (  0.0177720  0.8986200  0.3459530  )
         7           H   tau(   7) = (  0.7376550  0.3459530  0.8986200  )
         8           H   tau(   8) = (  0.9040470  0.5123450  0.2322280  )
         9           O   tau(   9) = (  0.0345960  0.5192450  0.2231020  )
        10           O   tau(  10) = (  0.0270860  0.7132020  0.5273330  )
        11           O   tau(  11) = (  0.5367980  0.2229140  0.5176200  )
        12           O   tau(  12) = (  0.7307550  0.2154040  0.0269430  )
        13           O   tau(  13) = (  0.0268980  0.0269430  0.2154040  )
        14           O   tau(  14) = (  0.7226670  0.5176200  0.2229140  )
        15           O   tau(  15) = (  0.7323800  0.5273330  0.7132020  )
        16           O   tau(  16) = (  0.2230570  0.2231020  0.5192450  )

     number of k points=    14
                       cart. coord. in units 2pi/alat
        k(    1) = (   0.0000000   0.0000000   0.0000000), wk =   0.0740741
        k(    2) = (   0.0000000   0.0000000   0.4753034), wk =   0.1481481
        k(    3) = (   0.0000000   0.4752512   0.0070439), wk =   0.1481481
        k(    4) = (   0.0000000   0.4752512   0.4823472), wk =   0.1481481
        k(    5) = (   0.0000000   0.4752512  -0.4682595), wk =   0.1481481
        k(    6) = (   0.3333333  -0.2469553  -0.2319811), wk =   0.1481481
        k(    7) = (   0.3333333  -0.2469553   0.2433222), wk =   0.1481481
        k(    8) = (   0.3333333  -0.2469553  -0.7072845), wk =   0.1481481
        k(    9) = (   0.3333333   0.2282958  -0.2249373), wk =   0.1481481
        k(   10) = (   0.3333333   0.2282958   0.2503661), wk =   0.1481481
        k(   11) = (   0.3333333   0.2282958  -0.7002406), wk =   0.1481481
        k(   12) = (   0.3333333  -0.7222065  -0.2390250), wk =   0.1481481
        k(   13) = (   0.3333333  -0.7222065   0.2362784), wk =   0.1481481
        k(   14) = (   0.3333333  -0.7222065  -0.7143283), wk =   0.1481481

                       cryst. coord.
        k(    1) = (   0.0000000   0.0000000   0.0000000), wk =   0.0740741
        k(    2) = (   0.0000000   0.0000000   0.3333333), wk =   0.1481481
        k(    3) = (   0.0000000   0.3333333   0.0000000), wk =   0.1481481
        k(    4) = (   0.0000000   0.3333333   0.3333333), wk =   0.1481481
        k(    5) = (   0.0000000   0.3333333  -0.3333333), wk =   0.1481481
        k(    6) = (   0.3333333   0.0000000   0.0000000), wk =   0.1481481
        k(    7) = (   0.3333333   0.0000000   0.3333333), wk =   0.1481481
        k(    8) = (   0.3333333   0.0000000  -0.3333333), wk =   0.1481481
        k(    9) = (   0.3333333   0.3333333   0.0000000), wk =   0.1481481
        k(   10) = (   0.3333333   0.3333333   0.3333333), wk =   0.1481481
        k(   11) = (   0.3333333   0.3333333  -0.3333333), wk =   0.1481481
        k(   12) = (   0.3333333  -0.3333333   0.0000000), wk =   0.1481481
        k(   13) = (   0.3333333  -0.3333333   0.3333333), wk =   0.1481481
        k(   14) = (   0.3333333  -0.3333333  -0.3333333), wk =   0.1481481

     Check: negative core charge=   -0.000008

     Initial potential from superposition of free atoms

     starting charge      79.9207, renormalised to      80.0000
     Starting wfcs are   70 randomized atomic wfcs
     Checking if some PAW data can be deallocated...

     Self-consistent Calculation

     iteration #  1     ecut=    30.00 Ry     beta= 0.70
     Davidson diagonalization with overlap

     ethr =  1.00E-02,  avg # of iterations =  5.2

     total energy              =    -499.18222105 Ry
     estimated scf accuracy    <       2.68368232 Ry

[...]

     total energy              =    -500.41076077 Ry
     estimated scf accuracy    <       0.00000152 Ry

     iteration #  9     ecut=    30.00 Ry     beta= 0.70
     Davidson diagonalization with overlap

     ethr =  1.89E-09,  avg # of iterations =  2.0

     End of self-consistent calculation

          k = 0.0000 0.0000 0.0000 (  4941 PWs)   bands (ev):

   -17.8535 -17.3195 -16.9868 -16.9813 -16.4759 -16.4223 -15.8063 -15.1915
   -14.9348 -14.8578  -7.4768  -6.3074  -4.5331  -4.4844  -4.4730  -4.0926
    -3.9442  -3.9169  -3.8724  -3.8572  -3.8234  -2.3041  -2.2594  -1.8385
    -1.5036  -1.3873  -1.0376  -0.5982  -0.1161   0.3462   0.5032   0.5903
     0.6432   0.7994   1.1585   1.2103   1.2675   1.3068   1.3268   1.6012
     5.5220   7.3665   8.4967   9.2041   9.3815   9.4034   9.5184   9.7363
     9.8137   9.8507  10.0640  10.0906  10.2069  10.7259  10.8493  10.8967
    10.9995  11.4742  12.8626  13.0553  13.3258  13.4774  13.6210  13.7684

     occupation numbers
     1.0000   1.0000   1.0000   1.0000   1.0000   1.0000   1.0000   1.0000
     1.0000   1.0000   1.0000   1.0000   1.0000   1.0000   1.0000   1.0000
     1.0000   1.0000   1.0000   1.0000   1.0000   1.0000   1.0000   1.0000
     1.0000   1.0000   1.0000   1.0000   1.0000   1.0000   1.0000   1.0000
     1.0000   1.0000   1.0000   1.0000   1.0000   1.0000   1.0000   1.0000
     0.0000   0.0000   0.0000   0.0000   0.0000   0.0000   0.0000   0.0000
     0.0000   0.0000   0.0000   0.0000   0.0000   0.0000   0.0000   0.0000
     0.0000   0.0000   0.0000   0.0000   0.0000   0.0000   0.0000   0.0000

[...]

          k = 0.3333-0.7222-0.7143 (  4928 PWs)   bands (ev):

   -17.6674 -17.5375 -17.0226 -17.0114 -16.4526 -16.4296 -15.5421 -15.3885
   -14.8984 -14.8819  -7.1388  -6.8575  -4.5498  -4.3903  -4.1612  -4.0819
    -3.9957  -3.9231  -3.8942  -3.8040  -3.3079  -3.0405  -2.2102  -2.0308
    -1.3587  -1.2509  -0.9823  -0.8052  -0.0033   0.0812   0.5574   0.6032
     0.7786   0.8418   1.1350   1.1674   1.1984   1.2729   1.4432   1.4978
     6.5783   6.9604   8.4221   8.5504   9.0397   9.1576   9.2224   9.4435
     9.9366  10.0148  10.2453  10.3860  10.5079  10.5848  10.8505  11.0064
    11.5331  11.8478  11.9362  12.2720  12.6936  12.8604  13.6670  13.7698

     occupation numbers
     1.0000   1.0000   1.0000   1.0000   1.0000   1.0000   1.0000   1.0000
     1.0000   1.0000   1.0000   1.0000   1.0000   1.0000   1.0000   1.0000
     1.0000   1.0000   1.0000   1.0000   1.0000   1.0000   1.0000   1.0000
     1.0000   1.0000   1.0000   1.0000   1.0000   1.0000   1.0000   1.0000
     1.0000   1.0000   1.0000   1.0000   1.0000   1.0000   1.0000   1.0000
     0.0000   0.0000   0.0000   0.0000   0.0000   0.0000   0.0000   0.0000
     0.0000   0.0000   0.0000   0.0000   0.0000   0.0000   0.0000   0.0000
     0.0000   0.0000   0.0000   0.0000   0.0000   0.0000   0.0000   0.0000

     highest occupied, lowest unoccupied level (ev):     1.6012    5.5220

!    total energy              =    -500.41076104 Ry
     estimated scf accuracy    <       0.00000014 Ry

     The total energy is the sum of the following terms:
     one-electron contribution =    -184.66528773 Ry
     hartree contribution      =     130.32420132 Ry
     xc contribution           =    -141.35034606 Ry
     ewald contribution        =    -228.51135385 Ry
     one-center paw contrib.   =     -76.20797471 Ry
      -> PAW hartree energy AE =       0.00000000 Ry
      -> PAW hartree energy PS =       0.00000000 Ry
      -> PAW xc energy AE      =       0.00000000 Ry
      -> PAW xc energy PS      =       0.00000000 Ry
      -> total E_H with PAW    =     130.32420132 Ry
      -> total E_XC with PAW   =    -141.35034606 Ry

     convergence has been achieved in   9 iterations

     Writing all to output data dir bands_nm/myprefix.save/

     General routines

     Parallel routines

     PAW routines

   This run was terminated on:  16: 0:49  12Jul2023

   JOB DONE.