     Program PWSCF v.7.0 starts on 23Jun2023 at  7:21:37

     K-points division:     npool     =       2
     R & G space division:  proc/nbgrp/npool/nimage =       4

     Reading input from espresso_9215.pwi
Warning: card &CELL ignored
Warning: card / ignored

     Current dimensions of program PWSCF are:
     Max number of different atomic species (ntypx) = 10
     Max number of k-points (npk) =  40000
     Max angular momentum in pseudopotentials (lmaxx) =  4
     file O.pbe-n-kjpaw_psl.0.1.UPF: wavefunction(s)  2P renormalized
     Message from routine setup:
     using ibrav=0 with symmetry is DISCOURAGED, use correct ibrav instead

     Using Slab Decomposition

     bravais-lattice index     =            0
     lattice parameter (alat)  =      13.8335  a.u.
     unit-cell volume          =    2029.4096 (a.u.)^3
     number of atoms/cell      =           20
     number of atomic types    =            3
     number of electrons       =       160.00
     number of Kohn-Sham states=           90
     kinetic-energy cutoff     =      30.0000  Ry
     charge density cutoff     =     240.0000  Ry
     scf convergence threshold =      1.0E-06
     mixing beta               =       0.7000
     number of iterations used =            8  plain     mixing
     Exchange-correlation= SLA  PW   PBX  PBC
                           (   1   4   3   4   0   0   0)

     celldm(1)=  13.833481  celldm(2)=   0.000000  celldm(3)=   0.000000
     celldm(4)=   0.000000  celldm(5)=   0.000000  celldm(6)=   0.000000

     crystal axes: (cart. coord. in units of alat)
               a(1) = (   1.000000   0.000000   0.000000 )
               a(2) = (   0.104478   0.994527   0.000000 )
               a(3) = (   0.211868   0.190776   0.770830 )

     reciprocal axes: (cart. coord. in units 2 pi/alat)
               b(1) = (  1.000000 -0.105053 -0.248856 )
               b(2) = (  0.000000  1.005503 -0.248856 )
               b(3) = (  0.000000  0.000000  1.297303 )

     PseudoPot. # 1 for Na read from file:
     /home/pragov/projects/rrg-bengioy-ad/pragov/crystal_structure_design/SSSP/na_pbe_v1.5.uspp.F.UPF
     MD5 check sum: 44600605ef58000f06b90626533354dc
     Pseudo is Ultrasoft, Zval =  9.0
     Generated by new atomic code, or converted to UPF format
     Using radial grid of  819 points,  5 beta functions with:
                l(1) =   0
                l(2) =   0
                l(3) =   1
                l(4) =   1
                l(5) =   2
     Q(r) pseudized with  8 coefficients,  rinner =    1.250   1.250   1.250
                                                       1.250   1.250

     PseudoPot. # 2 for V  read from file:
     /home/pragov/projects/rrg-bengioy-ad/pragov/crystal_structure_design/SSSP/v_pbe_v1.4.uspp.F.UPF
     MD5 check sum: 22b79981416ebb76fdaf5b1b8640f6fb
     Pseudo is Ultrasoft + core correction, Zval = 13.0
     Generated by new atomic code, or converted to UPF format
     Using radial grid of  853 points,  6 beta functions with:
                l(1) =   0
                l(2) =   0
                l(3) =   1
                l(4) =   1
                l(5) =   2
                l(6) =   2
     Q(r) pseudized with  8 coefficients,  rinner =    1.100   1.100   1.100
                                                       1.100   1.100

     PseudoPot. # 3 for O  read from file:
     /home/pragov/projects/rrg-bengioy-ad/pragov/crystal_structure_design/SSSP/O.pbe-n-kjpaw_psl.0.1.UPF
     MD5 check sum: 0234752ac141de4415c5fc33072bef88
     Pseudo is Projector augmented-wave + core cor, Zval =  6.0
     Generated using "atomic" code by A. Dal Corso  v.5.0.99 svn rev. 10869
     Shape of augmentation charge: BESSEL
     Using radial grid of 1095 points,  4 beta functions with:
                l(1) =   0
                l(2) =   0
                l(3) =   1
                l(4) =   1
     Q(r) pseudized with 0 coefficients

     atomic species   valence    mass     pseudopotential
        Na             9.00    22.98977     Na( 1.00)
        V             13.00    50.94150     V ( 1.00)
        O              6.00    15.99900     O ( 1.00)

      2 Sym. Ops., with inversion, found

                                    s                        frac. trans.

      isym =  1     identity

 cryst.   s( 1) = (     1          0          0      )
                  (     0          1          0      )
                  (     0          0          1      )

 cart.    s( 1) = (  1.0000000  0.0000000  0.0000000 )
                  (  0.0000000  1.0000000 -0.0000000 )
                  (  0.0000000  0.0000000  1.0000000 )

      isym =  2     inversion

 cryst.   s( 2) = (    -1          0          0      )
                  (     0         -1          0      )
                  (     0          0         -1      )

 cart.    s( 2) = ( -1.0000000 -0.0000000 -0.0000000 )
                  (  0.0000000 -1.0000000  0.0000000 )
                  (  0.0000000  0.0000000 -1.0000000 )

   Cartesian axes

     site n.     atom                  positions (alat units)
         1           Na  tau(   1) = (   0.2390003   0.9516496   0.1927075  )
         2           Na  tau(   2) = (   1.0773455   0.2336537   0.5781226  )
         3           Na  tau(   3) = (   0.8053480   0.3226887   0.1927075  )
         4           Na  tau(   4) = (   0.5109979   0.8626145   0.5781226  )
         5           V   tau(   5) = (   0.7604758   0.8429064   0.2109323  )
         6           V   tau(   6) = (   1.0236802   0.7636365   0.5963473  )
         7           V   tau(   7) = (   0.2926656   0.4216667   0.1744828  )
         8           V   tau(   8) = (   0.5558700   0.3423969   0.5598979  )
         9           O   tau(   9) = (   0.4824629   0.4287904   0.3374640  )
        10           O   tau(  10) = (   0.5827844   0.5304112   0.7228791  )
        11           O   tau(  11) = (   0.2166892   0.6331451   0.1349747  )
        12           O   tau(  12) = (   0.7582531   0.2447415   0.5203897  )
        13           O   tau(  13) = (   0.1228446   0.2886586   0.2555294  )
        14           O   tau(  14) = (   0.4058472   0.1874018   0.6409445  )
        15           O   tau(  15) = (   0.9104986   0.9979015   0.1298856  )
        16           O   tau(  16) = (   1.1935012   0.8966446   0.5153007  )
        17           O   tau(  17) = (   0.5580917   0.9405618   0.2504404  )
        18           O   tau(  18) = (   1.0996566   0.5521581   0.6358555  )
        19           O   tau(  19) = (   0.7335614   0.6548921   0.0479510  )
        20           O   tau(  20) = (   0.8338830   0.7565128   0.4333661  )

   Crystallographic axes

     site n.     atom                  positions (cryst. coord.)
         1           Na  tau(   1) = (  0.0910700  0.9089300  0.2500000  )
         2           Na  tau(   2) = (  0.9089300  0.0910700  0.7500000  )
         3           Na  tau(   3) = (  0.7234920  0.2765080  0.2500000  )
         4           Na  tau(   4) = (  0.2765080  0.7234920  0.7500000  )
         5           V   tau(   5) = (  0.6194340  0.7950530  0.2736430  )
         6           V   tau(   6) = (  0.7950530  0.6194340  0.7736430  )
         7           V   tau(   7) = (  0.2049470  0.3805660  0.2263570  )
         8           V   tau(   8) = (  0.3805660  0.2049470  0.7263570  )
         9           O   tau(   9) = (  0.3534370  0.3471700  0.4377930  )
        10           O   tau(  10) = (  0.3471700  0.3534370  0.9377930  )
        11           O   tau(  11) = (  0.1165860  0.6030400  0.1751030  )
        12           O   tau(  12) = (  0.6030400  0.1165860  0.6751030  )
        13           O   tau(  13) = (  0.0289300  0.2266570  0.3314990  )
        14           O   tau(  14) = (  0.2266570  0.0289300  0.8314990  )
        15           O   tau(  15) = (  0.7733430  0.9710700  0.1685010  )
        16           O   tau(  16) = (  0.9710700  0.7733430  0.6685010  )
        17           O   tau(  17) = (  0.3969590  0.8834140  0.3248970  )
        18           O   tau(  18) = (  0.8834140  0.3969600  0.8248970  )
        19           O   tau(  19) = (  0.6528300  0.6465630  0.0622070  )
        20           O   tau(  20) = (  0.6465630  0.6528300  0.5622070  )

     number of k points=    14
                       cart. coord. in units 2pi/alat
        k(    1) = (   0.0000000   0.0000000   0.0000000), wk =   0.0740741
        k(    2) = (   0.0000000   0.0000000   0.4324342), wk =   0.1481481
        k(    3) = (   0.0000000   0.3351676  -0.0829521), wk =   0.1481481
        k(    4) = (   0.0000000   0.3351676   0.3494821), wk =   0.1481481
        k(    5) = (   0.0000000   0.3351676  -0.5153863), wk =   0.1481481
        k(    6) = (   0.3333333  -0.0350177  -0.0829521), wk =   0.1481481
        k(    7) = (   0.3333333  -0.0350177   0.3494821), wk =   0.1481481
        k(    8) = (   0.3333333  -0.0350177  -0.5153863), wk =   0.1481481
        k(    9) = (   0.3333333   0.3001499  -0.1659042), wk =   0.1481481
        k(   10) = (   0.3333333   0.3001499   0.2665300), wk =   0.1481481
        k(   11) = (   0.3333333   0.3001499  -0.5983384), wk =   0.1481481
        k(   12) = (   0.3333333  -0.3701854   0.0000000), wk =   0.1481481
        k(   13) = (   0.3333333  -0.3701854   0.4324342), wk =   0.1481481
        k(   14) = (   0.3333333  -0.3701854  -0.4324342), wk =   0.1481481

                       cryst. coord.
        k(    1) = (   0.0000000   0.0000000   0.0000000), wk =   0.0740741
        k(    2) = (   0.0000000   0.0000000   0.3333333), wk =   0.1481481
        k(    3) = (   0.0000000   0.3333333   0.0000000), wk =   0.1481481
        k(    4) = (   0.0000000   0.3333333   0.3333333), wk =   0.1481481
        k(    5) = (   0.0000000   0.3333333  -0.3333333), wk =   0.1481481
        k(    6) = (   0.3333333   0.0000000   0.0000000), wk =   0.1481481
        k(    7) = (   0.3333333   0.0000000   0.3333333), wk =   0.1481481
        k(    8) = (   0.3333333   0.0000000  -0.3333333), wk =   0.1481481
        k(    9) = (   0.3333333   0.3333333   0.0000000), wk =   0.1481481
        k(   10) = (   0.3333333   0.3333333   0.3333333), wk =   0.1481481
        k(   11) = (   0.3333333   0.3333333  -0.3333333), wk =   0.1481481
        k(   12) = (   0.3333333  -0.3333333   0.0000000), wk =   0.1481481
        k(   13) = (   0.3333333  -0.3333333   0.3333333), wk =   0.1481481
        k(   14) = (   0.3333333  -0.3333333  -0.3333333), wk =   0.1481481

     Check: negative core charge=   -0.000014

     Initial potential from superposition of free atoms

     starting charge     159.9699, renormalised to     160.0000

     negative rho (up, down):  6.758E-04 0.000E+00
     Starting wfcs are  108 randomized atomic wfcs
     Checking if some PAW data can be deallocated...

     Self-consistent Calculation

     iteration #  1     ecut=    30.00 Ry     beta= 0.70
     Davidson diagonalization with overlap

     ethr =  1.00E-02,  avg # of iterations =  2.0

     negative rho (up, down):  9.852E-03 0.000E+00

     total energy              =   -1456.47956835 Ry
     estimated scf accuracy    <       9.58071119 Ry

[...]

     total energy              =   -1462.55301699 Ry
     estimated scf accuracy    <       0.00000163 Ry

     iteration # 15     ecut=    30.00 Ry     beta= 0.70
     Davidson diagonalization with overlap

     ethr =  1.02E-09,  avg # of iterations =  3.9

     negative rho (up, down):  3.735E-03 0.000E+00

     End of self-consistent calculation

          k = 0.0000 0.0000 0.0000 (  5641 PWs)   bands (ev):

   -61.2324 -61.2322 -61.2291 -61.2290 -46.4847 -46.4845 -45.9276 -45.9261
   -35.1749 -35.1742 -35.1741 -35.1739 -35.1658 -35.1653 -35.1500 -35.1473
   -35.1395 -35.1384 -35.0811 -35.0805 -18.4111 -18.4108 -18.4000 -18.3989
   -18.3967 -18.3967 -17.8800 -17.8640 -17.8555 -17.8485 -17.8475 -17.8376
   -14.3609 -14.2407 -13.9708 -13.9398 -13.4144 -13.3250 -13.3071 -13.2305
   -13.1248 -13.0602 -13.0454 -13.0375  -1.3029  -1.2831  -1.2527  -1.1905
    -0.7780  -0.7474  -0.4874  -0.3792  -0.3003  -0.2050  -0.0350   0.0265
     0.0321   0.0461   0.0806   0.2271   0.2671   0.3736   0.4898   0.5408
     0.5976   0.7099   1.1311   1.1664   1.2003   1.2776   1.2947   1.5089
     1.7688   1.8964   2.0316   2.0924   2.1193   2.1832   2.2906   2.3706
     5.4546   5.4848   5.7950   5.8218   6.0312   6.1100   6.1395   6.2552
     6.3622   6.6176

     occupation numbers
     1.0000   1.0000   1.0000   1.0000   1.0000   1.0000   1.0000   1.0000
     1.0000   1.0000   1.0000   1.0000   1.0000   1.0000   1.0000   1.0000
     1.0000   1.0000   1.0000   1.0000   1.0000   1.0000   1.0000   1.0000
     1.0000   1.0000   1.0000   1.0000   1.0000   1.0000   1.0000   1.0000
     1.0000   1.0000   1.0000   1.0000   1.0000   1.0000   1.0000   1.0000
     1.0000   1.0000   1.0000   1.0000   1.0000   1.0000   1.0000   1.0000
     1.0000   1.0000   1.0000   1.0000   1.0000   1.0000   1.0000   1.0000
     1.0000   1.0000   1.0000   1.0000   1.0000   1.0000   1.0000   1.0000
     1.0000   1.0000   1.0000   1.0000   1.0000   1.0000   1.0000   1.0000
     1.0000   1.0000   1.0000   1.0000   1.0000   1.0000   1.0000   1.0000
     0.0000   0.0000   0.0000   0.0000   0.0000   0.0000   0.0000   0.0000
     0.0000   0.0000

[...]

          k = 0.3333-0.3702-0.4324 (  5645 PWs)   bands (ev):

   -61.2317 -61.2315 -61.2299 -61.2298 -46.4847 -46.4846 -45.9274 -45.9263
   -35.1755 -35.1749 -35.1748 -35.1741 -35.1640 -35.1638 -35.1586 -35.1578
   -35.1187 -35.1184 -35.0933 -35.0929 -18.4117 -18.4109 -18.3996 -18.3990
   -18.3977 -18.3971 -17.8776 -17.8686 -17.8568 -17.8521 -17.8426 -17.8383
   -14.2459 -14.1820 -14.0701 -14.0221 -13.3576 -13.3043 -13.2981 -13.2659
   -13.1259 -13.0735 -13.0605 -13.0532  -1.3017  -1.2632  -1.2485  -1.2125
    -0.8304  -0.6745  -0.4928  -0.4339  -0.3561  -0.2869  -0.1706  -0.1474
    -0.0691   0.0285   0.1734   0.2455   0.4508   0.4983   0.6627   0.7240
     0.8322   0.9271   0.9723   1.0423   1.2970   1.3640   1.4130   1.5252
     1.6020   1.7326   1.7781   1.8768   2.1751   2.1834   2.2093   2.2863
     5.4419   5.4692   5.7044   5.7873   6.0519   6.1229   6.2801   6.2909
     6.7390   6.8044

     occupation numbers
     1.0000   1.0000   1.0000   1.0000   1.0000   1.0000   1.0000   1.0000
     1.0000   1.0000   1.0000   1.0000   1.0000   1.0000   1.0000   1.0000
     1.0000   1.0000   1.0000   1.0000   1.0000   1.0000   1.0000   1.0000
     1.0000   1.0000   1.0000   1.0000   1.0000   1.0000   1.0000   1.0000
     1.0000   1.0000   1.0000   1.0000   1.0000   1.0000   1.0000   1.0000
     1.0000   1.0000   1.0000   1.0000   1.0000   1.0000   1.0000   1.0000
     1.0000   1.0000   1.0000   1.0000   1.0000   1.0000   1.0000   1.0000
     1.0000   1.0000   1.0000   1.0000   1.0000   1.0000   1.0000   1.0000
     1.0000   1.0000   1.0000   1.0000   1.0000   1.0000   1.0000   1.0000
     1.0000   1.0000   1.0000   1.0000   1.0000   1.0000   1.0000   1.0000
     0.0000   0.0000   0.0000   0.0000   0.0000   0.0000   0.0000   0.0000
     0.0000   0.0000

     highest occupied, lowest unoccupied level (ev):     2.3706    5.4172

!    total energy              =   -1462.55301714 Ry
     estimated scf accuracy    <       0.00000007 Ry

     The total energy is the sum of the following terms:
     one-electron contribution =    -905.22490366 Ry
     hartree contribution      =     502.65102465 Ry
     xc contribution           =    -224.20478981 Ry
     ewald contribution        =    -721.42265447 Ry
     one-center paw contrib.   =    -114.35169385 Ry
      -> PAW hartree energy AE =       0.00000000 Ry
      -> PAW hartree energy PS =       0.00000000 Ry
      -> PAW xc energy AE      =       0.00000000 Ry
      -> PAW xc energy PS      =       0.00000000 Ry
      -> total E_H with PAW    =     502.65102465 Ry
      -> total E_XC with PAW   =    -224.20478981 Ry

     convergence has been achieved in  15 iterations

     Writing all to output data dir calculations_bands/myprefix.save/

     General routines

     Parallel routines

     PAW routines

   This run was terminated on:   7:22: 9  23Jun2023

   JOB DONE.