     Program PWSCF v.7.1 starts on 15Jul2023 at 18:26:52

     Reading input from espresso_10820.pwi
Warning: card &CELL ignored
Warning: card / ignored

     Current dimensions of program PWSCF are:
     Max number of different atomic species (ntypx) = 10
     Max number of k-points (npk) =  40000
     Max angular momentum in pseudopotentials (lmaxx) =  4
     file Cd.pbe-dn-rrkjus_psl.0.3.1.UPF: wavefunction(s)  4D renormalized
     Message from routine setup:
     using ibrav=0 with symmetry is DISCOURAGED, use correct ibrav instead

     K-points division:     npool     =       2
     R & G space division:  proc/nbgrp/npool/nimage =       4
     Subspace diagonalization in iterative solution of the eigenvalue problem:
     one sub-group per band group will be used

     Using Slab Decomposition

     bravais-lattice index     =            0
     lattice parameter (alat)  =       9.8917  a.u.
     unit-cell volume          =    1550.6295 (a.u.)^3
     number of atoms/cell      =           18
     number of atomic types    =            4
     number of electrons       =       140.00
     number of Kohn-Sham states=          256
     kinetic-energy cutoff     =      30.0000  Ry
     charge density cutoff     =     240.0000  Ry
     scf convergence threshold =      1.0E-06
     mixing beta               =       0.7000
     number of iterations used =            8  plain     mixing
     Exchange-correlation=  SLA  PW   PBX  PBC
                           (   1   4   3   4   0   0   0)

     celldm(1)=   9.891651  celldm(2)=   0.000000  celldm(3)=   0.000000
     celldm(4)=   0.000000  celldm(5)=   0.000000  celldm(6)=   0.000000

     crystal axes: (cart. coord. in units of alat)
               a(1) = (   1.000000   0.000000   0.000000 )
               a(2) = (  -0.500000   0.866025   0.000000 )
               a(3) = (   0.000000   0.000000   1.849997 )

     reciprocal axes: (cart. coord. in units 2 pi/alat)
               b(1) = (  1.000000  0.577350  0.000000 )
               b(2) = (  0.000000  1.154701  0.000000 )
               b(3) = (  0.000000  0.000000  0.540541 )

     PseudoPot. # 1 for Li read from file:
     /lustre07/scratch/pragov/crystal_structure_design/utils/SSSP/li_pbe_v1.4.uspp.F.UPF
     MD5 check sum: e912e257baa3777c20ea3d68f190483c
     Pseudo is Ultrasoft, Zval =  3.0
     Generated by new atomic code, or converted to UPF format
     Using radial grid of  751 points,  5 beta functions with:
                l(1) =   0
                l(2) =   0
                l(3) =   0
                l(4) =   1
                l(5) =   1
     Q(r) pseudized with 10 coefficients,  rinner =    1.150   1.150   1.150

     PseudoPot. # 2 for V  read from file:
     /lustre07/scratch/pragov/crystal_structure_design/utils/SSSP/v_pbe_v1.4.uspp.F.UPF
     MD5 check sum: 22b79981416ebb76fdaf5b1b8640f6fb
     Pseudo is Ultrasoft + core correction, Zval = 13.0
     Generated by new atomic code, or converted to UPF format
     Using radial grid of  853 points,  6 beta functions with:
                l(1) =   0
                l(2) =   0
                l(3) =   1
                l(4) =   1
                l(5) =   2
                l(6) =   2
     Q(r) pseudized with  8 coefficients,  rinner =    1.100   1.100   1.100
                                                       1.100   1.100

     PseudoPot. # 3 for Cd read from file:
     /lustre07/scratch/pragov/crystal_structure_design/utils/SSSP/Cd.pbe-dn-rrkjus_psl.0.3.1.UPF
     MD5 check sum: 558e9f355611b531a870a69ef6ace9e2
     Pseudo is Ultrasoft + core correction, Zval = 12.0
     Generated using "atomic" code by A. Dal Corso  v.5.0.99 svn rev. 10869
     Using radial grid of 1239 points,  6 beta functions with:
                l(1) =   0
                l(2) =   0
                l(3) =   1
                l(4) =   1
                l(5) =   2
                l(6) =   2
     Q(r) pseudized with 0 coefficients

     PseudoPot. # 4 for F  read from file:
     /lustre07/scratch/pragov/crystal_structure_design/utils/SSSP/f_pbe_v1.4.uspp.F.UPF
     MD5 check sum: 4c38b6a325caf53ec0e86aed9459de46
     Pseudo is Ultrasoft, Zval =  7.0
     Generated by new atomic code, or converted to UPF format
     Using radial grid of  799 points,  4 beta functions with:
                l(1) =   0
                l(2) =   0
                l(3) =   1
                l(4) =   1
     Q(r) pseudized with  8 coefficients,  rinner =    0.950   0.950   0.950

     atomic species   valence    mass     pseudopotential
        Li             3.00     6.94000     Li( 1.00)
        V             13.00    50.94150     V ( 1.00)
        Cd            12.00   112.41400     Cd( 1.00)
        F              7.00    18.99840     F ( 1.00)

     12 Sym. Ops., with inversion, found ( 6 have fractional translation)

                                    s                        frac. trans.

      isym =  1     identity

 cryst.   s( 1) = (     1          0          0      )
                  (     0          1          0      )
                  (     0          0          1      )

 cart.    s( 1) = (  1.0000000 -0.0000000  0.0000000 )
                  (  0.0000000  1.0000000  0.0000000 )
                  (  0.0000000  0.0000000  1.0000000 )

      isym =  2     180 deg rotation - cart. axis [0,1,0]

 cryst.   s( 2) = (    -1          0          0      )    f =(  0.0000010 )
                  (     1          1          0      )       (  0.0000000 )
                  (     0          0         -1      )       (  0.5000000 )

 cart.    s( 2) = ( -1.0000000 -0.0000002  0.0000000 )    f =(  0.0000010 )
                  (  0.0000000  1.0000000  0.0000000 )       (  0.0000000 )
                  (  0.0000000  0.0000000 -1.0000000 )       (  0.9249985 )

      isym =  3     120 deg rotation - cryst. axis [0,0,1]

[...]

      isym =  6     180 deg rotation - cryst. axis [2,1,0]

[...]

      isym =  7     inversion

[...]

      isym =  8     inv. 180 deg rotation - cart. axis [0,1,0]

 cryst.   s( 8) = (     1          0          0      )    f =(  0.0000010 )
                  (    -1         -1          0      )       (  0.0000000 )
                  (     0          0          1      )       (  0.5000000 )

 cart.    s( 8) = (  1.0000000  0.0000002  0.0000000 )    f =(  0.0000010 )
                  (  0.0000000 -1.0000000  0.0000000 )       (  0.0000000 )
                  (  0.0000000  0.0000000  1.0000000 )       (  0.9249985 )

      isym =  9     inv. 120 deg rotation - cryst. axis [0,0,1]

 cryst.   s( 9) = (     0         -1          0      )
                  (     1          1          0      )
                  (     0          0         -1      )

 cart.    s( 9) = (  0.5000001  0.8660254  0.0000000 )
                  ( -0.8660254  0.4999999  0.0000000 )
                  (  0.0000000  0.0000000 -1.0000000 )

[...]

 cryst.   s(10) = (     1          1          0      )
                  (    -1          0          0      )
                  (     0          0         -1      )

 cart.    s(10) = (  0.4999999 -0.8660254  0.0000000 )
                  (  0.8660254  0.5000001  0.0000000 )
                  (  0.0000000  0.0000000 -1.0000000 )

[...]

 cryst.   s(11) = (     0          1          0      )    f =( -0.0000000 )
                  (     1          0          0      )       (  0.0000000 )
                  (     0          0          1      )       (  0.5000000 )

 cart.    s(11) = ( -0.5000001  0.8660254  0.0000000 )    f =( -0.0000000 )
                  (  0.8660254  0.5000001  0.0000000 )       (  0.0000000 )
                  (  0.0000000  0.0000000  1.0000000 )       (  0.9249985 )

      isym = 12     inv. 180 deg rotation - cryst. axis [2,1,0]

 cryst.   s(12) = (    -1         -1          0      )    f =( -0.0000000 )
                  (     0          1          0      )       ( -0.0000010 )
                  (     0          0          1      )       (  0.5000000 )

 cart.    s(12) = ( -0.4999999 -0.8660255  0.0000000 )    f =(  0.0000005 )
                  ( -0.8660254  0.4999999  0.0000000 )       ( -0.0000009 )
                  (  0.0000000  0.0000000  1.0000000 )       (  0.9249985 )

   Cartesian axes

     site n.     atom                  positions (alat units)
         1           Li  tau(   1) = (  -0.0000005   0.5773505   1.3874978  )
         2           Li  tau(   2) = (   0.5000005   0.2886748   0.4624993  )
         3           V   tau(   3) = (   0.5000005   0.2886748   1.3874978  )
         4           V   tau(   4) = (  -0.0000005   0.5773505   0.4624993  )
         5           Cd  tau(   5) = (   0.0000000   0.0000000   0.9249985  )
         6           Cd  tau(   6) = (   0.0000000   0.0000000   0.0000000  )
         7           F   tau(   7) = (   0.6466245   0.0110358   1.1781059  )
         8           F   tau(   8) = (  -0.1466246   0.8549896   0.6718912  )
         9           F   tau(   9) = (   0.6671305   0.5544753   1.1781059  )
        10           F   tau(  10) = (   0.3328695   0.5544753   1.5968897  )
        11           F   tau(  11) = (  -0.1671305   0.3115500   0.6718912  )
        12           F   tau(  12) = (   0.1671305   0.3115500   0.2531073  )
        13           F   tau(  13) = (   0.1862450   0.3005143   1.1781059  )
        14           F   tau(  14) = (   0.8137550   0.3005143   1.5968897  )
        15           F   tau(  15) = (   0.3137550   0.5655111   0.6718912  )
        16           F   tau(  16) = (  -0.3137550   0.5655111   0.2531073  )
        17           F   tau(  17) = (   0.3533755   0.0110358   1.5968897  )
        18           F   tau(  18) = (   0.1466244   0.8549896   0.2531073  )

   Crystallographic axes

     site n.     atom                  positions (cryst. coord.)
         1           Li  tau(   1) = (  0.3333330  0.6666670  0.7500000  )
         2           Li  tau(   2) = (  0.6666670  0.3333330  0.2500000  )
         3           V   tau(   3) = (  0.6666670  0.3333330  0.7500000  )
         4           V   tau(   4) = (  0.3333330  0.6666670  0.2500000  )
         5           Cd  tau(   5) = (  0.0000000  0.0000000  0.5000000  )
         6           Cd  tau(   6) = (  0.0000000  0.0000000  0.0000000  )
         7           F   tau(   7) = (  0.6529960  0.0127430  0.6368150  )
         8           F   tau(   8) = (  0.3470040  0.9872570  0.3631850  )
         9           F   tau(   9) = (  0.9872570  0.6402530  0.6368150  )
        10           F   tau(  10) = (  0.6529960  0.6402530  0.8631850  )
        11           F   tau(  11) = (  0.0127430  0.3597470  0.3631850  )
        12           F   tau(  12) = (  0.3470040  0.3597470  0.1368150  )
        13           F   tau(  13) = (  0.3597470  0.3470040  0.6368150  )
        14           F   tau(  14) = (  0.9872570  0.3470040  0.8631850  )
        15           F   tau(  15) = (  0.6402530  0.6529960  0.3631850  )
        16           F   tau(  16) = (  0.0127430  0.6529960  0.1368150  )
        17           F   tau(  17) = (  0.3597470  0.0127430  0.8631850  )
        18           F   tau(  18) = (  0.6402530  0.9872570  0.1368150  )

     number of k points=     7
                       cart. coord. in units 2pi/alat
        k(    1) = (   0.0000000   0.0000000   0.0000000), wk =   0.0740741
        k(    2) = (   0.0000000   0.0000000   0.1801805), wk =   0.1481481
        k(    3) = (   0.0000000   0.3849002   0.0000000), wk =   0.4444444
        k(    4) = (   0.0000000   0.3849002   0.1801805), wk =   0.8888889
        k(    5) = (   0.3333333   0.5773503   0.0000000), wk =   0.1481481
        k(    6) = (   0.3333333   0.5773503   0.1801805), wk =   0.1481481
        k(    7) = (  -0.3333333  -0.5773503   0.1801805), wk =   0.1481481

                       cryst. coord.
        k(    1) = (   0.0000000   0.0000000   0.0000000), wk =   0.0740741
        k(    2) = (   0.0000000   0.0000000   0.3333333), wk =   0.1481481
        k(    3) = (   0.0000000   0.3333333   0.0000000), wk =   0.4444444
        k(    4) = (   0.0000000   0.3333333   0.3333333), wk =   0.8888889
        k(    5) = (   0.3333333   0.3333333   0.0000000), wk =   0.1481481
        k(    6) = (   0.3333333   0.3333333   0.3333333), wk =   0.1481481
        k(    7) = (  -0.3333333  -0.3333333   0.3333333), wk =   0.1481481

     Check: negative core charge=   -0.000003

     Initial potential from superposition of free atoms

     starting charge     139.0863, renormalised to     140.0000

     negative rho (up, down):  7.510E-04 0.000E+00
     Starting wfcs are   96 randomized atomic wfcs +  160 random wfcs

     Self-consistent Calculation

     iteration #  1     ecut=    30.00 Ry     beta= 0.70
     Davidson diagonalization with overlap

     ethr =  1.00E-02,  avg # of iterations =  8.4

     negative rho (up, down):  4.378E-03 0.000E+00

     total energy              =   -1146.88412566 Ry
     estimated scf accuracy    <       2.29193651 Ry

[...]

     c_bands:  1 eigenvalues not converged
     ethr =  4.63E-06,  avg # of iterations = 11.4

[...]

     c_bands:  2 eigenvalues not converged
     ethr =  1.10E-07,  avg # of iterations =  5.4

[...]

     total energy              =   -1148.17887125 Ry
     estimated scf accuracy    <       0.00001404 Ry

     iteration # 12     ecut=    30.00 Ry     beta= 0.70
     Davidson diagonalization with overlap

     ethr =  1.00E-08,  avg # of iterations =  1.1

     negative rho (up, down):  2.108E-03 0.000E+00

     End of self-consistent calculation

          k = 0.0000 0.0000 0.0000 (  4273 PWs)   bands (ev):

   -59.4677 -59.4675 -39.2716 -39.2709 -33.3605 -33.3593 -33.3096 -33.3096
   -33.3088 -33.3088 -18.6085 -18.4806 -18.1703 -18.1645 -18.1645 -18.1292
   -18.1292 -18.0316 -18.0283 -18.0282 -17.9924 -17.9924  -2.9419  -2.9419
    -2.8148  -2.8147  -2.4367  -2.3817  -2.3817  -2.3268  -2.3268  -2.2859
    -1.6165  -1.0255  -1.0255  -0.9339  -0.8674  -0.8673  -0.6764  -0.4273
    -0.3781  -0.1793  -0.1793  -0.0908   0.0380   0.0380   0.0842   0.0843
     0.2026   0.2519   0.3010   0.4407   0.5988   0.5989   0.7685   0.7685
     0.9032   1.1041   1.1041   1.2477   1.2478   1.3206   1.3207   1.4048
     1.4049   1.4115   1.6660   1.6661   6.4003   6.4356   6.4917   6.4917
     6.5242   6.5242   7.1277   8.3140   8.3177   8.3177   8.4399   8.4399
    10.7622  12.8359  13.6673  14.1917  14.1917  14.2584  14.2711  14.2712
    15.8876  15.9682  15.9683  16.0769  16.2896  16.5845  16.6964  16.6964
    17.3506  17.3507  17.8463  18.2153  18.2153  18.5495  18.6846  18.6847
    19.1538  19.2972  19.9559  19.9559  20.2665  20.2729  20.4191  23.1366
    23.1366  23.5735  23.8215  23.8216  24.1313  24.5305  24.5305  25.0857
    25.0857  25.1752  25.1752  25.6366  25.8023  26.6620  27.0552  27.1509
    27.1509  27.1564  27.1564  27.1756  28.1379  28.1379  28.2067  28.3662
    28.5636  28.5637  28.8585  28.8585  29.8182  29.8182  30.0032  30.3462
    30.3463  30.7479  31.0789  31.0789  31.5338  31.5338  31.7590  31.7590
    32.3072  32.5244  32.5244  32.6745  32.8035  32.9323  33.5487  33.8165
    33.8165  34.9260  34.9260  35.4005  35.4005  35.4256  35.4820  35.5059
    35.7564  35.7564  36.3082  36.5783  36.5783  36.6368  36.6368  36.6566
    36.9004  37.3825  37.3825  37.4710  37.4710  37.7678  38.2401  38.2401
    38.4106  38.4107  38.7442  38.7442  38.9582  38.9582  39.0202  39.1797
    39.6967  39.8816  39.9126  40.3963  40.3963  40.9915  40.9915  41.0041
    41.3751  41.6295  41.6295  41.8876  42.7527  43.1540  43.1541  43.3240
    43.3240  43.4271  44.0693  44.0989  44.5367  44.5367  44.8322  44.8322
    45.6460  45.7784  45.8714  45.8715  46.0809  46.0809  46.2221  46.2221
    46.5121  46.7251  46.7251  46.7336  46.7336  46.9191  47.3521  47.6703
    47.6703  47.7889  47.7889  48.3113  48.4439  48.4439  49.1585  49.3269
    49.5422  49.5422  49.9763  49.9763  49.9882  49.9882  50.0961  50.5851
    51.2216  51.3175  51.5462  51.5463  51.5612  51.6584  52.0239  52.0241

     occupation numbers
     1.0000   1.0000   1.0000   1.0000   1.0000   1.0000   1.0000   1.0000
     1.0000   1.0000   1.0000   1.0000   1.0000   1.0000   1.0000   1.0000
     1.0000   1.0000   1.0000   1.0000   1.0000   1.0000   1.0000   1.0000
     1.0000   1.0000   1.0000   1.0000   1.0000   1.0000   1.0000   1.0000
     1.0000   1.0000   1.0000   1.0000   1.0000   1.0000   1.0000   1.0000
     1.0000   1.0000   1.0000   1.0000   1.0000   1.0000   1.0000   1.0000
     1.0000   1.0000   1.0000   1.0000   1.0000   1.0000   1.0000   1.0000
     1.0000   1.0000   1.0000   1.0000   1.0000   1.0000   1.0000   1.0000
     1.0000   1.0000   1.0000   1.0000   1.0000   1.0000   0.0000   0.0000
     0.0000   0.0000   0.0000   0.0000   0.0000   0.0000   0.0000   0.0000
     0.0000   0.0000   0.0000   0.0000   0.0000   0.0000   0.0000   0.0000
     0.0000   0.0000   0.0000   0.0000   0.0000   0.0000   0.0000   0.0000
     0.0000   0.0000   0.0000   0.0000   0.0000   0.0000   0.0000   0.0000
     0.0000   0.0000   0.0000   0.0000   0.0000   0.0000   0.0000   0.0000
     0.0000   0.0000   0.0000   0.0000   0.0000   0.0000   0.0000   0.0000
     0.0000   0.0000   0.0000   0.0000   0.0000   0.0000   0.0000   0.0000
     0.0000   0.0000   0.0000   0.0000   0.0000   0.0000   0.0000   0.0000
     0.0000   0.0000   0.0000   0.0000   0.0000   0.0000   0.0000   0.0000
     0.0000   0.0000   0.0000   0.0000   0.0000   0.0000   0.0000   0.0000
     0.0000   0.0000   0.0000   0.0000   0.0000   0.0000   0.0000   0.0000
     0.0000   0.0000   0.0000   0.0000   0.0000   0.0000   0.0000   0.0000
     0.0000   0.0000   0.0000   0.0000   0.0000   0.0000   0.0000   0.0000
     0.0000   0.0000   0.0000   0.0000   0.0000   0.0000   0.0000   0.0000
     0.0000   0.0000   0.0000   0.0000   0.0000   0.0000   0.0000   0.0000
     0.0000   0.0000   0.0000   0.0000   0.0000   0.0000   0.0000   0.0000
     0.0000   0.0000   0.0000   0.0000   0.0000   0.0000   0.0000   0.0000
     0.0000   0.0000   0.0000   0.0000   0.0000   0.0000   0.0000   0.0000
     0.0000   0.0000   0.0000   0.0000   0.0000   0.0000   0.0000   0.0000
     0.0000   0.0000   0.0000   0.0000   0.0000   0.0000   0.0000   0.0000
     0.0000   0.0000   0.0000   0.0000   0.0000   0.0000   0.0000   0.0000
     0.0000   0.0000   0.0000   0.0000   0.0000   0.0000   0.0000   0.0000
     0.0000   0.0000   0.0000   0.0000   0.0000   0.0000   0.0000   0.0000

[...]

          k = 0.3333 0.5774 0.1802 (  4293 PWs)   bands (ev):

[...]

          k =-0.3333-0.5774 0.1802 (  4293 PWs)   bands (ev):

   -59.4677 -59.4676 -39.2717 -39.2713 -33.3617 -33.3617 -33.3091 -33.3087
   -33.3086 -33.3086 -18.3840 -18.3840 -18.1957 -18.1957 -18.1848 -18.1599
   -18.1098 -18.1089 -18.1089 -18.0858 -18.0087 -18.0087  -2.9469  -2.9468
    -2.7546  -2.7546  -2.3534  -2.3534  -2.3362  -2.3362  -2.3331  -2.2587
    -1.7404  -1.3828  -1.0497  -1.0496  -0.7722  -0.6174  -0.5797  -0.5797
    -0.3495  -0.3495  -0.0682  -0.0682  -0.0046   0.0362   0.0362   0.1148
     0.3595   0.3596   0.4269   0.4358   0.4358   0.6601   0.6886   0.8491
     0.8491   0.8500   1.0884   1.0885   1.3305   1.3327   1.3327   1.3945
     1.4211   1.4212   1.6909   1.6909   6.2954   6.4282   6.4307   6.4307
     6.4650   6.4650   7.7458   8.0297   8.2707   8.2707   9.0042   9.4439
    11.8427  11.8427  12.2619  12.2620  12.8008  13.3833  15.0944  15.0945
    15.9061  15.9061  16.1037  16.6721  16.6722  16.7085  16.7086  16.9283
    17.6263  18.0906  18.0907  18.2884  19.0068  19.0069  19.5980  19.6165
    19.6165  19.7470  20.4136  20.4137  20.9852  20.9853  21.3174  21.8745
    22.2650  22.2650  22.9647  23.0016  23.0832  23.0833  23.8974  23.8975
    23.9440  23.9440  24.3556  24.4559  24.8760  25.3930  25.3931  26.2187
    26.2188  27.1334  27.2650  27.2651  28.2111  28.2112  28.2313  28.9717
    28.9717  29.4078  29.8443  29.8443  29.8604  30.3501  30.6305  30.6305
    31.2143  31.2143  31.5593  31.7277  31.7278  32.5066  32.5066  32.6423
    32.7097  33.1532  33.1533  33.4520  33.6893  33.6893  33.8530  34.3858
    34.3858  34.7379  34.7379  35.0915  35.0915  35.2487  35.6857  35.8390
    36.6141  36.6803  36.6803  36.9372  36.9373  37.0116  37.1783  37.1783
    37.4720  37.6483  38.3236  38.3237  38.5471  38.5803  38.5893  38.5893
    39.0705  39.0706  39.2091  39.6161  39.6162  39.6503  39.9346  39.9347
    40.4134  40.4134  40.5099  40.7189  40.8049  40.9517  41.0269  41.0269
    41.3171  41.3172  41.7343  42.1317  42.1317  42.6196  42.6471  42.6471
    43.0171  43.0172  43.1376  43.4448  43.6875  43.6875  44.0341  44.0753
    44.0807  44.0878  44.0878  44.2420  44.2420  44.5552  45.0554  45.0554
    45.4319  45.4319  45.7761  46.1372  46.1372  46.8488  46.8488  47.0748
    47.3916  47.6101  47.6101  47.8874  47.9546  47.9546  48.1423  48.3366
    48.6817  48.8580  48.8582  49.0031  49.0032  49.0627  49.5467  49.5468
    50.3885  50.3886  50.4765  50.4841  50.6371  50.9917  50.9918  51.1127

     occupation numbers
     1.0000   1.0000   1.0000   1.0000   1.0000   1.0000   1.0000   1.0000
     1.0000   1.0000   1.0000   1.0000   1.0000   1.0000   1.0000   1.0000
     1.0000   1.0000   1.0000   1.0000   1.0000   1.0000   1.0000   1.0000
     1.0000   1.0000   1.0000   1.0000   1.0000   1.0000   1.0000   1.0000
     1.0000   1.0000   1.0000   1.0000   1.0000   1.0000   1.0000   1.0000
     1.0000   1.0000   1.0000   1.0000   1.0000   1.0000   1.0000   1.0000
     1.0000   1.0000   1.0000   1.0000   1.0000   1.0000   1.0000   1.0000
     1.0000   1.0000   1.0000   1.0000   1.0000   1.0000   1.0000   1.0000
     1.0000   1.0000   1.0000   1.0000   1.0000   1.0000   0.0000   0.0000
     0.0000   0.0000   0.0000   0.0000   0.0000   0.0000   0.0000   0.0000
     0.0000   0.0000   0.0000   0.0000   0.0000   0.0000   0.0000   0.0000
     0.0000   0.0000   0.0000   0.0000   0.0000   0.0000   0.0000   0.0000
     0.0000   0.0000   0.0000   0.0000   0.0000   0.0000   0.0000   0.0000
     0.0000   0.0000   0.0000   0.0000   0.0000   0.0000   0.0000   0.0000
     0.0000   0.0000   0.0000   0.0000   0.0000   0.0000   0.0000   0.0000
     0.0000   0.0000   0.0000   0.0000   0.0000   0.0000   0.0000   0.0000
     0.0000   0.0000   0.0000   0.0000   0.0000   0.0000   0.0000   0.0000
     0.0000   0.0000   0.0000   0.0000   0.0000   0.0000   0.0000   0.0000
     0.0000   0.0000   0.0000   0.0000   0.0000   0.0000   0.0000   0.0000
     0.0000   0.0000   0.0000   0.0000   0.0000   0.0000   0.0000   0.0000
     0.0000   0.0000   0.0000   0.0000   0.0000   0.0000   0.0000   0.0000
     0.0000   0.0000   0.0000   0.0000   0.0000   0.0000   0.0000   0.0000
     0.0000   0.0000   0.0000   0.0000   0.0000   0.0000   0.0000   0.0000
     0.0000   0.0000   0.0000   0.0000   0.0000   0.0000   0.0000   0.0000
     0.0000   0.0000   0.0000   0.0000   0.0000   0.0000   0.0000   0.0000
     0.0000   0.0000   0.0000   0.0000   0.0000   0.0000   0.0000   0.0000
     0.0000   0.0000   0.0000   0.0000   0.0000   0.0000   0.0000   0.0000
     0.0000   0.0000   0.0000   0.0000   0.0000   0.0000   0.0000   0.0000
     0.0000   0.0000   0.0000   0.0000   0.0000   0.0000   0.0000   0.0000
     0.0000   0.0000   0.0000   0.0000   0.0000   0.0000   0.0000   0.0000
     0.0000   0.0000   0.0000   0.0000   0.0000   0.0000   0.0000   0.0000
     0.0000   0.0000   0.0000   0.0000   0.0000   0.0000   0.0000   0.0000

     highest occupied, lowest unoccupied level (ev):     6.4379    6.4307

!    total energy              =   -1148.17887157 Ry
     estimated scf accuracy    <       0.00000095 Ry

     The total energy is the sum of the following terms:
     one-electron contribution =    -573.43296713 Ry
     hartree contribution      =     364.92940642 Ry
     xc contribution           =    -244.23264228 Ry
     ewald contribution        =    -695.44266858 Ry

     convergence has been achieved in  12 iterations

     Writing all to output data dir bands_nm/myprefix.save/

     General routines

     Parallel routines

   This run was terminated on:  18:27:31  15Jul2023

   JOB DONE.