     Program PWSCF v.7.1 starts on 12Jul2023 at 15:13:43

     Reading input from espresso_22402.pwi
Warning: card &CELL ignored
Warning: card / ignored

     Current dimensions of program PWSCF are:
     Max number of different atomic species (ntypx) = 10
     Max number of k-points (npk) =  40000
     Max angular momentum in pseudopotentials (lmaxx) =  4
     file Al.pbe-n-kjpaw_psl.1.0.0.UPF: wavefunction(s)  3S 3P renormalized
     Message from routine setup:
     using ibrav=0 with symmetry is DISCOURAGED, use correct ibrav instead

     K-points division:     npool     =       2
     R & G space division:  proc/nbgrp/npool/nimage =       8
     Subspace diagonalization in iterative solution of the eigenvalue problem:
     a serial algorithm will be used

     Using Slab Decomposition

     bravais-lattice index     =            0
     lattice parameter (alat)  =      14.0438  a.u.
     unit-cell volume          =    1844.5504 (a.u.)^3
     number of atoms/cell      =           18
     number of atomic types    =            4
     number of electrons       =       120.00
     number of Kohn-Sham states=           64
     kinetic-energy cutoff     =      30.0000  Ry
     charge density cutoff     =     240.0000  Ry
     scf convergence threshold =      1.0E-06
     mixing beta               =       0.7000
     number of iterations used =            8  plain     mixing
     Exchange-correlation=  SLA  PW   PBX  PBC
                           (   1   4   3   4   0   0   0)

     celldm(1)=  14.043752  celldm(2)=   0.000000  celldm(3)=   0.000000
     celldm(4)=   0.000000  celldm(5)=   0.000000  celldm(6)=   0.000000

     crystal axes: (cart. coord. in units of alat)
               a(1) = (   1.000000   0.000000   0.000000 )
               a(2) = (   0.537746   0.843107   0.000000 )
               a(3) = (   0.537746   0.294832   0.789875 )

     reciprocal axes: (cart. coord. in units 2 pi/alat)
               b(1) = (  1.000000 -0.637815 -0.442725 )
               b(2) = (  0.000000  1.186089 -0.442725 )
               b(3) = (  0.000000  0.000000  1.266023 )

     PseudoPot. # 1 for Cs read from file:
     /lustre07/scratch/pragov/crystal_structure_design/utils/SSSP/Cs_pbe_v1.uspp.F.UPF
     MD5 check sum: 3476d69cb178dfad3ffaa59df4e07ca4
     Pseudo is Ultrasoft + core correction, Zval =  9.0
     Generated by new atomic code, or converted to UPF format
     Using radial grid of  905 points,  6 beta functions with:
                l(1) =   0
                l(2) =   0
                l(3) =   1
                l(4) =   1
                l(5) =   2
                l(6) =   2
     Q(r) pseudized with  6 coefficients,  rinner =    1.500   1.500   1.500
                                                       1.500   1.500

     PseudoPot. # 2 for Na read from file:
     /lustre07/scratch/pragov/crystal_structure_design/utils/SSSP/na_pbe_v1.5.uspp.F.UPF
     MD5 check sum: 44600605ef58000f06b90626533354dc
     Pseudo is Ultrasoft, Zval =  9.0
     Generated by new atomic code, or converted to UPF format
     Using radial grid of  819 points,  5 beta functions with:
                l(1) =   0
                l(2) =   0
                l(3) =   1
                l(4) =   1
                l(5) =   2
     Q(r) pseudized with  8 coefficients,  rinner =    1.250   1.250   1.250
                                                       1.250   1.250

     PseudoPot. # 3 for Al read from file:
     /lustre07/scratch/pragov/crystal_structure_design/utils/SSSP/Al.pbe-n-kjpaw_psl.1.0.0.UPF
     MD5 check sum: cfc449ca30b5f3223ec38ddd88ac046d
     Pseudo is Projector augmented-wave + core cor, Zval =  3.0
     Generated using "atomic" code by A. Dal Corso  v.5.1
     Shape of augmentation charge: PSQ
     Using radial grid of 1135 points,  6 beta functions with:
                l(1) =   0
                l(2) =   0
                l(3) =   1
                l(4) =   1
                l(5) =   2
                l(6) =   2
     Q(r) pseudized with 0 coefficients

     PseudoPot. # 4 for F  read from file:
     /lustre07/scratch/pragov/crystal_structure_design/utils/SSSP/f_pbe_v1.4.uspp.F.UPF
     MD5 check sum: 4c38b6a325caf53ec0e86aed9459de46
     Pseudo is Ultrasoft, Zval =  7.0
     Generated by new atomic code, or converted to UPF format
     Using radial grid of  799 points,  4 beta functions with:
                l(1) =   0
                l(2) =   0
                l(3) =   1
                l(4) =   1
     Q(r) pseudized with  8 coefficients,  rinner =    0.950   0.950   0.950

     atomic species   valence    mass     pseudopotential
        Cs             9.00   132.90545     Cs( 1.00)
        Na             9.00    22.98977     Na( 1.00)
        Al             3.00    26.98154     Al( 1.00)
        F              7.00    18.99840     F ( 1.00)

      2 Sym. Ops., with inversion, found

                                    s                        frac. trans.

      isym =  1     identity

 cryst.   s( 1) = (     1          0          0      )
                  (     0          1          0      )
                  (     0          0          1      )

 cart.    s( 1) = (  1.0000000  0.0000000  0.0000000 )
                  (  0.0000000  1.0000000  0.0000000 )
                  (  0.0000000  0.0000000  1.0000000 )

      isym =  2     inversion

 cryst.   s( 2) = (    -1          0          0      )
                  (     0         -1          0      )
                  (     0          0         -1      )

 cart.    s( 2) = ( -1.0000000  0.0000000  0.0000000 )
                  (  0.0000000 -1.0000000  0.0000000 )
                  (  0.0000000  0.0000000 -1.0000000 )

   Cartesian axes

     site n.     atom                  positions (alat units)
         1           Cs  tau(   1) = (   1.2930088   0.7089236   0.4920836  )
         2           Cs  tau(   2) = (   0.7824834   0.4290156   0.2977916  )
         3           Na  tau(   3) = (   0.0000000   0.0000000   0.0000000  )
         4           Al  tau(   4) = (   0.5000000   0.0000000   0.0000000  )
         5           Al  tau(   5) = (   0.2688730   0.1474162   0.3949376  )
         6           Al  tau(   6) = (   0.2688731   0.4215534   0.0000000  )
         7           F   tau(   7) = (   0.4623636   0.2535021   0.4877116  )
         8           F   tau(   8) = (   0.7086063   0.0964449   0.0669451  )
         9           F   tau(   9) = (   0.4623636   0.5455679   0.0669451  )
        10           F   tau(  10) = (   1.6131286   0.5923713   0.7229301  )
        11           F   tau(  11) = (   1.6131286   0.8844371   0.3021636  )
        12           F   tau(  12) = (   1.3668859   1.0414943   0.7229301  )
        13           F   tau(  13) = (   1.2420827   0.3380965   0.2346822  )
        14           F   tau(  14) = (   0.9529766   0.5224927   0.7286915  )
        15           F   tau(  15) = (   0.9529767   0.8653983   0.2346822  )
        16           F   tau(  16) = (   1.1225155   0.2725409   0.5551930  )
        17           F   tau(  17) = (   0.8334095   0.7998427   0.5551930  )
        18           F   tau(  18) = (   1.1225156   0.6154465   0.0611837  )

   Crystallographic axes

     site n.     atom                  positions (cryst. coord.)
         1           Cs  tau(   1) = (  0.6229890  0.6229890  0.6229890  )
         2           Cs  tau(   2) = (  0.3770110  0.3770110  0.3770110  )
         3           Na  tau(   3) = (  0.0000000  0.0000000  0.0000000  )
         4           Al  tau(   4) = (  0.5000000  0.0000000  0.0000000  )
         5           Al  tau(   5) = (  0.0000000  0.0000000  0.5000000  )
         6           Al  tau(   6) = (  0.0000000  0.5000000  0.0000000  )
         7           F   tau(   7) = (  0.0847540  0.0847540  0.6174540  )
         8           F   tau(   8) = (  0.6174540  0.0847540  0.0847540  )
         9           F   tau(   9) = (  0.0847540  0.6174540  0.0847540  )
        10           F   tau(  10) = (  0.9152460  0.3825460  0.9152460  )
        11           F   tau(  11) = (  0.9152460  0.9152460  0.3825460  )
        12           F   tau(  12) = (  0.3825460  0.9152460  0.9152460  )
        13           F   tau(  13) = (  0.9225400  0.2971130  0.2971130  )
        14           F   tau(  14) = (  0.2971130  0.2971130  0.9225400  )
        15           F   tau(  15) = (  0.2971130  0.9225400  0.2971130  )
        16           F   tau(  16) = (  0.7028870  0.0774600  0.7028870  )
        17           F   tau(  17) = (  0.0774600  0.7028870  0.7028870  )
        18           F   tau(  18) = (  0.7028870  0.7028870  0.0774600  )

     number of k points=    14
                       cart. coord. in units 2pi/alat
        k(    1) = (   0.0000000   0.0000000   0.0000000), wk =   0.0740741
        k(    2) = (   0.0000000   0.0000000   0.4220076), wk =   0.1481481
        k(    3) = (   0.0000000   0.3953631  -0.1475750), wk =   0.1481481
        k(    4) = (   0.0000000   0.3953631   0.2744326), wk =   0.1481481
        k(    5) = (   0.0000000   0.3953631  -0.5695826), wk =   0.1481481
        k(    6) = (   0.3333333  -0.2126050  -0.1475750), wk =   0.1481481
        k(    7) = (   0.3333333  -0.2126050   0.2744326), wk =   0.1481481
        k(    8) = (   0.3333333  -0.2126050  -0.5695826), wk =   0.1481481
        k(    9) = (   0.3333333   0.1827581  -0.2951501), wk =   0.1481481
        k(   10) = (   0.3333333   0.1827581   0.1268575), wk =   0.1481481
        k(   11) = (   0.3333333   0.1827581  -0.7171576), wk =   0.1481481
        k(   12) = (   0.3333333  -0.6079681   0.0000000), wk =   0.1481481
        k(   13) = (   0.3333333  -0.6079681   0.4220076), wk =   0.1481481
        k(   14) = (   0.3333333  -0.6079681  -0.4220076), wk =   0.1481481

                       cryst. coord.
        k(    1) = (   0.0000000   0.0000000   0.0000000), wk =   0.0740741
        k(    2) = (   0.0000000   0.0000000   0.3333333), wk =   0.1481481
        k(    3) = (   0.0000000   0.3333333   0.0000000), wk =   0.1481481
        k(    4) = (   0.0000000   0.3333333   0.3333333), wk =   0.1481481
        k(    5) = (   0.0000000   0.3333333  -0.3333333), wk =   0.1481481
        k(    6) = (   0.3333333   0.0000000   0.0000000), wk =   0.1481481
        k(    7) = (   0.3333333   0.0000000   0.3333333), wk =   0.1481481
        k(    8) = (   0.3333333   0.0000000  -0.3333333), wk =   0.1481481
        k(    9) = (   0.3333333   0.3333333   0.0000000), wk =   0.1481481
        k(   10) = (   0.3333333   0.3333333   0.3333333), wk =   0.1481481
        k(   11) = (   0.3333333   0.3333333  -0.3333333), wk =   0.1481481
        k(   12) = (   0.3333333  -0.3333333   0.0000000), wk =   0.1481481
        k(   13) = (   0.3333333  -0.3333333   0.3333333), wk =   0.1481481
        k(   14) = (   0.3333333  -0.3333333  -0.3333333), wk =   0.1481481

     Initial potential from superposition of free atoms

     starting charge     119.9081, renormalised to     120.0000
     Starting wfcs are   91 randomized atomic wfcs
     Checking if some PAW data can be deallocated...

     Self-consistent Calculation

     iteration #  1     ecut=    30.00 Ry     beta= 0.70
     Davidson diagonalization with overlap

     ethr =  1.00E-02,  avg # of iterations =  2.1

     total energy              =    -924.91123759 Ry
     estimated scf accuracy    <       1.87681023 Ry

[...]

     total energy              =    -925.72514726 Ry
     estimated scf accuracy    <       0.00000156 Ry

     iteration #  8     ecut=    30.00 Ry     beta= 0.70
     Davidson diagonalization with overlap

     ethr =  1.30E-09,  avg # of iterations =  7.4

     End of self-consistent calculation

          k = 0.0000 0.0000 0.0000 (  5133 PWs)   bands (ev):

   -45.4345 -20.4004 -19.7729 -19.7728 -19.7396 -19.6696 -19.6694 -18.4435
   -18.4277 -18.4276 -18.3400 -18.3400 -18.3173 -17.2771 -17.2686 -17.2686
   -16.1777 -16.1423  -4.1468  -4.1467  -3.3466  -3.3445  -3.2797  -3.2797
    -3.1285  -3.1285  -2.9948  -2.6250  -2.6250  -2.2694  -1.7875  -1.4611
    -1.3652  -1.2910  -1.0888  -1.0887  -1.0150  -1.0149  -0.8546  -0.3547
    -0.3547  -0.2595  -0.2594   0.0188   0.0189   0.0881   0.0881   0.4452
     0.4452   0.4764   0.6349   0.6528   0.6528   0.7380   0.9168   1.0318
     1.0318   1.0961   1.2139   1.2140   8.1559  10.3920  10.3943  10.9271

     occupation numbers
     1.0000   1.0000   1.0000   1.0000   1.0000   1.0000   1.0000   1.0000
     1.0000   1.0000   1.0000   1.0000   1.0000   1.0000   1.0000   1.0000
     1.0000   1.0000   1.0000   1.0000   1.0000   1.0000   1.0000   1.0000
     1.0000   1.0000   1.0000   1.0000   1.0000   1.0000   1.0000   1.0000
     1.0000   1.0000   1.0000   1.0000   1.0000   1.0000   1.0000   1.0000
     1.0000   1.0000   1.0000   1.0000   1.0000   1.0000   1.0000   1.0000
     1.0000   1.0000   1.0000   1.0000   1.0000   1.0000   1.0000   1.0000
     1.0000   1.0000   1.0000   1.0000   0.0000   0.0000   0.0000   0.0000

[...]

          k = 0.3333-0.6080-0.4220 (  5112 PWs)   bands (ev):

   -45.4344 -20.3012 -20.0099 -19.8459 -19.7616 -19.5876 -19.5128 -18.4397
   -18.4368 -18.4033 -18.3720 -18.3345 -18.3109 -17.2748 -17.2715 -17.2710
   -16.1634 -16.1546  -4.4022  -4.0779  -3.3224  -3.2506  -3.1893  -3.1227
    -3.1167  -2.9770  -2.9420  -2.8251  -2.3972  -2.0694  -1.7608  -1.6765
    -1.6285  -1.4502  -1.3043  -1.2188  -0.9222  -0.7586  -0.6008  -0.5438
    -0.3231  -0.2936  -0.2212  -0.2110  -0.0959   0.0275   0.0376   0.1685
     0.5065   0.5979   0.6520   0.6974   0.8458   0.8789   0.9018   0.9489
     1.0084   1.1099   1.1897   1.2057   9.7606  10.1665  10.3667  10.4787

     occupation numbers
     1.0000   1.0000   1.0000   1.0000   1.0000   1.0000   1.0000   1.0000
     1.0000   1.0000   1.0000   1.0000   1.0000   1.0000   1.0000   1.0000
     1.0000   1.0000   1.0000   1.0000   1.0000   1.0000   1.0000   1.0000
     1.0000   1.0000   1.0000   1.0000   1.0000   1.0000   1.0000   1.0000
     1.0000   1.0000   1.0000   1.0000   1.0000   1.0000   1.0000   1.0000
     1.0000   1.0000   1.0000   1.0000   1.0000   1.0000   1.0000   1.0000
     1.0000   1.0000   1.0000   1.0000   1.0000   1.0000   1.0000   1.0000
     1.0000   1.0000   1.0000   1.0000   0.0000   0.0000   0.0000   0.0000

     highest occupied, lowest unoccupied level (ev):     1.2319    8.1559

!    total energy              =    -925.72514945 Ry
     estimated scf accuracy    <       0.00000047 Ry

     The total energy is the sum of the following terms:
     one-electron contribution =    -470.70762964 Ry
     hartree contribution      =     302.25153545 Ry
     xc contribution           =    -196.28625543 Ry
     ewald contribution        =    -457.06448207 Ry
     one-center paw contrib.   =    -103.91831776 Ry
      -> PAW hartree energy AE =       0.00000000 Ry
      -> PAW hartree energy PS =       0.00000000 Ry
      -> PAW xc energy AE      =       0.00000000 Ry
      -> PAW xc energy PS      =       0.00000000 Ry
      -> total E_H with PAW    =     302.25153545 Ry
      -> total E_XC with PAW   =    -196.28625543 Ry

     convergence has been achieved in   8 iterations

     Writing all to output data dir bands_nm/myprefix.save/

     General routines

     Parallel routines

     PAW routines

   This run was terminated on:  15:13:54  12Jul2023

   JOB DONE.