     Program PWSCF v.7.0 starts on  6Jun2023 at  2:26: 6

     K-points division:     npool     =       2
     R & G space division:  proc/nbgrp/npool/nimage =       4

     Reading input from espresso_13228.pwi
Warning: card &CELL ignored
Warning: card / ignored

     Current dimensions of program PWSCF are:
     Max number of different atomic species (ntypx) = 10
     Max number of k-points (npk) =  40000
     Max angular momentum in pseudopotentials (lmaxx) =  4
     Message from routine setup:
     using ibrav=0 with symmetry is DISCOURAGED, use correct ibrav instead

     Using Slab Decomposition

     bravais-lattice index     =            0
     lattice parameter (alat)  =      11.6282  a.u.
     unit-cell volume          =     948.3006 (a.u.)^3
     number of atoms/cell      =            7
     number of atomic types    =            3
     number of electrons       =        60.00
     number of Kohn-Sham states=           64
     kinetic-energy cutoff     =      30.0000  Ry
     charge density cutoff     =     240.0000  Ry
     scf convergence threshold =      1.0E-06
     mixing beta               =       0.7000
     number of iterations used =            8  plain     mixing
     Exchange-correlation=  SLA  PW   PBX  PBC
                           (   1   4   3   4   0   0   0)

     celldm(1)=  11.628178  celldm(2)=   0.000000  celldm(3)=   0.000000
     celldm(4)=   0.000000  celldm(5)=   0.000000  celldm(6)=   0.000000

     crystal axes: (cart. coord. in units of alat)
               a(1) = (   1.000000   0.000000   0.000000 )
               a(2) = (   0.056873   0.998381   0.000000 )
               a(3) = (  -0.304211  -0.736552   0.604108 )

     reciprocal axes: (cart. coord. in units 2 pi/alat)
               b(1) = (  1.000000 -0.056965  0.434117 )
               b(2) = (  0.000000  1.001621  1.221216 )
               b(3) = (  0.000000  0.000000  1.655333 )

     PseudoPot. # 1 for Y  read from file:
     /home/pragov/projects/rrg-bengioy-ad/pragov/crystal_structure_design/SSSP/Y_pbe_v1.uspp.F.UPF
     MD5 check sum: 2cf71db95cafeb975fc457bd7f14888e
     Pseudo is Ultrasoft + core correction, Zval = 11.0
     Generated by new atomic code, or converted to UPF format
     Using radial grid of  885 points,  6 beta functions with:
                l(1) =   0
                l(2) =   0
                l(3) =   1
                l(4) =   1
                l(5) =   2
                l(6) =   2
     Q(r) pseudized with  6 coefficients,  rinner =    1.200   1.200   1.200
                                                       1.200   1.200

     PseudoPot. # 2 for Sn read from file:
     /home/pragov/projects/rrg-bengioy-ad/pragov/crystal_structure_design/SSSP/Sn_pbe_v1.uspp.F.UPF
     MD5 check sum: 4cf58ce39ec5d5d420df3dd08604eb00
     Pseudo is Ultrasoft + core correction, Zval = 14.0
     Generated by new atomic code, or converted to UPF format
     Using radial grid of  891 points,  6 beta functions with:
                l(1) =   0
                l(2) =   0
                l(3) =   1
                l(4) =   1
                l(5) =   2
                l(6) =   2
     Q(r) pseudized with  6 coefficients,  rinner =    1.200   1.200   1.200
                                                       1.200   1.200

     PseudoPot. # 3 for F  read from file:
     /home/pragov/projects/rrg-bengioy-ad/pragov/crystal_structure_design/SSSP/f_pbe_v1.4.uspp.F.UPF
     MD5 check sum: 4c38b6a325caf53ec0e86aed9459de46
     Pseudo is Ultrasoft, Zval =  7.0
     Generated by new atomic code, or converted to UPF format
     Using radial grid of  799 points,  4 beta functions with:
                l(1) =   0
                l(2) =   0
                l(3) =   1
                l(4) =   1
     Q(r) pseudized with  8 coefficients,  rinner =    0.950   0.950   0.950

     atomic species   valence    mass     pseudopotential
        Y             11.00    88.90584     Y ( 1.00)
        Sn            14.00   118.71000     Sn( 1.00)
        F              7.00    18.99840     F ( 1.00)

      2 Sym. Ops., with inversion, found

                                    s                        frac. trans.

      isym =  1     identity

 cryst.   s( 1) = (     1          0          0      )
                  (     0          1          0      )
                  (     0          0          1      )

 cart.    s( 1) = (  1.0000000 -0.0000000  0.0000000 )
                  (  0.0000000  1.0000000  0.0000000 )
                  (  0.0000000  0.0000000  1.0000000 )

      isym =  2     inversion

 cryst.   s( 2) = (    -1          0          0      )
                  (     0         -1          0      )
                  (     0          0         -1      )

 cart.    s( 2) = ( -1.0000000  0.0000000 -0.0000000 )
                  (  0.0000000 -1.0000000 -0.0000000 )
                  (  0.0000000  0.0000000 -1.0000000 )

   Cartesian axes

     site n.     atom                  positions (alat units)
         1           Y   tau(   1) = (   0.5284363   0.4991907   0.0000000  )
         2           Sn  tau(   2) = (   0.0000000   0.0000000   0.0000000  )
         3           F   tau(   3) = (   0.7408815   0.2742992   0.1844523  )
         4           F   tau(   4) = (   0.0117799  -0.0124700   0.4196557  )
         5           F   tau(   5) = (   0.2711766   0.2561687   0.0000000  )
         6           F   tau(   6) = (   0.7856959   0.7422127   0.0000000  )
         7           F   tau(   7) = (   0.3478944  -0.3682761   0.3020540  )

   Crystallographic axes

     site n.     atom                  positions (cryst. coord.)
         1           Y   tau(   1) = (  0.5000000  0.5000000  0.0000000  )
         2           Sn  tau(   2) = (  0.0000000  0.0000000  0.0000000  )
         3           F   tau(   3) = (  0.8053300  0.5000000  0.3053300  )
         4           F   tau(   4) = (  0.1946700  0.5000000  0.6946700  )
         5           F   tau(   5) = (  0.2565840  0.2565840  0.0000000  )
         6           F   tau(   6) = (  0.7434160  0.7434160  0.0000000  )
         7           F   tau(   7) = (  0.5000000  0.0000000  0.5000000  )

     number of k points=    14
                       cart. coord. in units 2pi/alat
        k(    1) = (   0.0000000   0.0000000   0.0000000), wk =   0.0740741
        k(    2) = (   0.0000000   0.0000000   0.5517778), wk =   0.1481481
        k(    3) = (   0.0000000   0.3338737   0.4070720), wk =   0.1481481
        k(    4) = (   0.0000000   0.3338737   0.9588498), wk =   0.1481481
        k(    5) = (   0.0000000   0.3338737  -0.1447058), wk =   0.1481481
        k(    6) = (   0.3333333  -0.0189882   0.1447058), wk =   0.1481481
        k(    7) = (   0.3333333  -0.0189882   0.6964836), wk =   0.1481481
        k(    8) = (   0.3333333  -0.0189882  -0.4070720), wk =   0.1481481
        k(    9) = (   0.3333333   0.3148855   0.5517778), wk =   0.1481481
        k(   10) = (   0.3333333   0.3148855   1.1035556), wk =   0.1481481
        k(   11) = (   0.3333333   0.3148855   0.0000000), wk =   0.1481481
        k(   12) = (   0.3333333  -0.3528620  -0.2623662), wk =   0.1481481
        k(   13) = (   0.3333333  -0.3528620   0.2894115), wk =   0.1481481
        k(   14) = (   0.3333333  -0.3528620  -0.8141440), wk =   0.1481481

                       cryst. coord.
        k(    1) = (   0.0000000   0.0000000   0.0000000), wk =   0.0740741
        k(    2) = (   0.0000000   0.0000000   0.3333333), wk =   0.1481481
        k(    3) = (   0.0000000   0.3333333   0.0000000), wk =   0.1481481
        k(    4) = (   0.0000000   0.3333333   0.3333333), wk =   0.1481481
        k(    5) = (   0.0000000   0.3333333  -0.3333333), wk =   0.1481481
        k(    6) = (   0.3333333   0.0000000   0.0000000), wk =   0.1481481
        k(    7) = (   0.3333333   0.0000000   0.3333333), wk =   0.1481481
        k(    8) = (   0.3333333   0.0000000  -0.3333333), wk =   0.1481481
        k(    9) = (   0.3333333   0.3333333   0.0000000), wk =   0.1481481
        k(   10) = (   0.3333333   0.3333333   0.3333333), wk =   0.1481481
        k(   11) = (   0.3333333   0.3333333  -0.3333333), wk =   0.1481481
        k(   12) = (   0.3333333  -0.3333333   0.0000000), wk =   0.1481481
        k(   13) = (   0.3333333  -0.3333333   0.3333333), wk =   0.1481481
        k(   14) = (   0.3333333  -0.3333333  -0.3333333), wk =   0.1481481

     Check: negative core charge=   -0.000003

     Initial potential from superposition of free atoms

     starting charge      58.9955, renormalised to      60.0000

     negative rho (up, down):  4.409E-02 0.000E+00
     Starting wfcs are   42 randomized atomic wfcs +   22 random wfcs

     Self-consistent Calculation

     iteration #  1     ecut=    30.00 Ry     beta= 0.70
     Davidson diagonalization with overlap

     ethr =  1.00E-02,  avg # of iterations =  7.4

     Threshold (ethr) on eigenvalues was too large:
     Diagonalizing with lowered threshold

     Davidson diagonalization with overlap

[...]

     negative rho (up, down):  4.423E-02 0.000E+00

     total energy              =    -494.38013831 Ry
     estimated scf accuracy    <       0.57075580 Ry

[...]

     total energy              =    -494.62371573 Ry
     estimated scf accuracy    <       0.00000283 Ry

     iteration #  8     ecut=    30.00 Ry     beta= 0.70
     Davidson diagonalization with overlap

     ethr =  4.72E-09,  avg # of iterations =  2.0

     negative rho (up, down):  4.538E-02 0.000E+00

     End of self-consistent calculation

          k = 0.0000 0.0000 0.0000 (  2635 PWs)   bands (ev):

   -38.0208 -19.9028 -19.8474 -19.8469 -19.2523 -19.1562 -18.2346 -17.6605
   -17.6540 -17.6269 -17.5684 -17.3470 -17.1318 -16.9877  -3.4495  -1.5327
    -1.3364  -1.2388  -1.1167  -0.9499  -0.9234  -0.8968  -0.7751  -0.2553
    -0.2251  -0.1882  -0.0028   0.0535   0.2865   1.0603   5.9863   8.2774
     8.4941   8.6476   8.7540   8.7990   8.8185  10.7053  11.5728  11.9070
    12.7201  13.6112  15.4076  15.5152  16.1983  16.5202  16.6422  16.6555
    17.5761  18.6038  19.0246  19.3168  20.0458  20.1299  20.7806  21.4630
    21.4958  21.6905  22.2201  22.4982  22.5080  22.5849  22.7066  23.5193

     occupation numbers
     1.0000   1.0000   1.0000   1.0000   1.0000   1.0000   1.0000   1.0000
     1.0000   1.0000   1.0000   1.0000   1.0000   1.0000   1.0000   1.0000
     1.0000   1.0000   1.0000   1.0000   1.0000   1.0000   1.0000   1.0000
     1.0000   1.0000   1.0000   1.0000   1.0000   1.0000   0.0000   0.0000
     0.0000   0.0000   0.0000   0.0000   0.0000   0.0000   0.0000   0.0000
     0.0000   0.0000   0.0000   0.0000   0.0000   0.0000   0.0000   0.0000
     0.0000   0.0000   0.0000   0.0000   0.0000   0.0000   0.0000   0.0000
     0.0000   0.0000   0.0000   0.0000   0.0000   0.0000   0.0000   0.0000

[...]

          k = 0.3333-0.3529-0.8141 (  2641 PWs)   bands (ev):

   -38.0135 -20.7899 -19.8680 -19.8491 -19.2105 -19.1493 -17.6846 -17.6618
   -17.6265 -17.5705 -17.3778 -17.0505 -16.9824 -16.9263  -3.7015  -2.3762
    -1.8790  -1.8104  -1.3823  -1.1531  -1.0281  -0.6312  -0.5736  -0.3879
    -0.1949  -0.1427  -0.0489   0.0936   0.1024   1.9883   6.8462   7.4588
     8.1904   8.8765   8.9277   9.1588  10.6621  12.0665  12.0883  12.2966
    12.4403  12.8480  13.3753  14.7937  15.1719  16.6762  16.8991  17.1866
    17.9160  18.5813  18.7966  19.2058  20.0153  20.1542  20.2345  21.2368
    22.1572  22.6817  22.7836  22.8052  22.8649  22.9895  24.0435  24.2832

     occupation numbers
     1.0000   1.0000   1.0000   1.0000   1.0000   1.0000   1.0000   1.0000
     1.0000   1.0000   1.0000   1.0000   1.0000   1.0000   1.0000   1.0000
     1.0000   1.0000   1.0000   1.0000   1.0000   1.0000   1.0000   1.0000
     1.0000   1.0000   1.0000   1.0000   1.0000   1.0000   0.0000   0.0000
     0.0000   0.0000   0.0000   0.0000   0.0000   0.0000   0.0000   0.0000
     0.0000   0.0000   0.0000   0.0000   0.0000   0.0000   0.0000   0.0000
     0.0000   0.0000   0.0000   0.0000   0.0000   0.0000   0.0000   0.0000
     0.0000   0.0000   0.0000   0.0000   0.0000   0.0000   0.0000   0.0000

     highest occupied, lowest unoccupied level (ev):     2.2216    5.6340

!    total energy              =    -494.62371634 Ry
     estimated scf accuracy    <       0.00000014 Ry

     The total energy is the sum of the following terms:
     one-electron contribution =    -280.03498489 Ry
     hartree contribution      =     169.70230221 Ry
     xc contribution           =    -116.40124959 Ry
     ewald contribution        =    -267.88978407 Ry

     convergence has been achieved in   8 iterations

     Writing all to output data dir calculations_bands/myprefix.save/

     General routines

     Parallel routines

   This run was terminated on:   2:26:24   6Jun2023

   JOB DONE.