     Program PWSCF v.7.1 starts on 15Jul2023 at 22:18:51

     Reading input from espresso_23481.pwi
Warning: card &CELL ignored
Warning: card / ignored

     Current dimensions of program PWSCF are:
     Max number of different atomic species (ntypx) = 10
     Max number of k-points (npk) =  40000
     Max angular momentum in pseudopotentials (lmaxx) =  4
     file K.pbe-spn-kjpaw_psl.1.0.0.UPF: wavefunction(s)  3S renormalized
     Message from routine setup:
     using ibrav=0 with symmetry is DISCOURAGED, use correct ibrav instead

     K-points division:     npool     =       2
     R & G space division:  proc/nbgrp/npool/nimage =       4
     Subspace diagonalization in iterative solution of the eigenvalue problem:
     one sub-group per band group will be used

     Using Slab Decomposition

     bravais-lattice index     =            0
     lattice parameter (alat)  =      16.0536  a.u.
     unit-cell volume          =    6686.2144 (a.u.)^3
     number of atoms/cell      =           20
     number of atomic types    =            3
     number of electrons       =       200.00
     number of Kohn-Sham states=          256
     kinetic-energy cutoff     =      30.0000  Ry
     charge density cutoff     =     240.0000  Ry
     scf convergence threshold =      1.0E-06
     mixing beta               =       0.7000
     number of iterations used =            8  plain     mixing
     Exchange-correlation= SLA  PW   PBX  PBC
                           (   1   4   3   4   0   0   0)

     celldm(1)=  16.053641  celldm(2)=   0.000000  celldm(3)=   0.000000
     celldm(4)=   0.000000  celldm(5)=   0.000000  celldm(6)=   0.000000

     crystal axes: (cart. coord. in units of alat)
               a(1) = (   1.000000   0.000000   0.000000 )
               a(2) = (   0.000000   1.094263   0.000000 )
               a(3) = (   0.000000   0.000000   1.476856 )

     reciprocal axes: (cart. coord. in units 2 pi/alat)
               b(1) = (  1.000000  0.000000  0.000000 )
               b(2) = (  0.000000  0.913857  0.000000 )
               b(3) = (  0.000000  0.000000  0.677114 )

     PseudoPot. # 1 for K  read from file:
     /lustre07/scratch/pragov/crystal_structure_design/utils/SSSP/K.pbe-spn-kjpaw_psl.1.0.0.UPF
     MD5 check sum: 7d58810084cac21f60fbe77ea2b688fd
     Pseudo is Projector augmented-wave + core cor, Zval =  9.0
     Generated using "atomic" code by A. Dal Corso  v.5.1
     Shape of augmentation charge: PSQ
     Using radial grid of 1165 points,  6 beta functions with:
                l(1) =   0
                l(2) =   0
                l(3) =   1
                l(4) =   1
                l(5) =   2
                l(6) =   2
     Q(r) pseudized with 0 coefficients

     PseudoPot. # 2 for Hg read from file:
     /lustre07/scratch/pragov/crystal_structure_design/utils/SSSP/Hg_ONCV_PBE-1.0.oncvpsp.upf
     MD5 check sum: dd5a8773074bfcf4280086d4d95875c4
     Pseudo is Norm-conserving, Zval = 20.0
     Generated using ONCVPSP code by D. R. Hamann
     Using radial grid of 1262 points,  8 beta functions with:
                l(1) =   0
                l(2) =   0
                l(3) =   1
                l(4) =   1
                l(5) =   2
                l(6) =   2
                l(7) =   3
                l(8) =   3

     PseudoPot. # 3 for I  read from file:
     /lustre07/scratch/pragov/crystal_structure_design/utils/SSSP/I.pbe-n-kjpaw_psl.0.2.UPF
     MD5 check sum: d4ef18d9c8f18dc85e5843bca1e50dc0
     Pseudo is Projector augmented-wave + core cor, Zval =  7.0
     Generated using "atomic" code by A. Dal Corso  v.5.0.99 svn rev. 10869
     Shape of augmentation charge: PSQ
     Using radial grid of 1247 points,  4 beta functions with:
                l(1) =   0
                l(2) =   0
                l(3) =   1
                l(4) =   1
     Q(r) pseudized with 0 coefficients

     atomic species   valence    mass     pseudopotential
        K              9.00    39.09830     K ( 1.00)
        Hg            20.00   200.59200     Hg( 1.00)
        I              7.00   126.90447     I ( 1.00)

      4 Sym. Ops. (no inversion) found ( 3 have fractional translation)

                                    s                        frac. trans.

      isym =  1     identity

 cryst.   s( 1) = (     1          0          0      )
                  (     0          1          0      )
                  (     0          0          1      )

 cart.    s( 1) = (  1.0000000  0.0000000  0.0000000 )
                  (  0.0000000  1.0000000  0.0000000 )
                  (  0.0000000  0.0000000  1.0000000 )

      isym =  2     180 deg rotation - cart. axis [0,0,1]

 cryst.   s( 2) = (    -1          0          0      )    f =(  0.0000000 )
                  (     0         -1          0      )       (  0.0000000 )
                  (     0          0          1      )       (  0.5000000 )

 cart.    s( 2) = ( -1.0000000  0.0000000  0.0000000 )    f =(  0.0000000 )
                  (  0.0000000 -1.0000000  0.0000000 )       (  0.0000000 )
                  (  0.0000000  0.0000000  1.0000000 )       (  0.7384279 )

      isym =  3     inv. 180 deg rotation - cart. axis [0,1,0]

[...]

      isym =  4     inv. 180 deg rotation - cart. axis [1,0,0]

 cryst.   s( 4) = (    -1          0          0      )    f =(  0.5000000 )
                  (     0          1          0      )       ( -0.5000000 )
                  (     0          0          1      )       (  0.0000000 )

 cart.    s( 4) = ( -1.0000000  0.0000000  0.0000000 )    f =(  0.5000000 )
                  (  0.0000000  1.0000000  0.0000000 )       ( -0.5471313 )
                  (  0.0000000  0.0000000  1.0000000 )       (  0.0000000 )

   Cartesian axes

     site n.     atom                  positions (alat units)
         1           K   tau(   1) = (   0.2135560   0.5431810   0.9438127  )
         2           K   tau(   2) = (   0.7864440   0.5510816   0.2053849  )
         3           K   tau(   3) = (   0.7135560   0.0039503   0.2053849  )
         4           K   tau(   4) = (   0.2864440   1.0903124   0.9438127  )
         5           Hg  tau(   5) = (   0.3110330   0.8248990   1.4702690  )
         6           Hg  tau(   6) = (   0.6889670   0.2693637   0.7318411  )
         7           Hg  tau(   7) = (   0.8110330   0.8164950   0.7318411  )
         8           Hg  tau(   8) = (   0.1889670   0.2777676   1.4702690  )
         9           I   tau(   9) = (   0.2322530   0.5545778   0.1983535  )
        10           I   tau(  10) = (   0.7677470   0.5396849   0.9367814  )
        11           I   tau(  11) = (   0.7322530   1.0868162   0.9367814  )
        12           I   tau(  12) = (   0.2677470   0.0074465   0.1983535  )
        13           I   tau(  13) = (   0.0978420   0.8320095   1.2194767  )
        14           I   tau(  14) = (   0.9021580   0.2622532   0.4810488  )
        15           I   tau(  15) = (   0.5978420   0.8093845   0.4810488  )
        16           I   tau(  16) = (   0.4021580   0.2848781   1.2194767  )
        17           I   tau(  17) = (   0.6306030   0.8073645   1.3961574  )
        18           I   tau(  18) = (   0.3693970   0.2868982   0.6577295  )
        19           I   tau(  19) = (   0.1306030   0.8340295   0.6577295  )
        20           I   tau(  20) = (   0.8693970   0.2602332   1.3961574  )

   Crystallographic axes

     site n.     atom                  positions (cryst. coord.)
         1           K   tau(   1) = (  0.2135560  0.4963900  0.6390690  )
         2           K   tau(   2) = (  0.7864440  0.5036100  0.1390690  )
         3           K   tau(   3) = (  0.7135560  0.0036100  0.1390690  )
         4           K   tau(   4) = (  0.2864440  0.9963900  0.6390690  )
         5           Hg  tau(   5) = (  0.3110330  0.7538400  0.9955400  )
         6           Hg  tau(   6) = (  0.6889670  0.2461600  0.4955400  )
         7           Hg  tau(   7) = (  0.8110330  0.7461600  0.4955400  )
         8           Hg  tau(   8) = (  0.1889670  0.2538400  0.9955400  )
         9           I   tau(   9) = (  0.2322530  0.5068050  0.1343080  )
        10           I   tau(  10) = (  0.7677470  0.4931950  0.6343080  )
        11           I   tau(  11) = (  0.7322530  0.9931950  0.6343080  )
        12           I   tau(  12) = (  0.2677470  0.0068050  0.1343080  )
        13           I   tau(  13) = (  0.0978420  0.7603380  0.8257250  )
        14           I   tau(  14) = (  0.9021580  0.2396620  0.3257250  )
        15           I   tau(  15) = (  0.5978420  0.7396620  0.3257250  )
        16           I   tau(  16) = (  0.4021580  0.2603380  0.8257250  )
        17           I   tau(  17) = (  0.6306030  0.7378160  0.9453580  )
        18           I   tau(  18) = (  0.3693970  0.2621840  0.4453580  )
        19           I   tau(  19) = (  0.1306030  0.7621840  0.4453580  )
        20           I   tau(  20) = (  0.8693970  0.2378160  0.9453580  )

     number of k points=     8
                       cart. coord. in units 2pi/alat
        k(    1) = (   0.0000000   0.0000000   0.0000000), wk =   0.0740741
        k(    2) = (   0.0000000   0.0000000   0.2257047), wk =   0.1481481
        k(    3) = (   0.0000000   0.3046191   0.0000000), wk =   0.1481481
        k(    4) = (   0.0000000   0.3046191   0.2257047), wk =   0.2962963
        k(    5) = (   0.3333333   0.0000000   0.0000000), wk =   0.1481481
        k(    6) = (   0.3333333   0.0000000   0.2257047), wk =   0.2962963
        k(    7) = (   0.3333333   0.3046191   0.0000000), wk =   0.2962963
        k(    8) = (   0.3333333   0.3046191   0.2257047), wk =   0.5925926

                       cryst. coord.
        k(    1) = (   0.0000000   0.0000000   0.0000000), wk =   0.0740741
        k(    2) = (   0.0000000   0.0000000   0.3333333), wk =   0.1481481
        k(    3) = (   0.0000000   0.3333333   0.0000000), wk =   0.1481481
        k(    4) = (   0.0000000   0.3333333   0.3333333), wk =   0.2962963
        k(    5) = (   0.3333333   0.0000000   0.0000000), wk =   0.1481481
        k(    6) = (   0.3333333   0.0000000   0.3333333), wk =   0.2962963
        k(    7) = (   0.3333333   0.3333333   0.0000000), wk =   0.2962963
        k(    8) = (   0.3333333   0.3333333   0.3333333), wk =   0.5925926

     Check: negative core charge=   -0.000002

     Initial potential from superposition of free atoms

     starting charge     199.9235, renormalised to     200.0000
     Starting wfcs are  120 randomized atomic wfcs +  136 random wfcs
     Checking if some PAW data can be deallocated...

     Self-consistent Calculation

     iteration #  1     ecut=    30.00 Ry     beta= 0.70
     Davidson diagonalization with overlap

     ethr =  1.00E-02,  avg # of iterations =  7.0

     Threshold (ethr) on eigenvalues was too large:
     Diagonalizing with lowered threshold

     Davidson diagonalization with overlap

[...]

     total energy              =   -6239.41568146 Ry
     estimated scf accuracy    <       0.80018503 Ry

[...]

     negative rho (up, down):  3.625E-05 0.000E+00

[...]

     total energy              =   -6239.79835031 Ry
     estimated scf accuracy    <       0.00001054 Ry

     iteration #  7     ecut=    30.00 Ry     beta= 0.70
     Davidson diagonalization with overlap

     ethr =  5.27E-09,  avg # of iterations =  2.0

     negative rho (up, down):  1.316E-05 0.000E+00

     End of self-consistent calculation

          k = 0.0000 0.0000 0.0000 ( 18537 PWs)   bands (ev):

  -113.2925-113.2925-113.2924-113.2924 -61.1660 -61.1643 -61.1623 -61.1596
   -61.1481 -61.1450 -61.1432 -61.1409 -61.1293 -61.1273 -61.1267 -61.1258
   -27.6506 -27.6506 -27.6492 -27.6492 -11.2059 -11.2032 -11.1696 -11.1695
   -11.1591 -11.1588 -11.1544 -11.1499 -11.1172 -11.1164 -11.1148 -11.1146
    -9.9085  -9.8411  -9.7209  -9.7205  -9.5627  -9.5497  -9.5494  -9.5385
    -9.4510  -9.4235  -9.3973  -9.3820  -4.1623  -4.1609  -4.1399  -4.1161
    -4.1106  -4.0899  -4.0738  -4.0705  -4.0523  -4.0454  -3.9616  -3.9585
    -3.9512  -3.9382  -3.9376  -3.9364  -3.8929  -3.8810  -3.8563  -3.8396
    -2.6739  -2.4723  -2.1251  -2.0013  -0.3141  -0.2287  -0.2145  -0.2044
     0.0101   0.0718   0.1080   0.3377   0.3933   0.4352   0.4657   0.5193
     0.5715   0.7031   0.7180   0.7449   0.7590   0.8198   0.8268   0.8962
     0.9571   0.9658   0.9806   1.0149   1.1150   1.1384   1.1958   1.2723
     1.2945   1.3906   1.4838   1.5139   3.2310   3.8364   3.9157   4.4086
     5.6537   6.3533   6.5167   6.5770   6.7152   6.7653   6.9800   7.1974
     7.2497   7.2515   7.4378   7.5683   7.6295   7.7309   7.7505   7.8126
     7.8755   7.9422   8.2212   8.2349   8.3685   8.3885   8.4097   8.5620
     8.5940   8.6237   8.7222   8.8059   8.8810   8.9897   9.0026   9.0553
     9.1478   9.2606   9.2648   9.2907   9.5049   9.5137   9.5430   9.6338
     9.6778   9.7414   9.7750   9.8424   9.8645   9.9860  10.0368  10.0667
    10.1229  10.3793  10.4412  10.5106  10.6630  10.6932  10.7127  10.7191
    10.9803  11.1104  11.1693  11.3226  11.4609  11.5324  11.5768  11.6328
    11.6364  11.6575  11.7294  11.8803  11.9727  11.9857  12.0247  12.0321
    12.0815  12.2332  12.4031  12.5115  12.6252  12.7003  12.8331  12.8525
    12.8819  12.9332  13.0311  13.0885  13.1304  13.2159  13.2952  13.3225
    13.4843  13.5238  13.5375  13.6589  13.6837  13.7731  13.7734  13.9200
    13.9372  13.9542  14.0141  14.1935  14.2746  14.3415  14.4033  14.4878
    14.4895  14.5681  14.7004  14.7318  14.7901  14.8349  15.4066  15.4096
    15.4400  15.5221  15.6278  15.6478  15.6660  15.6775  15.7767  15.8674
    15.9097  15.9986  16.1653  16.2023  16.2482  16.4652  16.5803  16.6063
    16.6334  16.6528  16.6851  16.8222  16.8595  17.1149  17.1605  17.1614
    17.2003  17.2160  17.2455  17.3074  17.3599  17.4444  17.5757  17.6319
    17.7068  17.8269  17.9010  17.9251  17.9610  17.9659  17.9910  18.0683

     occupation numbers
     1.0000   1.0000   1.0000   1.0000   1.0000   1.0000   1.0000   1.0000
     1.0000   1.0000   1.0000   1.0000   1.0000   1.0000   1.0000   1.0000
     1.0000   1.0000   1.0000   1.0000   1.0000   1.0000   1.0000   1.0000
     1.0000   1.0000   1.0000   1.0000   1.0000   1.0000   1.0000   1.0000
     1.0000   1.0000   1.0000   1.0000   1.0000   1.0000   1.0000   1.0000
     1.0000   1.0000   1.0000   1.0000   1.0000   1.0000   1.0000   1.0000
     1.0000   1.0000   1.0000   1.0000   1.0000   1.0000   1.0000   1.0000
     1.0000   1.0000   1.0000   1.0000   1.0000   1.0000   1.0000   1.0000
     1.0000   1.0000   1.0000   1.0000   1.0000   1.0000   1.0000   1.0000
     1.0000   1.0000   1.0000   1.0000   1.0000   1.0000   1.0000   1.0000
     1.0000   1.0000   1.0000   1.0000   1.0000   1.0000   1.0000   1.0000
     1.0000   1.0000   1.0000   1.0000   1.0000   1.0000   1.0000   1.0000
     1.0000   1.0000   1.0000   1.0000   0.0000   0.0000   0.0000   0.0000
     0.0000   0.0000   0.0000   0.0000   0.0000   0.0000   0.0000   0.0000
     0.0000   0.0000   0.0000   0.0000   0.0000   0.0000   0.0000   0.0000
     0.0000   0.0000   0.0000   0.0000   0.0000   0.0000   0.0000   0.0000
     0.0000   0.0000   0.0000   0.0000   0.0000   0.0000   0.0000   0.0000
     0.0000   0.0000   0.0000   0.0000   0.0000   0.0000   0.0000   0.0000
     0.0000   0.0000   0.0000   0.0000   0.0000   0.0000   0.0000   0.0000
     0.0000   0.0000   0.0000   0.0000   0.0000   0.0000   0.0000   0.0000
     0.0000   0.0000   0.0000   0.0000   0.0000   0.0000   0.0000   0.0000
     0.0000   0.0000   0.0000   0.0000   0.0000   0.0000   0.0000   0.0000
     0.0000   0.0000   0.0000   0.0000   0.0000   0.0000   0.0000   0.0000
     0.0000   0.0000   0.0000   0.0000   0.0000   0.0000   0.0000   0.0000
     0.0000   0.0000   0.0000   0.0000   0.0000   0.0000   0.0000   0.0000
     0.0000   0.0000   0.0000   0.0000   0.0000   0.0000   0.0000   0.0000
     0.0000   0.0000   0.0000   0.0000   0.0000   0.0000   0.0000   0.0000
     0.0000   0.0000   0.0000   0.0000   0.0000   0.0000   0.0000   0.0000
     0.0000   0.0000   0.0000   0.0000   0.0000   0.0000   0.0000   0.0000
     0.0000   0.0000   0.0000   0.0000   0.0000   0.0000   0.0000   0.0000
     0.0000   0.0000   0.0000   0.0000   0.0000   0.0000   0.0000   0.0000
     0.0000   0.0000   0.0000   0.0000   0.0000   0.0000   0.0000   0.0000

[...]

          k = 0.3333 0.3046 0.2257 ( 18539 PWs)   bands (ev):

  -113.2925-113.2925-113.2925-113.2925 -61.1657 -61.1654 -61.1641 -61.1636
   -61.1449 -61.1439 -61.1432 -61.1420 -61.1272 -61.1270 -61.1263 -61.1256
   -27.6503 -27.6503 -27.6495 -27.6495 -11.1917 -11.1914 -11.1749 -11.1748
   -11.1548 -11.1546 -11.1438 -11.1430 -11.1310 -11.1308 -11.1257 -11.1253
    -9.8362  -9.8225  -9.7614  -9.7558  -9.5341  -9.5306  -9.5211  -9.5122
    -9.4549  -9.4429  -9.4374  -9.4352  -4.1559  -4.1535  -4.1475  -4.1428
    -4.1107  -4.1033  -4.0889  -4.0807  -4.0276  -4.0205  -3.9664  -3.9660
    -3.9489  -3.9465  -3.9262  -3.9222  -3.9166  -3.9146  -3.8811  -3.8773
    -2.3866  -2.3530  -2.1045  -2.0954  -0.3558  -0.2685  -0.0654  -0.0471
     0.0664   0.0998   0.2159   0.2273   0.2988   0.3581   0.4377   0.4791
     0.6247   0.6580   0.6806   0.7169   0.7521   0.8113   0.8378   0.8556
     0.9103   0.9767   1.0393   1.0614   1.0911   1.1002   1.1186   1.1579
     1.1762   1.2283   1.2406   1.2975   3.9240   4.0051   4.1308   4.2087
     6.2498   6.4777   6.5757   6.6725   6.7503   6.8355   6.9015   6.9660
     7.1478   7.2662   7.3216   7.4130   7.4516   7.5559   7.7850   7.8485
     7.8953   7.9315   8.0335   8.1447   8.2758   8.2995   8.4239   8.4741
     8.5591   8.6672   8.7087   8.8265   8.9194   8.9770   9.1079   9.1867
     9.2566   9.3014   9.3976   9.4459   9.4949   9.5667   9.5948   9.6467
     9.6811   9.7563   9.8170   9.8776   9.9524   9.9841  10.0832  10.1553
    10.1751  10.2280  10.3428  10.4598  10.5059  10.5928  10.7767  10.8234
    10.8528  10.9434  11.0485  11.1660  11.2278  11.3273  11.4584  11.5350
    11.6326  11.6866  11.7405  11.7674  11.8489  11.8885  12.0345  12.0540
    12.1314  12.1937  12.2801  12.3890  12.5159  12.5859  12.6769  12.8059
    12.8278  12.9013  13.0234  13.1717  13.2121  13.3126  13.3840  13.4321
    13.4775  13.5816  13.6067  13.7115  13.7878  13.8671  13.9463  13.9980
    14.0959  14.1527  14.2349  14.3683  14.4376  14.5040  14.5838  14.6154
    14.7463  14.8434  14.9475  15.0332  15.0476  15.1285  15.2217  15.2960
    15.3869  15.4339  15.4978  15.5418  15.5856  15.6353  15.7288  15.7927
    15.9257  15.9550  16.0245  16.1043  16.1581  16.2587  16.3924  16.4636
    16.5330  16.6240  16.6564  16.7090  16.8134  16.8806  17.0037  17.0571
    17.1635  17.2272  17.2717  17.3035  17.3735  17.4226  17.5926  17.6358
    17.6941  17.8046  17.8366  17.8947  17.9429  17.9901  18.0683  18.1915

     occupation numbers
     1.0000   1.0000   1.0000   1.0000   1.0000   1.0000   1.0000   1.0000
     1.0000   1.0000   1.0000   1.0000   1.0000   1.0000   1.0000   1.0000
     1.0000   1.0000   1.0000   1.0000   1.0000   1.0000   1.0000   1.0000
     1.0000   1.0000   1.0000   1.0000   1.0000   1.0000   1.0000   1.0000
     1.0000   1.0000   1.0000   1.0000   1.0000   1.0000   1.0000   1.0000
     1.0000   1.0000   1.0000   1.0000   1.0000   1.0000   1.0000   1.0000
     1.0000   1.0000   1.0000   1.0000   1.0000   1.0000   1.0000   1.0000
     1.0000   1.0000   1.0000   1.0000   1.0000   1.0000   1.0000   1.0000
     1.0000   1.0000   1.0000   1.0000   1.0000   1.0000   1.0000   1.0000
     1.0000   1.0000   1.0000   1.0000   1.0000   1.0000   1.0000   1.0000
     1.0000   1.0000   1.0000   1.0000   1.0000   1.0000   1.0000   1.0000
     1.0000   1.0000   1.0000   1.0000   1.0000   1.0000   1.0000   1.0000
     1.0000   1.0000   1.0000   1.0000   0.0000   0.0000   0.0000   0.0000
     0.0000   0.0000   0.0000   0.0000   0.0000   0.0000   0.0000   0.0000
     0.0000   0.0000   0.0000   0.0000   0.0000   0.0000   0.0000   0.0000
     0.0000   0.0000   0.0000   0.0000   0.0000   0.0000   0.0000   0.0000
     0.0000   0.0000   0.0000   0.0000   0.0000   0.0000   0.0000   0.0000
     0.0000   0.0000   0.0000   0.0000   0.0000   0.0000   0.0000   0.0000
     0.0000   0.0000   0.0000   0.0000   0.0000   0.0000   0.0000   0.0000
     0.0000   0.0000   0.0000   0.0000   0.0000   0.0000   0.0000   0.0000
     0.0000   0.0000   0.0000   0.0000   0.0000   0.0000   0.0000   0.0000
     0.0000   0.0000   0.0000   0.0000   0.0000   0.0000   0.0000   0.0000
     0.0000   0.0000   0.0000   0.0000   0.0000   0.0000   0.0000   0.0000
     0.0000   0.0000   0.0000   0.0000   0.0000   0.0000   0.0000   0.0000
     0.0000   0.0000   0.0000   0.0000   0.0000   0.0000   0.0000   0.0000
     0.0000   0.0000   0.0000   0.0000   0.0000   0.0000   0.0000   0.0000
     0.0000   0.0000   0.0000   0.0000   0.0000   0.0000   0.0000   0.0000
     0.0000   0.0000   0.0000   0.0000   0.0000   0.0000   0.0000   0.0000
     0.0000   0.0000   0.0000   0.0000   0.0000   0.0000   0.0000   0.0000
     0.0000   0.0000   0.0000   0.0000   0.0000   0.0000   0.0000   0.0000
     0.0000   0.0000   0.0000   0.0000   0.0000   0.0000   0.0000   0.0000
     0.0000   0.0000   0.0000   0.0000   0.0000   0.0000   0.0000   0.0000

     highest occupied, lowest unoccupied level (ev):     1.5139    3.2310

!    total energy              =   -6239.79835317 Ry
     estimated scf accuracy    <       0.00000077 Ry

     The total energy is the sum of the following terms:
     one-electron contribution =   -1424.90672396 Ry
     hartree contribution      =     737.67123982 Ry
     xc contribution           =    -655.41872333 Ry
     ewald contribution        =    -829.18841224 Ry
     one-center paw contrib.   =   -4067.95573346 Ry
      -> PAW hartree energy AE =     112.88883217 Ry
      -> PAW hartree energy PS =    -112.25879103 Ry
      -> PAW xc energy AE      =    -198.62548638 Ry
      -> PAW xc energy PS      =      31.74523450 Ry
      -> total E_H with PAW    =     738.30128097 Ry
      -> total E_XC with PAW   =    -822.29897520 Ry

     convergence has been achieved in   7 iterations

     Writing all to output data dir bands_nm/myprefix.save/

     General routines

     Parallel routines

     PAW routines

   This run was terminated on:  22:21:23  15Jul2023

   JOB DONE.