     Program PWSCF v.7.1 starts on 15Jul2023 at 20: 7:48

     Reading input from espresso_14543.pwi
Warning: card &CELL ignored
Warning: card / ignored

     Current dimensions of program PWSCF are:
     Max number of different atomic species (ntypx) = 10
     Max number of k-points (npk) =  40000
     Max angular momentum in pseudopotentials (lmaxx) =  4
     file O.pbe-n-kjpaw_psl.0.1.UPF: wavefunction(s)  2P renormalized
     Message from routine setup:
     using ibrav=0 with symmetry is DISCOURAGED, use correct ibrav instead

     K-points division:     npool     =       2
     R & G space division:  proc/nbgrp/npool/nimage =       4
     Subspace diagonalization in iterative solution of the eigenvalue problem:
     one sub-group per band group will be used

     Using Slab Decomposition

     bravais-lattice index     =            0
     lattice parameter (alat)  =      10.5462  a.u.
     unit-cell volume          =    1741.5773 (a.u.)^3
     number of atoms/cell      =           20
     number of atomic types    =            3
     number of electrons       =       160.00
     number of Kohn-Sham states=          256
     kinetic-energy cutoff     =      30.0000  Ry
     charge density cutoff     =     240.0000  Ry
     scf convergence threshold =      1.0E-06
     mixing beta               =       0.7000
     number of iterations used =            8  plain     mixing
     Exchange-correlation= SLA  PW   PBX  PBC
                           (   1   4   3   4   0   0   0)

     celldm(1)=  10.546191  celldm(2)=   0.000000  celldm(3)=   0.000000
     celldm(4)=   0.000000  celldm(5)=   0.000000  celldm(6)=   0.000000

     crystal axes: (cart. coord. in units of alat)
               a(1) = (   1.000000   0.000000   0.000000 )
               a(2) = (   0.000000   1.033584   0.000000 )
               a(3) = (   0.000000   0.000000   1.436515 )

     reciprocal axes: (cart. coord. in units 2 pi/alat)
               b(1) = (  1.000000  0.000000  0.000000 )
               b(2) = (  0.000000  0.967507  0.000000 )
               b(3) = (  0.000000  0.000000  0.696129 )

     PseudoPot. # 1 for Ca read from file:
     /lustre07/scratch/pragov/crystal_structure_design/utils/SSSP/Ca_pbe_v1.uspp.F.UPF
     MD5 check sum: 403a4c14b9e4d4dfdc3024c9a3812218
     Pseudo is Ultrasoft + core correction, Zval = 10.0
     Generated by new atomic code, or converted to UPF format
     Using radial grid of  845 points,  6 beta functions with:
                l(1) =   0
                l(2) =   0
                l(3) =   1
                l(4) =   1
                l(5) =   2
                l(6) =   2
     Q(r) pseudized with  8 coefficients,  rinner =    1.500   1.500   1.500
                                                       1.500   1.500

     PseudoPot. # 2 for Hf read from file:
     /lustre07/scratch/pragov/crystal_structure_design/utils/SSSP/Hf-sp.oncvpsp.upf
     MD5 check sum: 417ed15784afe83d2e06dacf143de3f8
     Pseudo is Norm-conserving + core correction, Zval = 12.0
     Generated using ONCVPSP code by D. R. Hamann
     Using radial grid of 1656 points,  8 beta functions with:
                l(1) =   0
                l(2) =   0
                l(3) =   1
                l(4) =   1
                l(5) =   2
                l(6) =   2
                l(7) =   3
                l(8) =   3

     PseudoPot. # 3 for O  read from file:
     /lustre07/scratch/pragov/crystal_structure_design/utils/SSSP/O.pbe-n-kjpaw_psl.0.1.UPF
     MD5 check sum: 0234752ac141de4415c5fc33072bef88
     Pseudo is Projector augmented-wave + core cor, Zval =  6.0
     Generated using "atomic" code by A. Dal Corso  v.5.0.99 svn rev. 10869
     Shape of augmentation charge: BESSEL
     Using radial grid of 1095 points,  4 beta functions with:
                l(1) =   0
                l(2) =   0
                l(3) =   1
                l(4) =   1
     Q(r) pseudized with 0 coefficients

     atomic species   valence    mass     pseudopotential
        Ca            10.00    40.07800     Ca( 1.00)
        Hf            12.00   178.49000     Hf( 1.00)
        O              6.00    15.99900     O ( 1.00)

      8 Sym. Ops., with inversion, found ( 6 have fractional translation)

                                    s                        frac. trans.

      isym =  1     identity

 cryst.   s( 1) = (     1          0          0      )
                  (     0          1          0      )
                  (     0          0          1      )

 cart.    s( 1) = (  1.0000000  0.0000000  0.0000000 )
                  (  0.0000000  1.0000000  0.0000000 )
                  (  0.0000000  0.0000000  1.0000000 )

      isym =  2     180 deg rotation - cart. axis [0,0,1]

 cryst.   s( 2) = (    -1          0          0      )    f =( -0.0000000 )
                  (     0         -1          0      )       (  0.0000000 )
                  (     0          0          1      )       ( -0.5000000 )

 cart.    s( 2) = ( -1.0000000  0.0000000  0.0000000 )    f =( -0.0000000 )
                  (  0.0000000 -1.0000000  0.0000000 )       (  0.0000000 )
                  (  0.0000000  0.0000000  1.0000000 )       ( -0.7182574 )

[...]

      isym =  4     180 deg rotation - cart. axis [1,0,0]

[...]

      isym =  5     inversion

 cryst.   s( 5) = (    -1          0          0      )
                  (     0         -1          0      )
                  (     0          0         -1      )

 cart.    s( 5) = ( -1.0000000  0.0000000  0.0000000 )
                  (  0.0000000 -1.0000000  0.0000000 )
                  (  0.0000000  0.0000000 -1.0000000 )

      isym =  6     inv. 180 deg rotation - cart. axis [0,0,1]

[...]

      isym =  8     inv. 180 deg rotation - cart. axis [1,0,0]

 cryst.   s( 8) = (    -1          0          0      )    f =(  0.5000000 )
                  (     0          1          0      )       ( -0.5000000 )
                  (     0          0          1      )       (  0.0000000 )

 cart.    s( 8) = ( -1.0000000  0.0000000  0.0000000 )    f =(  0.5000000 )
                  (  0.0000000  1.0000000  0.0000000 )       ( -0.5167919 )
                  (  0.0000000  0.0000000  1.0000000 )       (  0.0000000 )

   Cartesian axes

     site n.     atom                  positions (alat units)
         1           Ca  tau(   1) = (   0.0130980   0.9807750   1.0773862  )
         2           Ca  tau(   2) = (   0.4869020   0.4639830   1.0773862  )
         3           Ca  tau(   3) = (   0.5130980   0.5696008   0.3591287  )
         4           Ca  tau(   4) = (   0.9869020   0.0528089   0.3591287  )
         5           Hf  tau(   5) = (   0.0000000   0.5167919   0.0000000  )
         6           Hf  tau(   6) = (   0.0000000   0.5167919   0.7182574  )
         7           Hf  tau(   7) = (   0.5000000   0.0000000   0.0000000  )
         8           Hf  tau(   8) = (   0.5000000   0.0000000   0.7182574  )
         9           O   tau(   9) = (   0.1021920   0.4781979   0.3591287  )
        10           O   tau(  10) = (   0.1985150   0.2078268   0.7957905  )
        11           O   tau(  11) = (   0.1985150   0.2078268   1.3589819  )
        12           O   tau(  12) = (   0.3014850   0.7246188   0.7957905  )
        13           O   tau(  13) = (   0.3014850   0.7246188   1.3589819  )
        14           O   tau(  14) = (   0.3978080   0.9949898   0.3591287  )
        15           O   tau(  15) = (   0.6021920   0.0385940   1.0773862  )
        16           O   tau(  16) = (   0.6985150   0.3089651   0.0775330  )
        17           O   tau(  17) = (   0.6985150   0.3089651   0.6407244  )
        18           O   tau(  18) = (   0.8014850   0.8257570   0.0775330  )
        19           O   tau(  19) = (   0.8014850   0.8257570   0.6407244  )
        20           O   tau(  20) = (   0.8978080   0.5553860   1.0773862  )

   Crystallographic axes

     site n.     atom                  positions (cryst. coord.)
         1           Ca  tau(   1) = (  0.0130980  0.9489070  0.7500000  )
         2           Ca  tau(   2) = (  0.4869020  0.4489070  0.7500000  )
         3           Ca  tau(   3) = (  0.5130980  0.5510930  0.2500000  )
         4           Ca  tau(   4) = (  0.9869020  0.0510930  0.2500000  )
         5           Hf  tau(   5) = (  0.0000000  0.5000000  0.0000000  )
         6           Hf  tau(   6) = (  0.0000000  0.5000000  0.5000000  )
         7           Hf  tau(   7) = (  0.5000000  0.0000000  0.0000000  )
         8           Hf  tau(   8) = (  0.5000000  0.0000000  0.5000000  )
         9           O   tau(   9) = (  0.1021920  0.4626600  0.2500000  )
        10           O   tau(  10) = (  0.1985150  0.2010740  0.5539730  )
        11           O   tau(  11) = (  0.1985150  0.2010740  0.9460270  )
        12           O   tau(  12) = (  0.3014850  0.7010740  0.5539730  )
        13           O   tau(  13) = (  0.3014850  0.7010740  0.9460270  )
        14           O   tau(  14) = (  0.3978080  0.9626600  0.2500000  )
        15           O   tau(  15) = (  0.6021920  0.0373400  0.7500000  )
        16           O   tau(  16) = (  0.6985150  0.2989260  0.0539730  )
        17           O   tau(  17) = (  0.6985150  0.2989260  0.4460270  )
        18           O   tau(  18) = (  0.8014850  0.7989260  0.0539730  )
        19           O   tau(  19) = (  0.8014850  0.7989260  0.4460270  )
        20           O   tau(  20) = (  0.8978080  0.5373400  0.7500000  )

     number of k points=     8
                       cart. coord. in units 2pi/alat
        k(    1) = (   0.0000000   0.0000000   0.0000000), wk =   0.0740741
        k(    2) = (   0.0000000   0.0000000   0.2320431), wk =   0.1481481
        k(    3) = (   0.0000000   0.3225025   0.0000000), wk =   0.1481481
        k(    4) = (   0.0000000   0.3225025   0.2320431), wk =   0.2962963
        k(    5) = (   0.3333333   0.0000000   0.0000000), wk =   0.1481481
        k(    6) = (   0.3333333   0.0000000   0.2320431), wk =   0.2962963
        k(    7) = (   0.3333333   0.3225025   0.0000000), wk =   0.2962963
        k(    8) = (   0.3333333   0.3225025   0.2320431), wk =   0.5925926

                       cryst. coord.
        k(    1) = (   0.0000000   0.0000000   0.0000000), wk =   0.0740741
        k(    2) = (   0.0000000   0.0000000   0.3333333), wk =   0.1481481
        k(    3) = (   0.0000000   0.3333333   0.0000000), wk =   0.1481481
        k(    4) = (   0.0000000   0.3333333   0.3333333), wk =   0.2962963
        k(    5) = (   0.3333333   0.0000000   0.0000000), wk =   0.1481481
        k(    6) = (   0.3333333   0.0000000   0.3333333), wk =   0.2962963
        k(    7) = (   0.3333333   0.3333333   0.0000000), wk =   0.2962963
        k(    8) = (   0.3333333   0.3333333   0.3333333), wk =   0.5925926

     Check: negative core charge=   -0.000012

     Initial potential from superposition of free atoms

     starting charge     159.9707, renormalised to     160.0000
     Starting wfcs are  128 randomized atomic wfcs +  128 random wfcs
     Checking if some PAW data can be deallocated...

     Self-consistent Calculation

     iteration #  1     ecut=    30.00 Ry     beta= 0.70
     Davidson diagonalization with overlap

     ethr =  1.00E-02,  avg # of iterations =  6.0

     total energy              =   -1250.74724311 Ry
     estimated scf accuracy    <       5.03513652 Ry

[...]

     total energy              =   -1253.16320236 Ry
     estimated scf accuracy    <       0.00000371 Ry

     iteration #  8     ecut=    30.00 Ry     beta= 0.70
     Davidson diagonalization with overlap

     ethr =  2.32E-09,  avg # of iterations =  2.0

     End of self-consistent calculation

          k = 0.0000 0.0000 0.0000 (  4823 PWs)   bands (ev):

   -51.0115 -51.0098 -51.0023 -50.9912 -29.1792 -29.1757 -29.1685 -29.1648
   -19.9938 -19.9850 -19.9722 -19.9688 -19.9684 -19.9511 -19.8391 -19.8389
   -19.8336 -19.8234 -19.8180 -19.8132 -10.5328 -10.4429 -10.4266 -10.4253
   -10.4087 -10.3362 -10.2716 -10.2374 -10.2209 -10.2155 -10.2102 -10.2095
    -8.1198  -7.5276  -7.4565  -7.3299  -7.2937  -7.2254  -6.7809  -6.6395
    -6.6184  -6.5730  -6.4778  -6.4282   4.7588   4.8484   4.8561   4.8713
     5.1272   5.2053   5.2699   5.4184   5.4684   5.4806   6.5105   6.7282
     6.9013   6.9049   6.9229   7.0001   7.0341   7.0428   7.0590   7.1490
     7.1814   7.4774   7.6961   7.8405   7.9177   8.0094   8.1677   8.1782
     8.1869   8.1910   8.3527   8.4158   8.4539   8.5614   8.5911   8.6527
    13.1187  13.2549  13.2896  13.7790  14.1200  14.1274  14.6897  14.8010
    15.2196  15.3779  15.3907  15.4380  15.5584  15.6106  15.6196  15.7119
    15.7139  15.9081  16.2687  16.3988  16.6381  16.6639  16.7460  16.7692
    16.7879  16.8925  16.9010  17.0149  17.0158  17.1261  17.1845  17.5295
    17.5880  17.7037  18.1748  18.3391  18.3750  18.5150  18.7578  18.9229
    19.8404  20.1442  20.5709  20.7189  21.6804  21.7056  21.7673  22.2199
    22.5514  22.6230  22.6822  22.6975  22.9951  23.0531  23.0575  23.0727
    23.2449  23.6546  23.8582  23.9027  24.0506  24.1226  24.5558  24.8617
    25.0598  25.5989  25.6046  25.6454  26.2664  26.8686  26.9920  27.0819
    27.6567  27.9343  28.2966  28.3024  28.5351  28.8097  29.4472  29.6273
    29.8744  30.1325  30.1994  31.2162  31.3210  31.4870  31.5428  31.6523
    31.8952  32.0029  32.2127  32.3896  32.5409  32.7266  32.9195  32.9668
    33.0909  33.1772  33.1835  34.0893  34.1318  34.5262  34.7787  35.1226
    35.2557  35.4091  35.4262  35.5406  35.8411  36.1802  36.3880  36.4637
    36.6265  36.9275  37.1717  37.4056  37.5234  37.5409  37.6792  37.7444
    37.7973  37.9596  38.6319  38.7616  38.9825  39.2541  39.2784  39.3420
    39.3944  39.4135  39.4418  39.5827  39.7899  40.3557  40.4762  40.6318
    40.8228  40.8806  40.9299  41.3884  41.4450  41.5272  41.6668  41.8103
    41.9093  41.9425  42.1175  42.1463  42.4865  42.6660  42.8453  42.8920
    42.9157  43.1926  43.2539  43.2680  43.6835  43.7632  43.8508  43.9746
    44.6191  44.6519  44.7463  44.8154  44.9741  45.0364  45.0919  45.4246
    45.4289  45.7219  46.0894  46.1901  46.5290  46.5962  46.6917  46.8146

     occupation numbers
     1.0000   1.0000   1.0000   1.0000   1.0000   1.0000   1.0000   1.0000
     1.0000   1.0000   1.0000   1.0000   1.0000   1.0000   1.0000   1.0000
     1.0000   1.0000   1.0000   1.0000   1.0000   1.0000   1.0000   1.0000
     1.0000   1.0000   1.0000   1.0000   1.0000   1.0000   1.0000   1.0000
     1.0000   1.0000   1.0000   1.0000   1.0000   1.0000   1.0000   1.0000
     1.0000   1.0000   1.0000   1.0000   1.0000   1.0000   1.0000   1.0000
     1.0000   1.0000   1.0000   1.0000   1.0000   1.0000   1.0000   1.0000
     1.0000   1.0000   1.0000   1.0000   1.0000   1.0000   1.0000   1.0000
     1.0000   1.0000   1.0000   1.0000   1.0000   1.0000   1.0000   1.0000
     1.0000   1.0000   1.0000   1.0000   1.0000   1.0000   1.0000   1.0000
     0.0000   0.0000   0.0000   0.0000   0.0000   0.0000   0.0000   0.0000
     0.0000   0.0000   0.0000   0.0000   0.0000   0.0000   0.0000   0.0000
     0.0000   0.0000   0.0000   0.0000   0.0000   0.0000   0.0000   0.0000
     0.0000   0.0000   0.0000   0.0000   0.0000   0.0000   0.0000   0.0000
     0.0000   0.0000   0.0000   0.0000   0.0000   0.0000   0.0000   0.0000
     0.0000   0.0000   0.0000   0.0000   0.0000   0.0000   0.0000   0.0000
     0.0000   0.0000   0.0000   0.0000   0.0000   0.0000   0.0000   0.0000
     0.0000   0.0000   0.0000   0.0000   0.0000   0.0000   0.0000   0.0000
     0.0000   0.0000   0.0000   0.0000   0.0000   0.0000   0.0000   0.0000
     0.0000   0.0000   0.0000   0.0000   0.0000   0.0000   0.0000   0.0000
     0.0000   0.0000   0.0000   0.0000   0.0000   0.0000   0.0000   0.0000
     0.0000   0.0000   0.0000   0.0000   0.0000   0.0000   0.0000   0.0000
     0.0000   0.0000   0.0000   0.0000   0.0000   0.0000   0.0000   0.0000
     0.0000   0.0000   0.0000   0.0000   0.0000   0.0000   0.0000   0.0000
     0.0000   0.0000   0.0000   0.0000   0.0000   0.0000   0.0000   0.0000
     0.0000   0.0000   0.0000   0.0000   0.0000   0.0000   0.0000   0.0000
     0.0000   0.0000   0.0000   0.0000   0.0000   0.0000   0.0000   0.0000
     0.0000   0.0000   0.0000   0.0000   0.0000   0.0000   0.0000   0.0000
     0.0000   0.0000   0.0000   0.0000   0.0000   0.0000   0.0000   0.0000
     0.0000   0.0000   0.0000   0.0000   0.0000   0.0000   0.0000   0.0000
     0.0000   0.0000   0.0000   0.0000   0.0000   0.0000   0.0000   0.0000
     0.0000   0.0000   0.0000   0.0000   0.0000   0.0000   0.0000   0.0000

[...]

          k = 0.3333 0.3225 0.2320 (  4824 PWs)   bands (ev):

   -51.0094 -51.0048 -51.0026 -51.0021 -29.1746 -29.1728 -29.1714 -29.1696
   -19.9813 -19.9771 -19.9545 -19.9439 -19.9355 -19.9292 -19.8714 -19.8663
   -19.8614 -19.8498 -19.8257 -19.8209 -10.5073 -10.4696 -10.4455 -10.4150
   -10.3647 -10.3390 -10.2905 -10.2731 -10.2632 -10.2530 -10.2103 -10.2014
    -7.5228  -7.4976  -7.2995  -7.2669  -7.2240  -7.2022  -6.9252  -6.8436
    -6.7640  -6.7031  -6.6055  -6.5676   4.9060   4.9566   5.2358   5.2922
     5.3658   5.5681   5.6179   5.6606   5.8444   6.0908   6.2129   6.2853
     6.3661   6.4477   6.6373   6.6912   6.8237   6.9224   6.9998   7.1156
     7.2736   7.3789   7.4024   7.5426   7.6090   7.7696   7.9437   7.9706
     8.0672   8.1221   8.1376   8.2185   8.2986   8.3588   8.4075   8.4858
    13.6951  13.9969  14.0690  14.1507  14.4667  14.5409  14.7826  14.9193
    15.0962  15.1963  15.3034  15.4350  15.6086  15.8010  15.8986  16.0700
    16.1003  16.1718  16.1815  16.3359  16.4503  16.5479  16.6278  16.7705
    16.8128  16.9384  16.9921  17.0536  17.1460  17.3652  17.4227  17.4967
    17.5295  17.9428  18.4511  18.5109  18.6293  18.8360  19.0960  19.2989
    19.4776  19.5328  19.8547  19.9613  20.9127  20.9507  21.0944  21.3094
    21.3408  21.7773  22.7365  22.8177  23.1682  23.2295  23.3952  23.6702
    23.7962  23.9342  24.0245  24.1997  24.6431  24.8376  24.9960  25.1378
    25.4763  25.7365  25.9724  26.1783  26.3383  26.4310  26.8191  27.0698
    27.2600  27.6014  28.0156  28.3804  28.5382  28.7914  29.1885  29.5339
    29.8148  29.9480  30.0686  30.4675  30.6183  30.9989  31.0176  31.5096
    31.6912  31.9822  32.4198  32.5595  32.7182  32.9023  33.1766  33.2786
    33.3935  33.6912  33.8113  33.8714  34.0174  34.3504  34.7049  34.7899
    34.9794  35.0621  35.2514  35.4817  35.5863  35.9169  36.0110  36.1251
    36.2936  36.5967  36.7065  36.9131  37.1768  37.3156  37.4897  37.8949
    37.9952  38.1526  38.2542  38.4823  38.6963  38.8085  39.0097  39.1231
    39.2411  39.7044  39.7274  40.0367  40.1629  40.4767  40.6012  40.8122
    40.9225  41.1464  41.4175  41.4925  41.6958  41.7984  41.8660  42.1101
    42.3110  42.3191  42.4688  42.5264  42.6835  42.8776  43.0838  43.1849
    43.2765  43.4467  43.5421  43.6866  43.9038  44.1770  44.2090  44.2757
    44.3622  44.5349  44.7474  44.8929  45.0947  45.2117  45.3504  45.5738
    45.6337  45.7024  45.8113  45.9672  46.0454  46.3359  46.4725  46.6355

     occupation numbers
     1.0000   1.0000   1.0000   1.0000   1.0000   1.0000   1.0000   1.0000
     1.0000   1.0000   1.0000   1.0000   1.0000   1.0000   1.0000   1.0000
     1.0000   1.0000   1.0000   1.0000   1.0000   1.0000   1.0000   1.0000
     1.0000   1.0000   1.0000   1.0000   1.0000   1.0000   1.0000   1.0000
     1.0000   1.0000   1.0000   1.0000   1.0000   1.0000   1.0000   1.0000
     1.0000   1.0000   1.0000   1.0000   1.0000   1.0000   1.0000   1.0000
     1.0000   1.0000   1.0000   1.0000   1.0000   1.0000   1.0000   1.0000
     1.0000   1.0000   1.0000   1.0000   1.0000   1.0000   1.0000   1.0000
     1.0000   1.0000   1.0000   1.0000   1.0000   1.0000   1.0000   1.0000
     1.0000   1.0000   1.0000   1.0000   1.0000   1.0000   1.0000   1.0000
     0.0000   0.0000   0.0000   0.0000   0.0000   0.0000   0.0000   0.0000
     0.0000   0.0000   0.0000   0.0000   0.0000   0.0000   0.0000   0.0000
     0.0000   0.0000   0.0000   0.0000   0.0000   0.0000   0.0000   0.0000
     0.0000   0.0000   0.0000   0.0000   0.0000   0.0000   0.0000   0.0000
     0.0000   0.0000   0.0000   0.0000   0.0000   0.0000   0.0000   0.0000
     0.0000   0.0000   0.0000   0.0000   0.0000   0.0000   0.0000   0.0000
     0.0000   0.0000   0.0000   0.0000   0.0000   0.0000   0.0000   0.0000
     0.0000   0.0000   0.0000   0.0000   0.0000   0.0000   0.0000   0.0000
     0.0000   0.0000   0.0000   0.0000   0.0000   0.0000   0.0000   0.0000
     0.0000   0.0000   0.0000   0.0000   0.0000   0.0000   0.0000   0.0000
     0.0000   0.0000   0.0000   0.0000   0.0000   0.0000   0.0000   0.0000
     0.0000   0.0000   0.0000   0.0000   0.0000   0.0000   0.0000   0.0000
     0.0000   0.0000   0.0000   0.0000   0.0000   0.0000   0.0000   0.0000
     0.0000   0.0000   0.0000   0.0000   0.0000   0.0000   0.0000   0.0000
     0.0000   0.0000   0.0000   0.0000   0.0000   0.0000   0.0000   0.0000
     0.0000   0.0000   0.0000   0.0000   0.0000   0.0000   0.0000   0.0000
     0.0000   0.0000   0.0000   0.0000   0.0000   0.0000   0.0000   0.0000
     0.0000   0.0000   0.0000   0.0000   0.0000   0.0000   0.0000   0.0000
     0.0000   0.0000   0.0000   0.0000   0.0000   0.0000   0.0000   0.0000
     0.0000   0.0000   0.0000   0.0000   0.0000   0.0000   0.0000   0.0000
     0.0000   0.0000   0.0000   0.0000   0.0000   0.0000   0.0000   0.0000
     0.0000   0.0000   0.0000   0.0000   0.0000   0.0000   0.0000   0.0000

     highest occupied, lowest unoccupied level (ev):     8.6527   13.1187

!    total energy              =   -1253.16320320 Ry
     estimated scf accuracy    <       0.00000074 Ry

     The total energy is the sum of the following terms:
     one-electron contribution =    -261.86191435 Ry
     hartree contribution      =     213.95995473 Ry
     xc contribution           =    -252.17222973 Ry
     ewald contribution        =    -838.86742075 Ry
     one-center paw contrib.   =    -114.22159310 Ry
      -> PAW hartree energy AE =       0.00000000 Ry
      -> PAW hartree energy PS =       0.00000000 Ry
      -> PAW xc energy AE      =       0.00000000 Ry
      -> PAW xc energy PS      =       0.00000000 Ry
      -> total E_H with PAW    =     213.95995473 Ry
      -> total E_XC with PAW   =    -252.17222973 Ry

     convergence has been achieved in   8 iterations

     Writing all to output data dir bands_nm/myprefix.save/

     General routines

     Parallel routines

     PAW routines

   This run was terminated on:  20: 8:23  15Jul2023

   JOB DONE.