     Program PWSCF v.7.1 starts on 15Jul2023 at 18:53:54

     Reading input from espresso_8099.pwi
Warning: card &CELL ignored
Warning: card / ignored

     Current dimensions of program PWSCF are:
     Max number of different atomic species (ntypx) = 10
     Max number of k-points (npk) =  40000
     Max angular momentum in pseudopotentials (lmaxx) =  4
     Message from routine setup:
     using ibrav=0 with symmetry is DISCOURAGED, use correct ibrav instead

     K-points division:     npool     =       2
     R & G space division:  proc/nbgrp/npool/nimage =       4
     Subspace diagonalization in iterative solution of the eigenvalue problem:
     one sub-group per band group will be used

     Using Slab Decomposition

     bravais-lattice index     =            0
     lattice parameter (alat)  =      12.1801  a.u.
     unit-cell volume          =    3359.2505 (a.u.)^3
     number of atoms/cell      =           16
     number of atomic types    =            3
     number of electrons       =       156.00
     number of Kohn-Sham states=          256
     kinetic-energy cutoff     =      30.0000  Ry
     charge density cutoff     =     240.0000  Ry
     scf convergence threshold =      1.0E-06
     mixing beta               =       0.7000
     number of iterations used =            8  plain     mixing
     Exchange-correlation=  SLA  PW   PBX  PBC
                           (   1   4   3   4   0   0   0)

     celldm(1)=  12.180131  celldm(2)=   0.000000  celldm(3)=   0.000000
     celldm(4)=   0.000000  celldm(5)=   0.000000  celldm(6)=   0.000000

     crystal axes: (cart. coord. in units of alat)
               a(1) = (   1.000000   0.000000   0.000000 )
               a(2) = (  -0.280484   1.005382   0.000000 )
               a(3) = (  -0.279331  -0.252943   1.849079 )

     reciprocal axes: (cart. coord. in units 2 pi/alat)
               b(1) = (  1.000000  0.278982  0.189228 )
               b(2) = (  0.000000  0.994647  0.136062 )
               b(3) = (  0.000000  0.000000  0.540810 )

     PseudoPot. # 1 for Tl read from file:
     /lustre07/scratch/pragov/crystal_structure_design/utils/SSSP/Tl_pbe_v1.2.uspp.F.UPF
     MD5 check sum: b76cf1f7e72655a2b2c53cf6385d7059
     Pseudo is Ultrasoft + core correction, Zval = 13.0
     Generated by new atomic code, or converted to UPF format
     Using radial grid of  899 points,  6 beta functions with:
                l(1) =   0
                l(2) =   0
                l(3) =   1
                l(4) =   1
                l(5) =   2
                l(6) =   2
     Q(r) pseudized with  6 coefficients,  rinner =    1.100   1.100   1.100
                                                       1.100   1.100

     PseudoPot. # 2 for Sb read from file:
     /lustre07/scratch/pragov/crystal_structure_design/utils/SSSP/sb_pbe_v1.4.uspp.F.UPF
     MD5 check sum: 9bc50dfb53373b713f5709b9110fe27f
     Pseudo is Ultrasoft + core correction, Zval = 15.0
     Generated by new atomic code, or converted to UPF format
     Using radial grid of  891 points,  6 beta functions with:
                l(1) =   0
                l(2) =   0
                l(3) =   1
                l(4) =   1
                l(5) =   2
                l(6) =   2
     Q(r) pseudized with  8 coefficients,  rinner =    1.350   1.350   1.350
                                                       1.350   1.350

     PseudoPot. # 3 for S  read from file:
     /lustre07/scratch/pragov/crystal_structure_design/utils/SSSP/s_pbe_v1.4.uspp.F.UPF
     MD5 check sum: 88d86576ff6df21479756cfb9bdac1df
     Pseudo is Ultrasoft + core correction, Zval =  6.0
     Generated by new atomic code, or converted to UPF format
     Using radial grid of  907 points,  6 beta functions with:
                l(1) =   0
                l(2) =   0
                l(3) =   1
                l(4) =   1
                l(5) =   2
                l(6) =   2
     Q(r) pseudized with  8 coefficients,  rinner =    1.300   1.300   1.300
                                                       1.300   1.300

     atomic species   valence    mass     pseudopotential
        Tl            13.00   204.38000     Tl( 1.00)
        Sb            15.00   121.76000     Sb( 1.00)
        S              6.00    32.06000     S ( 1.00)

      2 Sym. Ops., with inversion, found

                                    s                        frac. trans.

      isym =  1     identity

 cryst.   s( 1) = (     1          0          0      )
                  (     0          1          0      )
                  (     0          0          1      )

 cart.    s( 1) = (  1.0000000  0.0000000  0.0000000 )
                  (  0.0000000  1.0000000  0.0000000 )
                  (  0.0000000  0.0000000  1.0000000 )

      isym =  2     inversion

 cryst.   s( 2) = (    -1          0          0      )
                  (     0         -1          0      )
                  (     0          0         -1      )

 cart.    s( 2) = ( -1.0000000  0.0000000  0.0000000 )
                  (  0.0000000 -1.0000000  0.0000000 )
                  (  0.0000000  0.0000000 -1.0000000 )

   Cartesian axes

     site n.     atom                  positions (alat units)
         1           Tl  tau(   1) = (   0.1946471   0.2484451   0.0398624  )
         2           Tl  tau(   2) = (   0.6436012   0.2542180   1.3120641  )
         3           Tl  tau(   3) = (   0.2455379   0.5039935   1.8092168  )
         4           Tl  tau(   4) = (   0.3417248   0.6278773   0.9677341  )
         5           Tl  tau(   5) = (  -0.2034161   0.4982206   0.5370151  )
         6           Tl  tau(   6) = (   0.0984602   0.1245614   0.8813451  )
         7           Sb  tau(   7) = (   0.5095267  -0.0518827   0.4633700  )
         8           Sb  tau(   8) = (  -0.0693416   0.8043213   1.3857092  )
         9           S   tau(   9) = (   0.2965018   0.7851621   1.4216165  )
        10           S   tau(  10) = (  -0.2160928   0.5897720   1.6462445  )
        11           S   tau(  11) = (   0.3305174   0.6034323   0.4308909  )
        12           S   tau(  12) = (   0.1436833  -0.0327235   0.4274627  )
        13           S   tau(  13) = (   0.6562778   0.1626667   0.2028347  )
        14           S   tau(  14) = (  -0.1591781   0.6790104   1.0486720  )
        15           S   tau(  15) = (   0.1096676   0.1490064   1.4181883  )
        16           S   tau(  16) = (   0.5993632   0.0734282   0.8004072  )

   Crystallographic axes

     site n.     atom                  positions (cryst. coord.)
         1           Tl  tau(   1) = (  0.2715020  0.2525390  0.0215580  )
         2           Tl  tau(   2) = (  0.9628030  0.4313790  0.7095770  )
         3           Tl  tau(   3) = (  0.7284980  0.7474610  0.9784420  )
         4           Tl  tau(   4) = (  0.7000140  0.7561880  0.5233600  )
         5           Tl  tau(   5) = (  0.0371970  0.5686210  0.2904230  )
         6           Tl  tau(   6) = (  0.2999860  0.2438120  0.4766400  )
         7           Sb  tau(   7) = (  0.5827350  0.0114420  0.2505950  )
         8           Sb  tau(   8) = (  0.4172650  0.9885580  0.7494050  )
         9           S   tau(   9) = (  0.7845580  0.9743870  0.7688240  )
        10           S   tau(  10) = (  0.2599590  0.8106060  0.8903050  )
        11           S   tau(  11) = (  0.5804010  0.6588300  0.2330300  )
        12           S   tau(  12) = (  0.2154420  0.0256130  0.2311760  )
        13           S   tau(  13) = (  0.7400410  0.1893940  0.1096950  )
        14           S   tau(  14) = (  0.2286920  0.8180600  0.5671320  )
        15           S   tau(  15) = (  0.4195990  0.3411700  0.7669700  )
        16           S   tau(  16) = (  0.7713080  0.1819400  0.4328680  )

     number of k points=    14
                       cart. coord. in units 2pi/alat
        k(    1) = (   0.0000000   0.0000000   0.0000000), wk =   0.0740741
        k(    2) = (   0.0000000   0.0000000   0.1802699), wk =   0.1481481
        k(    3) = (   0.0000000   0.3315491   0.0453539), wk =   0.1481481
        k(    4) = (   0.0000000   0.3315491   0.2256238), wk =   0.1481481
        k(    5) = (   0.0000000   0.3315491  -0.1349160), wk =   0.1481481
        k(    6) = (   0.3333333   0.0929941   0.0630761), wk =   0.1481481
        k(    7) = (   0.3333333   0.0929941   0.2433460), wk =   0.1481481
        k(    8) = (   0.3333333   0.0929941  -0.1171938), wk =   0.1481481
        k(    9) = (   0.3333333   0.4245431   0.1084300), wk =   0.1481481
        k(   10) = (   0.3333333   0.4245431   0.2886999), wk =   0.1481481
        k(   11) = (   0.3333333   0.4245431  -0.0718399), wk =   0.1481481
        k(   12) = (   0.3333333  -0.2385550   0.0177221), wk =   0.1481481
        k(   13) = (   0.3333333  -0.2385550   0.1979920), wk =   0.1481481
        k(   14) = (   0.3333333  -0.2385550  -0.1625478), wk =   0.1481481

                       cryst. coord.
        k(    1) = (   0.0000000   0.0000000   0.0000000), wk =   0.0740741
        k(    2) = (   0.0000000   0.0000000   0.3333333), wk =   0.1481481
        k(    3) = (   0.0000000   0.3333333   0.0000000), wk =   0.1481481
        k(    4) = (   0.0000000   0.3333333   0.3333333), wk =   0.1481481
        k(    5) = (   0.0000000   0.3333333  -0.3333333), wk =   0.1481481
        k(    6) = (   0.3333333   0.0000000   0.0000000), wk =   0.1481481
        k(    7) = (   0.3333333   0.0000000   0.3333333), wk =   0.1481481
        k(    8) = (   0.3333333   0.0000000  -0.3333333), wk =   0.1481481
        k(    9) = (   0.3333333   0.3333333   0.0000000), wk =   0.1481481
        k(   10) = (   0.3333333   0.3333333   0.3333333), wk =   0.1481481
        k(   11) = (   0.3333333   0.3333333  -0.3333333), wk =   0.1481481
        k(   12) = (   0.3333333  -0.3333333  -0.0000000), wk =   0.1481481
        k(   13) = (   0.3333333  -0.3333333   0.3333333), wk =   0.1481481
        k(   14) = (   0.3333333  -0.3333333  -0.3333333), wk =   0.1481481

     Check: negative core charge=   -0.000005

     Initial potential from superposition of free atoms

     starting charge     153.9705, renormalised to     156.0000

     negative rho (up, down):  3.053E-01 0.000E+00
     Starting wfcs are  104 randomized atomic wfcs +  152 random wfcs

     Self-consistent Calculation

     iteration #  1     ecut=    30.00 Ry     beta= 0.70
     Davidson diagonalization with overlap

     ethr =  1.00E-02,  avg # of iterations =  7.0

     negative rho (up, down):  2.988E-01 0.000E+00

     total energy              =   -1431.98163700 Ry
     estimated scf accuracy    <       1.69219539 Ry

[...]

     total energy              =   -1432.71382197 Ry
     estimated scf accuracy    <       0.00000238 Ry

     iteration # 10     ecut=    30.00 Ry     beta= 0.70
     Davidson diagonalization with overlap

     ethr =  1.53E-09,  avg # of iterations =  4.4

     negative rho (up, down):  2.996E-01 0.000E+00

     End of self-consistent calculation

          k = 0.0000 0.0000 0.0000 (  9289 PWs)   bands (ev):

   -24.5236 -24.5226 -24.5156 -24.5155 -24.5131 -24.5112 -24.4720 -24.4704
   -24.4657 -24.4651  -8.3620  -8.2788  -6.7398  -6.6543  -6.5492  -6.5438
    -6.5144  -6.4939  -5.2207  -5.2076  -5.2070  -5.1824  -5.1757  -5.1671
    -5.1660  -5.1535  -5.1466  -5.1319  -5.1256  -5.1074  -5.1026  -5.0936
    -5.0863  -5.0792  -5.0767  -5.0725  -5.0712  -5.0644  -5.0610  -5.0572
    -5.0477  -5.0406  -5.0314  -5.0284  -4.9984  -4.9632  -4.9472  -4.9452
    -2.7782  -2.5331  -0.1254   0.1828   0.4462   0.4495   0.7467   0.7480
     0.9725   1.2557   1.3135   1.3995   1.5323   1.7579   2.9344   3.1099
     3.3281   3.4012   3.4311   3.4631   3.6168   3.7566   3.7667   4.0740
     4.1058   4.1935   4.2452   4.4532   4.5681   4.7847   6.8204   7.0054
     7.6813   7.9776   8.2431   8.4374   8.5404   8.6231   8.8386   9.2119
     9.3196   9.3330   9.5190   9.5568   9.6902   9.8101   9.8936  10.1825
    10.2708  10.5867  10.7086  10.8185  11.0804  11.2954  11.5045  11.6666
    12.2217  12.2943  12.8512  12.8644  12.9208  13.2218  13.4046  13.5269
    13.5406  13.7543  13.8401  14.1934  14.7080  14.8178  14.8859  15.3785
    15.4421  15.6674  15.7226  15.8176  15.9042  15.9161  16.0445  16.0856
    16.1602  16.3845  16.4411  16.5615  16.7327  16.7682  16.8384  17.0601
    17.0864  17.3013  17.4687  17.5348  17.6276  17.7417  17.8654  18.1178
    18.2607  18.4350  18.4777  18.5037  18.6688  18.8562  18.9670  19.1282
    19.3848  19.4252  19.4584  19.6615  19.6955  20.1348  20.1482  20.3382
    20.3713  20.4099  20.5757  20.6744  20.7574  20.8785  20.9098  21.1443
    21.1565  21.3173  21.4468  21.7133  21.7424  21.8427  22.1046  22.1876
    22.2324  22.3682  22.4541  22.5809  22.7614  22.7987  22.8475  22.8812
    23.0985  23.1084  23.2744  23.3022  23.5237  23.6559  23.7804  23.8587
    23.9852  24.0754  24.1201  24.1728  24.4373  24.5234  24.6387  24.6978
    24.7522  24.9810  25.1088  25.1710  25.2692  25.4364  25.5092  25.6497
    25.7557  25.7959  25.9311  26.1178  26.2043  26.4270  26.4468  26.4659
    26.6687  26.9613  27.0487  27.2093  27.3300  27.3657  27.5246  27.5966
    27.6573  27.6958  27.8124  27.9034  28.0522  28.1644  28.1799  28.2997
    28.3109  28.3459  28.4745  28.7446  28.8137  28.8770  28.9979  29.0432
    29.2164  29.3197  29.4321  29.4723  29.5313  29.8009  29.8081  29.8875
    29.9302  30.0545  30.1456  30.2358  30.2953  30.4125  30.7030  30.7483

     occupation numbers
     1.0000   1.0000   1.0000   1.0000   1.0000   1.0000   1.0000   1.0000
     1.0000   1.0000   1.0000   1.0000   1.0000   1.0000   1.0000   1.0000
     1.0000   1.0000   1.0000   1.0000   1.0000   1.0000   1.0000   1.0000
     1.0000   1.0000   1.0000   1.0000   1.0000   1.0000   1.0000   1.0000
     1.0000   1.0000   1.0000   1.0000   1.0000   1.0000   1.0000   1.0000
     1.0000   1.0000   1.0000   1.0000   1.0000   1.0000   1.0000   1.0000
     1.0000   1.0000   1.0000   1.0000   1.0000   1.0000   1.0000   1.0000
     1.0000   1.0000   1.0000   1.0000   1.0000   1.0000   1.0000   1.0000
     1.0000   1.0000   1.0000   1.0000   1.0000   1.0000   1.0000   1.0000
     1.0000   1.0000   1.0000   1.0000   1.0000   1.0000   0.0000   0.0000
     0.0000   0.0000   0.0000   0.0000   0.0000   0.0000   0.0000   0.0000
     0.0000   0.0000   0.0000   0.0000   0.0000   0.0000   0.0000   0.0000
     0.0000   0.0000   0.0000   0.0000   0.0000   0.0000   0.0000   0.0000
     0.0000   0.0000   0.0000   0.0000   0.0000   0.0000   0.0000   0.0000
     0.0000   0.0000   0.0000   0.0000   0.0000   0.0000   0.0000   0.0000
     0.0000   0.0000   0.0000   0.0000   0.0000   0.0000   0.0000   0.0000
     0.0000   0.0000   0.0000   0.0000   0.0000   0.0000   0.0000   0.0000
     0.0000   0.0000   0.0000   0.0000   0.0000   0.0000   0.0000   0.0000
     0.0000   0.0000   0.0000   0.0000   0.0000   0.0000   0.0000   0.0000
     0.0000   0.0000   0.0000   0.0000   0.0000   0.0000   0.0000   0.0000
     0.0000   0.0000   0.0000   0.0000   0.0000   0.0000   0.0000   0.0000
     0.0000   0.0000   0.0000   0.0000   0.0000   0.0000   0.0000   0.0000
     0.0000   0.0000   0.0000   0.0000   0.0000   0.0000   0.0000   0.0000
     0.0000   0.0000   0.0000   0.0000   0.0000   0.0000   0.0000   0.0000
     0.0000   0.0000   0.0000   0.0000   0.0000   0.0000   0.0000   0.0000
     0.0000   0.0000   0.0000   0.0000   0.0000   0.0000   0.0000   0.0000
     0.0000   0.0000   0.0000   0.0000   0.0000   0.0000   0.0000   0.0000
     0.0000   0.0000   0.0000   0.0000   0.0000   0.0000   0.0000   0.0000
     0.0000   0.0000   0.0000   0.0000   0.0000   0.0000   0.0000   0.0000
     0.0000   0.0000   0.0000   0.0000   0.0000   0.0000   0.0000   0.0000
     0.0000   0.0000   0.0000   0.0000   0.0000   0.0000   0.0000   0.0000
     0.0000   0.0000   0.0000   0.0000   0.0000   0.0000   0.0000   0.0000

[...]

          k = 0.3333-0.2386-0.1625 (  9315 PWs)   bands (ev):

   -24.5216 -24.5212 -24.5172 -24.5165 -24.5159 -24.5156 -24.4729 -24.4721
   -24.4669 -24.4664  -8.2472  -8.2090  -6.6995  -6.6560  -6.6290  -6.6183
    -6.5760  -6.5469  -5.2190  -5.2135  -5.1980  -5.1837  -5.1734  -5.1653
    -5.1584  -5.1513  -5.1501  -5.1485  -5.1275  -5.1253  -5.1116  -5.1078
    -5.1009  -5.0869  -5.0775  -5.0726  -5.0670  -5.0661  -5.0637  -5.0609
    -5.0525  -5.0475  -5.0413  -5.0282  -5.0173  -5.0021  -4.9880  -4.9717
    -2.5494  -2.4669  -0.3167  -0.1359  -0.0840   0.0268   0.5094   0.8455
     1.3330   1.4568   1.5574   1.6210   1.7161   1.8371   3.1315   3.2406
     3.5159   3.6088   3.6321   3.7901   3.8832   3.9365   4.1119   4.2853
     4.3121   4.3673   4.4132   4.4972   4.6249   4.7262   6.7964   6.8295
     7.1875   7.7172   7.7506   7.8560   8.1799   8.4981   8.7850   8.9645
     9.1230   9.1418   9.3729   9.4429   9.5299   9.6797   9.8138   9.9615
    10.1238  10.3164  10.3669  10.5831  10.7892  10.9301  11.4088  11.6923
    12.1913  12.5698  12.6969  12.9029  12.9696  13.1565  13.4669  13.7921
    13.8744  14.0489  14.1542  14.3674  14.4642  14.6976  14.7450  14.9690
    15.0821  15.2879  15.4024  15.6685  15.7826  15.8566  16.0793  16.1638
    16.2841  16.4068  16.5741  16.7092  16.8725  16.9640  17.1633  17.1917
    17.3627  17.5279  17.5948  17.7418  17.8736  18.0816  18.2810  18.4251
    18.5872  18.6154  18.7405  18.8078  18.9750  19.0762  19.2285  19.4548
    19.5144  19.6390  19.7618  19.8754  19.9235  20.0567  20.2700  20.3251
    20.4307  20.5410  20.7539  20.8189  20.9618  21.0940  21.1367  21.2039
    21.2259  21.5230  21.6426  21.8067  21.8877  21.9244  22.1084  22.1950
    22.3123  22.3789  22.4733  22.6467  22.6756  22.8627  23.0083  23.0570
    23.2783  23.3742  23.4007  23.6105  23.6856  23.6894  23.7924  23.9081
    24.0619  24.1593  24.2349  24.2918  24.4524  24.5506  24.6272  24.7603
    24.7785  24.8395  24.9424  25.1530  25.2926  25.3461  25.4008  25.4734
    25.6218  25.7586  25.8737  26.0226  26.1155  26.2392  26.3827  26.4697
    26.5499  26.7141  26.7467  26.7734  26.9369  27.0579  27.0996  27.2843
    27.3506  27.4642  27.5379  27.6327  27.7319  27.7386  27.8978  28.0069
    28.0886  28.1566  28.3421  28.4696  28.5068  28.6726  28.7397  28.8902
    28.9459  28.9864  29.1359  29.2036  29.3435  29.5196  29.5770  29.6532
    29.7509  29.8502  29.9610  29.9933  30.1362  30.1690  30.3730  30.4767

     occupation numbers
     1.0000   1.0000   1.0000   1.0000   1.0000   1.0000   1.0000   1.0000
     1.0000   1.0000   1.0000   1.0000   1.0000   1.0000   1.0000   1.0000
     1.0000   1.0000   1.0000   1.0000   1.0000   1.0000   1.0000   1.0000
     1.0000   1.0000   1.0000   1.0000   1.0000   1.0000   1.0000   1.0000
     1.0000   1.0000   1.0000   1.0000   1.0000   1.0000   1.0000   1.0000
     1.0000   1.0000   1.0000   1.0000   1.0000   1.0000   1.0000   1.0000
     1.0000   1.0000   1.0000   1.0000   1.0000   1.0000   1.0000   1.0000
     1.0000   1.0000   1.0000   1.0000   1.0000   1.0000   1.0000   1.0000
     1.0000   1.0000   1.0000   1.0000   1.0000   1.0000   1.0000   1.0000
     1.0000   1.0000   1.0000   1.0000   1.0000   1.0000   0.0000   0.0000
     0.0000   0.0000   0.0000   0.0000   0.0000   0.0000   0.0000   0.0000
     0.0000   0.0000   0.0000   0.0000   0.0000   0.0000   0.0000   0.0000
     0.0000   0.0000   0.0000   0.0000   0.0000   0.0000   0.0000   0.0000
     0.0000   0.0000   0.0000   0.0000   0.0000   0.0000   0.0000   0.0000
     0.0000   0.0000   0.0000   0.0000   0.0000   0.0000   0.0000   0.0000
     0.0000   0.0000   0.0000   0.0000   0.0000   0.0000   0.0000   0.0000
     0.0000   0.0000   0.0000   0.0000   0.0000   0.0000   0.0000   0.0000
     0.0000   0.0000   0.0000   0.0000   0.0000   0.0000   0.0000   0.0000
     0.0000   0.0000   0.0000   0.0000   0.0000   0.0000   0.0000   0.0000
     0.0000   0.0000   0.0000   0.0000   0.0000   0.0000   0.0000   0.0000
     0.0000   0.0000   0.0000   0.0000   0.0000   0.0000   0.0000   0.0000
     0.0000   0.0000   0.0000   0.0000   0.0000   0.0000   0.0000   0.0000
     0.0000   0.0000   0.0000   0.0000   0.0000   0.0000   0.0000   0.0000
     0.0000   0.0000   0.0000   0.0000   0.0000   0.0000   0.0000   0.0000
     0.0000   0.0000   0.0000   0.0000   0.0000   0.0000   0.0000   0.0000
     0.0000   0.0000   0.0000   0.0000   0.0000   0.0000   0.0000   0.0000
     0.0000   0.0000   0.0000   0.0000   0.0000   0.0000   0.0000   0.0000
     0.0000   0.0000   0.0000   0.0000   0.0000   0.0000   0.0000   0.0000
     0.0000   0.0000   0.0000   0.0000   0.0000   0.0000   0.0000   0.0000
     0.0000   0.0000   0.0000   0.0000   0.0000   0.0000   0.0000   0.0000
     0.0000   0.0000   0.0000   0.0000   0.0000   0.0000   0.0000   0.0000
     0.0000   0.0000   0.0000   0.0000   0.0000   0.0000   0.0000   0.0000

     highest occupied, lowest unoccupied level (ev):     4.8833    6.4862

!    total energy              =   -1432.71382255 Ry
     estimated scf accuracy    <       0.00000052 Ry

     The total energy is the sum of the following terms:
     one-electron contribution =    -475.29266742 Ry
     hartree contribution      =     327.42033964 Ry
     xc contribution           =    -527.73796364 Ry
     ewald contribution        =    -757.10353113 Ry

     convergence has been achieved in  10 iterations

     Writing all to output data dir bands_nm/myprefix.save/

     General routines

     Parallel routines

   This run was terminated on:  18:55:54  15Jul2023

   JOB DONE.