     Program PWSCF v.7.0 starts on  4Jun2023 at 12:42: 7

     K-points division:     npool     =       2
     R & G space division:  proc/nbgrp/npool/nimage =       4

     Reading input from espresso_464.pwi
Warning: card &CELL ignored
Warning: card / ignored

     Current dimensions of program PWSCF are:
     Max number of different atomic species (ntypx) = 10
     Max number of k-points (npk) =  40000
     Max angular momentum in pseudopotentials (lmaxx) =  4
     file Fe.pbe-spn-kjpaw_psl.0.2.1.UPF: wavefunction(s)  3D renormalized
     Message from routine setup:
     using ibrav=0 with symmetry is DISCOURAGED, use correct ibrav instead

     Using Slab Decomposition

     bravais-lattice index     =            0
     lattice parameter (alat)  =      12.1986  a.u.
     unit-cell volume          =     619.0771 (a.u.)^3
     number of atoms/cell      =            5
     number of atomic types    =            3
     number of electrons       =        52.00
     number of Kohn-Sham states=           64
     kinetic-energy cutoff     =      30.0000  Ry
     charge density cutoff     =     240.0000  Ry
     scf convergence threshold =      1.0E-06
     mixing beta               =       0.7000
     number of iterations used =            8  plain     mixing
     Exchange-correlation= PBE
                           (   1   4   3   4   0   0   0)

     celldm(1)=  12.198623  celldm(2)=   0.000000  celldm(3)=   0.000000
     celldm(4)=   0.000000  celldm(5)=   0.000000  celldm(6)=   0.000000

     crystal axes: (cart. coord. in units of alat)
               a(1) = (   1.000000   0.000000   0.000000 )
               a(2) = (   0.621201   0.783651   0.000000 )
               a(3) = (  -0.810600  -0.391826   0.435201 )

     reciprocal axes: (cart. coord. in units 2 pi/alat)
               b(1) = (  1.000000 -0.792701  1.148896 )
               b(2) = (  0.000000  1.276078  1.148896 )
               b(3) = (  0.000000  0.000000  2.297791 )

     PseudoPot. # 1 for Sr read from file:
     /home/pragov/projects/rrg-bengioy-ad/pragov/crystal_structure_design/SSSP/Sr_pbe_v1.uspp.F.UPF
     MD5 check sum: 6b418c05fbe9db5448babca5e47b7a5b
     Pseudo is Ultrasoft + core correction, Zval = 10.0
     Generated by new atomic code, or converted to UPF format
     Using radial grid of  883 points,  6 beta functions with:
                l(1) =   0
                l(2) =   0
                l(3) =   1
                l(4) =   1
                l(5) =   2
                l(6) =   2
     Q(r) pseudized with  6 coefficients,  rinner =    1.400   1.400   1.400
                                                       1.400   1.400

     PseudoPot. # 2 for Fe read from file:
     /home/pragov/projects/rrg-bengioy-ad/pragov/crystal_structure_design/SSSP/Fe.pbe-spn-kjpaw_psl.0.2.1.UPF
     MD5 check sum: e86618425769142926afa95317d90200
     Pseudo is Projector augmented-wave + core cor, Zval = 16.0
     Generated using "atomic" code by A. Dal Corso  v.5.0.99 svn rev. 10869
     Shape of augmentation charge: PSQ
     Using radial grid of 1191 points,  6 beta functions with:
                l(1) =   0
                l(2) =   0
                l(3) =   1
                l(4) =   1
                l(5) =   2
                l(6) =   2
     Q(r) pseudized with 0 coefficients

     PseudoPot. # 3 for As read from file:
     /home/pragov/projects/rrg-bengioy-ad/pragov/crystal_structure_design/SSSP/As.pbe-n-rrkjus_psl.0.2.UPF
     MD5 check sum: 767315de957beeeb34f87d97bf945c8f
     Pseudo is Ultrasoft + core correction, Zval =  5.0
     Generated using "atomic" code by A. Dal Corso  v.5.0.99 svn rev. 10869
     Using radial grid of 1209 points,  4 beta functions with:
                l(1) =   0
                l(2) =   0
                l(3) =   1
                l(4) =   1
     Q(r) pseudized with 0 coefficients

     atomic species   valence    mass     pseudopotential
        Sr            10.00    87.62000     Sr( 1.00)
        Fe            16.00    55.84500     Fe( 1.00)
        As             5.00    74.92159     As( 1.00)

      4 Sym. Ops., with inversion, found

                                    s                        frac. trans.

      isym =  1     identity

 cryst.   s( 1) = (     1          0          0      )
                  (     0          1          0      )
                  (     0          0          1      )

 cart.    s( 1) = (  1.0000000 -0.0000000  0.0000000 )
                  (  0.0000000  1.0000000  0.0000000 )
                  (  0.0000000  0.0000000  1.0000000 )

      isym =  2     180 deg rotation - cart. axis [0,0,1]

[...]

      isym =  3     inversion

[...]

      isym =  4     inv. 180 deg rotation - cart. axis [0,0,1]

 cryst.   s( 4) = (     1          0          0      )
                  (     0          1          0      )
                  (    -1         -1         -1      )

 cart.    s( 4) = (  1.0000000 -0.0000000 -0.0000000 )
                  (  0.0000000  1.0000000 -0.0000000 )
                  (  0.0000000  0.0000000 -1.0000000 )

   Cartesian axes

     site n.     atom                  positions (alat units)
         1           Sr  tau(   1) = (   0.0000000   0.0000000   0.0000000  )
         2           Fe  tau(   2) = (   0.3106005   0.3918257   0.2176003  )
         3           Fe  tau(   3) = (   0.5000000   0.0000000   0.2176003  )
         4           As  tau(   4) = (   1.0493353   0.5072246   0.0000000  )
         5           As  tau(   5) = (   0.5718657   0.2764267   0.0000000  )

   Crystallographic axes

     site n.     atom                  positions (cryst. coord.)
         1           Sr  tau(   1) = (  0.0000000  0.0000000  0.0000000  )
         2           Fe  tau(   2) = (  0.2500000  0.7500000  0.5000000  )
         3           Fe  tau(   3) = (  0.7500000  0.2500000  0.5000000  )
         4           As  tau(   4) = (  0.6472580  0.6472580  0.0000000  )
         5           As  tau(   5) = (  0.3527420  0.3527420  0.0000000  )

     number of k points=    10
                       cart. coord. in units 2pi/alat
        k(    1) = (   0.0000000   0.0000000   0.0000000), wk =   0.0740741
        k(    2) = (   0.0000000   0.0000000   0.7659304), wk =   0.1481481
        k(    3) = (   0.0000000   0.4253593   0.3829652), wk =   0.2962963
        k(    4) = (   0.0000000   0.4253593   1.1488956), wk =   0.1481481
        k(    5) = (   0.3333333  -0.2642336   0.3829652), wk =   0.2962963
        k(    6) = (   0.3333333  -0.2642336   1.1488956), wk =   0.1481481
        k(    7) = (   0.3333333   0.1611257   0.7659304), wk =   0.2962963
        k(    8) = (   0.3333333   0.1611257  -0.0000000), wk =   0.1481481
        k(    9) = (   0.3333333  -0.6895928  -0.0000000), wk =   0.1481481
        k(   10) = (   0.3333333  -0.6895928   0.7659304), wk =   0.2962963

                       cryst. coord.
        k(    1) = (   0.0000000   0.0000000   0.0000000), wk =   0.0740741
        k(    2) = (   0.0000000   0.0000000   0.3333333), wk =   0.1481481
        k(    3) = (   0.0000000   0.3333333   0.0000000), wk =   0.2962963
        k(    4) = (   0.0000000   0.3333333   0.3333333), wk =   0.1481481
        k(    5) = (   0.3333333  -0.0000000   0.0000000), wk =   0.2962963
        k(    6) = (   0.3333333  -0.0000000   0.3333333), wk =   0.1481481
        k(    7) = (   0.3333333   0.3333333   0.0000000), wk =   0.2962963
        k(    8) = (   0.3333333   0.3333333  -0.3333333), wk =   0.1481481
        k(    9) = (   0.3333333  -0.3333333   0.0000000), wk =   0.1481481
        k(   10) = (   0.3333333  -0.3333333   0.3333333), wk =   0.2962963

     Check: negative core charge=   -0.000101

     Initial potential from superposition of free atoms

     starting charge      51.9650, renormalised to      52.0000

     negative rho (up, down):  6.380E-02 0.000E+00
     Starting wfcs are   47 randomized atomic wfcs +   17 random wfcs
     Checking if some PAW data can be deallocated...

     Self-consistent Calculation

     iteration #  1     ecut=    30.00 Ry     beta= 0.70
     Davidson diagonalization with overlap

     ethr =  1.00E-02,  avg # of iterations =  6.5

     negative rho (up, down):  6.476E-02 0.000E+00

     total energy              =    -763.63042608 Ry
     estimated scf accuracy    <       1.44237879 Ry

[...]

     total energy              =    -764.61476591 Ry
     estimated scf accuracy    <       0.00000257 Ry

     iteration # 10     ecut=    30.00 Ry     beta= 0.70
     Davidson diagonalization with overlap

     ethr =  4.94E-09,  avg # of iterations =  1.0

     negative rho (up, down):  6.662E-02 0.000E+00

     End of self-consistent calculation

          k = 0.0000 0.0000 0.0000 (  1727 PWs)   bands (ev):

   -75.1819 -75.1565 -40.9501 -40.9500 -40.9184 -40.9184 -40.6561 -40.5919
   -24.0302  -6.0733  -6.0314  -6.0314  -1.1068   0.8732   6.0903   7.9047
     8.1394   8.1394   9.0740   9.0740   9.1628  10.8417  10.8727  11.2110
    11.5194  11.5195  11.9631  12.4680  14.0212  14.0212  14.1984  15.3266
    16.4613  16.4751  16.5209  16.6559  17.4405  17.4405  21.4988  21.4988
    21.5310  21.8369  21.8554  21.8554  23.5233  23.8983  23.9657  23.9657
    24.5946  25.0753  26.7022  30.4362  30.4640  30.5617  31.5402  31.5402
    31.6159  31.6159  34.5600  35.5751  36.1285  36.1285  36.4203  37.1633

     occupation numbers
     1.0000   1.0000   1.0000   1.0000   1.0000   1.0000   1.0000   1.0000
     1.0000   1.0000   1.0000   1.0000   1.0000   1.0000   1.0000   1.0000
     1.0000   1.0000   1.0000   1.0000   1.0000   1.0000   1.0000   1.0000
     1.0000   1.0000   0.0000   0.0000   0.0000   0.0000   0.0000   0.0000
     0.0000   0.0000   0.0000   0.0000   0.0000   0.0000   0.0000   0.0000
     0.0000   0.0000   0.0000   0.0000   0.0000   0.0000   0.0000   0.0000
     0.0000   0.0000   0.0000   0.0000   0.0000   0.0000   0.0000   0.0000
     0.0000   0.0000   0.0000   0.0000   0.0000   0.0000   0.0000   0.0000

[...]

          k = 0.3333-0.6896 0.7659 (  1720 PWs)   bands (ev):

   -75.1739 -75.1642 -40.9407 -40.9382 -40.9245 -40.9053 -40.6369 -40.6274
   -24.0195  -6.2550  -6.0461  -6.0096  -0.0766   0.4180   6.5651   7.2894
     7.9590   8.3048   8.5950   8.7263   9.6819  10.3481  10.6821  10.7714
    10.8609  11.5854  12.5023  12.6507  13.5142  13.6310  14.2370  15.1659
    15.2216  15.8895  15.9661  16.3101  19.9308  20.1773  20.8797  21.3217
    21.3781  21.6449  22.2694  23.0290  23.4189  23.8337  23.8387  25.6832
    26.0843  28.3959  28.4643  29.7245  30.7988  30.9647  31.2030  31.4052
    31.5494  31.6391  32.2277  32.4270  34.5110  34.7842  34.8258  36.5801

     occupation numbers
     1.0000   1.0000   1.0000   1.0000   1.0000   1.0000   1.0000   1.0000
     1.0000   1.0000   1.0000   1.0000   1.0000   1.0000   1.0000   1.0000
     1.0000   1.0000   1.0000   1.0000   1.0000   1.0000   1.0000   1.0000
     1.0000   1.0000   0.0000   0.0000   0.0000   0.0000   0.0000   0.0000
     0.0000   0.0000   0.0000   0.0000   0.0000   0.0000   0.0000   0.0000
     0.0000   0.0000   0.0000   0.0000   0.0000   0.0000   0.0000   0.0000
     0.0000   0.0000   0.0000   0.0000   0.0000   0.0000   0.0000   0.0000
     0.0000   0.0000   0.0000   0.0000   0.0000   0.0000   0.0000   0.0000

     highest occupied, lowest unoccupied level (ev):    11.6535   11.6587

!    total energy              =    -764.61476624 Ry
     estimated scf accuracy    <       0.00000003 Ry

     The total energy is the sum of the following terms:
     one-electron contribution =    -437.83007873 Ry
     hartree contribution      =     242.72102221 Ry
     xc contribution           =    -106.44240912 Ry
     ewald contribution        =    -310.92155921 Ry
     one-center paw contrib.   =    -152.14174140 Ry
      -> PAW hartree energy AE =       0.00000000 Ry
      -> PAW hartree energy PS =       0.00000000 Ry
      -> PAW xc energy AE      =       0.00000000 Ry
      -> PAW xc energy PS      =       0.00000000 Ry
      -> total E_H with PAW    =     242.72102221 Ry
      -> total E_XC with PAW   =    -106.44240912 Ry

     convergence has been achieved in  10 iterations

     Writing all to output data dir calculations_bands_val/myprefix.save/

     General routines

     Parallel routines

     PAW routines

   This run was terminated on:  12:42:16   4Jun2023

   JOB DONE.