     Program PWSCF v.7.0 starts on  4Jun2023 at 14:16: 4

     K-points division:     npool     =       2
     R & G space division:  proc/nbgrp/npool/nimage =       4

     Reading input from espresso_721.pwi
Warning: card &CELL ignored
Warning: card / ignored

     Current dimensions of program PWSCF are:
     Max number of different atomic species (ntypx) = 10
     Max number of k-points (npk) =  40000
     Max angular momentum in pseudopotentials (lmaxx) =  4
     Message from routine setup:
     using ibrav=0 with symmetry is DISCOURAGED, use correct ibrav instead

     Using Slab Decomposition

     bravais-lattice index     =            0
     lattice parameter (alat)  =      15.8484  a.u.
     unit-cell volume          =     912.1886 (a.u.)^3
     number of atoms/cell      =            8
     number of atomic types    =            3
     number of electrons       =        82.00
     number of Kohn-Sham states=           64
     kinetic-energy cutoff     =      30.0000  Ry
     charge density cutoff     =     240.0000  Ry
     scf convergence threshold =      1.0E-06
     mixing beta               =       0.7000
     number of iterations used =            8  plain     mixing
     Exchange-correlation= PBE
                           (   1   4   3   4   0   0   0)

     celldm(1)=  15.848368  celldm(2)=   0.000000  celldm(3)=   0.000000
     celldm(4)=   0.000000  celldm(5)=   0.000000  celldm(6)=   0.000000

     crystal axes: (cart. coord. in units of alat)
               a(1) = (   1.000000   0.000000   0.000000 )
               a(2) = (  -0.879881   0.475194   0.000000 )
               a(3) = (   0.000000   0.000000   0.482236 )

     reciprocal axes: (cart. coord. in units 2 pi/alat)
               b(1) = (  1.000000  1.851623  0.000000 )
               b(2) = (  0.000000  2.104402  0.000000 )
               b(3) = (  0.000000  0.000000  2.073674 )

     PseudoPot. # 1 for Sm read from file:
     /home/pragov/projects/rrg-bengioy-ad/pragov/crystal_structure_design/SSSP/Sm.GGA-PBE-paw-v1.0.UPF
     MD5 check sum: 886f70968969f895acf876f5617e0641
     Pseudo is Projector augmented-wave + core cor, Zval = 16.0
     Generated using ATOMPAW code
     Shape of augmentation charge: BESSEL
     Using radial grid of 1107 points,  8 beta functions with:
                l(1) =   0
                l(2) =   0
                l(3) =   1
                l(4) =   1
                l(5) =   2
                l(6) =   2
                l(7) =   3
                l(8) =   3
     Q(r) pseudized with 0 coefficients

     PseudoPot. # 2 for Co read from file:
     /home/pragov/projects/rrg-bengioy-ad/pragov/crystal_structure_design/SSSP/Co_pbe_v1.2.uspp.F.UPF
     MD5 check sum: 5f91765df6ddd3222702df6e7b74a16d
     Pseudo is Ultrasoft + core correction, Zval = 17.0
     Generated by new atomic code, or converted to UPF format
     Using radial grid of  863 points,  6 beta functions with:
                l(1) =   0
                l(2) =   0
                l(3) =   1
                l(4) =   1
                l(5) =   2
                l(6) =   2
     Q(r) pseudized with  8 coefficients,  rinner =    1.200   1.200   1.200
                                                       1.200   1.200

     PseudoPot. # 3 for Si read from file:
     /home/pragov/projects/rrg-bengioy-ad/pragov/crystal_structure_design/SSSP/Si.pbe-n-rrkjus_psl.1.0.0.UPF
     MD5 check sum: 0b0bb1205258b0d07b9f9672cf965d36
     Pseudo is Ultrasoft + core correction, Zval =  4.0
     Generated using "atomic" code by A. Dal Corso  v.5.1
     Using radial grid of 1141 points,  6 beta functions with:
                l(1) =   0
                l(2) =   0
                l(3) =   1
                l(4) =   1
                l(5) =   2
                l(6) =   2
     Q(r) pseudized with 0 coefficients

     atomic species   valence    mass     pseudopotential
        Sm            16.00   150.36000     Sm( 1.00)
        Co            17.00    58.93319     Co( 1.00)
        Si             4.00    28.08500     Si( 1.00)

      4 Sym. Ops., with inversion, found ( 2 have fractional translation)

                                    s                        frac. trans.

      isym =  1     identity

 cryst.   s( 1) = (     1          0          0      )
                  (     0          1          0      )
                  (     0          0          1      )

 cart.    s( 1) = (  1.0000000  0.0000000  0.0000000 )
                  (  0.0000000  1.0000000  0.0000000 )
                  (  0.0000000  0.0000000  1.0000000 )

      isym =  2     180 deg rotation - cart. axis [0,0,1]

 cryst.   s( 2) = (    -1          0          0      )    f =( -0.0000000 )
                  (     0         -1          0      )       (  0.0000000 )
                  (     0          0          1      )       ( -0.5000000 )

 cart.    s( 2) = ( -1.0000000 -0.0000000  0.0000000 )    f =( -0.0000000 )
                  (  0.0000000 -1.0000000  0.0000000 )       (  0.0000000 )
                  (  0.0000000  0.0000000  1.0000000 )       ( -0.2411180 )

      isym =  3     inversion

 cryst.   s( 3) = (    -1          0          0      )
                  (     0         -1          0      )
                  (     0          0         -1      )

 cart.    s( 3) = ( -1.0000000 -0.0000000  0.0000000 )
                  (  0.0000000 -1.0000000  0.0000000 )
                  (  0.0000000  0.0000000 -1.0000000 )

      isym =  4     inv. 180 deg rotation - cart. axis [0,0,1]

 cryst.   s( 4) = (     1          0          0      )    f =(  0.0000000 )
                  (     0          1          0      )       (  0.0000000 )
                  (     0          0         -1      )       (  0.5000000 )

 cart.    s( 4) = (  1.0000000  0.0000000  0.0000000 )    f =(  0.0000000 )
                  (  0.0000000  1.0000000  0.0000000 )       (  0.0000000 )
                  (  0.0000000  0.0000000 -1.0000000 )       (  0.2411180 )

   Cartesian axes

     site n.     atom                  positions (alat units)
         1           Sm  tau(   1) = (  -0.6792129   0.4244698   0.1205590  )
         2           Sm  tau(   2) = (   0.7993321   0.0507246   0.3616770  )
         3           Co  tau(   3) = (   0.4006752   0.1514968   0.3616770  )
         4           Co  tau(   4) = (  -0.2805560   0.3236977   0.1205590  )
         5           Si  tau(   5) = (   0.5304359   0.1186960   0.1205590  )
         6           Si  tau(   6) = (  -0.4103167   0.3564985   0.3616770  )
         7           Si  tau(   7) = (   0.1411445   0.2171007   0.3616770  )
         8           Si  tau(   8) = (  -0.0210253   0.2580938   0.1205590  )

   Crystallographic axes

     site n.     atom                  positions (cryst. coord.)
         1           Sm  tau(   1) = (  0.1067450  0.8932550  0.2500000  )
         2           Sm  tau(   2) = (  0.8932550  0.1067450  0.7500000  )
         3           Co  tau(   3) = (  0.6811900  0.3188100  0.7500000  )
         4           Co  tau(   4) = (  0.3188100  0.6811900  0.2500000  )
         5           Si  tau(   5) = (  0.7502160  0.2497840  0.2500000  )
         6           Si  tau(   6) = (  0.2497840  0.7502160  0.7500000  )
         7           Si  tau(   7) = (  0.5431330  0.4568670  0.7500000  )
         8           Si  tau(   8) = (  0.4568670  0.5431330  0.2500000  )

     number of k points=    10
                       cart. coord. in units 2pi/alat
        k(    1) = (   0.0000000   0.0000000   0.0000000), wk =   0.0740741
        k(    2) = (   0.0000000   0.0000000   0.6912245), wk =   0.1481481
        k(    3) = (   0.0000000   0.7014672   0.0000000), wk =   0.1481481
        k(    4) = (   0.0000000   0.7014672   0.6912245), wk =   0.2962963
        k(    5) = (   0.3333333   0.6172075   0.0000000), wk =   0.1481481
        k(    6) = (   0.3333333   0.6172075   0.6912245), wk =   0.2962963
        k(    7) = (   0.3333333   1.3186747   0.0000000), wk =   0.1481481
        k(    8) = (   0.3333333   1.3186747   0.6912245), wk =   0.2962963
        k(    9) = (   0.3333333  -0.0842597   0.0000000), wk =   0.1481481
        k(   10) = (   0.3333333  -0.0842597   0.6912245), wk =   0.2962963

                       cryst. coord.
        k(    1) = (   0.0000000   0.0000000   0.0000000), wk =   0.0740741
        k(    2) = (   0.0000000   0.0000000   0.3333333), wk =   0.1481481
        k(    3) = (   0.0000000   0.3333333   0.0000000), wk =   0.1481481
        k(    4) = (   0.0000000   0.3333333   0.3333333), wk =   0.2962963
        k(    5) = (   0.3333333  -0.0000000   0.0000000), wk =   0.1481481
        k(    6) = (   0.3333333  -0.0000000   0.3333333), wk =   0.2962963
        k(    7) = (   0.3333333   0.3333333   0.0000000), wk =   0.1481481
        k(    8) = (   0.3333333   0.3333333   0.3333333), wk =   0.2962963
        k(    9) = (   0.3333333  -0.3333333   0.0000000), wk =   0.1481481
        k(   10) = (   0.3333333  -0.3333333   0.3333333), wk =   0.2962963

     Check: negative core charge=   -0.000007

     Initial potential from superposition of free atoms

     starting charge      79.9866, renormalised to      82.0000
     Starting wfcs are  106 randomized atomic wfcs
     Checking if some PAW data can be deallocated...

     Self-consistent Calculation

     iteration #  1     ecut=    30.00 Ry     beta= 0.70
     Davidson diagonalization with overlap

     ethr =  1.00E-02,  avg # of iterations =  3.0

     total energy              =   -1830.80446618 Ry
     estimated scf accuracy    <      21.95477612 Ry

[...]

     total energy              =   -1850.91918909 Ry
     estimated scf accuracy    <       0.00000136 Ry

     iteration # 46     ecut=    30.00 Ry     beta= 0.70
     Davidson diagonalization with overlap

     ethr =  1.66E-09,  avg # of iterations =  1.0

     End of self-consistent calculation

          k = 0.0000 0.0000 0.0000 (  2529 PWs)   bands (ev):

   -81.8134 -81.8128 -45.1016 -45.0947 -45.0756 -45.0717 -45.0700 -45.0664
   -26.4405 -26.4301  -6.3069  -6.0719  -6.0451  -6.0164  -6.0009  -5.9554
     2.0153   3.5246   6.2403   7.5428   8.8809   8.9366   9.0921   9.8892
    10.4483  10.6059  11.0099  11.0575  11.2731  11.4817  11.5918  11.7333
    12.1080  12.1906  12.3849  12.5736  12.6665  12.6686  12.7785  12.7898
    12.8010  12.8423  12.8475  12.9167  12.9878  13.0287  13.1386  13.1808
    13.2130  13.6004  13.6485  14.3091  15.0167  15.7710  15.8382  16.0948
    16.3254  16.4170  16.6204  16.9755  17.1842  18.0775  18.2986  18.4764

     occupation numbers
     1.0000   1.0000   1.0000   1.0000   1.0000   1.0000   1.0000   1.0000
     1.0000   1.0000   1.0000   1.0000   1.0000   1.0000   1.0000   1.0000
     1.0000   1.0000   1.0000   1.0000   1.0000   1.0000   1.0000   1.0000
     1.0000   1.0000   1.0000   1.0000   1.0000   1.0000   1.0000   1.0000
     1.0000   1.0000   1.0000   1.0000   1.0000   1.0000   1.0000   1.0000
     1.0000   0.0000   0.0000   0.0000   0.0000   0.0000   0.0000   0.0000
     0.0000   0.0000   0.0000   0.0000   0.0000   0.0000   0.0000   0.0000
     0.0000   0.0000   0.0000   0.0000   0.0000   0.0000   0.0000   0.0000

[...]

          k = 0.3333-0.0843 0.6912 (  2530 PWs)   bands (ev):

   -81.8133 -81.8129 -45.1010 -45.0976 -45.0744 -45.0726 -45.0692 -45.0665
   -26.4307 -26.4258  -6.2453  -6.2205  -6.1198  -6.0742  -6.0203  -6.0037
     3.1697   4.0464   5.5305   6.3139   8.5149   9.3102   9.5292   9.8604
    10.0688  10.2583  10.3834  11.0786  11.2288  11.4224  11.5102  11.7619
    11.9258  12.1269  12.4074  12.5478  12.6099  12.6446  12.7058  12.7304
    12.7554  12.7696  12.8728  12.8942  12.9141  12.9303  13.0116  13.0277
    13.1879  13.2898  13.7632  14.6677  14.7973  15.4549  15.9383  16.0097
    16.3351  16.5011  17.1406  17.7510  18.0261  18.3192  18.4607  18.7069

     occupation numbers
     1.0000   1.0000   1.0000   1.0000   1.0000   1.0000   1.0000   1.0000
     1.0000   1.0000   1.0000   1.0000   1.0000   1.0000   1.0000   1.0000
     1.0000   1.0000   1.0000   1.0000   1.0000   1.0000   1.0000   1.0000
     1.0000   1.0000   1.0000   1.0000   1.0000   1.0000   1.0000   1.0000
     1.0000   1.0000   1.0000   1.0000   1.0000   1.0000   1.0000   1.0000
     1.0000   0.0000   0.0000   0.0000   0.0000   0.0000   0.0000   0.0000
     0.0000   0.0000   0.0000   0.0000   0.0000   0.0000   0.0000   0.0000
     0.0000   0.0000   0.0000   0.0000   0.0000   0.0000   0.0000   0.0000

     highest occupied, lowest unoccupied level (ev):    12.8228   12.7562

!    total energy              =   -1850.91918990 Ry
     estimated scf accuracy    <       0.00000065 Ry

     The total energy is the sum of the following terms:
     one-electron contribution =    -618.16065512 Ry
     hartree contribution      =     364.66351141 Ry
     xc contribution           =    -126.30238098 Ry
     ewald contribution        =    -571.62024284 Ry
     one-center paw contrib.   =    -899.49942236 Ry
      -> PAW hartree energy AE =     128.27314249 Ry
      -> PAW hartree energy PS =    -125.49523894 Ry
      -> PAW xc energy AE      =    -469.42631614 Ry
      -> PAW xc energy PS      =      16.89870121 Ry
      -> total E_H with PAW    =     367.44141495 Ry
      -> total E_XC with PAW   =    -578.82999591 Ry

     convergence has been achieved in  46 iterations

     Writing all to output data dir calculations_bands_val/myprefix.save/

     General routines

     Parallel routines

     PAW routines

   This run was terminated on:  14:16:58   4Jun2023

   JOB DONE.