     Program PWSCF v.7.0 starts on  4Jun2023 at 13:31:21

     K-points division:     npool     =       2
     R & G space division:  proc/nbgrp/npool/nimage =       4

     Reading input from espresso_606.pwi
Warning: card &CELL ignored
Warning: card / ignored

     Current dimensions of program PWSCF are:
     Max number of different atomic species (ntypx) = 10
     Max number of k-points (npk) =  40000
     Max angular momentum in pseudopotentials (lmaxx) =  4
     Message from routine setup:
     using ibrav=0 with symmetry is DISCOURAGED, use correct ibrav instead

     Using Slab Decomposition

     bravais-lattice index     =            0
     lattice parameter (alat)  =      10.9012  a.u.
     unit-cell volume          =    1269.2115 (a.u.)^3
     number of atoms/cell      =           15
     number of atomic types    =            4
     number of electrons       =        80.00
     number of Kohn-Sham states=           64
     kinetic-energy cutoff     =      30.0000  Ry
     charge density cutoff     =     240.0000  Ry
     scf convergence threshold =      1.0E-06
     mixing beta               =       0.7000
     number of iterations used =            8  plain     mixing
     Exchange-correlation= PBE
                           (   1   4   3   4   0   0   0)

     celldm(1)=  10.901155  celldm(2)=   0.000000  celldm(3)=   0.000000
     celldm(4)=   0.000000  celldm(5)=   0.000000  celldm(6)=   0.000000

     crystal axes: (cart. coord. in units of alat)
               a(1) = (   1.000000   0.000000   0.000000 )
               a(2) = (  -0.428498   0.903543   0.000000 )
               a(3) = (   0.000256   0.000405   1.084346 )

     reciprocal axes: (cart. coord. in units 2 pi/alat)
               b(1) = (  1.000000  0.474243 -0.000413 )
               b(2) = (  0.000000  1.106755 -0.000413 )
               b(3) = (  0.000000  0.000000  0.922215 )

     PseudoPot. # 1 for Sr read from file:
     /home/pragov/projects/rrg-bengioy-ad/pragov/crystal_structure_design/SSSP/Sr_pbe_v1.uspp.F.UPF
     MD5 check sum: 6b418c05fbe9db5448babca5e47b7a5b
     Pseudo is Ultrasoft + core correction, Zval = 10.0
     Generated by new atomic code, or converted to UPF format
     Using radial grid of  883 points,  6 beta functions with:
                l(1) =   0
                l(2) =   0
                l(3) =   1
                l(4) =   1
                l(5) =   2
                l(6) =   2
     Q(r) pseudized with  6 coefficients,  rinner =    1.400   1.400   1.400
                                                       1.400   1.400

     PseudoPot. # 2 for Li read from file:
     /home/pragov/projects/rrg-bengioy-ad/pragov/crystal_structure_design/SSSP/li_pbe_v1.4.uspp.F.UPF
     MD5 check sum: e912e257baa3777c20ea3d68f190483c
     Pseudo is Ultrasoft, Zval =  3.0
     Generated by new atomic code, or converted to UPF format
     Using radial grid of  751 points,  5 beta functions with:
                l(1) =   0
                l(2) =   0
                l(3) =   0
                l(4) =   1
                l(5) =   1
     Q(r) pseudized with 10 coefficients,  rinner =    1.150   1.150   1.150

     PseudoPot. # 3 for Si read from file:
     /home/pragov/projects/rrg-bengioy-ad/pragov/crystal_structure_design/SSSP/Si.pbe-n-rrkjus_psl.1.0.0.UPF
     MD5 check sum: 0b0bb1205258b0d07b9f9672cf965d36
     Pseudo is Ultrasoft + core correction, Zval =  4.0
     Generated using "atomic" code by A. Dal Corso  v.5.1
     Using radial grid of 1141 points,  6 beta functions with:
                l(1) =   0
                l(2) =   0
                l(3) =   1
                l(4) =   1
                l(5) =   2
                l(6) =   2
     Q(r) pseudized with 0 coefficients

     PseudoPot. # 4 for N  read from file:
     /home/pragov/projects/rrg-bengioy-ad/pragov/crystal_structure_design/SSSP/N.pbe-n-radius_5.UPF
     MD5 check sum: 16739722b17309cd8fe442a2ace49922
     Pseudo is Ultrasoft + core correction, Zval =  5.0
     Generated using "atomic" code by A. Dal Corso  v.5.1
     Using radial grid of 1085 points,  4 beta functions with:
                l(1) =   0
                l(2) =   0
                l(3) =   1
                l(4) =   1
     Q(r) pseudized with 0 coefficients

     atomic species   valence    mass     pseudopotential
        Sr            10.00    87.62000     Sr( 1.00)
        Li             3.00     6.94000     Li( 1.00)
        Si             4.00    28.08500     Si( 1.00)
        N              5.00    14.00700     N ( 1.00)

      2 Sym. Ops., with inversion, found

                                    s                        frac. trans.

      isym =  1     identity

 cryst.   s( 1) = (     1          0          0      )
                  (     0          1          0      )
                  (     0          0          1      )

 cart.    s( 1) = (  1.0000000 -0.0000000 -0.0000000 )
                  (  0.0000000  1.0000000  0.0000000 )
                  (  0.0000000  0.0000000  1.0000000 )

      isym =  2     inversion

 cryst.   s( 2) = (    -1          0          0      )
                  (     0         -1          0      )
                  (     0          0         -1      )

 cart.    s( 2) = ( -1.0000000  0.0000000  0.0000000 )
                  (  0.0000000 -1.0000000 -0.0000000 )
                  (  0.0000000  0.0000000 -1.0000000 )

   Cartesian axes

     site n.     atom                  positions (alat units)
         1           Sr  tau(   1) = (   0.5592877   0.2790392   0.5421730  )
         2           Sr  tau(   2) = (   0.0124700   0.6249081   0.5421730  )
         3           Sr  tau(   3) = (   0.2857509   0.4517713   0.0000000  )
         4           Li  tau(   4) = (  -0.2559096   0.6199491   0.1321829  )
         5           Li  tau(   5) = (   0.6698073   0.0344219   0.1321829  )
         6           Li  tau(   6) = (   0.8276673   0.2839982   0.9521631  )
         7           Li  tau(   7) = (  -0.0980496   0.8695254   0.9521631  )
         8           Si  tau(   8) = (   0.0636978   0.1007061   0.3557435  )
         9           Si  tau(   9) = (   0.5080599   0.8032412   0.7286024  )
        10           N   tau(  10) = (  -0.0988927   0.3171216   0.2223777  )
        11           N   tau(  11) = (   0.3289083   0.0465323   0.2223777  )
        12           N   tau(  12) = (   0.6706504   0.5868257   0.8619683  )
        13           N   tau(  13) = (   0.2428495   0.8574150   0.8619683  )
        14           N   tau(  14) = (   0.4681923   0.7402107   0.4107990  )
        15           N   tau(  15) = (   0.1035654   0.1637366   0.6735469  )

   Crystallographic axes

     site n.     atom                  positions (cryst. coord.)
         1           Sr  tau(   1) = (  0.6913960  0.3086040  0.5000000  )
         2           Sr  tau(   2) = (  0.3086040  0.6913960  0.5000000  )
         3           Sr  tau(   3) = (  0.5000000  0.5000000  0.0000000  )
         4           Li  tau(   4) = (  0.0380420  0.6860770  0.1219010  )
         5           Li  tau(   5) = (  0.6860770  0.0380420  0.1219010  )
         6           Li  tau(   6) = (  0.9619580  0.3139230  0.8780990  )
         7           Li  tau(   7) = (  0.3139230  0.9619580  0.8780990  )
         8           Si  tau(   8) = (  0.1113100  0.1113100  0.3280720  )
         9           Si  tau(   9) = (  0.8886900  0.8886900  0.6719280  )
        10           N   tau(  10) = (  0.0514080  0.3508840  0.2050800  )
        11           N   tau(  11) = (  0.3508840  0.0514080  0.2050800  )
        12           N   tau(  12) = (  0.9485920  0.6491160  0.7949200  )
        13           N   tau(  13) = (  0.6491160  0.9485920  0.7949200  )
        14           N   tau(  14) = (  0.8190620  0.8190620  0.3788450  )
        15           N   tau(  15) = (  0.1809380  0.1809380  0.6211550  )

     number of k points=    14
                       cart. coord. in units 2pi/alat
        k(    1) = (   0.0000000   0.0000000   0.0000000), wk =   0.0740741
        k(    2) = (   0.0000000   0.0000000   0.3074050), wk =   0.1481481
        k(    3) = (   0.0000000   0.3689182  -0.0001377), wk =   0.1481481
        k(    4) = (   0.0000000   0.3689182   0.3072673), wk =   0.1481481
        k(    5) = (   0.0000000   0.3689182  -0.3075427), wk =   0.1481481
        k(    6) = (   0.3333333   0.1580808  -0.0001377), wk =   0.1481481
        k(    7) = (   0.3333333   0.1580808   0.3072673), wk =   0.1481481
        k(    8) = (   0.3333333   0.1580808  -0.3075427), wk =   0.1481481
        k(    9) = (   0.3333333   0.5269991  -0.0002754), wk =   0.1481481
        k(   10) = (   0.3333333   0.5269991   0.3071295), wk =   0.1481481
        k(   11) = (   0.3333333   0.5269991  -0.3076804), wk =   0.1481481
        k(   12) = (   0.3333333  -0.2108374  -0.0000000), wk =   0.1481481
        k(   13) = (   0.3333333  -0.2108374   0.3074050), wk =   0.1481481
        k(   14) = (   0.3333333  -0.2108374  -0.3074050), wk =   0.1481481

                       cryst. coord.
        k(    1) = (   0.0000000   0.0000000   0.0000000), wk =   0.0740741
        k(    2) = (   0.0000000   0.0000000   0.3333333), wk =   0.1481481
        k(    3) = (   0.0000000   0.3333333   0.0000000), wk =   0.1481481
        k(    4) = (   0.0000000   0.3333333   0.3333333), wk =   0.1481481
        k(    5) = (   0.0000000   0.3333333  -0.3333333), wk =   0.1481481
        k(    6) = (   0.3333333   0.0000000   0.0000000), wk =   0.1481481
        k(    7) = (   0.3333333   0.0000000   0.3333333), wk =   0.1481481
        k(    8) = (   0.3333333   0.0000000  -0.3333333), wk =   0.1481481
        k(    9) = (   0.3333333   0.3333333   0.0000000), wk =   0.1481481
        k(   10) = (   0.3333333   0.3333333   0.3333333), wk =   0.1481481
        k(   11) = (   0.3333333   0.3333333  -0.3333333), wk =   0.1481481
        k(   12) = (   0.3333333  -0.3333333  -0.0000000), wk =   0.1481481
        k(   13) = (   0.3333333  -0.3333333   0.3333333), wk =   0.1481481
        k(   14) = (   0.3333333  -0.3333333  -0.3333333), wk =   0.1481481

     Check: negative core charge=   -0.000004

     Initial potential from superposition of free atoms

     starting charge      78.0949, renormalised to      80.0000

     negative rho (up, down):  1.924E-01 0.000E+00
     Starting wfcs are   91 randomized atomic wfcs

     Self-consistent Calculation

     iteration #  1     ecut=    30.00 Ry     beta= 0.70
     Davidson diagonalization with overlap

     ethr =  1.00E-02,  avg # of iterations =  2.7

     negative rho (up, down):  1.894E-01 0.000E+00

     total energy              =    -411.29711201 Ry
     estimated scf accuracy    <       4.01533487 Ry

[...]

     total energy              =    -413.22018094 Ry
     estimated scf accuracy    <       0.00000823 Ry

     iteration #  9     ecut=    30.00 Ry     beta= 0.70
     Davidson diagonalization with overlap

     ethr =  1.03E-08,  avg # of iterations =  2.0

     negative rho (up, down):  1.982E-01 0.000E+00

     End of self-consistent calculation

          k = 0.0000 0.0000 0.0000 (  3515 PWs)   bands (ev):

   -36.3013 -36.2712 -36.2385 -36.2186 -26.1806 -25.8347 -25.7023  -8.7005
    -8.5288  -8.4082  -8.3954  -8.1478  -7.9652  -7.8932  -7.8010  -7.5470
    -7.3631  -4.9086  -4.8149  -4.8030  -4.2346  -4.2039   2.4483   2.7098
     3.4094   4.0999   4.2982   5.1875   5.4732   6.0369   6.1007   6.1767
     6.2918   6.9843   7.0602   7.1883   7.2888   7.4338   7.5616   7.8729
    10.5458  11.5276  12.6143  12.6972  13.0739  13.3296  13.4286  13.6926
    13.8180  13.8299  14.1803  14.4891  14.6568  14.8069  15.1069  15.2936
    16.0346  16.0600  16.2208  16.8746  16.8986  16.9523  17.4687  17.6444

     occupation numbers
     1.0000   1.0000   1.0000   1.0000   1.0000   1.0000   1.0000   1.0000
     1.0000   1.0000   1.0000   1.0000   1.0000   1.0000   1.0000   1.0000
     1.0000   1.0000   1.0000   1.0000   1.0000   1.0000   1.0000   1.0000
     1.0000   1.0000   1.0000   1.0000   1.0000   1.0000   1.0000   1.0000
     1.0000   1.0000   1.0000   1.0000   1.0000   1.0000   1.0000   1.0000
     0.0000   0.0000   0.0000   0.0000   0.0000   0.0000   0.0000   0.0000
     0.0000   0.0000   0.0000   0.0000   0.0000   0.0000   0.0000   0.0000
     0.0000   0.0000   0.0000   0.0000   0.0000   0.0000   0.0000   0.0000

[...]

          k = 0.3333-0.2108-0.3074 (  3507 PWs)   bands (ev):

   -36.2998 -36.2723 -36.2400 -36.2173 -26.1789 -25.8255 -25.7133  -8.7579
    -8.6508  -8.5011  -8.3896  -8.2237  -8.0118  -7.9665  -7.7853  -7.4756
    -6.7628  -5.2792  -4.8173  -4.5563  -4.3962  -4.0457   2.3267   3.0764
     3.6581   4.1520   4.3105   5.2668   5.2985   5.8365   6.0336   6.2294
     6.3707   6.5250   6.7368   7.0118   7.1510   7.4963   7.6618   7.8299
    10.9873  11.3796  11.7353  11.9629  12.6503  12.9377  13.4155  13.6171
    13.9816  14.1818  14.4289  14.7333  14.7868  14.9522  15.4269  15.7042
    15.9340  16.0062  16.5274  16.8247  17.0759  17.1842  17.5268  17.7178

     occupation numbers
     1.0000   1.0000   1.0000   1.0000   1.0000   1.0000   1.0000   1.0000
     1.0000   1.0000   1.0000   1.0000   1.0000   1.0000   1.0000   1.0000
     1.0000   1.0000   1.0000   1.0000   1.0000   1.0000   1.0000   1.0000
     1.0000   1.0000   1.0000   1.0000   1.0000   1.0000   1.0000   1.0000
     1.0000   1.0000   1.0000   1.0000   1.0000   1.0000   1.0000   1.0000
     0.0000   0.0000   0.0000   0.0000   0.0000   0.0000   0.0000   0.0000
     0.0000   0.0000   0.0000   0.0000   0.0000   0.0000   0.0000   0.0000
     0.0000   0.0000   0.0000   0.0000   0.0000   0.0000   0.0000   0.0000

     highest occupied, lowest unoccupied level (ev):     8.2164   10.5117

!    total energy              =    -413.22018246 Ry
     estimated scf accuracy    <       0.00000083 Ry

     The total energy is the sum of the following terms:
     one-electron contribution =     -62.49090453 Ry
     hartree contribution      =      66.04359246 Ry
     xc contribution           =    -114.59676080 Ry
     ewald contribution        =    -302.17610959 Ry

     convergence has been achieved in   9 iterations

     Writing all to output data dir calculations_bands_val/myprefix.save/

     General routines

     Parallel routines

   This run was terminated on:  13:31:34   4Jun2023

   JOB DONE.