     Program PWSCF v.7.0 starts on  4Jun2023 at 14:43:49

     K-points division:     npool     =       2
     R & G space division:  proc/nbgrp/npool/nimage =       4

     Reading input from espresso_786.pwi
Warning: card &CELL ignored
Warning: card / ignored

     Current dimensions of program PWSCF are:
     Max number of different atomic species (ntypx) = 10
     Max number of k-points (npk) =  40000
     Max angular momentum in pseudopotentials (lmaxx) =  4
     file O.pbe-n-kjpaw_psl.0.1.UPF: wavefunction(s)  2P renormalized
     Message from routine setup:
     using ibrav=0 with symmetry is DISCOURAGED, use correct ibrav instead

     Using Slab Decomposition

     bravais-lattice index     =            0
     lattice parameter (alat)  =      11.4820  a.u.
     unit-cell volume          =    1152.8439 (a.u.)^3
     number of atoms/cell      =           12
     number of atomic types    =            3
     number of electrons       =       110.00
     number of Kohn-Sham states=           64
     kinetic-energy cutoff     =      30.0000  Ry
     charge density cutoff     =     240.0000  Ry
     scf convergence threshold =      1.0E-06
     mixing beta               =       0.7000
     number of iterations used =            8  plain     mixing
     Exchange-correlation= SLA  PW   PBX  PBC
                           (   1   4   3   4   0   0   0)

     celldm(1)=  11.482009  celldm(2)=   0.000000  celldm(3)=   0.000000
     celldm(4)=   0.000000  celldm(5)=   0.000000  celldm(6)=   0.000000

     crystal axes: (cart. coord. in units of alat)
               a(1) = (   1.000000   0.000000   0.000000 )
               a(2) = (  -0.442573   0.896733   0.000000 )
               a(3) = (  -0.278714  -0.448366   0.849286 )

     reciprocal axes: (cart. coord. in units 2 pi/alat)
               b(1) = (  1.000000  0.493539  0.588730 )
               b(2) = (  0.000000  1.115160  0.588730 )
               b(3) = (  0.000000  0.000000  1.177460 )

     PseudoPot. # 1 for Gd read from file:
     /home/pragov/projects/rrg-bengioy-ad/pragov/crystal_structure_design/SSSP/Gd.GGA-PBE-paw-v1.0.UPF
     MD5 check sum: 3e8e0d208da550914ae52eaf991d13de
     Pseudo is Projector augmented-wave + core cor, Zval = 18.0
     Generated using ATOMPAW code
     Shape of augmentation charge: BESSEL
     Using radial grid of 1110 points,  8 beta functions with:
                l(1) =   0
                l(2) =   0
                l(3) =   1
                l(4) =   1
                l(5) =   2
                l(6) =   2
                l(7) =   3
                l(8) =   3
     Q(r) pseudized with 0 coefficients

     PseudoPot. # 2 for V  read from file:
     /home/pragov/projects/rrg-bengioy-ad/pragov/crystal_structure_design/SSSP/v_pbe_v1.4.uspp.F.UPF
     MD5 check sum: 22b79981416ebb76fdaf5b1b8640f6fb
     Pseudo is Ultrasoft + core correction, Zval = 13.0
     Generated by new atomic code, or converted to UPF format
     Using radial grid of  853 points,  6 beta functions with:
                l(1) =   0
                l(2) =   0
                l(3) =   1
                l(4) =   1
                l(5) =   2
                l(6) =   2
     Q(r) pseudized with  8 coefficients,  rinner =    1.100   1.100   1.100
                                                       1.100   1.100

     PseudoPot. # 3 for O  read from file:
     /home/pragov/projects/rrg-bengioy-ad/pragov/crystal_structure_design/SSSP/O.pbe-n-kjpaw_psl.0.1.UPF
     MD5 check sum: 0234752ac141de4415c5fc33072bef88
     Pseudo is Projector augmented-wave + core cor, Zval =  6.0
     Generated using "atomic" code by A. Dal Corso  v.5.0.99 svn rev. 10869
     Shape of augmentation charge: BESSEL
     Using radial grid of 1095 points,  4 beta functions with:
                l(1) =   0
                l(2) =   0
                l(3) =   1
                l(4) =   1
     Q(r) pseudized with 0 coefficients

     atomic species   valence    mass     pseudopotential
        Gd            18.00   157.25000     Gd( 1.00)
        V             13.00    50.94150     V ( 1.00)
        O              6.00    15.99900     O ( 1.00)

      4 Sym. Ops., with inversion, found ( 2 have fractional translation)

                                    s                        frac. trans.

      isym =  1     identity

 cryst.   s( 1) = (     1          0          0      )
                  (     0          1          0      )
                  (     0          0          1      )

 cart.    s( 1) = (  1.0000000 -0.0000000 -0.0000000 )
                  (  0.0000000  1.0000000 -0.0000000 )
                  (  0.0000000  0.0000000  1.0000000 )

      isym =  2     180 deg rotation - cart. axis [0,0,1]

 cryst.   s( 2) = (    -1          0          0      )
                  (     0         -1          0      )
                  (     1          1          1      )

 cart.    s( 2) = ( -1.0000000  0.0000000  0.0000000 )
                  (  0.0000000 -1.0000000  0.0000000 )
                  (  0.0000000  0.0000000  1.0000000 )

      isym =  3     inversion

 cryst.   s( 3) = (    -1          0          0      )    f =( -0.2500000 )
                  (     0         -1          0      )       (  0.2500000 )
                  (     0          0         -1      )       ( -0.5000000 )

 cart.    s( 3) = ( -1.0000000  0.0000000  0.0000000 )    f =( -0.2212864 )
                  (  0.0000000 -1.0000000  0.0000000 )       (  0.4483663 )
                  (  0.0000000  0.0000000 -1.0000000 )       ( -0.4246429 )

      isym =  4     inv. 180 deg rotation - cart. axis [0,0,1]

 cryst.   s( 4) = (     1          0          0      )    f =( -0.2500000 )
                  (     0          1          0      )       (  0.2500000 )
                  (    -1         -1         -1      )       ( -0.5000000 )

 cart.    s( 4) = (  1.0000000 -0.0000000 -0.0000000 )    f =( -0.2212864 )
                  (  0.0000000  1.0000000 -0.0000000 )       (  0.4483663 )
                  (  0.0000000  0.0000000 -1.0000000 )       ( -0.4246429 )

   Cartesian axes

     site n.     atom                  positions (alat units)
         1           Gd  tau(   1) = (  -0.2212864   0.4483663   0.4246429  )
         2           Gd  tau(   2) = (   0.0000000   0.0000000   0.0000000  )
         3           V   tau(   3) = (   0.2787136   0.4483663   0.0000000  )
         4           V   tau(   4) = (   0.5000000   0.0000000   0.4246429  )
         5           O   tau(   5) = (   0.0496458   0.3747091   0.1556580  )
         6           O   tau(   6) = (   0.0353284  -0.2380112   0.6936279  )
         7           O   tau(   7) = (  -0.0353274   0.2380112   0.6936279  )
         8           O   tau(   8) = (   0.4646716   0.2380112   0.5803009  )
         9           O   tau(   9) = (   0.7290678   0.0736572   0.2689850  )
        10           O   tau(  10) = (   0.5077813   0.5220234   0.1556580  )
        11           O   tau(  11) = (   0.2709322  -0.0736572   0.2689850  )
        12           O   tau(  12) = (   0.5353274  -0.2380112   0.5803009  )

   Crystallographic axes

     site n.     atom                  positions (cryst. coord.)
         1           Gd  tau(   1) = (  0.2500000  0.7500000  0.5000000  )
         2           Gd  tau(   2) = (  0.0000000  0.0000000  0.0000000  )
         3           V   tau(   3) = (  0.5000000  0.5000000  0.0000000  )
         4           V   tau(   4) = (  0.7500000  0.2500000  0.5000000  )
         5           O   tau(   5) = (  0.3262200  0.5095010  0.1832810  )
         6           O   tau(   6) = (  0.3262200  0.1429390  0.8167190  )
         7           O   tau(   7) = (  0.4905000  0.6737800  0.8167190  )
         8           O   tau(   8) = (  0.9237800  0.6070610  0.6832810  )
         9           O   tau(   9) = (  0.9237800  0.2404990  0.3167190  )
        10           O   tau(  10) = (  0.8570610  0.6737800  0.1832810  )
        11           O   tau(  11) = (  0.3929390  0.0762200  0.3167190  )
        12           O   tau(  12) = (  0.7595000  0.0762200  0.6832810  )

     number of k points=    10
                       cart. coord. in units 2pi/alat
        k(    1) = (   0.0000000   0.0000000   0.0000000), wk =   0.0740741
        k(    2) = (   0.0000000   0.0000000   0.3924866), wk =   0.1481481
        k(    3) = (   0.0000000   0.3717199   0.1962433), wk =   0.2962963
        k(    4) = (   0.0000000   0.3717199   0.5887299), wk =   0.1481481
        k(    5) = (   0.3333333   0.1645131   0.1962433), wk =   0.2962963
        k(    6) = (   0.3333333   0.1645131   0.5887299), wk =   0.1481481
        k(    7) = (   0.3333333   0.5362331   0.3924866), wk =   0.2962963
        k(    8) = (   0.3333333   0.5362331  -0.0000000), wk =   0.1481481
        k(    9) = (   0.3333333  -0.2072068   0.0000000), wk =   0.1481481
        k(   10) = (   0.3333333  -0.2072068   0.3924866), wk =   0.2962963

                       cryst. coord.
        k(    1) = (   0.0000000   0.0000000   0.0000000), wk =   0.0740741
        k(    2) = (   0.0000000   0.0000000   0.3333333), wk =   0.1481481
        k(    3) = (   0.0000000   0.3333333  -0.0000000), wk =   0.2962963
        k(    4) = (   0.0000000   0.3333333   0.3333333), wk =   0.1481481
        k(    5) = (   0.3333333  -0.0000000  -0.0000000), wk =   0.2962963
        k(    6) = (   0.3333333  -0.0000000   0.3333333), wk =   0.1481481
        k(    7) = (   0.3333333   0.3333333  -0.0000000), wk =   0.2962963
        k(    8) = (   0.3333333   0.3333333  -0.3333333), wk =   0.1481481
        k(    9) = (   0.3333333  -0.3333333   0.0000000), wk =   0.1481481
        k(   10) = (   0.3333333  -0.3333333   0.3333333), wk =   0.2962963

     Check: negative core charge=   -0.000014

     Initial potential from superposition of free atoms

     starting charge     109.9872, renormalised to     110.0000

     negative rho (up, down):  2.366E-03 0.000E+00
     Starting wfcs are  116 randomized atomic wfcs
     Checking if some PAW data can be deallocated...

     Self-consistent Calculation

     iteration #  1     ecut=    30.00 Ry     beta= 0.70
     Davidson diagonalization with overlap

     ethr =  1.00E-02,  avg # of iterations =  1.6

     negative rho (up, down):  4.246E-03 0.000E+00

     total energy              =   -1987.20176220 Ry
     estimated scf accuracy    <       5.52462973 Ry

[...]

     total energy              =   -1991.22735856 Ry
     estimated scf accuracy    <       0.00000251 Ry

     iteration # 39     ecut=    30.00 Ry     beta= 0.70
     Davidson diagonalization with overlap

     ethr =  1.43E-09,  avg # of iterations =  1.8

     negative rho (up, down):  3.572E-03 0.000E+00

     End of self-consistent calculation

          k = 0.0000 0.0000 0.0000 (  3139 PWs)   bands (ev):

   -57.1350 -57.1344 -33.7784 -33.7591 -31.1475 -31.1466 -31.0100 -31.0086
   -31.0076 -31.0062 -12.3234 -12.3139 -12.1252 -11.8564 -11.7146 -11.7026
   -10.2423  -9.7127  -9.2722  -9.2709  -9.2602  -8.7795  -8.6980  -8.6944
     2.6846   3.0145   3.2201   3.3115   3.4946   3.4979   3.8056   3.9706
     3.9713   4.0184   4.0208   4.2648   4.3329   4.7379   4.9265   5.0451
     5.4628   5.4682   6.0153   6.0323   6.0681   6.0845   6.0998   6.5058
     7.6650   7.7158   7.7564   7.7790   7.7979   7.8331   7.8651   7.8652
     8.0440   8.0858   8.1052   8.1235   8.2008   8.2524   9.4145  10.0039

     occupation numbers
     1.0000   1.0000   1.0000   1.0000   1.0000   1.0000   1.0000   1.0000
     1.0000   1.0000   1.0000   1.0000   1.0000   1.0000   1.0000   1.0000
     1.0000   1.0000   1.0000   1.0000   1.0000   1.0000   1.0000   1.0000
     1.0000   1.0000   1.0000   1.0000   1.0000   1.0000   1.0000   1.0000
     1.0000   1.0000   1.0000   1.0000   1.0000   1.0000   1.0000   1.0000
     1.0000   1.0000   1.0000   1.0000   1.0000   1.0000   1.0000   1.0000
     1.0000   1.0000   1.0000   1.0000   1.0000   1.0000   1.0000   0.0000
     0.0000   0.0000   0.0000   0.0000   0.0000   0.0000   0.0000   0.0000

[...]

          k = 0.3333-0.2072 0.3925 (  3224 PWs)   bands (ev):

   -57.1353 -57.1352 -33.7713 -33.7664 -31.1497 -31.1487 -31.0122 -31.0120
   -31.0100 -31.0080 -12.3389 -12.2958 -12.1385 -11.8829 -11.7729 -11.6919
    -9.9425  -9.6876  -9.4457  -9.2507  -9.2498  -8.8104  -8.7648  -8.7164
     2.9614   3.0089   3.2252   3.2283   3.3331   3.3844   3.9436   4.0398
     4.0553   4.0897   4.2170   4.4397   4.5911   4.6362   4.8926   5.0893
     5.4895   5.5416   5.5780   5.6577   5.7656   5.7935   5.9534   5.9783
     7.6863   7.7218   7.7457   7.7578   7.8302   7.8506   7.8786   7.9020
     8.0538   8.0707   8.1681   8.1709   8.2233   8.2428  10.0426  10.0654

     occupation numbers
     1.0000   1.0000   1.0000   1.0000   1.0000   1.0000   1.0000   1.0000
     1.0000   1.0000   1.0000   1.0000   1.0000   1.0000   1.0000   1.0000
     1.0000   1.0000   1.0000   1.0000   1.0000   1.0000   1.0000   1.0000
     1.0000   1.0000   1.0000   1.0000   1.0000   1.0000   1.0000   1.0000
     1.0000   1.0000   1.0000   1.0000   1.0000   1.0000   1.0000   1.0000
     1.0000   1.0000   1.0000   1.0000   1.0000   1.0000   1.0000   1.0000
     1.0000   1.0000   1.0000   1.0000   1.0000   1.0000   1.0000   0.0000
     0.0000   0.0000   0.0000   0.0000   0.0000   0.0000   0.0000   0.0000

     highest occupied, lowest unoccupied level (ev):     7.8906    7.8648

!    total energy              =   -1991.22735862 Ry
     estimated scf accuracy    <       0.00000042 Ry

     The total energy is the sum of the following terms:
     one-electron contribution =    -495.13673913 Ry
     hartree contribution      =     306.65745155 Ry
     xc contribution           =    -143.32390112 Ry
     ewald contribution        =    -651.21631828 Ry
     one-center paw contrib.   =   -1008.20785164 Ry
      -> PAW hartree energy AE =     362.39623337 Ry
      -> PAW hartree energy PS =    -343.66760899 Ry
      -> PAW xc energy AE      =    -993.10876355 Ry
      -> PAW xc energy PS      =      42.39407371 Ry
      -> total E_H with PAW    =     325.38607594 Ry
      -> total E_XC with PAW   =   -1094.03859097 Ry

     convergence has been achieved in  39 iterations

     Writing all to output data dir calculations_bands_val/myprefix.save/

     General routines

     Parallel routines

     PAW routines

   This run was terminated on:  14:44:48   4Jun2023

   JOB DONE.