     Program PWSCF v.7.0 starts on  4Jun2023 at 13:24:53

     K-points division:     npool     =       2
     R & G space division:  proc/nbgrp/npool/nimage =       4

     Reading input from espresso_580.pwi
Warning: card &CELL ignored
Warning: card / ignored

     Current dimensions of program PWSCF are:
     Max number of different atomic species (ntypx) = 10
     Max number of k-points (npk) =  40000
     Max angular momentum in pseudopotentials (lmaxx) =  4
     Message from routine setup:
     using ibrav=0 with symmetry is DISCOURAGED, use correct ibrav instead

     Using Slab Decomposition

     bravais-lattice index     =            0
     lattice parameter (alat)  =      12.5662  a.u.
     unit-cell volume          =    1481.2184 (a.u.)^3
     number of atoms/cell      =           14
     number of atomic types    =            3
     number of electrons       =       118.00
     number of Kohn-Sham states=           64
     kinetic-energy cutoff     =      30.0000  Ry
     charge density cutoff     =     240.0000  Ry
     scf convergence threshold =      1.0E-06
     mixing beta               =       0.7000
     number of iterations used =            8  plain     mixing
     Exchange-correlation= PBE
                           (   1   4   3   4   0   0   0)

     celldm(1)=  12.566151  celldm(2)=   0.000000  celldm(3)=   0.000000
     celldm(4)=   0.000000  celldm(5)=   0.000000  celldm(6)=   0.000000

     crystal axes: (cart. coord. in units of alat)
               a(1) = (   1.000000   0.000000   0.000000 )
               a(2) = (  -0.194885   0.980826   0.000000 )
               a(3) = (   0.000000   0.000000   0.761062 )

     reciprocal axes: (cart. coord. in units 2 pi/alat)
               b(1) = (  1.000000  0.198695  0.000000 )
               b(2) = (  0.000000  1.019549  0.000000 )
               b(3) = (  0.000000  0.000000  1.313953 )

     PseudoPot. # 1 for Ca read from file:
     /home/pragov/projects/rrg-bengioy-ad/pragov/crystal_structure_design/SSSP/Ca_pbe_v1.uspp.F.UPF
     MD5 check sum: 403a4c14b9e4d4dfdc3024c9a3812218
     Pseudo is Ultrasoft + core correction, Zval = 10.0
     Generated by new atomic code, or converted to UPF format
     Using radial grid of  845 points,  6 beta functions with:
                l(1) =   0
                l(2) =   0
                l(3) =   1
                l(4) =   1
                l(5) =   2
                l(6) =   2
     Q(r) pseudized with  8 coefficients,  rinner =    1.500   1.500   1.500
                                                       1.500   1.500

     PseudoPot. # 2 for Cr read from file:
     /home/pragov/projects/rrg-bengioy-ad/pragov/crystal_structure_design/SSSP/cr_pbe_v1.5.uspp.F.UPF
     MD5 check sum: 0d52af634a40206e4dee301ad30da4bf
     Pseudo is Ultrasoft + core correction, Zval = 14.0
     Generated by new atomic code, or converted to UPF format
     Using radial grid of  857 points,  6 beta functions with:
                l(1) =   0
                l(2) =   0
                l(3) =   1
                l(4) =   1
                l(5) =   2
                l(6) =   2
     Q(r) pseudized with  8 coefficients,  rinner =    0.950   0.950   0.950
                                                       0.950   0.950

     PseudoPot. # 3 for N  read from file:
     /home/pragov/projects/rrg-bengioy-ad/pragov/crystal_structure_design/SSSP/N.pbe-n-radius_5.UPF
     MD5 check sum: 16739722b17309cd8fe442a2ace49922
     Pseudo is Ultrasoft + core correction, Zval =  5.0
     Generated using "atomic" code by A. Dal Corso  v.5.1
     Using radial grid of 1085 points,  4 beta functions with:
                l(1) =   0
                l(2) =   0
                l(3) =   1
                l(4) =   1
     Q(r) pseudized with 0 coefficients

     atomic species   valence    mass     pseudopotential
        Ca            10.00    40.07800     Ca( 1.00)
        Cr            14.00    51.99610     Cr( 1.00)
        N              5.00    14.00700     N ( 1.00)

      4 Sym. Ops., with inversion, found ( 2 have fractional translation)

                                    s                        frac. trans.

      isym =  1     identity

 cryst.   s( 1) = (     1          0          0      )
                  (     0          1          0      )
                  (     0          0          1      )

 cart.    s( 1) = (  1.0000000  0.0000000  0.0000000 )
                  (  0.0000000  1.0000000  0.0000000 )
                  (  0.0000000  0.0000000  1.0000000 )

      isym =  2     180 deg rotation - cart. axis [0,0,1]

 cryst.   s( 2) = (    -1          0          0      )    f =(  0.0000000 )
                  (     0         -1          0      )       (  0.0000000 )
                  (     0          0          1      )       ( -0.5000000 )

 cart.    s( 2) = ( -1.0000000 -0.0000000  0.0000000 )    f =(  0.0000000 )
                  (  0.0000000 -1.0000000  0.0000000 )       (  0.0000000 )
                  (  0.0000000  0.0000000  1.0000000 )       ( -0.3805312 )

      isym =  3     inversion

 cryst.   s( 3) = (    -1          0          0      )
                  (     0         -1          0      )
                  (     0          0         -1      )

 cart.    s( 3) = ( -1.0000000 -0.0000000  0.0000000 )
                  (  0.0000000 -1.0000000  0.0000000 )
                  (  0.0000000  0.0000000 -1.0000000 )

      isym =  4     inv. 180 deg rotation - cart. axis [0,0,1]

 cryst.   s( 4) = (     1          0          0      )    f =(  0.0000000 )
                  (     0          1          0      )       (  0.0000000 )
                  (     0          0         -1      )       (  0.5000000 )

 cart.    s( 4) = (  1.0000000  0.0000000  0.0000000 )    f =(  0.0000000 )
                  (  0.0000000  1.0000000  0.0000000 )       (  0.0000000 )
                  (  0.0000000  0.0000000 -1.0000000 )       (  0.3805312 )

   Cartesian axes

     site n.     atom                  positions (alat units)
         1           Ca  tau(   1) = (   0.4337166   0.8145662   0.1902656  )
         2           Ca  tau(   2) = (   0.8724125   0.1047306   0.5707969  )
         3           Ca  tau(   3) = (   0.7144227   0.5841476   0.5707969  )
         4           Ca  tau(   4) = (  -0.0672980   0.8760954   0.1902656  )
         5           Ca  tau(   5) = (   0.3713980   0.1662598   0.5707969  )
         6           Ca  tau(   6) = (   0.0906919   0.3966784   0.1902656  )
         7           Cr  tau(   7) = (   0.1686047   0.6824538   0.5707969  )
         8           Cr  tau(   8) = (   0.6365099   0.2983722   0.1902656  )
         9           N   tau(   9) = (   0.4062678   0.8023255   0.5707969  )
        10           N   tau(  10) = (   0.8482758   0.1245433   0.1902656  )
        11           N   tau(  11) = (  -0.0431613   0.8562827   0.5707969  )
        12           N   tau(  12) = (   0.7077660   0.5548395   0.1902656  )
        13           N   tau(  13) = (   0.3988468   0.1785005   0.1902656  )
        14           N   tau(  14) = (   0.0973485   0.4259865   0.5707969  )

   Crystallographic axes

     site n.     atom                  positions (cryst. coord.)
         1           Ca  tau(   1) = (  0.5955670  0.8304900  0.2500000  )
         2           Ca  tau(   2) = (  0.8932220  0.1067780  0.7500000  )
         3           Ca  tau(   3) = (  0.8304900  0.5955670  0.7500000  )
         4           Ca  tau(   4) = (  0.1067780  0.8932220  0.2500000  )
         5           Ca  tau(   5) = (  0.4044330  0.1695100  0.7500000  )
         6           Ca  tau(   6) = (  0.1695100  0.4044330  0.2500000  )
         7           Cr  tau(   7) = (  0.3042050  0.6957950  0.7500000  )
         8           Cr  tau(   8) = (  0.6957950  0.3042050  0.2500000  )
         9           N   tau(   9) = (  0.5656860  0.8180100  0.7500000  )
        10           N   tau(  10) = (  0.8730220  0.1269780  0.2500000  )
        11           N   tau(  11) = (  0.1269780  0.8730220  0.7500000  )
        12           N   tau(  12) = (  0.8180100  0.5656860  0.2500000  )
        13           N   tau(  13) = (  0.4343140  0.1819900  0.2500000  )
        14           N   tau(  14) = (  0.1819900  0.4343140  0.7500000  )

     number of k points=    10
                       cart. coord. in units 2pi/alat
        k(    1) = (   0.0000000   0.0000000   0.0000000), wk =   0.0740741
        k(    2) = (   0.0000000   0.0000000   0.4379842), wk =   0.1481481
        k(    3) = (   0.0000000   0.3398496   0.0000000), wk =   0.1481481
        k(    4) = (   0.0000000   0.3398496   0.4379842), wk =   0.2962963
        k(    5) = (   0.3333333   0.0662317   0.0000000), wk =   0.1481481
        k(    6) = (   0.3333333   0.0662317   0.4379842), wk =   0.2962963
        k(    7) = (   0.3333333   0.4060813   0.0000000), wk =   0.1481481
        k(    8) = (   0.3333333   0.4060813   0.4379842), wk =   0.2962963
        k(    9) = (   0.3333333  -0.2736179   0.0000000), wk =   0.1481481
        k(   10) = (   0.3333333  -0.2736179   0.4379842), wk =   0.2962963

                       cryst. coord.
        k(    1) = (   0.0000000   0.0000000   0.0000000), wk =   0.0740741
        k(    2) = (   0.0000000   0.0000000   0.3333333), wk =   0.1481481
        k(    3) = (   0.0000000   0.3333333   0.0000000), wk =   0.1481481
        k(    4) = (   0.0000000   0.3333333   0.3333333), wk =   0.2962963
        k(    5) = (   0.3333333  -0.0000000   0.0000000), wk =   0.1481481
        k(    6) = (   0.3333333  -0.0000000   0.3333333), wk =   0.2962963
        k(    7) = (   0.3333333   0.3333333   0.0000000), wk =   0.1481481
        k(    8) = (   0.3333333   0.3333333   0.3333333), wk =   0.2962963
        k(    9) = (   0.3333333  -0.3333333   0.0000000), wk =   0.1481481
        k(   10) = (   0.3333333  -0.3333333   0.3333333), wk =   0.2962963

     Check: negative core charge=   -0.000006

     Initial potential from superposition of free atoms

     starting charge     115.9672, renormalised to     118.0000
     Starting wfcs are  104 randomized atomic wfcs

     Self-consistent Calculation

     iteration #  1     ecut=    30.00 Ry     beta= 0.70
     Davidson diagonalization with overlap

     ethr =  1.00E-02,  avg # of iterations =  2.0

     negative rho (up, down):  8.451E-04 0.000E+00

     total energy              =    -920.68550970 Ry
     estimated scf accuracy    <       3.66786660 Ry

[...]

     total energy              =    -922.52599116 Ry
     estimated scf accuracy    <       0.00000375 Ry

     iteration # 13     ecut=    30.00 Ry     beta= 0.70
     Davidson diagonalization with overlap

     ethr =  3.18E-09,  avg # of iterations =  4.5

     negative rho (up, down):  7.283E-04 0.000E+00

     End of self-consistent calculation

          k = 0.0000 0.0000 0.0000 (  4105 PWs)   bands (ev):

   -62.2825 -62.2822 -34.0073 -34.0046 -33.6932 -33.6915 -33.2426 -33.2403
   -30.5753 -30.5276 -30.5164 -30.5140 -30.4908 -30.4817 -11.9594 -11.8901
   -11.8850 -11.7747 -11.7693 -11.6954 -11.6116 -11.5947 -11.5900 -11.5557
   -11.5475 -11.5459 -11.5382 -11.5167 -11.4564 -11.4443 -11.4255 -11.4211
    -4.3909  -4.0374  -3.6151  -3.6139  -3.4356  -3.4207   5.3610   5.4071
     5.5350   5.7411   5.8875   6.0599   6.2952   6.5723   6.5912   6.6638
     6.7283   6.7598   6.8042   7.2609   7.5986   7.6181   7.6225   7.8131
     8.1172   8.3642   9.9443  10.0652  10.8382  10.9487  11.1966  11.6068

     occupation numbers
     1.0000   1.0000   1.0000   1.0000   1.0000   1.0000   1.0000   1.0000
     1.0000   1.0000   1.0000   1.0000   1.0000   1.0000   1.0000   1.0000
     1.0000   1.0000   1.0000   1.0000   1.0000   1.0000   1.0000   1.0000
     1.0000   1.0000   1.0000   1.0000   1.0000   1.0000   1.0000   1.0000
     1.0000   1.0000   1.0000   1.0000   1.0000   1.0000   1.0000   1.0000
     1.0000   1.0000   1.0000   1.0000   1.0000   1.0000   1.0000   1.0000
     1.0000   1.0000   1.0000   1.0000   1.0000   1.0000   1.0000   1.0000
     1.0000   1.0000   1.0000   0.0000   0.0000   0.0000   0.0000   0.0000

[...]

          k = 0.3333-0.2736 0.4380 (  4108 PWs)   bands (ev):

   -62.2823 -62.2823 -34.0068 -34.0065 -33.6931 -33.6918 -33.2411 -33.2406
   -30.5445 -30.5275 -30.5252 -30.5141 -30.5027 -30.4903 -11.9005 -11.8980
   -11.8238 -11.7947 -11.7714 -11.7300 -11.6520 -11.6135 -11.6059 -11.5979
   -11.5873 -11.5280 -11.5123 -11.5075 -11.5005 -11.4687 -11.4681 -11.4320
    -3.9861  -3.8916  -3.5309  -3.4535  -3.4195  -3.3293   5.2116   5.3732
     5.3860   5.5680   5.6850   5.7926   6.1212   6.1481   6.2528   6.3043
     6.3354   6.6135   7.0028   7.0305   7.1999   7.2397   7.5380   7.7862
     8.7571   8.8128  10.1444  10.4090  10.4774  10.7110  10.8695  11.0453

     occupation numbers
     1.0000   1.0000   1.0000   1.0000   1.0000   1.0000   1.0000   1.0000
     1.0000   1.0000   1.0000   1.0000   1.0000   1.0000   1.0000   1.0000
     1.0000   1.0000   1.0000   1.0000   1.0000   1.0000   1.0000   1.0000
     1.0000   1.0000   1.0000   1.0000   1.0000   1.0000   1.0000   1.0000
     1.0000   1.0000   1.0000   1.0000   1.0000   1.0000   1.0000   1.0000
     1.0000   1.0000   1.0000   1.0000   1.0000   1.0000   1.0000   1.0000
     1.0000   1.0000   1.0000   1.0000   1.0000   1.0000   1.0000   1.0000
     1.0000   1.0000   1.0000   0.0000   0.0000   0.0000   0.0000   0.0000

     highest occupied, lowest unoccupied level (ev):    10.2779   10.0652

!    total energy              =    -922.52599119 Ry
     estimated scf accuracy    <       0.00000038 Ry

     The total energy is the sum of the following terms:
     one-electron contribution =    -394.04276610 Ry
     hartree contribution      =     240.96999027 Ry
     xc contribution           =    -149.04288198 Ry
     ewald contribution        =    -620.41033339 Ry

     convergence has been achieved in  13 iterations

     Writing all to output data dir calculations_bands_val/myprefix.save/

     General routines

     Parallel routines

   This run was terminated on:  13:25: 6   4Jun2023

   JOB DONE.