     Program PWSCF v.7.0 starts on  4Jun2023 at 10:55:40

     K-points division:     npool     =       2
     R & G space division:  proc/nbgrp/npool/nimage =       4

     Reading input from espresso_126.pwi
Warning: card &CELL ignored
Warning: card / ignored

     Current dimensions of program PWSCF are:
     Max number of different atomic species (ntypx) = 10
     Max number of k-points (npk) =  40000
     Max angular momentum in pseudopotentials (lmaxx) =  4
     Message from routine setup:
     using ibrav=0 with symmetry is DISCOURAGED, use correct ibrav instead

     Using Slab Decomposition

     bravais-lattice index     =            0
     lattice parameter (alat)  =       5.8901  a.u.
     unit-cell volume          =    1680.2081 (a.u.)^3
     number of atoms/cell      =           16
     number of atomic types    =            2
     number of electrons       =       120.00
     number of Kohn-Sham states=           64
     kinetic-energy cutoff     =      30.0000  Ry
     charge density cutoff     =     240.0000  Ry
     scf convergence threshold =      1.0E-06
     mixing beta               =       0.7000
     number of iterations used =            8  plain     mixing
     Exchange-correlation= PBE
                           (   1   4   3   4   0   0   0)

     celldm(1)=   5.890067  celldm(2)=   0.000000  celldm(3)=   0.000000
     celldm(4)=   0.000000  celldm(5)=   0.000000  celldm(6)=   0.000000

     crystal axes: (cart. coord. in units of alat)
               a(1) = (   1.000000   0.000000   0.000000 )
               a(2) = (   0.000000   1.659593   0.000000 )
               a(3) = (   0.000000   0.000000   4.954511 )

     reciprocal axes: (cart. coord. in units 2 pi/alat)
               b(1) = (  1.000000  0.000000  0.000000 )
               b(2) = (  0.000000  0.602557  0.000000 )
               b(3) = (  0.000000  0.000000  0.201836 )

     PseudoPot. # 1 for Tc read from file:
     /home/pragov/projects/rrg-bengioy-ad/pragov/crystal_structure_design/SSSP/Tc_ONCV_PBE-1.0.oncvpsp.upf
     MD5 check sum: 1c2b1e6c8b361b656073c0c20ed4f60a
     Pseudo is Norm-conserving, Zval = 15.0
     Generated using ONCVPSP code by D. R. Hamann
     Using radial grid of 1492 points,  6 beta functions with:
                l(1) =   0
                l(2) =   0
                l(3) =   1
                l(4) =   1
                l(5) =   2
                l(6) =   2

     PseudoPot. # 2 for P  read from file:
     /home/pragov/projects/rrg-bengioy-ad/pragov/crystal_structure_design/SSSP/P.pbe-n-rrkjus_psl.1.0.0.UPF
     MD5 check sum: 8b930f418f0a4573dca56cd030ffe088
     Pseudo is Ultrasoft + core correction, Zval =  5.0
     Generated using "atomic" code by A. Dal Corso  v.5.1
     Using radial grid of 1147 points,  6 beta functions with:
                l(1) =   0
                l(2) =   0
                l(3) =   1
                l(4) =   1
                l(5) =   2
                l(6) =   2
     Q(r) pseudized with 0 coefficients

     atomic species   valence    mass     pseudopotential
        Tc            15.00    97.90721     Tc( 1.00)
        P              5.00    30.97376     P ( 1.00)

      8 Sym. Ops., with inversion, found ( 6 have fractional translation)

                                    s                        frac. trans.

      isym =  1     identity

 cryst.   s( 1) = (     1          0          0      )
                  (     0          1          0      )
                  (     0          0          1      )

 cart.    s( 1) = (  1.0000000  0.0000000  0.0000000 )
                  (  0.0000000  1.0000000  0.0000000 )
                  (  0.0000000  0.0000000  1.0000000 )

      isym =  2     180 deg rotation - cart. axis [0,0,1]

 cryst.   s( 2) = (    -1          0          0      )    f =(  0.5000000 )
                  (     0         -1          0      )       (  0.5000000 )
                  (     0          0          1      )       (  0.5000000 )

 cart.    s( 2) = ( -1.0000000  0.0000000  0.0000000 )    f =(  0.5000000 )
                  (  0.0000000 -1.0000000  0.0000000 )       (  0.8297966 )
                  (  0.0000000  0.0000000  1.0000000 )       (  2.4772555 )

[...]

      isym =  4     180 deg rotation - cart. axis [1,0,0]

[...]

      isym =  5     inversion

 cryst.   s( 5) = (    -1          0          0      )
                  (     0         -1          0      )
                  (     0          0         -1      )

 cart.    s( 5) = ( -1.0000000  0.0000000  0.0000000 )
                  (  0.0000000 -1.0000000  0.0000000 )
                  (  0.0000000  0.0000000 -1.0000000 )

      isym =  6     inv. 180 deg rotation - cart. axis [0,0,1]

[...]

      isym =  8     inv. 180 deg rotation - cart. axis [1,0,0]

 cryst.   s( 8) = (    -1          0          0      )    f =(  0.5000000 )
                  (     0          1          0      )       (  0.0000000 )
                  (     0          0          1      )       (  0.0000000 )

 cart.    s( 8) = ( -1.0000000  0.0000000  0.0000000 )    f =(  0.5000000 )
                  (  0.0000000  1.0000000  0.0000000 )       (  0.0000000 )
                  (  0.0000000  0.0000000  1.0000000 )       (  0.0000000 )

   Cartesian axes

     site n.     atom                  positions (alat units)
         1           Tc  tau(   1) = (   0.2500000   0.5816874   3.2228401  )
         2           Tc  tau(   2) = (   0.7500000   1.0779058   1.7316710  )
         3           Tc  tau(   3) = (   0.7500000   1.4114841   4.2089265  )
         4           Tc  tau(   4) = (   0.2500000   0.2481092   0.7455846  )
         5           P   tau(   5) = (   0.2500000   0.8668520   3.9279859  )
         6           P   tau(   6) = (   0.7500000   0.7927412   1.0265251  )
         7           P   tau(   7) = (   0.7500000   0.0370554   3.5037807  )
         8           P   tau(   8) = (   0.2500000   1.6225379   1.4507304  )
         9           P   tau(   9) = (   0.2500000   0.5859642   0.0634128  )
        10           P   tau(  10) = (   0.7500000   1.0736291   4.8910983  )
        11           P   tau(  11) = (   0.7500000   1.4157608   2.4138427  )
        12           P   tau(  12) = (   0.2500000   0.2438324   2.5406683  )
        13           P   tau(  13) = (   0.2500000   0.5305487   1.8899082  )
        14           P   tau(  14) = (   0.7500000   1.1290445   3.0646029  )
        15           P   tau(  15) = (   0.7500000   1.3603454   0.5873474  )
        16           P   tau(  16) = (   0.2500000   0.2992479   4.3671637  )

   Crystallographic axes

     site n.     atom                  positions (cryst. coord.)
         1           Tc  tau(   1) = (  0.2500000  0.3505000  0.6504860  )
         2           Tc  tau(   2) = (  0.7500000  0.6495000  0.3495140  )
         3           Tc  tau(   3) = (  0.7500000  0.8505000  0.8495140  )
         4           Tc  tau(   4) = (  0.2500000  0.1495000  0.1504860  )
         5           P   tau(   5) = (  0.2500000  0.5223280  0.7928100  )
         6           P   tau(   6) = (  0.7500000  0.4776720  0.2071900  )
         7           P   tau(   7) = (  0.7500000  0.0223280  0.7071900  )
         8           P   tau(   8) = (  0.2500000  0.9776720  0.2928100  )
         9           P   tau(   9) = (  0.2500000  0.3530770  0.0127990  )
        10           P   tau(  10) = (  0.7500000  0.6469230  0.9872010  )
        11           P   tau(  11) = (  0.7500000  0.8530770  0.4872010  )
        12           P   tau(  12) = (  0.2500000  0.1469230  0.5127990  )
        13           P   tau(  13) = (  0.2500000  0.3196860  0.3814520  )
        14           P   tau(  14) = (  0.7500000  0.6803140  0.6185480  )
        15           P   tau(  15) = (  0.7500000  0.8196860  0.1185480  )
        16           P   tau(  16) = (  0.2500000  0.1803140  0.8814520  )

     number of k points=     8
                       cart. coord. in units 2pi/alat
        k(    1) = (   0.0000000   0.0000000   0.0000000), wk =   0.0740741
        k(    2) = (   0.0000000   0.0000000   0.0672788), wk =   0.1481481
        k(    3) = (   0.0000000   0.2008524   0.0000000), wk =   0.1481481
        k(    4) = (   0.0000000   0.2008524   0.0672788), wk =   0.2962963
        k(    5) = (   0.3333333   0.0000000   0.0000000), wk =   0.1481481
        k(    6) = (   0.3333333   0.0000000   0.0672788), wk =   0.2962963
        k(    7) = (   0.3333333   0.2008524   0.0000000), wk =   0.2962963
        k(    8) = (   0.3333333   0.2008524   0.0672788), wk =   0.5925926

                       cryst. coord.
        k(    1) = (   0.0000000   0.0000000   0.0000000), wk =   0.0740741
        k(    2) = (   0.0000000   0.0000000   0.3333333), wk =   0.1481481
        k(    3) = (   0.0000000   0.3333333   0.0000000), wk =   0.1481481
        k(    4) = (   0.0000000   0.3333333   0.3333333), wk =   0.2962963
        k(    5) = (   0.3333333   0.0000000   0.0000000), wk =   0.1481481
        k(    6) = (   0.3333333   0.0000000   0.3333333), wk =   0.2962963
        k(    7) = (   0.3333333   0.3333333   0.0000000), wk =   0.2962963
        k(    8) = (   0.3333333   0.3333333   0.3333333), wk =   0.5925926

     Initial potential from superposition of free atoms

     starting charge     119.9952, renormalised to     120.0000
     Starting wfcs are   88 randomized atomic wfcs

     Self-consistent Calculation

     iteration #  1     ecut=    30.00 Ry     beta= 0.70
     Davidson diagonalization with overlap

     ethr =  1.00E-02,  avg # of iterations =  2.4

     total energy              =    -812.64591108 Ry
     estimated scf accuracy    <       2.15814070 Ry

[...]

     total energy              =    -814.07712283 Ry
     estimated scf accuracy    <       0.00000291 Ry

     iteration # 14     ecut=    30.00 Ry     beta= 0.70
     Davidson diagonalization with overlap

     ethr =  1.34E-09,  avg # of iterations =  2.1

     End of self-consistent calculation

          k = 0.0000 0.0000 0.0000 (  4629 PWs)   bands (ev):

   -54.0929 -54.0929 -54.0926 -54.0926 -26.2713 -26.2713 -26.2708 -26.2708
   -26.2704 -26.2704 -26.2669 -26.2669 -26.0286 -26.0282 -26.0225 -26.0220
    -3.0602  -2.9441  -1.4541  -0.6551  -0.5267   0.5691   1.6884   2.5205
     2.9875   3.0228   3.7350   4.5557   5.5961   5.9689   6.2478   6.3550
     6.4360   7.0083   7.5930   7.7336   8.2803   8.3216   8.5168   9.0552
     9.3889   9.6232   9.7175   9.7546   9.9433  10.0673  10.1161  10.2413
    10.3881  10.4751  10.6210  10.7418  11.0753  11.2761  11.3626  11.4895
    12.0658  12.1226  12.4362  12.5250  13.0060  13.2689  13.7558  13.7652

     occupation numbers
     1.0000   1.0000   1.0000   1.0000   1.0000   1.0000   1.0000   1.0000
     1.0000   1.0000   1.0000   1.0000   1.0000   1.0000   1.0000   1.0000
     1.0000   1.0000   1.0000   1.0000   1.0000   1.0000   1.0000   1.0000
     1.0000   1.0000   1.0000   1.0000   1.0000   1.0000   1.0000   1.0000
     1.0000   1.0000   1.0000   1.0000   1.0000   1.0000   1.0000   1.0000
     1.0000   1.0000   1.0000   1.0000   1.0000   1.0000   1.0000   1.0000
     1.0000   1.0000   1.0000   1.0000   1.0000   1.0000   1.0000   1.0000
     1.0000   1.0000   1.0000   1.0000   0.0000   0.0000   0.0000   0.0000

[...]

          k = 0.3333 0.2009 0.0673 (  4670 PWs)   bands (ev):

   -54.0815 -54.0815 -54.0814 -54.0814 -26.4258 -26.4258 -26.4257 -26.4256
   -26.2482 -26.2482 -26.2473 -26.2473 -26.0112 -26.0111 -26.0097 -26.0096
    -1.4873  -1.4546  -0.1876  -0.0988   0.9294   1.0842   2.0379   2.2624
     3.2178   3.2231   3.8962   4.0071   5.7768   5.8079   6.4370   6.4600
     6.6832   6.8442   7.4690   7.4877   7.6289   7.6718   8.0332   8.1261
     8.3356   8.4974   8.5361   8.8865   9.0378   9.1779   9.3675   9.5420
     9.6917   9.8757  10.0018  10.3580  10.5589  10.6382  10.9017  11.0134
    11.0755  11.1384  11.7361  11.9003  13.0773  13.1437  13.4747  13.5982

     occupation numbers
     1.0000   1.0000   1.0000   1.0000   1.0000   1.0000   1.0000   1.0000
     1.0000   1.0000   1.0000   1.0000   1.0000   1.0000   1.0000   1.0000
     1.0000   1.0000   1.0000   1.0000   1.0000   1.0000   1.0000   1.0000
     1.0000   1.0000   1.0000   1.0000   1.0000   1.0000   1.0000   1.0000
     1.0000   1.0000   1.0000   1.0000   1.0000   1.0000   1.0000   1.0000
     1.0000   1.0000   1.0000   1.0000   1.0000   1.0000   1.0000   1.0000
     1.0000   1.0000   1.0000   1.0000   1.0000   1.0000   1.0000   1.0000
     1.0000   1.0000   1.0000   1.0000   0.0000   0.0000   0.0000   0.0000

     highest occupied, lowest unoccupied level (ev):    12.5250   13.0060

!    total energy              =    -814.07712275 Ry
     estimated scf accuracy    <       0.00000035 Ry

     The total energy is the sum of the following terms:
     one-electron contribution =    -283.89978729 Ry
     hartree contribution      =     199.34201024 Ry
     xc contribution           =    -123.89110391 Ry
     ewald contribution        =    -605.62824179 Ry

     convergence has been achieved in  14 iterations

     Writing all to output data dir calculations_bands_val/myprefix.save/

     General routines

     Parallel routines

   This run was terminated on:  10:55:54   4Jun2023

   JOB DONE.