     Program PWSCF v.7.0 starts on  4Jun2023 at 11:11:15

     K-points division:     npool     =       2
     R & G space division:  proc/nbgrp/npool/nimage =       4

     Reading input from espresso_179.pwi
Warning: card &CELL ignored
Warning: card / ignored

     Current dimensions of program PWSCF are:
     Max number of different atomic species (ntypx) = 10
     Max number of k-points (npk) =  40000
     Max angular momentum in pseudopotentials (lmaxx) =  4
     file Ba.pbe-spn-kjpaw_psl.1.0.0.UPF: wavefunction(s)  5S 6S renormalized
     Message from routine setup:
     using ibrav=0 with symmetry is DISCOURAGED, use correct ibrav instead

     Using Slab Decomposition

     bravais-lattice index     =            0
     lattice parameter (alat)  =      21.6503  a.u.
     unit-cell volume          =    3763.9178 (a.u.)^3
     number of atoms/cell      =           12
     number of atomic types    =            3
     number of electrons       =        96.00
     number of Kohn-Sham states=           64
     kinetic-energy cutoff     =      30.0000  Ry
     charge density cutoff     =     240.0000  Ry
     scf convergence threshold =      1.0E-06
     mixing beta               =       0.7000
     number of iterations used =            8  plain     mixing
     Exchange-correlation= SLA  PW   PBX  PBC
                           (   1   4   3   4   0   0   0)

     celldm(1)=  21.650302  celldm(2)=   0.000000  celldm(3)=   0.000000
     celldm(4)=   0.000000  celldm(5)=   0.000000  celldm(6)=   0.000000

     crystal axes: (cart. coord. in units of alat)
               a(1) = (   1.000000   0.000000   0.000000 )
               a(2) = (  -0.859039   0.511911   0.000000 )
               a(3) = (   0.000000   0.000000   0.724526 )

     reciprocal axes: (cart. coord. in units 2 pi/alat)
               b(1) = (  1.000000  1.678103  0.000000 )
               b(2) = (  0.000000  1.953466  0.000000 )
               b(3) = (  0.000000  0.000000  1.380212 )

     PseudoPot. # 1 for Ba read from file:
     /home/pragov/projects/rrg-bengioy-ad/pragov/crystal_structure_design/SSSP/Ba.pbe-spn-kjpaw_psl.1.0.0.UPF
     MD5 check sum: c432291d3e53af55f19d5e8866385beb
     Pseudo is Projector augmented-wave + core cor, Zval = 10.0
     Generated using "atomic" code by A. Dal Corso  v.5.1
     Shape of augmentation charge: PSQ
     Using radial grid of 1251 points,  7 beta functions with:
                l(1) =   0
                l(2) =   0
                l(3) =   0
                l(4) =   1
                l(5) =   1
                l(6) =   2
                l(7) =   2
     Q(r) pseudized with 0 coefficients

     PseudoPot. # 2 for Ca read from file:
     /home/pragov/projects/rrg-bengioy-ad/pragov/crystal_structure_design/SSSP/Ca_pbe_v1.uspp.F.UPF
     MD5 check sum: 403a4c14b9e4d4dfdc3024c9a3812218
     Pseudo is Ultrasoft + core correction, Zval = 10.0
     Generated by new atomic code, or converted to UPF format
     Using radial grid of  845 points,  6 beta functions with:
                l(1) =   0
                l(2) =   0
                l(3) =   1
                l(4) =   1
                l(5) =   2
                l(6) =   2
     Q(r) pseudized with  8 coefficients,  rinner =    1.500   1.500   1.500
                                                       1.500   1.500

     PseudoPot. # 3 for I  read from file:
     /home/pragov/projects/rrg-bengioy-ad/pragov/crystal_structure_design/SSSP/I.pbe-n-kjpaw_psl.0.2.UPF
     MD5 check sum: d4ef18d9c8f18dc85e5843bca1e50dc0
     Pseudo is Projector augmented-wave + core cor, Zval =  7.0
     Generated using "atomic" code by A. Dal Corso  v.5.0.99 svn rev. 10869
     Shape of augmentation charge: PSQ
     Using radial grid of 1247 points,  4 beta functions with:
                l(1) =   0
                l(2) =   0
                l(3) =   1
                l(4) =   1
     Q(r) pseudized with 0 coefficients

     atomic species   valence    mass     pseudopotential
        Ba            10.00   137.32700     Ba( 1.00)
        Ca            10.00    40.07800     Ca( 1.00)
        I              7.00   126.90447     I ( 1.00)

      2 Sym. Ops. (no inversion) found ( 1 have fractional translation)

                                    s                        frac. trans.

      isym =  1     identity

 cryst.   s( 1) = (     1          0          0      )
                  (     0          1          0      )
                  (     0          0          1      )

 cart.    s( 1) = (  1.0000000 -0.0000000  0.0000000 )
                  (  0.0000000  1.0000000  0.0000000 )
                  (  0.0000000  0.0000000  1.0000000 )

      isym =  2     180 deg rotation - cart. axis [0,0,1]

 cryst.   s( 2) = (    -1          0          0      )    f =(  0.0000000 )
                  (     0         -1          0      )       (  0.0000000 )
                  (     0          0          1      )       (  0.5000000 )

 cart.    s( 2) = ( -1.0000000  0.0000000  0.0000000 )    f =(  0.0000000 )
                  (  0.0000000 -1.0000000  0.0000000 )       (  0.0000000 )
                  (  0.0000000  0.0000000  1.0000000 )       (  0.3622632 )

   Cartesian axes

     site n.     atom                  positions (alat units)
         1           Ba  tau(   1) = (   0.6978634   0.0831972   0.3046633  )
         2           Ba  tau(   2) = (  -0.5569022   0.4287133   0.6669265  )
         3           Ca  tau(   3) = (   0.2396439   0.2093740   0.3631457  )
         4           Ca  tau(   4) = (  -0.0986826   0.3025366   0.0008825  )
         5           I   tau(   5) = (   0.8317384   0.0463330   0.0243071  )
         6           I   tau(   6) = (   0.1438550   0.2357507   0.6213255  )
         7           I   tau(   7) = (   0.3847325   0.1694219   0.1379006  )
         8           I   tau(   8) = (   0.4657104   0.1471236   0.5119119  )
         9           I   tau(   9) = (  -0.6907772   0.4655775   0.3865703  )
        10           I   tau(  10) = (  -0.3247492   0.3647870   0.1496487  )
        11           I   tau(  11) = (  -0.0028938   0.2761599   0.2590624  )
        12           I   tau(  12) = (  -0.2437713   0.3424886   0.5001637  )

   Crystallographic axes

     site n.     atom                  positions (cryst. coord.)
         1           Ba  tau(   1) = (  0.8374770  0.1625230  0.4205000  )
         2           Ba  tau(   2) = (  0.1625230  0.8374770  0.9205000  )
         3           Ca  tau(   3) = (  0.5909950  0.4090050  0.5012180  )
         4           Ca  tau(   4) = (  0.4090050  0.5909950  0.0012180  )
         5           I   tau(   5) = (  0.9094900  0.0905100  0.0335490  )
         6           I   tau(   6) = (  0.5394690  0.4605310  0.8575610  )
         7           I   tau(   7) = (  0.6690400  0.3309600  0.1903320  )
         8           I   tau(   8) = (  0.7125990  0.2874010  0.7065470  )
         9           I   tau(   9) = (  0.0905100  0.9094900  0.5335490  )
        10           I   tau(  10) = (  0.2874010  0.7125990  0.2065470  )
        11           I   tau(  11) = (  0.4605310  0.5394690  0.3575610  )
        12           I   tau(  12) = (  0.3309600  0.6690400  0.6903320  )

     number of k points=    10
                       cart. coord. in units 2pi/alat
        k(    1) = (   0.0000000   0.0000000   0.0000000), wk =   0.0740741
        k(    2) = (   0.0000000   0.0000000   0.4600707), wk =   0.1481481
        k(    3) = (   0.0000000   0.6511554   0.0000000), wk =   0.1481481
        k(    4) = (   0.0000000   0.6511554   0.4600707), wk =   0.2962963
        k(    5) = (   0.3333333   0.5593677   0.0000000), wk =   0.1481481
        k(    6) = (   0.3333333   0.5593677   0.4600707), wk =   0.2962963
        k(    7) = (   0.3333333   1.2105231   0.0000000), wk =   0.1481481
        k(    8) = (   0.3333333   1.2105231   0.4600707), wk =   0.2962963
        k(    9) = (   0.3333333  -0.0917877   0.0000000), wk =   0.1481481
        k(   10) = (   0.3333333  -0.0917877   0.4600707), wk =   0.2962963

                       cryst. coord.
        k(    1) = (   0.0000000   0.0000000   0.0000000), wk =   0.0740741
        k(    2) = (   0.0000000   0.0000000   0.3333333), wk =   0.1481481
        k(    3) = (   0.0000000   0.3333333   0.0000000), wk =   0.1481481
        k(    4) = (   0.0000000   0.3333333   0.3333333), wk =   0.2962963
        k(    5) = (   0.3333333  -0.0000000   0.0000000), wk =   0.1481481
        k(    6) = (   0.3333333  -0.0000000   0.3333333), wk =   0.2962963
        k(    7) = (   0.3333333   0.3333333   0.0000000), wk =   0.1481481
        k(    8) = (   0.3333333   0.3333333   0.3333333), wk =   0.2962963
        k(    9) = (   0.3333333  -0.3333333   0.0000000), wk =   0.1481481
        k(   10) = (   0.3333333  -0.3333333   0.3333333), wk =   0.2962963

     Check: negative core charge=   -0.000001

     Initial potential from superposition of free atoms

     starting charge      95.9545, renormalised to      96.0000
     Starting wfcs are   62 randomized atomic wfcs +    2 random wfcs
     Checking if some PAW data can be deallocated...

     Self-consistent Calculation

     iteration #  1     ecut=    30.00 Ry     beta= 0.70
     Davidson diagonalization with overlap

     ethr =  1.00E-02,  avg # of iterations =  5.8

     Threshold (ethr) on eigenvalues was too large:
     Diagonalizing with lowered threshold

     Davidson diagonalization with overlap

[...]

     negative rho (up, down):  5.064E-02 0.000E+00

     total energy              =   -4054.92251848 Ry
     estimated scf accuracy    <       0.25332264 Ry

[...]

     negative rho (up, down):  9.275E-03 0.000E+00

[...]

     total energy              =   -4054.96199990 Ry
     estimated scf accuracy    <       0.00000969 Ry

     iteration # 11     ecut=    30.00 Ry     beta= 0.70
     Davidson diagonalization with overlap

     ethr =  1.01E-08,  avg # of iterations =  1.0

     End of self-consistent calculation

          k = 0.0000 0.0000 0.0000 ( 10409 PWs)   bands (ev):

   -37.2741 -37.2740 -24.7817 -24.7814 -18.3073 -18.3072 -18.2807 -18.2789
   -18.2683 -18.2666  -9.9924  -9.9742  -9.9334  -9.9289  -9.8665  -9.8627
    -8.7138  -8.4898  -8.3654  -8.3617  -8.2097  -8.1801  -8.0797  -8.0288
     0.3020   0.4357   0.4968   0.6458   0.6941   0.8747   0.9687   1.0367
     1.1211   1.1296   1.3410   1.6129   1.6827   1.7771   1.8735   1.9616
     1.9632   2.0094   2.0417   2.1433   2.3071   2.3988   2.5839   2.6755
     6.2383   6.3562   6.6748   6.7235   6.7274   6.8140   6.8581   7.0005
     7.0181   7.1374   7.2347   7.2922   7.4783   7.5322   7.5528   7.6644

     occupation numbers
     1.0000   1.0000   1.0000   1.0000   1.0000   1.0000   1.0000   1.0000
     1.0000   1.0000   1.0000   1.0000   1.0000   1.0000   1.0000   1.0000
     1.0000   1.0000   1.0000   1.0000   1.0000   1.0000   1.0000   1.0000
     1.0000   1.0000   1.0000   1.0000   1.0000   1.0000   1.0000   1.0000
     1.0000   1.0000   1.0000   1.0000   1.0000   1.0000   1.0000   1.0000
     1.0000   1.0000   1.0000   1.0000   1.0000   1.0000   1.0000   1.0000
     0.0000   0.0000   0.0000   0.0000   0.0000   0.0000   0.0000   0.0000
     0.0000   0.0000   0.0000   0.0000   0.0000   0.0000   0.0000   0.0000

[...]

          k = 0.3333-0.0918 0.4601 ( 10428 PWs)   bands (ev):

   -37.2741 -37.2741 -24.7816 -24.7815 -18.3073 -18.3072 -18.2803 -18.2794
   -18.2678 -18.2670  -9.9942  -9.9832  -9.9305  -9.9291  -9.8656  -9.8637
    -8.6027  -8.5358  -8.3927  -8.3749  -8.2134  -8.1691  -8.0849  -8.0558
     0.3580   0.4050   0.6052   0.7025   0.7417   0.9477   1.0657   1.1443
     1.2273   1.2421   1.3205   1.3854   1.4852   1.6472   1.8327   1.8732
     1.8929   2.0305   2.1112   2.2180   2.2743   2.2810   2.4471   2.5459
     6.3549   6.4762   6.5872   6.6621   6.7431   6.7655   6.8094   6.9964
     7.1680   7.2625   7.3604   7.4433   7.4973   7.5476   7.5666   7.6322

     occupation numbers
     1.0000   1.0000   1.0000   1.0000   1.0000   1.0000   1.0000   1.0000
     1.0000   1.0000   1.0000   1.0000   1.0000   1.0000   1.0000   1.0000
     1.0000   1.0000   1.0000   1.0000   1.0000   1.0000   1.0000   1.0000
     1.0000   1.0000   1.0000   1.0000   1.0000   1.0000   1.0000   1.0000
     1.0000   1.0000   1.0000   1.0000   1.0000   1.0000   1.0000   1.0000
     1.0000   1.0000   1.0000   1.0000   1.0000   1.0000   1.0000   1.0000
     0.0000   0.0000   0.0000   0.0000   0.0000   0.0000   0.0000   0.0000
     0.0000   0.0000   0.0000   0.0000   0.0000   0.0000   0.0000   0.0000

     highest occupied, lowest unoccupied level (ev):     2.6755    6.2383

!    total energy              =   -4054.96199987 Ry
     estimated scf accuracy    <       0.00000049 Ry

     The total energy is the sum of the following terms:
     one-electron contribution =    -132.30404092 Ry
     hartree contribution      =      99.64438979 Ry
     xc contribution           =    -398.40766076 Ry
     ewald contribution        =    -309.78628607 Ry
     one-center paw contrib.   =   -3314.10840191 Ry
      -> PAW hartree energy AE =      56.58927258 Ry
      -> PAW hartree energy PS =     -56.36570076 Ry
      -> PAW xc energy AE      =    -788.31569084 Ry
      -> PAW xc energy PS      =      38.19544922 Ry
      -> total E_H with PAW    =      99.86796161 Ry
      -> total E_XC with PAW   =   -1148.52790238 Ry

     convergence has been achieved in  11 iterations

     Writing all to output data dir calculations_bands_val/myprefix.save/

     General routines

     Parallel routines

     PAW routines

   This run was terminated on:  11:11:46   4Jun2023

   JOB DONE.