     Program PWSCF v.7.0 starts on  4Jun2023 at 12:56:39

     K-points division:     npool     =       2
     R & G space division:  proc/nbgrp/npool/nimage =       4

     Reading input from espresso_507.pwi
Warning: card &CELL ignored
Warning: card / ignored

     Current dimensions of program PWSCF are:
     Max number of different atomic species (ntypx) = 10
     Max number of k-points (npk) =  40000
     Max angular momentum in pseudopotentials (lmaxx) =  4
     file O.pbe-n-kjpaw_psl.0.1.UPF: wavefunction(s)  2P renormalized
     Message from routine setup:
     using ibrav=0 with symmetry is DISCOURAGED, use correct ibrav instead

     Using Slab Decomposition

     bravais-lattice index     =            0
     lattice parameter (alat)  =      13.5708  a.u.
     unit-cell volume          =     654.4340 (a.u.)^3
     number of atoms/cell      =            6
     number of atomic types    =            3
     number of electrons       =        48.00
     number of Kohn-Sham states=           64
     kinetic-energy cutoff     =      30.0000  Ry
     charge density cutoff     =     240.0000  Ry
     scf convergence threshold =      1.0E-06
     mixing beta               =       0.7000
     number of iterations used =            8  plain     mixing
     Exchange-correlation=  SLA  PW   PBX  PBC
                           (   1   4   3   4   0   0   0)

     celldm(1)=  13.570809  celldm(2)=   0.000000  celldm(3)=   0.000000
     celldm(4)=   0.000000  celldm(5)=   0.000000  celldm(6)=   0.000000

     crystal axes: (cart. coord. in units of alat)
               a(1) = (   1.000000   0.000000   0.000000 )
               a(2) = (   0.840054   0.542502   0.000000 )
               a(3) = (   0.840054   0.247673   0.482666 )

     reciprocal axes: (cart. coord. in units 2 pi/alat)
               b(1) = (  1.000000 -1.548481 -0.945866 )
               b(2) = (  0.000000  1.843310 -0.945866 )
               b(3) = (  0.000000  0.000000  2.071824 )

     PseudoPot. # 1 for La read from file:
     /home/pragov/projects/rrg-bengioy-ad/pragov/crystal_structure_design/SSSP/La.GGA-PBE-paw-v1.0.UPF
     MD5 check sum: 436541e95c1ad8901025bd0b0ed42ae2
     Pseudo is Projector augmented-wave + core cor, Zval = 11.0
     Generated using ATOMPAW code
     Shape of augmentation charge: BESSEL
     Using radial grid of 1101 points,  8 beta functions with:
                l(1) =   0
                l(2) =   0
                l(3) =   1
                l(4) =   1
                l(5) =   2
                l(6) =   2
                l(7) =   3
                l(8) =   3
     Q(r) pseudized with 0 coefficients

     PseudoPot. # 2 for O  read from file:
     /home/pragov/projects/rrg-bengioy-ad/pragov/crystal_structure_design/SSSP/O.pbe-n-kjpaw_psl.0.1.UPF
     MD5 check sum: 0234752ac141de4415c5fc33072bef88
     Pseudo is Projector augmented-wave + core cor, Zval =  6.0
     Generated using "atomic" code by A. Dal Corso  v.5.0.99 svn rev. 10869
     Shape of augmentation charge: BESSEL
     Using radial grid of 1095 points,  4 beta functions with:
                l(1) =   0
                l(2) =   0
                l(3) =   1
                l(4) =   1
     Q(r) pseudized with 0 coefficients

     PseudoPot. # 3 for F  read from file:
     /home/pragov/projects/rrg-bengioy-ad/pragov/crystal_structure_design/SSSP/f_pbe_v1.4.uspp.F.UPF
     MD5 check sum: 4c38b6a325caf53ec0e86aed9459de46
     Pseudo is Ultrasoft, Zval =  7.0
     Generated by new atomic code, or converted to UPF format
     Using radial grid of  799 points,  4 beta functions with:
                l(1) =   0
                l(2) =   0
                l(3) =   1
                l(4) =   1
     Q(r) pseudized with  8 coefficients,  rinner =    0.950   0.950   0.950

     atomic species   valence    mass     pseudopotential
        La            11.00   138.90547     La( 1.00)
        O              6.00    15.99900     O ( 1.00)
        F              7.00    18.99840     F ( 1.00)

      2 Sym. Ops., with inversion, found

                                    s                        frac. trans.

      isym =  1     identity

 cryst.   s( 1) = (     1          0          0      )
                  (     0          1          0      )
                  (     0          0          1      )

 cart.    s( 1) = (  1.0000000 -0.0000000  0.0000000 )
                  (  0.0000000  1.0000000  0.0000000 )
                  (  0.0000000  0.0000000  1.0000000 )

      isym =  2     inversion

 cryst.   s( 2) = (    -1          0          0      )
                  (     0         -1          0      )
                  (     0          0         -1      )

 cart.    s( 2) = ( -1.0000000  0.0000000 -0.0000000 )
                  (  0.0000000 -1.0000000 -0.0000000 )
                  (  0.0000000  0.0000000 -1.0000000 )

   Cartesian axes

     site n.     atom                  positions (alat units)
         1           La  tau(   1) = (   1.9866870   0.5857338   0.3577867  )
         2           La  tau(   2) = (   0.6934219   0.2044412   0.1248798  )
         3           O   tau(   3) = (   1.6705922   0.4925398   0.3008605  )
         4           O   tau(   4) = (   1.0095166   0.2976352   0.1818060  )
         5           F   tau(   5) = (   0.3450855   0.1017414   0.0621472  )
         6           F   tau(   6) = (   2.3350234   0.6884337   0.4205193  )

   Crystallographic axes

     site n.     atom                  positions (cryst. coord.)
         1           La  tau(   1) = (  0.7412710  0.7412710  0.7412710  )
         2           La  tau(   2) = (  0.2587290  0.2587290  0.2587290  )
         3           O   tau(   3) = (  0.6233300  0.6233300  0.6233300  )
         4           O   tau(   4) = (  0.3766700  0.3766700  0.3766700  )
         5           F   tau(   5) = (  0.1287580  0.1287580  0.1287580  )
         6           F   tau(   6) = (  0.8712420  0.8712420  0.8712420  )

     number of k points=    14
                       cart. coord. in units 2pi/alat
        k(    1) = (   0.0000000   0.0000000   0.0000000), wk =   0.0740741
        k(    2) = (   0.0000000   0.0000000   0.6906080), wk =   0.1481481
        k(    3) = (   0.0000000   0.6144368  -0.3152887), wk =   0.1481481
        k(    4) = (   0.0000000   0.6144368   0.3753193), wk =   0.1481481
        k(    5) = (   0.0000000   0.6144368  -1.0058967), wk =   0.1481481
        k(    6) = (   0.3333333  -0.5161603  -0.3152887), wk =   0.1481481
        k(    7) = (   0.3333333  -0.5161603   0.3753193), wk =   0.1481481
        k(    8) = (   0.3333333  -0.5161603  -1.0058967), wk =   0.1481481
        k(    9) = (   0.3333333   0.0982765  -0.6305774), wk =   0.1481481
        k(   10) = (   0.3333333   0.0982765   0.0600306), wk =   0.1481481
        k(   11) = (   0.3333333   0.0982765  -1.3211854), wk =   0.1481481
        k(   12) = (   0.3333333  -1.1305971   0.0000000), wk =   0.1481481
        k(   13) = (   0.3333333  -1.1305971   0.6906080), wk =   0.1481481
        k(   14) = (   0.3333333  -1.1305971  -0.6906080), wk =   0.1481481

                       cryst. coord.
        k(    1) = (   0.0000000   0.0000000   0.0000000), wk =   0.0740741
        k(    2) = (   0.0000000   0.0000000   0.3333333), wk =   0.1481481
        k(    3) = (   0.0000000   0.3333333   0.0000000), wk =   0.1481481
        k(    4) = (   0.0000000   0.3333333   0.3333333), wk =   0.1481481
        k(    5) = (   0.0000000   0.3333333  -0.3333333), wk =   0.1481481
        k(    6) = (   0.3333333  -0.0000000  -0.0000000), wk =   0.1481481
        k(    7) = (   0.3333333  -0.0000000   0.3333333), wk =   0.1481481
        k(    8) = (   0.3333333  -0.0000000  -0.3333333), wk =   0.1481481
        k(    9) = (   0.3333333   0.3333333   0.0000000), wk =   0.1481481
        k(   10) = (   0.3333333   0.3333333   0.3333333), wk =   0.1481481
        k(   11) = (   0.3333333   0.3333333  -0.3333333), wk =   0.1481481
        k(   12) = (   0.3333333  -0.3333333   0.0000000), wk =   0.1481481
        k(   13) = (   0.3333333  -0.3333333   0.3333333), wk =   0.1481481
        k(   14) = (   0.3333333  -0.3333333  -0.3333333), wk =   0.1481481

     Check: negative core charge=   -0.000007

     Initial potential from superposition of free atoms

     starting charge      47.9829, renormalised to      48.0000
     Starting wfcs are   80 randomized atomic wfcs
     Checking if some PAW data can be deallocated...

     Self-consistent Calculation

     iteration #  1     ecut=    30.00 Ry     beta= 0.70
     Davidson diagonalization with overlap

     ethr =  1.00E-02,  avg # of iterations =  7.4

     total energy              =   -1097.25434094 Ry
     estimated scf accuracy    <       1.41912389 Ry

[...]

     total energy              =   -1097.95933106 Ry
     estimated scf accuracy    <       0.00001054 Ry

     iteration #  9     ecut=    30.00 Ry     beta= 0.70
     Davidson diagonalization with overlap

     ethr =  2.20E-08,  avg # of iterations =  2.0

     End of self-consistent calculation

          k = 0.0000 0.0000 0.0000 (  1811 PWs)   bands (ev):

   -21.7095 -21.5393 -13.9229 -13.5726  -8.3393  -7.3325  -5.2497  -5.2497
    -5.0589  -5.0589  -5.0217  -4.1977   3.8644   4.0162   4.0162   4.6373
     4.6373   4.9706   6.8400   6.8460   6.8460   7.0094   7.0094   7.7536
    12.7666  13.4139  13.4139  13.4553  13.5398  13.5399  13.5442  13.5442
    13.5552  13.5910  13.5911  13.6054  13.6207  13.7715  13.9943  14.3991
    14.3991  14.9388  14.9388  15.6452  16.0875  17.9160  17.9160  18.4642
    18.4642  19.1140  20.4689  22.9517  23.0049  23.0049  25.9985  25.9985
    26.3498  28.3276  28.3276  28.4281  30.1555  30.1555  31.1056  31.3026

     occupation numbers
     1.0000   1.0000   1.0000   1.0000   1.0000   1.0000   1.0000   1.0000
     1.0000   1.0000   1.0000   1.0000   1.0000   1.0000   1.0000   1.0000
     1.0000   1.0000   1.0000   1.0000   1.0000   1.0000   1.0000   1.0000
     0.0000   0.0000   0.0000   0.0000   0.0000   0.0000   0.0000   0.0000
     0.0000   0.0000   0.0000   0.0000   0.0000   0.0000   0.0000   0.0000
     0.0000   0.0000   0.0000   0.0000   0.0000   0.0000   0.0000   0.0000
     0.0000   0.0000   0.0000   0.0000   0.0000   0.0000   0.0000   0.0000
     0.0000   0.0000   0.0000   0.0000   0.0000   0.0000   0.0000   0.0000

[...]

          k = 0.3333-1.1306-0.6906 (  1806 PWs)   bands (ev):

   -21.5699 -21.5205 -13.9207 -13.7301  -8.6500  -8.2745  -5.4258  -5.4139
    -5.2191  -5.1036  -4.2805  -3.7532   4.1394   4.3080   4.3787   4.8979
     4.9754   5.0135   6.5339   6.7960   6.8802   7.3471   7.5857   7.7220
    12.8824  13.2399  13.2833  13.3993  13.4185  13.4501  13.4650  13.5026
    13.5959  13.6072  13.6458  13.6727  13.6743  13.8643  14.0463  14.5637
    14.6835  15.6415  15.7587  16.1744  16.8903  17.3581  17.7402  17.7795
    17.8751  18.3815  21.1057  23.1961  23.3154  23.4986  24.2348  25.9464
    26.5247  26.6052  26.8314  28.3485  28.3948  28.8670  29.9219  30.5786

     occupation numbers
     1.0000   1.0000   1.0000   1.0000   1.0000   1.0000   1.0000   1.0000
     1.0000   1.0000   1.0000   1.0000   1.0000   1.0000   1.0000   1.0000
     1.0000   1.0000   1.0000   1.0000   1.0000   1.0000   1.0000   1.0000
     0.0000   0.0000   0.0000   0.0000   0.0000   0.0000   0.0000   0.0000
     0.0000   0.0000   0.0000   0.0000   0.0000   0.0000   0.0000   0.0000
     0.0000   0.0000   0.0000   0.0000   0.0000   0.0000   0.0000   0.0000
     0.0000   0.0000   0.0000   0.0000   0.0000   0.0000   0.0000   0.0000
     0.0000   0.0000   0.0000   0.0000   0.0000   0.0000   0.0000   0.0000

     highest occupied, lowest unoccupied level (ev):     8.1853   12.4498

!    total energy              =   -1097.95933315 Ry
     estimated scf accuracy    <       0.00000038 Ry

     The total energy is the sum of the following terms:
     one-electron contribution =     -66.02383336 Ry
     hartree contribution      =      66.24774858 Ry
     xc contribution           =     -51.44132132 Ry
     ewald contribution        =    -231.49500725 Ry
     one-center paw contrib.   =    -815.24691980 Ry
      -> PAW hartree energy AE =      34.95656759 Ry
      -> PAW hartree energy PS =     -35.00827831 Ry
      -> PAW xc energy AE      =    -405.35828309 Ry
      -> PAW xc energy PS      =       7.31064718 Ry
      -> total E_H with PAW    =      66.19603786 Ry
      -> total E_XC with PAW   =    -449.48895723 Ry

     convergence has been achieved in   9 iterations

     Writing all to output data dir calculations_bands_val/myprefix.save/

     General routines

     Parallel routines

     PAW routines

   This run was terminated on:  12:56:52   4Jun2023

   JOB DONE.