     Program PWSCF v.7.0 starts on  4Jun2023 at 11:38: 9

     K-points division:     npool     =       2
     R & G space division:  proc/nbgrp/npool/nimage =       4

     Reading input from espresso_257.pwi
Warning: card &CELL ignored
Warning: card / ignored

     Current dimensions of program PWSCF are:
     Max number of different atomic species (ntypx) = 10
     Max number of k-points (npk) =  40000
     Max angular momentum in pseudopotentials (lmaxx) =  4
     file Ga.pbe-dn-kjpaw_psl.1.0.0.UPF: wavefunction(s)  4S renormalized
     Message from routine setup:
     using ibrav=0 with symmetry is DISCOURAGED, use correct ibrav instead

     Using Slab Decomposition

     bravais-lattice index     =            0
     lattice parameter (alat)  =       7.6463  a.u.
     unit-cell volume          =     480.7248 (a.u.)^3
     number of atoms/cell      =            6
     number of atomic types    =            2
     number of electrons       =        98.00
     number of Kohn-Sham states=           64
     kinetic-energy cutoff     =      30.0000  Ry
     charge density cutoff     =     240.0000  Ry
     scf convergence threshold =      1.0E-06
     mixing beta               =       0.7000
     number of iterations used =            8  plain     mixing
     Exchange-correlation=  SLA  PW   PBX  PBC
                           (   1   4   3   4   0   0   0)

     celldm(1)=   7.646261  celldm(2)=   0.000000  celldm(3)=   0.000000
     celldm(4)=   0.000000  celldm(5)=   0.000000  celldm(6)=   0.000000

     crystal axes: (cart. coord. in units of alat)
               a(1) = (   1.000000   0.000000   0.000000 )
               a(2) = (  -0.500000   0.866026   0.000000 )
               a(3) = (   0.000000   0.000000   1.241705 )

     reciprocal axes: (cart. coord. in units 2 pi/alat)
               b(1) = (  1.000000  0.577350  0.000000 )
               b(2) = (  0.000000  1.154700  0.000000 )
               b(3) = (  0.000000  0.000000  0.805344 )

     PseudoPot. # 1 for Ga read from file:
     /home/pragov/projects/rrg-bengioy-ad/pragov/crystal_structure_design/SSSP/Ga.pbe-dn-kjpaw_psl.1.0.0.UPF
     MD5 check sum: a27b4342b1af7e5f338de752e9ed7044
     Pseudo is Projector augmented-wave + core cor, Zval = 13.0
     Generated using "atomic" code by A. Dal Corso  v.5.1
     Shape of augmentation charge: PSQ
     Using radial grid of 1205 points,  6 beta functions with:
                l(1) =   0
                l(2) =   0
                l(3) =   1
                l(4) =   1
                l(5) =   2
                l(6) =   2
     Q(r) pseudized with 0 coefficients

     PseudoPot. # 2 for Ni read from file:
     /home/pragov/projects/rrg-bengioy-ad/pragov/crystal_structure_design/SSSP/ni_pbe_v1.4.uspp.F.UPF
     MD5 check sum: 1ee80287db30b12d2bc1f57a5b5d6409
     Pseudo is Ultrasoft + core correction, Zval = 18.0
     Generated by new atomic code, or converted to UPF format
     Using radial grid of  865 points,  6 beta functions with:
                l(1) =   0
                l(2) =   0
                l(3) =   1
                l(4) =   1
                l(5) =   2
                l(6) =   2
     Q(r) pseudized with 10 coefficients,  rinner =    0.980   0.980   0.980
                                                       0.980   0.980

     atomic species   valence    mass     pseudopotential
        Ga            13.00    69.72300     Ga( 1.00)
        Ni            18.00    58.69340     Ni( 1.00)

     24 Sym. Ops., with inversion, found (12 have fractional translation)

                                    s                        frac. trans.

      isym =  1     identity

 cryst.   s( 1) = (     1          0          0      )
                  (     0          1          0      )
                  (     0          0          1      )

 cart.    s( 1) = (  1.0000000  0.0000000  0.0000000 )
                  (  0.0000000  1.0000000  0.0000000 )
                  (  0.0000000  0.0000000  1.0000000 )

      isym =  2     180 deg rotation - cart. axis [0,0,1]

 cryst.   s( 2) = (    -1          0          0      )    f =( -0.0000000 )
                  (     0         -1          0      )       ( -0.0000000 )
                  (     0          0          1      )       ( -0.5000000 )

 cart.    s( 2) = ( -1.0000000 -0.0000000  0.0000000 )    f =(  0.0000000 )
                  (  0.0000000 -1.0000000  0.0000000 )       ( -0.0000000 )
                  (  0.0000000  0.0000000  1.0000000 )       ( -0.6208526 )

[...]

      isym =  4     180 deg rotation - cart. axis [1,0,0]

[...]

      isym =  5      60 deg rotation - cryst. axis [0,0,1]

[...]

 cryst.   s( 8) = (    -1         -1          0      )
                  (     1          0          0      )
                  (     0          0          1      )

 cart.    s( 8) = ( -0.5000003  0.8660253  0.0000000 )
                  ( -0.8660256 -0.4999997  0.0000000 )
                  (  0.0000000  0.0000000  1.0000000 )

[...]

 cryst.   s( 9) = (     0         -1          0      )    f =(  0.0000000 )
                  (    -1          0          0      )       (  0.0000000 )
                  (     0          0         -1      )       (  0.5000000 )

 cart.    s( 9) = (  0.4999997 -0.8660256  0.0000000 )    f =(  0.0000000 )
                  ( -0.8660256 -0.4999997  0.0000000 )       (  0.0000000 )
                  (  0.0000000  0.0000000 -1.0000000 )       (  0.6208526 )

[...]

 cryst.   s(10) = (     1          1          0      )    f =(  0.0000000 )
                  (     0         -1          0      )       ( -0.0000010 )
                  (     0          0         -1      )       (  0.5000000 )

 cart.    s(10) = (  0.5000003  0.8660249  0.0000000 )    f =(  0.0000005 )
                  (  0.8660256 -0.5000003  0.0000000 )       ( -0.0000009 )
                  (  0.0000000  0.0000000 -1.0000000 )       (  0.6208526 )

[...]

 cryst.   s(11) = (    -1         -1          0      )
                  (     0          1          0      )
                  (     0          0         -1      )

 cart.    s(11) = ( -0.5000003 -0.8660249  0.0000000 )
                  ( -0.8660256  0.5000003  0.0000000 )
                  (  0.0000000  0.0000000 -1.0000000 )

      isym = 12     180 deg rotation - cryst. axis [1,1,0]

[...]

      isym = 13     inversion

[...]

      isym = 14     inv. 180 deg rotation - cart. axis [0,0,1]

[...]

      isym = 16     inv. 180 deg rotation - cart. axis [1,0,0]

[...]

      isym = 17     inv.  60 deg rotation - cryst. axis [0,0,1]

[...]

 cryst.   s(22) = (    -1         -1          0      )    f =( -0.0000000 )
                  (     0          1          0      )       ( -0.0000010 )
                  (     0          0          1      )       ( -0.5000000 )

 cart.    s(22) = ( -0.5000003 -0.8660249  0.0000000 )    f =(  0.0000005 )
                  ( -0.8660256  0.5000003  0.0000000 )       ( -0.0000009 )
                  (  0.0000000  0.0000000  1.0000000 )       ( -0.6208526 )

[...]

      isym = 24     inv. 180 deg rotation - cryst. axis [1,1,0]

 cryst.   s(24) = (     0         -1          0      )
                  (    -1          0          0      )
                  (     0          0          1      )

 cart.    s(24) = (  0.4999997 -0.8660256  0.0000000 )
                  ( -0.8660256 -0.4999997  0.0000000 )
                  (  0.0000000  0.0000000  1.0000000 )

   Cartesian axes

     site n.     atom                  positions (alat units)
         1           Ga  tau(   1) = (  -0.0000003   0.5773507   0.3104263  )
         2           Ga  tau(   2) = (   0.5000006   0.2886749   0.9312789  )
         3           Ni  tau(   3) = (   0.0000000   0.0000000   0.0000000  )
         4           Ni  tau(   4) = (   0.5000006   0.2886749   0.3104263  )
         5           Ni  tau(   5) = (  -0.0000003   0.5773507   0.9312789  )
         6           Ni  tau(   6) = (   0.0000000   0.0000000   0.6208526  )

   Crystallographic axes

     site n.     atom                  positions (cryst. coord.)
         1           Ga  tau(   1) = (  0.3333330  0.6666670  0.2500000  )
         2           Ga  tau(   2) = (  0.6666670  0.3333330  0.7500000  )
         3           Ni  tau(   3) = (  0.0000000  0.0000000  0.0000000  )
         4           Ni  tau(   4) = (  0.6666670  0.3333330  0.2500000  )
         5           Ni  tau(   5) = (  0.3333330  0.6666670  0.7500000  )
         6           Ni  tau(   6) = (  0.0000000  0.0000000  0.5000000  )

     number of k points=     6
                       cart. coord. in units 2pi/alat
        k(    1) = (   0.0000000   0.0000000   0.0000000), wk =   0.0740741
        k(    2) = (   0.0000000   0.0000000   0.2684480), wk =   0.1481481
        k(    3) = (   0.0000000   0.3849001   0.0000000), wk =   0.4444444
        k(    4) = (   0.0000000   0.3849001   0.2684480), wk =   0.8888889
        k(    5) = (   0.3333333   0.5773501   0.0000000), wk =   0.1481481
        k(    6) = (   0.3333333   0.5773501   0.2684480), wk =   0.2962963

                       cryst. coord.
        k(    1) = (   0.0000000   0.0000000   0.0000000), wk =   0.0740741
        k(    2) = (   0.0000000   0.0000000   0.3333333), wk =   0.1481481
        k(    3) = (   0.0000000   0.3333333   0.0000000), wk =   0.4444444
        k(    4) = (   0.0000000   0.3333333   0.3333333), wk =   0.8888889
        k(    5) = (   0.3333333   0.3333333   0.0000000), wk =   0.1481481
        k(    6) = (   0.3333333   0.3333333   0.3333333), wk =   0.2962963

     Check: negative core charge=   -0.000009

     Initial potential from superposition of free atoms

     starting charge      89.9941, renormalised to      98.0000
     Starting wfcs are   70 randomized atomic wfcs
     Checking if some PAW data can be deallocated...

     Self-consistent Calculation

     iteration #  1     ecut=    30.00 Ry     beta= 0.70
     Davidson diagonalization with overlap

     ethr =  1.00E-02,  avg # of iterations =  3.2

     total energy              =   -1861.53631669 Ry
     estimated scf accuracy    <     106.75904945 Ry

[...]

     total energy              =   -1928.30618197 Ry
     estimated scf accuracy    <       0.00000892 Ry

     iteration # 26     ecut=    30.00 Ry     beta= 0.70
     Davidson diagonalization with overlap

     ethr =  9.10E-09,  avg # of iterations =  1.7

     End of self-consistent calculation

          k = 0.0000 0.0000 0.0000 (  1373 PWs)   bands (ev):

   -86.9408 -86.9368 -86.9360 -86.9326 -47.4800 -47.3444 -47.3223 -47.3223
   -47.3186 -47.3186 -47.2673 -47.2497 -47.2180 -47.2180 -47.2071 -47.2071
     1.6234   1.6691   1.6706   1.6706   1.6943   1.6943   1.6957   1.6957
     1.7733   1.7734   5.3618  10.0631  11.4242  12.5204  12.5204  13.3527
    13.5420  13.5420  13.6756  13.6756  13.8671  13.8671  14.8480  14.8480
    15.1034  15.4195  15.4196  15.4538  15.4538  15.9655  15.9655  16.0167
    16.6615  20.1013  20.1015  20.4441  20.4442  20.5033  21.8794  22.1584
    22.8621  22.8623  26.1005  26.1006  26.2409  28.0865  28.0867  28.8758

     occupation numbers
     1.0000   1.0000   1.0000   1.0000   1.0000   1.0000   1.0000   1.0000
     1.0000   1.0000   1.0000   1.0000   1.0000   1.0000   1.0000   1.0000
     1.0000   1.0000   1.0000   1.0000   1.0000   1.0000   1.0000   1.0000
     1.0000   1.0000   1.0000   1.0000   1.0000   1.0000   1.0000   1.0000
     1.0000   1.0000   1.0000   1.0000   1.0000   1.0000   1.0000   1.0000
     1.0000   1.0000   1.0000   1.0000   1.0000   1.0000   1.0000   1.0000
     1.0000   0.0000   0.0000   0.0000   0.0000   0.0000   0.0000   0.0000
     0.0000   0.0000   0.0000   0.0000   0.0000   0.0000   0.0000   0.0000

[...]

          k = 0.3333 0.5774 0.2684 (  1335 PWs)   bands (ev):

   -86.9336 -86.9308 -86.9307 -86.9291 -47.4365 -47.3733 -47.3051 -47.3050
   -47.2970 -47.2929 -47.2626 -47.2626 -47.1980 -47.1980 -47.1870 -47.1870
     1.6658   1.6659   1.6688   1.6734   1.6985   1.7021   1.7024   1.7307
     1.7308   1.7509   9.1635   9.1637  11.1987  11.5109  11.5110  12.7477
    13.5029  13.5029  14.0290  14.1248  14.1248  14.2726  14.4873  14.4873
    14.7975  15.0807  15.2205  15.2205  15.4054  15.4768  15.4768  15.7013
    15.7013  15.9291  16.6848  16.6848  22.0715  22.0717  24.2952  25.5518
    25.8952  25.8953  26.6950  26.6951  27.1223  29.2595  29.2597  29.9907

     occupation numbers
     1.0000   1.0000   1.0000   1.0000   1.0000   1.0000   1.0000   1.0000
     1.0000   1.0000   1.0000   1.0000   1.0000   1.0000   1.0000   1.0000
     1.0000   1.0000   1.0000   1.0000   1.0000   1.0000   1.0000   1.0000
     1.0000   1.0000   1.0000   1.0000   1.0000   1.0000   1.0000   1.0000
     1.0000   1.0000   1.0000   1.0000   1.0000   1.0000   1.0000   1.0000
     1.0000   1.0000   1.0000   1.0000   1.0000   1.0000   1.0000   1.0000
     1.0000   0.0000   0.0000   0.0000   0.0000   0.0000   0.0000   0.0000
     0.0000   0.0000   0.0000   0.0000   0.0000   0.0000   0.0000   0.0000

     highest occupied, lowest unoccupied level (ev):    18.8371   15.9291

!    total energy              =   -1928.30618287 Ry
     estimated scf accuracy    <       0.00000001 Ry

     The total energy is the sum of the following terms:
     one-electron contribution =    -962.99195532 Ry
     hartree contribution      =     558.51814155 Ry
     xc contribution           =    -218.72453168 Ry
     ewald contribution        =   -1083.21689100 Ry
     one-center paw contrib.   =    -221.89094642 Ry
      -> PAW hartree energy AE =     143.16763608 Ry
      -> PAW hartree energy PS =    -140.96323250 Ry
      -> PAW xc energy AE      =    -150.95061916 Ry
      -> PAW xc energy PS      =      37.80074236 Ry
      -> total E_H with PAW    =     560.72254514 Ry
      -> total E_XC with PAW   =    -331.87440848 Ry

     convergence has been achieved in  26 iterations

     Writing all to output data dir calculations_bands_val/myprefix.save/

     General routines

     Parallel routines

     PAW routines

   This run was terminated on:  11:38:18   4Jun2023

   JOB DONE.