     Program PWSCF v.7.0 starts on  4Jun2023 at 14:50:12

     K-points division:     npool     =       2
     R & G space division:  proc/nbgrp/npool/nimage =       4

     Reading input from espresso_810.pwi
Warning: card &CELL ignored
Warning: card / ignored

     Current dimensions of program PWSCF are:
     Max number of different atomic species (ntypx) = 10
     Max number of k-points (npk) =  40000
     Max angular momentum in pseudopotentials (lmaxx) =  4
     Message from routine setup:
     using ibrav=0 with symmetry is DISCOURAGED, use correct ibrav instead

     Using Slab Decomposition

     bravais-lattice index     =            0
     lattice parameter (alat)  =       7.2193  a.u.
     unit-cell volume          =    1150.1849 (a.u.)^3
     number of atoms/cell      =            8
     number of atomic types    =            2
     number of electrons       =       100.00
     number of Kohn-Sham states=           64
     kinetic-energy cutoff     =      30.0000  Ry
     charge density cutoff     =     240.0000  Ry
     scf convergence threshold =      1.0E-06
     mixing beta               =       0.7000
     number of iterations used =            8  plain     mixing
     Exchange-correlation= PBE
                           (   1   4   3   4   0   0   0)

     celldm(1)=   7.219309  celldm(2)=   0.000000  celldm(3)=   0.000000
     celldm(4)=   0.000000  celldm(5)=   0.000000  celldm(6)=   0.000000

     crystal axes: (cart. coord. in units of alat)
               a(1) = (   1.000000   0.000000   0.000000 )
               a(2) = (   0.000000   1.483664   0.000000 )
               a(3) = (   0.000000   0.000000   2.060369 )

     reciprocal axes: (cart. coord. in units 2 pi/alat)
               b(1) = (  1.000000  0.000000  0.000000 )
               b(2) = (  0.000000  0.674007  0.000000 )
               b(3) = (  0.000000  0.000000  0.485350 )

     PseudoPot. # 1 for Ho read from file:
     /home/pragov/projects/rrg-bengioy-ad/pragov/crystal_structure_design/SSSP/Ho.GGA-PBE-paw-v1.0.UPF
     MD5 check sum: 3d93cae5f38e6cc822e0e70538981326
     Pseudo is Projector augmented-wave + core cor, Zval = 21.0
     Generated using ATOMPAW code
     Shape of augmentation charge: BESSEL
     Using radial grid of 1114 points,  8 beta functions with:
                l(1) =   0
                l(2) =   0
                l(3) =   1
                l(4) =   1
                l(5) =   2
                l(6) =   2
                l(7) =   3
                l(8) =   3
     Q(r) pseudized with 0 coefficients

     PseudoPot. # 2 for Si read from file:
     /home/pragov/projects/rrg-bengioy-ad/pragov/crystal_structure_design/SSSP/Si.pbe-n-rrkjus_psl.1.0.0.UPF
     MD5 check sum: 0b0bb1205258b0d07b9f9672cf965d36
     Pseudo is Ultrasoft + core correction, Zval =  4.0
     Generated using "atomic" code by A. Dal Corso  v.5.1
     Using radial grid of 1141 points,  6 beta functions with:
                l(1) =   0
                l(2) =   0
                l(3) =   1
                l(4) =   1
                l(5) =   2
                l(6) =   2
     Q(r) pseudized with 0 coefficients

     atomic species   valence    mass     pseudopotential
        Ho            21.00   164.93033     Ho( 1.00)
        Si             4.00    28.08500     Si( 1.00)

      8 Sym. Ops., with inversion, found ( 6 have fractional translation)

                                    s                        frac. trans.

      isym =  1     identity

 cryst.   s( 1) = (     1          0          0      )
                  (     0          1          0      )
                  (     0          0          1      )

 cart.    s( 1) = (  1.0000000  0.0000000  0.0000000 )
                  (  0.0000000  1.0000000  0.0000000 )
                  (  0.0000000  0.0000000  1.0000000 )

      isym =  2     180 deg rotation - cart. axis [0,0,1]

 cryst.   s( 2) = (    -1          0          0      )    f =(  0.5000000 )
                  (     0         -1          0      )       (  0.5000000 )
                  (     0          0          1      )       (  0.5000000 )

 cart.    s( 2) = ( -1.0000000  0.0000000  0.0000000 )    f =(  0.5000000 )
                  (  0.0000000 -1.0000000  0.0000000 )       (  0.7418320 )
                  (  0.0000000  0.0000000  1.0000000 )       (  1.0301847 )

[...]

      isym =  4     180 deg rotation - cart. axis [1,0,0]

[...]

      isym =  5     inversion

 cryst.   s( 5) = (    -1          0          0      )
                  (     0         -1          0      )
                  (     0          0         -1      )

 cart.    s( 5) = ( -1.0000000  0.0000000  0.0000000 )
                  (  0.0000000 -1.0000000  0.0000000 )
                  (  0.0000000  0.0000000 -1.0000000 )

      isym =  6     inv. 180 deg rotation - cart. axis [0,0,1]

[...]

      isym =  8     inv. 180 deg rotation - cart. axis [1,0,0]

 cryst.   s( 8) = (    -1          0          0      )    f =(  0.5000000 )
                  (     0          1          0      )       (  0.0000000 )
                  (     0          0          1      )       (  0.0000000 )

 cart.    s( 8) = ( -1.0000000  0.0000000  0.0000000 )    f =(  0.5000000 )
                  (  0.0000000  1.0000000  0.0000000 )       (  0.0000000 )
                  (  0.0000000  0.0000000  1.0000000 )       (  0.0000000 )

   Cartesian axes

     site n.     atom                  positions (alat units)
         1           Ho  tau(   1) = (   0.2500000   0.1703736   1.6909349  )
         2           Ho  tau(   2) = (   0.7500000   1.3132905   0.3694345  )
         3           Ho  tau(   3) = (   0.7500000   0.9122056   1.3996193  )
         4           Ho  tau(   4) = (   0.2500000   0.5714584   0.6607502  )
         5           Si  tau(   5) = (   0.2500000   0.9352173   1.9813625  )
         6           Si  tau(   6) = (   0.7500000   0.5484468   0.0790069  )
         7           Si  tau(   7) = (   0.7500000   0.1933852   1.1091916  )
         8           Si  tau(   8) = (   0.2500000   1.2902789   0.9511778  )

   Crystallographic axes

     site n.     atom                  positions (cryst. coord.)
         1           Ho  tau(   1) = (  0.2500000  0.1148330  0.8206950  )
         2           Ho  tau(   2) = (  0.7500000  0.8851670  0.1793050  )
         3           Ho  tau(   3) = (  0.7500000  0.6148330  0.6793050  )
         4           Ho  tau(   4) = (  0.2500000  0.3851670  0.3206950  )
         5           Si  tau(   5) = (  0.2500000  0.6303430  0.9616540  )
         6           Si  tau(   6) = (  0.7500000  0.3696570  0.0383460  )
         7           Si  tau(   7) = (  0.7500000  0.1303430  0.5383460  )
         8           Si  tau(   8) = (  0.2500000  0.8696570  0.4616540  )

     number of k points=     8
                       cart. coord. in units 2pi/alat
        k(    1) = (   0.0000000   0.0000000   0.0000000), wk =   0.0740741
        k(    2) = (   0.0000000   0.0000000   0.1617833), wk =   0.1481481
        k(    3) = (   0.0000000   0.2246690   0.0000000), wk =   0.1481481
        k(    4) = (   0.0000000   0.2246690   0.1617833), wk =   0.2962963
        k(    5) = (   0.3333333   0.0000000   0.0000000), wk =   0.1481481
        k(    6) = (   0.3333333   0.0000000   0.1617833), wk =   0.2962963
        k(    7) = (   0.3333333   0.2246690   0.0000000), wk =   0.2962963
        k(    8) = (   0.3333333   0.2246690   0.1617833), wk =   0.5925926

                       cryst. coord.
        k(    1) = (   0.0000000   0.0000000   0.0000000), wk =   0.0740741
        k(    2) = (   0.0000000   0.0000000   0.3333333), wk =   0.1481481
        k(    3) = (   0.0000000   0.3333333   0.0000000), wk =   0.1481481
        k(    4) = (   0.0000000   0.3333333   0.3333333), wk =   0.2962963
        k(    5) = (   0.3333333   0.0000000   0.0000000), wk =   0.1481481
        k(    6) = (   0.3333333   0.0000000   0.3333333), wk =   0.2962963
        k(    7) = (   0.3333333   0.3333333   0.0000000), wk =   0.2962963
        k(    8) = (   0.3333333   0.3333333   0.3333333), wk =   0.5925926

     Initial potential from superposition of free atoms

     starting charge      99.9806, renormalised to     100.0000
     Starting wfcs are  144 randomized atomic wfcs
     Checking if some PAW data can be deallocated...

     Self-consistent Calculation

     iteration #  1     ecut=    30.00 Ry     beta= 0.70
     Davidson diagonalization with overlap

     ethr =  1.00E-02,  avg # of iterations =  2.1

     total energy              =   -3342.41827003 Ry
     estimated scf accuracy    <      16.71435451 Ry

[...]

     total energy              =   -3363.68873445 Ry
     estimated scf accuracy    <       0.00000131 Ry

     iteration # 41     ecut=    30.00 Ry     beta= 0.70
     Davidson diagonalization with overlap

     ethr =  1.31E-09,  avg # of iterations =  1.0

     End of self-consistent calculation

          k = 0.0000 0.0000 0.0000 (  3187 PWs)   bands (ev):

   -33.9714 -33.9570 -33.9391 -33.9284  -9.4828  -9.4666  -9.3990  -9.3146
    -9.2207  -9.1875  -9.1426  -9.1192  -9.0495  -9.0436  -9.0371  -8.9854
     2.3077   3.3515   6.9686   7.3039   8.3819   9.6868  10.1288  10.5279
    10.8842  11.1418  11.2930  11.8974  12.1699  12.2213  12.2307  12.2836
    12.2928  12.3017  12.3029  12.3033  12.3166  12.3243  12.3358  12.3451
    12.3591  12.3695  12.3726  12.3760  12.3767  12.3770  12.4180  12.4199
    12.4290  12.4479  12.4572  12.4601  12.4888  12.5076  12.5282  12.7422
    13.8145  14.1790  14.4193  14.4374  14.8900  14.9641  15.0669  15.1787

     occupation numbers
     1.0000   1.0000   1.0000   1.0000   1.0000   1.0000   1.0000   1.0000
     1.0000   1.0000   1.0000   1.0000   1.0000   1.0000   1.0000   1.0000
     1.0000   1.0000   1.0000   1.0000   1.0000   1.0000   1.0000   1.0000
     1.0000   1.0000   1.0000   1.0000   1.0000   1.0000   1.0000   1.0000
     1.0000   1.0000   1.0000   1.0000   1.0000   1.0000   1.0000   1.0000
     1.0000   1.0000   1.0000   1.0000   1.0000   1.0000   1.0000   1.0000
     1.0000   1.0000   0.0000   0.0000   0.0000   0.0000   0.0000   0.0000
     0.0000   0.0000   0.0000   0.0000   0.0000   0.0000   0.0000   0.0000

[...]

          k = 0.3333 0.2247 0.1618 (  3187 PWs)   bands (ev):

   -33.9502 -33.9471 -33.9402 -33.9381  -9.4443  -9.4172  -9.3854  -9.3611
    -9.3207  -9.2834  -9.1808  -9.1642  -9.1297  -9.1128  -9.0752  -9.0578
     3.8401   4.0000   6.2938   6.3342   8.5276   8.7156   9.8879  10.3576
    10.6381  10.7380  11.4438  11.5415  12.1069  12.2129  12.2491  12.2712
    12.2879  12.2947  12.3004  12.3100  12.3124  12.3184  12.3296  12.3395
    12.3501  12.3563  12.3796  12.3921  12.4089  12.4203  12.4307  12.4393
    12.4438  12.4479  12.4668  12.4772  12.4880  12.5075  12.5429  12.5521
    12.6756  12.7976  13.3066  13.5584  14.7750  15.6683  15.7798  16.1003

     occupation numbers
     1.0000   1.0000   1.0000   1.0000   1.0000   1.0000   1.0000   1.0000
     1.0000   1.0000   1.0000   1.0000   1.0000   1.0000   1.0000   1.0000
     1.0000   1.0000   1.0000   1.0000   1.0000   1.0000   1.0000   1.0000
     1.0000   1.0000   1.0000   1.0000   1.0000   1.0000   1.0000   1.0000
     1.0000   1.0000   1.0000   1.0000   1.0000   1.0000   1.0000   1.0000
     1.0000   1.0000   1.0000   1.0000   1.0000   1.0000   1.0000   1.0000
     1.0000   1.0000   0.0000   0.0000   0.0000   0.0000   0.0000   0.0000
     0.0000   0.0000   0.0000   0.0000   0.0000   0.0000   0.0000   0.0000

     highest occupied, lowest unoccupied level (ev):    12.4549   12.4528

!    total energy              =   -3363.68873361 Ry
     estimated scf accuracy    <       0.00000022 Ry

     The total energy is the sum of the following terms:
     one-electron contribution =    -882.99910118 Ry
     hartree contribution      =     471.89282871 Ry
     xc contribution           =    -146.06481563 Ry
     ewald contribution        =    -869.47133489 Ry
     one-center paw contrib.   =   -1937.04631061 Ry
      -> PAW hartree energy AE =     297.70817097 Ry
      -> PAW hartree energy PS =    -271.58998059 Ry
      -> PAW xc energy AE      =    -539.56670256 Ry
      -> PAW xc energy PS      =      29.18693452 Ry
      -> total E_H with PAW    =     498.01101909 Ry
      -> total E_XC with PAW   =    -656.44458367 Ry

     convergence has been achieved in  41 iterations

     Writing all to output data dir calculations_bands_val/myprefix.save/

     General routines

     Parallel routines

     PAW routines

   This run was terminated on:  14:50:52   4Jun2023

   JOB DONE.