     Program PWSCF v.7.0 starts on  4Jun2023 at 11:13:56

     K-points division:     npool     =       2
     R & G space division:  proc/nbgrp/npool/nimage =       4

     Reading input from espresso_188.pwi
Warning: card &CELL ignored
Warning: card / ignored

     Current dimensions of program PWSCF are:
     Max number of different atomic species (ntypx) = 10
     Max number of k-points (npk) =  40000
     Max angular momentum in pseudopotentials (lmaxx) =  4
     file Mg.pbe-n-kjpaw_psl.0.3.0.UPF: wavefunction(s)  3S renormalized
     Message from routine setup:
     using ibrav=0 with symmetry is DISCOURAGED, use correct ibrav instead

     Using Slab Decomposition

     bravais-lattice index     =            0
     lattice parameter (alat)  =       9.9871  a.u.
     unit-cell volume          =     775.0818 (a.u.)^3
     number of atoms/cell      =           10
     number of atomic types    =            3
     number of electrons       =        64.00
     number of Kohn-Sham states=           64
     kinetic-energy cutoff     =      30.0000  Ry
     charge density cutoff     =     240.0000  Ry
     scf convergence threshold =      1.0E-06
     mixing beta               =       0.7000
     number of iterations used =            8  plain     mixing
     Exchange-correlation=  SLA  PW   PBX  PBC
                           (   1   4   3   4   0   0   0)

     celldm(1)=   9.987092  celldm(2)=   0.000000  celldm(3)=   0.000000
     celldm(4)=   0.000000  celldm(5)=   0.000000  celldm(6)=   0.000000

     crystal axes: (cart. coord. in units of alat)
               a(1) = (   1.000000   0.000000   0.000000 )
               a(2) = (  -0.834371   0.551203   0.000000 )
               a(3) = (   0.000000   0.000000   1.411622 )

     reciprocal axes: (cart. coord. in units 2 pi/alat)
               b(1) = (  1.000000  1.513726  0.000000 )
               b(2) = (  0.000000  1.814212  0.000000 )
               b(3) = (  0.000000  0.000000  0.708405 )

     PseudoPot. # 1 for Na read from file:
     /home/pragov/projects/rrg-bengioy-ad/pragov/crystal_structure_design/SSSP/na_pbe_v1.5.uspp.F.UPF
     MD5 check sum: 44600605ef58000f06b90626533354dc
     Pseudo is Ultrasoft, Zval =  9.0
     Generated by new atomic code, or converted to UPF format
     Using radial grid of  819 points,  5 beta functions with:
                l(1) =   0
                l(2) =   0
                l(3) =   1
                l(4) =   1
                l(5) =   2
     Q(r) pseudized with  8 coefficients,  rinner =    1.250   1.250   1.250
                                                       1.250   1.250

     PseudoPot. # 2 for Mg read from file:
     /home/pragov/projects/rrg-bengioy-ad/pragov/crystal_structure_design/SSSP/Mg.pbe-n-kjpaw_psl.0.3.0.UPF
     MD5 check sum: 24ecedc7f3e3cbe212e682f4413594e4
     Pseudo is Projector augmented-wave + core cor, Zval =  2.0
     Generated using "atomic" code by A. Dal Corso  v.5.0.99 svn rev. 10869
     Shape of augmentation charge: PSQ
     Using radial grid of 1129 points,  4 beta functions with:
                l(1) =   0
                l(2) =   0
                l(3) =   1
                l(4) =   1
     Q(r) pseudized with 0 coefficients

     PseudoPot. # 3 for F  read from file:
     /home/pragov/projects/rrg-bengioy-ad/pragov/crystal_structure_design/SSSP/f_pbe_v1.4.uspp.F.UPF
     MD5 check sum: 4c38b6a325caf53ec0e86aed9459de46
     Pseudo is Ultrasoft, Zval =  7.0
     Generated by new atomic code, or converted to UPF format
     Using radial grid of  799 points,  4 beta functions with:
                l(1) =   0
                l(2) =   0
                l(3) =   1
                l(4) =   1
     Q(r) pseudized with  8 coefficients,  rinner =    0.950   0.950   0.950

     atomic species   valence    mass     pseudopotential
        Na             9.00    22.98977     Na( 1.00)
        Mg             2.00    24.30500     Mg( 1.00)
        F              7.00    18.99840     F ( 1.00)

      4 Sym. Ops., with inversion, found ( 2 have fractional translation)

                                    s                        frac. trans.

      isym =  1     identity

 cryst.   s( 1) = (     1          0          0      )
                  (     0          1          0      )
                  (     0          0          1      )

 cart.    s( 1) = (  1.0000000 -0.0000000  0.0000000 )
                  (  0.0000000  1.0000000  0.0000000 )
                  (  0.0000000  0.0000000  1.0000000 )

      isym =  2     180 deg rotation - cart. axis [0,0,1]

 cryst.   s( 2) = (    -1          0          0      )    f =(  0.0000010 )
                  (     0         -1          0      )       (  0.0000010 )
                  (     0          0          1      )       ( -0.5000000 )

 cart.    s( 2) = ( -1.0000000  0.0000000  0.0000000 )    f =(  0.0000002 )
                  (  0.0000000 -1.0000000  0.0000000 )       (  0.0000006 )
                  (  0.0000000  0.0000000  1.0000000 )       ( -0.7058110 )

      isym =  3     inversion

 cryst.   s( 3) = (    -1          0          0      )
                  (     0         -1          0      )
                  (     0          0         -1      )

 cart.    s( 3) = ( -1.0000000  0.0000000  0.0000000 )
                  (  0.0000000 -1.0000000  0.0000000 )
                  (  0.0000000  0.0000000 -1.0000000 )

      isym =  4     inv. 180 deg rotation - cart. axis [0,0,1]

 cryst.   s( 4) = (     1          0          0      )    f =(  0.0000000 )
                  (     0          1          0      )       (  0.0000000 )
                  (     0          0         -1      )       ( -0.5000000 )

 cart.    s( 4) = (  1.0000000 -0.0000000  0.0000000 )    f =(  0.0000000 )
                  (  0.0000000  1.0000000  0.0000000 )       (  0.0000000 )
                  (  0.0000000  0.0000000 -1.0000000 )       ( -0.7058110 )

   Cartesian axes

     site n.     atom                  positions (alat units)
         1           Na  tau(   1) = (   0.5284630   0.1416901   1.0587165  )
         2           Na  tau(   2) = (  -0.3628340   0.4095127   0.3529055  )
         3           Mg  tau(   3) = (   0.0000000   0.0000000   0.7058110  )
         4           Mg  tau(   4) = (   0.0000000   0.0000000   0.0000000  )
         5           F   tau(   5) = (   0.3147726   0.2059015   0.6254488  )
         6           F   tau(   6) = (  -0.1491435   0.3453019   1.3312598  )
         7           F   tau(   7) = (   0.3147726   0.2059015   0.0803622  )
         8           F   tau(   8) = (  -0.1491435   0.3453019   0.7861732  )
         9           F   tau(   9) = (  -0.7037692   0.5119594   1.0587165  )
        10           F   tau(  10) = (   0.8693983   0.0392440   0.3529055  )

   Crystallographic axes

     site n.     atom                  positions (cryst. coord.)
         1           Na  tau(   1) = (  0.7429430  0.2570560  0.7500000  )
         2           Na  tau(   2) = (  0.2570560  0.7429430  0.2500000  )
         3           Mg  tau(   3) = (  0.0000000  0.0000000  0.5000000  )
         4           Mg  tau(   4) = (  0.0000000  0.0000000  0.0000000  )
         5           F   tau(   5) = (  0.6264510  0.3735490  0.4430710  )
         6           F   tau(   6) = (  0.3735490  0.6264510  0.9430710  )
         7           F   tau(   7) = (  0.6264510  0.3735490  0.0569290  )
         8           F   tau(   8) = (  0.3735490  0.6264510  0.5569290  )
         9           F   tau(   9) = (  0.0711970  0.9288030  0.7500000  )
        10           F   tau(  10) = (  0.9288030  0.0711970  0.2500000  )

     number of k points=    10
                       cart. coord. in units 2pi/alat
        k(    1) = (   0.0000000   0.0000000   0.0000000), wk =   0.0740741
        k(    2) = (   0.0000000   0.0000000   0.2361350), wk =   0.1481481
        k(    3) = (   0.0000000   0.6047374   0.0000000), wk =   0.1481481
        k(    4) = (   0.0000000   0.6047374   0.2361350), wk =   0.2962963
        k(    5) = (   0.3333333   0.5045753   0.0000000), wk =   0.1481481
        k(    6) = (   0.3333333   0.5045753   0.2361350), wk =   0.2962963
        k(    7) = (   0.3333333   1.1093127   0.0000000), wk =   0.1481481
        k(    8) = (   0.3333333   1.1093127   0.2361350), wk =   0.2962963
        k(    9) = (   0.3333333  -0.1001621   0.0000000), wk =   0.1481481
        k(   10) = (   0.3333333  -0.1001621   0.2361350), wk =   0.2962963

                       cryst. coord.
        k(    1) = (   0.0000000   0.0000000   0.0000000), wk =   0.0740741
        k(    2) = (   0.0000000   0.0000000   0.3333333), wk =   0.1481481
        k(    3) = (   0.0000000   0.3333333   0.0000000), wk =   0.1481481
        k(    4) = (   0.0000000   0.3333333   0.3333333), wk =   0.2962963
        k(    5) = (   0.3333333  -0.0000000   0.0000000), wk =   0.1481481
        k(    6) = (   0.3333333  -0.0000000   0.3333333), wk =   0.2962963
        k(    7) = (   0.3333333   0.3333333   0.0000000), wk =   0.1481481
        k(    8) = (   0.3333333   0.3333333   0.3333333), wk =   0.2962963
        k(    9) = (   0.3333333  -0.3333333   0.0000000), wk =   0.1481481
        k(   10) = (   0.3333333  -0.3333333   0.3333333), wk =   0.2962963

     Initial potential from superposition of free atoms

     starting charge      63.9856, renormalised to      64.0000
     Starting wfcs are   42 randomized atomic wfcs +   22 random wfcs
     Checking if some PAW data can be deallocated...

     Self-consistent Calculation

     iteration #  1     ecut=    30.00 Ry     beta= 0.70
     Davidson diagonalization with overlap

     ethr =  1.00E-02,  avg # of iterations =  8.4

     total energy              =    -550.53501044 Ry
     estimated scf accuracy    <       0.94554341 Ry

[...]

     total energy              =    -550.91757067 Ry
     estimated scf accuracy    <       0.00001859 Ry

     iteration #  6     ecut=    30.00 Ry     beta= 0.70
     Davidson diagonalization with overlap

     ethr =  2.90E-08,  avg # of iterations =  2.0

     End of self-consistent calculation

          k = 0.0000 0.0000 0.0000 (  2125 PWs)   bands (ev):

   -46.4400 -46.4391 -19.2424 -19.0617 -19.0267 -18.8043 -18.6600 -18.5691
   -18.2985 -18.2968 -18.2957 -18.1509 -18.0736 -18.0487  -1.8497  -1.7251
    -1.3425  -0.8070  -0.6706  -0.6563  -0.5270  -0.1691  -0.0346   0.0368
     0.1205   0.5034   0.5307   0.5830   0.5836   0.6986   0.8188   0.8971
     7.5328  10.8028  11.0112  12.6957  14.1624  14.2286  14.4186  15.1987
    15.7005  16.1578  16.9823  18.4884  18.7068  18.7758  19.4798  21.0188
    21.0798  21.6381  21.7372  22.0036  22.4368  22.6282  22.9796  23.0191
    23.5400  23.7073  25.7079  25.7601  25.8247  25.8733  25.9329  27.2822

     occupation numbers
     1.0000   1.0000   1.0000   1.0000   1.0000   1.0000   1.0000   1.0000
     1.0000   1.0000   1.0000   1.0000   1.0000   1.0000   1.0000   1.0000
     1.0000   1.0000   1.0000   1.0000   1.0000   1.0000   1.0000   1.0000
     1.0000   1.0000   1.0000   1.0000   1.0000   1.0000   1.0000   1.0000
     0.0000   0.0000   0.0000   0.0000   0.0000   0.0000   0.0000   0.0000
     0.0000   0.0000   0.0000   0.0000   0.0000   0.0000   0.0000   0.0000
     0.0000   0.0000   0.0000   0.0000   0.0000   0.0000   0.0000   0.0000
     0.0000   0.0000   0.0000   0.0000   0.0000   0.0000   0.0000   0.0000

[...]

          k = 0.3333-0.1002 0.2361 (  2127 PWs)   bands (ev):

   -46.4396 -46.4395 -19.2652 -19.1217 -18.8869 -18.8287 -18.6528 -18.5863
   -18.2982 -18.2968 -18.2614 -18.1628 -18.0897 -18.0846  -1.8662  -1.7110
    -1.1489  -0.9489  -0.7384  -0.3176  -0.1998  -0.0859  -0.0196   0.0219
     0.0876   0.1365   0.2235   0.5328   0.6541   0.6770   0.7349   0.7583
     9.0057  10.0436  11.1083  11.8910  13.0717  13.9060  15.3095  15.4291
    15.6456  16.2032  17.2542  17.9522  18.9659  19.2310  20.4101  20.7261
    21.3096  21.3752  21.4959  21.8266  22.3903  22.4913  22.5472  23.1709
    23.4257  23.5896  24.5955  24.7718  25.1519  25.6885  26.9033  27.2264

     occupation numbers
     1.0000   1.0000   1.0000   1.0000   1.0000   1.0000   1.0000   1.0000
     1.0000   1.0000   1.0000   1.0000   1.0000   1.0000   1.0000   1.0000
     1.0000   1.0000   1.0000   1.0000   1.0000   1.0000   1.0000   1.0000
     1.0000   1.0000   1.0000   1.0000   1.0000   1.0000   1.0000   1.0000
     0.0000   0.0000   0.0000   0.0000   0.0000   0.0000   0.0000   0.0000
     0.0000   0.0000   0.0000   0.0000   0.0000   0.0000   0.0000   0.0000
     0.0000   0.0000   0.0000   0.0000   0.0000   0.0000   0.0000   0.0000
     0.0000   0.0000   0.0000   0.0000   0.0000   0.0000   0.0000   0.0000

     highest occupied, lowest unoccupied level (ev):     0.8971    7.5328

!    total energy              =    -550.91757504 Ry
     estimated scf accuracy    <       0.00000082 Ry

     The total energy is the sum of the following terms:
     one-electron contribution =    -275.83557504 Ry
     hartree contribution      =     171.32108814 Ry
     xc contribution           =     -88.92920444 Ry
     ewald contribution        =    -294.92279336 Ry
     one-center paw contrib.   =     -62.55109033 Ry
      -> PAW hartree energy AE =       0.00000000 Ry
      -> PAW hartree energy PS =       0.00000000 Ry
      -> PAW xc energy AE      =       0.00000000 Ry
      -> PAW xc energy PS      =       0.00000000 Ry
      -> total E_H with PAW    =     171.32108814 Ry
      -> total E_XC with PAW   =     -88.92920444 Ry

     convergence has been achieved in   6 iterations

     Writing all to output data dir calculations_bands_val/myprefix.save/

     General routines

     Parallel routines

     PAW routines

   This run was terminated on:  11:14: 2   4Jun2023

   JOB DONE.