     Program PWSCF v.7.0 starts on  4Jun2023 at 13: 4:58

     K-points division:     npool     =       2
     R & G space division:  proc/nbgrp/npool/nimage =       4

     Reading input from espresso_526.pwi
Warning: card &CELL ignored
Warning: card / ignored

     Current dimensions of program PWSCF are:
     Max number of different atomic species (ntypx) = 10
     Max number of k-points (npk) =  40000
     Max angular momentum in pseudopotentials (lmaxx) =  4
     Message from routine setup:
     using ibrav=0 with symmetry is DISCOURAGED, use correct ibrav instead

     Using Slab Decomposition

     bravais-lattice index     =            0
     lattice parameter (alat)  =      11.4595  a.u.
     unit-cell volume          =    1504.8786 (a.u.)^3
     number of atoms/cell      =           12
     number of atomic types    =            2
     number of electrons       =       104.00
     number of Kohn-Sham states=           64
     kinetic-energy cutoff     =      30.0000  Ry
     charge density cutoff     =     240.0000  Ry
     scf convergence threshold =      1.0E-06
     mixing beta               =       0.7000
     number of iterations used =            8  plain     mixing
     Exchange-correlation=  SLA  PW   PBX  PBC
                           (   1   4   3   4   0   0   0)

     celldm(1)=  11.459539  celldm(2)=   0.000000  celldm(3)=   0.000000
     celldm(4)=   0.000000  celldm(5)=   0.000000  celldm(6)=   0.000000

     crystal axes: (cart. coord. in units of alat)
               a(1) = (   1.000000   0.000000   0.000000 )
               a(2) = (   0.000000   1.000000   0.000000 )
               a(3) = (   0.000000   0.000000   1.000000 )

     reciprocal axes: (cart. coord. in units 2 pi/alat)
               b(1) = (  1.000000  0.000000  0.000000 )
               b(2) = (  0.000000  1.000000  0.000000 )
               b(3) = (  0.000000  0.000000  1.000000 )

     PseudoPot. # 1 for As read from file:
     /home/pragov/projects/rrg-bengioy-ad/pragov/crystal_structure_design/SSSP/As.pbe-n-rrkjus_psl.0.2.UPF
     MD5 check sum: 767315de957beeeb34f87d97bf945c8f
     Pseudo is Ultrasoft + core correction, Zval =  5.0
     Generated using "atomic" code by A. Dal Corso  v.5.0.99 svn rev. 10869
     Using radial grid of 1209 points,  4 beta functions with:
                l(1) =   0
                l(2) =   0
                l(3) =   1
                l(4) =   1
     Q(r) pseudized with 0 coefficients

     PseudoPot. # 2 for Pt read from file:
     /home/pragov/projects/rrg-bengioy-ad/pragov/crystal_structure_design/SSSP/pt_pbe_v1.4.uspp.F.UPF
     MD5 check sum: f09d6de1a584b5a045c4fc126da2d0c4
     Pseudo is Ultrasoft + core correction, Zval = 16.0
     Generated by new atomic code, or converted to UPF format
     Using radial grid of  985 points,  6 beta functions with:
                l(1) =   0
                l(2) =   0
                l(3) =   1
                l(4) =   1
                l(5) =   2
                l(6) =   2
     Q(r) pseudized with  8 coefficients,  rinner =    1.300   1.300   1.300
                                                       1.300   1.300

     atomic species   valence    mass     pseudopotential
        As             5.00    74.92159     As( 1.00)
        Pt            16.00   195.08400     Pt( 1.00)

     24 Sym. Ops., with inversion, found (18 have fractional translation)

                                    s                        frac. trans.

      isym =  1     identity

 cryst.   s( 1) = (     1          0          0      )
                  (     0          1          0      )
                  (     0          0          1      )

 cart.    s( 1) = (  1.0000000  0.0000000  0.0000000 )
                  (  0.0000000  1.0000000  0.0000000 )
                  (  0.0000000  0.0000000  1.0000000 )

      isym =  2     180 deg rotation - cart. axis [0,0,1]

 cryst.   s( 2) = (    -1          0          0      )    f =(  0.5000000 )
                  (     0         -1          0      )       (  0.0000000 )
                  (     0          0          1      )       (  0.5000000 )

 cart.    s( 2) = ( -1.0000000  0.0000000  0.0000000 )    f =(  0.5000000 )
                  (  0.0000000 -1.0000000  0.0000000 )       (  0.0000000 )
                  (  0.0000000  0.0000000  1.0000000 )       (  0.5000000 )

[...]

 cryst.   s( 8) = (     0          0          1      )    f =(  0.5000000 )
                  (    -1          0          0      )       (  0.0000000 )
                  (     0         -1          0      )       (  0.5000000 )

 cart.    s( 8) = (  0.0000000 -1.0000000  0.0000000 )    f =(  0.5000000 )
                  (  0.0000000  0.0000000 -1.0000000 )       (  0.0000000 )
                  (  1.0000000  0.0000000  0.0000000 )       (  0.5000000 )

[...]

 cryst.   s( 9) = (     0          1          0      )
                  (     0          0          1      )
                  (     1          0          0      )

 cart.    s( 9) = (  0.0000000  0.0000000  1.0000000 )
                  (  1.0000000  0.0000000  0.0000000 )
                  (  0.0000000  1.0000000  0.0000000 )

[...]

 cryst.   s(10) = (     0         -1          0      )    f =(  0.5000000 )
                  (     0          0         -1      )       (  0.5000000 )
                  (     1          0          0      )       (  0.0000000 )

 cart.    s(10) = (  0.0000000  0.0000000  1.0000000 )    f =(  0.5000000 )
                  ( -1.0000000  0.0000000  0.0000000 )       (  0.5000000 )
                  (  0.0000000 -1.0000000  0.0000000 )       (  0.0000000 )

[...]

      isym = 12     120 deg rotation - cart. axis [-1,-1,1]

[...]

      isym = 13     inversion

 cryst.   s(13) = (    -1          0          0      )
                  (     0         -1          0      )
                  (     0          0         -1      )

 cart.    s(13) = ( -1.0000000  0.0000000  0.0000000 )
                  (  0.0000000 -1.0000000  0.0000000 )
                  (  0.0000000  0.0000000 -1.0000000 )

      isym = 14     inv. 180 deg rotation - cart. axis [0,0,1]

[...]

 cryst.   s(21) = (     0         -1          0      )
                  (     0          0         -1      )
                  (    -1          0          0      )

 cart.    s(21) = (  0.0000000  0.0000000 -1.0000000 )
                  ( -1.0000000  0.0000000  0.0000000 )
                  (  0.0000000 -1.0000000  0.0000000 )

[...]

      isym = 24     inv. 120 deg rotation - cart. axis [-1,-1,1]

 cryst.   s(24) = (     0         -1          0      )    f =(  0.0000000 )
                  (     0          0          1      )       (  0.5000000 )
                  (     1          0          0      )       (  0.5000000 )

 cart.    s(24) = (  0.0000000  0.0000000  1.0000000 )    f =(  0.0000000 )
                  ( -1.0000000  0.0000000  0.0000000 )       (  0.5000000 )
                  (  0.0000000  1.0000000  0.0000000 )       (  0.5000000 )

   Cartesian axes

     site n.     atom                  positions (alat units)
         1           As  tau(   1) = (   0.3833230   0.3833230   0.3833230  )
         2           As  tau(   2) = (   0.1166770   0.6166770   0.8833230  )
         3           As  tau(   3) = (   0.8833230   0.1166770   0.6166770  )
         4           As  tau(   4) = (   0.6166770   0.8833230   0.1166770  )
         5           As  tau(   5) = (   0.6166770   0.6166770   0.6166770  )
         6           As  tau(   6) = (   0.8833230   0.3833230   0.1166770  )
         7           As  tau(   7) = (   0.1166770   0.8833230   0.3833230  )
         8           As  tau(   8) = (   0.3833230   0.1166770   0.8833230  )
         9           Pt  tau(   9) = (   0.0000000   0.0000000   0.0000000  )
        10           Pt  tau(  10) = (   0.5000000   0.0000000   0.5000000  )
        11           Pt  tau(  11) = (   0.5000000   0.5000000   0.0000000  )
        12           Pt  tau(  12) = (   0.0000000   0.5000000   0.5000000  )

   Crystallographic axes

     site n.     atom                  positions (cryst. coord.)
         1           As  tau(   1) = (  0.3833230  0.3833230  0.3833230  )
         2           As  tau(   2) = (  0.1166770  0.6166770  0.8833230  )
         3           As  tau(   3) = (  0.8833230  0.1166770  0.6166770  )
         4           As  tau(   4) = (  0.6166770  0.8833230  0.1166770  )
         5           As  tau(   5) = (  0.6166770  0.6166770  0.6166770  )
         6           As  tau(   6) = (  0.8833230  0.3833230  0.1166770  )
         7           As  tau(   7) = (  0.1166770  0.8833230  0.3833230  )
         8           As  tau(   8) = (  0.3833230  0.1166770  0.8833230  )
         9           Pt  tau(   9) = (  0.0000000  0.0000000  0.0000000  )
        10           Pt  tau(  10) = (  0.5000000  0.0000000  0.5000000  )
        11           Pt  tau(  11) = (  0.5000000  0.5000000  0.0000000  )
        12           Pt  tau(  12) = (  0.0000000  0.5000000  0.5000000  )

     number of k points=     4
                       cart. coord. in units 2pi/alat
        k(    1) = (   0.0000000   0.0000000   0.0000000), wk =   0.0740741
        k(    2) = (   0.0000000   0.0000000   0.3333333), wk =   0.4444444
        k(    3) = (   0.0000000   0.3333333   0.3333333), wk =   0.8888889
        k(    4) = (   0.3333333   0.3333333   0.3333333), wk =   0.5925926

                       cryst. coord.
        k(    1) = (   0.0000000   0.0000000   0.0000000), wk =   0.0740741
        k(    2) = (   0.0000000   0.0000000   0.3333333), wk =   0.4444444
        k(    3) = (   0.0000000   0.3333333   0.3333333), wk =   0.8888889
        k(    4) = (   0.3333333   0.3333333   0.3333333), wk =   0.5925926

     Initial potential from superposition of free atoms

     starting charge     101.9981, renormalised to     104.0000

     negative rho (up, down):  7.129E-01 0.000E+00
     Starting wfcs are   80 randomized atomic wfcs

     Self-consistent Calculation

     iteration #  1     ecut=    30.00 Ry     beta= 0.70
     Davidson diagonalization with overlap

     ethr =  1.00E-02,  avg # of iterations =  2.0

     negative rho (up, down):  6.400E-01 0.000E+00

     total energy              =    -982.96844200 Ry
     estimated scf accuracy    <       9.36370625 Ry

[...]

     total energy              =    -988.78895349 Ry
     estimated scf accuracy    <       0.00000650 Ry

     iteration #  9     ecut=    30.00 Ry     beta= 0.70
     Davidson diagonalization with overlap

     ethr =  6.25E-09,  avg # of iterations =  2.0

     negative rho (up, down):  6.741E-01 0.000E+00

     End of self-consistent calculation

          k = 0.0000 0.0000 0.0000 (  4139 PWs)   bands (ev):

   -41.6711 -41.6711 -41.6711 -41.6703 -41.6703 -41.6699 -41.6699 -41.6699
   -41.5458 -41.5455 -41.5455 -41.5455  -2.2394  -0.3293  -0.3293  -0.3293
     1.7762   1.7762   1.7762   3.0127   5.5754   5.5754   5.5754   6.3277
     6.3277   6.3277   6.6847   6.6847   7.1014   7.1014   7.1014   7.5940
     7.5940   7.5940   8.0857   8.0857   8.0857   8.3806   8.3806   8.4122
     8.4122   8.4464   8.5316   8.5316   8.5316   9.2770   9.2969   9.2969
     9.2969  10.7718  10.7718  10.7718  12.2576  12.2576  12.2576  13.3876
    15.5509  15.5509  15.5509  16.1338  16.1338  16.7160  16.7161  17.1967

     occupation numbers
     1.0000   1.0000   1.0000   1.0000   1.0000   1.0000   1.0000   1.0000
     1.0000   1.0000   1.0000   1.0000   1.0000   1.0000   1.0000   1.0000
     1.0000   1.0000   1.0000   1.0000   1.0000   1.0000   1.0000   1.0000
     1.0000   1.0000   1.0000   1.0000   1.0000   1.0000   1.0000   1.0000
     1.0000   1.0000   1.0000   1.0000   1.0000   1.0000   1.0000   1.0000
     1.0000   1.0000   1.0000   1.0000   1.0000   1.0000   1.0000   1.0000
     1.0000   1.0000   1.0000   1.0000   0.0000   0.0000   0.0000   0.0000
     0.0000   0.0000   0.0000   0.0000   0.0000   0.0000   0.0000   0.0000

[...]

          k = 0.3333 0.3333 0.3333 (  4197 PWs)   bands (ev):

   -41.6712 -41.6710 -41.6710 -41.6709 -41.6702 -41.6702 -41.6699 -41.6699
   -41.5457 -41.5456 -41.5456 -41.5456  -1.1100  -0.3896  -0.3605  -0.3605
     1.1619   1.1619   1.3733   1.5334   5.4192   5.5530   5.5530   5.8526
     6.2099   6.2099   6.4212   6.4212   7.2211   7.4120   7.4120   7.9066
     7.9066   7.9122   8.1133   8.1133   8.3607   8.3711   8.3711   8.4808
     8.8751   9.0145   9.0145   9.3991   9.6876   9.6876   9.6936  10.2260
    10.2260  10.7514  11.0573  11.0573  12.2056  13.2819  13.2819  13.3996
    14.1132  14.1132  14.8749  14.8749  15.0422  15.4477  15.9133  15.9133

     occupation numbers
     1.0000   1.0000   1.0000   1.0000   1.0000   1.0000   1.0000   1.0000
     1.0000   1.0000   1.0000   1.0000   1.0000   1.0000   1.0000   1.0000
     1.0000   1.0000   1.0000   1.0000   1.0000   1.0000   1.0000   1.0000
     1.0000   1.0000   1.0000   1.0000   1.0000   1.0000   1.0000   1.0000
     1.0000   1.0000   1.0000   1.0000   1.0000   1.0000   1.0000   1.0000
     1.0000   1.0000   1.0000   1.0000   1.0000   1.0000   1.0000   1.0000
     1.0000   1.0000   1.0000   1.0000   0.0000   0.0000   0.0000   0.0000
     0.0000   0.0000   0.0000   0.0000   0.0000   0.0000   0.0000   0.0000

     highest occupied, lowest unoccupied level (ev):    11.6907   12.2056

!    total energy              =    -988.78895454 Ry
     estimated scf accuracy    <          4.6E-09 Ry

     The total energy is the sum of the following terms:
     one-electron contribution =    -284.38987806 Ry
     hartree contribution      =     200.39826203 Ry
     xc contribution           =    -301.34675409 Ry
     ewald contribution        =    -603.45058442 Ry

     convergence has been achieved in   9 iterations

     Writing all to output data dir calculations_bands_val/myprefix.save/

     General routines

     Parallel routines

   This run was terminated on:  13: 5: 2   4Jun2023

   JOB DONE.