     Program PWSCF v.7.0 starts on  4Jun2023 at 12:11:49

     K-points division:     npool     =       2
     R & G space division:  proc/nbgrp/npool/nimage =       4

     Reading input from espresso_359.pwi
Warning: card &CELL ignored
Warning: card / ignored

     Current dimensions of program PWSCF are:
     Max number of different atomic species (ntypx) = 10
     Max number of k-points (npk) =  40000
     Max angular momentum in pseudopotentials (lmaxx) =  4
     Message from routine setup:
     using ibrav=0 with symmetry is DISCOURAGED, use correct ibrav instead

     Using Slab Decomposition

     bravais-lattice index     =            0
     lattice parameter (alat)  =       7.0425  a.u.
     unit-cell volume          =    1578.0451 (a.u.)^3
     number of atoms/cell      =           12
     number of atomic types    =            2
     number of electrons       =        88.00
     number of Kohn-Sham states=           64
     kinetic-energy cutoff     =      30.0000  Ry
     charge density cutoff     =     240.0000  Ry
     scf convergence threshold =      1.0E-06
     mixing beta               =       0.7000
     number of iterations used =            8  plain     mixing
     Exchange-correlation= PBE
                           (   1   4   3   4   0   0   0)

     celldm(1)=   7.042486  celldm(2)=   0.000000  celldm(3)=   0.000000
     celldm(4)=   0.000000  celldm(5)=   0.000000  celldm(6)=   0.000000

     crystal axes: (cart. coord. in units of alat)
               a(1) = (   1.000000   0.000000   0.000000 )
               a(2) = (   0.000000   1.841298   0.000000 )
               a(3) = (   0.000000   0.000000   2.453677 )

     reciprocal axes: (cart. coord. in units 2 pi/alat)
               b(1) = (  1.000000  0.000000  0.000000 )
               b(2) = (  0.000000  0.543095  0.000000 )
               b(3) = (  0.000000  0.000000  0.407552 )

     PseudoPot. # 1 for Zr read from file:
     /home/pragov/projects/rrg-bengioy-ad/pragov/crystal_structure_design/SSSP/Zr_pbe_v1.uspp.F.UPF
     MD5 check sum: 5db81b1e868ab7776c4564c113de050b
     Pseudo is Ultrasoft + core correction, Zval = 12.0
     Generated by new atomic code, or converted to UPF format
     Using radial grid of  887 points,  6 beta functions with:
                l(1) =   0
                l(2) =   0
                l(3) =   1
                l(4) =   1
                l(5) =   2
                l(6) =   2
     Q(r) pseudized with  6 coefficients,  rinner =    1.200   1.200   1.200
                                                       1.200   1.200

     PseudoPot. # 2 for As read from file:
     /home/pragov/projects/rrg-bengioy-ad/pragov/crystal_structure_design/SSSP/As.pbe-n-rrkjus_psl.0.2.UPF
     MD5 check sum: 767315de957beeeb34f87d97bf945c8f
     Pseudo is Ultrasoft + core correction, Zval =  5.0
     Generated using "atomic" code by A. Dal Corso  v.5.0.99 svn rev. 10869
     Using radial grid of 1209 points,  4 beta functions with:
                l(1) =   0
                l(2) =   0
                l(3) =   1
                l(4) =   1
     Q(r) pseudized with 0 coefficients

     atomic species   valence    mass     pseudopotential
        Zr            12.00    91.22400     Zr( 1.00)
        As             5.00    74.92159     As( 1.00)

      8 Sym. Ops., with inversion, found ( 6 have fractional translation)

                                    s                        frac. trans.

      isym =  1     identity

 cryst.   s( 1) = (     1          0          0      )
                  (     0          1          0      )
                  (     0          0          1      )

 cart.    s( 1) = (  1.0000000  0.0000000  0.0000000 )
                  (  0.0000000  1.0000000  0.0000000 )
                  (  0.0000000  0.0000000  1.0000000 )

      isym =  2     180 deg rotation - cart. axis [0,0,1]

 cryst.   s( 2) = (    -1          0          0      )    f =(  0.0000000 )
                  (     0         -1          0      )       (  0.5000000 )
                  (     0          0          1      )       ( -0.5000000 )

 cart.    s( 2) = ( -1.0000000  0.0000000  0.0000000 )    f =(  0.0000000 )
                  (  0.0000000 -1.0000000  0.0000000 )       (  0.9206491 )
                  (  0.0000000  0.0000000  1.0000000 )       ( -1.2268384 )

[...]

      isym =  4     180 deg rotation - cart. axis [1,0,0]

[...]

      isym =  5     inversion

 cryst.   s( 5) = (    -1          0          0      )
                  (     0         -1          0      )
                  (     0          0         -1      )

 cart.    s( 5) = ( -1.0000000  0.0000000  0.0000000 )
                  (  0.0000000 -1.0000000  0.0000000 )
                  (  0.0000000  0.0000000 -1.0000000 )

      isym =  6     inv. 180 deg rotation - cart. axis [0,0,1]

[...]

      isym =  8     inv. 180 deg rotation - cart. axis [1,0,0]

 cryst.   s( 8) = (    -1          0          0      )    f =(  0.5000000 )
                  (     0          1          0      )       (  0.0000000 )
                  (     0          0          1      )       (  0.0000000 )

 cart.    s( 8) = ( -1.0000000  0.0000000  0.0000000 )    f =(  0.5000000 )
                  (  0.0000000  1.0000000  0.0000000 )       (  0.0000000 )
                  (  0.0000000  0.0000000  1.0000000 )       (  0.0000000 )

   Cartesian axes

     site n.     atom                  positions (alat units)
         1           Zr  tau(   1) = (   0.2500000   1.4227287   0.3971742  )
         2           Zr  tau(   2) = (   0.7500000   0.4185694   2.0565026  )
         3           Zr  tau(   3) = (   0.2500000   0.5020796   0.8296642  )
         4           Zr  tau(   4) = (   0.7500000   1.3392185   1.6240127  )
         5           As  tau(   5) = (   0.2500000   1.6884575   2.0920662  )
         6           As  tau(   6) = (   0.7500000   0.1528406   0.3616106  )
         7           As  tau(   7) = (   0.2500000   0.7678084   1.5884491  )
         8           As  tau(   8) = (   0.7500000   1.0734897   0.8652278  )
         9           As  tau(   9) = (   0.7500000   1.1422051   2.3499967  )
        10           As  tau(  10) = (   0.2500000   0.6990930   0.1036801  )
        11           As  tau(  11) = (   0.7500000   0.2215560   1.3305185  )
        12           As  tau(  12) = (   0.2500000   1.6197421   1.1231583  )

   Crystallographic axes

     site n.     atom                  positions (cryst. coord.)
         1           Zr  tau(   1) = (  0.2500000  0.7726770  0.1618690  )
         2           Zr  tau(   2) = (  0.7500000  0.2273230  0.8381310  )
         3           Zr  tau(   3) = (  0.2500000  0.2726770  0.3381310  )
         4           Zr  tau(   4) = (  0.7500000  0.7273230  0.6618690  )
         5           As  tau(   5) = (  0.2500000  0.9169930  0.8526250  )
         6           As  tau(   6) = (  0.7500000  0.0830070  0.1473750  )
         7           As  tau(   7) = (  0.2500000  0.4169930  0.6473750  )
         8           As  tau(   8) = (  0.7500000  0.5830070  0.3526250  )
         9           As  tau(   9) = (  0.7500000  0.6203260  0.9577450  )
        10           As  tau(  10) = (  0.2500000  0.3796740  0.0422550  )
        11           As  tau(  11) = (  0.7500000  0.1203260  0.5422550  )
        12           As  tau(  12) = (  0.2500000  0.8796740  0.4577450  )

     number of k points=     8
                       cart. coord. in units 2pi/alat
        k(    1) = (   0.0000000   0.0000000   0.0000000), wk =   0.0740741
        k(    2) = (   0.0000000   0.0000000   0.1358505), wk =   0.1481481
        k(    3) = (   0.0000000   0.1810317   0.0000000), wk =   0.1481481
        k(    4) = (   0.0000000   0.1810317   0.1358505), wk =   0.2962963
        k(    5) = (   0.3333333   0.0000000   0.0000000), wk =   0.1481481
        k(    6) = (   0.3333333   0.0000000   0.1358505), wk =   0.2962963
        k(    7) = (   0.3333333   0.1810317   0.0000000), wk =   0.2962963
        k(    8) = (   0.3333333   0.1810317   0.1358505), wk =   0.5925926

                       cryst. coord.
        k(    1) = (   0.0000000   0.0000000   0.0000000), wk =   0.0740741
        k(    2) = (   0.0000000   0.0000000   0.3333333), wk =   0.1481481
        k(    3) = (   0.0000000   0.3333333   0.0000000), wk =   0.1481481
        k(    4) = (   0.0000000   0.3333333   0.3333333), wk =   0.2962963
        k(    5) = (   0.3333333   0.0000000   0.0000000), wk =   0.1481481
        k(    6) = (   0.3333333   0.0000000   0.3333333), wk =   0.2962963
        k(    7) = (   0.3333333   0.3333333   0.0000000), wk =   0.2962963
        k(    8) = (   0.3333333   0.3333333   0.3333333), wk =   0.5925926

     Initial potential from superposition of free atoms

     starting charge      87.9895, renormalised to      88.0000

     negative rho (up, down):  2.441E-01 0.000E+00
     Starting wfcs are   84 randomized atomic wfcs

     Self-consistent Calculation

     iteration #  1     ecut=    30.00 Ry     beta= 0.70
     Davidson diagonalization with overlap

     ethr =  1.00E-02,  avg # of iterations =  2.0

     Threshold (ethr) on eigenvalues was too large:
     Diagonalizing with lowered threshold

     Davidson diagonalization with overlap

[...]

     negative rho (up, down):  2.474E-01 0.000E+00

     total energy              =    -542.89092212 Ry
     estimated scf accuracy    <       0.17753245 Ry

[...]

     total energy              =    -542.94458139 Ry
     estimated scf accuracy    <       0.00000139 Ry

     iteration #  8     ecut=    30.00 Ry     beta= 0.70
     Davidson diagonalization with overlap

     ethr =  1.58E-09,  avg # of iterations =  2.0

     negative rho (up, down):  2.496E-01 0.000E+00

     End of self-consistent calculation

          k = 0.0000 0.0000 0.0000 (  4381 PWs)   bands (ev):

   -37.8032 -37.8024 -37.7968 -37.7967 -15.9503 -15.9325 -15.9060 -15.8932
   -15.8751 -15.8449 -15.8142 -15.8058 -15.7762 -15.7722 -15.7619 -15.7616
    -2.4282  -1.7600   0.1165   0.3315   0.7124   0.7532   2.5256   2.5917
     6.4919   6.6037   6.9926   7.0502   7.8034   8.0332   8.4070   8.5330
     8.8392   9.2289   9.3428   9.6025   9.7895   9.9120   9.9714  10.0729
    10.1337  10.7296  11.1629  11.2748  11.5761  12.2265  12.3865  12.5153
    12.6110  12.9416  13.0263  13.1424  13.4743  13.7892  13.8190  13.9295
    14.1079  14.3506  14.6144  14.8730  14.8845  15.2285  16.0435  16.0739

     occupation numbers
     1.0000   1.0000   1.0000   1.0000   1.0000   1.0000   1.0000   1.0000
     1.0000   1.0000   1.0000   1.0000   1.0000   1.0000   1.0000   1.0000
     1.0000   1.0000   1.0000   1.0000   1.0000   1.0000   1.0000   1.0000
     1.0000   1.0000   1.0000   1.0000   1.0000   1.0000   1.0000   1.0000
     1.0000   1.0000   1.0000   1.0000   1.0000   1.0000   1.0000   1.0000
     1.0000   1.0000   1.0000   1.0000   0.0000   0.0000   0.0000   0.0000
     0.0000   0.0000   0.0000   0.0000   0.0000   0.0000   0.0000   0.0000
     0.0000   0.0000   0.0000   0.0000   0.0000   0.0000   0.0000   0.0000

[...]

          k = 0.3333 0.1810 0.1359 (  4381 PWs)   bands (ev):

   -37.7958 -37.7956 -37.7928 -37.7927 -15.9183 -15.9135 -15.8974 -15.8921
   -15.8783 -15.8778 -15.8684 -15.8680 -15.8337 -15.8295 -15.8090 -15.8076
    -1.0647  -0.9204   0.3803   0.4467   1.3011   1.3371   1.5126   1.5657
     5.8629   6.1298   6.3818   6.4363   6.9549   7.1550   7.8570   8.1519
     8.2730   8.5194   8.6635   8.8676   9.1184   9.2439   9.4718   9.6846
     9.7993   9.9451  10.2971  10.3297  12.7442  12.9143  12.9775  13.1200
    13.4383  13.6228  13.6980  13.7613  13.9634  14.0228  14.0921  14.4509
    14.5748  14.8962  15.0378  15.5361  15.8796  16.0069  16.1722  16.2895

     occupation numbers
     1.0000   1.0000   1.0000   1.0000   1.0000   1.0000   1.0000   1.0000
     1.0000   1.0000   1.0000   1.0000   1.0000   1.0000   1.0000   1.0000
     1.0000   1.0000   1.0000   1.0000   1.0000   1.0000   1.0000   1.0000
     1.0000   1.0000   1.0000   1.0000   1.0000   1.0000   1.0000   1.0000
     1.0000   1.0000   1.0000   1.0000   1.0000   1.0000   1.0000   1.0000
     1.0000   1.0000   1.0000   1.0000   0.0000   0.0000   0.0000   0.0000
     0.0000   0.0000   0.0000   0.0000   0.0000   0.0000   0.0000   0.0000
     0.0000   0.0000   0.0000   0.0000   0.0000   0.0000   0.0000   0.0000

     highest occupied, lowest unoccupied level (ev):    11.8651   11.5761

!    total energy              =    -542.94458150 Ry
     estimated scf accuracy    <       0.00000025 Ry

     The total energy is the sum of the following terms:
     one-electron contribution =     -71.12691732 Ry
     hartree contribution      =      74.75207963 Ry
     xc contribution           =    -145.25428648 Ry
     ewald contribution        =    -401.31545734 Ry

     convergence has been achieved in   8 iterations

     Writing all to output data dir calculations_bands_val/myprefix.save/

     General routines

     Parallel routines

   This run was terminated on:  12:11:56   4Jun2023

   JOB DONE.