     Program PWSCF v.7.0 starts on  4Jun2023 at 13:59:28

     K-points division:     npool     =       2
     R & G space division:  proc/nbgrp/npool/nimage =       4

     Reading input from espresso_669.pwi
Warning: card &CELL ignored
Warning: card / ignored

     Current dimensions of program PWSCF are:
     Max number of different atomic species (ntypx) = 10
     Max number of k-points (npk) =  40000
     Max angular momentum in pseudopotentials (lmaxx) =  4
     file O.pbe-n-kjpaw_psl.0.1.UPF: wavefunction(s)  2P renormalized
     Message from routine setup:
     using ibrav=0 with symmetry is DISCOURAGED, use correct ibrav instead

     Using Slab Decomposition

     bravais-lattice index     =            0
     lattice parameter (alat)  =      13.2238  a.u.
     unit-cell volume          =    1649.1854 (a.u.)^3
     number of atoms/cell      =           14
     number of atomic types    =            3
     number of electrons       =       128.00
     number of Kohn-Sham states=           64
     kinetic-energy cutoff     =      30.0000  Ry
     charge density cutoff     =     240.0000  Ry
     scf convergence threshold =      1.0E-06
     mixing beta               =       0.7000
     number of iterations used =            8  plain     mixing
     Exchange-correlation= SLA  PW   PBX  PBC
                           (   1   4   3   4   0   0   0)

     celldm(1)=  13.223813  celldm(2)=   0.000000  celldm(3)=   0.000000
     celldm(4)=   0.000000  celldm(5)=   0.000000  celldm(6)=   0.000000

     crystal axes: (cart. coord. in units of alat)
               a(1) = (   1.000000   0.000000   0.000000 )
               a(2) = (  -0.018627   0.999827   0.000000 )
               a(3) = (  -0.474562  -0.515740   0.713304 )

     reciprocal axes: (cart. coord. in units 2 pi/alat)
               b(1) = (  1.000000  0.018630  0.678771 )
               b(2) = (  0.000000  1.000174  0.723156 )
               b(3) = (  0.000000  0.000000  1.401926 )

     PseudoPot. # 1 for Ca read from file:
     /home/pragov/projects/rrg-bengioy-ad/pragov/crystal_structure_design/SSSP/Ca_pbe_v1.uspp.F.UPF
     MD5 check sum: 403a4c14b9e4d4dfdc3024c9a3812218
     Pseudo is Ultrasoft + core correction, Zval = 10.0
     Generated by new atomic code, or converted to UPF format
     Using radial grid of  845 points,  6 beta functions with:
                l(1) =   0
                l(2) =   0
                l(3) =   1
                l(4) =   1
                l(5) =   2
                l(6) =   2
     Q(r) pseudized with  8 coefficients,  rinner =    1.500   1.500   1.500
                                                       1.500   1.500

     PseudoPot. # 2 for Bi read from file:
     /home/pragov/projects/rrg-bengioy-ad/pragov/crystal_structure_design/SSSP/Bi_pbe_v1.uspp.F.UPF
     MD5 check sum: cceb9f28ec65b6d7ff33140f5b0b1758
     Pseudo is Ultrasoft + core correction, Zval = 15.0
     Generated by new atomic code, or converted to UPF format
     Using radial grid of  899 points,  6 beta functions with:
                l(1) =   0
                l(2) =   0
                l(3) =   1
                l(4) =   1
                l(5) =   2
                l(6) =   2
     Q(r) pseudized with  6 coefficients,  rinner =    1.000   1.000   1.000
                                                       1.000   1.000

     PseudoPot. # 3 for O  read from file:
     /home/pragov/projects/rrg-bengioy-ad/pragov/crystal_structure_design/SSSP/O.pbe-n-kjpaw_psl.0.1.UPF
     MD5 check sum: 0234752ac141de4415c5fc33072bef88
     Pseudo is Projector augmented-wave + core cor, Zval =  6.0
     Generated using "atomic" code by A. Dal Corso  v.5.0.99 svn rev. 10869
     Shape of augmentation charge: BESSEL
     Using radial grid of 1095 points,  4 beta functions with:
                l(1) =   0
                l(2) =   0
                l(3) =   1
                l(4) =   1
     Q(r) pseudized with 0 coefficients

     atomic species   valence    mass     pseudopotential
        Ca            10.00    40.07800     Ca( 1.00)
        Bi            15.00   208.98040     Bi( 1.00)
        O              6.00    15.99900     O ( 1.00)

      2 Sym. Ops., with inversion, found

                                    s                        frac. trans.

      isym =  1     identity

 cryst.   s( 1) = (     1          0          0      )
                  (     0          1          0      )
                  (     0          0          1      )

 cart.    s( 1) = (  1.0000000 -0.0000000  0.0000000 )
                  (  0.0000000  1.0000000 -0.0000000 )
                  (  0.0000000  0.0000000  1.0000000 )

      isym =  2     inversion

 cryst.   s( 2) = (    -1          0          0      )
                  (     0         -1          0      )
                  (     0          0         -1      )

 cart.    s( 2) = ( -1.0000000  0.0000000 -0.0000000 )
                  (  0.0000000 -1.0000000  0.0000000 )
                  (  0.0000000  0.0000000 -1.0000000 )

   Cartesian axes

     site n.     atom                  positions (alat units)
         1           Ca  tau(   1) = (   0.7534057   0.2420430   0.3566521  )
         2           Ca  tau(   2) = (   0.4906866   0.4999133   0.0000000  )
         3           Bi  tau(   3) = (  -0.0115091   0.7443134   0.1783260  )
         4           Bi  tau(   4) = (   0.5183205  -0.2602273   0.5349781  )
         5           Bi  tau(   5) = (   0.5000000   0.0000000   0.0000000  )
         6           Bi  tau(   6) = (   0.2534057   0.2420430   0.3566521  )
         7           O   tau(   7) = (   0.7322680   0.2517129   0.0109014  )
         8           O   tau(   8) = (   0.5046839   0.0090685   0.3427919  )
         9           O   tau(   9) = (   0.5007486   0.4789583   0.3457507  )
        10           O   tau(  10) = (   0.2623854   0.2468961   0.0138602  )
        11           O   tau(  11) = (   0.2444260   0.2371900   0.6994440  )
        12           O   tau(  12) = (   0.0021275   0.4750175   0.3705123  )
        13           O   tau(  13) = (   0.0060629   0.0051277   0.3675535  )
        14           O   tau(  14) = (  -0.2254566   0.2323731   0.7024028  )

   Crystallographic axes

     site n.     atom                  positions (cryst. coord.)
         1           Ca  tau(   1) = (  1.0000000  0.5000000  0.5000000  )
         2           Ca  tau(   2) = (  0.5000000  0.5000000  0.0000000  )
         3           Bi  tau(   3) = (  0.1234000  0.8734000  0.2500000  )
         4           Bi  tau(   4) = (  0.8766000  0.1266000  0.7500000  )
         5           Bi  tau(   5) = (  0.5000000  0.0000000  0.0000000  )
         6           Bi  tau(   6) = (  0.5000000  0.5000000  0.5000000  )
         7           O   tau(   7) = (  0.7443570  0.2596400  0.0152830  )
         8           O   tau(   8) = (  0.7375300  0.2569620  0.4805690  )
         9           O   tau(   9) = (  0.7443570  0.7290730  0.4847170  )
        10           O   tau(  10) = (  0.2763930  0.2569620  0.0194310  )
        11           O   tau(  11) = (  0.7236070  0.7430380  0.9805690  )
        12           O   tau(  12) = (  0.2624700  0.7430380  0.5194310  )
        13           O   tau(  13) = (  0.2556430  0.2709270  0.5152830  )
        14           O   tau(  14) = (  0.2556430  0.7403600  0.9847170  )

     number of k points=    14
                       cart. coord. in units 2pi/alat
        k(    1) = (   0.0000000   0.0000000   0.0000000), wk =   0.0740741
        k(    2) = (   0.0000000   0.0000000   0.4673088), wk =   0.1481481
        k(    3) = (   0.0000000   0.3333912   0.2410519), wk =   0.1481481
        k(    4) = (   0.0000000   0.3333912   0.7083607), wk =   0.1481481
        k(    5) = (   0.0000000   0.3333912  -0.2262569), wk =   0.1481481
        k(    6) = (   0.3333333   0.0062100   0.2262569), wk =   0.1481481
        k(    7) = (   0.3333333   0.0062100   0.6935657), wk =   0.1481481
        k(    8) = (   0.3333333   0.0062100  -0.2410519), wk =   0.1481481
        k(    9) = (   0.3333333   0.3396012   0.4673088), wk =   0.1481481
        k(   10) = (   0.3333333   0.3396012   0.9346176), wk =   0.1481481
        k(   11) = (   0.3333333   0.3396012  -0.0000000), wk =   0.1481481
        k(   12) = (   0.3333333  -0.3271812  -0.0147950), wk =   0.1481481
        k(   13) = (   0.3333333  -0.3271812   0.4525138), wk =   0.1481481
        k(   14) = (   0.3333333  -0.3271812  -0.4821038), wk =   0.1481481

                       cryst. coord.
        k(    1) = (   0.0000000   0.0000000   0.0000000), wk =   0.0740741
        k(    2) = (   0.0000000   0.0000000   0.3333333), wk =   0.1481481
        k(    3) = (   0.0000000   0.3333333   0.0000000), wk =   0.1481481
        k(    4) = (   0.0000000   0.3333333   0.3333333), wk =   0.1481481
        k(    5) = (   0.0000000   0.3333333  -0.3333333), wk =   0.1481481
        k(    6) = (   0.3333333   0.0000000   0.0000000), wk =   0.1481481
        k(    7) = (   0.3333333   0.0000000   0.3333333), wk =   0.1481481
        k(    8) = (   0.3333333   0.0000000  -0.3333333), wk =   0.1481481
        k(    9) = (   0.3333333   0.3333333  -0.0000000), wk =   0.1481481
        k(   10) = (   0.3333333   0.3333333   0.3333333), wk =   0.1481481
        k(   11) = (   0.3333333   0.3333333  -0.3333333), wk =   0.1481481
        k(   12) = (   0.3333333  -0.3333333   0.0000000), wk =   0.1481481
        k(   13) = (   0.3333333  -0.3333333   0.3333333), wk =   0.1481481
        k(   14) = (   0.3333333  -0.3333333  -0.3333333), wk =   0.1481481

     Check: negative core charge=   -0.000010

     Initial potential from superposition of free atoms

     starting charge     123.9889, renormalised to     128.0000

     negative rho (up, down):  1.657E-01 0.000E+00
     Starting wfcs are   88 randomized atomic wfcs
     Checking if some PAW data can be deallocated...

     Self-consistent Calculation

     iteration #  1     ecut=    30.00 Ry     beta= 0.70
     Davidson diagonalization with overlap

     ethr =  1.00E-02,  avg # of iterations =  2.0

     negative rho (up, down):  1.481E-01 0.000E+00

     total energy              =   -1222.63921685 Ry
     estimated scf accuracy    <       3.27885798 Ry

[...]

     total energy              =   -1224.33945605 Ry
     estimated scf accuracy    <       0.00000677 Ry

     iteration # 11     ecut=    30.00 Ry     beta= 0.70
     Davidson diagonalization with overlap

     ethr =  5.29E-09,  avg # of iterations =  2.5

     negative rho (up, down):  1.565E-01 0.000E+00

     End of self-consistent calculation

          k = 0.0000 0.0000 0.0000 (  4605 PWs)   bands (ev):

   -30.3665 -30.3481 -14.3029 -14.2974 -14.2846 -14.2797 -14.2783 -14.2728
   -14.2097 -14.2049 -14.2047 -14.1997 -14.0655 -14.0542 -13.9525 -13.9416
   -13.9296 -13.9134 -13.9116 -13.8954 -13.8915 -13.8663 -11.8004 -11.6148
   -11.5999 -11.5900 -11.4103 -11.3212  -9.6772  -8.8038  -8.5823  -8.4061
    -8.3629  -8.3201  -8.3075  -8.1594  -2.4991  -1.4940  -1.3759  -0.1408
     3.9592   3.9660   4.1833   4.4643   4.6423   4.6856   4.7930   5.2303
     5.5477   5.8887   5.9254   5.9856   6.1686   6.3668   6.3972   6.4574
     6.4833   6.4839   6.5090   6.6394   6.8596   6.8995   7.0743   8.1418

     occupation numbers
     1.0000   1.0000   1.0000   1.0000   1.0000   1.0000   1.0000   1.0000
     1.0000   1.0000   1.0000   1.0000   1.0000   1.0000   1.0000   1.0000
     1.0000   1.0000   1.0000   1.0000   1.0000   1.0000   1.0000   1.0000
     1.0000   1.0000   1.0000   1.0000   1.0000   1.0000   1.0000   1.0000
     1.0000   1.0000   1.0000   1.0000   1.0000   1.0000   1.0000   1.0000
     1.0000   1.0000   1.0000   1.0000   1.0000   1.0000   1.0000   1.0000
     1.0000   1.0000   1.0000   1.0000   1.0000   1.0000   1.0000   1.0000
     1.0000   1.0000   1.0000   1.0000   1.0000   1.0000   1.0000   1.0000

[...]

          k = 0.3333-0.3272-0.4821 (  4542 PWs)   bands (ev):

   -30.3664 -30.3481 -14.2945 -14.2873 -14.2865 -14.2830 -14.2816 -14.2746
   -14.2077 -14.2065 -14.2027 -14.2017 -14.0320 -14.0185 -13.9523 -13.9446
   -13.9373 -13.9350 -13.9127 -13.9111 -13.9077 -13.9074 -11.7928 -11.6232
   -11.6020 -11.5594 -11.4078 -11.3203  -9.2010  -8.9755  -8.7137  -8.6511
    -8.6472  -8.2677  -8.1608  -8.1292  -1.8950  -1.5604  -0.9925  -0.7364
     3.3175   4.2476   4.3978   4.4308   4.4720   4.6204   5.0072   5.0099
     5.0601   5.4925   5.7084   5.7599   5.9381   6.2771   6.2927   6.4081
     6.4134   6.4168   6.4731   6.8666   7.2113   7.4959   8.0950   8.4920

     occupation numbers
     1.0000   1.0000   1.0000   1.0000   1.0000   1.0000   1.0000   1.0000
     1.0000   1.0000   1.0000   1.0000   1.0000   1.0000   1.0000   1.0000
     1.0000   1.0000   1.0000   1.0000   1.0000   1.0000   1.0000   1.0000
     1.0000   1.0000   1.0000   1.0000   1.0000   1.0000   1.0000   1.0000
     1.0000   1.0000   1.0000   1.0000   1.0000   1.0000   1.0000   1.0000
     1.0000   1.0000   1.0000   1.0000   1.0000   1.0000   1.0000   1.0000
     1.0000   1.0000   1.0000   1.0000   1.0000   1.0000   1.0000   1.0000
     1.0000   1.0000   1.0000   1.0000   1.0000   1.0000   1.0000   1.0000

     highest occupied level (ev):     8.4920

!    total energy              =   -1224.33945711 Ry
     estimated scf accuracy    <       0.00000028 Ry

     The total energy is the sum of the following terms:
     one-electron contribution =    -332.81998868 Ry
     hartree contribution      =     244.70051478 Ry
     xc contribution           =    -341.91602750 Ry
     ewald contribution        =    -718.04818996 Ry
     one-center paw contrib.   =     -76.25576575 Ry
      -> PAW hartree energy AE =       0.00000000 Ry
      -> PAW hartree energy PS =       0.00000000 Ry
      -> PAW xc energy AE      =       0.00000000 Ry
      -> PAW xc energy PS      =       0.00000000 Ry
      -> total E_H with PAW    =     244.70051478 Ry
      -> total E_XC with PAW   =    -341.91602750 Ry

     convergence has been achieved in  11 iterations

     Writing all to output data dir calculations_bands_val/myprefix.save/

     General routines

     Parallel routines

     PAW routines

   This run was terminated on:  13:59:47   4Jun2023

   JOB DONE.