     Program PWSCF v.7.0 starts on  4Jun2023 at 15:41:24

     K-points division:     npool     =       2
     R & G space division:  proc/nbgrp/npool/nimage =       4

     Reading input from espresso_964.pwi
Warning: card &CELL ignored
Warning: card / ignored

     Current dimensions of program PWSCF are:
     Max number of different atomic species (ntypx) = 10
     Max number of k-points (npk) =  40000
     Max angular momentum in pseudopotentials (lmaxx) =  4
     file O.pbe-n-kjpaw_psl.0.1.UPF: wavefunction(s)  2P renormalized
     Message from routine setup:
     using ibrav=0 with symmetry is DISCOURAGED, use correct ibrav instead

     Using Slab Decomposition

     bravais-lattice index     =            0
     lattice parameter (alat)  =       6.8521  a.u.
     unit-cell volume          =    1446.2390 (a.u.)^3
     number of atoms/cell      =           16
     number of atomic types    =            3
     number of electrons       =       128.00
     number of Kohn-Sham states=           64
     kinetic-energy cutoff     =      30.0000  Ry
     charge density cutoff     =     240.0000  Ry
     scf convergence threshold =      1.0E-06
     mixing beta               =       0.7000
     number of iterations used =            8  plain     mixing
     Exchange-correlation= SLA  PW   PBX  PBC
                           (   1   4   3   4   0   0   0)

     celldm(1)=   6.852128  celldm(2)=   0.000000  celldm(3)=   0.000000
     celldm(4)=   0.000000  celldm(5)=   0.000000  celldm(6)=   0.000000

     crystal axes: (cart. coord. in units of alat)
               a(1) = (   1.000000   0.000000   0.000000 )
               a(2) = (   0.000000   1.396095   0.000000 )
               a(3) = (   0.000000   0.000000   3.219948 )

     reciprocal axes: (cart. coord. in units 2 pi/alat)
               b(1) = (  1.000000  0.000000  0.000000 )
               b(2) = (  0.000000  0.716284  0.000000 )
               b(3) = (  0.000000  0.000000  0.310564 )

     PseudoPot. # 1 for Ca read from file:
     /home/pragov/projects/rrg-bengioy-ad/pragov/crystal_structure_design/SSSP/Ca_pbe_v1.uspp.F.UPF
     MD5 check sum: 403a4c14b9e4d4dfdc3024c9a3812218
     Pseudo is Ultrasoft + core correction, Zval = 10.0
     Generated by new atomic code, or converted to UPF format
     Using radial grid of  845 points,  6 beta functions with:
                l(1) =   0
                l(2) =   0
                l(3) =   1
                l(4) =   1
                l(5) =   2
                l(6) =   2
     Q(r) pseudized with  8 coefficients,  rinner =    1.500   1.500   1.500
                                                       1.500   1.500

     PseudoPot. # 2 for Ti read from file:
     /home/pragov/projects/rrg-bengioy-ad/pragov/crystal_structure_design/SSSP/ti_pbe_v1.4.uspp.F.UPF
     MD5 check sum: 88a00a6731bd790ddea75d31a80cb452
     Pseudo is Ultrasoft + core correction, Zval = 12.0
     Generated by new atomic code, or converted to UPF format
     Using radial grid of  851 points,  6 beta functions with:
                l(1) =   0
                l(2) =   0
                l(3) =   1
                l(4) =   1
                l(5) =   2
                l(6) =   2
     Q(r) pseudized with  6 coefficients,  rinner =    1.000   1.000   1.000
                                                       1.000   1.000

     PseudoPot. # 3 for O  read from file:
     /home/pragov/projects/rrg-bengioy-ad/pragov/crystal_structure_design/SSSP/O.pbe-n-kjpaw_psl.0.1.UPF
     MD5 check sum: 0234752ac141de4415c5fc33072bef88
     Pseudo is Projector augmented-wave + core cor, Zval =  6.0
     Generated using "atomic" code by A. Dal Corso  v.5.0.99 svn rev. 10869
     Shape of augmentation charge: BESSEL
     Using radial grid of 1095 points,  4 beta functions with:
                l(1) =   0
                l(2) =   0
                l(3) =   1
                l(4) =   1
     Q(r) pseudized with 0 coefficients

     atomic species   valence    mass     pseudopotential
        Ca            10.00    40.07800     Ca( 1.00)
        Ti            12.00    47.86700     Ti( 1.00)
        O              6.00    15.99900     O ( 1.00)

      8 Sym. Ops., with inversion, found ( 4 have fractional translation)

                                    s                        frac. trans.

      isym =  1     identity

 cryst.   s( 1) = (     1          0          0      )
                  (     0          1          0      )
                  (     0          0          1      )

 cart.    s( 1) = (  1.0000000  0.0000000  0.0000000 )
                  (  0.0000000  1.0000000  0.0000000 )
                  (  0.0000000  0.0000000  1.0000000 )

      isym =  2     180 deg rotation - cart. axis [0,0,1]

 cryst.   s( 2) = (    -1          0          0      )    f =(  0.5000000 )
                  (     0         -1          0      )       (  0.0000000 )
                  (     0          0          1      )       ( -0.5000000 )

 cart.    s( 2) = ( -1.0000000  0.0000000  0.0000000 )    f =(  0.5000000 )
                  (  0.0000000 -1.0000000  0.0000000 )       (  0.0000000 )
                  (  0.0000000  0.0000000  1.0000000 )       ( -1.6099738 )

[...]

      isym =  4     180 deg rotation - cart. axis [1,0,0]

[...]

      isym =  5     inversion

[...]

      isym =  6     inv. 180 deg rotation - cart. axis [0,0,1]

[...]

 cryst.   s( 7) = (     1          0          0      )    f =(  0.5000000 )
                  (     0         -1          0      )       (  0.0000000 )
                  (     0          0          1      )       ( -0.5000000 )

 cart.    s( 7) = (  1.0000000  0.0000000  0.0000000 )    f =(  0.5000000 )
                  (  0.0000000 -1.0000000  0.0000000 )       (  0.0000000 )
                  (  0.0000000  0.0000000  1.0000000 )       ( -1.6099738 )

      isym =  8     inv. 180 deg rotation - cart. axis [1,0,0]

 cryst.   s( 8) = (    -1          0          0      )
                  (     0          1          0      )
                  (     0          0          1      )

 cart.    s( 8) = ( -1.0000000  0.0000000  0.0000000 )
                  (  0.0000000  1.0000000  0.0000000 )
                  (  0.0000000  0.0000000  1.0000000 )

   Cartesian axes

     site n.     atom                  positions (alat units)
         1           Ca  tau(   1) = (   0.5000000   0.1949716   0.0000000  )
         2           Ca  tau(   2) = (   0.0000000   1.2011230   1.6099738  )
         3           Ti  tau(   3) = (   0.0000000   0.8405481   2.7329628  )
         4           Ti  tau(   4) = (   0.5000000   0.5555465   2.0969587  )
         5           Ti  tau(   5) = (   0.5000000   0.5555465   1.1229889  )
         6           Ti  tau(   6) = (   0.0000000   0.8405481   0.4869849  )
         7           O   tau(   7) = (   0.5000000   0.7665453   1.6099738  )
         8           O   tau(   8) = (   0.0000000   0.6295493   0.0000000  )
         9           O   tau(   9) = (   0.5000000   0.6461559   2.6588428  )
        10           O   tau(  10) = (   0.0000000   0.7499387   2.1710787  )
        11           O   tau(  11) = (   0.5000000   0.6461559   0.5611049  )
        12           O   tau(  12) = (   0.0000000   0.7499387   1.0488690  )
        13           O   tau(  13) = (   0.0000000   1.3048221   0.3922766  )
        14           O   tau(  14) = (   0.5000000   0.0912725   1.2176973  )
        15           O   tau(  15) = (   0.5000000   0.0912725   2.0022504  )
        16           O   tau(  16) = (   0.0000000   1.3048221   2.8276711  )

   Crystallographic axes

     site n.     atom                  positions (cryst. coord.)
         1           Ca  tau(   1) = (  0.5000000  0.1396550  0.0000000  )
         2           Ca  tau(   2) = (  0.0000000  0.8603450  0.5000000  )
         3           Ti  tau(   3) = (  0.0000000  0.6020710  0.8487600  )
         4           Ti  tau(   4) = (  0.5000000  0.3979290  0.6512400  )
         5           Ti  tau(   5) = (  0.5000000  0.3979290  0.3487600  )
         6           Ti  tau(   6) = (  0.0000000  0.6020710  0.1512400  )
         7           O   tau(   7) = (  0.5000000  0.5490640  0.5000000  )
         8           O   tau(   8) = (  0.0000000  0.4509360  0.0000000  )
         9           O   tau(   9) = (  0.5000000  0.4628310  0.8257410  )
        10           O   tau(  10) = (  0.0000000  0.5371690  0.6742590  )
        11           O   tau(  11) = (  0.5000000  0.4628310  0.1742590  )
        12           O   tau(  12) = (  0.0000000  0.5371690  0.3257410  )
        13           O   tau(  13) = (  0.0000000  0.9346230  0.1218270  )
        14           O   tau(  14) = (  0.5000000  0.0653770  0.3781730  )
        15           O   tau(  15) = (  0.5000000  0.0653770  0.6218270  )
        16           O   tau(  16) = (  0.0000000  0.9346230  0.8781730  )

     number of k points=     8
                       cart. coord. in units 2pi/alat
        k(    1) = (   0.0000000   0.0000000   0.0000000), wk =   0.0740741
        k(    2) = (   0.0000000   0.0000000   0.1035214), wk =   0.1481481
        k(    3) = (   0.0000000   0.2387613   0.0000000), wk =   0.1481481
        k(    4) = (   0.0000000   0.2387613   0.1035214), wk =   0.2962963
        k(    5) = (   0.3333333   0.0000000   0.0000000), wk =   0.1481481
        k(    6) = (   0.3333333   0.0000000   0.1035214), wk =   0.2962963
        k(    7) = (   0.3333333   0.2387613   0.0000000), wk =   0.2962963
        k(    8) = (   0.3333333   0.2387613   0.1035214), wk =   0.5925926

                       cryst. coord.
        k(    1) = (   0.0000000   0.0000000   0.0000000), wk =   0.0740741
        k(    2) = (   0.0000000   0.0000000   0.3333333), wk =   0.1481481
        k(    3) = (   0.0000000   0.3333333   0.0000000), wk =   0.1481481
        k(    4) = (   0.0000000   0.3333333   0.3333333), wk =   0.2962963
        k(    5) = (   0.3333333   0.0000000   0.0000000), wk =   0.1481481
        k(    6) = (   0.3333333   0.0000000   0.3333333), wk =   0.2962963
        k(    7) = (   0.3333333   0.3333333   0.0000000), wk =   0.2962963
        k(    8) = (   0.3333333   0.3333333   0.3333333), wk =   0.5925926

     Check: negative core charge=   -0.000015

     Initial potential from superposition of free atoms

     starting charge     123.9889, renormalised to     128.0000

     negative rho (up, down):  6.129E-03 0.000E+00
     Starting wfcs are  100 randomized atomic wfcs
     Checking if some PAW data can be deallocated...

     Self-consistent Calculation

     iteration #  1     ecut=    30.00 Ry     beta= 0.70
     Davidson diagonalization with overlap

     ethr =  1.00E-02,  avg # of iterations =  2.0

     negative rho (up, down):  6.914E-03 0.000E+00

     total energy              =   -1044.10810560 Ry
     estimated scf accuracy    <       2.05807754 Ry

[...]

     total energy              =   -1045.13321361 Ry
     estimated scf accuracy    <       0.00000342 Ry

     iteration # 12     ecut=    30.00 Ry     beta= 0.70
     Davidson diagonalization with overlap

     ethr =  2.67E-09,  avg # of iterations =  4.1

     negative rho (up, down):  5.601E-03 0.000E+00

     End of self-consistent calculation

          k = 0.0000 0.0000 0.0000 (  3981 PWs)   bands (ev):

   -49.6098 -49.6072 -49.5875 -49.5844 -31.8601 -31.8601 -26.0708 -26.0549
   -26.0150 -25.9994 -25.9695 -25.9298 -25.9269 -25.9081 -25.8735 -25.8646
   -25.8616 -25.8105 -13.1050 -13.0937 -12.9989 -12.9817 -12.7454 -12.7454
   -11.2206 -11.0345 -10.5535 -10.4782 -10.1732 -10.0244  -9.3612  -9.3188
    -9.2201  -9.1883   2.3407   2.3907   2.4246   2.5791   2.6609   2.8203
     2.8327   3.1350   3.2996   3.4103   3.7205   3.7777   3.9340   4.0197
     4.3045   4.3902   4.4372   4.6265   4.6650   4.7332   4.8136   4.8559
     5.0108   5.0453   5.1334   5.1471   5.2613   5.2700   5.4240   5.9449

     occupation numbers
     1.0000   1.0000   1.0000   1.0000   1.0000   1.0000   1.0000   1.0000
     1.0000   1.0000   1.0000   1.0000   1.0000   1.0000   1.0000   1.0000
     1.0000   1.0000   1.0000   1.0000   1.0000   1.0000   1.0000   1.0000
     1.0000   1.0000   1.0000   1.0000   1.0000   1.0000   1.0000   1.0000
     1.0000   1.0000   1.0000   1.0000   1.0000   1.0000   1.0000   1.0000
     1.0000   1.0000   1.0000   1.0000   1.0000   1.0000   1.0000   1.0000
     1.0000   1.0000   1.0000   1.0000   1.0000   1.0000   1.0000   1.0000
     1.0000   1.0000   1.0000   1.0000   1.0000   1.0000   1.0000   1.0000

[...]

          k = 0.3333 0.2388 0.1035 (  4024 PWs)   bands (ev):

   -49.6009 -49.5996 -49.5893 -49.5880 -31.8481 -31.8481 -26.0742 -26.0675
   -26.0329 -26.0282 -26.0032 -25.9966 -25.9727 -25.9617 -25.8906 -25.8804
   -25.8389 -25.8221 -13.0829 -13.0805 -12.9854 -12.9833 -12.9156 -12.9140
   -10.7031 -10.6567 -10.3485 -10.3318 -10.0073  -9.9617  -9.3177  -9.3076
    -9.2494  -9.2316   1.9293   1.9695   2.1420   2.3546   2.8306   2.8936
     2.9295   2.9910   3.1308   3.1553   3.2327   3.3302   3.6970   3.8628
     4.2665   4.3291   4.4482   4.5133   4.5467   4.5858   4.9197   4.9707
     5.0183   5.0896   5.1349   5.2703   5.3534   5.4009   5.7005   5.7637

     occupation numbers
     1.0000   1.0000   1.0000   1.0000   1.0000   1.0000   1.0000   1.0000
     1.0000   1.0000   1.0000   1.0000   1.0000   1.0000   1.0000   1.0000
     1.0000   1.0000   1.0000   1.0000   1.0000   1.0000   1.0000   1.0000
     1.0000   1.0000   1.0000   1.0000   1.0000   1.0000   1.0000   1.0000
     1.0000   1.0000   1.0000   1.0000   1.0000   1.0000   1.0000   1.0000
     1.0000   1.0000   1.0000   1.0000   1.0000   1.0000   1.0000   1.0000
     1.0000   1.0000   1.0000   1.0000   1.0000   1.0000   1.0000   1.0000
     1.0000   1.0000   1.0000   1.0000   1.0000   1.0000   1.0000   1.0000

     highest occupied level (ev):     5.9449

!    total energy              =   -1045.13321414 Ry
     estimated scf accuracy    <       0.00000096 Ry

     The total energy is the sum of the following terms:
     one-electron contribution =    -446.28369843 Ry
     hartree contribution      =     276.89864091 Ry
     xc contribution           =    -170.53358813 Ry
     ewald contribution        =    -609.97994005 Ry
     one-center paw contrib.   =     -95.23462844 Ry
      -> PAW hartree energy AE =       0.00000000 Ry
      -> PAW hartree energy PS =       0.00000000 Ry
      -> PAW xc energy AE      =       0.00000000 Ry
      -> PAW xc energy PS      =       0.00000000 Ry
      -> total E_H with PAW    =     276.89864091 Ry
      -> total E_XC with PAW   =    -170.53358813 Ry

     convergence has been achieved in  12 iterations

     Writing all to output data dir calculations_bands_val/myprefix.save/

     General routines

     Parallel routines

     PAW routines

   This run was terminated on:  15:41:35   4Jun2023

   JOB DONE.