     Program PWSCF v.7.0 starts on  4Jun2023 at 15:41:40

     K-points division:     npool     =       2
     R & G space division:  proc/nbgrp/npool/nimage =       4

     Reading input from espresso_966.pwi
Warning: card &CELL ignored
Warning: card / ignored

     Current dimensions of program PWSCF are:
     Max number of different atomic species (ntypx) = 10
     Max number of k-points (npk) =  40000
     Max angular momentum in pseudopotentials (lmaxx) =  4
     Message from routine setup:
     using ibrav=0 with symmetry is DISCOURAGED, use correct ibrav instead

     Using Slab Decomposition

     bravais-lattice index     =            0
     lattice parameter (alat)  =      10.7851  a.u.
     unit-cell volume          =     958.6513 (a.u.)^3
     number of atoms/cell      =           12
     number of atomic types    =            3
     number of electrons       =        92.00
     number of Kohn-Sham states=           64
     kinetic-energy cutoff     =      30.0000  Ry
     charge density cutoff     =     240.0000  Ry
     scf convergence threshold =      1.0E-06
     mixing beta               =       0.7000
     number of iterations used =            8  plain     mixing
     Exchange-correlation=  SLA  PW   PBX  PBC
                           (   1   4   3   4   0   0   0)

     celldm(1)=  10.785107  celldm(2)=   0.000000  celldm(3)=   0.000000
     celldm(4)=   0.000000  celldm(5)=   0.000000  celldm(6)=   0.000000

     crystal axes: (cart. coord. in units of alat)
               a(1) = (   1.000000   0.000000   0.000000 )
               a(2) = (  -0.238063   0.971250   0.000000 )
               a(3) = (  -0.380968  -0.485625   0.786786 )

     reciprocal axes: (cart. coord. in units 2 pi/alat)
               b(1) = (  1.000000  0.245110  0.635497 )
               b(2) = (  0.000000  1.029601  0.635497 )
               b(3) = (  0.000000  0.000000  1.270994 )

     PseudoPot. # 1 for Li read from file:
     /home/pragov/projects/rrg-bengioy-ad/pragov/crystal_structure_design/SSSP/li_pbe_v1.4.uspp.F.UPF
     MD5 check sum: e912e257baa3777c20ea3d68f190483c
     Pseudo is Ultrasoft, Zval =  3.0
     Generated by new atomic code, or converted to UPF format
     Using radial grid of  751 points,  5 beta functions with:
                l(1) =   0
                l(2) =   0
                l(3) =   0
                l(4) =   1
                l(5) =   1
     Q(r) pseudized with 10 coefficients,  rinner =    1.150   1.150   1.150

     PseudoPot. # 2 for Mn read from file:
     /home/pragov/projects/rrg-bengioy-ad/pragov/crystal_structure_design/SSSP/mn_pbe_v1.5.uspp.F.UPF
     MD5 check sum: 82ef2b46521d7a7d9e736dc3972e4928
     Pseudo is Ultrasoft + core correction, Zval = 15.0
     Generated by new atomic code, or converted to UPF format
     Using radial grid of  859 points,  6 beta functions with:
                l(1) =   0
                l(2) =   0
                l(3) =   1
                l(4) =   1
                l(5) =   2
                l(6) =   2
     Q(r) pseudized with  8 coefficients,  rinner =    0.950   0.950   0.950
                                                       0.950   0.950

     PseudoPot. # 3 for F  read from file:
     /home/pragov/projects/rrg-bengioy-ad/pragov/crystal_structure_design/SSSP/f_pbe_v1.4.uspp.F.UPF
     MD5 check sum: 4c38b6a325caf53ec0e86aed9459de46
     Pseudo is Ultrasoft, Zval =  7.0
     Generated by new atomic code, or converted to UPF format
     Using radial grid of  799 points,  4 beta functions with:
                l(1) =   0
                l(2) =   0
                l(3) =   1
                l(4) =   1
     Q(r) pseudized with  8 coefficients,  rinner =    0.950   0.950   0.950

     atomic species   valence    mass     pseudopotential
        Li             3.00     6.94000     Li( 1.00)
        Mn            15.00    54.93804     Mn( 1.00)
        F              7.00    18.99840     F ( 1.00)

      4 Sym. Ops., with inversion, found ( 2 have fractional translation)

                                    s                        frac. trans.

      isym =  1     identity

 cryst.   s( 1) = (     1          0          0      )
                  (     0          1          0      )
                  (     0          0          1      )

 cart.    s( 1) = (  1.0000000 -0.0000000  0.0000000 )
                  (  0.0000000  1.0000000 -0.0000000 )
                  (  0.0000000  0.0000000  1.0000000 )

      isym =  2     180 deg rotation - cart. axis [0,0,1]

 cryst.   s( 2) = (    -1          0          0      )
                  (     0         -1          0      )
                  (     1          1          1      )

 cart.    s( 2) = ( -1.0000000  0.0000000 -0.0000000 )
                  (  0.0000000 -1.0000000 -0.0000000 )
                  (  0.0000000  0.0000000  1.0000000 )

      isym =  3     inversion

 cryst.   s( 3) = (    -1          0          0      )    f =(  0.2500000 )
                  (     0         -1          0      )       ( -0.2500000 )
                  (     0          0         -1      )       (  0.5000000 )

 cart.    s( 3) = ( -1.0000000  0.0000000 -0.0000000 )    f =(  0.1190315 )
                  (  0.0000000 -1.0000000  0.0000000 )       ( -0.4856248 )
                  (  0.0000000  0.0000000 -1.0000000 )       (  0.3933928 )

      isym =  4     inv. 180 deg rotation - cart. axis [0,0,1]

 cryst.   s( 4) = (     1          0          0      )    f =(  0.2500000 )
                  (     0          1          0      )       ( -0.2500000 )
                  (    -1         -1         -1      )       (  0.5000000 )

 cart.    s( 4) = (  1.0000000 -0.0000000  0.0000000 )    f =(  0.1190315 )
                  (  0.0000000  1.0000000  0.0000000 )       ( -0.4856248 )
                  (  0.0000000  0.0000000 -1.0000000 )       (  0.3933928 )

   Cartesian axes

     site n.     atom                  positions (alat units)
         1           Li  tau(   1) = (   0.3809685   0.4856248   0.0000000  )
         2           Li  tau(   2) = (  -0.1190315   0.4856248   0.3933928  )
         3           Mn  tau(   3) = (   0.5000000   0.0000000   0.3933928  )
         4           Mn  tau(   4) = (   0.0000000   0.0000000   0.0000000  )
         5           F   tau(   5) = (   0.2785585   0.0892763   0.6227235  )
         6           F   tau(   6) = (  -0.2785585  -0.0892763   0.6227235  )
         7           F   tau(   7) = (   0.3605734   0.1938216   0.1640621  )
         8           F   tau(   8) = (   0.4013636   0.7774281   0.1640621  )
         9           F   tau(   9) = (  -0.1394266   0.1938216   0.2293307  )
        10           F   tau(  10) = (  -0.0986364   0.7774281   0.2293307  )
        11           F   tau(  11) = (   0.1595270   0.5749012   0.5574549  )
        12           F   tau(  12) = (  -0.3975900   0.3963485   0.5574549  )

   Crystallographic axes

     site n.     atom                  positions (cryst. coord.)
         1           Li  tau(   1) = (  0.5000000  0.5000000  0.0000000  )
         2           Li  tau(   2) = (  0.2500000  0.7500000  0.5000000  )
         3           Mn  tau(   3) = (  0.7500000  0.2500000  0.5000000  )
         4           Mn  tau(   4) = (  0.0000000  0.0000000  0.0000000  )
         5           F   tau(   5) = (  0.6961800  0.4876580  0.7914780  )
         6           F   tau(   6) = (  0.0952980  0.3038200  0.7914780  )
         7           F   tau(   7) = (  0.5123420  0.3038200  0.2085220  )
         8           F   tau(   8) = (  0.6961800  0.9047020  0.2085220  )
         9           F   tau(   9) = (  0.0538200  0.3452980  0.2914780  )
        10           F   tau(  10) = (  0.2376580  0.9461800  0.2914780  )
        11           F   tau(  11) = (  0.6547020  0.9461800  0.7085220  )
        12           F   tau(  12) = (  0.0538200  0.7623420  0.7085220  )

     number of k points=    10
                       cart. coord. in units 2pi/alat
        k(    1) = (   0.0000000   0.0000000   0.0000000), wk =   0.0740741
        k(    2) = (   0.0000000   0.0000000   0.4236648), wk =   0.1481481
        k(    3) = (   0.0000000   0.3432004   0.2118324), wk =   0.2962963
        k(    4) = (   0.0000000   0.3432004   0.6354972), wk =   0.1481481
        k(    5) = (   0.3333333   0.0817033   0.2118324), wk =   0.2962963
        k(    6) = (   0.3333333   0.0817033   0.6354972), wk =   0.1481481
        k(    7) = (   0.3333333   0.4249038   0.4236648), wk =   0.2962963
        k(    8) = (   0.3333333   0.4249038   0.0000000), wk =   0.1481481
        k(    9) = (   0.3333333  -0.2614971   0.0000000), wk =   0.1481481
        k(   10) = (   0.3333333  -0.2614971   0.4236648), wk =   0.2962963

                       cryst. coord.
        k(    1) = (   0.0000000   0.0000000   0.0000000), wk =   0.0740741
        k(    2) = (   0.0000000   0.0000000   0.3333333), wk =   0.1481481
        k(    3) = (   0.0000000   0.3333333  -0.0000000), wk =   0.2962963
        k(    4) = (   0.0000000   0.3333333   0.3333333), wk =   0.1481481
        k(    5) = (   0.3333333   0.0000000   0.0000000), wk =   0.2962963
        k(    6) = (   0.3333333   0.0000000   0.3333333), wk =   0.1481481
        k(    7) = (   0.3333333   0.3333333  -0.0000000), wk =   0.2962963
        k(    8) = (   0.3333333   0.3333333  -0.3333333), wk =   0.1481481
        k(    9) = (   0.3333333  -0.3333333   0.0000000), wk =   0.1481481
        k(   10) = (   0.3333333  -0.3333333   0.3333333), wk =   0.2962963

     Check: negative core charge=   -0.000015

     Initial potential from superposition of free atoms

     starting charge      90.0983, renormalised to      92.0000
     Starting wfcs are   68 randomized atomic wfcs

     Self-consistent Calculation

     iteration #  1     ecut=    30.00 Ry     beta= 0.70
     Davidson diagonalization with overlap

     ethr =  1.00E-02,  avg # of iterations =  4.5

     total energy              =    -838.58866142 Ry
     estimated scf accuracy    <       3.34197189 Ry

[...]

     total energy              =    -840.70381637 Ry
     estimated scf accuracy    <       0.00002563 Ry

     iteration # 33     ecut=    30.00 Ry     beta= 0.70
     Davidson diagonalization with overlap

     ethr =  9.98E-09,  avg # of iterations =  1.0

     End of self-consistent calculation

          k = 0.0000 0.0000 0.0000 (  2691 PWs)   bands (ev):

   -75.9086 -75.9084 -44.7169 -44.7169 -44.7069 -44.7069 -44.4364 -44.4356
   -40.0475 -40.0467 -19.5447 -19.0139 -18.9659 -18.9183 -18.9134 -18.9134
   -18.7602 -18.7602  -2.6539  -2.4929  -2.4737  -2.0507  -1.7584  -1.7584
    -1.6630  -1.5779  -0.8854  -0.8854  -0.5917  -0.5712  -0.5712  -0.1283
    -0.0532   0.1626   0.1626   0.3617   0.3617   0.5892   0.5892   0.6323
     0.7282   0.8977   3.7341   3.7341   4.0413   4.0622   4.1050   4.2469
     4.4890   4.4890   5.5756   5.6035   8.7898  12.9340  12.9340  13.5804
    14.5255  14.5255  14.8675  14.8741  14.9257  16.3823  16.3823  16.8464

     occupation numbers
     1.0000   1.0000   1.0000   1.0000   1.0000   1.0000   1.0000   1.0000
     1.0000   1.0000   1.0000   1.0000   1.0000   1.0000   1.0000   1.0000
     1.0000   1.0000   1.0000   1.0000   1.0000   1.0000   1.0000   1.0000
     1.0000   1.0000   1.0000   1.0000   1.0000   1.0000   1.0000   1.0000
     1.0000   1.0000   1.0000   1.0000   1.0000   1.0000   1.0000   1.0000
     1.0000   1.0000   1.0000   1.0000   1.0000   1.0000   0.0000   0.0000
     0.0000   0.0000   0.0000   0.0000   0.0000   0.0000   0.0000   0.0000
     0.0000   0.0000   0.0000   0.0000   0.0000   0.0000   0.0000   0.0000

[...]

          k = 0.3333-0.2615 0.4237 (  2658 PWs)   bands (ev):

   -75.9084 -75.9081 -44.7127 -44.7090 -44.7073 -44.7025 -44.4382 -44.4351
   -40.0467 -40.0465 -19.3281 -19.1983 -18.9984 -18.9482 -18.9472 -18.8851
   -18.7772 -18.7268  -2.4026  -2.4002  -2.0462  -1.9891  -1.5470  -1.4026
    -1.3707  -1.3126  -1.1374  -0.8571  -0.8452  -0.7526  -0.6259  -0.4739
    -0.1707  -0.1674   0.0757   0.1895   0.1896   0.3308   0.4744   0.5122
     0.6544   0.6816   3.8051   3.8876   3.9844   4.0804   4.0854   4.2081
     4.4152   4.5008   5.7163   5.7450  10.8476  12.3942  12.4046  12.4099
    13.2059  14.1566  15.5181  15.8706  16.1530  16.1664  17.0275  17.5834

     occupation numbers
     1.0000   1.0000   1.0000   1.0000   1.0000   1.0000   1.0000   1.0000
     1.0000   1.0000   1.0000   1.0000   1.0000   1.0000   1.0000   1.0000
     1.0000   1.0000   1.0000   1.0000   1.0000   1.0000   1.0000   1.0000
     1.0000   1.0000   1.0000   1.0000   1.0000   1.0000   1.0000   1.0000
     1.0000   1.0000   1.0000   1.0000   1.0000   1.0000   1.0000   1.0000
     1.0000   1.0000   1.0000   1.0000   1.0000   1.0000   0.0000   0.0000
     0.0000   0.0000   0.0000   0.0000   0.0000   0.0000   0.0000   0.0000
     0.0000   0.0000   0.0000   0.0000   0.0000   0.0000   0.0000   0.0000

     highest occupied, lowest unoccupied level (ev):     4.0863    4.0723

!    total energy              =    -840.70381931 Ry
     estimated scf accuracy    <       0.00000007 Ry

     The total energy is the sum of the following terms:
     one-electron contribution =    -569.36098805 Ry
     hartree contribution      =     320.23047985 Ry
     xc contribution           =    -134.16953621 Ry
     ewald contribution        =    -457.40377490 Ry

     convergence has been achieved in  33 iterations

     Writing all to output data dir calculations_bands_val/myprefix.save/

     General routines

     Parallel routines

   This run was terminated on:  15:41:58   4Jun2023

   JOB DONE.