     Program PWSCF v.7.0 starts on  4Jun2023 at 13:54:58

     K-points division:     npool     =       2
     R & G space division:  proc/nbgrp/npool/nimage =       4

     Reading input from espresso_652.pwi
Warning: card &CELL ignored
Warning: card / ignored

     Current dimensions of program PWSCF are:
     Max number of different atomic species (ntypx) = 10
     Max number of k-points (npk) =  40000
     Max angular momentum in pseudopotentials (lmaxx) =  4
     file Fe.pbe-spn-kjpaw_psl.0.2.1.UPF: wavefunction(s)  3D renormalized
     file C.pbe-n-kjpaw_psl.1.0.0.UPF: wavefunction(s)  2S 2P renormalized
     Message from routine setup:
     using ibrav=0 with symmetry is DISCOURAGED, use correct ibrav instead

     Using Slab Decomposition

     bravais-lattice index     =            0
     lattice parameter (alat)  =      10.9345  a.u.
     unit-cell volume          =     808.8887 (a.u.)^3
     number of atoms/cell      =            7
     number of atomic types    =            4
     number of electrons       =        70.00
     number of Kohn-Sham states=           64
     kinetic-energy cutoff     =      30.0000  Ry
     charge density cutoff     =     240.0000  Ry
     scf convergence threshold =      1.0E-06
     mixing beta               =       0.7000
     number of iterations used =            8  plain     mixing
     Exchange-correlation= SLA  PW   PBX  PBC
                           (   1   4   3   4   0   0   0)

     celldm(1)=  10.934517  celldm(2)=   0.000000  celldm(3)=   0.000000
     celldm(4)=   0.000000  celldm(5)=   0.000000  celldm(6)=   0.000000

     crystal axes: (cart. coord. in units of alat)
               a(1) = (   1.000000   0.000000   0.000000 )
               a(2) = (   0.759736   0.650232   0.000000 )
               a(3) = (   0.705081   0.260531   0.951529 )

     reciprocal axes: (cart. coord. in units 2 pi/alat)
               b(1) = (  1.000000 -1.168408 -0.421085 )
               b(2) = (  0.000000  1.537914 -0.421085 )
               b(3) = (  0.000000  0.000000  1.050940 )

     PseudoPot. # 1 for Pr read from file:
     /home/pragov/projects/rrg-bengioy-ad/pragov/crystal_structure_design/SSSP/Pr.GGA-PBE-paw-v1.0.UPF
     MD5 check sum: b5e1e58e76df433569641143f671cc27
     Pseudo is Projector augmented-wave + core cor, Zval = 13.0
     Generated using ATOMPAW code
     Shape of augmentation charge: BESSEL
     Using radial grid of 1103 points,  8 beta functions with:
                l(1) =   0
                l(2) =   0
                l(3) =   1
                l(4) =   1
                l(5) =   2
                l(6) =   2
                l(7) =   3
                l(8) =   3
     Q(r) pseudized with 0 coefficients

     PseudoPot. # 2 for Fe read from file:
     /home/pragov/projects/rrg-bengioy-ad/pragov/crystal_structure_design/SSSP/Fe.pbe-spn-kjpaw_psl.0.2.1.UPF
     MD5 check sum: e86618425769142926afa95317d90200
     Pseudo is Projector augmented-wave + core cor, Zval = 16.0
     Generated using "atomic" code by A. Dal Corso  v.5.0.99 svn rev. 10869
     Shape of augmentation charge: PSQ
     Using radial grid of 1191 points,  6 beta functions with:
                l(1) =   0
                l(2) =   0
                l(3) =   1
                l(4) =   1
                l(5) =   2
                l(6) =   2
     Q(r) pseudized with 0 coefficients

     PseudoPot. # 3 for Si read from file:
     /home/pragov/projects/rrg-bengioy-ad/pragov/crystal_structure_design/SSSP/Si.pbe-n-rrkjus_psl.1.0.0.UPF
     MD5 check sum: 0b0bb1205258b0d07b9f9672cf965d36
     Pseudo is Ultrasoft + core correction, Zval =  4.0
     Generated using "atomic" code by A. Dal Corso  v.5.1
     Using radial grid of 1141 points,  6 beta functions with:
                l(1) =   0
                l(2) =   0
                l(3) =   1
                l(4) =   1
                l(5) =   2
                l(6) =   2
     Q(r) pseudized with 0 coefficients

     PseudoPot. # 4 for C  read from file:
     /home/pragov/projects/rrg-bengioy-ad/pragov/crystal_structure_design/SSSP/C.pbe-n-kjpaw_psl.1.0.0.UPF
     MD5 check sum: 5d2aebdfa2cae82b50a7e79e9516da0f
     Pseudo is Projector augmented-wave + core cor, Zval =  4.0
     Generated using "atomic" code by A. Dal Corso  v.5.1
     Shape of augmentation charge: PSQ
     Using radial grid of 1073 points,  4 beta functions with:
                l(1) =   0
                l(2) =   0
                l(3) =   1
                l(4) =   1
     Q(r) pseudized with 0 coefficients

     atomic species   valence    mass     pseudopotential
        Pr            13.00   140.90766     Pr( 1.00)
        Fe            16.00    55.84500     Fe( 1.00)
        Si             4.00    28.08500     Si( 1.00)
        C              4.00    12.01100     C ( 1.00)

      2 Sym. Ops., with inversion, found

                                    s                        frac. trans.

      isym =  1     identity

 cryst.   s( 1) = (     1          0          0      )
                  (     0          1          0      )
                  (     0          0          1      )

 cart.    s( 1) = (  1.0000000  0.0000000  0.0000000 )
                  (  0.0000000  1.0000000 -0.0000000 )
                  (  0.0000000  0.0000000  1.0000000 )

      isym =  2     inversion

 cryst.   s( 2) = (    -1          0          0      )
                  (     0         -1          0      )
                  (     0          0         -1      )

 cart.    s( 2) = ( -1.0000000 -0.0000000 -0.0000000 )
                  (  0.0000000 -1.0000000  0.0000000 )
                  (  0.0000000  0.0000000 -1.0000000 )

   Cartesian axes

     site n.     atom                  positions (alat units)
         1           Pr  tau(   1) = (   0.9888522   0.3653860   0.2869687  )
         2           Pr  tau(   2) = (   1.4759645   0.5453765   0.6645600  )
         3           Fe  tau(   3) = (   1.4783946   0.5462744   0.0825794  )
         4           Fe  tau(   4) = (   0.9864221   0.3644881   0.8689493  )
         5           Si  tau(   5) = (   1.9686769   0.7274363   0.7085873  )
         6           Si  tau(   6) = (   0.4961398   0.1833262   0.2429415  )
         7           C   tau(   7) = (   0.0000000   0.0000000   0.0000000  )

   Crystallographic axes

     site n.     atom                  positions (cryst. coord.)
         1           Pr  tau(   1) = (  0.4410940  0.4410940  0.3015870  )
         2           Pr  tau(   2) = (  0.5589060  0.5589060  0.6984130  )
         3           Fe  tau(   3) = (  0.8053500  0.8053500  0.0867860  )
         4           Fe  tau(   4) = (  0.1946500  0.1946500  0.9132140  )
         5           Si  tau(   5) = (  0.8203590  0.8203590  0.7446830  )
         6           Si  tau(   6) = (  0.1796410  0.1796410  0.2553170  )
         7           C   tau(   7) = (  0.0000000  0.0000000  0.0000000  )

     number of k points=    14
                       cart. coord. in units 2pi/alat
        k(    1) = (   0.0000000   0.0000000   0.0000000), wk =   0.0740741
        k(    2) = (   0.0000000   0.0000000   0.3503135), wk =   0.1481481
        k(    3) = (   0.0000000   0.5126379  -0.1403615), wk =   0.1481481
        k(    4) = (   0.0000000   0.5126379   0.2099520), wk =   0.1481481
        k(    5) = (   0.0000000   0.5126379  -0.4906750), wk =   0.1481481
        k(    6) = (   0.3333333  -0.3894695  -0.1403615), wk =   0.1481481
        k(    7) = (   0.3333333  -0.3894695   0.2099520), wk =   0.1481481
        k(    8) = (   0.3333333  -0.3894695  -0.4906750), wk =   0.1481481
        k(    9) = (   0.3333333   0.1231684  -0.2807231), wk =   0.1481481
        k(   10) = (   0.3333333   0.1231684   0.0695904), wk =   0.1481481
        k(   11) = (   0.3333333   0.1231684  -0.6310365), wk =   0.1481481
        k(   12) = (   0.3333333  -0.9021074   0.0000000), wk =   0.1481481
        k(   13) = (   0.3333333  -0.9021074   0.3503135), wk =   0.1481481
        k(   14) = (   0.3333333  -0.9021074  -0.3503135), wk =   0.1481481

                       cryst. coord.
        k(    1) = (   0.0000000   0.0000000   0.0000000), wk =   0.0740741
        k(    2) = (   0.0000000   0.0000000   0.3333333), wk =   0.1481481
        k(    3) = (   0.0000000   0.3333333  -0.0000000), wk =   0.1481481
        k(    4) = (   0.0000000   0.3333333   0.3333333), wk =   0.1481481
        k(    5) = (   0.0000000   0.3333333  -0.3333333), wk =   0.1481481
        k(    6) = (   0.3333333  -0.0000000  -0.0000000), wk =   0.1481481
        k(    7) = (   0.3333333  -0.0000000   0.3333333), wk =   0.1481481
        k(    8) = (   0.3333333  -0.0000000  -0.3333333), wk =   0.1481481
        k(    9) = (   0.3333333   0.3333333  -0.0000000), wk =   0.1481481
        k(   10) = (   0.3333333   0.3333333   0.3333333), wk =   0.1481481
        k(   11) = (   0.3333333   0.3333333  -0.3333333), wk =   0.1481481
        k(   12) = (   0.3333333  -0.3333333  -0.0000000), wk =   0.1481481
        k(   13) = (   0.3333333  -0.3333333   0.3333333), wk =   0.1481481
        k(   14) = (   0.3333333  -0.3333333  -0.3333333), wk =   0.1481481

     Check: negative core charge=   -0.000097

     Initial potential from superposition of free atoms

     starting charge      69.9831, renormalised to      70.0000
     Starting wfcs are  102 randomized atomic wfcs
     Checking if some PAW data can be deallocated...

     Self-consistent Calculation

     iteration #  1     ecut=    30.00 Ry     beta= 0.70
     Davidson diagonalization with overlap

     ethr =  1.00E-02,  avg # of iterations =  4.4

     total energy              =   -1708.34249725 Ry
     estimated scf accuracy    <       8.71895469 Ry

[...]

     total energy              =   -1715.97489517 Ry
     estimated scf accuracy    <       0.00000240 Ry

     iteration # 17     ecut=    30.00 Ry     beta= 0.70
     Davidson diagonalization with overlap

     ethr =  3.42E-09,  avg # of iterations =  1.0

     End of self-consistent calculation

          k = 0.0000 0.0000 0.0000 (  2255 PWs)   bands (ev):

   -74.0156 -74.0152 -39.8590 -39.8154 -39.5701 -39.5441 -39.5069 -39.4976
   -22.6809 -22.5885  -5.1287  -4.8192  -4.5398  -4.5200  -4.4917  -4.4283
     2.4958   4.7693   5.8851   9.1347   9.2776   9.4499   9.6352  10.3780
    10.5018  10.5647  11.0629  11.2311  11.5812  12.0743  12.2279  12.6202
    12.8322  12.8410  13.0218  13.1455  13.1682  13.1745  13.1982  13.2207
    13.2536  13.3146  13.3512  13.3644  13.3807  13.4592  13.4653  13.5016
    13.5612  13.6910  15.9788  16.2459  16.9670  17.1824  17.3505  17.8237
    18.0067  18.0946  18.7247  18.7349  19.2367  19.4982  19.7366  20.3779

     occupation numbers
     1.0000   1.0000   1.0000   1.0000   1.0000   1.0000   1.0000   1.0000
     1.0000   1.0000   1.0000   1.0000   1.0000   1.0000   1.0000   1.0000
     1.0000   1.0000   1.0000   1.0000   1.0000   1.0000   1.0000   1.0000
     1.0000   1.0000   1.0000   1.0000   1.0000   1.0000   1.0000   1.0000
     1.0000   1.0000   1.0000   0.0000   0.0000   0.0000   0.0000   0.0000
     0.0000   0.0000   0.0000   0.0000   0.0000   0.0000   0.0000   0.0000
     0.0000   0.0000   0.0000   0.0000   0.0000   0.0000   0.0000   0.0000
     0.0000   0.0000   0.0000   0.0000   0.0000   0.0000   0.0000   0.0000

[...]

          k = 0.3333-0.9021-0.3503 (  2245 PWs)   bands (ev):

   -74.0145 -74.0127 -39.8376 -39.8294 -39.5640 -39.5370 -39.4962 -39.4903
   -22.6361 -22.6032  -4.9787  -4.9227  -4.8273  -4.6475  -4.6146  -4.4311
     3.1235   5.0870   6.2152   8.7590   9.0655   9.5552  10.0414  10.3014
    10.4954  10.6120  10.8660  11.2919  11.6043  11.7975  11.8628  12.1853
    12.7446  12.9324  12.9827  13.1169  13.1568  13.1681  13.2016  13.2218
    13.2270  13.2501  13.2927  13.3063  13.3261  13.3785  13.4462  13.6672
    13.9084  14.2850  14.5470  15.4808  16.0171  16.5758  16.7081  17.7746
    18.0290  18.2759  18.9175  19.5280  19.5625  19.9694  20.6150  21.3006

     occupation numbers
     1.0000   1.0000   1.0000   1.0000   1.0000   1.0000   1.0000   1.0000
     1.0000   1.0000   1.0000   1.0000   1.0000   1.0000   1.0000   1.0000
     1.0000   1.0000   1.0000   1.0000   1.0000   1.0000   1.0000   1.0000
     1.0000   1.0000   1.0000   1.0000   1.0000   1.0000   1.0000   1.0000
     1.0000   1.0000   1.0000   0.0000   0.0000   0.0000   0.0000   0.0000
     0.0000   0.0000   0.0000   0.0000   0.0000   0.0000   0.0000   0.0000
     0.0000   0.0000   0.0000   0.0000   0.0000   0.0000   0.0000   0.0000
     0.0000   0.0000   0.0000   0.0000   0.0000   0.0000   0.0000   0.0000

     highest occupied, lowest unoccupied level (ev):    13.0700   13.0433

!    total energy              =   -1715.97489498 Ry
     estimated scf accuracy    <       0.00000093 Ry

     The total energy is the sum of the following terms:
     one-electron contribution =    -400.89981973 Ry
     hartree contribution      =     244.85898398 Ry
     xc contribution           =    -110.19181063 Ry
     ewald contribution        =    -452.38577349 Ry
     one-center paw contrib.   =    -997.35647512 Ry
      -> PAW hartree energy AE =      62.56005320 Ry
      -> PAW hartree energy PS =     -62.62110607 Ry
      -> PAW xc energy AE      =    -430.01144470 Ry
      -> PAW xc energy PS      =      10.56137555 Ry
      -> total E_H with PAW    =     244.79793110 Ry
      -> total E_XC with PAW   =    -529.64187978 Ry

     convergence has been achieved in  17 iterations

     Writing all to output data dir calculations_bands_val/myprefix.save/

     General routines

     Parallel routines

     PAW routines

   This run was terminated on:  13:55:21   4Jun2023

   JOB DONE.