     Program PWSCF v.7.0 starts on  4Jun2023 at 15:25:47

     K-points division:     npool     =       2
     R & G space division:  proc/nbgrp/npool/nimage =       4

     Reading input from espresso_916.pwi
Warning: card &CELL ignored
Warning: card / ignored

     Current dimensions of program PWSCF are:
     Max number of different atomic species (ntypx) = 10
     Max number of k-points (npk) =  40000
     Max angular momentum in pseudopotentials (lmaxx) =  4
     file O.pbe-n-kjpaw_psl.0.1.UPF: wavefunction(s)  2P renormalized

     Using Slab Decomposition

     bravais-lattice index     =            0
     lattice parameter (alat)  =      13.1165  a.u.
     unit-cell volume          =    1134.2872 (a.u.)^3
     number of atoms/cell      =           12
     number of atomic types    =            4
     number of electrons       =        90.00
     number of Kohn-Sham states=           64
     kinetic-energy cutoff     =      30.0000  Ry
     charge density cutoff     =     240.0000  Ry
     scf convergence threshold =      1.0E-06
     mixing beta               =       0.7000
     number of iterations used =            8  plain     mixing
     Exchange-correlation= SLA  PW   PBX  PBC
                           (   1   4   3   4   0   0   0)

     celldm(1)=  13.116511  celldm(2)=   0.000000  celldm(3)=   0.000000
     celldm(4)=   0.000000  celldm(5)=   0.000000  celldm(6)=   0.000000

     crystal axes: (cart. coord. in units of alat)
               a(1) = (   1.000000   0.000000   0.000000 )
               a(2) = (   0.399000   0.916951   0.000000 )
               a(3) = (  -0.699500  -0.458475   0.548179 )

     reciprocal axes: (cart. coord. in units 2 pi/alat)
               b(1) = (  1.000000 -0.435138  0.912111 )
               b(2) = (  0.000000  1.090571  0.912111 )
               b(3) = (  0.000000  0.000000  1.824223 )

     PseudoPot. # 1 for Li read from file:
     /home/pragov/projects/rrg-bengioy-ad/pragov/crystal_structure_design/SSSP/li_pbe_v1.4.uspp.F.UPF
     MD5 check sum: e912e257baa3777c20ea3d68f190483c
     Pseudo is Ultrasoft, Zval =  3.0
     Generated by new atomic code, or converted to UPF format
     Using radial grid of  751 points,  5 beta functions with:
                l(1) =   0
                l(2) =   0
                l(3) =   0
                l(4) =   1
                l(5) =   1
     Q(r) pseudized with 10 coefficients,  rinner =    1.150   1.150   1.150

     PseudoPot. # 2 for La read from file:
     /home/pragov/projects/rrg-bengioy-ad/pragov/crystal_structure_design/SSSP/La.GGA-PBE-paw-v1.0.UPF
     MD5 check sum: 436541e95c1ad8901025bd0b0ed42ae2
     Pseudo is Projector augmented-wave + core cor, Zval = 11.0
     Generated using ATOMPAW code
     Shape of augmentation charge: BESSEL
     Using radial grid of 1101 points,  8 beta functions with:
                l(1) =   0
                l(2) =   0
                l(3) =   1
                l(4) =   1
                l(5) =   2
                l(6) =   2
                l(7) =   3
                l(8) =   3
     Q(r) pseudized with 0 coefficients

     PseudoPot. # 3 for W  read from file:
     /home/pragov/projects/rrg-bengioy-ad/pragov/crystal_structure_design/SSSP/W_pbe_v1.2.uspp.F.UPF
     MD5 check sum: 9c083fa34c2a2ea0f02f1f893e16e1c8
     Pseudo is Ultrasoft + core correction, Zval = 14.0
     Generated by new atomic code, or converted to UPF format
     Using radial grid of  923 points,  8 beta functions with:
                l(1) =   0
                l(2) =   0
                l(3) =   0
                l(4) =   1
                l(5) =   1
                l(6) =   2
                l(7) =   2
                l(8) =   3
     Q(r) pseudized with  6 coefficients,  rinner =    1.350   1.350   1.350
                                                       1.350   1.350   1.350
                                                       1.350

     PseudoPot. # 4 for O  read from file:
     /home/pragov/projects/rrg-bengioy-ad/pragov/crystal_structure_design/SSSP/O.pbe-n-kjpaw_psl.0.1.UPF
     MD5 check sum: 0234752ac141de4415c5fc33072bef88
     Pseudo is Projector augmented-wave + core cor, Zval =  6.0
     Generated using "atomic" code by A. Dal Corso  v.5.0.99 svn rev. 10869
     Shape of augmentation charge: BESSEL
     Using radial grid of 1095 points,  4 beta functions with:
                l(1) =   0
                l(2) =   0
                l(3) =   1
                l(4) =   1
     Q(r) pseudized with 0 coefficients

     atomic species   valence    mass     pseudopotential
        Li             3.00     6.94000     Li( 1.00)
        La            11.00   138.90547     La( 1.00)
        W             14.00   183.84000     W ( 1.00)
        O              6.00    15.99900     O ( 1.00)

     No symmetry found

                                    s                        frac. trans.

      isym =  1     identity

 cryst.   s( 1) = (     1          0          0      )
                  (     0          1          0      )
                  (     0          0          1      )

 cart.    s( 1) = (  1.0000000  0.0000000  0.0000000 )
                  (  0.0000000  1.0000000 -0.0000000 )
                  (  0.0000000  0.0000000  1.0000000 )

   Cartesian axes

     site n.     atom                  positions (alat units)
         1           Li  tau(   1) = (   0.1995002   0.4584754   0.2740893  )
         2           La  tau(   2) = (   0.0000000   0.0000000   0.0000000  )
         3           W   tau(   3) = (   0.5000000  -0.0000000   0.2740893  )
         4           W   tau(   4) = (   0.6995002   0.4584754   0.0000000  )
         5           O   tau(   5) = (   0.7386604  -0.0997592   0.2273554  )
         6           O   tau(   6) = (   0.5037513   0.2586438   0.3208232  )
         7           O   tau(   7) = (   0.8447919   0.4929234   0.2168321  )
         8           O   tau(   8) = (   0.0895586   0.1194805   0.3313466  )
         9           O   tau(   9) = (   0.4632124   0.5628610   0.0508348  )
        10           O   tau(  10) = (   0.0014376  -0.2583142   0.4973438  )
        11           O   tau(  11) = (   0.3531756  -0.0403559   0.0598260  )
        12           O   tau(  12) = (   0.4044126  -0.1185287   0.4883526  )

   Crystallographic axes

     site n.     atom                  positions (cryst. coord.)
         1           Li  tau(   1) = (  0.2500000  0.7500000  0.5000000  )
         2           La  tau(   2) = (  0.0000000  0.0000000  0.0000000  )
         3           W   tau(   3) = (  0.7500000  0.2500000  0.5000000  )
         4           W   tau(   4) = (  0.5000000  0.5000000  0.0000000  )
         5           O   tau(   5) = (  0.9894430  0.0985790  0.4147470  )
         6           O   tau(   6) = (  0.6838320  0.5746960  0.5852530  )
         7           O   tau(   7) = (  0.8280770  0.7353430  0.3955500  )
         8           O   tau(   8) = (  0.3397930  0.4325270  0.6044500  )
         9           O   tau(   9) = (  0.2646570  0.6602070  0.0927340  )
        10           O   tau(  10) = (  0.5674730  0.1719230  0.9072660  )
        11           O   tau(  11) = (  0.4253040  0.0105570  0.1091360  )
        12           O   tau(  12) = (  0.9014210  0.3161680  0.8908640  )

     number of k points=    14
                       cart. coord. in units 2pi/alat
        k(    1) = (   0.0000000   0.0000000   0.0000000), wk =   0.0740741
        k(    2) = (   0.0000000   0.0000000   0.6080743), wk =   0.1481481
        k(    3) = (   0.0000000   0.3635237   0.3040372), wk =   0.1481481
        k(    4) = (   0.0000000   0.3635237   0.9121115), wk =   0.1481481
        k(    5) = (   0.3333333  -0.1450461   0.3040372), wk =   0.1481481
        k(    6) = (   0.3333333  -0.1450461   0.9121115), wk =   0.1481481
        k(    7) = (   0.3333333   0.2184776   0.6080743), wk =   0.1481481
        k(    8) = (   0.3333333   0.2184776   0.0000000), wk =   0.1481481
        k(    9) = (   0.3333333  -0.5085698  -0.0000000), wk =   0.1481481
        k(   10) = (   0.3333333  -0.5085698   0.6080743), wk =   0.1481481
        k(   11) = (   0.0000000  -0.3635237   0.3040372), wk =   0.1481481
        k(   12) = (  -0.3333333   0.1450461   0.3040372), wk =   0.1481481
        k(   13) = (  -0.3333333  -0.2184776   0.6080743), wk =   0.1481481
        k(   14) = (  -0.3333333   0.5085698   0.6080743), wk =   0.1481481

                       cryst. coord.
        k(    1) = (   0.0000000   0.0000000   0.0000000), wk =   0.0740741
        k(    2) = (   0.0000000   0.0000000   0.3333333), wk =   0.1481481
        k(    3) = (   0.0000000   0.3333333  -0.0000000), wk =   0.1481481
        k(    4) = (   0.0000000   0.3333333   0.3333333), wk =   0.1481481
        k(    5) = (   0.3333333  -0.0000000   0.0000000), wk =   0.1481481
        k(    6) = (   0.3333333  -0.0000000   0.3333333), wk =   0.1481481
        k(    7) = (   0.3333333   0.3333333   0.0000000), wk =   0.1481481
        k(    8) = (   0.3333333   0.3333333  -0.3333333), wk =   0.1481481
        k(    9) = (   0.3333333  -0.3333333   0.0000000), wk =   0.1481481
        k(   10) = (   0.3333333  -0.3333333   0.3333333), wk =   0.1481481
        k(   11) = (   0.0000000  -0.3333333   0.3333333), wk =   0.1481481
        k(   12) = (  -0.3333333   0.0000000   0.3333333), wk =   0.1481481
        k(   13) = (  -0.3333333  -0.3333333   0.6666667), wk =   0.1481481
        k(   14) = (  -0.3333333   0.3333333   0.3333333), wk =   0.1481481

     Check: negative core charge=   -0.000011

     Initial potential from superposition of free atoms

     starting charge      89.3400, renormalised to      90.0000

     negative rho (up, down):  1.278E-01 0.000E+00
     Starting wfcs are   95 randomized atomic wfcs
     Checking if some PAW data can be deallocated...

     Self-consistent Calculation

     iteration #  1     ecut=    30.00 Ry     beta= 0.70
     Davidson diagonalization with overlap

     ethr =  1.00E-02,  avg # of iterations =  2.0

     negative rho (up, down):  1.201E-01 0.000E+00

     total energy              =   -1122.19623952 Ry
     estimated scf accuracy    <       4.61190700 Ry

[...]

     total energy              =   -1124.85017656 Ry
     estimated scf accuracy    <       0.00000101 Ry

     iteration # 12     ecut=    30.00 Ry     beta= 0.70
     Davidson diagonalization with overlap

     ethr =  1.13E-09,  avg # of iterations =  2.0

     negative rho (up, down):  1.219E-01 0.000E+00

     End of self-consistent calculation

          k = 0.0000 0.0000 0.0000 (  3155 PWs)   bands (ev):

   -67.3885 -67.3710 -37.4954 -31.7382 -31.7337 -31.7337 -31.7161 -31.7136
   -31.7136 -23.3818 -10.7999 -10.4263 -10.2282 -10.2282  -9.9915  -9.9545
    -9.8284  -9.8284  -6.6816  -6.6816  -6.6314   2.0770   2.3431   2.3431
     2.3979   2.3997   3.0554   3.0644   3.3168   3.4098   3.4807   3.4807
     3.8294   4.5930   4.5930   4.8194   5.0881   5.0882   5.1502   5.5839
     5.5840   5.7072   6.0290   6.3046   6.3046  10.2583  10.6108  10.7655
    10.9507  11.4163  11.4163  11.6143  11.6187  11.6406  11.6407  11.8182
    12.1879  12.3110  12.3110  12.7075  12.7167  12.7167  12.9829  13.5094

     occupation numbers
     1.0000   1.0000   1.0000   1.0000   1.0000   1.0000   1.0000   1.0000
     1.0000   1.0000   1.0000   1.0000   1.0000   1.0000   1.0000   1.0000
     1.0000   1.0000   1.0000   1.0000   1.0000   1.0000   1.0000   1.0000
     1.0000   1.0000   1.0000   1.0000   1.0000   1.0000   1.0000   1.0000
     1.0000   1.0000   1.0000   1.0000   1.0000   1.0000   1.0000   1.0000
     1.0000   1.0000   1.0000   1.0000   1.0000   0.0000   0.0000   0.0000
     0.0000   0.0000   0.0000   0.0000   0.0000   0.0000   0.0000   0.0000
     0.0000   0.0000   0.0000   0.0000   0.0000   0.0000   0.0000   0.0000

[...]

          k = 0.0000-0.3635 0.3040 (  3137 PWs)   bands (ev):

[...]

          k =-0.3333 0.1450 0.3040 (  3137 PWs)   bands (ev):

[...]

          k =-0.3333 0.5086 0.6081 (  3125 PWs)   bands (ev):

   -67.3884 -67.3709 -37.4948 -31.7363 -31.7344 -31.7326 -31.7204 -31.7128
   -31.7123 -23.3799 -10.8358 -10.6535 -10.2937 -10.0947  -9.9461  -9.8288
    -9.8074  -9.7717  -6.7397  -6.6828  -6.6362   2.0866   2.3533   2.5105
     2.5408   2.6878   2.7891   2.9938   3.2287   3.3065   3.5470   3.8237
     4.0281   4.1976   4.4726   4.7159   4.8305   5.0066   5.1625   5.6591
     5.7780   5.9086   6.0125   6.0628   6.2865  10.4080  10.5233  10.7736
    10.8628  11.4181  11.4360  11.5740  11.5906  11.6071  11.6795  11.7327
    12.2081  12.3836  12.6546  12.8114  13.0100  13.2323  13.3855  13.9973

     occupation numbers
     1.0000   1.0000   1.0000   1.0000   1.0000   1.0000   1.0000   1.0000
     1.0000   1.0000   1.0000   1.0000   1.0000   1.0000   1.0000   1.0000
     1.0000   1.0000   1.0000   1.0000   1.0000   1.0000   1.0000   1.0000
     1.0000   1.0000   1.0000   1.0000   1.0000   1.0000   1.0000   1.0000
     1.0000   1.0000   1.0000   1.0000   1.0000   1.0000   1.0000   1.0000
     1.0000   1.0000   1.0000   1.0000   1.0000   0.0000   0.0000   0.0000
     0.0000   0.0000   0.0000   0.0000   0.0000   0.0000   0.0000   0.0000
     0.0000   0.0000   0.0000   0.0000   0.0000   0.0000   0.0000   0.0000

     highest occupied, lowest unoccupied level (ev):     6.3046   10.2311

!    total energy              =   -1124.85017671 Ry
     estimated scf accuracy    <       0.00000004 Ry

     The total energy is the sum of the following terms:
     one-electron contribution =    -244.84282106 Ry
     hartree contribution      =     163.89161864 Ry
     xc contribution           =    -153.66255251 Ry
     ewald contribution        =    -415.92448057 Ry
     one-center paw contrib.   =    -474.31194121 Ry
      -> PAW hartree energy AE =      34.46791499 Ry
      -> PAW hartree energy PS =     -34.52303377 Ry
      -> PAW xc energy AE      =    -405.28702982 Ry
      -> PAW xc energy PS      =       7.25292229 Ry
      -> total E_H with PAW    =     163.83649986 Ry
      -> total E_XC with PAW   =    -551.69666004 Ry

     convergence has been achieved in  12 iterations

     Writing all to output data dir calculations_bands_val/myprefix.save/

     General routines

     Parallel routines

     PAW routines

   This run was terminated on:  15:26: 8   4Jun2023

   JOB DONE.