     Program PWSCF v.7.0 starts on  4Jun2023 at 14:48:59

     K-points division:     npool     =       2
     R & G space division:  proc/nbgrp/npool/nimage =       4

     Reading input from espresso_805.pwi
Warning: card &CELL ignored
Warning: card / ignored

     Current dimensions of program PWSCF are:
     Max number of different atomic species (ntypx) = 10
     Max number of k-points (npk) =  40000
     Max angular momentum in pseudopotentials (lmaxx) =  4
     file O.pbe-n-kjpaw_psl.0.1.UPF: wavefunction(s)  2P renormalized

     Using Slab Decomposition

     bravais-lattice index     =            0
     lattice parameter (alat)  =      15.8261  a.u.
     unit-cell volume          =    1733.7582 (a.u.)^3
     number of atoms/cell      =           18
     number of atomic types    =            3
     number of electrons       =       120.00
     number of Kohn-Sham states=           64
     kinetic-energy cutoff     =      30.0000  Ry
     charge density cutoff     =     240.0000  Ry
     scf convergence threshold =      1.0E-06
     mixing beta               =       0.7000
     number of iterations used =            8  plain     mixing
     Exchange-correlation= SLA  PW   PBX  PBC
                           (   1   4   3   4   0   0   0)

     celldm(1)=  15.826102  celldm(2)=   0.000000  celldm(3)=   0.000000
     celldm(4)=   0.000000  celldm(5)=   0.000000  celldm(6)=   0.000000

     crystal axes: (cart. coord. in units of alat)
               a(1) = (   1.000000   0.000000   0.000000 )
               a(2) = (   0.535841   0.664087   0.000000 )
               a(3) = (   0.464159  -0.084958   0.658630 )

     reciprocal axes: (cart. coord. in units 2 pi/alat)
               b(1) = (  1.000000 -0.806884 -0.808815 )
               b(2) = (  0.000000  1.505827  0.194239 )
               b(3) = (  0.000000  0.000000  1.518303 )

     PseudoPot. # 1 for Ca read from file:
     /home/pragov/projects/rrg-bengioy-ad/pragov/crystal_structure_design/SSSP/Ca_pbe_v1.uspp.F.UPF
     MD5 check sum: 403a4c14b9e4d4dfdc3024c9a3812218
     Pseudo is Ultrasoft + core correction, Zval = 10.0
     Generated by new atomic code, or converted to UPF format
     Using radial grid of  845 points,  6 beta functions with:
                l(1) =   0
                l(2) =   0
                l(3) =   1
                l(4) =   1
                l(5) =   2
                l(6) =   2
     Q(r) pseudized with  8 coefficients,  rinner =    1.500   1.500   1.500
                                                       1.500   1.500

     PseudoPot. # 2 for Cl read from file:
     /home/pragov/projects/rrg-bengioy-ad/pragov/crystal_structure_design/SSSP/cl_pbe_v1.4.uspp.F.UPF
     MD5 check sum: fc6f6913ecf08c9257cb748ef0700058
     Pseudo is Ultrasoft + core correction, Zval =  7.0
     Generated by new atomic code, or converted to UPF format
     Using radial grid of  909 points,  6 beta functions with:
                l(1) =   0
                l(2) =   0
                l(3) =   1
                l(4) =   1
                l(5) =   2
                l(6) =   2
     Q(r) pseudized with  8 coefficients,  rinner =    1.300   1.300   1.300
                                                       1.300   1.300

     PseudoPot. # 3 for O  read from file:
     /home/pragov/projects/rrg-bengioy-ad/pragov/crystal_structure_design/SSSP/O.pbe-n-kjpaw_psl.0.1.UPF
     MD5 check sum: 0234752ac141de4415c5fc33072bef88
     Pseudo is Projector augmented-wave + core cor, Zval =  6.0
     Generated using "atomic" code by A. Dal Corso  v.5.0.99 svn rev. 10869
     Shape of augmentation charge: BESSEL
     Using radial grid of 1095 points,  4 beta functions with:
                l(1) =   0
                l(2) =   0
                l(3) =   1
                l(4) =   1
     Q(r) pseudized with 0 coefficients

     atomic species   valence    mass     pseudopotential
        Ca            10.00    40.07800     Ca( 1.00)
        Cl             7.00    35.45000     Cl( 1.00)
        O              6.00    15.99900     O ( 1.00)

     No symmetry found

                                    s                        frac. trans.

      isym =  1     identity

 cryst.   s( 1) = (     1          0          0      )
                  (     0          1          0      )
                  (     0          0          1      )

 cart.    s( 1) = (  1.0000000 -0.0000000 -0.0000000 )
                  (  0.0000000  1.0000000  0.0000000 )
                  (  0.0000000  0.0000000  1.0000000 )

   Cartesian axes

     site n.     atom                  positions (alat units)
         1           Ca  tau(   1) = (   0.5000000   0.2889711   0.3286400  )
         2           Ca  tau(   2) = (   1.0000000   0.1441887   0.1639825  )
         3           Cl  tau(   3) = (   1.2021666   0.3394488   0.6519860  )
         4           Cl  tau(   4) = (   1.1965052   0.5401804   0.1835207  )
         5           Cl  tau(   5) = (   0.8034958   0.1129066   0.5592199  )
         6           Cl  tau(   6) = (   1.7978324   0.6032024   0.4200691  )
         7           O   tau(   7) = (   0.7454056   0.3245962   0.1463575  )
         8           O   tau(   8) = (   0.6979595   0.5902435   0.0435829  )
         9           O   tau(   9) = (   1.3723570   0.3408822   0.5948577  )
        10           O   tau(  10) = (   1.1456050   0.3870846   0.2622685  )
        11           O   tau(  11) = (   0.6284917   0.1602726   0.5828100  )
        12           O   tau(  12) = (   0.5723960   0.0082281   0.2633816  )
        13           O   tau(  13) = (   0.4276040   0.2601648   0.0418553  )
        14           O   tau(  14) = (   1.3715083   0.5575172   0.2335154  )
        15           O   tau(  15) = (   0.8543950   0.2105932   0.4174563  )
        16           O   tau(  16) = (   1.6276430   0.5463602   0.4141822  )
        17           O   tau(  17) = (   1.3020405  -0.0322860   0.5909691  )
        18           O   tau(  18) = (   1.2545944   0.1036288   0.3406528  )

   Crystallographic axes

     site n.     atom                  positions (cryst. coord.)
         1           Ca  tau(   1) = (  0.0010250  0.4989750  0.4989750  )
         2           Ca  tau(   2) = (  0.7510250  0.2489750  0.2489750  )
         3           Cl  tau(   3) = (  0.4009350  0.6377920  0.9899120  )
         4           Cl  tau(   4) = (  0.6122080  0.8490650  0.2786400  )
         5           Cl  tau(   5) = (  0.2600880  0.2786400  0.8490650  )
         6           Cl  tau(   6) = (  0.9713600  0.9899120  0.6377920  )
         7           O   tau(   7) = (  0.3651180  0.5172140  0.2222150  )
         8           O   tau(   8) = (  0.1864510  0.8972700  0.0661720  )
         9           O   tau(   9) = (  0.6161750  0.6288540  0.9031740  )
        10           O   tau(  10) = (  0.6211460  0.6338250  0.3982030  )
        11           O   tau(  11) = (  0.0277850  0.3545470  0.8848820  )
        12           O   tau(  12) = (  0.3527300  0.0635490  0.3998930  )
        13           O   tau(  13) = (  0.1838280  0.3998930  0.0635490  )
        14           O   tau(  14) = (  0.7327860  0.8848820  0.3545470  )
        15           O   tau(  15) = (  0.3468260  0.3982030  0.6338250  )
        16           O   tau(  16) = (  0.8517970  0.9031740  0.6288540  )
        17           O   tau(  17) = (  0.8501070  0.0661720  0.8972700  )
        18           O   tau(  18) = (  0.8954530  0.2222150  0.5172140  )

     number of k points=    14
                       cart. coord. in units 2pi/alat
        k(    1) = (   0.0000000   0.0000000   0.0000000), wk =   0.0740741
        k(    2) = (   0.0000000   0.0000000   0.5061009), wk =   0.1481481
        k(    3) = (   0.0000000   0.5019423   0.0647462), wk =   0.1481481
        k(    4) = (   0.0000000   0.5019423   0.5708471), wk =   0.1481481
        k(    5) = (   0.0000000   0.5019423  -0.4413546), wk =   0.1481481
        k(    6) = (   0.3333333  -0.2689613  -0.2696049), wk =   0.1481481
        k(    7) = (   0.3333333  -0.2689613   0.2364960), wk =   0.1481481
        k(    8) = (   0.3333333  -0.2689613  -0.7757058), wk =   0.1481481
        k(    9) = (   0.3333333   0.2329809  -0.2048587), wk =   0.1481481
        k(   10) = (   0.3333333   0.2329809   0.3012422), wk =   0.1481481
        k(   11) = (   0.3333333   0.2329809  -0.7109595), wk =   0.1481481
        k(   12) = (   0.3333333  -0.7709036  -0.3343511), wk =   0.1481481
        k(   13) = (   0.3333333  -0.7709036   0.1717498), wk =   0.1481481
        k(   14) = (   0.3333333  -0.7709036  -0.8404520), wk =   0.1481481

                       cryst. coord.
        k(    1) = (   0.0000000   0.0000000   0.0000000), wk =   0.0740741
        k(    2) = (   0.0000000   0.0000000   0.3333333), wk =   0.1481481
        k(    3) = (   0.0000000   0.3333333  -0.0000000), wk =   0.1481481
        k(    4) = (   0.0000000   0.3333333   0.3333333), wk =   0.1481481
        k(    5) = (   0.0000000   0.3333333  -0.3333333), wk =   0.1481481
        k(    6) = (   0.3333333  -0.0000000  -0.0000000), wk =   0.1481481
        k(    7) = (   0.3333333  -0.0000000   0.3333333), wk =   0.1481481
        k(    8) = (   0.3333333  -0.0000000  -0.3333333), wk =   0.1481481
        k(    9) = (   0.3333333   0.3333333  -0.0000000), wk =   0.1481481
        k(   10) = (   0.3333333   0.3333333   0.3333333), wk =   0.1481481
        k(   11) = (   0.3333333   0.3333333  -0.3333333), wk =   0.1481481
        k(   12) = (   0.3333333  -0.3333333  -0.0000000), wk =   0.1481481
        k(   13) = (   0.3333333  -0.3333333   0.3333333), wk =   0.1481481
        k(   14) = (   0.3333333  -0.3333333  -0.3333333), wk =   0.1481481

     Check: negative core charge=   -0.000013

     Initial potential from superposition of free atoms

     starting charge     119.9890, renormalised to     120.0000

     negative rho (up, down):  5.353E-02 0.000E+00
     Starting wfcs are   84 randomized atomic wfcs
     Checking if some PAW data can be deallocated...

     Self-consistent Calculation

     iteration #  1     ecut=    30.00 Ry     beta= 0.70
     Davidson diagonalization with overlap

     ethr =  1.00E-02,  avg # of iterations =  2.0

     negative rho (up, down):  4.277E-02 0.000E+00

     total energy              =    -778.78589823 Ry
     estimated scf accuracy    <       5.06610914 Ry

[...]

     c_bands:  1 eigenvalues not converged
     ethr =  6.61E-05,  avg # of iterations =  9.7

[...]

     c_bands:  2 eigenvalues not converged
     c_bands:  1 eigenvalues not converged
     ethr =  7.43E-06,  avg # of iterations = 12.7

[...]

     total energy              =    -781.46440390 Ry
     estimated scf accuracy    <       0.00000226 Ry

     iteration # 12     ecut=    30.00 Ry     beta= 0.70
     Davidson diagonalization with overlap

     ethr =  1.88E-09,  avg # of iterations =  2.0

     negative rho (up, down):  3.744E-02 0.000E+00

     End of self-consistent calculation

          k = 0.0000 0.0000 0.0000 (  4795 PWs)   bands (ev):

   -35.3129 -35.3112 -20.8539 -20.7447 -20.7387 -20.6981 -16.5476 -16.5147
   -16.5110 -16.4566 -16.4247 -16.3950 -15.8367 -15.7737 -15.7353 -15.6623
   -15.4251 -15.4119 -15.3716 -15.3295  -7.8446  -7.7607  -7.6262  -7.5831
    -3.9248  -3.6239  -3.6106  -3.6040  -3.5005  -3.4318  -3.3097  -3.2328
    -3.1803  -3.0640  -2.8037  -2.7871   0.0851   0.3921   0.4253   0.5217
     0.6902   0.7790   1.0206   1.0788   1.4551   1.8249   1.8392   1.9727
     2.1103   2.1520   2.1799   2.4462   2.7066   2.7568   2.7906   2.8881
     2.9482   3.1704   3.3829   3.4163   8.5735   8.7789   8.8417   9.2631

     occupation numbers
     1.0000   1.0000   1.0000   1.0000   1.0000   1.0000   1.0000   1.0000
     1.0000   1.0000   1.0000   1.0000   1.0000   1.0000   1.0000   1.0000
     1.0000   1.0000   1.0000   1.0000   1.0000   1.0000   1.0000   1.0000
     1.0000   1.0000   1.0000   1.0000   1.0000   1.0000   1.0000   1.0000
     1.0000   1.0000   1.0000   1.0000   1.0000   1.0000   1.0000   1.0000
     1.0000   1.0000   1.0000   1.0000   1.0000   1.0000   1.0000   1.0000
     1.0000   1.0000   1.0000   1.0000   1.0000   1.0000   1.0000   1.0000
     1.0000   1.0000   1.0000   1.0000   0.0000   0.0000   0.0000   0.0000

[...]

          k = 0.3333-0.7709-0.8405 (  4808 PWs)   bands (ev):

   -35.3122 -35.3118 -20.8173 -20.7884 -20.7319 -20.7211 -16.4906 -16.4734
   -16.4081 -16.3625 -16.3460 -16.3037 -15.8657 -15.8394 -15.7721 -15.7105
   -15.5312 -15.4945 -15.4407 -15.4159  -7.7807  -7.7442  -7.5780  -7.5161
    -3.6879  -3.6651  -3.6321  -3.5603  -3.5451  -3.4686  -3.3152  -3.2379
    -3.1881  -3.0389  -2.9384  -2.8922   0.0516   0.1537   0.4953   0.5627
     0.7267   0.8505   0.9706   1.0382   1.5639   1.7200   1.8711   1.9439
     2.0198   2.0751   2.2320   2.3384   2.8133   2.8398   2.8670   2.8934
     3.0840   3.1732   3.2021   3.2376   8.6305   8.7708   8.9930   9.0951

     occupation numbers
     1.0000   1.0000   1.0000   1.0000   1.0000   1.0000   1.0000   1.0000
     1.0000   1.0000   1.0000   1.0000   1.0000   1.0000   1.0000   1.0000
     1.0000   1.0000   1.0000   1.0000   1.0000   1.0000   1.0000   1.0000
     1.0000   1.0000   1.0000   1.0000   1.0000   1.0000   1.0000   1.0000
     1.0000   1.0000   1.0000   1.0000   1.0000   1.0000   1.0000   1.0000
     1.0000   1.0000   1.0000   1.0000   1.0000   1.0000   1.0000   1.0000
     1.0000   1.0000   1.0000   1.0000   1.0000   1.0000   1.0000   1.0000
     1.0000   1.0000   1.0000   1.0000   0.0000   0.0000   0.0000   0.0000

     highest occupied, lowest unoccupied level (ev):     3.4163    8.4742

!    total energy              =    -781.46440347 Ry
     estimated scf accuracy    <       0.00000062 Ry

     The total energy is the sum of the following terms:
     one-electron contribution =    -283.61743200 Ry
     hartree contribution      =     198.40727551 Ry
     xc contribution           =    -151.11505245 Ry
     ewald contribution        =    -430.73929862 Ry
     one-center paw contrib.   =    -114.39989591 Ry
      -> PAW hartree energy AE =       0.00000000 Ry
      -> PAW hartree energy PS =       0.00000000 Ry
      -> PAW xc energy AE      =       0.00000000 Ry
      -> PAW xc energy PS      =       0.00000000 Ry
      -> total E_H with PAW    =     198.40727551 Ry
      -> total E_XC with PAW   =    -151.11505245 Ry

     convergence has been achieved in  12 iterations

     Writing all to output data dir calculations_bands_val/myprefix.save/

     General routines

     Parallel routines

     PAW routines

   This run was terminated on:  14:49:21   4Jun2023

   JOB DONE.