     Program PWSCF v.7.0 starts on  4Jun2023 at 15:18:13

     K-points division:     npool     =       2
     R & G space division:  proc/nbgrp/npool/nimage =       4

     Reading input from espresso_889.pwi
Warning: card &CELL ignored
Warning: card / ignored

     Current dimensions of program PWSCF are:
     Max number of different atomic species (ntypx) = 10
     Max number of k-points (npk) =  40000
     Max angular momentum in pseudopotentials (lmaxx) =  4
     file K.pbe-spn-kjpaw_psl.1.0.0.UPF: wavefunction(s)  3S renormalized
     Message from routine setup:
     using ibrav=0 with symmetry is DISCOURAGED, use correct ibrav instead

     Using Slab Decomposition

     bravais-lattice index     =            0
     lattice parameter (alat)  =      10.6522  a.u.
     unit-cell volume          =    1759.0797 (a.u.)^3
     number of atoms/cell      =           14
     number of atomic types    =            3
     number of electrons       =        76.00
     number of Kohn-Sham states=           64
     kinetic-energy cutoff     =      30.0000  Ry
     charge density cutoff     =     240.0000  Ry
     scf convergence threshold =      1.0E-06
     mixing beta               =       0.7000
     number of iterations used =            8  plain     mixing
     Exchange-correlation=  SLA  PW   PBX  PBC
                           (   1   4   3   4   0   0   0)

     celldm(1)=  10.652167  celldm(2)=   0.000000  celldm(3)=   0.000000
     celldm(4)=   0.000000  celldm(5)=   0.000000  celldm(6)=   0.000000

     crystal axes: (cart. coord. in units of alat)
               a(1) = (   1.000000   0.000000   0.000000 )
               a(2) = (   0.000000   1.000000   0.000000 )
               a(3) = (   0.000000   0.000000   1.455364 )

     reciprocal axes: (cart. coord. in units 2 pi/alat)
               b(1) = (  1.000000  0.000000  0.000000 )
               b(2) = (  0.000000  1.000000  0.000000 )
               b(3) = (  0.000000  0.000000  0.687113 )

     PseudoPot. # 1 for K  read from file:
     /home/pragov/projects/rrg-bengioy-ad/pragov/crystal_structure_design/SSSP/K.pbe-spn-kjpaw_psl.1.0.0.UPF
     MD5 check sum: 7d58810084cac21f60fbe77ea2b688fd
     Pseudo is Projector augmented-wave + core cor, Zval =  9.0
     Generated using "atomic" code by A. Dal Corso  v.5.1
     Shape of augmentation charge: PSQ
     Using radial grid of 1165 points,  6 beta functions with:
                l(1) =   0
                l(2) =   0
                l(3) =   1
                l(4) =   1
                l(5) =   2
                l(6) =   2
     Q(r) pseudized with 0 coefficients

     PseudoPot. # 2 for H  read from file:
     /home/pragov/projects/rrg-bengioy-ad/pragov/crystal_structure_design/SSSP/H.pbe-rrkjus_psl.1.0.0.UPF
     MD5 check sum: f52b6d4d1c606e5624b1dc7b2218f220
     Pseudo is Ultrasoft, Zval =  1.0
     Generated using "atomic" code by A. Dal Corso  v.5.1
     Using radial grid of  929 points,  2 beta functions with:
                l(1) =   0
                l(2) =   0
     Q(r) pseudized with 0 coefficients

     PseudoPot. # 3 for Pt read from file:
     /home/pragov/projects/rrg-bengioy-ad/pragov/crystal_structure_design/SSSP/pt_pbe_v1.4.uspp.F.UPF
     MD5 check sum: f09d6de1a584b5a045c4fc126da2d0c4
     Pseudo is Ultrasoft + core correction, Zval = 16.0
     Generated by new atomic code, or converted to UPF format
     Using radial grid of  985 points,  6 beta functions with:
                l(1) =   0
                l(2) =   0
                l(3) =   1
                l(4) =   1
                l(5) =   2
                l(6) =   2
     Q(r) pseudized with  8 coefficients,  rinner =    1.300   1.300   1.300
                                                       1.300   1.300

     atomic species   valence    mass     pseudopotential
        K              9.00    39.09830     K ( 1.00)
        H              1.00     1.00800     H ( 1.00)
        Pt            16.00   195.08400     Pt( 1.00)

     16 Sym. Ops., with inversion, found ( 8 have fractional translation)

                                    s                        frac. trans.

      isym =  1     identity

 cryst.   s( 1) = (     1          0          0      )
                  (     0          1          0      )
                  (     0          0          1      )

 cart.    s( 1) = (  1.0000000  0.0000000  0.0000000 )
                  (  0.0000000  1.0000000  0.0000000 )
                  (  0.0000000  0.0000000  1.0000000 )

      isym =  2     180 deg rotation - cart. axis [0,0,1]

[...]

 cryst.   s( 3) = (    -1          0          0      )    f =(  0.5000000 )
                  (     0          1          0      )       ( -0.5000000 )
                  (     0          0         -1      )       (  0.5000000 )

 cart.    s( 3) = ( -1.0000000  0.0000000  0.0000000 )    f =(  0.5000000 )
                  (  0.0000000  1.0000000  0.0000000 )       ( -0.5000000 )
                  (  0.0000000  0.0000000 -1.0000000 )       (  0.7276820 )

[...]

      isym =  8      90 deg rotation - cart. axis [0,0,1]

 cryst.   s( 8) = (     0          1          0      )    f =(  0.5000000 )
                  (    -1          0          0      )       ( -0.5000000 )
                  (     0          0          1      )       (  0.5000000 )

 cart.    s( 8) = (  0.0000000 -1.0000000  0.0000000 )    f =(  0.5000000 )
                  (  1.0000000  0.0000000  0.0000000 )       ( -0.5000000 )
                  (  0.0000000  0.0000000  1.0000000 )       (  0.7276820 )

      isym =  9     inversion

 cryst.   s( 9) = (    -1          0          0      )
                  (     0         -1          0      )
                  (     0          0         -1      )

 cart.    s( 9) = ( -1.0000000  0.0000000  0.0000000 )
                  (  0.0000000 -1.0000000  0.0000000 )
                  (  0.0000000  0.0000000 -1.0000000 )

      isym = 10     inv. 180 deg rotation - cart. axis [0,0,1]

 cryst.   s(10) = (     1          0          0      )
                  (     0          1          0      )
                  (     0          0         -1      )

 cart.    s(10) = (  1.0000000  0.0000000  0.0000000 )
                  (  0.0000000  1.0000000  0.0000000 )
                  (  0.0000000  0.0000000 -1.0000000 )

[...]

 cryst.   s(11) = (     1          0          0      )    f =(  0.5000000 )
                  (     0         -1          0      )       (  0.5000000 )
                  (     0          0          1      )       (  0.5000000 )

 cart.    s(11) = (  1.0000000  0.0000000  0.0000000 )    f =(  0.5000000 )
                  (  0.0000000 -1.0000000  0.0000000 )       (  0.5000000 )
                  (  0.0000000  0.0000000  1.0000000 )       (  0.7276820 )

[...]

 cryst.   s(14) = (     0          1          0      )
                  (     1          0          0      )
                  (     0          0          1      )

 cart.    s(14) = (  0.0000000  1.0000000  0.0000000 )
                  (  1.0000000  0.0000000  0.0000000 )
                  (  0.0000000  0.0000000  1.0000000 )

[...]

      isym = 16     inv.  90 deg rotation - cart. axis [0,0,1]

 cryst.   s(16) = (     0         -1          0      )    f =(  0.5000000 )
                  (     1          0          0      )       (  0.5000000 )
                  (     0          0         -1      )       (  0.5000000 )

 cart.    s(16) = (  0.0000000  1.0000000  0.0000000 )    f =(  0.5000000 )
                  ( -1.0000000  0.0000000  0.0000000 )       (  0.5000000 )
                  (  0.0000000  0.0000000 -1.0000000 )       (  0.7276820 )

   Cartesian axes

     site n.     atom                  positions (alat units)
         1           K   tau(   1) = (   0.5000000   0.0000000   0.3638410  )
         2           K   tau(   2) = (   0.0000000   0.5000000   0.3638410  )
         3           K   tau(   3) = (   0.5000000   0.0000000   1.0915230  )
         4           K   tau(   4) = (   0.0000000   0.5000000   1.0915230  )
         5           H   tau(   5) = (   0.2088510   0.2088510   0.0000000  )
         6           H   tau(   6) = (   0.7911490   0.7911490   0.0000000  )
         7           H   tau(   7) = (   0.0000000   0.0000000   0.2955611  )
         8           H   tau(   8) = (   0.5000000   0.5000000   0.4321209  )
         9           H   tau(   9) = (   0.7088510   0.2911490   0.7276820  )
        10           H   tau(  10) = (   0.2911490   0.7088510   0.7276820  )
        11           H   tau(  11) = (   0.5000000   0.5000000   1.0232431  )
        12           H   tau(  12) = (   0.0000000   0.0000000   1.1598029  )
        13           Pt  tau(  13) = (   0.0000000   0.0000000   0.0000000  )
        14           Pt  tau(  14) = (   0.5000000   0.5000000   0.7276820  )

   Crystallographic axes

     site n.     atom                  positions (cryst. coord.)
         1           K   tau(   1) = (  0.5000000  0.0000000  0.2500000  )
         2           K   tau(   2) = (  0.0000000  0.5000000  0.2500000  )
         3           K   tau(   3) = (  0.5000000  0.0000000  0.7500000  )
         4           K   tau(   4) = (  0.0000000  0.5000000  0.7500000  )
         5           H   tau(   5) = (  0.2088510  0.2088510  0.0000000  )
         6           H   tau(   6) = (  0.7911490  0.7911490  0.0000000  )
         7           H   tau(   7) = (  0.0000000  0.0000000  0.2030840  )
         8           H   tau(   8) = (  0.5000000  0.5000000  0.2969160  )
         9           H   tau(   9) = (  0.7088510  0.2911490  0.5000000  )
        10           H   tau(  10) = (  0.2911490  0.7088510  0.5000000  )
        11           H   tau(  11) = (  0.5000000  0.5000000  0.7030840  )
        12           H   tau(  12) = (  0.0000000  0.0000000  0.7969160  )
        13           Pt  tau(  13) = (  0.0000000  0.0000000  0.0000000  )
        14           Pt  tau(  14) = (  0.5000000  0.5000000  0.5000000  )

     number of k points=     6
                       cart. coord. in units 2pi/alat
        k(    1) = (   0.0000000   0.0000000   0.0000000), wk =   0.0740741
        k(    2) = (   0.0000000   0.0000000   0.2290378), wk =   0.1481481
        k(    3) = (   0.0000000   0.3333333   0.0000000), wk =   0.2962963
        k(    4) = (   0.0000000   0.3333333   0.2290378), wk =   0.5925926
        k(    5) = (   0.3333333   0.3333333   0.0000000), wk =   0.2962963
        k(    6) = (   0.3333333   0.3333333   0.2290378), wk =   0.5925926

                       cryst. coord.
        k(    1) = (   0.0000000   0.0000000   0.0000000), wk =   0.0740741
        k(    2) = (   0.0000000   0.0000000   0.3333333), wk =   0.1481481
        k(    3) = (   0.0000000   0.3333333   0.0000000), wk =   0.2962963
        k(    4) = (   0.0000000   0.3333333   0.3333333), wk =   0.5925926
        k(    5) = (   0.3333333   0.3333333   0.0000000), wk =   0.2962963
        k(    6) = (   0.3333333   0.3333333   0.3333333), wk =   0.5925926

     Check: negative core charge=   -0.000003

     Initial potential from superposition of free atoms

     starting charge      74.9246, renormalised to      76.0000

     negative rho (up, down):  3.623E-01 0.000E+00
     Starting wfcs are   64 randomized atomic wfcs
     Checking if some PAW data can be deallocated...

     Self-consistent Calculation

     iteration #  1     ecut=    30.00 Ry     beta= 0.70
     Davidson diagonalization with overlap

     ethr =  1.00E-02,  avg # of iterations =  7.8

     negative rho (up, down):  3.318E-01 0.000E+00

     total energy              =    -882.08821272 Ry
     estimated scf accuracy    <       2.42933014 Ry

[...]

     total energy              =    -883.15538707 Ry
     estimated scf accuracy    <       0.00000522 Ry

     iteration #  7     ecut=    30.00 Ry     beta= 0.70
     Davidson diagonalization with overlap

     ethr =  6.87E-09,  avg # of iterations =  2.0

     negative rho (up, down):  3.416E-01 0.000E+00

     End of self-consistent calculation

          k = 0.0000 0.0000 0.0000 (  4895 PWs)   bands (ev):

   -48.0755 -48.0754 -48.0728 -48.0728 -47.5374 -47.5374 -26.1643 -26.1554
   -26.1404 -26.1326  -9.7979  -9.7486  -9.7486  -9.7280  -9.7280  -9.7229
    -9.6235  -9.5878  -9.5842  -9.5842  -9.5726  -9.5726  -2.5336  -2.0330
    -1.6683  -1.5619   0.9848   1.5495   1.6741   1.6741   1.6914   1.6914
     1.9485   2.0731   2.0823   2.0823   2.1190   2.3376   5.9652   7.0944
     7.0944   7.5947   7.9743   8.7958   8.9471   9.2990  10.3472  10.3472
    10.5516  11.0576  11.0576  11.0980  11.1786  11.2824  11.4610  11.4610
    11.5958  11.5958  12.5897  12.5897  12.6088  12.6774  12.7692  12.7692

     occupation numbers
     1.0000   1.0000   1.0000   1.0000   1.0000   1.0000   1.0000   1.0000
     1.0000   1.0000   1.0000   1.0000   1.0000   1.0000   1.0000   1.0000
     1.0000   1.0000   1.0000   1.0000   1.0000   1.0000   1.0000   1.0000
     1.0000   1.0000   1.0000   1.0000   1.0000   1.0000   1.0000   1.0000
     1.0000   1.0000   1.0000   1.0000   1.0000   1.0000   0.0000   0.0000
     0.0000   0.0000   0.0000   0.0000   0.0000   0.0000   0.0000   0.0000
     0.0000   0.0000   0.0000   0.0000   0.0000   0.0000   0.0000   0.0000
     0.0000   0.0000   0.0000   0.0000   0.0000   0.0000   0.0000   0.0000

[...]

          k = 0.3333 0.3333 0.2290 (  4877 PWs)   bands (ev):

   -48.0754 -48.0754 -48.0729 -48.0728 -47.5374 -47.5374 -26.1529 -26.1488
   -26.1470 -26.1430  -9.7867  -9.7666  -9.7451  -9.7294  -9.7194  -9.7081
    -9.6488  -9.6380  -9.6094  -9.6015  -9.5680  -9.5610  -2.1252  -2.0599
    -1.5860  -1.5720   1.1472   1.4122   1.4950   1.6410   1.6907   1.7950
     2.0582   2.0616   2.0809   2.0918   2.3445   2.3824   5.8660   6.0350
     6.9326   7.0865   8.2200   8.4771   9.2366   9.3222   9.5876   9.7060
     9.9918  10.3854  10.4956  10.7390  10.9837  11.1520  11.3371  11.3500
    11.6821  11.7781  12.1219  12.1551  12.3591  12.3760  12.5559  12.7486

     occupation numbers
     1.0000   1.0000   1.0000   1.0000   1.0000   1.0000   1.0000   1.0000
     1.0000   1.0000   1.0000   1.0000   1.0000   1.0000   1.0000   1.0000
     1.0000   1.0000   1.0000   1.0000   1.0000   1.0000   1.0000   1.0000
     1.0000   1.0000   1.0000   1.0000   1.0000   1.0000   1.0000   1.0000
     1.0000   1.0000   1.0000   1.0000   1.0000   1.0000   0.0000   0.0000
     0.0000   0.0000   0.0000   0.0000   0.0000   0.0000   0.0000   0.0000
     0.0000   0.0000   0.0000   0.0000   0.0000   0.0000   0.0000   0.0000
     0.0000   0.0000   0.0000   0.0000   0.0000   0.0000   0.0000   0.0000

     highest occupied, lowest unoccupied level (ev):     2.3824    5.6744

!    total energy              =    -883.15538840 Ry
     estimated scf accuracy    <       0.00000027 Ry

     The total energy is the sum of the following terms:
     one-electron contribution =    -355.73116476 Ry
     hartree contribution      =     199.44310942 Ry
     xc contribution           =    -164.51371403 Ry
     ewald contribution        =    -340.68352850 Ry
     one-center paw contrib.   =    -221.67009053 Ry
      -> PAW hartree energy AE =      75.46567437 Ry
      -> PAW hartree energy PS =     -75.04499985 Ry
      -> PAW xc energy AE      =    -132.44480347 Ry
      -> PAW xc energy PS      =      21.18908369 Ry
      -> total E_H with PAW    =     199.86378393 Ry
      -> total E_XC with PAW   =    -275.76943381 Ry

     convergence has been achieved in   7 iterations

     Writing all to output data dir calculations_bands_val/myprefix.save/

     General routines

     Parallel routines

     PAW routines

   This run was terminated on:  15:18:21   4Jun2023

   JOB DONE.