     Program PWSCF v.7.0 starts on  4Jun2023 at 12:35:23

     K-points division:     npool     =       2
     R & G space division:  proc/nbgrp/npool/nimage =       4

     Reading input from espresso_447.pwi
Warning: card &CELL ignored
Warning: card / ignored

     Current dimensions of program PWSCF are:
     Max number of different atomic species (ntypx) = 10
     Max number of k-points (npk) =  40000
     Max angular momentum in pseudopotentials (lmaxx) =  4
     file O.pbe-n-kjpaw_psl.0.1.UPF: wavefunction(s)  2P renormalized

     Using Slab Decomposition

     bravais-lattice index     =            0
     lattice parameter (alat)  =       9.2277  a.u.
     unit-cell volume          =     648.0365 (a.u.)^3
     number of atoms/cell      =           10
     number of atomic types    =            3
     number of electrons       =       106.00
     number of Kohn-Sham states=           64
     kinetic-energy cutoff     =      30.0000  Ry
     charge density cutoff     =     240.0000  Ry
     scf convergence threshold =      1.0E-06
     mixing beta               =       0.7000
     number of iterations used =            8  plain     mixing
     Exchange-correlation= SLA  PW   PBX  PBC
                           (   1   4   3   4   0   0   0)

     celldm(1)=   9.227750  celldm(2)=   0.000000  celldm(3)=   0.000000
     celldm(4)=   0.000000  celldm(5)=   0.000000  celldm(6)=   0.000000

     crystal axes: (cart. coord. in units of alat)
               a(1) = (   1.000000   0.000000   0.000000 )
               a(2) = (  -0.519222   0.890037   0.000000 )
               a(3) = (  -0.526492   0.326694   0.926624 )

     reciprocal axes: (cart. coord. in units 2 pi/alat)
               b(1) = (  1.000000  0.583370  0.362507 )
               b(2) = (  0.000000  1.123548 -0.396122 )
               b(3) = (  0.000000  0.000000  1.079186 )

     PseudoPot. # 1 for Co read from file:
     /home/pragov/projects/rrg-bengioy-ad/pragov/crystal_structure_design/SSSP/Co_pbe_v1.2.uspp.F.UPF
     MD5 check sum: 5f91765df6ddd3222702df6e7b74a16d
     Pseudo is Ultrasoft + core correction, Zval = 17.0
     Generated by new atomic code, or converted to UPF format
     Using radial grid of  863 points,  6 beta functions with:
                l(1) =   0
                l(2) =   0
                l(3) =   1
                l(4) =   1
                l(5) =   2
                l(6) =   2
     Q(r) pseudized with  8 coefficients,  rinner =    1.200   1.200   1.200
                                                       1.200   1.200

     PseudoPot. # 2 for Ni read from file:
     /home/pragov/projects/rrg-bengioy-ad/pragov/crystal_structure_design/SSSP/ni_pbe_v1.4.uspp.F.UPF
     MD5 check sum: 1ee80287db30b12d2bc1f57a5b5d6409
     Pseudo is Ultrasoft + core correction, Zval = 18.0
     Generated by new atomic code, or converted to UPF format
     Using radial grid of  865 points,  6 beta functions with:
                l(1) =   0
                l(2) =   0
                l(3) =   1
                l(4) =   1
                l(5) =   2
                l(6) =   2
     Q(r) pseudized with 10 coefficients,  rinner =    0.980   0.980   0.980
                                                       0.980   0.980

     PseudoPot. # 3 for O  read from file:
     /home/pragov/projects/rrg-bengioy-ad/pragov/crystal_structure_design/SSSP/O.pbe-n-kjpaw_psl.0.1.UPF
     MD5 check sum: 0234752ac141de4415c5fc33072bef88
     Pseudo is Projector augmented-wave + core cor, Zval =  6.0
     Generated using "atomic" code by A. Dal Corso  v.5.0.99 svn rev. 10869
     Shape of augmentation charge: BESSEL
     Using radial grid of 1095 points,  4 beta functions with:
                l(1) =   0
                l(2) =   0
                l(3) =   1
                l(4) =   1
     Q(r) pseudized with 0 coefficients

     atomic species   valence    mass     pseudopotential
        Co            17.00    58.93319     Co( 1.00)
        Ni            18.00    58.69340     Ni( 1.00)
        O              6.00    15.99900     O ( 1.00)

     No symmetry found

                                    s                        frac. trans.

      isym =  1     identity

 cryst.   s( 1) = (     1          0          0      )
                  (     0          1          0      )
                  (     0          0          1      )

 cart.    s( 1) = (  1.0000000 -0.0000000  0.0000000 )
                  (  0.0000000  1.0000000 -0.0000000 )
                  (  0.0000000  0.0000000  1.0000000 )

   Cartesian axes

     site n.     atom                  positions (alat units)
         1           Co  tau(   1) = (   0.4829085   0.3177953   0.4957172  )
         2           Co  tau(   2) = (  -0.5343319   0.8999743   0.4365717  )
         3           Ni  tau(   3) = (  -0.0128751   0.5959244   0.0624221  )
         4           Ni  tau(   4) = (  -0.0331874   0.6216333   0.8690663  )
         5           O   tau(   5) = (   0.1533553   0.9195470   0.2340755  )
         6           O   tau(   6) = (   0.3298628   0.6437905   0.6871995  )
         7           O   tau(   7) = (  -0.2309372   0.9271769   0.6795410  )
         8           O   tau(   8) = (   0.1871538   0.2829933   0.2441943  )
         9           O   tau(   9) = (  -0.3853013   0.5892459   0.2520215  )
        10           O   tau(  10) = (  -0.1852123   0.2855734   0.6723124  )

   Crystallographic axes

     site n.     atom                  positions (cryst. coord.)
         1           Co  tau(   1) = (  0.8480020  0.1606940  0.5349710  )
         2           Co  tau(   2) = (  0.1489470  0.8382290  0.4711420  )
         3           Ni  tau(   3) = (  0.3573980  0.6448230  0.0673650  )
         4           Ni  tau(   4) = (  0.6444980  0.3541790  0.9378840  )
         5           O   tau(   5) = (  0.7746460  0.9404330  0.2526110  )
         6           O   tau(   6) = (  0.9545460  0.4511150  0.7416160  )
         7           O   tau(   7) = (  0.5562890  0.7725470  0.7333510  )
         8           O   tau(   8) = (  0.4407660  0.2212260  0.2635310  )
         9           O   tau(   9) = (  0.0498070  0.5622150  0.2719780  )
        10           O   tau(  10) = (  0.2251010  0.0545380  0.7255500  )

     number of k points=    14
                       cart. coord. in units 2pi/alat
        k(    1) = (   0.0000000   0.0000000   0.0000000), wk =   0.0740741
        k(    2) = (   0.0000000   0.0000000   0.3597286), wk =   0.1481481
        k(    3) = (   0.0000000   0.3745161  -0.1320406), wk =   0.1481481
        k(    4) = (   0.0000000   0.3745161   0.2276880), wk =   0.1481481
        k(    5) = (   0.0000000   0.3745161  -0.4917692), wk =   0.1481481
        k(    6) = (   0.3333333   0.1944568   0.1208358), wk =   0.1481481
        k(    7) = (   0.3333333   0.1944568   0.4805644), wk =   0.1481481
        k(    8) = (   0.3333333   0.1944568  -0.2388928), wk =   0.1481481
        k(    9) = (   0.3333333   0.5689729  -0.0112048), wk =   0.1481481
        k(   10) = (   0.3333333   0.5689729   0.3485238), wk =   0.1481481
        k(   11) = (   0.3333333   0.5689729  -0.3709334), wk =   0.1481481
        k(   12) = (   0.3333333  -0.1800592   0.2528763), wk =   0.1481481
        k(   13) = (   0.3333333  -0.1800592   0.6126049), wk =   0.1481481
        k(   14) = (   0.3333333  -0.1800592  -0.1068523), wk =   0.1481481

                       cryst. coord.
        k(    1) = (   0.0000000   0.0000000   0.0000000), wk =   0.0740741
        k(    2) = (   0.0000000   0.0000000   0.3333333), wk =   0.1481481
        k(    3) = (   0.0000000   0.3333333   0.0000000), wk =   0.1481481
        k(    4) = (   0.0000000   0.3333333   0.3333333), wk =   0.1481481
        k(    5) = (   0.0000000   0.3333333  -0.3333333), wk =   0.1481481
        k(    6) = (   0.3333333   0.0000000   0.0000000), wk =   0.1481481
        k(    7) = (   0.3333333   0.0000000   0.3333333), wk =   0.1481481
        k(    8) = (   0.3333333   0.0000000  -0.3333333), wk =   0.1481481
        k(    9) = (   0.3333333   0.3333333   0.0000000), wk =   0.1481481
        k(   10) = (   0.3333333   0.3333333   0.3333333), wk =   0.1481481
        k(   11) = (   0.3333333   0.3333333  -0.3333333), wk =   0.1481481
        k(   12) = (   0.3333333  -0.3333333  -0.0000000), wk =   0.1481481
        k(   13) = (   0.3333333  -0.3333333   0.3333333), wk =   0.1481481
        k(   14) = (   0.3333333  -0.3333333  -0.3333333), wk =   0.1481481

     Check: negative core charge=   -0.000025

     Initial potential from superposition of free atoms

     starting charge     100.0000, renormalised to     106.0000
     Starting wfcs are   76 randomized atomic wfcs
     Checking if some PAW data can be deallocated...

     Self-consistent Calculation

     iteration #  1     ecut=    30.00 Ry     beta= 0.70
     Davidson diagonalization with overlap

     ethr =  1.00E-02,  avg # of iterations =  3.1

     total energy              =   -1475.96381794 Ry
     estimated scf accuracy    <      79.45130830 Ry

[...]

     total energy              =   -1532.51935893 Ry
     estimated scf accuracy    <       0.00000234 Ry

     iteration # 26     ecut=    30.00 Ry     beta= 0.70
     Davidson diagonalization with overlap

     ethr =  2.21E-09,  avg # of iterations =  1.0

     End of self-consistent calculation

          k = 0.0000 0.0000 0.0000 (  1791 PWs)   bands (ev):

   -93.0040 -92.9928 -84.9073 -84.8268 -53.3737 -53.3625 -53.3425 -53.3080
   -53.2660 -53.2153 -48.2009 -48.1616 -48.1407 -48.0759 -48.0460 -47.9452
    -9.2363  -7.5928  -7.4922  -7.4759  -7.4174  -7.3881   3.5390   4.3954
     4.6211   4.6669   4.8122   4.8637   5.4948   5.6448   5.7242   6.1013
     6.1879   6.6071   7.2571   7.3906   7.6825   8.3212   8.3608   8.4830
     9.1177   9.1561   9.1708   9.4236   9.5168   9.5382   9.6331   9.6792
    10.1630  10.2688  10.3962  10.4977  10.9053  10.9439  11.0460  11.1780
    12.3496  12.7773  12.9437  13.2461  15.5422  19.3262  21.5792  21.9156

     occupation numbers
     1.0000   1.0000   1.0000   1.0000   1.0000   1.0000   1.0000   1.0000
     1.0000   1.0000   1.0000   1.0000   1.0000   1.0000   1.0000   1.0000
     1.0000   1.0000   1.0000   1.0000   1.0000   1.0000   1.0000   1.0000
     1.0000   1.0000   1.0000   1.0000   1.0000   1.0000   1.0000   1.0000
     1.0000   1.0000   1.0000   1.0000   1.0000   1.0000   1.0000   1.0000
     1.0000   1.0000   1.0000   1.0000   1.0000   1.0000   1.0000   1.0000
     1.0000   1.0000   1.0000   1.0000   1.0000   0.0000   0.0000   0.0000
     0.0000   0.0000   0.0000   0.0000   0.0000   0.0000   0.0000   0.0000

[...]

          k = 0.3333-0.1801-0.1069 (  1804 PWs)   bands (ev):

   -93.0049 -92.9947 -84.9076 -84.8272 -53.3794 -53.3692 -53.3411 -53.3096
   -53.2708 -53.2211 -48.2045 -48.1621 -48.1432 -48.0753 -48.0490 -47.9479
    -8.8580  -7.9687  -7.5659  -7.4828  -7.4572  -7.3883   3.8135   4.1903
     4.4072   4.7359   5.0158   5.0598   5.5647   5.7793   5.9165   6.1003
     6.2373   6.7647   7.0497   7.3085   7.4891   7.7430   8.0557   8.3452
     9.0550   9.1617   9.4273   9.5249   9.5706   9.6949   9.7568   9.8709
     9.9802  10.1037  10.2547  10.3601  10.9760  11.1124  11.2649  11.4843
    11.9924  12.4792  12.6419  12.9641  17.1791  19.5225  20.6393  21.0289

     occupation numbers
     1.0000   1.0000   1.0000   1.0000   1.0000   1.0000   1.0000   1.0000
     1.0000   1.0000   1.0000   1.0000   1.0000   1.0000   1.0000   1.0000
     1.0000   1.0000   1.0000   1.0000   1.0000   1.0000   1.0000   1.0000
     1.0000   1.0000   1.0000   1.0000   1.0000   1.0000   1.0000   1.0000
     1.0000   1.0000   1.0000   1.0000   1.0000   1.0000   1.0000   1.0000
     1.0000   1.0000   1.0000   1.0000   1.0000   1.0000   1.0000   1.0000
     1.0000   1.0000   1.0000   1.0000   1.0000   0.0000   0.0000   0.0000
     0.0000   0.0000   0.0000   0.0000   0.0000   0.0000   0.0000   0.0000

     highest occupied, lowest unoccupied level (ev):    11.0477   10.9177

!    total energy              =   -1532.51935855 Ry
     estimated scf accuracy    <       0.00000068 Ry

     The total energy is the sum of the following terms:
     one-electron contribution =    -936.44413524 Ry
     hartree contribution      =     523.74919235 Ry
     xc contribution           =    -179.95242613 Ry
     ewald contribution        =    -882.68363289 Ry
     one-center paw contrib.   =     -57.18835664 Ry
      -> PAW hartree energy AE =       0.00000000 Ry
      -> PAW hartree energy PS =       0.00000000 Ry
      -> PAW xc energy AE      =       0.00000000 Ry
      -> PAW xc energy PS      =       0.00000000 Ry
      -> total E_H with PAW    =     523.74919235 Ry
      -> total E_XC with PAW   =    -179.95242613 Ry

     convergence has been achieved in  26 iterations

     Writing all to output data dir calculations_bands_val/myprefix.save/

     General routines

     Parallel routines

     PAW routines

   This run was terminated on:  12:35:42   4Jun2023

   JOB DONE.