     Program PWSCF v.7.0 starts on  4Jun2023 at 13:26:37

     K-points division:     npool     =       2
     R & G space division:  proc/nbgrp/npool/nimage =       4

     Reading input from espresso_591.pwi
Warning: card &CELL ignored
Warning: card / ignored

     Current dimensions of program PWSCF are:
     Max number of different atomic species (ntypx) = 10
     Max number of k-points (npk) =  40000
     Max angular momentum in pseudopotentials (lmaxx) =  4
     file In.pbe-dn-rrkjus_psl.0.2.2.UPF: wavefunction(s)  5S renormalized
     Message from routine setup:
     using ibrav=0 with symmetry is DISCOURAGED, use correct ibrav instead

     Using Slab Decomposition

     bravais-lattice index     =            0
     lattice parameter (alat)  =      10.3746  a.u.
     unit-cell volume          =     750.5832 (a.u.)^3
     number of atoms/cell      =            7
     number of atomic types    =            4
     number of electrons       =        90.00
     number of Kohn-Sham states=           64
     kinetic-energy cutoff     =      30.0000  Ry
     charge density cutoff     =     240.0000  Ry
     scf convergence threshold =      1.0E-06
     mixing beta               =       0.7000
     number of iterations used =            8  plain     mixing
     Exchange-correlation=  SLA  PW   PBX  PBC
                           (   1   4   3   4   0   0   0)

     celldm(1)=  10.374551  celldm(2)=   0.000000  celldm(3)=   0.000000
     celldm(4)=   0.000000  celldm(5)=   0.000000  celldm(6)=   0.000000

     crystal axes: (cart. coord. in units of alat)
               a(1) = (   1.000000   0.000000   0.000000 )
               a(2) = (   0.532153   0.846648   0.000000 )
               a(3) = (   0.532153   0.294061   0.793940 )

     reciprocal axes: (cart. coord. in units 2 pi/alat)
               b(1) = (  1.000000 -0.628541 -0.437468 )
               b(2) = (  0.000000  1.181128 -0.437468 )
               b(3) = (  0.000000  0.000000  1.259540 )

     PseudoPot. # 1 for In read from file:
     /home/pragov/projects/rrg-bengioy-ad/pragov/crystal_structure_design/SSSP/In.pbe-dn-rrkjus_psl.0.2.2.UPF
     MD5 check sum: 25e7c42c3b55b68f4bf926be2e7201a4
     Pseudo is Ultrasoft + core correction, Zval = 13.0
     Generated using "atomic" code by A. Dal Corso  v.5.0.99 svn rev. 10869
     Using radial grid of 1241 points,  6 beta functions with:
                l(1) =   0
                l(2) =   0
                l(3) =   1
                l(4) =   1
                l(5) =   2
                l(6) =   2
     Q(r) pseudized with 0 coefficients

     PseudoPot. # 2 for Co read from file:
     /home/pragov/projects/rrg-bengioy-ad/pragov/crystal_structure_design/SSSP/Co_pbe_v1.2.uspp.F.UPF
     MD5 check sum: 5f91765df6ddd3222702df6e7b74a16d
     Pseudo is Ultrasoft + core correction, Zval = 17.0
     Generated by new atomic code, or converted to UPF format
     Using radial grid of  863 points,  6 beta functions with:
                l(1) =   0
                l(2) =   0
                l(3) =   1
                l(4) =   1
                l(5) =   2
                l(6) =   2
     Q(r) pseudized with  8 coefficients,  rinner =    1.200   1.200   1.200
                                                       1.200   1.200

     PseudoPot. # 3 for Sn read from file:
     /home/pragov/projects/rrg-bengioy-ad/pragov/crystal_structure_design/SSSP/Sn_pbe_v1.uspp.F.UPF
     MD5 check sum: 4cf58ce39ec5d5d420df3dd08604eb00
     Pseudo is Ultrasoft + core correction, Zval = 14.0
     Generated by new atomic code, or converted to UPF format
     Using radial grid of  891 points,  6 beta functions with:
                l(1) =   0
                l(2) =   0
                l(3) =   1
                l(4) =   1
                l(5) =   2
                l(6) =   2
     Q(r) pseudized with  6 coefficients,  rinner =    1.200   1.200   1.200
                                                       1.200   1.200

     PseudoPot. # 4 for S  read from file:
     /home/pragov/projects/rrg-bengioy-ad/pragov/crystal_structure_design/SSSP/s_pbe_v1.4.uspp.F.UPF
     MD5 check sum: 88d86576ff6df21479756cfb9bdac1df
     Pseudo is Ultrasoft + core correction, Zval =  6.0
     Generated by new atomic code, or converted to UPF format
     Using radial grid of  907 points,  6 beta functions with:
                l(1) =   0
                l(2) =   0
                l(3) =   1
                l(4) =   1
                l(5) =   2
                l(6) =   2
     Q(r) pseudized with  8 coefficients,  rinner =    1.300   1.300   1.300
                                                       1.300   1.300

     atomic species   valence    mass     pseudopotential
        In            13.00   114.81800     In( 1.00)
        Co            17.00    58.93319     Co( 1.00)
        Sn            14.00   118.71000     Sn( 1.00)
        S              6.00    32.06000     S ( 1.00)

      2 Sym. Ops., with inversion, found

                                    s                        frac. trans.

      isym =  1     identity

 cryst.   s( 1) = (     1          0          0      )
                  (     0          1          0      )
                  (     0          0          1      )

 cart.    s( 1) = (  1.0000000  0.0000000  0.0000000 )
                  (  0.0000000  1.0000000  0.0000000 )
                  (  0.0000000  0.0000000  1.0000000 )

      isym =  2     inversion

 cryst.   s( 2) = (    -1          0          0      )
                  (     0         -1          0      )
                  (     0          0         -1      )

 cart.    s( 2) = ( -1.0000000 -0.0000000 -0.0000000 )
                  (  0.0000000 -1.0000000 -0.0000000 )
                  (  0.0000000  0.0000000 -1.0000000 )

   Cartesian axes

     site n.     atom                  positions (alat units)
         1           In  tau(   1) = (   1.0321530   0.5703546   0.3969702  )
         2           Co  tau(   2) = (   0.7660765   0.4233241   0.0000000  )
         3           Co  tau(   3) = (   1.5321530   0.5703546   0.3969702  )
         4           Co  tau(   4) = (   0.7660765   0.1470305   0.3969702  )
         5           Sn  tau(   5) = (   0.0000000   0.0000000   0.0000000  )
         6           S   tau(   6) = (   1.6071798   0.8881071   0.6181279  )
         7           S   tau(   7) = (   0.4571261   0.2526021   0.1758126  )

   Crystallographic axes

     site n.     atom                  positions (cryst. coord.)
         1           In  tau(   1) = (  0.5000000  0.5000000  0.5000000  )
         2           Co  tau(   2) = (  0.5000000  0.5000000  0.0000000  )
         3           Co  tau(   3) = (  1.0000000  0.5000000  0.5000000  )
         4           Co  tau(   4) = (  0.5000000 -0.0000000  0.5000000  )
         5           Sn  tau(   5) = (  0.0000000  0.0000000  0.0000000  )
         6           S   tau(   6) = (  0.7785570  0.7785570  0.7785570  )
         7           S   tau(   7) = (  0.2214430  0.2214430  0.2214430  )

     number of k points=    14
                       cart. coord. in units 2pi/alat
        k(    1) = (   0.0000000   0.0000000   0.0000000), wk =   0.0740741
        k(    2) = (   0.0000000   0.0000000   0.4198468), wk =   0.1481481
        k(    3) = (   0.0000000   0.3937094  -0.1458227), wk =   0.1481481
        k(    4) = (   0.0000000   0.3937094   0.2740241), wk =   0.1481481
        k(    5) = (   0.0000000   0.3937094  -0.5656695), wk =   0.1481481
        k(    6) = (   0.3333333  -0.2095136  -0.1458227), wk =   0.1481481
        k(    7) = (   0.3333333  -0.2095136   0.2740241), wk =   0.1481481
        k(    8) = (   0.3333333  -0.2095136  -0.5656695), wk =   0.1481481
        k(    9) = (   0.3333333   0.1841958  -0.2916454), wk =   0.1481481
        k(   10) = (   0.3333333   0.1841958   0.1282013), wk =   0.1481481
        k(   11) = (   0.3333333   0.1841958  -0.7114922), wk =   0.1481481
        k(   12) = (   0.3333333  -0.6032230   0.0000000), wk =   0.1481481
        k(   13) = (   0.3333333  -0.6032230   0.4198468), wk =   0.1481481
        k(   14) = (   0.3333333  -0.6032230  -0.4198468), wk =   0.1481481

                       cryst. coord.
        k(    1) = (   0.0000000   0.0000000   0.0000000), wk =   0.0740741
        k(    2) = (   0.0000000   0.0000000   0.3333333), wk =   0.1481481
        k(    3) = (   0.0000000   0.3333333   0.0000000), wk =   0.1481481
        k(    4) = (   0.0000000   0.3333333   0.3333333), wk =   0.1481481
        k(    5) = (   0.0000000   0.3333333  -0.3333333), wk =   0.1481481
        k(    6) = (   0.3333333  -0.0000000   0.0000000), wk =   0.1481481
        k(    7) = (   0.3333333  -0.0000000   0.3333333), wk =   0.1481481
        k(    8) = (   0.3333333  -0.0000000  -0.3333333), wk =   0.1481481
        k(    9) = (   0.3333333   0.3333333   0.0000000), wk =   0.1481481
        k(   10) = (   0.3333333   0.3333333   0.3333333), wk =   0.1481481
        k(   11) = (   0.3333333   0.3333333  -0.3333333), wk =   0.1481481
        k(   12) = (   0.3333333  -0.3333333  -0.0000000), wk =   0.1481481
        k(   13) = (   0.3333333  -0.3333333   0.3333333), wk =   0.1481481
        k(   14) = (   0.3333333  -0.3333333  -0.3333333), wk =   0.1481481

     Check: negative core charge=   -0.000012

     Initial potential from superposition of free atoms

     starting charge      85.9961, renormalised to      90.0000
     Starting wfcs are   65 randomized atomic wfcs

     Self-consistent Calculation

     iteration #  1     ecut=    30.00 Ry     beta= 0.70
     Davidson diagonalization with overlap

     ethr =  1.00E-02,  avg # of iterations =  5.9

     total energy              =   -1225.08285199 Ry
     estimated scf accuracy    <      36.60146291 Ry

[...]

     total energy              =   -1251.79006896 Ry
     estimated scf accuracy    <       0.00000477 Ry

     iteration # 13     ecut=    30.00 Ry     beta= 0.70
     Davidson diagonalization with overlap

     ethr =  5.30E-09,  avg # of iterations =  3.7

     End of self-consistent calculation

          k = 0.0000 0.0000 0.0000 (  2073 PWs)   bands (ev):

   -81.7630 -81.7507 -81.7505 -45.4298 -45.3487 -45.3487 -44.8912 -44.8909
   -44.8713 -44.8411 -44.8232 -44.8230  -8.4037  -8.3226  -8.3224  -8.2161
    -8.2161  -1.7226  -1.2889  -1.2889  -1.2334  -1.2334  -1.2227   0.0092
     5.2249   7.0153   7.4591   7.4591   8.1145   8.7929   9.5057   9.5057
    10.7056  10.7059  11.0505  11.0508  11.1923  11.2063  11.5823  11.5825
    12.0207  12.0209  12.3782  12.4907  12.4910  13.2319  13.5142  13.5142
    13.6811  14.2972  17.3536  17.4600  17.4600  17.7536  17.7537  21.8749
    23.4948  23.4949  23.6844  23.6845  24.3242  24.8393  25.7984  25.8593

     occupation numbers
     1.0000   1.0000   1.0000   1.0000   1.0000   1.0000   1.0000   1.0000
     1.0000   1.0000   1.0000   1.0000   1.0000   1.0000   1.0000   1.0000
     1.0000   1.0000   1.0000   1.0000   1.0000   1.0000   1.0000   1.0000
     1.0000   1.0000   1.0000   1.0000   1.0000   1.0000   1.0000   1.0000
     1.0000   1.0000   1.0000   1.0000   1.0000   1.0000   1.0000   1.0000
     1.0000   1.0000   1.0000   1.0000   1.0000   0.0000   0.0000   0.0000
     0.0000   0.0000   0.0000   0.0000   0.0000   0.0000   0.0000   0.0000
     0.0000   0.0000   0.0000   0.0000   0.0000   0.0000   0.0000   0.0000

[...]

          k = 0.3333-0.6032-0.4198 (  2096 PWs)   bands (ev):

   -81.7607 -81.7535 -81.7511 -45.4148 -45.3670 -45.3499 -44.8911 -44.8819
   -44.8644 -44.8537 -44.8385 -44.8275  -8.4003  -8.3216  -8.3214  -8.2128
    -8.2072  -1.4144  -1.2823  -1.2706  -1.2311  -1.2249  -0.7271  -0.6109
     4.4828   5.9000   7.1819   8.1331   8.4172   8.8840   9.2698   9.4768
     9.7037  10.3848  10.5692  11.1582  11.3033  11.3117  11.7664  12.0013
    12.2036  12.2835  12.4250  12.5269  12.6170  13.5605  13.8742  14.7016
    15.1876  16.0885  17.2645  17.4468  17.8715  19.1191  19.7019  19.8505
    20.9491  21.2380  21.7243  21.8889  22.2985  22.8724  23.2524  25.1154

     occupation numbers
     1.0000   1.0000   1.0000   1.0000   1.0000   1.0000   1.0000   1.0000
     1.0000   1.0000   1.0000   1.0000   1.0000   1.0000   1.0000   1.0000
     1.0000   1.0000   1.0000   1.0000   1.0000   1.0000   1.0000   1.0000
     1.0000   1.0000   1.0000   1.0000   1.0000   1.0000   1.0000   1.0000
     1.0000   1.0000   1.0000   1.0000   1.0000   1.0000   1.0000   1.0000
     1.0000   1.0000   1.0000   1.0000   1.0000   0.0000   0.0000   0.0000
     0.0000   0.0000   0.0000   0.0000   0.0000   0.0000   0.0000   0.0000
     0.0000   0.0000   0.0000   0.0000   0.0000   0.0000   0.0000   0.0000

     highest occupied, lowest unoccupied level (ev):    12.8555   13.2295

!    total energy              =   -1251.79007153 Ry
     estimated scf accuracy    <       0.00000023 Ry

     The total energy is the sum of the following terms:
     one-electron contribution =    -810.37537528 Ry
     hartree contribution      =     462.21651102 Ry
     xc contribution           =    -210.43859776 Ry
     ewald contribution        =    -693.19260951 Ry

     convergence has been achieved in  13 iterations

     Writing all to output data dir calculations_bands_val/myprefix.save/

     General routines

     Parallel routines

   This run was terminated on:  13:26:51   4Jun2023

   JOB DONE.