     Program PWSCF v.7.0 starts on  4Jun2023 at 11:28:11

     K-points division:     npool     =       2
     R & G space division:  proc/nbgrp/npool/nimage =       4

     Reading input from espresso_217.pwi
Warning: card &CELL ignored
Warning: card / ignored

     Current dimensions of program PWSCF are:
     Max number of different atomic species (ntypx) = 10
     Max number of k-points (npk) =  40000
     Max angular momentum in pseudopotentials (lmaxx) =  4
     file K.pbe-spn-kjpaw_psl.1.0.0.UPF: wavefunction(s)  3S renormalized
     file O.pbe-n-kjpaw_psl.0.1.UPF: wavefunction(s)  2P renormalized
     Message from routine setup:
     using ibrav=0 with symmetry is DISCOURAGED, use correct ibrav instead

     Using Slab Decomposition

     bravais-lattice index     =            0
     lattice parameter (alat)  =      10.9712  a.u.
     unit-cell volume          =     580.8470 (a.u.)^3
     number of atoms/cell      =            6
     number of atomic types    =            3
     number of electrons       =        32.00
     number of Kohn-Sham states=           64
     kinetic-energy cutoff     =      30.0000  Ry
     charge density cutoff     =     240.0000  Ry
     scf convergence threshold =      1.0E-06
     mixing beta               =       0.7000
     number of iterations used =            8  plain     mixing
     Exchange-correlation= SLA  PW   PBX  PBC
                           (   1   4   3   4   0   0   0)

     celldm(1)=  10.971197  celldm(2)=   0.000000  celldm(3)=   0.000000
     celldm(4)=   0.000000  celldm(5)=   0.000000  celldm(6)=   0.000000

     crystal axes: (cart. coord. in units of alat)
               a(1) = (   1.000000   0.000000   0.000000 )
               a(2) = (  -0.761069   0.648671   0.000000 )
               a(3) = (   0.000000   0.000000   0.678071 )

     reciprocal axes: (cart. coord. in units 2 pi/alat)
               b(1) = (  1.000000  1.173274  0.000000 )
               b(2) = (  0.000000  1.541614  0.000000 )
               b(3) = (  0.000000  0.000000  1.474771 )

     PseudoPot. # 1 for K  read from file:
     /home/pragov/projects/rrg-bengioy-ad/pragov/crystal_structure_design/SSSP/K.pbe-spn-kjpaw_psl.1.0.0.UPF
     MD5 check sum: 7d58810084cac21f60fbe77ea2b688fd
     Pseudo is Projector augmented-wave + core cor, Zval =  9.0
     Generated using "atomic" code by A. Dal Corso  v.5.1
     Shape of augmentation charge: PSQ
     Using radial grid of 1165 points,  6 beta functions with:
                l(1) =   0
                l(2) =   0
                l(3) =   1
                l(4) =   1
                l(5) =   2
                l(6) =   2
     Q(r) pseudized with 0 coefficients

     PseudoPot. # 2 for H  read from file:
     /home/pragov/projects/rrg-bengioy-ad/pragov/crystal_structure_design/SSSP/H.pbe-rrkjus_psl.1.0.0.UPF
     MD5 check sum: f52b6d4d1c606e5624b1dc7b2218f220
     Pseudo is Ultrasoft, Zval =  1.0
     Generated using "atomic" code by A. Dal Corso  v.5.1
     Using radial grid of  929 points,  2 beta functions with:
                l(1) =   0
                l(2) =   0
     Q(r) pseudized with 0 coefficients

     PseudoPot. # 3 for O  read from file:
     /home/pragov/projects/rrg-bengioy-ad/pragov/crystal_structure_design/SSSP/O.pbe-n-kjpaw_psl.0.1.UPF
     MD5 check sum: 0234752ac141de4415c5fc33072bef88
     Pseudo is Projector augmented-wave + core cor, Zval =  6.0
     Generated using "atomic" code by A. Dal Corso  v.5.0.99 svn rev. 10869
     Shape of augmentation charge: BESSEL
     Using radial grid of 1095 points,  4 beta functions with:
                l(1) =   0
                l(2) =   0
                l(3) =   1
                l(4) =   1
     Q(r) pseudized with 0 coefficients

     atomic species   valence    mass     pseudopotential
        K              9.00    39.09830     K ( 1.00)
        H              1.00     1.00800     H ( 1.00)
        O              6.00    15.99900     O ( 1.00)

      2 Sym. Ops. (no inversion) found ( 1 have fractional translation)

                                    s                        frac. trans.

      isym =  1     identity

 cryst.   s( 1) = (     1          0          0      )
                  (     0          1          0      )
                  (     0          0          1      )

 cart.    s( 1) = (  1.0000000  0.0000000  0.0000000 )
                  (  0.0000000  1.0000000  0.0000000 )
                  (  0.0000000  0.0000000  1.0000000 )

      isym =  2     180 deg rotation - cart. axis [0,0,1]

 cryst.   s( 2) = (    -1          0          0      )    f =(  0.0000000 )
                  (     0         -1          0      )       ( -0.0000000 )
                  (     0          0          1      )       ( -0.5000000 )

 cart.    s( 2) = ( -1.0000000 -0.0000000  0.0000000 )    f =(  0.0000000 )
                  (  0.0000000 -1.0000000  0.0000000 )       ( -0.0000000 )
                  (  0.0000000  0.0000000  1.0000000 )       ( -0.3390356 )

   Cartesian axes

     site n.     atom                  positions (alat units)
         1           K   tau(   1) = (   0.3713741   0.2315476   0.1608324  )
         2           K   tau(   2) = (  -0.1324431   0.4171233   0.4998680  )
         3           H   tau(   3) = (   0.9312901   0.0253085   0.0689320  )
         4           H   tau(   4) = (  -0.6923591   0.6233624   0.4079676  )
         5           O   tau(   5) = (   0.8059355   0.0714816   0.1734065  )
         6           O   tau(   6) = (  -0.5670045   0.5771893   0.5124421  )

   Crystallographic axes

     site n.     atom                  positions (cryst. coord.)
         1           K   tau(   1) = (  0.6430430  0.3569570  0.2371910  )
         2           K   tau(   2) = (  0.3569570  0.6430430  0.7371910  )
         3           H   tau(   3) = (  0.9609840  0.0390160  0.1016590  )
         4           H   tau(   4) = (  0.0390160  0.9609840  0.6016590  )
         5           O   tau(   5) = (  0.8898030  0.1101970  0.2557350  )
         6           O   tau(   6) = (  0.1101970  0.8898030  0.7557350  )

     number of k points=    10
                       cart. coord. in units 2pi/alat
        k(    1) = (   0.0000000   0.0000000   0.0000000), wk =   0.0740741
        k(    2) = (   0.0000000   0.0000000   0.4915905), wk =   0.1481481
        k(    3) = (   0.0000000   0.5138712   0.0000000), wk =   0.1481481
        k(    4) = (   0.0000000   0.5138712   0.4915905), wk =   0.2962963
        k(    5) = (   0.3333333   0.3910915   0.0000000), wk =   0.1481481
        k(    6) = (   0.3333333   0.3910915   0.4915905), wk =   0.2962963
        k(    7) = (   0.3333333   0.9049627   0.0000000), wk =   0.1481481
        k(    8) = (   0.3333333   0.9049627   0.4915905), wk =   0.2962963
        k(    9) = (   0.3333333  -0.1227798   0.0000000), wk =   0.1481481
        k(   10) = (   0.3333333  -0.1227798   0.4915905), wk =   0.2962963

                       cryst. coord.
        k(    1) = (   0.0000000   0.0000000   0.0000000), wk =   0.0740741
        k(    2) = (   0.0000000   0.0000000   0.3333333), wk =   0.1481481
        k(    3) = (   0.0000000   0.3333333   0.0000000), wk =   0.1481481
        k(    4) = (   0.0000000   0.3333333   0.3333333), wk =   0.2962963
        k(    5) = (   0.3333333   0.0000000   0.0000000), wk =   0.1481481
        k(    6) = (   0.3333333   0.0000000   0.3333333), wk =   0.2962963
        k(    7) = (   0.3333333   0.3333333   0.0000000), wk =   0.1481481
        k(    8) = (   0.3333333   0.3333333   0.3333333), wk =   0.2962963
        k(    9) = (   0.3333333  -0.3333333   0.0000000), wk =   0.1481481
        k(   10) = (   0.3333333  -0.3333333   0.3333333), wk =   0.2962963

     Check: negative core charge=   -0.000010

     Initial potential from superposition of free atoms

     starting charge      31.9623, renormalised to      32.0000
     Starting wfcs are   26 randomized atomic wfcs +   38 random wfcs
     Checking if some PAW data can be deallocated...

     Self-consistent Calculation

     iteration #  1     ecut=    30.00 Ry     beta= 0.70
     Davidson diagonalization with overlap

     ethr =  1.00E-02,  avg # of iterations =  7.6

     total energy              =    -311.39400496 Ry
     estimated scf accuracy    <       0.98981438 Ry

[...]

     total energy              =    -311.84800981 Ry
     estimated scf accuracy    <       0.00000617 Ry

     iteration #  7     ecut=    30.00 Ry     beta= 0.70
     Davidson diagonalization with overlap

     ethr =  1.93E-08,  avg # of iterations =  1.0

     End of self-consistent calculation

          k = 0.0000 0.0000 0.0000 (  1643 PWs)   bands (ev):

   -25.2144 -25.1148 -14.0282 -13.5178  -9.0380  -8.7055  -8.6623  -8.5447
    -8.4949  -8.4697  -1.0158  -0.8067   2.6283   2.7300   2.7744   3.0110
     6.6871   9.1999  10.5066  10.8497  11.1481  11.7179  12.3690  12.8164
    13.1907  13.5998  14.2067  14.8140  15.0146  16.2529  17.0802  18.3041
    19.1089  19.2219  19.2550  21.6092  23.3533  23.4083  23.6638  23.8268
    24.7031  25.6219  25.8362  25.9227  26.7131  27.4915  27.6816  28.2282
    28.8549  29.6332  29.8068  30.3890  30.6762  30.8087  33.0016  33.2307
    33.7843  33.8007  34.1184  35.1388  36.2159  37.1524  38.3419  38.4021

     occupation numbers
     1.0000   1.0000   1.0000   1.0000   1.0000   1.0000   1.0000   1.0000
     1.0000   1.0000   1.0000   1.0000   1.0000   1.0000   1.0000   1.0000
     0.0000   0.0000   0.0000   0.0000   0.0000   0.0000   0.0000   0.0000
     0.0000   0.0000   0.0000   0.0000   0.0000   0.0000   0.0000   0.0000
     0.0000   0.0000   0.0000   0.0000   0.0000   0.0000   0.0000   0.0000
     0.0000   0.0000   0.0000   0.0000   0.0000   0.0000   0.0000   0.0000
     0.0000   0.0000   0.0000   0.0000   0.0000   0.0000   0.0000   0.0000
     0.0000   0.0000   0.0000   0.0000   0.0000   0.0000   0.0000   0.0000

[...]

          k = 0.3333-0.1228 0.4916 (  1615 PWs)   bands (ev):

   -25.1667 -25.1371 -13.9546 -13.6818  -8.8438  -8.7398  -8.6243  -8.5865
    -8.5263  -8.4967  -1.1698  -1.1561   2.3948   2.4873   2.5771   2.7240
     9.0389   9.9735  10.1816  10.5877  11.6493  11.8047  12.5567  13.1016
    13.6327  13.7600  14.1141  14.4946  15.2953  16.4763  17.0578  17.7478
    18.2000  19.6475  20.0487  21.1530  22.2314  22.7066  22.9797  23.6606
    23.7752  24.2198  25.2511  25.4596  26.2160  27.5552  27.9328  28.5107
    29.8645  30.2022  31.1377  31.2043  32.1275  33.2175  33.3042  33.6633
    34.0697  34.4212  34.7287  35.5225  36.4787  37.0408  37.0424  37.9402

     occupation numbers
     1.0000   1.0000   1.0000   1.0000   1.0000   1.0000   1.0000   1.0000
     1.0000   1.0000   1.0000   1.0000   1.0000   1.0000   1.0000   1.0000
     0.0000   0.0000   0.0000   0.0000   0.0000   0.0000   0.0000   0.0000
     0.0000   0.0000   0.0000   0.0000   0.0000   0.0000   0.0000   0.0000
     0.0000   0.0000   0.0000   0.0000   0.0000   0.0000   0.0000   0.0000
     0.0000   0.0000   0.0000   0.0000   0.0000   0.0000   0.0000   0.0000
     0.0000   0.0000   0.0000   0.0000   0.0000   0.0000   0.0000   0.0000
     0.0000   0.0000   0.0000   0.0000   0.0000   0.0000   0.0000   0.0000

     highest occupied, lowest unoccupied level (ev):     3.0181    6.6871

!    total energy              =    -311.84801038 Ry
     estimated scf accuracy    <       0.00000078 Ry

     The total energy is the sum of the following terms:
     one-electron contribution =     -61.92782947 Ry
     hartree contribution      =      45.32635338 Ry
     xc contribution           =     -39.01898134 Ry
     ewald contribution        =    -126.35359953 Ry
     one-center paw contrib.   =    -129.87395342 Ry
      -> PAW hartree energy AE =      37.84836556 Ry
      -> PAW hartree energy PS =     -37.63781688 Ry
      -> PAW xc energy AE      =     -66.23761825 Ry
      -> PAW xc energy PS      =      10.60917674 Ry
      -> total E_H with PAW    =      45.53690207 Ry
      -> total E_XC with PAW   =     -94.64742285 Ry

     convergence has been achieved in   7 iterations

     Writing all to output data dir calculations_bands_val/myprefix.save/

     General routines

     Parallel routines

     PAW routines

   This run was terminated on:  11:28:17   4Jun2023

   JOB DONE.