     Program PWSCF v.7.0 starts on  4Jun2023 at 13:19:24

     K-points division:     npool     =       2
     R & G space division:  proc/nbgrp/npool/nimage =       4

     Reading input from espresso_572.pwi
Warning: card &CELL ignored
Warning: card / ignored

     Current dimensions of program PWSCF are:
     Max number of different atomic species (ntypx) = 10
     Max number of k-points (npk) =  40000
     Max angular momentum in pseudopotentials (lmaxx) =  4
     Message from routine setup:
     using ibrav=0 with symmetry is DISCOURAGED, use correct ibrav instead

     Using Slab Decomposition

     bravais-lattice index     =            0
     lattice parameter (alat)  =      16.0785  a.u.
     unit-cell volume          =     924.6682 (a.u.)^3
     number of atoms/cell      =            6
     number of atomic types    =            2
     number of electrons       =        78.00
     number of Kohn-Sham states=           64
     kinetic-energy cutoff     =      30.0000  Ry
     charge density cutoff     =     240.0000  Ry
     scf convergence threshold =      1.0E-06
     mixing beta               =       0.7000
     number of iterations used =            8  plain     mixing
     Exchange-correlation=  SLA  PW   PBX  PBC
                           (   1   4   3   4   0   0   0)

     celldm(1)=  16.078507  celldm(2)=   0.000000  celldm(3)=   0.000000
     celldm(4)=   0.000000  celldm(5)=   0.000000  celldm(6)=   0.000000

     crystal axes: (cart. coord. in units of alat)
               a(1) = (   1.000000   0.000000   0.000000 )
               a(2) = (   0.763065   0.646322   0.000000 )
               a(3) = (  -0.881532  -0.323161   0.344191 )

     reciprocal axes: (cart. coord. in units 2 pi/alat)
               b(1) = (  1.000000 -1.180626  1.452681 )
               b(2) = (  0.000000  1.547216  1.452681 )
               b(3) = (  0.000000  0.000000  2.905362 )

     PseudoPot. # 1 for Zr read from file:
     /home/pragov/projects/rrg-bengioy-ad/pragov/crystal_structure_design/SSSP/Zr_pbe_v1.uspp.F.UPF
     MD5 check sum: 5db81b1e868ab7776c4564c113de050b
     Pseudo is Ultrasoft + core correction, Zval = 12.0
     Generated by new atomic code, or converted to UPF format
     Using radial grid of  887 points,  6 beta functions with:
                l(1) =   0
                l(2) =   0
                l(3) =   1
                l(4) =   1
                l(5) =   2
                l(6) =   2
     Q(r) pseudized with  6 coefficients,  rinner =    1.200   1.200   1.200
                                                       1.200   1.200

     PseudoPot. # 2 for Sb read from file:
     /home/pragov/projects/rrg-bengioy-ad/pragov/crystal_structure_design/SSSP/sb_pbe_v1.4.uspp.F.UPF
     MD5 check sum: 9bc50dfb53373b713f5709b9110fe27f
     Pseudo is Ultrasoft + core correction, Zval = 15.0
     Generated by new atomic code, or converted to UPF format
     Using radial grid of  891 points,  6 beta functions with:
                l(1) =   0
                l(2) =   0
                l(3) =   1
                l(4) =   1
                l(5) =   2
                l(6) =   2
     Q(r) pseudized with  8 coefficients,  rinner =    1.350   1.350   1.350
                                                       1.350   1.350

     atomic species   valence    mass     pseudopotential
        Zr            12.00    91.22400     Zr( 1.00)
        Sb            15.00   121.76000     Sb( 1.00)

      4 Sym. Ops., with inversion, found

                                    s                        frac. trans.

      isym =  1     identity

 cryst.   s( 1) = (     1          0          0      )
                  (     0          1          0      )
                  (     0          0          1      )

 cart.    s( 1) = (  1.0000000 -0.0000000 -0.0000000 )
                  (  0.0000000  1.0000000 -0.0000000 )
                  (  0.0000000  0.0000000  1.0000000 )

      isym =  2     180 deg rotation - cart. axis [0,0,1]

[...]

      isym =  3     inversion

[...]

      isym =  4     inv. 180 deg rotation - cart. axis [0,0,1]

 cryst.   s( 4) = (     1          0          0      )
                  (     0          1          0      )
                  (    -1         -1         -1      )

 cart.    s( 4) = (  1.0000000 -0.0000000 -0.0000000 )
                  (  0.0000000  1.0000000 -0.0000000 )
                  (  0.0000000  0.0000000 -1.0000000 )

   Cartesian axes

     site n.     atom                  positions (alat units)
         1           Zr  tau(   1) = (  -0.0592338   0.1615805   0.1720956  )
         2           Zr  tau(   2) = (   0.0592338  -0.1615805   0.1720956  )
         3           Zr  tau(   3) = (   1.1944817   0.4378851   0.0000000  )
         4           Zr  tau(   4) = (   0.5685831   0.2084369   0.0000000  )
         5           Sb  tau(   5) = (   1.5190672   0.5568749   0.0000000  )
         6           Sb  tau(   6) = (   0.2439976   0.0894471   0.0000000  )

   Crystallographic axes

     site n.     atom                  positions (cryst. coord.)
         1           Zr  tau(   1) = (  0.0000000  0.5000000  0.5000000  )
         2           Zr  tau(   2) = (  0.5000000  0.0000000  0.5000000  )
         3           Zr  tau(   3) = (  0.6775030  0.6775030  0.0000000  )
         4           Zr  tau(   4) = (  0.3224970  0.3224970  0.0000000  )
         5           Sb  tau(   5) = (  0.8616060  0.8616060  0.0000000  )
         6           Sb  tau(   6) = (  0.1383940  0.1383940  0.0000000  )

     number of k points=    10
                       cart. coord. in units 2pi/alat
        k(    1) = (   0.0000000   0.0000000   0.0000000), wk =   0.0740741
        k(    2) = (   0.0000000   0.0000000   0.9684539), wk =   0.1481481
        k(    3) = (   0.0000000   0.5157388   0.4842270), wk =   0.2962963
        k(    4) = (   0.0000000   0.5157388   1.4526809), wk =   0.1481481
        k(    5) = (   0.3333333  -0.3935421   0.4842270), wk =   0.2962963
        k(    6) = (   0.3333333  -0.3935421   1.4526809), wk =   0.1481481
        k(    7) = (   0.3333333   0.1221967   0.9684539), wk =   0.2962963
        k(    8) = (   0.3333333   0.1221967  -0.0000000), wk =   0.1481481
        k(    9) = (   0.3333333  -0.9092810  -0.0000000), wk =   0.1481481
        k(   10) = (   0.3333333  -0.9092810   0.9684539), wk =   0.2962963

                       cryst. coord.
        k(    1) = (   0.0000000   0.0000000   0.0000000), wk =   0.0740741
        k(    2) = (   0.0000000   0.0000000   0.3333333), wk =   0.1481481
        k(    3) = (   0.0000000   0.3333333   0.0000000), wk =   0.2962963
        k(    4) = (   0.0000000   0.3333333   0.3333333), wk =   0.1481481
        k(    5) = (   0.3333333  -0.0000000   0.0000000), wk =   0.2962963
        k(    6) = (   0.3333333  -0.0000000   0.3333333), wk =   0.1481481
        k(    7) = (   0.3333333   0.3333333   0.0000000), wk =   0.2962963
        k(    8) = (   0.3333333   0.3333333  -0.3333333), wk =   0.1481481
        k(    9) = (   0.3333333  -0.3333333   0.0000000), wk =   0.1481481
        k(   10) = (   0.3333333  -0.3333333   0.3333333), wk =   0.2962963

     Check: negative core charge=   -0.000005

     Initial potential from superposition of free atoms

     starting charge      75.9914, renormalised to      78.0000

     negative rho (up, down):  2.490E-01 0.000E+00
     Starting wfcs are   70 randomized atomic wfcs

     Self-consistent Calculation

     iteration #  1     ecut=    30.00 Ry     beta= 0.70
     Davidson diagonalization with overlap

     ethr =  1.00E-02,  avg # of iterations =  4.1

     Threshold (ethr) on eigenvalues was too large:
     Diagonalizing with lowered threshold

     Davidson diagonalization with overlap

[...]

     negative rho (up, down):  2.431E-01 0.000E+00

     total energy              =    -766.49524041 Ry
     estimated scf accuracy    <       0.76199313 Ry

[...]

     total energy              =    -766.73361836 Ry
     estimated scf accuracy    <       0.00000639 Ry

     iteration #  9     ecut=    30.00 Ry     beta= 0.70
     Davidson diagonalization with overlap

     ethr =  8.19E-09,  avg # of iterations =  2.0

     negative rho (up, down):  2.456E-01 0.000E+00

     End of self-consistent calculation

          k = 0.0000 0.0000 0.0000 (  2527 PWs)   bands (ev):

   -34.9410 -34.9274 -34.0307 -33.7694 -14.5429 -14.5426 -14.5415 -14.5281
   -14.5243 -14.5243 -14.5227 -14.5224 -14.5189 -14.5189 -13.0326 -13.0326
   -12.9852 -12.9852 -12.8531 -12.8383 -12.4316 -12.4316 -12.2283 -11.9532
   -11.4588 -11.4588   3.4760   4.4267   9.0931  11.6192  11.7251  11.9103
    11.9103  12.7906  13.0110  13.0110  13.0956  13.2664  13.4674  14.3910
    14.3910  14.9379  15.7308  15.9856  16.9736  17.3236  17.5009  17.5009
    17.5778  17.7803  17.7803  17.9728  17.9728  19.1083  20.1075  21.4757
    21.4757  21.5694  22.0701  22.2089  22.8769  24.5150  24.5680  25.0380

     occupation numbers
     1.0000   1.0000   1.0000   1.0000   1.0000   1.0000   1.0000   1.0000
     1.0000   1.0000   1.0000   1.0000   1.0000   1.0000   1.0000   1.0000
     1.0000   1.0000   1.0000   1.0000   1.0000   1.0000   1.0000   1.0000
     1.0000   1.0000   1.0000   1.0000   1.0000   1.0000   1.0000   1.0000
     1.0000   1.0000   1.0000   1.0000   1.0000   1.0000   1.0000   0.0000
     0.0000   0.0000   0.0000   0.0000   0.0000   0.0000   0.0000   0.0000
     0.0000   0.0000   0.0000   0.0000   0.0000   0.0000   0.0000   0.0000
     0.0000   0.0000   0.0000   0.0000   0.0000   0.0000   0.0000   0.0000

[...]

          k = 0.3333-0.9093 0.9685 (  2561 PWs)   bands (ev):

   -34.9362 -34.9296 -33.9654 -33.8347 -14.5674 -14.5624 -14.5540 -14.5471
   -14.5357 -14.5291 -14.5261 -14.5201 -14.5180 -14.5169 -13.0596 -13.0418
   -12.9875 -12.9601 -12.8439 -12.8124 -12.2482 -12.2173 -12.1583 -12.0191
   -11.7319 -11.7047   4.4867   4.4945   9.6857   9.6897  10.5477  11.4671
    11.7551  12.0523  12.7276  13.3941  13.9368  14.3466  14.6251  14.7342
    14.9229  15.3220  15.4806  15.7047  15.8737  17.3901  17.4941  17.5630
    17.6927  17.9408  18.4162  18.4842  19.0476  19.1053  19.5543  19.9099
    20.4946  21.7417  22.1143  22.1903  23.0602  23.4337  24.2418  24.8596

     occupation numbers
     1.0000   1.0000   1.0000   1.0000   1.0000   1.0000   1.0000   1.0000
     1.0000   1.0000   1.0000   1.0000   1.0000   1.0000   1.0000   1.0000
     1.0000   1.0000   1.0000   1.0000   1.0000   1.0000   1.0000   1.0000
     1.0000   1.0000   1.0000   1.0000   1.0000   1.0000   1.0000   1.0000
     1.0000   1.0000   1.0000   1.0000   1.0000   1.0000   1.0000   0.0000
     0.0000   0.0000   0.0000   0.0000   0.0000   0.0000   0.0000   0.0000
     0.0000   0.0000   0.0000   0.0000   0.0000   0.0000   0.0000   0.0000
     0.0000   0.0000   0.0000   0.0000   0.0000   0.0000   0.0000   0.0000

     highest occupied, lowest unoccupied level (ev):    14.6251   14.3910

!    total energy              =    -766.73361906 Ry
     estimated scf accuracy    <       0.00000020 Ry

     The total energy is the sum of the following terms:
     one-electron contribution =    -210.98070760 Ry
     hartree contribution      =     145.97454928 Ry
     xc contribution           =    -159.59359725 Ry
     ewald contribution        =    -542.13386349 Ry

     convergence has been achieved in   9 iterations

     Writing all to output data dir calculations_bands_val/myprefix.save/

     General routines

     Parallel routines

   This run was terminated on:  13:19:36   4Jun2023

   JOB DONE.