     Program PWSCF v.7.0 starts on 21May2023 at 19:59:35

     Reading input from espresso_20859.pwi
Warning: card &CELL ignored
Warning: card / ignored

     Current dimensions of program PWSCF are:
     Max number of different atomic species (ntypx) = 10
     Max number of k-points (npk) =  40000
     Max angular momentum in pseudopotentials (lmaxx) =  4

     gamma-point specific algorithms are used
     Message from routine setup:
     using ibrav=0 with symmetry is DISCOURAGED, use correct ibrav instead

     Subspace diagonalization in iterative solution of the eigenvalue problem:
     a serial algorithm will be used

     Using Slab Decomposition

     bravais-lattice index     =            0
     lattice parameter (alat)  =      12.3263  a.u.
     unit-cell volume          =    1324.2800 (a.u.)^3
     number of atoms/cell      =            9
     number of atomic types    =            3
     number of electrons       =        78.00
     number of Kohn-Sham states=           47
     kinetic-energy cutoff     =      30.0000  Ry
     charge density cutoff     =     240.0000  Ry
     scf convergence threshold =      1.0E-06
     mixing beta               =       0.7000
     number of iterations used =            8  plain     mixing
     Exchange-correlation=  SLA  PW   PBX  PBC
                           (   1   4   3   4   0   0   0)

     celldm(1)=  12.326268  celldm(2)=   0.000000  celldm(3)=   0.000000
     celldm(4)=   0.000000  celldm(5)=   0.000000  celldm(6)=   0.000000

     crystal axes: (cart. coord. in units of alat)
               a(1) = (   1.000000   0.000000   0.000000 )
               a(2) = (   0.500000   0.866025   0.000000 )
               a(3) = (   0.500000   0.288675   0.816497 )

     reciprocal axes: (cart. coord. in units 2 pi/alat)
               b(1) = (  1.000000 -0.577350 -0.408248 )
               b(2) = (  0.000000  1.154701 -0.408248 )
               b(3) = (  0.000000  0.000000  1.224745 )

     PseudoPot. # 1 for Cs read from file:
     /home/pragov/projects/rrg-bengioy-ad/pragov/crystal_structure_design/SSSP/Cs_pbe_v1.uspp.F.UPF
     MD5 check sum: 3476d69cb178dfad3ffaa59df4e07ca4
     Pseudo is Ultrasoft + core correction, Zval =  9.0
     Generated by new atomic code, or converted to UPF format
     Using radial grid of  905 points,  6 beta functions with:
                l(1) =   0
                l(2) =   0
                l(3) =   1
                l(4) =   1
                l(5) =   2
                l(6) =   2
     Q(r) pseudized with  6 coefficients,  rinner =    1.500   1.500   1.500
                                                       1.500   1.500

     PseudoPot. # 2 for Pd read from file:
     /home/pragov/projects/rrg-bengioy-ad/pragov/crystal_structure_design/SSSP/Pd_ONCV_PBE-1.0.oncvpsp.upf
     MD5 check sum: eb77f42b51d86fb18e25f68156a31cf1
     Pseudo is Norm-conserving, Zval = 18.0
     Generated using ONCVPSP code by D. R. Hamann
     Using radial grid of 1410 points,  6 beta functions with:
                l(1) =   0
                l(2) =   0
                l(3) =   1
                l(4) =   1
                l(5) =   2
                l(6) =   2

     PseudoPot. # 3 for F  read from file:
     /home/pragov/projects/rrg-bengioy-ad/pragov/crystal_structure_design/SSSP/f_pbe_v1.4.uspp.F.UPF
     MD5 check sum: 4c38b6a325caf53ec0e86aed9459de46
     Pseudo is Ultrasoft, Zval =  7.0
     Generated by new atomic code, or converted to UPF format
     Using radial grid of  799 points,  4 beta functions with:
                l(1) =   0
                l(2) =   0
                l(3) =   1
                l(4) =   1
     Q(r) pseudized with  8 coefficients,  rinner =    0.950   0.950   0.950

     atomic species   valence    mass     pseudopotential
        Cs             9.00   132.90545     Cs( 1.00)
        Pd            18.00   106.42000     Pd( 1.00)
        F              7.00    18.99840     F ( 1.00)

     12 Sym. Ops., with inversion, found

                                    s                        frac. trans.

      isym =  1     identity

 cryst.   s( 1) = (     1          0          0      )
                  (     0          1          0      )
                  (     0          0          1      )

 cart.    s( 1) = (  1.0000000  0.0000000  0.0000000 )
                  (  0.0000000  1.0000000 -0.0000000 )
                  (  0.0000000  0.0000000  1.0000000 )

      isym =  2     180 deg rotation - cart. axis [1,0,0]

[...]

      isym =  3     120 deg rotation - cryst. axis [0,0,1]

[...]

      isym =  6     180 deg rotation - cryst. axis [1,1,0]

[...]

      isym =  7     inversion

[...]

      isym =  8     inv. 180 deg rotation - cart. axis [1,0,0]

[...]

      isym =  9     inv. 120 deg rotation - cryst. axis [0,0,1]

 cryst.   s( 9) = (     1         -1          0      )
                  (     1          0          0      )
                  (     1          0         -1      )

 cart.    s( 9) = (  0.5000000  0.8660254  0.0000000 )
                  ( -0.8660254  0.5000000  0.0000000 )
                  (  0.0000000  0.0000000 -1.0000000 )

[...]

 cryst.   s(10) = (     0          1          0      )
                  (    -1          1          0      )
                  (     0          1         -1      )

 cart.    s(10) = (  0.5000000 -0.8660254  0.0000000 )
                  (  0.8660254  0.5000000  0.0000000 )
                  (  0.0000000  0.0000000 -1.0000000 )

[...]

      isym = 12     inv. 180 deg rotation - cryst. axis [1,1,0]

 cryst.   s(12) = (     1         -1          0      )
                  (     0         -1          0      )
                  (     0         -1          1      )

 cart.    s(12) = (  0.5000000 -0.8660254  0.0000000 )
                  ( -0.8660254 -0.5000000 -0.0000000 )
                  (  0.0000000  0.0000000  1.0000000 )

   Cartesian axes

     site n.     atom                  positions (alat units)
         1           Cs  tau(   1) = (   1.5000000   0.8660254   0.6123724  )
         2           Cs  tau(   2) = (   0.5000000   0.2886751   0.2041241  )
         3           Pd  tau(   3) = (   0.0000000   0.0000000   0.0000000  )
         4           F   tau(   4) = (   0.7121860   0.7435198   0.1732491  )
         5           F   tau(   5) = (   1.2878140   0.7435198   0.1732491  )
         6           F   tau(   6) = (   1.0000000   0.2450113   0.1732491  )
         7           F   tau(   7) = (   0.7121860   0.4111808   0.6432474  )
         8           F   tau(   8) = (   1.0000000   0.9096892   0.6432474  )
         9           F   tau(   9) = (   1.2878140   0.4111808   0.6432474  )

   Crystallographic axes

     site n.     atom                  positions (cryst. coord.)
         1           Cs  tau(   1) = (  0.7500000  0.7500000  0.7500000  )
         2           Cs  tau(   2) = (  0.2500000  0.2500000  0.2500000  )
         3           Pd  tau(   3) = (  0.0000000  0.0000000  0.0000000  )
         4           F   tau(   4) = (  0.2121860  0.7878140  0.2121860  )
         5           F   tau(   5) = (  0.7878140  0.7878140  0.2121860  )
         6           F   tau(   6) = (  0.7878140  0.2121860  0.2121860  )
         7           F   tau(   7) = (  0.2121860  0.2121860  0.7878140  )
         8           F   tau(   8) = (  0.2121860  0.7878140  0.7878140  )
         9           F   tau(   9) = (  0.7878140  0.2121860  0.7878140  )

     number of k points=     1  Methfessel-Paxton smearing, width (Ry)=  0.0010
                       cart. coord. in units 2pi/alat
        k(    1) = (   0.0000000   0.0000000   0.0000000), wk =   2.0000000

                       cryst. coord.
        k(    1) = (   0.0000000   0.0000000   0.0000000), wk =   2.0000000

     Initial potential from superposition of free atoms

     starting charge      77.9209, renormalised to      78.0000
     Starting wfcs are   60 randomized atomic wfcs

     Self-consistent Calculation

     iteration #  1     ecut=    30.00 Ry     beta= 0.70
     Davidson diagonalization with overlap

     ethr =  1.00E-02,  avg # of iterations =  2.0

     total energy              =    -670.33985513 Ry
     estimated scf accuracy    <       1.42955649 Ry

[...]

     total energy              =    -671.12362780 Ry
     estimated scf accuracy    <       0.00000320 Ry

     iteration #  8     ecut=    30.00 Ry     beta= 0.70
     Davidson diagonalization with overlap

     ethr =  4.11E-09,  avg # of iterations =  5.0

     End of self-consistent calculation

          k = 0.0000 0.0000 0.0000 (  1848 PWs)   bands (ev):

   -84.2454 -49.5617 -49.5617 -49.5617 -19.2087 -18.8593 -18.8588 -18.7491
   -18.7486 -18.7482 -16.3029 -16.2920  -3.7117  -3.7116  -3.7116  -3.2263
    -3.2263  -3.2263  -3.2259  -3.2256  -2.2066  -1.6870  -1.6870  -1.6869
    -0.8515  -0.8512  -0.8509   0.2473   0.2475   0.2477   0.3855   0.3856
     0.3857   0.7196   0.7198   0.7201   1.8389   1.8390   1.8391   4.2981
     4.2984   7.9540   9.5820   9.5821  10.1545  10.1545  10.1546

     occupation numbers
     1.0000   1.0000   1.0000   1.0000   1.0000   1.0000   1.0000   1.0000
     1.0000   1.0000   1.0000   1.0000   1.0000   1.0000   1.0000   1.0000
     1.0000   1.0000   1.0000   1.0000   1.0000   1.0000   1.0000   1.0000
     1.0000   1.0000   1.0000   1.0000   1.0000   1.0000   1.0000   1.0000
     1.0000   1.0000   1.0000   1.0000   1.0000   1.0000   1.0000  -0.0000
    -0.0000  -0.0000  -0.0000  -0.0000  -0.0000  -0.0000  -0.0000

     the Fermi energy is     2.8944 ev

!    total energy              =    -671.12362923 Ry
     estimated scf accuracy    <       0.00000049 Ry
     smearing contrib. (-TS)   =       0.00000000 Ry
     internal energy E=F+TS    =    -671.12362923 Ry

     The total energy is F=E-TS. E is the sum of the following terms:
     one-electron contribution =    -519.78920767 Ry
     hartree contribution      =     292.02597810 Ry
     xc contribution           =    -141.23872191 Ry
     ewald contribution        =    -302.12167775 Ry

     convergence has been achieved in   8 iterations

     Forces acting on atoms (cartesian axes, Ry/au):

     atom    1 type  1   force =    -0.00000000    0.00000000    0.00000928
     atom    2 type  1   force =     0.00000000    0.00000000   -0.00000928
     atom    3 type  2   force =     0.00000000    0.00000000    0.00000000
     atom    4 type  3   force =    -0.00692894    0.00400042   -0.00565865
     atom    5 type  3   force =     0.00692894    0.00400042   -0.00565865
     atom    6 type  3   force =     0.00000000   -0.00800085   -0.00565865
     atom    7 type  3   force =    -0.00692894   -0.00400042    0.00565865
     atom    8 type  3   force =     0.00000000    0.00800085    0.00565865
     atom    9 type  3   force =     0.00692894   -0.00400042    0.00565865
     The non-local contrib.  to forces
     atom    1 type  1   force =    -0.00000000   -0.00000000   -0.00002457
     atom    2 type  1   force =     0.00000000    0.00000000    0.00002457
     atom    3 type  2   force =    -0.00000000   -0.00000000    0.00000000
     atom    4 type  3   force =    -0.74070647    0.42764708   -0.60478400
     atom    5 type  3   force =     0.74070647    0.42764708   -0.60478400
     atom    6 type  3   force =     0.00000000   -0.85529416   -0.60478400
     atom    7 type  3   force =    -0.74070647   -0.42764708    0.60478400
     atom    8 type  3   force =     0.00000000    0.85529416    0.60478400
     atom    9 type  3   force =     0.74070647   -0.42764708    0.60478400
     The ionic contribution  to forces
     atom    1 type  1   force =     0.00000000    0.00000000   -0.00000000
     atom    2 type  1   force =    -0.00000000   -0.00000000    0.00000000
     atom    3 type  2   force =    -0.00000000   -0.00000000   -0.00000000
     atom    4 type  3   force =    14.41579259   -8.32296173   11.77044536
     atom    5 type  3   force =   -14.41579259   -8.32296173   11.77044536
     atom    6 type  3   force =     0.00000000   16.64592347   11.77044536
     atom    7 type  3   force =    14.41579259    8.32296173  -11.77044536
     atom    8 type  3   force =     0.00000000  -16.64592347  -11.77044536
     atom    9 type  3   force =   -14.41579259    8.32296173  -11.77044536
     The local contribution  to forces
     atom    1 type  1   force =    -0.00011383    0.00004213    0.00004313
     atom    2 type  1   force =    -0.00006151   -0.00005405   -0.00006024
     atom    3 type  2   force =     0.00019146    0.00053845   -0.00026563
     atom    4 type  3   force =   -13.68223531    7.89947345  -11.17154109
     atom    5 type  3   force =    13.68226107    7.89948331  -11.17151983
     atom    6 type  3   force =     0.00002583  -15.79896216  -11.17156759
     atom    7 type  3   force =   -13.68228548   -7.89946335   11.17155255
     atom    8 type  3   force =     0.00002898   15.79895562   11.17153314
     atom    9 type  3   force =    13.68225990   -7.89942748   11.17150321
     The core correction contribution to forces
     atom    1 type  1   force =    -0.00000516    0.00000250    0.00000131
     atom    2 type  1   force =    -0.00000326   -0.00000280   -0.00000510
     atom    3 type  2   force =     0.00000000    0.00000000    0.00000000
     atom    4 type  3   force =     0.00000000    0.00000000    0.00000000
     atom    5 type  3   force =     0.00000000    0.00000000    0.00000000
     atom    6 type  3   force =     0.00000000    0.00000000    0.00000000
     atom    7 type  3   force =     0.00000000    0.00000000    0.00000000
     atom    8 type  3   force =     0.00000000    0.00000000    0.00000000
     atom    9 type  3   force =     0.00000000    0.00000000    0.00000000
     The Hubbard contrib.    to forces
     atom    1 type  1   force =     0.00000000    0.00000000    0.00000000
     atom    2 type  1   force =     0.00000000    0.00000000    0.00000000
     atom    3 type  2   force =     0.00000000    0.00000000    0.00000000
     atom    4 type  3   force =     0.00000000    0.00000000    0.00000000
     atom    5 type  3   force =     0.00000000    0.00000000    0.00000000
     atom    6 type  3   force =     0.00000000    0.00000000    0.00000000
     atom    7 type  3   force =     0.00000000    0.00000000    0.00000000
     atom    8 type  3   force =     0.00000000    0.00000000    0.00000000
     atom    9 type  3   force =     0.00000000    0.00000000    0.00000000
     The SCF correction term to forces
     atom    1 type  1   force =     0.00005656   -0.00001618   -0.00002165
     atom    2 type  1   force =     0.00002695    0.00002613    0.00002043
     atom    3 type  2   force =    -0.00019593   -0.00053883    0.00026832
     atom    4 type  3   force =     0.00021332   -0.00016924    0.00023477
     atom    5 type  3   force =    -0.00024823   -0.00018487    0.00020270
     atom    6 type  3   force =    -0.00003073    0.00033048    0.00025049
     atom    7 type  3   force =     0.00025642    0.00014931   -0.00022797
     atom    8 type  3   force =    -0.00004639   -0.00033820   -0.00020733
     atom    9 type  3   force =    -0.00023925    0.00010350   -0.00017407

     Total force =     0.024004     Total SCF correction =     0.001115

     Computing stress (Cartesian axis) and pressure

          total   stress  (Ry/bohr**3)                   (kbar)     P=     -172.65
  -0.00117366  -0.00000000   0.00000000         -172.65       -0.00        0.00
   0.00000000  -0.00117366  -0.00000000            0.00     -172.65       -0.00
   0.00000000   0.00000000  -0.00117365            0.00        0.00     -172.65

     kinetic stress (kbar)  15874.77      0.00     -0.00
                                0.00  15874.77     -0.00
                               -0.00     -0.00  15874.77

     local   stress (kbar) -16940.17      0.03     -0.02
                                0.03 -16940.10      0.04
                               -0.02      0.04 -16940.13

     nonloc. stress (kbar)   4891.48     -0.00     -0.00
                               -0.00   4891.48      0.00
                                0.00      0.00   4891.48

     hartree stress (kbar)  10813.08     -0.02      0.02
                               -0.02  10813.02     -0.04
                                0.02     -0.04  10813.04

     exc-cor stress (kbar)   1698.61     -0.00     -0.00
                               -0.00   1698.61      0.00
                               -0.00      0.00   1698.61

     corecor stress (kbar)  -5323.56      0.00      0.00
                                0.00  -5323.56     -0.00
                                0.00     -0.00  -5323.56

     ewald   stress (kbar) -11186.87     -0.00     -0.00
                               -0.00 -11186.87     -0.00
                               -0.00     -0.00 -11186.87

     hubbard stress (kbar)      0.00      0.00      0.00
                                0.00      0.00      0.00
                                0.00      0.00      0.00

     DFT-D   stress (kbar)      0.00      0.00      0.00
                                0.00      0.00      0.00
                                0.00      0.00      0.00

     XDM     stress (kbar)      0.00      0.00      0.00
                                0.00      0.00      0.00
                                0.00      0.00      0.00

     dft-nl  stress (kbar)      0.00      0.00      0.00
                                0.00      0.00      0.00
                                0.00      0.00      0.00

     TS-vdW  stress (kbar)      0.00      0.00      0.00
                                0.00      0.00      0.00
                                0.00      0.00      0.00

[...]

                                0.00      0.00      0.00

     Writing all to output data dir new_calculations/myprefix.save/

     General routines

     Parallel routines

   This run was terminated on:  19:59:45  21May2023

   JOB DONE.