     Program PWSCF v.7.0 starts on 20May2023 at  5:21:47

     Reading input from espresso_13113.pwi
Warning: card &CELL ignored
Warning: card / ignored

     Current dimensions of program PWSCF are:
     Max number of different atomic species (ntypx) = 10
     Max number of k-points (npk) =  40000
     Max angular momentum in pseudopotentials (lmaxx) =  4
     file K.pbe-spn-kjpaw_psl.1.0.0.UPF: wavefunction(s)  3S renormalized

     gamma-point specific algorithms are used
     Message from routine setup:
     using ibrav=0 with symmetry is DISCOURAGED, use correct ibrav instead

     Subspace diagonalization in iterative solution of the eigenvalue problem:
     a serial algorithm will be used

     Using Slab Decomposition

     bravais-lattice index     =            0
     lattice parameter (alat)  =      11.6417  a.u.
     unit-cell volume          =    2295.0627 (a.u.)^3
     number of atoms/cell      =           20
     number of atomic types    =            3
     number of electrons       =       196.00
     number of Kohn-Sham states=          118
     kinetic-energy cutoff     =      30.0000  Ry
     charge density cutoff     =     240.0000  Ry
     scf convergence threshold =      1.0E-06
     mixing beta               =       0.7000
     number of iterations used =            8  plain     mixing
     Exchange-correlation=  SLA  PW   PBX  PBC
                           (   1   4   3   4   0   0   0)

     celldm(1)=  11.641680  celldm(2)=   0.000000  celldm(3)=   0.000000
     celldm(4)=   0.000000  celldm(5)=   0.000000  celldm(6)=   0.000000

     crystal axes: (cart. coord. in units of alat)
               a(1) = (   1.000000   0.000000   0.000000 )
               a(2) = (   0.000000   1.043152   0.000000 )
               a(3) = (   0.000000   0.000000   1.394440 )

     reciprocal axes: (cart. coord. in units 2 pi/alat)
               b(1) = (  1.000000  0.000000  0.000000 )
               b(2) = (  0.000000  0.958633  0.000000 )
               b(3) = (  0.000000  0.000000  0.717134 )

     PseudoPot. # 1 for K  read from file:
     /home/pragov/projects/rrg-bengioy-ad/pragov/crystal_structure_design/SSSP/K.pbe-spn-kjpaw_psl.1.0.0.UPF
     MD5 check sum: 7d58810084cac21f60fbe77ea2b688fd
     Pseudo is Projector augmented-wave + core cor, Zval =  9.0
     Generated using "atomic" code by A. Dal Corso  v.5.1
     Shape of augmentation charge: PSQ
     Using radial grid of 1165 points,  6 beta functions with:
                l(1) =   0
                l(2) =   0
                l(3) =   1
                l(4) =   1
                l(5) =   2
                l(6) =   2
     Q(r) pseudized with 0 coefficients

     PseudoPot. # 2 for Ag read from file:
     /home/pragov/projects/rrg-bengioy-ad/pragov/crystal_structure_design/SSSP/Ag_ONCV_PBE-1.0.oncvpsp.upf
     MD5 check sum: 94f47bd0669c641108e45594df92fabc
     Pseudo is Norm-conserving, Zval = 19.0
     Generated using ONCVPSP code by D. R. Hamann
     Using radial grid of 1398 points,  6 beta functions with:
                l(1) =   0
                l(2) =   0
                l(3) =   1
                l(4) =   1
                l(5) =   2
                l(6) =   2

     PseudoPot. # 3 for F  read from file:
     /home/pragov/projects/rrg-bengioy-ad/pragov/crystal_structure_design/SSSP/f_pbe_v1.4.uspp.F.UPF
     MD5 check sum: 4c38b6a325caf53ec0e86aed9459de46
     Pseudo is Ultrasoft, Zval =  7.0
     Generated by new atomic code, or converted to UPF format
     Using radial grid of  799 points,  4 beta functions with:
                l(1) =   0
                l(2) =   0
                l(3) =   1
                l(4) =   1
     Q(r) pseudized with  8 coefficients,  rinner =    0.950   0.950   0.950

     atomic species   valence    mass     pseudopotential
        K              9.00    39.09830     K ( 1.00)
        Ag            19.00   107.86820     Ag( 1.00)
        F              7.00    18.99840     F ( 1.00)

      8 Sym. Ops., with inversion, found ( 6 have fractional translation)

                                    s                        frac. trans.

      isym =  1     identity

 cryst.   s( 1) = (     1          0          0      )
                  (     0          1          0      )
                  (     0          0          1      )

 cart.    s( 1) = (  1.0000000  0.0000000  0.0000000 )
                  (  0.0000000  1.0000000  0.0000000 )
                  (  0.0000000  0.0000000  1.0000000 )

      isym =  2     180 deg rotation - cart. axis [0,0,1]

 cryst.   s( 2) = (    -1          0          0      )    f =(  0.0000000 )
                  (     0         -1          0      )       ( -0.0000000 )
                  (     0          0          1      )       ( -0.5000000 )

 cart.    s( 2) = ( -1.0000000  0.0000000  0.0000000 )    f =(  0.0000000 )
                  (  0.0000000 -1.0000000  0.0000000 )       ( -0.0000000 )
                  (  0.0000000  0.0000000  1.0000000 )       ( -0.6972199 )

[...]

      isym =  4     180 deg rotation - cart. axis [1,0,0]

[...]

      isym =  5     inversion

 cryst.   s( 5) = (    -1          0          0      )
                  (     0         -1          0      )
                  (     0          0         -1      )

 cart.    s( 5) = ( -1.0000000  0.0000000  0.0000000 )
                  (  0.0000000 -1.0000000  0.0000000 )
                  (  0.0000000  0.0000000 -1.0000000 )

      isym =  6     inv. 180 deg rotation - cart. axis [0,0,1]

[...]

      isym =  8     inv. 180 deg rotation - cart. axis [1,0,0]

 cryst.   s( 8) = (    -1          0          0      )    f =(  0.5000000 )
                  (     0          1          0      )       (  0.5000000 )
                  (     0          0          1      )       (  0.0000000 )

 cart.    s( 8) = ( -1.0000000  0.0000000  0.0000000 )    f =(  0.5000000 )
                  (  0.0000000  1.0000000  0.0000000 )       (  0.5215762 )
                  (  0.0000000  0.0000000  1.0000000 )       (  0.0000000 )

   Cartesian axes

     site n.     atom                  positions (alat units)
         1           K   tau(   1) = (   0.0102520   0.5764314   0.3486099  )
         2           K   tau(   2) = (   0.4897480   0.0548552   0.3486099  )
         3           K   tau(   3) = (   0.9897480   0.4667210   1.0458298  )
         4           K   tau(   4) = (   0.5102520   0.9882972   1.0458298  )
         5           Ag  tau(   5) = (   0.5000000   0.5215762   0.0000000  )
         6           Ag  tau(   6) = (   0.0000000   0.0000000   0.6972199  )
         7           Ag  tau(   7) = (   0.5000000   0.5215762   0.6972199  )
         8           Ag  tau(   8) = (   0.0000000   0.0000000   0.0000000  )
         9           F   tau(   9) = (   0.9289780   1.0224166   0.3486099  )
        10           F   tau(  10) = (   0.5710220   0.5008404   0.3486099  )
        11           F   tau(  11) = (   0.0710220   0.0207358   1.0458298  )
        12           F   tau(  12) = (   0.4289780   0.5423120   1.0458298  )
        13           F   tau(  13) = (   0.2744440   0.8444121   0.6478288  )
        14           F   tau(  14) = (   0.2255560   0.3228359   0.0493911  )
        15           F   tau(  15) = (   0.7255560   0.1987404   1.3450487  )
        16           F   tau(  16) = (   0.7744440   0.7203166   0.7466109  )
        17           F   tau(  17) = (   0.7255560   0.1987404   0.7466109  )
        18           F   tau(  18) = (   0.7744440   0.7203166   1.3450487  )
        19           F   tau(  19) = (   0.2744440   0.8444121   0.0493911  )
        20           F   tau(  20) = (   0.2255560   0.3228359   0.6478288  )

   Crystallographic axes

     site n.     atom                  positions (cryst. coord.)
         1           K   tau(   1) = (  0.0102520  0.5525860  0.2500000  )
         2           K   tau(   2) = (  0.4897480  0.0525860  0.2500000  )
         3           K   tau(   3) = (  0.9897480  0.4474140  0.7500000  )
         4           K   tau(   4) = (  0.5102520  0.9474140  0.7500000  )
         5           Ag  tau(   5) = (  0.5000000  0.5000000  0.0000000  )
         6           Ag  tau(   6) = (  0.0000000  0.0000000  0.5000000  )
         7           Ag  tau(   7) = (  0.5000000  0.5000000  0.5000000  )
         8           Ag  tau(   8) = (  0.0000000  0.0000000  0.0000000  )
         9           F   tau(   9) = (  0.9289780  0.9801220  0.2500000  )
        10           F   tau(  10) = (  0.5710220  0.4801220  0.2500000  )
        11           F   tau(  11) = (  0.0710220  0.0198780  0.7500000  )
        12           F   tau(  12) = (  0.4289780  0.5198780  0.7500000  )
        13           F   tau(  13) = (  0.2744440  0.8094810  0.4645800  )
        14           F   tau(  14) = (  0.2255560  0.3094810  0.0354200  )
        15           F   tau(  15) = (  0.7255560  0.1905190  0.9645800  )
        16           F   tau(  16) = (  0.7744440  0.6905190  0.5354200  )
        17           F   tau(  17) = (  0.7255560  0.1905190  0.5354200  )
        18           F   tau(  18) = (  0.7744440  0.6905190  0.9645800  )
        19           F   tau(  19) = (  0.2744440  0.8094810  0.0354200  )
        20           F   tau(  20) = (  0.2255560  0.3094810  0.4645800  )

     number of k points=     1  Methfessel-Paxton smearing, width (Ry)=  0.0010
                       cart. coord. in units 2pi/alat
        k(    1) = (   0.0000000   0.0000000   0.0000000), wk =   2.0000000

                       cryst. coord.
        k(    1) = (   0.0000000   0.0000000   0.0000000), wk =   2.0000000

     Check: negative core charge=   -0.000003

     Initial potential from superposition of free atoms

     starting charge     195.9235, renormalised to     196.0000
     Starting wfcs are  120 randomized atomic wfcs
     Checking if some PAW data can be deallocated...

     Self-consistent Calculation

     iteration #  1     ecut=    30.00 Ry     beta= 0.70
     Davidson diagonalization with overlap

     ethr =  1.00E-02,  avg # of iterations =  9.0

     Threshold (ethr) on eigenvalues was too large:
     Diagonalizing with lowered threshold

     Davidson diagonalization with overlap

[...]

     total energy              =   -2183.64740461 Ry
     estimated scf accuracy    <       1.81516089 Ry

[...]

     total energy              =   -2184.46784993 Ry
     estimated scf accuracy    <       0.00000166 Ry

     iteration # 14     ecut=    30.00 Ry     beta= 0.70
     Davidson diagonalization with overlap

     ethr =  8.49E-10,  avg # of iterations =  1.0

     End of self-consistent calculation

          k = 0.0000 0.0000 0.0000 (  3203 PWs)   bands (ev):

   -87.4598 -87.4596 -87.4596 -87.4596 -50.6387 -50.6376 -50.6372 -50.6353
   -50.5529 -50.5526 -50.5516 -50.5497 -50.2599 -50.2568 -50.2563 -50.2547
   -23.3842 -23.3765 -23.3717 -23.3667 -17.4107 -17.3752 -17.2936 -17.2907
   -17.0989 -17.0479 -16.9560 -16.9535 -16.9443 -16.9439 -16.9334 -16.9305
    -6.9329  -6.9317  -6.9255  -6.9139  -6.9025  -6.8665  -6.8635  -6.8629
    -6.8564  -6.8564  -6.8433  -6.8419  -1.3479  -1.3135  -0.9018  -0.8585
    -0.8309  -0.7790   0.0155   0.0328   0.2101   0.2959   0.3320   0.4416
     0.5518   0.5861   0.6426   0.6501   0.7040   0.7061   0.7974   0.8029
     1.3305   1.3353   1.3520   1.3899   1.5060   1.6178   1.7039   1.7320
     1.7702   1.7967   1.8548   1.8699   1.8730   1.9636   1.9774   1.9832
     2.0138   2.0354   2.0863   2.2333   2.2739   2.4153   2.4361   2.5132
     2.7727   2.8309   2.8622   2.9751   3.1082   3.1441   3.1466   3.3143
     3.6622   4.7815   4.9519   5.0143   7.6007  10.0443  11.0855  11.0913
    11.8677  12.0031  12.1192  12.6136  12.6676  12.7448  12.7823  12.8133
    13.2989  13.4593  13.8820  14.0956  14.2426  14.2479

     occupation numbers
     1.0000   1.0000   1.0000   1.0000   1.0000   1.0000   1.0000   1.0000
     1.0000   1.0000   1.0000   1.0000   1.0000   1.0000   1.0000   1.0000
     1.0000   1.0000   1.0000   1.0000   1.0000   1.0000   1.0000   1.0000
     1.0000   1.0000   1.0000   1.0000   1.0000   1.0000   1.0000   1.0000
     1.0000   1.0000   1.0000   1.0000   1.0000   1.0000   1.0000   1.0000
     1.0000   1.0000   1.0000   1.0000   1.0000   1.0000   1.0000   1.0000
     1.0000   1.0000   1.0000   1.0000   1.0000   1.0000   1.0000   1.0000
     1.0000   1.0000   1.0000   1.0000   1.0000   1.0000   1.0000   1.0000
     1.0000   1.0000   1.0000   1.0000   1.0000   1.0000   1.0000   1.0000
     1.0000   1.0000   1.0000   1.0000   1.0000   1.0000   1.0000   1.0000
     1.0000   1.0000   1.0000   1.0000   1.0000   1.0000   1.0000   1.0000
     1.0000   1.0000   1.0000   1.0000   1.0000   1.0000   1.0000   1.0000
     1.0000   1.0000  -0.0000  -0.0000  -0.0000  -0.0000  -0.0000  -0.0000
    -0.0000  -0.0000  -0.0000  -0.0000  -0.0000  -0.0000  -0.0000  -0.0000
    -0.0000  -0.0000  -0.0000  -0.0000  -0.0000  -0.0000

     the Fermi energy is     4.8731 ev

!    total energy              =   -2184.46784999 Ry
     estimated scf accuracy    <       0.00000009 Ry
     smearing contrib. (-TS)   =       0.00000000 Ry
     internal energy E=F+TS    =   -2184.46784999 Ry

     The total energy is F=E-TS. E is the sum of the following terms:
     one-electron contribution =   -1206.40762902 Ry
     hartree contribution      =     679.66383957 Ry
     xc contribution           =    -265.20166355 Ry
     ewald contribution        =   -1170.85122347 Ry
     one-center paw contrib.   =    -221.67117352 Ry
      -> PAW hartree energy AE =     150.95309844 Ry
      -> PAW hartree energy PS =    -150.11118920 Ry
      -> PAW xc energy AE      =    -264.90082382 Ry
      -> PAW xc energy PS      =      42.38774106 Ry
      -> total E_H with PAW    =     680.50574881 Ry
      -> total E_XC with PAW   =    -487.71474631 Ry

     convergence has been achieved in  14 iterations

     Forces acting on atoms (cartesian axes, Ry/au):

     atom    1 type  1   force =     0.00173040    0.00133790    0.00000000
     atom    2 type  1   force =    -0.00173040    0.00133790   -0.00000000
     atom    3 type  1   force =    -0.00173040   -0.00133790    0.00000000
     atom    4 type  1   force =     0.00173040   -0.00133790   -0.00000000
     atom    5 type  2   force =     0.00000000    0.00000000    0.00000000
     atom    6 type  2   force =     0.00000000   -0.00000000    0.00000000
     atom    7 type  2   force =     0.00000000   -0.00000000    0.00000000
     atom    8 type  2   force =     0.00000000    0.00000000   -0.00000000
     atom    9 type  3   force =     0.00889542    0.00085196    0.00000000
     atom   10 type  3   force =    -0.00889542    0.00085196    0.00000000
     atom   11 type  3   force =    -0.00889542   -0.00085196    0.00000000
     atom   12 type  3   force =     0.00889542   -0.00085196    0.00000000
     atom   13 type  3   force =    -0.00105779    0.00161378   -0.00080066
     atom   14 type  3   force =     0.00105779    0.00161378    0.00080066
     atom   15 type  3   force =     0.00105779   -0.00161378   -0.00080066
     atom   16 type  3   force =    -0.00105779   -0.00161378    0.00080066
     atom   17 type  3   force =     0.00105779   -0.00161378    0.00080066
     atom   18 type  3   force =    -0.00105779   -0.00161378   -0.00080066
     atom   19 type  3   force =    -0.00105779    0.00161378    0.00080066
     atom   20 type  3   force =     0.00105779    0.00161378   -0.00080066
     The non-local contrib.  to forces
     atom    1 type  1   force =    -0.00094832   -0.01027533    0.00000000
     atom    2 type  1   force =     0.00094832   -0.01027533    0.00000000
     atom    3 type  1   force =     0.00094832    0.01027533    0.00000000
     atom    4 type  1   force =    -0.00094832    0.01027533    0.00000000
     atom    5 type  2   force =     0.00000000    0.00000000    0.00000000
     atom    6 type  2   force =     0.00000000   -0.00000000    0.00000000
     atom    7 type  2   force =     0.00000000   -0.00000000    0.00000000
     atom    8 type  2   force =     0.00000000    0.00000000    0.00000000
     atom    9 type  3   force =     0.08613695   -0.00992913    0.00000000
     atom   10 type  3   force =    -0.08613695   -0.00992913   -0.00000000
     atom   11 type  3   force =    -0.08613695    0.00992913    0.00000000
     atom   12 type  3   force =     0.08613695    0.00992913   -0.00000000
     atom   13 type  3   force =    -0.36211715    0.25152559    0.05556079
     atom   14 type  3   force =     0.36211715    0.25152559   -0.05556079
     atom   15 type  3   force =     0.36211715   -0.25152559    0.05556079
     atom   16 type  3   force =    -0.36211715   -0.25152559   -0.05556079
     atom   17 type  3   force =     0.36211715   -0.25152559   -0.05556079
     atom   18 type  3   force =    -0.36211715   -0.25152559    0.05556079
     atom   19 type  3   force =    -0.36211715    0.25152559   -0.05556079
     atom   20 type  3   force =     0.36211715    0.25152559    0.05556079
     The ionic contribution  to forces
     atom    1 type  1   force =    -0.52204459   -2.39084838   -0.00000000
     atom    2 type  1   force =     0.52204459   -2.39084838   -0.00000000
     atom    3 type  1   force =     0.52204459    2.39084838   -0.00000000
     atom    4 type  1   force =    -0.52204459    2.39084838   -0.00000000
     atom    5 type  2   force =    -0.00000000    0.00000000   -0.00000000
     atom    6 type  2   force =    -0.00000000   -0.00000000   -0.00000000
     atom    7 type  2   force =     0.00000000    0.00000000   -0.00000000
     atom    8 type  2   force =     0.00000000    0.00000000   -0.00000000
     atom    9 type  3   force =    -3.80580078   -0.00890571   -0.00000000
     atom   10 type  3   force =     3.80580078   -0.00890571   -0.00000000
     atom   11 type  3   force =     3.80580078    0.00890571   -0.00000000
     atom   12 type  3   force =    -3.80580078    0.00890571    0.00000000
     atom   13 type  3   force =     5.21622828   -1.38185695   -1.92549003
     atom   14 type  3   force =    -5.21622828   -1.38185695    1.92549003
     atom   15 type  3   force =    -5.21622828    1.38185695   -1.92549003
     atom   16 type  3   force =     5.21622828    1.38185695    1.92549003
     atom   17 type  3   force =    -5.21622828    1.38185695    1.92549003
     atom   18 type  3   force =     5.21622828    1.38185695   -1.92549003
     atom   19 type  3   force =     5.21622828   -1.38185695    1.92549003
     atom   20 type  3   force =    -5.21622828   -1.38185695   -1.92549003
     The local contribution  to forces
     atom    1 type  1   force =     0.52465274    2.40203064    0.00026145
     atom    2 type  1   force =    -0.52465287    2.40204708    0.00019433
     atom    3 type  1   force =    -0.52465170   -2.40202995   -0.00026282
     atom    4 type  1   force =     0.52465056   -2.40204592   -0.00019681
     atom    5 type  2   force =     0.00000316    0.00000838    0.00000123
     atom    6 type  2   force =    -0.00000290   -0.00000171   -0.00000547
     atom    7 type  2   force =     0.00000263    0.00000361   -0.00000017
     atom    8 type  2   force =     0.00000277   -0.00000745    0.00000898
     atom    9 type  3   force =     3.72854946    0.01968576    0.00011744
     atom   10 type  3   force =    -3.72855628    0.01968478    0.00034763
     atom   11 type  3   force =    -3.72854889   -0.01968647   -0.00011871
     atom   12 type  3   force =     3.72855642   -0.01968370   -0.00034799
     atom   13 type  3   force =    -4.85515188    1.13189595    1.86917245
     atom   14 type  3   force =     4.85510254    1.13187885   -1.86908885
     atom   15 type  3   force =     4.85519548   -1.13199671    1.86910019
     atom   16 type  3   force =    -4.85524130   -1.13201528   -1.86917727
     atom   17 type  3   force =     4.85515224   -1.13189651   -1.86917387
     atom   18 type  3   force =    -4.85510349   -1.13187854    1.86909105
     atom   19 type  3   force =    -4.85519581    1.13199614   -1.86909867
     atom   20 type  3   force =     4.85524086    1.13201581    1.86917627
     The core correction contribution to forces
     atom    1 type  1   force =     0.00004809    0.00044485   -0.00000020
     atom    2 type  1   force =    -0.00004795    0.00044494   -0.00000013
     atom    3 type  1   force =    -0.00004806   -0.00044489    0.00000022
     atom    4 type  1   force =     0.00004791   -0.00044486    0.00000008
     atom    5 type  2   force =     0.00000000    0.00000000    0.00000000
     atom    6 type  2   force =     0.00000000    0.00000000    0.00000000
     atom    7 type  2   force =     0.00000000    0.00000000    0.00000000
     atom    8 type  2   force =     0.00000000    0.00000000    0.00000000
     atom    9 type  3   force =     0.00000000    0.00000000    0.00000000
     atom   10 type  3   force =     0.00000000    0.00000000    0.00000000
     atom   11 type  3   force =     0.00000000    0.00000000    0.00000000
     atom   12 type  3   force =     0.00000000    0.00000000    0.00000000
     atom   13 type  3   force =     0.00000000    0.00000000    0.00000000
     atom   14 type  3   force =     0.00000000    0.00000000    0.00000000
     atom   15 type  3   force =     0.00000000    0.00000000    0.00000000
     atom   16 type  3   force =     0.00000000    0.00000000    0.00000000
     atom   17 type  3   force =     0.00000000    0.00000000    0.00000000
     atom   18 type  3   force =     0.00000000    0.00000000    0.00000000
     atom   19 type  3   force =     0.00000000    0.00000000    0.00000000
     atom   20 type  3   force =     0.00000000    0.00000000    0.00000000
     The Hubbard contrib.    to forces
     atom    1 type  1   force =     0.00000000    0.00000000    0.00000000
     atom    2 type  1   force =     0.00000000    0.00000000    0.00000000
     atom    3 type  1   force =     0.00000000    0.00000000    0.00000000
     atom    4 type  1   force =     0.00000000    0.00000000    0.00000000
     atom    5 type  2   force =     0.00000000    0.00000000    0.00000000
     atom    6 type  2   force =     0.00000000    0.00000000    0.00000000
     atom    7 type  2   force =     0.00000000    0.00000000    0.00000000
     atom    8 type  2   force =     0.00000000    0.00000000    0.00000000
     atom    9 type  3   force =     0.00000000    0.00000000    0.00000000
     atom   10 type  3   force =     0.00000000    0.00000000    0.00000000
     atom   11 type  3   force =     0.00000000    0.00000000    0.00000000
     atom   12 type  3   force =     0.00000000    0.00000000    0.00000000
     atom   13 type  3   force =     0.00000000    0.00000000    0.00000000
     atom   14 type  3   force =     0.00000000    0.00000000    0.00000000
     atom   15 type  3   force =     0.00000000    0.00000000    0.00000000
     atom   16 type  3   force =     0.00000000    0.00000000    0.00000000
     atom   17 type  3   force =     0.00000000    0.00000000    0.00000000
     atom   18 type  3   force =     0.00000000    0.00000000    0.00000000
     atom   19 type  3   force =     0.00000000    0.00000000    0.00000000
     atom   20 type  3   force =     0.00000000    0.00000000    0.00000000
     The SCF correction term to forces
     atom    1 type  1   force =     0.00002572   -0.00001300   -0.00026122
     atom    2 type  1   force =    -0.00001964   -0.00003118   -0.00018688
     atom    3 type  1   force =    -0.00002676    0.00001147    0.00026295
     atom    4 type  1   force =     0.00002119    0.00003104    0.00018848
     atom    5 type  2   force =    -0.00000353   -0.00001080   -0.00000102
     atom    6 type  2   force =     0.00000415    0.00000248    0.00000681
     atom    7 type  2   force =    -0.00000349   -0.00000436    0.00000003
     atom    8 type  2   force =    -0.00000358    0.00000916   -0.00001093
     atom    9 type  3   force =     0.00000585   -0.00000203   -0.00012417
     atom   10 type  3   force =    -0.00000700    0.00000507   -0.00032212
     atom   11 type  3   force =    -0.00000686    0.00000314    0.00012524
     atom   12 type  3   force =     0.00000625   -0.00000659    0.00032220
     atom   13 type  3   force =    -0.00001834    0.00006182   -0.00004544
     atom   14 type  3   force =     0.00005982    0.00006165   -0.00004416
     atom   15 type  3   force =    -0.00002753    0.00006037    0.00002788
     atom   16 type  3   force =     0.00006654    0.00006953    0.00005052
     atom   17 type  3   force =     0.00001801   -0.00006130    0.00004774
     atom   18 type  3   force =    -0.00005883   -0.00006205    0.00004118
     atom   19 type  3   force =     0.00002710   -0.00005946   -0.00002950
     atom   20 type  3   force =    -0.00006608   -0.00007012   -0.00004898

     Total force =     0.019325     Total SCF correction =     0.000719

     Computing stress (Cartesian axis) and pressure

          total   stress  (Ry/bohr**3)                   (kbar)     P=     -443.50
  -0.00303804   0.00000000   0.00000000         -446.91        0.00        0.00
   0.00000000  -0.00290807   0.00000000            0.00     -427.79        0.00
   0.00000000   0.00000000  -0.00309849            0.00        0.00     -455.80

     kinetic stress (kbar)  29274.16      0.00      0.00
                                0.00  29510.99      0.00
                                0.00      0.00  29233.62

     local   stress (kbar) -15514.55      0.03      0.00
                                0.03 -11484.58     -0.01
                                0.00     -0.01 -17775.55

     nonloc. stress (kbar)    954.34      0.00      0.00
                                0.00    929.57      0.00
                                0.00      0.00    953.41

     hartree stress (kbar)  14668.67     -0.02     -0.00
                               -0.02  13148.15      0.01
                               -0.00      0.01  15747.13

     exc-cor stress (kbar)  -4617.01     -0.00     -0.00
                               -0.00  -4619.75     -0.00
                               -0.00     -0.00  -4616.80

     corecor stress (kbar)   -691.74      0.00     -0.00
                                0.00   -691.68      0.00
                               -0.00      0.00   -691.64

     ewald   stress (kbar) -24520.79     -0.00     -0.00
                               -0.00 -27220.49      0.00
                               -0.00      0.00 -23305.98

     hubbard stress (kbar)      0.00      0.00      0.00
                                0.00      0.00      0.00
                                0.00      0.00      0.00

     DFT-D   stress (kbar)      0.00      0.00      0.00
                                0.00      0.00      0.00
                                0.00      0.00      0.00

     XDM     stress (kbar)      0.00      0.00      0.00
                                0.00      0.00      0.00
                                0.00      0.00      0.00

     dft-nl  stress (kbar)      0.00      0.00      0.00
                                0.00      0.00      0.00
                                0.00      0.00      0.00

     TS-vdW  stress (kbar)      0.00      0.00      0.00
                                0.00      0.00      0.00
                                0.00      0.00      0.00

[...]

                                0.00      0.00      0.00

     Writing all to output data dir new_calculations/myprefix.save/

     General routines

     Parallel routines

     PAW routines

   This run was terminated on:   5:22:21  20May2023

   JOB DONE.