     Program PWSCF v.7.0 starts on 21May2023 at  7:31:54

     Reading input from espresso_12912.pwi
Warning: card &CELL ignored
Warning: card / ignored

     Current dimensions of program PWSCF are:
     Max number of different atomic species (ntypx) = 10
     Max number of k-points (npk) =  40000
     Max angular momentum in pseudopotentials (lmaxx) =  4
     file Mg.pbe-n-kjpaw_psl.0.3.0.UPF: wavefunction(s)  3S renormalized

     gamma-point specific algorithms are used
     Message from routine setup:
     using ibrav=0 with symmetry is DISCOURAGED, use correct ibrav instead

     Subspace diagonalization in iterative solution of the eigenvalue problem:
     a serial algorithm will be used

     Using Slab Decomposition

     bravais-lattice index     =            0
     lattice parameter (alat)  =      11.0271  a.u.
     unit-cell volume          =     649.6332 (a.u.)^3
     number of atoms/cell      =            4
     number of atomic types    =            2
     number of electrons       =        62.00
     number of Kohn-Sham states=           37
     kinetic-energy cutoff     =      30.0000  Ry
     charge density cutoff     =     240.0000  Ry
     scf convergence threshold =      1.0E-06
     mixing beta               =       0.7000
     number of iterations used =            8  plain     mixing
     Exchange-correlation= PBE
                           (   1   4   3   4   0   0   0)

     celldm(1)=  11.027118  celldm(2)=   0.000000  celldm(3)=   0.000000
     celldm(4)=   0.000000  celldm(5)=   0.000000  celldm(6)=   0.000000

     crystal axes: (cart. coord. in units of alat)
               a(1) = (   1.000000   0.000000   0.000000 )
               a(2) = (   0.426289   0.904587   0.000000 )
               a(3) = (  -0.713144  -0.452294   0.535589 )

     reciprocal axes: (cart. coord. in units 2 pi/alat)
               b(1) = (  1.000000 -0.471252  0.933551 )
               b(2) = (  0.000000  1.105477  0.933551 )
               b(3) = (  0.000000  0.000000  1.867103 )

     PseudoPot. # 1 for Mg read from file:
     /home/pragov/projects/rrg-bengioy-ad/pragov/crystal_structure_design/SSSP/Mg.pbe-n-kjpaw_psl.0.3.0.UPF
     MD5 check sum: 24ecedc7f3e3cbe212e682f4413594e4
     Pseudo is Projector augmented-wave + core cor, Zval =  2.0
     Generated using "atomic" code by A. Dal Corso  v.5.0.99 svn rev. 10869
     Shape of augmentation charge: PSQ
     Using radial grid of 1129 points,  4 beta functions with:
                l(1) =   0
                l(2) =   0
                l(3) =   1
                l(4) =   1
     Q(r) pseudized with 0 coefficients

     PseudoPot. # 2 for Hg read from file:
     /home/pragov/projects/rrg-bengioy-ad/pragov/crystal_structure_design/SSSP/Hg_ONCV_PBE-1.0.oncvpsp.upf
     MD5 check sum: dd5a8773074bfcf4280086d4d95875c4
     Pseudo is Norm-conserving, Zval = 20.0
     Generated using ONCVPSP code by D. R. Hamann
     Using radial grid of 1262 points,  8 beta functions with:
                l(1) =   0
                l(2) =   0
                l(3) =   1
                l(4) =   1
                l(5) =   2
                l(6) =   2
                l(7) =   3
                l(8) =   3

     atomic species   valence    mass     pseudopotential
        Mg             2.00    24.30500     Mg( 1.00)
        Hg            20.00   200.59200     Hg( 1.00)

      4 Sym. Ops., with inversion, found

                                    s                        frac. trans.

      isym =  1     identity

 cryst.   s( 1) = (     1          0          0      )
                  (     0          1          0      )
                  (     0          0          1      )

 cart.    s( 1) = (  1.0000000  0.0000000  0.0000000 )
                  (  0.0000000  1.0000000 -0.0000000 )
                  (  0.0000000  0.0000000  1.0000000 )

      isym =  2     180 deg rotation - cart. axis [0,0,1]

[...]

      isym =  3     inversion

[...]

      isym =  4     inv. 180 deg rotation - cart. axis [0,0,1]

 cryst.   s( 4) = (     1          0          0      )
                  (     0          1          0      )
                  (    -1         -1         -1      )

 cart.    s( 4) = (  1.0000000  0.0000000 -0.0000000 )
                  (  0.0000000  1.0000000 -0.0000000 )
                  (  0.0000000  0.0000000 -1.0000000 )

   Cartesian axes

     site n.     atom                  positions (alat units)
         1           Mg  tau(   1) = (   0.0000000   0.0000000   0.0000000  )
         2           Hg  tau(   2) = (   0.7131443   0.4522936   0.0000000  )
         3           Hg  tau(   3) = (   0.5000000   0.0000000   0.2677946  )
         4           Hg  tau(   4) = (   0.2131443   0.4522936   0.2677946  )

   Crystallographic axes

     site n.     atom                  positions (cryst. coord.)
         1           Mg  tau(   1) = (  0.0000000  0.0000000  0.0000000  )
         2           Hg  tau(   2) = (  0.5000000  0.5000000  0.0000000  )
         3           Hg  tau(   3) = (  0.7500000  0.2500000  0.5000000  )
         4           Hg  tau(   4) = (  0.2500000  0.7500000  0.5000000  )

     number of k points=     1  Methfessel-Paxton smearing, width (Ry)=  0.0010
                       cart. coord. in units 2pi/alat
        k(    1) = (   0.0000000   0.0000000   0.0000000), wk =   2.0000000

                       cryst. coord.
        k(    1) = (   0.0000000   0.0000000   0.0000000), wk =   2.0000000

     Initial potential from superposition of free atoms

     starting charge      61.9989, renormalised to      62.0000
     Starting wfcs are   34 randomized atomic wfcs +    3 random wfcs
     Checking if some PAW data can be deallocated...

     Self-consistent Calculation

     iteration #  1     ecut=    30.00 Ry     beta= 0.70
     Davidson diagonalization with overlap

     ethr =  1.00E-02,  avg # of iterations = 10.0

     Threshold (ethr) on eigenvalues was too large:
     Diagonalizing with lowered threshold

     Davidson diagonalization with overlap

[...]

     total energy              =    -962.90051408 Ry
     estimated scf accuracy    <       0.17306493 Ry

[...]

     total energy              =    -962.95054688 Ry
     estimated scf accuracy    <       0.00000113 Ry

     iteration #  7     ecut=    30.00 Ry     beta= 0.70
     Davidson diagonalization with overlap

     ethr =  1.82E-09,  avg # of iterations =  7.0

     End of self-consistent calculation

          k = 0.0000 0.0000 0.0000 (   893 PWs)   bands (ev):

  -104.8594-103.1037-103.0416 -53.0243 -52.8533 -52.4767 -51.1859 -51.1366
   -51.1003 -51.0411 -50.9424 -50.8863   3.3669   4.2344   4.2469   4.4584
     4.6285   4.6634   5.1649   5.2318   5.6844   5.6873   5.6939   6.5011
     6.5661   6.5803   6.7207   7.1447  10.8389  10.8935  13.0998  14.1510
    14.1622  14.1905  14.5449  14.5628  15.6131

     occupation numbers
     1.0000   1.0000   1.0000   1.0000   1.0000   1.0000   1.0000   1.0000
     1.0000   1.0000   1.0000   1.0000   1.0000   1.0000   1.0000   1.0000
     1.0000   1.0000   1.0000   1.0000   1.0000   1.0000   1.0000   1.0000
     1.0000   1.0000   1.0000   1.0000   1.0000   1.0000   1.0000  -0.0000
    -0.0000  -0.0000  -0.0000  -0.0000  -0.0000

     the Fermi energy is    13.8626 ev

!    total energy              =    -962.95054751 Ry
     estimated scf accuracy    <       0.00000007 Ry
     smearing contrib. (-TS)   =       0.00000000 Ry
     internal energy E=F+TS    =    -962.95054751 Ry

     The total energy is F=E-TS. E is the sum of the following terms:
     one-electron contribution =    -564.17128203 Ry
     hartree contribution      =     288.36872489 Ry
     xc contribution           =     -83.92575106 Ry
     ewald contribution        =    -571.98533932 Ry
     one-center paw contrib.   =     -31.23689999 Ry
      -> PAW hartree energy AE =       0.26368346 Ry
      -> PAW hartree energy PS =      -0.26298431 Ry
      -> PAW xc energy AE      =     -32.23573428 Ry
      -> PAW xc energy PS      =       0.99813514 Ry
      -> total E_H with PAW    =     288.36942404 Ry
      -> total E_XC with PAW   =    -115.16335020 Ry

     convergence has been achieved in   7 iterations

     Forces acting on atoms (cartesian axes, Ry/au):

     atom    1 type  1   force =     0.00000000    0.00000000    0.00000000
     atom    2 type  2   force =     0.00000000    0.00000000    0.00000000
     atom    3 type  2   force =     0.00000000    0.00000000    0.00002556
     atom    4 type  2   force =     0.00000000    0.00000000   -0.00002556
     The non-local contrib.  to forces
     atom    1 type  1   force =     0.00000000    0.00000000   -0.00000000
     atom    2 type  2   force =     0.00000000    0.00000000   -0.00000000
     atom    3 type  2   force =     0.00000000    0.00000000   -0.00233909
     atom    4 type  2   force =     0.00000000    0.00000000    0.00233909
     The ionic contribution  to forces
     atom    1 type  1   force =    -0.00000000    0.00000000   -0.00000000
     atom    2 type  2   force =     0.00000000   -0.00000000   -0.00000000
     atom    3 type  2   force =    -0.00000000   -0.00000000    0.00000000
     atom    4 type  2   force =    -0.00000000    0.00000000    0.00000000
     The local contribution  to forces
     atom    1 type  1   force =     0.00002184    0.00000886    0.00000813
     atom    2 type  2   force =     0.00035175    0.00022480   -0.00021316
     atom    3 type  2   force =    -0.00087207    0.00018691    0.00247407
     atom    4 type  2   force =    -0.00038234   -0.00054193   -0.00257465
     The core correction contribution to forces
     atom    1 type  1   force =     0.00000030   -0.00000018    0.00000039
     atom    2 type  2   force =     0.00000000    0.00000000    0.00000000
     atom    3 type  2   force =     0.00000000    0.00000000    0.00000000
     atom    4 type  2   force =     0.00000000    0.00000000    0.00000000
     The Hubbard contrib.    to forces
     atom    1 type  1   force =     0.00000000    0.00000000    0.00000000
     atom    2 type  2   force =     0.00000000    0.00000000    0.00000000
     atom    3 type  2   force =     0.00000000    0.00000000    0.00000000
     atom    4 type  2   force =     0.00000000    0.00000000    0.00000000
     The SCF correction term to forces
     atom    1 type  1   force =    -0.00001672   -0.00000900   -0.00000329
     atom    2 type  2   force =    -0.00036454   -0.00023704    0.00022627
     atom    3 type  2   force =     0.00027607    0.00092716   -0.00011275
     atom    4 type  2   force =     0.00109301   -0.00051446    0.00020666

     Total force =     0.000036     Total SCF correction =     0.001641
     SCF correction compared to forces is large: reduce conv_thr to get better values

     Computing stress (Cartesian axis) and pressure

          total   stress  (Ry/bohr**3)                   (kbar)     P=     -657.09
  -0.00387841   0.00114104   0.00000000         -570.53      167.85        0.00
   0.00114104  -0.00446291   0.00000000          167.85     -656.52        0.00
   0.00000000   0.00000000  -0.00505917            0.00        0.00     -744.23

     kinetic stress (kbar)  42798.97    403.83     -0.00
                              403.83  42528.73     -0.00
                               -0.00     -0.00  42280.07

     local   stress (kbar) -18788.31   3856.00     -6.07
                             3856.00 -22337.54     -0.32
                               -6.07     -0.32 -24753.90

     nonloc. stress (kbar)   6226.90     28.90     -0.00
                               28.90   6103.12     -0.00
                               -0.00     -0.00   6068.30

     hartree stress (kbar)  20271.54  -1801.97      4.05
                            -1801.97  21943.18      1.82
                                4.05      1.82  23084.44

     exc-cor stress (kbar)  -5796.62      4.57      0.06
                                4.57  -5800.94      0.05
                                0.06      0.05  -5803.66

     corecor stress (kbar)   -158.93     -1.33     -0.02
                               -1.33   -157.62     -0.01
                               -0.02     -0.01   -156.79

     ewald   stress (kbar) -45124.09  -2322.15     -0.00
                            -2322.15 -42935.46     -0.00
                               -0.00     -0.00 -41462.69

     hubbard stress (kbar)      0.00      0.00      0.00
                                0.00      0.00      0.00
                                0.00      0.00      0.00

     DFT-D   stress (kbar)      0.00      0.00      0.00
                                0.00      0.00      0.00
                                0.00      0.00      0.00

     XDM     stress (kbar)      0.00      0.00      0.00
                                0.00      0.00      0.00
                                0.00      0.00      0.00

     dft-nl  stress (kbar)      0.00      0.00      0.00
                                0.00      0.00      0.00
                                0.00      0.00      0.00

     TS-vdW  stress (kbar)      0.00      0.00      0.00
                                0.00      0.00      0.00
                                0.00      0.00      0.00

[...]

                                0.00      0.00      0.00

     Writing all to output data dir new_calculations/myprefix.save/

     General routines

     Parallel routines

     PAW routines

   This run was terminated on:   7:32:40  21May2023

   JOB DONE.