     Program PWSCF v.7.0 starts on 20May2023 at  6:31:14

     Reading input from espresso_16115.pwi
Warning: card &CELL ignored
Warning: card / ignored

     Current dimensions of program PWSCF are:
     Max number of different atomic species (ntypx) = 10
     Max number of k-points (npk) =  40000
     Max angular momentum in pseudopotentials (lmaxx) =  4
     file C.pbe-n-kjpaw_psl.1.0.0.UPF: wavefunction(s)  2S 2P renormalized
     file O.pbe-n-kjpaw_psl.0.1.UPF: wavefunction(s)  2P renormalized

     gamma-point specific algorithms are used
     Message from routine setup:
     using ibrav=0 with symmetry is DISCOURAGED, use correct ibrav instead

     Subspace diagonalization in iterative solution of the eigenvalue problem:
     a serial algorithm will be used

     Using Slab Decomposition

     bravais-lattice index     =            0
     lattice parameter (alat)  =       8.9311  a.u.
     unit-cell volume          =    2247.9635 (a.u.)^3
     number of atoms/cell      =           20
     number of atomic types    =            4
     number of electrons       =       104.00
     number of Kohn-Sham states=           62
     kinetic-energy cutoff     =      30.0000  Ry
     charge density cutoff     =     240.0000  Ry
     scf convergence threshold =      1.0E-06
     mixing beta               =       0.7000
     number of iterations used =            8  plain     mixing
     Exchange-correlation= SLA  PW   PBX  PBC
                           (   1   4   3   4   0   0   0)

     celldm(1)=   8.931106  celldm(2)=   0.000000  celldm(3)=   0.000000
     celldm(4)=   0.000000  celldm(5)=   0.000000  celldm(6)=   0.000000

     crystal axes: (cart. coord. in units of alat)
               a(1) = (   1.000000   0.000000   0.000000 )
               a(2) = (   0.000000   1.588720   0.000000 )
               a(3) = (   0.000000   0.000000   1.986214 )

     reciprocal axes: (cart. coord. in units 2 pi/alat)
               b(1) = (  1.000000  0.000000  0.000000 )
               b(2) = (  0.000000  0.629437  0.000000 )
               b(3) = (  0.000000  0.000000  0.503471 )

     PseudoPot. # 1 for Rb read from file:
     /home/pragov/projects/rrg-bengioy-ad/pragov/crystal_structure_design/SSSP/Rb_ONCV_PBE-1.0.oncvpsp.upf
     MD5 check sum: 55a5172d6bfbce6759a58e35d43f6aa9
     Pseudo is Norm-conserving, Zval =  9.0
     Generated using ONCVPSP code by D. R. Hamann
     Using radial grid of 2308 points,  6 beta functions with:
                l(1) =   0
                l(2) =   0
                l(3) =   1
                l(4) =   1
                l(5) =   2
                l(6) =   2

     PseudoPot. # 2 for H  read from file:
     /home/pragov/projects/rrg-bengioy-ad/pragov/crystal_structure_design/SSSP/H.pbe-rrkjus_psl.1.0.0.UPF
     MD5 check sum: f52b6d4d1c606e5624b1dc7b2218f220
     Pseudo is Ultrasoft, Zval =  1.0
     Generated using "atomic" code by A. Dal Corso  v.5.1
     Using radial grid of  929 points,  2 beta functions with:
                l(1) =   0
                l(2) =   0
     Q(r) pseudized with 0 coefficients

     PseudoPot. # 3 for C  read from file:
     /home/pragov/projects/rrg-bengioy-ad/pragov/crystal_structure_design/SSSP/C.pbe-n-kjpaw_psl.1.0.0.UPF
     MD5 check sum: 5d2aebdfa2cae82b50a7e79e9516da0f
     Pseudo is Projector augmented-wave + core cor, Zval =  4.0
     Generated using "atomic" code by A. Dal Corso  v.5.1
     Shape of augmentation charge: PSQ
     Using radial grid of 1073 points,  4 beta functions with:
                l(1) =   0
                l(2) =   0
                l(3) =   1
                l(4) =   1
     Q(r) pseudized with 0 coefficients

     PseudoPot. # 4 for O  read from file:
     /home/pragov/projects/rrg-bengioy-ad/pragov/crystal_structure_design/SSSP/O.pbe-n-kjpaw_psl.0.1.UPF
     MD5 check sum: 0234752ac141de4415c5fc33072bef88
     Pseudo is Projector augmented-wave + core cor, Zval =  6.0
     Generated using "atomic" code by A. Dal Corso  v.5.0.99 svn rev. 10869
     Shape of augmentation charge: BESSEL
     Using radial grid of 1095 points,  4 beta functions with:
                l(1) =   0
                l(2) =   0
                l(3) =   1
                l(4) =   1
     Q(r) pseudized with 0 coefficients

     atomic species   valence    mass     pseudopotential
        Rb             9.00    85.46780     Rb( 1.00)
        H              1.00     1.00800     H ( 1.00)
        C              4.00    12.01100     C ( 1.00)
        O              6.00    15.99900     O ( 1.00)

      8 Sym. Ops., with inversion, found ( 6 have fractional translation)

                                    s                        frac. trans.

      isym =  1     identity

 cryst.   s( 1) = (     1          0          0      )
                  (     0          1          0      )
                  (     0          0          1      )

 cart.    s( 1) = (  1.0000000  0.0000000  0.0000000 )
                  (  0.0000000  1.0000000  0.0000000 )
                  (  0.0000000  0.0000000  1.0000000 )

      isym =  2     180 deg rotation - cart. axis [0,0,1]

 cryst.   s( 2) = (    -1          0          0      )    f =( -0.0000000 )
                  (     0         -1          0      )       (  0.5000000 )
                  (     0          0          1      )       ( -0.5000000 )

 cart.    s( 2) = ( -1.0000000  0.0000000  0.0000000 )    f =( -0.0000000 )
                  (  0.0000000 -1.0000000  0.0000000 )       (  0.7943602 )
                  (  0.0000000  0.0000000  1.0000000 )       ( -0.9931068 )

[...]

      isym =  4     180 deg rotation - cart. axis [1,0,0]

[...]

      isym =  5     inversion

 cryst.   s( 5) = (    -1          0          0      )
                  (     0         -1          0      )
                  (     0          0         -1      )

 cart.    s( 5) = ( -1.0000000  0.0000000  0.0000000 )
                  (  0.0000000 -1.0000000  0.0000000 )
                  (  0.0000000  0.0000000 -1.0000000 )

      isym =  6     inv. 180 deg rotation - cart. axis [0,0,1]

[...]

      isym =  8     inv. 180 deg rotation - cart. axis [1,0,0]

 cryst.   s( 8) = (    -1          0          0      )    f =( -0.0000000 )
                  (     0          1          0      )       (  0.0000000 )
                  (     0          0          1      )       ( -0.5000000 )

 cart.    s( 8) = ( -1.0000000  0.0000000  0.0000000 )    f =( -0.0000000 )
                  (  0.0000000  1.0000000  0.0000000 )       (  0.0000000 )
                  (  0.0000000  0.0000000  1.0000000 )       ( -0.9931068 )

   Cartesian axes

     site n.     atom                  positions (alat units)
         1           Rb  tau(   1) = (   0.9386800   0.7943602   0.4965534  )
         2           Rb  tau(   2) = (   0.0613200   0.0000000   1.4896603  )
         3           Rb  tau(   3) = (   0.0613200   0.7943602   1.4896603  )
         4           Rb  tau(   4) = (   0.9386800   0.0000000   0.4965534  )
         5           H   tau(   5) = (   0.4379840   1.1915403   0.0555484  )
         6           H   tau(   6) = (   0.4379840   0.3971801   0.9375584  )
         7           H   tau(   7) = (   0.5620160   1.1915403   1.0486553  )
         8           H   tau(   8) = (   0.5620160   0.3971801   1.9306653  )
         9           C   tau(   9) = (   0.3833370   0.3971801   0.0995192  )
        10           C   tau(  10) = (   0.3833370   1.1915403   0.8935876  )
        11           C   tau(  11) = (   0.6166630   1.1915403   1.8866945  )
        12           C   tau(  12) = (   0.6166630   0.3971801   1.0926261  )
        13           O   tau(  13) = (   0.1338080   0.3971801   1.9850239  )
        14           O   tau(  14) = (   0.1338080   1.1915403   0.9942966  )
        15           O   tau(  15) = (   0.8661920   0.3971801   0.9919171  )
        16           O   tau(  16) = (   0.8661920   1.1915403   0.0011897  )
        17           O   tau(  17) = (   0.4485470   0.3971801   0.3606050  )
        18           O   tau(  18) = (   0.4485470   1.1915403   0.6325018  )
        19           O   tau(  19) = (   0.5514530   1.1915403   1.6256087  )
        20           O   tau(  20) = (   0.5514530   0.3971801   1.3537119  )

   Crystallographic axes

     site n.     atom                  positions (cryst. coord.)
         1           Rb  tau(   1) = (  0.9386800  0.5000000  0.2500000  )
         2           Rb  tau(   2) = (  0.0613200  0.0000000  0.7500000  )
         3           Rb  tau(   3) = (  0.0613200  0.5000000  0.7500000  )
         4           Rb  tau(   4) = (  0.9386800  0.0000000  0.2500000  )
         5           H   tau(   5) = (  0.4379840  0.7500000  0.0279670  )
         6           H   tau(   6) = (  0.4379840  0.2500000  0.4720330  )
         7           H   tau(   7) = (  0.5620160  0.7500000  0.5279670  )
         8           H   tau(   8) = (  0.5620160  0.2500000  0.9720330  )
         9           C   tau(   9) = (  0.3833370  0.2500000  0.0501050  )
        10           C   tau(  10) = (  0.3833370  0.7500000  0.4498950  )
        11           C   tau(  11) = (  0.6166630  0.7500000  0.9498950  )
        12           C   tau(  12) = (  0.6166630  0.2500000  0.5501050  )
        13           O   tau(  13) = (  0.1338080  0.2500000  0.9994010  )
        14           O   tau(  14) = (  0.1338080  0.7500000  0.5005990  )
        15           O   tau(  15) = (  0.8661920  0.2500000  0.4994010  )
        16           O   tau(  16) = (  0.8661920  0.7500000  0.0005990  )
        17           O   tau(  17) = (  0.4485470  0.2500000  0.1815540  )
        18           O   tau(  18) = (  0.4485470  0.7500000  0.3184460  )
        19           O   tau(  19) = (  0.5514530  0.7500000  0.8184460  )
        20           O   tau(  20) = (  0.5514530  0.2500000  0.6815540  )

     number of k points=     1  Methfessel-Paxton smearing, width (Ry)=  0.0010
                       cart. coord. in units 2pi/alat
        k(    1) = (   0.0000000   0.0000000   0.0000000), wk =   2.0000000

                       cryst. coord.
        k(    1) = (   0.0000000   0.0000000   0.0000000), wk =   2.0000000

     Check: negative core charge=   -0.000015

     Initial potential from superposition of free atoms

     starting charge     103.9007, renormalised to     104.0000
     Starting wfcs are   72 randomized atomic wfcs
     Checking if some PAW data can be deallocated...

     Self-consistent Calculation

     iteration #  1     ecut=    30.00 Ry     beta= 0.70
     Davidson diagonalization with overlap

     ethr =  1.00E-02,  avg # of iterations =  5.0

     total energy              =    -606.94440123 Ry
     estimated scf accuracy    <       2.22374886 Ry

[...]

     total energy              =    -607.80535559 Ry
     estimated scf accuracy    <       0.00000203 Ry

     iteration #  9     ecut=    30.00 Ry     beta= 0.70
     Davidson diagonalization with overlap

     ethr =  1.95E-09,  avg # of iterations =  2.0

     End of self-consistent calculation

          k = 0.0000 0.0000 0.0000 (  3121 PWs)   bands (ev):

   -22.9648 -22.9551 -22.9002 -22.8964 -18.9642 -18.9589 -18.9544 -18.9416
   -16.7480 -16.7399 -16.7253 -16.7180  -7.4723  -7.4655  -7.1607  -7.1397
    -7.1230  -7.0932  -7.0906  -6.9677  -6.9580  -6.9459  -6.7703  -6.7382
    -6.5140  -6.4801  -6.3251  -6.1819  -4.1941  -4.0578  -3.9539  -3.9100
    -3.2115  -3.1466  -3.0846  -3.0566  -3.0034  -2.7174  -2.7171  -2.5813
     0.3245   0.3713   0.5771   0.6177   0.7645   0.8047   0.8838   0.9939
     1.1440   1.1646   1.2247   1.3953   6.3580   6.5913   6.8069   7.0921
     7.2085   7.6987   8.4823   8.5931   8.8241   9.1093

     occupation numbers
     1.0000   1.0000   1.0000   1.0000   1.0000   1.0000   1.0000   1.0000
     1.0000   1.0000   1.0000   1.0000   1.0000   1.0000   1.0000   1.0000
     1.0000   1.0000   1.0000   1.0000   1.0000   1.0000   1.0000   1.0000
     1.0000   1.0000   1.0000   1.0000   1.0000   1.0000   1.0000   1.0000
     1.0000   1.0000   1.0000   1.0000   1.0000   1.0000   1.0000   1.0000
     1.0000   1.0000   1.0000   1.0000   1.0000   1.0000   1.0000   1.0000
     1.0000   1.0000   1.0000   1.0000  -0.0000  -0.0000  -0.0000  -0.0000
    -0.0000  -0.0000  -0.0000  -0.0000  -0.0000  -0.0000

     the Fermi energy is     5.2021 ev

!    total energy              =    -607.80535591 Ry
     estimated scf accuracy    <       0.00000026 Ry
     smearing contrib. (-TS)   =       0.00000000 Ry
     internal energy E=F+TS    =    -607.80535591 Ry

     The total energy is F=E-TS. E is the sum of the following terms:
     one-electron contribution =    -258.04315960 Ry
     hartree contribution      =     170.00919928 Ry
     xc contribution           =    -110.69009920 Ry
     ewald contribution        =    -308.21231748 Ry
     one-center paw contrib.   =    -100.86897890 Ry
      -> PAW hartree energy AE =     281.63577382 Ry
      -> PAW hartree energy PS =    -280.76252706 Ry
      -> PAW xc energy AE      =    -180.93615553 Ry
      -> PAW xc energy PS      =      79.19392987 Ry
      -> total E_H with PAW    =     170.88244604 Ry
      -> total E_XC with PAW   =    -212.43232486 Ry

     convergence has been achieved in   9 iterations

     Forces acting on atoms (cartesian axes, Ry/au):

     atom    1 type  1   force =    -0.00103532    0.00000000    0.00000000
     atom    2 type  1   force =     0.00103532    0.00000000    0.00000000
     atom    3 type  1   force =     0.00103532    0.00000000    0.00000000
     atom    4 type  1   force =    -0.00103532    0.00000000    0.00000000
     atom    5 type  2   force =    -0.01884321   -0.00000000    0.00705270
     atom    6 type  2   force =    -0.01884321    0.00000000   -0.00705270
     atom    7 type  2   force =     0.01884321    0.00000000    0.00705270
     atom    8 type  2   force =     0.01884321    0.00000000   -0.00705270
     atom    9 type  3   force =     0.00399033    0.00000000    0.04152633
     atom   10 type  3   force =     0.00399033    0.00000000   -0.04152633
     atom   11 type  3   force =    -0.00399033    0.00000000   -0.04152633
     atom   12 type  3   force =    -0.00399033   -0.00000000    0.04152633
     atom   13 type  4   force =    -0.01280831    0.00000000   -0.02557067
     atom   14 type  4   force =    -0.01280831   -0.00000000    0.02557067
     atom   15 type  4   force =     0.01280831   -0.00000000   -0.02557067
     atom   16 type  4   force =     0.01280831   -0.00000000    0.02557067
     atom   17 type  4   force =    -0.00840186    0.00000000   -0.00615910
     atom   18 type  4   force =    -0.00840186    0.00000000    0.00615910
     atom   19 type  4   force =     0.00840186   -0.00000000    0.00615910
     atom   20 type  4   force =     0.00840186   -0.00000000   -0.00615910
     The non-local contrib.  to forces
     atom    1 type  1   force =     0.00669568    0.00000000    0.00000000
     atom    2 type  1   force =    -0.00669568   -0.00000000    0.00000000
     atom    3 type  1   force =    -0.00669568    0.00000000    0.00000000
     atom    4 type  1   force =     0.00669568    0.00000000    0.00000000
     atom    5 type  2   force =     0.05486970    0.00000000   -0.04795748
     atom    6 type  2   force =     0.05486970    0.00000000    0.04795748
     atom    7 type  2   force =    -0.05486970    0.00000000   -0.04795748
     atom    8 type  2   force =    -0.05486970   -0.00000000    0.04795748
     atom    9 type  3   force =    -0.17373796    0.00000000    0.21040872
     atom   10 type  3   force =    -0.17373796    0.00000000   -0.21040872
     atom   11 type  3   force =     0.17373796    0.00000000   -0.21040872
     atom   12 type  3   force =     0.17373796   -0.00000000    0.21040872
     atom   13 type  4   force =     1.80638086    0.00000000    0.92957847
     atom   14 type  4   force =     1.80638086    0.00000000   -0.92957847
     atom   15 type  4   force =    -1.80638086    0.00000000    0.92957847
     atom   16 type  4   force =    -1.80638086   -0.00000000   -0.92957847
     atom   17 type  4   force =    -0.58353762    0.00000000   -1.97938176
     atom   18 type  4   force =    -0.58353762   -0.00000000    1.97938176
     atom   19 type  4   force =     0.58353762    0.00000000    1.97938176
     atom   20 type  4   force =     0.58353762    0.00000000   -1.97938176
     The ionic contribution  to forces
     atom    1 type  1   force =    -0.15783411   -0.00000000    0.00000000
     atom    2 type  1   force =     0.15783411   -0.00000000    0.00000000
     atom    3 type  1   force =     0.15783411   -0.00000000    0.00000000
     atom    4 type  1   force =    -0.15783411   -0.00000000    0.00000000
     atom    5 type  2   force =    -1.69906183    0.00000000    1.47967941
     atom    6 type  2   force =    -1.69906183   -0.00000000   -1.47967941
     atom    7 type  2   force =     1.69906183    0.00000000    1.47967941
     atom    8 type  2   force =     1.69906183    0.00000000   -1.47967941
     atom    9 type  3   force =     4.10604851   -0.00000000   -3.57272011
     atom   10 type  3   force =     4.10604851    0.00000000    3.57272011
     atom   11 type  3   force =    -4.10604851    0.00000000    3.57272011
     atom   12 type  3   force =    -4.10604851   -0.00000000   -3.57272011
     atom   13 type  4   force =    -7.74715626   -0.00000000   -4.07377707
     atom   14 type  4   force =    -7.74715626    0.00000000    4.07377707
     atom   15 type  4   force =     7.74715626    0.00000000   -4.07377707
     atom   16 type  4   force =     7.74715626    0.00000000    4.07377707
     atom   17 type  4   force =     2.79343849   -0.00000000    8.21401106
     atom   18 type  4   force =     2.79343849    0.00000000   -8.21401106
     atom   19 type  4   force =    -2.79343849   -0.00000000   -8.21401106
     atom   20 type  4   force =    -2.79343849   -0.00000000    8.21401106
     The local contribution  to forces
     atom    1 type  1   force =     0.15010340   -0.00000635    0.00001007
     atom    2 type  1   force =    -0.15004052   -0.00000747   -0.00000685
     atom    3 type  1   force =    -0.15004075    0.00000107   -0.00000715
     atom    4 type  1   force =     0.15009408    0.00000611    0.00001102
     atom    5 type  2   force =     1.62535634   -0.00000027   -1.42471241
     atom    6 type  2   force =     1.62535496   -0.00000026    1.42471015
     atom    7 type  2   force =    -1.62536984    0.00000036   -1.42464209
     atom    8 type  2   force =    -1.62537195    0.00000028    1.42464585
     atom    9 type  3   force =    -3.92813995    0.00000202    3.40363841
     atom   10 type  3   force =    -3.92815055    0.00000270   -3.40361772
     atom   11 type  3   force =     3.92793628   -0.00000249   -3.40400891
     atom   12 type  3   force =     3.92793967   -0.00000219    3.40400554
     atom   13 type  4   force =     5.94320174    0.00000315    3.12737903
     atom   14 type  4   force =     5.94317349    0.00000394   -3.12735869
     atom   15 type  4   force =    -5.94333730   -0.00000312    3.12767623
     atom   16 type  4   force =    -5.94335312   -0.00000470   -3.12767830
     atom   17 type  4   force =    -2.22369859    0.00000070   -6.25808667
     atom   18 type  4   force =    -2.22369307    0.00000253    6.25809782
     atom   19 type  4   force =     2.22362914   -0.00000105    6.25770024
     atom   20 type  4   force =     2.22363129   -0.00000075   -6.25770768
     The core correction contribution to forces
     atom    1 type  1   force =     0.00000000    0.00000000    0.00000000
     atom    2 type  1   force =     0.00000000    0.00000000    0.00000000
     atom    3 type  1   force =     0.00000000    0.00000000    0.00000000
     atom    4 type  1   force =     0.00000000    0.00000000    0.00000000
     atom    5 type  2   force =     0.00000000    0.00000000    0.00000000
     atom    6 type  2   force =     0.00000000    0.00000000    0.00000000
     atom    7 type  2   force =     0.00000000    0.00000000    0.00000000
     atom    8 type  2   force =     0.00000000    0.00000000    0.00000000
     atom    9 type  3   force =    -0.00022694    0.00000002   -0.00005409
     atom   10 type  3   force =    -0.00022688    0.00000002    0.00005415
     atom   11 type  3   force =     0.00022801   -0.00000002    0.00005596
     atom   12 type  3   force =     0.00022785   -0.00000003   -0.00005584
     atom   13 type  4   force =    -0.01512827    0.00000001   -0.00887973
     atom   14 type  4   force =    -0.01512824    0.00000001    0.00887969
     atom   15 type  4   force =     0.01512770   -0.00000002   -0.00888109
     atom   16 type  4   force =     0.01512775   -0.00000002    0.00888117
     atom   17 type  4   force =     0.00538328   -0.00000001    0.01698936
     atom   18 type  4   force =     0.00538328    0.00000000   -0.01698932
     atom   19 type  4   force =    -0.00538290   -0.00000000   -0.01698916
     atom   20 type  4   force =    -0.00538286    0.00000000    0.01698915
     The Hubbard contrib.    to forces
     atom    1 type  1   force =     0.00000000    0.00000000    0.00000000
     atom    2 type  1   force =     0.00000000    0.00000000    0.00000000
     atom    3 type  1   force =     0.00000000    0.00000000    0.00000000
     atom    4 type  1   force =     0.00000000    0.00000000    0.00000000
     atom    5 type  2   force =     0.00000000    0.00000000    0.00000000
     atom    6 type  2   force =     0.00000000    0.00000000    0.00000000
     atom    7 type  2   force =     0.00000000    0.00000000    0.00000000
     atom    8 type  2   force =     0.00000000    0.00000000    0.00000000
     atom    9 type  3   force =     0.00000000    0.00000000    0.00000000
     atom   10 type  3   force =     0.00000000    0.00000000    0.00000000
     atom   11 type  3   force =     0.00000000    0.00000000    0.00000000
     atom   12 type  3   force =     0.00000000    0.00000000    0.00000000
     atom   13 type  4   force =     0.00000000    0.00000000    0.00000000
     atom   14 type  4   force =     0.00000000    0.00000000    0.00000000
     atom   15 type  4   force =     0.00000000    0.00000000    0.00000000
     atom   16 type  4   force =     0.00000000    0.00000000    0.00000000
     atom   17 type  4   force =     0.00000000    0.00000000    0.00000000
     atom   18 type  4   force =     0.00000000    0.00000000    0.00000000
     atom   19 type  4   force =     0.00000000    0.00000000    0.00000000
     atom   20 type  4   force =     0.00000000    0.00000000    0.00000000
     The SCF correction term to forces
     atom    1 type  1   force =    -0.00000159    0.00000813   -0.00001372
     atom    2 type  1   force =    -0.00006528    0.00000882    0.00001213
     atom    3 type  1   force =    -0.00006371   -0.00000163    0.00000987
     atom    4 type  1   force =     0.00000633   -0.00000780   -0.00001591
     atom    5 type  2   force =    -0.00000844    0.00000030    0.00004402
     atom    6 type  2   force =    -0.00000748    0.00000027   -0.00004218
     atom    7 type  2   force =     0.00001997   -0.00000028   -0.00002762
     atom    8 type  2   force =     0.00002151   -0.00000025    0.00002501
     atom    9 type  3   force =     0.00008359   -0.00000135    0.00033457
     atom   10 type  3   force =     0.00009838   -0.00000192   -0.00036043
     atom   11 type  3   force =     0.00019749    0.00000164    0.00020278
     atom   12 type  3   force =     0.00018920    0.00000126   -0.00019189
     atom   13 type  4   force =    -0.00014116   -0.00000304    0.00018111
     atom   14 type  4   force =    -0.00011139   -0.00000413   -0.00020244
     atom   15 type  4   force =     0.00020836    0.00000337   -0.00021866
     atom   16 type  4   force =     0.00022443    0.00000490    0.00022371
     atom   17 type  4   force =     0.00001974   -0.00000091    0.00031152
     atom   18 type  4   force =     0.00001434   -0.00000266   -0.00032227
     atom   19 type  4   force =     0.00006329    0.00000152    0.00008084
     atom   20 type  4   force =     0.00006194    0.00000109   -0.00007110

     Total force =     0.110863     Total SCF correction =     0.000972

     Computing stress (Cartesian axis) and pressure

          total   stress  (Ry/bohr**3)                   (kbar)     P=     -183.48
  -0.00132655   0.00000000   0.00000000         -195.14        0.00        0.00
   0.00000000  -0.00127624   0.00000000            0.00     -187.74        0.00
   0.00000000   0.00000000  -0.00113905            0.00        0.00     -167.56

     kinetic stress (kbar)   9795.66      0.00      0.00
                                0.00  10014.35      0.00
                                0.00      0.00   9760.96

     local   stress (kbar)  -8536.89     -0.00     -0.00
                               -0.00    -62.47     -0.00
                               -0.00     -0.00  -9618.11

     nonloc. stress (kbar)   1250.37      0.00      0.00
                                0.00   1249.66      0.00
                                0.00      0.00   1251.59

     hartree stress (kbar)   4528.83      0.00      0.00
                                0.00   1744.07      0.00
                                0.00      0.00   4852.38

     exc-cor stress (kbar)  -1682.52     -0.00      0.00
                               -0.00  -1711.46      0.00
                                0.00      0.00  -1681.16

     corecor stress (kbar)   -514.36     -0.00     -0.00
                               -0.00   -506.80      0.00
                               -0.00      0.00   -515.35

     ewald   stress (kbar)  -5036.22      0.00      0.00
                                0.00 -10915.09     -0.00
                                0.00     -0.00  -4217.87

     hubbard stress (kbar)      0.00      0.00      0.00
                                0.00      0.00      0.00
                                0.00      0.00      0.00

     DFT-D   stress (kbar)      0.00      0.00      0.00
                                0.00      0.00      0.00
                                0.00      0.00      0.00

     XDM     stress (kbar)      0.00      0.00      0.00
                                0.00      0.00      0.00
                                0.00      0.00      0.00

     dft-nl  stress (kbar)      0.00      0.00      0.00
                                0.00      0.00      0.00
                                0.00      0.00      0.00

     TS-vdW  stress (kbar)      0.00      0.00      0.00
                                0.00      0.00      0.00
                                0.00      0.00      0.00

[...]

                                0.00      0.00      0.00

     Writing all to output data dir new_calculations/myprefix.save/

     General routines

     Parallel routines

     PAW routines

   This run was terminated on:   6:31:27  20May2023

   JOB DONE.