     Program PWSCF v.7.0 starts on 20May2023 at 19:56:55

     Reading input from espresso_20186.pwi
Warning: card &CELL ignored
Warning: card / ignored

     Current dimensions of program PWSCF are:
     Max number of different atomic species (ntypx) = 10
     Max number of k-points (npk) =  40000
     Max angular momentum in pseudopotentials (lmaxx) =  4
     file O.pbe-n-kjpaw_psl.0.1.UPF: wavefunction(s)  2P renormalized

     gamma-point specific algorithms are used
     Message from routine setup:
     using ibrav=0 with symmetry is DISCOURAGED, use correct ibrav instead

     Subspace diagonalization in iterative solution of the eigenvalue problem:
     a serial algorithm will be used

     Using Slab Decomposition

     bravais-lattice index     =            0
     lattice parameter (alat)  =       5.6353  a.u.
     unit-cell volume          =     955.6109 (a.u.)^3
     number of atoms/cell      =           12
     number of atomic types    =            2
     number of electrons       =        96.00
     number of Kohn-Sham states=           58
     kinetic-energy cutoff     =      30.0000  Ry
     charge density cutoff     =     240.0000  Ry
     scf convergence threshold =      1.0E-06
     mixing beta               =       0.7000
     number of iterations used =            8  plain     mixing
     Exchange-correlation= SLA  PW   PBX  PBC
                           (   1   4   3   4   0   0   0)

     celldm(1)=   5.635282  celldm(2)=   0.000000  celldm(3)=   0.000000
     celldm(4)=   0.000000  celldm(5)=   0.000000  celldm(6)=   0.000000

     crystal axes: (cart. coord. in units of alat)
               a(1) = (   1.000000   0.000000   0.000000 )
               a(2) = (   0.000000   1.666301   0.000000 )
               a(3) = (   0.000000   0.000000   3.204649 )

     reciprocal axes: (cart. coord. in units 2 pi/alat)
               b(1) = (  1.000000  0.000000  0.000000 )
               b(2) = (  0.000000  0.600131  0.000000 )
               b(3) = (  0.000000  0.000000  0.312047 )

     PseudoPot. # 1 for Ti read from file:
     /home/pragov/projects/rrg-bengioy-ad/pragov/crystal_structure_design/SSSP/ti_pbe_v1.4.uspp.F.UPF
     MD5 check sum: 88a00a6731bd790ddea75d31a80cb452
     Pseudo is Ultrasoft + core correction, Zval = 12.0
     Generated by new atomic code, or converted to UPF format
     Using radial grid of  851 points,  6 beta functions with:
                l(1) =   0
                l(2) =   0
                l(3) =   1
                l(4) =   1
                l(5) =   2
                l(6) =   2
     Q(r) pseudized with  6 coefficients,  rinner =    1.000   1.000   1.000
                                                       1.000   1.000

     PseudoPot. # 2 for O  read from file:
     /home/pragov/projects/rrg-bengioy-ad/pragov/crystal_structure_design/SSSP/O.pbe-n-kjpaw_psl.0.1.UPF
     MD5 check sum: 0234752ac141de4415c5fc33072bef88
     Pseudo is Projector augmented-wave + core cor, Zval =  6.0
     Generated using "atomic" code by A. Dal Corso  v.5.0.99 svn rev. 10869
     Shape of augmentation charge: BESSEL
     Using radial grid of 1095 points,  4 beta functions with:
                l(1) =   0
                l(2) =   0
                l(3) =   1
                l(4) =   1
     Q(r) pseudized with 0 coefficients

     atomic species   valence    mass     pseudopotential
        Ti            12.00    47.86700     Ti( 1.00)
        O              6.00    15.99900     O ( 1.00)

      8 Sym. Ops., with inversion, found ( 6 have fractional translation)

                                    s                        frac. trans.

      isym =  1     identity

 cryst.   s( 1) = (     1          0          0      )
                  (     0          1          0      )
                  (     0          0          1      )

 cart.    s( 1) = (  1.0000000  0.0000000  0.0000000 )
                  (  0.0000000  1.0000000  0.0000000 )
                  (  0.0000000  0.0000000  1.0000000 )

      isym =  2     180 deg rotation - cart. axis [0,0,1]

 cryst.   s( 2) = (    -1          0          0      )    f =(  0.5000000 )
                  (     0         -1          0      )       (  0.5000000 )
                  (     0          0          1      )       (  0.5000000 )

 cart.    s( 2) = ( -1.0000000  0.0000000  0.0000000 )    f =(  0.5000000 )
                  (  0.0000000 -1.0000000  0.0000000 )       (  0.8331507 )
                  (  0.0000000  0.0000000  1.0000000 )       (  1.6023245 )

[...]

      isym =  4     180 deg rotation - cart. axis [1,0,0]

[...]

      isym =  5     inversion

 cryst.   s( 5) = (    -1          0          0      )
                  (     0         -1          0      )
                  (     0          0         -1      )

 cart.    s( 5) = ( -1.0000000  0.0000000  0.0000000 )
                  (  0.0000000 -1.0000000  0.0000000 )
                  (  0.0000000  0.0000000 -1.0000000 )

      isym =  6     inv. 180 deg rotation - cart. axis [0,0,1]

[...]

      isym =  8     inv. 180 deg rotation - cart. axis [1,0,0]

 cryst.   s( 8) = (    -1          0          0      )    f =(  0.5000000 )
                  (     0          1          0      )       (  0.0000000 )
                  (     0          0          1      )       (  0.0000000 )

 cart.    s( 8) = ( -1.0000000  0.0000000  0.0000000 )    f =(  0.5000000 )
                  (  0.0000000  1.0000000  0.0000000 )       (  0.0000000 )
                  (  0.0000000  0.0000000  1.0000000 )       (  0.0000000 )

   Cartesian axes

     site n.     atom                  positions (alat units)
         1           Ti  tau(   1) = (   0.2500000   0.9608894   2.0439603  )
         2           Ti  tau(   2) = (   0.7500000   0.7054121   1.1606886  )
         3           Ti  tau(   3) = (   0.7500000   0.1277387   2.7630131  )
         4           Ti  tau(   4) = (   0.2500000   1.5385628   0.4416359  )
         5           O   tau(   5) = (   0.2500000   0.4946949   1.5028586  )
         6           O   tau(   6) = (   0.7500000   1.1716066   1.7017904  )
         7           O   tau(   7) = (   0.7500000   1.3278457   0.0994659  )
         8           O   tau(   8) = (   0.2500000   0.3384558   3.1051830  )
         9           O   tau(   9) = (   0.2500000   1.0639335   0.8579935  )
        10           O   tau(  10) = (   0.7500000   0.6023680   2.3466555  )
        11           O   tau(  11) = (   0.7500000   0.2307828   0.7443310  )
        12           O   tau(  12) = (   0.2500000   1.4355187   2.4603179  )

   Crystallographic axes

     site n.     atom                  positions (cryst. coord.)
         1           Ti  tau(   1) = (  0.2500000  0.5766600  0.6378110  )
         2           Ti  tau(   2) = (  0.7500000  0.4233400  0.3621890  )
         3           Ti  tau(   3) = (  0.7500000  0.0766600  0.8621890  )
         4           Ti  tau(   4) = (  0.2500000  0.9233400  0.1378110  )
         5           O   tau(   5) = (  0.2500000  0.2968820  0.4689620  )
         6           O   tau(   6) = (  0.7500000  0.7031180  0.5310380  )
         7           O   tau(   7) = (  0.7500000  0.7968820  0.0310380  )
         8           O   tau(   8) = (  0.2500000  0.2031180  0.9689620  )
         9           O   tau(   9) = (  0.2500000  0.6385000  0.2677340  )
        10           O   tau(  10) = (  0.7500000  0.3615000  0.7322660  )
        11           O   tau(  11) = (  0.7500000  0.1385000  0.2322660  )
        12           O   tau(  12) = (  0.2500000  0.8615000  0.7677340  )

     number of k points=     1  Methfessel-Paxton smearing, width (Ry)=  0.0010
                       cart. coord. in units 2pi/alat
        k(    1) = (   0.0000000   0.0000000   0.0000000), wk =   2.0000000

                       cryst. coord.
        k(    1) = (   0.0000000   0.0000000   0.0000000), wk =   2.0000000

     Check: negative core charge=   -0.000018

     Initial potential from superposition of free atoms

     starting charge      91.9998, renormalised to      96.0000

     negative rho (up, down):  2.617E-03 0.000E+00
     Starting wfcs are   72 randomized atomic wfcs
     Checking if some PAW data can be deallocated...

     Self-consistent Calculation

     iteration #  1     ecut=    30.00 Ry     beta= 0.70
     Davidson diagonalization with overlap

     ethr =  1.00E-02,  avg # of iterations =  2.0

     negative rho (up, down):  5.607E-03 0.000E+00

     total energy              =    -809.78946885 Ry
     estimated scf accuracy    <       2.32168915 Ry

[...]

     total energy              =    -811.07966392 Ry
     estimated scf accuracy    <       0.00000105 Ry

     iteration # 14     ecut=    30.00 Ry     beta= 0.70
     Davidson diagonalization with overlap

     ethr =  1.09E-09,  avg # of iterations =  3.0

[...]

     End of self-consistent calculation

          k = 0.0000 0.0000 0.0000 (  1322 PWs)   bands (ev):

   -49.3259 -49.3185 -49.3041 -49.2970 -25.8418 -25.8111 -25.7217 -25.6568
   -25.6264 -25.5900 -25.5675 -25.5481 -25.2845 -25.2687 -25.2491 -25.2332
   -10.6780 -10.2546  -9.8226  -9.6929  -9.2222  -8.9805  -8.9426  -8.8697
     2.2559   2.6894   2.7210   2.9486   3.2972   3.2990   3.5017   3.5898
     3.9464   3.9764   4.0570   4.4384   4.7175   5.4038   5.4704   5.6204
     5.7390   5.8386   6.1835   6.3988   6.4229   6.8170   7.0626   7.1972
     9.6777   9.8349   9.9541  10.0597  10.2494  10.2948  10.3837  10.6784
    10.7127  10.9003

     occupation numbers
     1.0000   1.0000   1.0000   1.0000   1.0000   1.0000   1.0000   1.0000
     1.0000   1.0000   1.0000   1.0000   1.0000   1.0000   1.0000   1.0000
     1.0000   1.0000   1.0000   1.0000   1.0000   1.0000   1.0000   1.0000
     1.0000   1.0000   1.0000   1.0000   1.0000   1.0000   1.0000   1.0000
     1.0000   1.0000   1.0000   1.0000   1.0000   1.0000   1.0000   1.0000
     1.0000   1.0000   1.0000   1.0000   1.0000   1.0000   1.0000   1.0000
    -0.0000  -0.0000  -0.0000  -0.0000  -0.0000  -0.0000  -0.0000  -0.0000
    -0.0000  -0.0000

     the Fermi energy is     9.1458 ev

!    total energy              =    -811.07966367 Ry
     estimated scf accuracy    <       0.00000055 Ry
     smearing contrib. (-TS)   =       0.00000000 Ry
     internal energy E=F+TS    =    -811.07966367 Ry

     The total energy is F=E-TS. E is the sum of the following terms:
     one-electron contribution =    -348.73103372 Ry
     hartree contribution      =     216.93529923 Ry
     xc contribution           =    -131.75486683 Ry
     ewald contribution        =    -471.39026878 Ry
     one-center paw contrib.   =     -76.13879357 Ry
      -> PAW hartree energy AE =     242.28646269 Ry
      -> PAW hartree energy PS =    -241.40785421 Ry
      -> PAW xc energy AE      =    -138.16555848 Ry
      -> PAW xc energy PS      =      61.14815643 Ry
      -> total E_H with PAW    =     217.81390770 Ry
      -> total E_XC with PAW   =    -208.77226887 Ry

     convergence has been achieved in  14 iterations

     negative rho (up, down):  1.848E-03 0.000E+00

     Forces acting on atoms (cartesian axes, Ry/au):

     atom    1 type  1   force =     0.00000000    0.06159438   -0.06893197
     atom    2 type  1   force =     0.00000000   -0.06159438    0.06893197
     atom    3 type  1   force =     0.00000000    0.06159438    0.06893197
     atom    4 type  1   force =     0.00000000   -0.06159438   -0.06893197
     atom    5 type  2   force =     0.00000000    0.07442285   -0.15447935
     atom    6 type  2   force =     0.00000000   -0.07442285    0.15447935
     atom    7 type  2   force =    -0.00000000    0.07442285    0.15447935
     atom    8 type  2   force =     0.00000000   -0.07442285   -0.15447935
     atom    9 type  2   force =     0.00000000   -0.03725963    0.04628480
     atom   10 type  2   force =     0.00000000    0.03725963   -0.04628480
     atom   11 type  2   force =     0.00000000   -0.03725963   -0.04628480
     atom   12 type  2   force =     0.00000000    0.03725963    0.04628480
     The non-local contrib.  to forces
     atom    1 type  1   force =     0.00000000    0.00975795   -0.11250993
     atom    2 type  1   force =     0.00000000   -0.00975795    0.11250993
     atom    3 type  1   force =     0.00000000    0.00975795    0.11250993
     atom    4 type  1   force =     0.00000000   -0.00975795   -0.11250993
     atom    5 type  2   force =     0.00000000    0.55203848   -0.11756863
     atom    6 type  2   force =    -0.00000000   -0.55203848    0.11756863
     atom    7 type  2   force =     0.00000000    0.55203848    0.11756863
     atom    8 type  2   force =     0.00000000   -0.55203848   -0.11756863
     atom    9 type  2   force =    -0.00000000    0.17423588   -0.19965123
     atom   10 type  2   force =     0.00000000   -0.17423588    0.19965123
     atom   11 type  2   force =    -0.00000000    0.17423588    0.19965123
     atom   12 type  2   force =     0.00000000   -0.17423588   -0.19965123
     The ionic contribution  to forces
     atom    1 type  1   force =    -0.00000000    0.92865644    3.51142794
     atom    2 type  1   force =    -0.00000000   -0.92865644   -3.51142794
     atom    3 type  1   force =    -0.00000000    0.92865644   -3.51142794
     atom    4 type  1   force =    -0.00000000   -0.92865644    3.51142794
     atom    5 type  2   force =     0.00000000  -12.10544155    4.45095091
     atom    6 type  2   force =    -0.00000000   12.10544155   -4.45095091
     atom    7 type  2   force =    -0.00000000  -12.10544155   -4.45095091
     atom    8 type  2   force =     0.00000000   12.10544155    4.45095091
     atom    9 type  2   force =    -0.00000000    0.74360553   -1.11468786
     atom   10 type  2   force =    -0.00000000   -0.74360553    1.11468786
     atom   11 type  2   force =    -0.00000000    0.74360553    1.11468786
     atom   12 type  2   force =    -0.00000000   -0.74360553   -1.11468786
     The local contribution  to forces
     atom    1 type  1   force =    -0.00000038   -0.87077517   -3.47219772
     atom    2 type  1   force =     0.00000046    0.87036090    3.47248125
     atom    3 type  1   force =     0.00000026   -0.87078842    3.47036871
     atom    4 type  1   force =    -0.00000062    0.87073198   -3.47099493
     atom    5 type  2   force =    -0.00000030   11.63119784   -4.48702893
     atom    6 type  2   force =    -0.00000004  -11.63128367    4.48729696
     atom    7 type  2   force =    -0.00000017   11.63159150    4.48723457
     atom    8 type  2   force =     0.00000010  -11.63182271   -4.48806940
     atom    9 type  2   force =     0.00000029   -0.95309408    1.35859637
     atom   10 type  2   force =    -0.00000021    0.95280446   -1.35837072
     atom   11 type  2   force =     0.00000075   -0.95332190   -1.35805080
     atom   12 type  2   force =    -0.00000007    0.95356944    1.35831225
     The core correction contribution to forces
     atom    1 type  1   force =     0.00000000   -0.00609460    0.00382980
     atom    2 type  1   force =     0.00000001    0.00609049   -0.00383044
     atom    3 type  1   force =     0.00000001   -0.00609086   -0.00384406
     atom    4 type  1   force =    -0.00000001    0.00609383    0.00383953
     atom    5 type  2   force =    -0.00000000   -0.00384712   -0.00042617
     atom    6 type  2   force =     0.00000000    0.00384700    0.00042607
     atom    7 type  2   force =     0.00000000   -0.00384648    0.00042661
     atom    8 type  2   force =     0.00000000    0.00384565   -0.00042673
     atom    9 type  2   force =     0.00000000   -0.00188849    0.00227360
     atom   10 type  2   force =    -0.00000000    0.00188840   -0.00227351
     atom   11 type  2   force =    -0.00000000   -0.00188873   -0.00227534
     atom   12 type  2   force =    -0.00000000    0.00188836    0.00227532
     The Hubbard contrib.    to forces
     atom    1 type  1   force =     0.00000000    0.00000000    0.00000000
     atom    2 type  1   force =     0.00000000    0.00000000    0.00000000
     atom    3 type  1   force =     0.00000000    0.00000000    0.00000000
     atom    4 type  1   force =     0.00000000    0.00000000    0.00000000
     atom    5 type  2   force =     0.00000000    0.00000000    0.00000000
     atom    6 type  2   force =     0.00000000    0.00000000    0.00000000
     atom    7 type  2   force =     0.00000000    0.00000000    0.00000000
     atom    8 type  2   force =     0.00000000    0.00000000    0.00000000
     atom    9 type  2   force =     0.00000000    0.00000000    0.00000000
     atom   10 type  2   force =     0.00000000    0.00000000    0.00000000
     atom   11 type  2   force =     0.00000000    0.00000000    0.00000000
     atom   12 type  2   force =     0.00000000    0.00000000    0.00000000
     The SCF correction term to forces
     atom    1 type  1   force =     0.00000044    0.00004727    0.00046825
     atom    2 type  1   force =    -0.00000053    0.00038169   -0.00079867
     atom    3 type  1   force =    -0.00000020    0.00007111    0.00128415
     atom    4 type  1   force =     0.00000073   -0.00000955   -0.00068392
     atom    5 type  2   force =     0.00000042    0.00043238   -0.00037285
     atom    6 type  2   force =    -0.00000008   -0.00036191    0.00010575
     atom    7 type  2   force =     0.00000017    0.00008148    0.00022447
     atom    8 type  2   force =     0.00000004    0.00008157    0.00059197
     atom    9 type  2   force =     0.00000004   -0.00013457   -0.00029814
     atom   10 type  2   force =    -0.00000001    0.00043786    0.00008818
     atom   11 type  2   force =    -0.00000081    0.00010629   -0.00036348
     atom   12 type  2   force =    -0.00000023   -0.00040584    0.00009049

     Total force =     0.407326     Total SCF correction =     0.002152

     Computing stress (Cartesian axis) and pressure

     negative rho (up, down):  1.848E-03 0.000E+00
          total   stress  (Ry/bohr**3)                   (kbar)     P=     -406.94
  -0.00145364   0.00000000   0.00000000         -213.84        0.00        0.00
   0.00000000  -0.00309879   0.00000000            0.00     -455.85        0.00
   0.00000000   0.00000000  -0.00374655            0.00        0.00     -551.14

     kinetic stress (kbar)  24850.02      0.00      0.00
                                0.00  24351.07      0.00
                                0.00      0.00  24078.19

     local   stress (kbar) -34799.97     -0.00      0.00
                               -0.00  11853.13     -0.09
                                0.00     -0.09 -12926.88

     nonloc. stress (kbar)   6367.68      0.00      0.00
                                0.00   6382.43      0.00
                                0.00      0.00   6393.49

     hartree stress (kbar)  20207.79     -0.00      0.00
                               -0.00   1458.99      0.05
                                0.00      0.05  11727.86

     exc-cor stress (kbar)  -3415.37      0.00      0.00
                                0.00  -3436.30      0.00
                                0.00      0.00  -3427.58

     corecor stress (kbar)  -2774.61     -0.00     -0.00
                               -0.00  -2772.12     -0.00
                               -0.00     -0.00  -2773.66

     ewald   stress (kbar) -10649.38      0.00      0.00
                                0.00 -38293.05      0.00
                                0.00      0.00 -23622.56

     hubbard stress (kbar)      0.00      0.00      0.00
                                0.00      0.00      0.00
                                0.00      0.00      0.00

     DFT-D   stress (kbar)      0.00      0.00      0.00
                                0.00      0.00      0.00
                                0.00      0.00      0.00

     XDM     stress (kbar)      0.00      0.00      0.00
                                0.00      0.00      0.00
                                0.00      0.00      0.00

     dft-nl  stress (kbar)      0.00      0.00      0.00
                                0.00      0.00      0.00
                                0.00      0.00      0.00

     TS-vdW  stress (kbar)      0.00      0.00      0.00
                                0.00      0.00      0.00
                                0.00      0.00      0.00

[...]

                                0.00      0.00      0.00

     Writing all to output data dir new_calculations/myprefix.save/

     General routines

     Parallel routines

     PAW routines

   This run was terminated on:  19:57: 6  20May2023

   JOB DONE.