     Program PWSCF v.7.0 starts on 21May2023 at 12:10:11

     Reading input from espresso_20605.pwi
Warning: card &CELL ignored
Warning: card / ignored

     Current dimensions of program PWSCF are:
     Max number of different atomic species (ntypx) = 10
     Max number of k-points (npk) =  40000
     Max angular momentum in pseudopotentials (lmaxx) =  4

     gamma-point specific algorithms are used
     Message from routine setup:
     using ibrav=0 with symmetry is DISCOURAGED, use correct ibrav instead

     Subspace diagonalization in iterative solution of the eigenvalue problem:
     a serial algorithm will be used

     Using Slab Decomposition

     bravais-lattice index     =            0
     lattice parameter (alat)  =      11.3863  a.u.
     unit-cell volume          =     787.3353 (a.u.)^3
     number of atoms/cell      =            9
     number of atomic types    =            3
     number of electrons       =        99.00
     number of Kohn-Sham states=           60
     kinetic-energy cutoff     =      30.0000  Ry
     charge density cutoff     =     240.0000  Ry
     scf convergence threshold =      1.0E-06
     mixing beta               =       0.7000
     number of iterations used =            8  plain     mixing
     Exchange-correlation= PBE
                           (   1   4   3   4   0   0   0)

     celldm(1)=  11.386341  celldm(2)=   0.000000  celldm(3)=   0.000000
     celldm(4)=   0.000000  celldm(5)=   0.000000  celldm(6)=   0.000000

     crystal axes: (cart. coord. in units of alat)
               a(1) = (   1.000000   0.000000   0.000000 )
               a(2) = (  -0.500000   0.866025   0.000000 )
               a(3) = (   0.000000   0.000000   0.615852 )

     reciprocal axes: (cart. coord. in units 2 pi/alat)
               b(1) = (  1.000000  0.577350  0.000000 )
               b(2) = (  0.000000  1.154701  0.000000 )
               b(3) = (  0.000000  0.000000  1.623766 )

     PseudoPot. # 1 for Ti read from file:
     /home/pragov/projects/rrg-bengioy-ad/pragov/crystal_structure_design/SSSP/ti_pbe_v1.4.uspp.F.UPF
     MD5 check sum: 88a00a6731bd790ddea75d31a80cb452
     Pseudo is Ultrasoft + core correction, Zval = 12.0
     Generated by new atomic code, or converted to UPF format
     Using radial grid of  851 points,  6 beta functions with:
                l(1) =   0
                l(2) =   0
                l(3) =   1
                l(4) =   1
                l(5) =   2
                l(6) =   2
     Q(r) pseudized with  6 coefficients,  rinner =    1.000   1.000   1.000
                                                       1.000   1.000

     PseudoPot. # 2 for Co read from file:
     /home/pragov/projects/rrg-bengioy-ad/pragov/crystal_structure_design/SSSP/Co_pbe_v1.2.uspp.F.UPF
     MD5 check sum: 5f91765df6ddd3222702df6e7b74a16d
     Pseudo is Ultrasoft + core correction, Zval = 17.0
     Generated by new atomic code, or converted to UPF format
     Using radial grid of  863 points,  6 beta functions with:
                l(1) =   0
                l(2) =   0
                l(3) =   1
                l(4) =   1
                l(5) =   2
                l(6) =   2
     Q(r) pseudized with  8 coefficients,  rinner =    1.200   1.200   1.200
                                                       1.200   1.200

     PseudoPot. # 3 for Si read from file:
     /home/pragov/projects/rrg-bengioy-ad/pragov/crystal_structure_design/SSSP/Si.pbe-n-rrkjus_psl.1.0.0.UPF
     MD5 check sum: 0b0bb1205258b0d07b9f9672cf965d36
     Pseudo is Ultrasoft + core correction, Zval =  4.0
     Generated using "atomic" code by A. Dal Corso  v.5.1
     Using radial grid of 1141 points,  6 beta functions with:
                l(1) =   0
                l(2) =   0
                l(3) =   1
                l(4) =   1
                l(5) =   2
                l(6) =   2
     Q(r) pseudized with 0 coefficients

     atomic species   valence    mass     pseudopotential
        Ti            12.00    47.86700     Ti( 1.00)
        Co            17.00    58.93319     Co( 1.00)
        Si             4.00    28.08500     Si( 1.00)

     12 Sym. Ops. (no inversion) found

                                    s                        frac. trans.

      isym =  1     identity

 cryst.   s( 1) = (     1          0          0      )
                  (     0          1          0      )
                  (     0          0          1      )

 cart.    s( 1) = (  1.0000000  0.0000000  0.0000000 )
                  (  0.0000000  1.0000000  0.0000000 )
                  (  0.0000000  0.0000000  1.0000000 )

      isym =  2     180 deg rotation - cart. axis [1,0,0]

[...]

      isym =  3     120 deg rotation - cryst. axis [0,0,1]

[...]

      isym =  6     180 deg rotation - cryst. axis [1,1,0]

[...]

      isym =  7     inv. 180 deg rotation - cart. axis [0,0,1]

[...]

      isym =  8     inv. 180 deg rotation - cart. axis [0,1,0]

[...]

      isym =  9     inv.  60 deg rotation - cryst. axis [0,0,1]

 cryst.   s( 9) = (    -1         -1          0      )
                  (     1          0          0      )
                  (     0          0         -1      )

 cart.    s( 9) = ( -0.4999999  0.8660254  0.0000000 )
                  ( -0.8660254 -0.5000001  0.0000000 )
                  (  0.0000000  0.0000000 -1.0000000 )

[...]

 cryst.   s(10) = (     0          1          0      )
                  (    -1         -1          0      )
                  (     0          0         -1      )

 cart.    s(10) = ( -0.5000001 -0.8660254  0.0000000 )
                  (  0.8660254 -0.4999999  0.0000000 )
                  (  0.0000000  0.0000000 -1.0000000 )

[...]

      isym = 12     inv. 180 deg rotation - cryst. axis [2,1,0]

 cryst.   s(12) = (    -1         -1          0      )
                  (     0          1          0      )
                  (     0          0          1      )

 cart.    s(12) = ( -0.4999999 -0.8660255  0.0000000 )
                  ( -0.8660254  0.4999999  0.0000000 )
                  (  0.0000000  0.0000000  1.0000000 )

   Cartesian axes

     site n.     atom                  positions (alat units)
         1           Ti  tau(   1) = (   0.2821645   0.4887232   0.3079261  )
         2           Ti  tau(   2) = (   0.4356710   0.0000000   0.3079261  )
         3           Ti  tau(   3) = (   0.7821645   0.3773021   0.3079261  )
         4           Co  tau(   4) = (   0.7571330   0.0000000   0.0000000  )
         5           Co  tau(   5) = (  -0.3785666   0.6556964   0.0000000  )
         6           Co  tau(   6) = (   0.1214335   0.2103290   0.0000000  )
         7           Si  tau(   7) = (   0.0000000   0.0000000   0.3079261  )
         8           Si  tau(   8) = (   0.5000005   0.2886748   0.0000000  )
         9           Si  tau(   9) = (  -0.0000005   0.5773505   0.0000000  )

   Crystallographic axes

     site n.     atom                  positions (cryst. coord.)
         1           Ti  tau(   1) = (  0.5643290  0.5643290  0.5000000  )
         2           Ti  tau(   2) = (  0.4356710  0.0000000  0.5000000  )
         3           Ti  tau(   3) = (  1.0000000  0.4356710  0.5000000  )
         4           Co  tau(   4) = (  0.7571330  0.0000000  0.0000000  )
         5           Co  tau(   5) = (  0.0000000  0.7571330  0.0000000  )
         6           Co  tau(   6) = (  0.2428670  0.2428670  0.0000000  )
         7           Si  tau(   7) = (  0.0000000  0.0000000  0.5000000  )
         8           Si  tau(   8) = (  0.6666670  0.3333330  0.0000000  )
         9           Si  tau(   9) = (  0.3333330  0.6666670  0.0000000  )

     number of k points=     1  Methfessel-Paxton smearing, width (Ry)=  0.0010
                       cart. coord. in units 2pi/alat
        k(    1) = (   0.0000000   0.0000000   0.0000000), wk =   2.0000000

                       cryst. coord.
        k(    1) = (   0.0000000   0.0000000   0.0000000), wk =   2.0000000

     Check: negative core charge=   -0.000014

     Initial potential from superposition of free atoms

     starting charge      92.9982, renormalised to      99.0000

     negative rho (up, down):  4.216E-03 0.000E+00
     Starting wfcs are   81 randomized atomic wfcs

     Self-consistent Calculation

     iteration #  1     ecut=    30.00 Ry     beta= 0.70
     Davidson diagonalization with overlap

     ethr =  1.00E-02,  avg # of iterations =  5.0

     total energy              =   -1177.14440752 Ry
     estimated scf accuracy    <     144.80064214 Ry

[...]

     negative rho (up, down):  8.569E-04 0.000E+00

[...]

     total energy              =   -1287.69346158 Ry
     estimated scf accuracy    <       0.00000415 Ry

     iteration # 33     ecut=    30.00 Ry     beta= 0.70
     Davidson diagonalization with overlap

     ethr =  3.91E-09,  avg # of iterations =  1.0

[...]

     End of self-consistent calculation

          k = 0.0000 0.0000 0.0000 (  1069 PWs)   bands (ev):

   -79.8643 -79.8535 -79.8531 -43.5066 -43.4183 -43.4180 -43.1445 -43.1372
   -43.1369 -42.7641 -42.7638 -42.7249 -41.9836 -41.9522 -41.9518 -18.4189
   -18.4187 -18.3865 -18.3159 -18.1474 -18.1277 -18.1273 -18.1099 -18.1095
     4.0343   6.5137   7.7066  10.0582  10.0582  10.3712  10.3712  11.0654
    11.5876  11.9519  12.5599  12.5601  13.0995  13.1158  13.1160  13.1594
    13.1596  13.2030  13.2032  13.6437  13.6438  14.2605  14.5180  15.0606
    15.1073  15.2164  15.2164  15.5457  15.5458  15.7722  15.7722  16.5900
    16.6993  16.6994  16.9392  17.0714

     occupation numbers
     1.0000   1.0000   1.0000   1.0000   1.0000   1.0000   1.0000   1.0000
     1.0000   1.0000   1.0000   1.0000   1.0000   1.0000   1.0000   1.0000
     1.0000   1.0000   1.0000   1.0000   1.0000   1.0000   1.0000   1.0000
     1.0000   1.0000   1.0000   1.0000   1.0000   1.0000   1.0000   1.0000
     1.0000   1.0000   1.0000   1.0000   1.0000   1.0000   1.0000   1.0000
     1.0000   1.0000   1.0000   1.0000   1.0000   1.0000   1.0000   1.0000
     1.0000   0.2507   0.2493  -0.0000  -0.0000  -0.0000  -0.0000  -0.0000
    -0.0000  -0.0000  -0.0000  -0.0000

     the Fermi energy is    15.2122 ev

!    total energy              =   -1287.69346131 Ry
     estimated scf accuracy    <       0.00000035 Ry
     smearing contrib. (-TS)   =      -0.00041261 Ry
     internal energy E=F+TS    =   -1287.69304870 Ry

     The total energy is F=E-TS. E is the sum of the following terms:
     one-electron contribution =    -750.71396705 Ry
     hartree contribution      =     425.44239741 Ry
     xc contribution           =    -171.21133002 Ry
     ewald contribution        =    -791.21014904 Ry

     convergence has been achieved in  33 iterations

     negative rho (up, down):  3.160E-03 0.000E+00

     Forces acting on atoms (cartesian axes, Ry/au):

     atom    1 type  1   force =    -0.05460509   -0.09457879    0.00000000
     atom    2 type  1   force =     0.10921017    0.00000001    0.00000000
     atom    3 type  1   force =    -0.05460509    0.09457878    0.00000000
     atom    4 type  2   force =     0.00277493    0.00000000    0.00000000
     atom    5 type  2   force =    -0.00138746    0.00240316    0.00000000
     atom    6 type  2   force =    -0.00138746   -0.00240316    0.00000000
     atom    7 type  3   force =     0.00000000    0.00000000    0.00000000
     atom    8 type  3   force =     0.00000000    0.00000000    0.00000000
     atom    9 type  3   force =     0.00000000   -0.00000000    0.00000000
     The non-local contrib.  to forces
     atom    1 type  1   force =    -0.04243097   -0.07349260    0.00000000
     atom    2 type  1   force =     0.08486193    0.00000001   -0.00000000
     atom    3 type  1   force =    -0.04243097    0.07349259    0.00000000
     atom    4 type  2   force =     0.12789420    0.00000001   -0.00000000
     atom    5 type  2   force =    -0.06394710    0.11075963    0.00000000
     atom    6 type  2   force =    -0.06394710   -0.11075964    0.00000000
     atom    7 type  3   force =     0.00000000   -0.00000000    0.00000000
     atom    8 type  3   force =     0.00000000    0.00000000   -0.00000000
     atom    9 type  3   force =     0.00000000    0.00000000    0.00000000
     The ionic contribution  to forces
     atom    1 type  1   force =    -0.50643043   -0.87716332    0.00000000
     atom    2 type  1   force =     1.01285063    0.00000671    0.00000000
     atom    3 type  1   force =    -0.50641958    0.87715769    0.00000000
     atom    4 type  2   force =   -14.12851456   -0.00003108   -0.00000000
     atom    5 type  2   force =     7.06423130  -12.23566752   -0.00000000
     atom    6 type  2   force =     7.06428330   12.23569867   -0.00000000
     atom    7 type  3   force =    -0.00000007   -0.00000012   -0.00000000
     atom    8 type  3   force =    -0.00003186    0.00001771   -0.00000000
     atom    9 type  3   force =     0.00003127   -0.00001874    0.00000000
     The local contribution  to forces
     atom    1 type  1   force =     0.49198062    0.85196178   -0.00000405
     atom    2 type  1   force =    -0.98323007   -0.00013051   -0.00000667
     atom    3 type  1   force =     0.49173328   -0.85186176   -0.00000693
     atom    4 type  2   force =    14.00371939    0.00044318    0.00000000
     atom    5 type  2   force =    -7.00177224   12.12605900    0.00000806
     atom    6 type  2   force =    -7.00258271  -12.12663546    0.00000123
     atom    7 type  3   force =    -0.00028829    0.00003764   -0.00000524
     atom    8 type  3   force =     0.00034936    0.00026139    0.00000261
     atom    9 type  3   force =    -0.00012789   -0.00022947   -0.00000053
     The core correction contribution to forces
     atom    1 type  1   force =     0.00248771    0.00430790    0.00000001
     atom    2 type  1   force =    -0.00497478    0.00000021   -0.00000027
     atom    3 type  1   force =     0.00249006   -0.00431012   -0.00000010
     atom    4 type  2   force =     0.00044424    0.00000163   -0.00000012
     atom    5 type  2   force =    -0.00022325    0.00038735   -0.00000004
     atom    6 type  2   force =    -0.00022368   -0.00038450   -0.00000001
     atom    7 type  3   force =    -0.00000280    0.00000258    0.00000014
     atom    8 type  3   force =     0.00000157    0.00000065    0.00000016
     atom    9 type  3   force =     0.00000000   -0.00000323   -0.00000047
     The Hubbard contrib.    to forces
     atom    1 type  1   force =     0.00000000    0.00000000    0.00000000
     atom    2 type  1   force =     0.00000000    0.00000000    0.00000000
     atom    3 type  1   force =     0.00000000    0.00000000    0.00000000
     atom    4 type  2   force =     0.00000000    0.00000000    0.00000000
     atom    5 type  2   force =     0.00000000    0.00000000    0.00000000
     atom    6 type  2   force =     0.00000000    0.00000000    0.00000000
     atom    7 type  3   force =     0.00000000    0.00000000    0.00000000
     atom    8 type  3   force =     0.00000000    0.00000000    0.00000000
     atom    9 type  3   force =     0.00000000    0.00000000    0.00000000
     The SCF correction term to forces
     atom    1 type  1   force =    -0.00019089   -0.00020125    0.00000813
     atom    2 type  1   force =    -0.00026152    0.00011905   -0.00000404
     atom    3 type  1   force =     0.00005760    0.00008276    0.00000563
     atom    4 type  2   force =    -0.00074950   -0.00039119   -0.00000099
     atom    5 type  2   force =     0.00029862    0.00084312   -0.00001802
     atom    6 type  2   force =     0.00100725   -0.00026391   -0.00000393
     atom    7 type  3   force =     0.00020005    0.00001337    0.00000223
     atom    8 type  3   force =    -0.00026217   -0.00022424   -0.00000079
     atom    9 type  3   force =     0.00008659    0.00017483   -0.00000096

     Total force =     0.189219     Total SCF correction =     0.001722

     Computing stress (Cartesian axis) and pressure

     negative rho (up, down):  3.160E-03 0.000E+00
          total   stress  (Ry/bohr**3)                   (kbar)     P=     -228.29
  -0.00161202  -0.00000000   0.00000000         -237.14       -0.00        0.00
  -0.00000000  -0.00161202   0.00000000           -0.00     -237.14        0.00
  -0.00000000   0.00000000  -0.00143167           -0.00        0.00     -210.61

     kinetic stress (kbar)  26721.49      0.00     -0.00
                                0.00  26721.49      0.00
                                0.00     -0.00  26820.78

     local   stress (kbar) -10172.96      0.57     -0.00
                                0.57 -10174.22     -0.00
                               -0.00     -0.00  -2946.81

     nonloc. stress (kbar)  12839.73      0.00      0.00
                                0.00  12839.73      0.00
                               -0.00      0.00  12906.42

     hartree stress (kbar)  27618.05     -0.36     -0.00
                               -0.36  27618.87      0.00
                               -0.00      0.00  24252.38

     exc-cor stress (kbar)  -3953.17     -0.00      0.00
                               -0.00  -3953.17      0.00
                                0.00      0.00  -3950.78

     corecor stress (kbar)  -5343.49      0.00     -0.00
                                0.00  -5343.50      0.00
                               -0.00      0.00  -5356.68

     ewald   stress (kbar) -47946.57     -0.01     -0.00
                               -0.01 -47946.58      0.00
                               -0.00      0.00 -51935.91

     hubbard stress (kbar)      0.00      0.00      0.00
                                0.00      0.00      0.00
                                0.00      0.00      0.00

     DFT-D   stress (kbar)      0.00      0.00      0.00
                                0.00      0.00      0.00
                                0.00      0.00      0.00

     XDM     stress (kbar)      0.00      0.00      0.00
                                0.00      0.00      0.00
                                0.00      0.00      0.00

     dft-nl  stress (kbar)      0.00      0.00      0.00
                                0.00      0.00      0.00
                                0.00      0.00      0.00

     TS-vdW  stress (kbar)      0.00      0.00      0.00
                                0.00      0.00      0.00
                                0.00      0.00      0.00

[...]

                                0.00      0.00      0.00

     Writing all to output data dir new_calculations/myprefix.save/

     General routines

     Parallel routines

   This run was terminated on:  12:10:31  21May2023

   JOB DONE.