     Program PWSCF v.7.0 starts on 20May2023 at 21:38:11

     Reading input from espresso_20244.pwi
Warning: card &CELL ignored
Warning: card / ignored

     Current dimensions of program PWSCF are:
     Max number of different atomic species (ntypx) = 10
     Max number of k-points (npk) =  40000
     Max angular momentum in pseudopotentials (lmaxx) =  4

     gamma-point specific algorithms are used
     Message from routine setup:
     using ibrav=0 with symmetry is DISCOURAGED, use correct ibrav instead

     Subspace diagonalization in iterative solution of the eigenvalue problem:
     a serial algorithm will be used

     Using Slab Decomposition

     bravais-lattice index     =            0
     lattice parameter (alat)  =      15.9630  a.u.
     unit-cell volume          =    1123.9514 (a.u.)^3
     number of atoms/cell      =            7
     number of atomic types    =            3
     number of electrons       =        32.00
     number of Kohn-Sham states=           20
     kinetic-energy cutoff     =      30.0000  Ry
     charge density cutoff     =     240.0000  Ry
     scf convergence threshold =      1.0E-06
     mixing beta               =       0.7000
     number of iterations used =            8  plain     mixing
     Exchange-correlation= PBE
                           (   1   4   3   4   0   0   0)

     celldm(1)=  15.963024  celldm(2)=   0.000000  celldm(3)=   0.000000
     celldm(4)=   0.000000  celldm(5)=   0.000000  celldm(6)=   0.000000

     crystal axes: (cart. coord. in units of alat)
               a(1) = (   1.000000   0.000000   0.000000 )
               a(2) = (   0.700325   0.713825   0.000000 )
               a(3) = (  -0.850162  -0.356912   0.387089 )

     reciprocal axes: (cart. coord. in units 2 pi/alat)
               b(1) = (  1.000000 -0.981088  1.291693 )
               b(2) = (  0.000000  1.400904  1.291693 )
               b(3) = (  0.000000  0.000000  2.583387 )

     PseudoPot. # 1 for Cs read from file:
     /home/pragov/projects/rrg-bengioy-ad/pragov/crystal_structure_design/SSSP/Cs_pbe_v1.uspp.F.UPF
     MD5 check sum: 3476d69cb178dfad3ffaa59df4e07ca4
     Pseudo is Ultrasoft + core correction, Zval =  9.0
     Generated by new atomic code, or converted to UPF format
     Using radial grid of  905 points,  6 beta functions with:
                l(1) =   0
                l(2) =   0
                l(3) =   1
                l(4) =   1
                l(5) =   2
                l(6) =   2
     Q(r) pseudized with  6 coefficients,  rinner =    1.500   1.500   1.500
                                                       1.500   1.500

     PseudoPot. # 2 for Ca read from file:
     /home/pragov/projects/rrg-bengioy-ad/pragov/crystal_structure_design/SSSP/Ca_pbe_v1.uspp.F.UPF
     MD5 check sum: 403a4c14b9e4d4dfdc3024c9a3812218
     Pseudo is Ultrasoft + core correction, Zval = 10.0
     Generated by new atomic code, or converted to UPF format
     Using radial grid of  845 points,  6 beta functions with:
                l(1) =   0
                l(2) =   0
                l(3) =   1
                l(4) =   1
                l(5) =   2
                l(6) =   2
     Q(r) pseudized with  8 coefficients,  rinner =    1.500   1.500   1.500
                                                       1.500   1.500

     PseudoPot. # 3 for H  read from file:
     /home/pragov/projects/rrg-bengioy-ad/pragov/crystal_structure_design/SSSP/H.pbe-rrkjus_psl.1.0.0.UPF
     MD5 check sum: f52b6d4d1c606e5624b1dc7b2218f220
     Pseudo is Ultrasoft, Zval =  1.0
     Generated using "atomic" code by A. Dal Corso  v.5.1
     Using radial grid of  929 points,  2 beta functions with:
                l(1) =   0
                l(2) =   0
     Q(r) pseudized with 0 coefficients

     atomic species   valence    mass     pseudopotential
        Cs             9.00   132.90545     Cs( 1.00)
        Ca            10.00    40.07800     Ca( 1.00)
        H              1.00     1.00800     H ( 1.00)

      4 Sym. Ops., with inversion, found

                                    s                        frac. trans.

      isym =  1     identity

 cryst.   s( 1) = (     1          0          0      )
                  (     0          1          0      )
                  (     0          0          1      )

 cart.    s( 1) = (  1.0000000 -0.0000000  0.0000000 )
                  (  0.0000000  1.0000000  0.0000000 )
                  (  0.0000000  0.0000000  1.0000000 )

      isym =  2     180 deg rotation - cart. axis [0,0,1]

[...]

      isym =  3     inversion

[...]

      isym =  4     inv. 180 deg rotation - cart. axis [0,0,1]

 cryst.   s( 4) = (     1          0          0      )
                  (     0          1          0      )
                  (    -1         -1         -1      )

 cart.    s( 4) = (  1.0000000 -0.0000000  0.0000000 )
                  (  0.0000000  1.0000000  0.0000000 )
                  (  0.0000000  0.0000000 -1.0000000 )

   Cartesian axes

     site n.     atom                  positions (alat units)
         1           Cs  tau(   1) = (   1.1014056   0.4623884   0.0000000  )
         2           Cs  tau(   2) = (   0.5989189   0.2514361   0.0000000  )
         3           Ca  tau(   3) = (   0.0000000   0.0000000   0.0000000  )
         4           H   tau(   4) = (   1.4475016   0.6076853   0.0000000  )
         5           H   tau(   5) = (   0.2528230   0.1061393   0.0000000  )
         6           H   tau(   6) = (  -0.0749189   0.1784561   0.1935444  )
         7           H   tau(   7) = (   0.0749189  -0.1784561   0.1935444  )

   Crystallographic axes

     site n.     atom                  positions (cryst. coord.)
         1           Cs  tau(   1) = (  0.6477620  0.6477620  0.0000000  )
         2           Cs  tau(   2) = (  0.3522380  0.3522380  0.0000000  )
         3           Ca  tau(   3) = (  0.0000000  0.0000000  0.0000000  )
         4           H   tau(   4) = (  0.8513090  0.8513090  0.0000000  )
         5           H   tau(   5) = (  0.1486910  0.1486910  0.0000000  )
         6           H   tau(   6) = (  0.0000000  0.5000000  0.5000000  )
         7           H   tau(   7) = (  0.5000000  0.0000000  0.5000000  )

     number of k points=     1  Methfessel-Paxton smearing, width (Ry)=  0.0010
                       cart. coord. in units 2pi/alat
        k(    1) = (   0.0000000   0.0000000   0.0000000), wk =   2.0000000

                       cryst. coord.
        k(    1) = (   0.0000000   0.0000000   0.0000000), wk =   2.0000000

     Initial potential from superposition of free atoms

     starting charge      31.9157, renormalised to      32.0000
     Starting wfcs are   40 randomized atomic wfcs

     Self-consistent Calculation

     iteration #  1     ecut=    30.00 Ry     beta= 0.70
     Davidson diagonalization with overlap

     ethr =  1.00E-02,  avg # of iterations =  2.0

     total energy              =    -205.90422897 Ry
     estimated scf accuracy    <       0.42736275 Ry

[...]

     total energy              =    -205.99651408 Ry
     estimated scf accuracy    <       0.00001598 Ry

     iteration #  6     ecut=    30.00 Ry     beta= 0.70
     Davidson diagonalization with overlap

     ethr =  4.99E-08,  avg # of iterations =  5.0

     End of self-consistent calculation

          k = 0.0000 0.0000 0.0000 (  1565 PWs)   bands (ev):

   -35.8492 -17.6005 -17.5489 -16.8884 -16.8595 -16.8589  -4.8297  -4.3527
    -4.3526  -4.2610  -4.2362  -4.2362   0.4020   2.0334   2.1894   2.3604
     7.1029   7.7421   8.4346   8.4352

     occupation numbers
     1.0000   1.0000   1.0000   1.0000   1.0000   1.0000   1.0000   1.0000
     1.0000   1.0000   1.0000   1.0000   1.0000   1.0000   1.0000   1.0000
    -0.0000  -0.0000  -0.0000  -0.0000

     the Fermi energy is     3.0017 ev

!    total energy              =    -205.99652346 Ry
     estimated scf accuracy    <       0.00000060 Ry
     smearing contrib. (-TS)   =       0.00000000 Ry
     internal energy E=F+TS    =    -205.99652346 Ry

     The total energy is F=E-TS. E is the sum of the following terms:
     one-electron contribution =     -58.33814340 Ry
     hartree contribution      =      36.95982082 Ry
     xc contribution           =     -75.22087911 Ry
     ewald contribution        =    -109.39732177 Ry

     convergence has been achieved in   6 iterations

     Forces acting on atoms (cartesian axes, Ry/au):

     atom    1 type  1   force =    -0.00203038   -0.00084902   -0.00000000
     atom    2 type  1   force =     0.00203038    0.00084902    0.00000000
     atom    3 type  2   force =     0.00000000    0.00000000    0.00000000
     atom    4 type  3   force =    -0.00353539   -0.00148295   -0.00000000
     atom    5 type  3   force =     0.00353539    0.00148295    0.00000000
     atom    6 type  3   force =     0.00000000    0.00000000   -0.00000000
     atom    7 type  3   force =     0.00000000    0.00000000    0.00000000
     The non-local contrib.  to forces
     atom    1 type  1   force =     0.04861636    0.02036475    0.00000000
     atom    2 type  1   force =    -0.04861636   -0.02036475   -0.00000000
     atom    3 type  2   force =     0.00000000    0.00000000    0.00000000
     atom    4 type  3   force =     0.00399917    0.00167894    0.00000000
     atom    5 type  3   force =    -0.00399917   -0.00167894   -0.00000000
     atom    6 type  3   force =     0.00000000    0.00000000    0.00000000
     atom    7 type  3   force =     0.00000000    0.00000000    0.00000000
     The ionic contribution  to forces
     atom    1 type  1   force =     2.87758296    1.20805725    0.00000000
     atom    2 type  1   force =    -2.87758296   -1.20805725   -0.00000000
     atom    3 type  2   force =    -0.00000000   -0.00000000    0.00000000
     atom    4 type  3   force =    -0.71966587   -0.30212772   -0.00000000
     atom    5 type  3   force =     0.71966587    0.30212772    0.00000000
     atom    6 type  3   force =     0.00000000   -0.00000000   -0.00000000
     atom    7 type  3   force =     0.00000000    0.00000000   -0.00000000
     The local contribution  to forces
     atom    1 type  1   force =    -2.92294358   -1.22704847    0.00003321
     atom    2 type  1   force =     2.92294547    1.22705010    0.00006446
     atom    3 type  2   force =     0.00036014    0.00000100   -0.00004161
     atom    4 type  3   force =     0.71212013    0.29895950    0.00000021
     atom    5 type  3   force =    -0.71212777   -0.29896570   -0.00000193
     atom    6 type  3   force =     0.00000124    0.00001197    0.00000850
     atom    7 type  3   force =     0.00000402   -0.00000748    0.00000220
     The core correction contribution to forces
     atom    1 type  1   force =    -0.00537805   -0.00224513    0.00000639
     atom    2 type  1   force =     0.00537413    0.00224705    0.00000102
     atom    3 type  2   force =     0.00000754    0.00000074    0.00000229
     atom    4 type  3   force =     0.00000000    0.00000000    0.00000000
     atom    5 type  3   force =     0.00000000    0.00000000    0.00000000
     atom    6 type  3   force =     0.00000000    0.00000000    0.00000000
     atom    7 type  3   force =     0.00000000    0.00000000    0.00000000
     The Hubbard contrib.    to forces
     atom    1 type  1   force =     0.00000000    0.00000000    0.00000000
     atom    2 type  1   force =     0.00000000    0.00000000    0.00000000
     atom    3 type  2   force =     0.00000000    0.00000000    0.00000000
     atom    4 type  3   force =     0.00000000    0.00000000    0.00000000
     atom    5 type  3   force =     0.00000000    0.00000000    0.00000000
     atom    6 type  3   force =     0.00000000    0.00000000    0.00000000
     atom    7 type  3   force =     0.00000000    0.00000000    0.00000000
     The SCF correction term to forces
     atom    1 type  1   force =     0.00007885    0.00001836   -0.00002238
     atom    2 type  1   force =    -0.00010298   -0.00003034   -0.00001382
     atom    3 type  2   force =    -0.00031464    0.00002548    0.00008148
     atom    4 type  3   force =     0.00001219    0.00000710    0.00000093
     atom    5 type  3   force =    -0.00000255    0.00000063    0.00000109
     atom    6 type  3   force =    -0.00000305   -0.00001041   -0.00000405
     atom    7 type  3   force =    -0.00000435    0.00000356    0.00000056

     Total force =     0.006252     Total SCF correction =     0.000354

     Computing stress (Cartesian axis) and pressure

          total   stress  (Ry/bohr**3)                   (kbar)     P=      -11.57
   0.00012470   0.00014049   0.00000000           18.34       20.67        0.00
   0.00014049  -0.00015081   0.00000000           20.67      -22.18        0.00
   0.00000000   0.00000000  -0.00020974            0.00        0.00      -30.85

     kinetic stress (kbar)   4186.76      5.62      0.00
                                5.62   4175.75      0.00
                                0.00      0.00   4173.36

     local   stress (kbar)  -2717.43    793.83     -0.04
                              793.83  -4275.17     -0.02
                               -0.04     -0.02  -4608.38

     nonloc. stress (kbar)   4373.82     14.33      0.00
                               14.33   4345.84      0.00
                                0.00      0.00   4339.80

     hartree stress (kbar)   1045.01   -391.87      0.01
                             -391.87   1813.93     -0.00
                                0.01     -0.00   1978.44

     exc-cor stress (kbar)   4978.17     -0.72      0.00
                               -0.72   4979.59     -0.00
                                0.00     -0.00   4979.89

     corecor stress (kbar)  -6496.39     -0.75     -0.00
                               -0.75  -6494.93     -0.00
                               -0.00     -0.00  -6494.60

     ewald   stress (kbar)  -5351.60   -399.76      0.00
                             -399.76  -4567.19      0.00
                                0.00      0.00  -4399.36

     hubbard stress (kbar)      0.00      0.00      0.00
                                0.00      0.00      0.00
                                0.00      0.00      0.00

     DFT-D   stress (kbar)      0.00      0.00      0.00
                                0.00      0.00      0.00
                                0.00      0.00      0.00

     XDM     stress (kbar)      0.00      0.00      0.00
                                0.00      0.00      0.00
                                0.00      0.00      0.00

     dft-nl  stress (kbar)      0.00      0.00      0.00
                                0.00      0.00      0.00
                                0.00      0.00      0.00

     TS-vdW  stress (kbar)      0.00      0.00      0.00
                                0.00      0.00      0.00
                                0.00      0.00      0.00

[...]

                                0.00      0.00      0.00

     Writing all to output data dir new_calculations/myprefix.save/

     General routines

     Parallel routines

   This run was terminated on:  21:38:24  20May2023

   JOB DONE.