     Program PWSCF v.7.0 starts on 20May2023 at 11:46:58

     Reading input from espresso_2396.pwi
Warning: card &CELL ignored
Warning: card / ignored

     Current dimensions of program PWSCF are:
     Max number of different atomic species (ntypx) = 10
     Max number of k-points (npk) =  40000
     Max angular momentum in pseudopotentials (lmaxx) =  4
     file O.pbe-n-kjpaw_psl.0.1.UPF: wavefunction(s)  2P renormalized

     gamma-point specific algorithms are used

     Subspace diagonalization in iterative solution of the eigenvalue problem:
     a serial algorithm will be used

     Using Slab Decomposition

     bravais-lattice index     =            0
     lattice parameter (alat)  =       9.5353  a.u.
     unit-cell volume          =     715.1523 (a.u.)^3
     number of atoms/cell      =           12
     number of atomic types    =            4
     number of electrons       =        81.00
     number of Kohn-Sham states=           49
     kinetic-energy cutoff     =      30.0000  Ry
     charge density cutoff     =     240.0000  Ry
     scf convergence threshold =      1.0E-06
     mixing beta               =       0.7000
     number of iterations used =            8  plain     mixing
     Exchange-correlation= SLA  PW   PBX  PBC
                           (   1   4   3   4   0   0   0)

     celldm(1)=   9.535330  celldm(2)=   0.000000  celldm(3)=   0.000000
     celldm(4)=   0.000000  celldm(5)=   0.000000  celldm(6)=   0.000000

     crystal axes: (cart. coord. in units of alat)
               a(1) = (   1.000000   0.000000   0.000000 )
               a(2) = (  -0.499660   0.866221   0.000000 )
               a(3) = (   0.167251   0.289556   0.952275 )

     reciprocal axes: (cart. coord. in units 2 pi/alat)
               b(1) = (  1.000000  0.576828 -0.351027 )
               b(2) = (  0.000000  1.154439 -0.351027 )
               b(3) = (  0.000000  0.000000  1.050117 )

     PseudoPot. # 1 for Li read from file:
     /home/pragov/projects/rrg-bengioy-ad/pragov/crystal_structure_design/SSSP/li_pbe_v1.4.uspp.F.UPF
     MD5 check sum: e912e257baa3777c20ea3d68f190483c
     Pseudo is Ultrasoft, Zval =  3.0
     Generated by new atomic code, or converted to UPF format
     Using radial grid of  751 points,  5 beta functions with:
                l(1) =   0
                l(2) =   0
                l(3) =   0
                l(4) =   1
                l(5) =   1
     Q(r) pseudized with 10 coefficients,  rinner =    1.150   1.150   1.150

     PseudoPot. # 2 for Co read from file:
     /home/pragov/projects/rrg-bengioy-ad/pragov/crystal_structure_design/SSSP/Co_pbe_v1.2.uspp.F.UPF
     MD5 check sum: 5f91765df6ddd3222702df6e7b74a16d
     Pseudo is Ultrasoft + core correction, Zval = 17.0
     Generated by new atomic code, or converted to UPF format
     Using radial grid of  863 points,  6 beta functions with:
                l(1) =   0
                l(2) =   0
                l(3) =   1
                l(4) =   1
                l(5) =   2
                l(6) =   2
     Q(r) pseudized with  8 coefficients,  rinner =    1.200   1.200   1.200
                                                       1.200   1.200

     PseudoPot. # 3 for Ru read from file:
     /home/pragov/projects/rrg-bengioy-ad/pragov/crystal_structure_design/SSSP/Ru_ONCV_PBE-1.0.oncvpsp.upf
     MD5 check sum: be037bb81c227cfb9b1461a9f099f4bd
     Pseudo is Norm-conserving, Zval = 16.0
     Generated using ONCVPSP code by D. R. Hamann
     Using radial grid of 1458 points,  6 beta functions with:
                l(1) =   0
                l(2) =   0
                l(3) =   1
                l(4) =   1
                l(5) =   2
                l(6) =   2

     PseudoPot. # 4 for O  read from file:
     /home/pragov/projects/rrg-bengioy-ad/pragov/crystal_structure_design/SSSP/O.pbe-n-kjpaw_psl.0.1.UPF
     MD5 check sum: 0234752ac141de4415c5fc33072bef88
     Pseudo is Projector augmented-wave + core cor, Zval =  6.0
     Generated using "atomic" code by A. Dal Corso  v.5.0.99 svn rev. 10869
     Shape of augmentation charge: BESSEL
     Using radial grid of 1095 points,  4 beta functions with:
                l(1) =   0
                l(2) =   0
                l(3) =   1
                l(4) =   1
     Q(r) pseudized with 0 coefficients

     atomic species   valence    mass     pseudopotential
        Li             3.00     6.94000     Li( 1.00)
        Co            17.00    58.93319     Co( 1.00)
        Ru            16.00   101.07000     Ru( 1.00)
        O              6.00    15.99900     O ( 1.00)

     No symmetry found

                                    s                        frac. trans.

      isym =  1     identity

 cryst.   s( 1) = (     1          0          0      )
                  (     0          1          0      )
                  (     0          0          1      )

 cart.    s( 1) = (  1.0000000 -0.0000000  0.0000000 )
                  (  0.0000000  1.0000000  0.0000000 )
                  (  0.0000000  0.0000000  1.0000000 )

   Cartesian axes

     site n.     atom                  positions (alat units)
         1           Li  tau(   1) = (   0.5046276   0.2861328   0.0000000  )
         2           Li  tau(   2) = (   0.0080691   0.5729508   0.0000000  )
         3           Li  tau(   3) = (   0.9888455   0.0064430   0.0000000  )
         4           Li  tau(   4) = (   0.8334041   0.2893087   0.4761376  )
         5           Co  tau(   5) = (   0.3340741   0.5777275   0.4761376  )
         6           Ru  tau(   6) = (  -0.1665291   0.8668817   0.4761376  )
         7           O   tau(   7) = (   0.1607395   0.8470406   0.2565896  )
         8           O   tau(   8) = (   0.1872821   0.2934725   0.2605273  )
         9           O   tau(   9) = (   0.6531423   0.5936538   0.2592712  )
        10           O   tau(  10) = (   0.4797042   0.2933860   0.6930040  )
        11           O   tau(  11) = (   0.0141809   0.5933085   0.6956857  )
        12           O   tau(  12) = (   0.5069557   0.8469128   0.6917480  )

   Crystallographic axes

     site n.     atom                  positions (cryst. coord.)
         1           Li  tau(   1) = (  0.6696770  0.3303230  0.0000000  )
         2           Li  tau(   2) = (  0.3385630  0.6614370  0.0000000  )
         3           Li  tau(   3) = (  0.9925620  0.0074380  0.0000000  )
         4           Li  tau(   4) = (  0.8331480  0.1668520  0.5000000  )
         5           Co  tau(   5) = (  0.5001860  0.4998140  0.5000000  )
         6           Ru  tau(   6) = (  0.1663750  0.8336250  0.5000000  )
         7           O   tau(   7) = (  0.5592660  0.8877870  0.2694490  )
         8           O   tau(   8) = (  0.2651130  0.2473440  0.2735840  )
         9           O   tau(   9) = (  0.9045670  0.5943260  0.2722650  )
        10           O   tau(  10) = (  0.4056740  0.0954330  0.7277350  )
        11           O   tau(  11) = (  0.1122130  0.4407340  0.7305510  )
        12           O   tau(  12) = (  0.7526560  0.7348870  0.7264160  )

     number of k points=     1  Methfessel-Paxton smearing, width (Ry)=  0.0010
                       cart. coord. in units 2pi/alat
        k(    1) = (   0.0000000   0.0000000   0.0000000), wk =   2.0000000

                       cryst. coord.
        k(    1) = (   0.0000000   0.0000000   0.0000000), wk =   2.0000000

     Check: negative core charge=   -0.000019

     Initial potential from superposition of free atoms

     starting charge      78.1965, renormalised to      81.0000
     Starting wfcs are   67 randomized atomic wfcs
     Checking if some PAW data can be deallocated...

     Self-consistent Calculation

     iteration #  1     ecut=    30.00 Ry     beta= 0.70
     Davidson diagonalization with overlap

     ethr =  1.00E-02,  avg # of iterations =  2.0

     total energy              =    -771.28515628 Ry
     estimated scf accuracy    <      30.31763976 Ry

[...]

     total energy              =    -794.91975211 Ry
     estimated scf accuracy    <       0.00000449 Ry

     iteration # 56     ecut=    30.00 Ry     beta= 0.70
     Davidson diagonalization with overlap

     ethr =  1.50E-09,  avg # of iterations =  1.0

     End of self-consistent calculation

          k = 0.0000 0.0000 0.0000 (   996 PWs)   bands (ev):

   -86.6548 -65.2084 -50.0089 -50.0009 -49.6498 -35.6653 -35.6376 -35.6204
   -35.3952 -35.3386 -35.2970 -34.8427 -10.4307  -9.3209  -9.2726  -9.1025
    -8.9550  -8.9088   2.3016   2.7200   2.7584   3.1161   3.2972   3.3522
     3.8315   3.8380   4.5824   4.6868   4.7274   4.8252   5.7695   6.4397
     6.4534   6.9192   6.9862   6.9926   8.0284   8.1447   8.1669   8.6948
     8.7029   8.7040  10.4127  10.4306  12.3371  12.3911  14.4483  16.1936
    18.5361

     occupation numbers
     1.0000   1.0000   1.0000   1.0000   1.0000   1.0000   1.0000   1.0000
     1.0000   1.0000   1.0000   1.0000   1.0000   1.0000   1.0000   1.0000
     1.0000   1.0000   1.0000   1.0000   1.0000   1.0000   1.0000   1.0000
     1.0000   1.0000   1.0000   1.0000   1.0000   1.0000   1.0000   1.0000
     1.0000   1.0000   1.0000   1.0000   1.0000   1.0000   1.0000   0.8327
     0.3663   0.3010  -0.0000  -0.0000  -0.0000  -0.0000  -0.0000  -0.0000
    -0.0000

     the Fermi energy is     8.7007 ev

!    total energy              =    -794.91975205 Ry
     estimated scf accuracy    <       0.00000020 Ry
     smearing contrib. (-TS)   =      -0.00064013 Ry
     internal energy E=F+TS    =    -794.91911192 Ry

     The total energy is F=E-TS. E is the sum of the following terms:
     one-electron contribution =    -441.65283488 Ry
     hartree contribution      =     255.31703442 Ry
     xc contribution           =    -110.76067765 Ry
     ewald contribution        =    -440.70235126 Ry
     one-center paw contrib.   =     -57.12028255 Ry
      -> PAW hartree energy AE =     175.52122500 Ry
      -> PAW hartree energy PS =    -174.88908008 Ry
      -> PAW xc energy AE      =    -102.65977534 Ry
      -> PAW xc energy PS      =      44.90734786 Ry
      -> total E_H with PAW    =     255.94917935 Ry
      -> total E_XC with PAW   =    -168.51310512 Ry

     convergence has been achieved in  56 iterations

     Forces acting on atoms (cartesian axes, Ry/au):

     atom    1 type  1   force =    -0.00385442    0.00221675    0.00000292
     atom    2 type  1   force =     0.00227027   -0.00134622    0.00000034
     atom    3 type  1   force =     0.00153405   -0.00089223   -0.00000410
     atom    4 type  1   force =     0.00070016   -0.00040262    0.00000908
     atom    5 type  2   force =     0.00026349    0.00003317   -0.00007655
     atom    6 type  3   force =     0.00600502   -0.00343326    0.00000084
     atom    7 type  4   force =     0.01616824    0.02015738    0.03687877
     atom    8 type  4   force =    -0.00090581    0.02023578    0.01396994
     atom    9 type  4   force =     0.00154592   -0.00332153    0.01687865
     atom   10 type  4   force =     0.00362047    0.00026659   -0.01688122
     atom   11 type  4   force =    -0.00937896   -0.02416106   -0.03678245
     atom   12 type  4   force =    -0.01796843   -0.00935274   -0.01399622
     The non-local contrib.  to forces
     atom    1 type  1   force =     0.03039559   -0.01755775   -0.00000092
     atom    2 type  1   force =    -0.01920241    0.01110071    0.00000155
     atom    3 type  1   force =    -0.00831934    0.00480366   -0.00000641
     atom    4 type  1   force =    -0.00214383    0.00122075    0.00000412
     atom    5 type  2   force =    -0.00557707    0.00351215   -0.00007512
     atom    6 type  3   force =     0.00318135   -0.00183143    0.00000771
     atom    7 type  4   force =    -0.32798296   -0.34339668    0.54951166
     atom    8 type  4   force =     0.41127391   -0.14332386    0.58812530
     atom    9 type  4   force =    -0.11473259    0.39785164    0.63017087
     atom   10 type  4   force =    -0.40199133   -0.09940957   -0.63017315
     atom   11 type  4   force =     0.13355829    0.45561496   -0.54948773
     atom   12 type  4   force =     0.32967612   -0.28465260   -0.58810061
     The ionic contribution  to forces
     atom    1 type  1   force =     1.36388968   -0.78779853   -0.00000000
     atom    2 type  1   force =    -0.35400984    0.20448020   -0.00000000
     atom    3 type  1   force =    -1.09089272    0.63011231   -0.00000000
     atom    4 type  1   force =    -0.02275039    0.01314089    0.00000000
     atom    5 type  2   force =    -0.40823881    0.23580348    0.00000000
     atom    6 type  3   force =     0.54711879   -0.31602217    0.00000000
     atom    7 type  4   force =     2.50265029    6.37669124  -12.64340722
     atom    8 type  4   force =    -6.93072917   -0.97247220  -12.05702508
     atom    9 type  4   force =     4.36882501   -5.46626321  -12.27502521
     atom   10 type  4   force =     6.91792304   -1.05309362   12.27502521
     atom   11 type  4   force =    -4.27315048   -5.35402975   12.64340721
     atom   12 type  4   force =    -2.62063539    6.48945137   12.05702508
     The local contribution  to forces
     atom    1 type  1   force =    -1.39809266    0.80758388   -0.00002270
     atom    2 type  1   force =     0.37536438   -0.21692127   -0.00003269
     atom    3 type  1   force =     1.10080765   -0.63578974   -0.00003236
     atom    4 type  1   force =     0.02553135   -0.01462006    0.00001647
     atom    5 type  2   force =     0.41403853   -0.23975201    0.00022688
     atom    6 type  3   force =    -0.54427789    0.31432876    0.00017313
     atom    7 type  4   force =    -2.16181452   -6.01697811   12.13637306
     atom    8 type  4   force =     6.52286815    1.13468112   11.48889144
     atom    9 type  4   force =    -4.25392243    5.06904426   11.66826407
     atom   10 type  4   force =    -6.51653061    1.15203972  -11.66827722
     atom   11 type  4   force =     4.13186846    4.87902401  -12.13630040
     atom   12 type  4   force =     2.27634472   -6.21720803  -11.48888156
     The core correction contribution to forces
     atom    1 type  1   force =     0.00000000    0.00000000    0.00000000
     atom    2 type  1   force =     0.00000000    0.00000000    0.00000000
     atom    3 type  1   force =     0.00000000    0.00000000    0.00000000
     atom    4 type  1   force =     0.00000000    0.00000000    0.00000000
     atom    5 type  2   force =     0.00030288   -0.00017838    0.00000028
     atom    6 type  3   force =     0.00000000    0.00000000    0.00000000
     atom    7 type  4   force =     0.00324173    0.00391458   -0.00560359
     atom    8 type  4   force =    -0.00429812    0.00126552   -0.00595276
     atom    9 type  4   force =     0.00154597   -0.00392048   -0.00648390
     atom   10 type  4   force =     0.00416900    0.00061967    0.00648389
     atom   11 type  4   force =    -0.00177068   -0.00476331    0.00560380
     atom   12 type  4   force =    -0.00324404    0.00309094    0.00595210
     The Hubbard contrib.    to forces
     atom    1 type  1   force =     0.00000000    0.00000000    0.00000000
     atom    2 type  1   force =     0.00000000    0.00000000    0.00000000
     atom    3 type  1   force =     0.00000000    0.00000000    0.00000000
     atom    4 type  1   force =     0.00000000    0.00000000    0.00000000
     atom    5 type  2   force =     0.00000000    0.00000000    0.00000000
     atom    6 type  3   force =     0.00000000    0.00000000    0.00000000
     atom    7 type  4   force =     0.00000000    0.00000000    0.00000000
     atom    8 type  4   force =     0.00000000    0.00000000    0.00000000
     atom    9 type  4   force =     0.00000000    0.00000000    0.00000000
     atom   10 type  4   force =     0.00000000    0.00000000    0.00000000
     atom   11 type  4   force =     0.00000000    0.00000000    0.00000000
     atom   12 type  4   force =     0.00000000    0.00000000    0.00000000
     The SCF correction term to forces
     atom    1 type  1   force =    -0.00005419    0.00000899    0.00002167
     atom    2 type  1   force =     0.00011098    0.00001399    0.00002661
     atom    3 type  1   force =    -0.00006869    0.00000139    0.00002980
     atom    4 type  1   force =     0.00005588   -0.00012435   -0.00001639
     atom    5 type  2   force =    -0.00026920    0.00066777   -0.00023346
     atom    6 type  3   force =    -0.00002439    0.00011142   -0.00018488
     atom    7 type  4   force =     0.00006653   -0.00005380   -0.00000001
     atom    8 type  4   force =    -0.00002774    0.00010503   -0.00007383
     atom    9 type  4   force =    -0.00017720   -0.00001389   -0.00005204
     atom   10 type  4   force =     0.00004320    0.00013024    0.00005518
     atom   11 type  4   force =     0.00010829    0.00001288   -0.00001021
     atom   12 type  4   force =    -0.00011698   -0.00001458    0.00000390

     Total force =     0.077065     Total SCF correction =     0.000876

     Computing stress (Cartesian axis) and pressure

          total   stress  (Ry/bohr**3)                   (kbar)     P=     -494.71
  -0.00345475   0.00009697  -0.00008408         -508.21       14.26      -12.37
   0.00009697  -0.00334430  -0.00014530           14.26     -491.96      -21.37
  -0.00008408  -0.00014530  -0.00328985          -12.37      -21.37     -483.95

     kinetic stress (kbar)  29729.58    -11.60    -20.08
                              -11.60  29716.92    -34.88
                              -20.08    -34.88  30301.65

     local   stress (kbar) -28567.53   -460.89   -206.64
                             -460.89 -29100.13   -357.54
                             -206.64   -357.54   6521.73

     nonloc. stress (kbar)   6458.38      2.78     -4.62
                                2.78   6461.39     -7.98
                               -4.62     -7.98   6557.81

     hartree stress (kbar)  22650.43    208.09    102.72
                              208.09  22890.65    177.77
                              102.72    177.77   6977.01

     exc-cor stress (kbar)  -6159.94      0.16      0.22
                                0.16  -6159.76      0.39
                                0.22      0.39  -6162.82

     corecor stress (kbar)   -981.96      0.04      0.07
                                0.04   -981.91      0.12
                                0.07      0.12   -984.22

     ewald   stress (kbar) -23637.16    275.68    115.95
                              275.68 -23319.13    200.74
                              115.95    200.74 -43695.11

     hubbard stress (kbar)      0.00      0.00      0.00
                                0.00      0.00      0.00
                                0.00      0.00      0.00

     DFT-D   stress (kbar)      0.00      0.00      0.00
                                0.00      0.00      0.00
                                0.00      0.00      0.00

     XDM     stress (kbar)      0.00      0.00      0.00
                                0.00      0.00      0.00
                                0.00      0.00      0.00

     dft-nl  stress (kbar)      0.00      0.00      0.00
                                0.00      0.00      0.00
                                0.00      0.00      0.00

     TS-vdW  stress (kbar)      0.00      0.00      0.00
                                0.00      0.00      0.00
                                0.00      0.00      0.00

[...]

                                0.00      0.00      0.00

     Writing all to output data dir new_calculations/myprefix.save/

     General routines

     Parallel routines

     PAW routines

   This run was terminated on:  11:48: 4  20May2023

   JOB DONE.