     Program PWSCF v.7.0 starts on 20May2023 at  5:55:56

     Reading input from espresso_19078.pwi
Warning: card &CELL ignored
Warning: card / ignored

     Current dimensions of program PWSCF are:
     Max number of different atomic species (ntypx) = 10
     Max number of k-points (npk) =  40000
     Max angular momentum in pseudopotentials (lmaxx) =  4

     gamma-point specific algorithms are used
     Message from routine setup:
     using ibrav=0 with symmetry is DISCOURAGED, use correct ibrav instead

     Subspace diagonalization in iterative solution of the eigenvalue problem:
     a serial algorithm will be used

     Using Slab Decomposition

     bravais-lattice index     =            0
     lattice parameter (alat)  =       8.7043  a.u.
     unit-cell volume          =     295.1061 (a.u.)^3
     number of atoms/cell      =            4
     number of atomic types    =            3
     number of electrons       =        33.00
     number of Kohn-Sham states=           21
     kinetic-energy cutoff     =      30.0000  Ry
     charge density cutoff     =     240.0000  Ry
     scf convergence threshold =      1.0E-06
     mixing beta               =       0.7000
     number of iterations used =            8  plain     mixing
     Exchange-correlation= PBE
                           (   1   4   3   4   0   0   0)

     celldm(1)=   8.704341  celldm(2)=   0.000000  celldm(3)=   0.000000
     celldm(4)=   0.000000  celldm(5)=   0.000000  celldm(6)=   0.000000

     crystal axes: (cart. coord. in units of alat)
               a(1) = (   1.000000   0.000000   0.000000 )
               a(2) = (  -0.752212   0.658922   0.000000 )
               a(3) = (   0.000000   0.000000   0.679105 )

     reciprocal axes: (cart. coord. in units 2 pi/alat)
               b(1) = (  1.000000  1.141580  0.000000 )
               b(2) = (  0.000000  1.517631  0.000000 )
               b(3) = (  0.000000  0.000000  1.472527 )

     PseudoPot. # 1 for Ta read from file:
     /home/pragov/projects/rrg-bengioy-ad/pragov/crystal_structure_design/SSSP/Ta_pbe_v1.uspp.F.UPF
     MD5 check sum: f8bbe9446314a3b8ea5d9f3e3836c939
     Pseudo is Ultrasoft + core correction, Zval = 13.0
     Generated by new atomic code, or converted to UPF format
     Using radial grid of  921 points,  7 beta functions with:
                l(1) =   0
                l(2) =   0
                l(3) =   1
                l(4) =   1
                l(5) =   2
                l(6) =   2
                l(7) =   3
     Q(r) pseudized with  6 coefficients,  rinner =    1.300   1.300   1.300
                                                       1.300   1.300   1.300
                                                       1.300

     PseudoPot. # 2 for B  read from file:
     /home/pragov/projects/rrg-bengioy-ad/pragov/crystal_structure_design/SSSP/b_pbe_v1.4.uspp.F.UPF
     MD5 check sum: cc6de2960df11db49a60e589f9ebb39b
     Pseudo is Ultrasoft + core correction, Zval =  3.0
     Generated by new atomic code, or converted to UPF format
     Using radial grid of  781 points,  4 beta functions with:
                l(1) =   0
                l(2) =   0
                l(3) =   1
                l(4) =   1
     Q(r) pseudized with  8 coefficients,  rinner =    1.100   1.100   1.100

     PseudoPot. # 3 for Mo read from file:
     /home/pragov/projects/rrg-bengioy-ad/pragov/crystal_structure_design/SSSP/Mo_ONCV_PBE-1.0.oncvpsp.upf
     MD5 check sum: 1b5d28e075c9ccadda658a603575cd1f
     Pseudo is Norm-conserving, Zval = 14.0
     Generated using ONCVPSP code by D. R. Hamann
     Using radial grid of 1526 points,  6 beta functions with:
                l(1) =   0
                l(2) =   0
                l(3) =   1
                l(4) =   1
                l(5) =   2
                l(6) =   2

     atomic species   valence    mass     pseudopotential
        Ta            13.00   180.94788     Ta( 1.00)
        B              3.00    10.81000     B ( 1.00)
        Mo            14.00    95.95000     Mo( 1.00)

      2 Sym. Ops. (no inversion) found

                                    s                        frac. trans.

      isym =  1     identity

 cryst.   s( 1) = (     1          0          0      )
                  (     0          1          0      )
                  (     0          0          1      )

 cart.    s( 1) = (  1.0000000  0.0000000  0.0000000 )
                  (  0.0000000  1.0000000  0.0000000 )
                  (  0.0000000  0.0000000  1.0000000 )

      isym =  2     inv. 180 deg rotation - cart. axis [0,0,1]

 cryst.   s( 2) = (     1          0          0      )
                  (     0          1          0      )
                  (     0          0         -1      )

 cart.    s( 2) = (  1.0000000  0.0000000  0.0000000 )
                  (  0.0000000  1.0000000  0.0000000 )
                  (  0.0000000  0.0000000 -1.0000000 )

   Cartesian axes

     site n.     atom                  positions (alat units)
         1           Ta  tau(   1) = (   0.7439844   0.0962751   0.0000000  )
         2           B   tau(   2) = (   0.0221258   0.3677310   0.3395523  )
         3           B   tau(   3) = (   0.2283681   0.2901733   0.0000000  )
         4           Mo  tau(   4) = (  -0.4989031   0.5636647   0.3395523  )

   Crystallographic axes

     site n.     atom                  positions (cryst. coord.)
         1           Ta  tau(   1) = (  0.8538900  0.1461100  0.0000000  )
         2           B   tau(   2) = (  0.4419200  0.5580800  0.5000000  )
         3           B   tau(   3) = (  0.5596240  0.4403760  0.0000000  )
         4           Mo  tau(   4) = (  0.1445650  0.8554350  0.5000000  )

     number of k points=     1  Methfessel-Paxton smearing, width (Ry)=  0.0010
                       cart. coord. in units 2pi/alat
        k(    1) = (   0.0000000   0.0000000   0.0000000), wk =   2.0000000

                       cryst. coord.
        k(    1) = (   0.0000000   0.0000000   0.0000000), wk =   2.0000000

     Check: negative core charge=   -0.000002

     Initial potential from superposition of free atoms

     starting charge      32.9973, renormalised to      33.0000

     negative rho (up, down):  9.286E-02 0.000E+00
     Starting wfcs are   31 randomized atomic wfcs

     Self-consistent Calculation

     iteration #  1     ecut=    30.00 Ry     beta= 0.70
     Davidson diagonalization with overlap

     ethr =  1.00E-02,  avg # of iterations =  2.0

     negative rho (up, down):  9.329E-02 0.000E+00

     total energy              =    -291.39155967 Ry
     estimated scf accuracy    <       0.41072379 Ry

[...]

     total energy              =    -291.56035121 Ry
     estimated scf accuracy    <       0.00000382 Ry

     iteration # 10     ecut=    30.00 Ry     beta= 0.70
     Davidson diagonalization with overlap

     ethr =  1.16E-08,  avg # of iterations =  4.0

[...]

     End of self-consistent calculation

          k = 0.0000 0.0000 0.0000 (   407 PWs)   bands (ev):

   -48.0626 -41.8311 -16.2519 -15.9851 -15.6749 -14.7435 -14.6348 -14.1991
     6.7232  11.3034  15.0552  15.6095  15.6213  15.9001  17.9938  19.0312
    19.2325  19.4654  21.0376  22.1929  22.3748

     occupation numbers
     1.0000   1.0000   1.0000   1.0000   1.0000   1.0000   1.0000   1.0000
     1.0000   1.0000   1.0000   1.0000   1.0000   1.0000   1.0000   1.0000
     0.5000  -0.0000  -0.0000  -0.0000  -0.0000

     the Fermi energy is    19.2325 ev

!    total energy              =    -291.56035174 Ry
     estimated scf accuracy    <       0.00000029 Ry
     smearing contrib. (-TS)   =      -0.00028209 Ry
     internal energy E=F+TS    =    -291.56006964 Ry

     The total energy is F=E-TS. E is the sum of the following terms:
     one-electron contribution =     -32.16788433 Ry
     hartree contribution      =      35.73293243 Ry
     xc contribution           =     -64.15435025 Ry
     ewald contribution        =    -230.97076750 Ry

     convergence has been achieved in  10 iterations

     negative rho (up, down):  9.450E-02 0.000E+00

     Forces acting on atoms (cartesian axes, Ry/au):

     atom    1 type  1   force =     0.13752439   -0.05182979    0.00000000
     atom    2 type  2   force =     0.22027526   -0.08281848    0.00000000
     atom    3 type  2   force =    -0.23697251    0.08907884    0.00000000
     atom    4 type  3   force =    -0.12082714    0.04556943    0.00000000
     The non-local contrib.  to forces
     atom    1 type  1   force =     0.05883086   -0.02224073    0.00000000
     atom    2 type  2   force =    -0.06650023    0.02501776    0.00000000
     atom    3 type  2   force =     0.07245867   -0.02725013    0.00000000
     atom    4 type  3   force =    -0.18701344    0.07045351    0.00000000
     The ionic contribution  to forces
     atom    1 type  1   force =     0.44798213   -0.16846434   -0.00000000
     atom    2 type  2   force =    -0.24877968    0.09355396    0.00000000
     atom    3 type  2   force =    -0.18265145    0.06868635    0.00000000
     atom    4 type  3   force =    -0.01655100    0.00622403    0.00000000
     The local contribution  to forces
     atom    1 type  1   force =    -0.33617181    0.12605461   -0.00061597
     atom    2 type  2   force =     0.52995435   -0.19926339    0.00003328
     atom    3 type  2   force =    -0.12065739    0.04530792   -0.00010762
     atom    4 type  3   force =     0.08285672   -0.03066562    0.00080739
     The core correction contribution to forces
     atom    1 type  1   force =    -0.03358148    0.01262795   -0.00000623
     atom    2 type  2   force =     0.00572084   -0.00215166   -0.00000021
     atom    3 type  2   force =    -0.00598080    0.00224816   -0.00000125
     atom    4 type  3   force =     0.00000000    0.00000000    0.00000000
     The Hubbard contrib.    to forces
     atom    1 type  1   force =     0.00000000    0.00000000    0.00000000
     atom    2 type  2   force =     0.00000000    0.00000000    0.00000000
     atom    3 type  2   force =     0.00000000    0.00000000    0.00000000
     atom    4 type  3   force =     0.00000000    0.00000000    0.00000000
     The SCF correction term to forces
     atom    1 type  1   force =     0.00047925    0.00017776    0.00059374
     atom    2 type  2   force =    -0.00010546    0.00000989   -0.00003806
     atom    3 type  2   force =    -0.00012697    0.00007159    0.00004763
     atom    4 type  3   force =    -0.00010486   -0.00045745   -0.00085749

     Total force =     0.397173     Total SCF correction =     0.001267

     Computing stress (Cartesian axis) and pressure

     negative rho (up, down):  9.450E-02 0.000E+00
          total   stress  (Ry/bohr**3)                   (kbar)     P=      102.56
  -0.00099377   0.00148085   0.00000000         -146.19      217.84        0.00
   0.00148085   0.00239300   0.00000000          217.84      352.02        0.00
   0.00000000   0.00000000   0.00069229            0.00        0.00      101.84

     kinetic stress (kbar)  30223.49    478.90      0.00
                              478.90  31315.51      0.00
                                0.00      0.00  29839.41

     local   stress (kbar)  11496.39    427.70     -1.80
                              427.70  12476.04      0.81
                               -1.80      0.81  12922.12

     nonloc. stress (kbar)  -3045.89    -96.26      0.00
                              -96.26  -3265.58      0.00
                                0.00      0.00  -3122.25

     hartree stress (kbar)   6145.60   -146.60      0.60
                             -146.60   5809.87     -0.27
                                0.60     -0.27   5856.75

     exc-cor stress (kbar)   8102.16      4.93      0.01
                                4.93   8113.39     -0.01
                                0.01     -0.01   8102.37

     corecor stress (kbar) -15182.10     -3.34     -0.01
                               -3.34 -15189.70      0.01
                               -0.01      0.01 -15155.11

     ewald   stress (kbar) -37885.83   -447.48      0.00
                             -447.48 -38907.50     -0.00
                                0.00     -0.00 -38341.44

     hubbard stress (kbar)      0.00      0.00      0.00
                                0.00      0.00      0.00
                                0.00      0.00      0.00

     DFT-D   stress (kbar)      0.00      0.00      0.00
                                0.00      0.00      0.00
                                0.00      0.00      0.00

     XDM     stress (kbar)      0.00      0.00      0.00
                                0.00      0.00      0.00
                                0.00      0.00      0.00

     dft-nl  stress (kbar)      0.00      0.00      0.00
                                0.00      0.00      0.00
                                0.00      0.00      0.00

     TS-vdW  stress (kbar)      0.00      0.00      0.00
                                0.00      0.00      0.00
                                0.00      0.00      0.00

[...]

                                0.00      0.00      0.00

     Writing all to output data dir new_calculations/myprefix.save/

     General routines

     Parallel routines

   This run was terminated on:   5:56:18  20May2023

   JOB DONE.