     Program PWSCF v.7.0 starts on 20May2023 at  3:51:41

     Reading input from espresso_1126.pwi
Warning: card &CELL ignored
Warning: card / ignored

     Current dimensions of program PWSCF are:
     Max number of different atomic species (ntypx) = 10
     Max number of k-points (npk) =  40000
     Max angular momentum in pseudopotentials (lmaxx) =  4

     gamma-point specific algorithms are used
     Message from routine setup:
     using ibrav=0 with symmetry is DISCOURAGED, use correct ibrav instead

     Subspace diagonalization in iterative solution of the eigenvalue problem:
     a serial algorithm will be used

     Using Slab Decomposition

     bravais-lattice index     =            0
     lattice parameter (alat)  =      19.6880  a.u.
     unit-cell volume          =     811.1624 (a.u.)^3
     number of atoms/cell      =            6
     number of atomic types    =            3
     number of electrons       =        48.00
     number of Kohn-Sham states=           29
     kinetic-energy cutoff     =      30.0000  Ry
     charge density cutoff     =     240.0000  Ry
     scf convergence threshold =      1.0E-06
     mixing beta               =       0.7000
     number of iterations used =            8  plain     mixing
     Exchange-correlation= PBE
                           (   1   4   3   4   0   0   0)

     celldm(1)=  19.687970  celldm(2)=   0.000000  celldm(3)=   0.000000
     celldm(4)=   0.000000  celldm(5)=   0.000000  celldm(6)=   0.000000

     crystal axes: (cart. coord. in units of alat)
               a(1) = (   1.000000   0.000000   0.000000 )
               a(2) = (   0.937308   0.348503   0.000000 )
               a(3) = (   0.937308   0.168613   0.304999 )

     reciprocal axes: (cart. coord. in units 2 pi/alat)
               b(1) = (  1.000000 -2.689523 -1.586300 )
               b(2) = (  0.000000  2.869413 -1.586300 )
               b(3) = (  0.000000  0.000000  3.278702 )

     PseudoPot. # 1 for Zr read from file:
     /home/pragov/projects/rrg-bengioy-ad/pragov/crystal_structure_design/SSSP/Zr_pbe_v1.uspp.F.UPF
     MD5 check sum: 5db81b1e868ab7776c4564c113de050b
     Pseudo is Ultrasoft + core correction, Zval = 12.0
     Generated by new atomic code, or converted to UPF format
     Using radial grid of  887 points,  6 beta functions with:
                l(1) =   0
                l(2) =   0
                l(3) =   1
                l(4) =   1
                l(5) =   2
                l(6) =   2
     Q(r) pseudized with  6 coefficients,  rinner =    1.200   1.200   1.200
                                                       1.200   1.200

     PseudoPot. # 2 for Br read from file:
     /home/pragov/projects/rrg-bengioy-ad/pragov/crystal_structure_design/SSSP/br_pbe_v1.4.uspp.F.UPF
     MD5 check sum: d3ffb7b29f6225aa16fe06858fb2a80b
     Pseudo is Ultrasoft + core correction, Zval =  7.0
     Generated by new atomic code, or converted to UPF format
     Using radial grid of  879 points,  6 beta functions with:
                l(1) =   0
                l(2) =   0
                l(3) =   1
                l(4) =   1
                l(5) =   2
                l(6) =   2
     Q(r) pseudized with  8 coefficients,  rinner =    1.100   1.100   1.100
                                                       1.100   1.100

     PseudoPot. # 3 for N  read from file:
     /home/pragov/projects/rrg-bengioy-ad/pragov/crystal_structure_design/SSSP/N.pbe-n-radius_5.UPF
     MD5 check sum: 16739722b17309cd8fe442a2ace49922
     Pseudo is Ultrasoft + core correction, Zval =  5.0
     Generated using "atomic" code by A. Dal Corso  v.5.1
     Using radial grid of 1085 points,  4 beta functions with:
                l(1) =   0
                l(2) =   0
                l(3) =   1
                l(4) =   1
     Q(r) pseudized with 0 coefficients

     atomic species   valence    mass     pseudopotential
        Zr            12.00    91.22400     Zr( 1.00)
        Br             7.00    79.90400     Br( 1.00)
        N              5.00    14.00700     N ( 1.00)

      2 Sym. Ops., with inversion, found

                                    s                        frac. trans.

      isym =  1     identity

 cryst.   s( 1) = (     1          0          0      )
                  (     0          1          0      )
                  (     0          0          1      )

 cart.    s( 1) = (  1.0000000 -0.0000000  0.0000000 )
                  (  0.0000000  1.0000000  0.0000000 )
                  (  0.0000000  0.0000000  1.0000000 )

      isym =  2     inversion

 cryst.   s( 2) = (    -1          0          0      )
                  (     0         -1          0      )
                  (     0          0         -1      )

 cart.    s( 2) = ( -1.0000000  0.0000000 -0.0000000 )
                  (  0.0000000 -1.0000000 -0.0000000 )
                  (  0.0000000  0.0000000 -1.0000000 )

   Cartesian axes

     site n.     atom                  positions (alat units)
         1           Zr  tau(   1) = (   2.5179559   0.4529564   0.2671570  )
         2           Zr  tau(   2) = (   0.3566593   0.0641596   0.0378418  )
         3           Br  tau(   3) = (   1.7468576   0.3142431   0.1853429  )
         4           Br  tau(   4) = (   1.1277575   0.2028729   0.1196559  )
         5           N   tau(   5) = (   2.3136771   0.4162086   0.2454828  )
         6           N   tau(   6) = (   0.5609380   0.1009074   0.0595159  )

   Crystallographic axes

     site n.     atom                  positions (cryst. coord.)
         1           Zr  tau(   1) = (  0.8759280  0.8759280  0.8759280  )
         2           Zr  tau(   2) = (  0.1240720  0.1240720  0.1240720  )
         3           Br  tau(   3) = (  0.6076840  0.6076840  0.6076840  )
         4           Br  tau(   4) = (  0.3923160  0.3923160  0.3923160  )
         5           N   tau(   5) = (  0.8048650  0.8048650  0.8048650  )
         6           N   tau(   6) = (  0.1951350  0.1951350  0.1951350  )

     number of k points=     1  Methfessel-Paxton smearing, width (Ry)=  0.0010
                       cart. coord. in units 2pi/alat
        k(    1) = (   0.0000000   0.0000000   0.0000000), wk =   2.0000000

                       cryst. coord.
        k(    1) = (   0.0000000   0.0000000   0.0000000), wk =   2.0000000

     Check: negative core charge=   -0.000003

     Initial potential from superposition of free atoms

     starting charge      47.9956, renormalised to      48.0000

     negative rho (up, down):  1.218E-01 0.000E+00
     Starting wfcs are   42 randomized atomic wfcs

     Self-consistent Calculation

     iteration #  1     ecut=    30.00 Ry     beta= 0.70
     Davidson diagonalization with overlap

     ethr =  1.00E-02,  avg # of iterations =  2.0

     negative rho (up, down):  1.253E-01 0.000E+00

     total energy              =    -331.66041759 Ry
     estimated scf accuracy    <       2.03886354 Ry

[...]

     total energy              =    -332.70094756 Ry
     estimated scf accuracy    <       0.00000144 Ry

     iteration # 11     ecut=    30.00 Ry     beta= 0.70
     Davidson diagonalization with overlap

     ethr =  3.00E-09,  avg # of iterations =  3.0

[...]

     End of self-consistent calculation

          k = 0.0000 0.0000 0.0000 (  1103 PWs)   bands (ev):

   -41.1406 -41.0909 -19.6287 -19.2239 -19.0084 -19.0083 -18.9269 -18.9268
    -6.6467  -6.0955  -5.4836  -5.3646   3.3792   3.3792   3.5740   3.9859
     3.9859   4.9283   5.4648   7.4924   7.4924   7.6106   7.6106   7.6808
     9.8951   9.8952  10.7507  10.9797  10.9797

     occupation numbers
     1.0000   1.0000   1.0000   1.0000   1.0000   1.0000   1.0000   1.0000
     1.0000   1.0000   1.0000   1.0000   1.0000   1.0000   1.0000   1.0000
     1.0000   1.0000   1.0000   1.0000   1.0000   1.0000   1.0000   1.0000
    -0.0000  -0.0000  -0.0000  -0.0000  -0.0000

     the Fermi energy is     7.8413 ev

!    total energy              =    -332.70094750 Ry
     estimated scf accuracy    <       0.00000051 Ry
     smearing contrib. (-TS)   =       0.00000000 Ry
     internal energy E=F+TS    =    -332.70094750 Ry

     The total energy is F=E-TS. E is the sum of the following terms:
     one-electron contribution =    -231.51663786 Ry
     hartree contribution      =     135.54110700 Ry
     xc contribution           =     -99.26011813 Ry
     ewald contribution        =    -137.46529851 Ry

     convergence has been achieved in  11 iterations

     negative rho (up, down):  1.253E-01 0.000E+00

     Forces acting on atoms (cartesian axes, Ry/au):

     atom    1 type  1   force =    -0.04991340   -0.00897947   -0.00531332
     atom    2 type  1   force =     0.04991340    0.00897947    0.00531332
     atom    3 type  2   force =    -0.02625853   -0.00472483   -0.00279640
     atom    4 type  2   force =     0.02625853    0.00472483    0.00279640
     atom    5 type  3   force =    -0.02034942   -0.00365999   -0.00215873
     atom    6 type  3   force =     0.02034942    0.00365999    0.00215873
     The non-local contrib.  to forces
     atom    1 type  1   force =    -0.11237998   -0.02021486   -0.01192501
     atom    2 type  1   force =     0.11237998    0.02021486    0.01192501
     atom    3 type  2   force =    -0.07444964   -0.01339485   -0.00790640
     atom    4 type  2   force =     0.07444964    0.01339485    0.00790640
     atom    5 type  3   force =     0.09283215    0.01670033    0.00985347
     atom    6 type  3   force =    -0.09283215   -0.01670033   -0.00985347
     The ionic contribution  to forces
     atom    1 type  1   force =    25.03397317    4.50337472    2.65612264
     atom    2 type  1   force =   -25.03397317   -4.50337472   -2.65612264
     atom    3 type  2   force =    18.87025199    3.39457965    2.00214625
     atom    4 type  2   force =   -18.87025199   -3.39457965   -2.00214625
     atom    5 type  3   force =    -7.74473222   -1.39320399   -0.82171995
     atom    6 type  3   force =     7.74473222    1.39320399    0.82171995
     The local contribution  to forces
     atom    1 type  1   force =   -24.98298586   -4.49420989   -2.65074939
     atom    2 type  1   force =    24.98302205    4.49421040    2.65075539
     atom    3 type  2   force =   -18.82087951   -3.38569846   -1.99691549
     atom    4 type  2   force =    18.82069714    3.38566475    1.99689791
     atom    5 type  3   force =     7.63205052    1.37294027    0.80975882
     atom    6 type  3   force =    -7.63229221   -1.37297352   -0.80978195
     The core correction contribution to forces
     atom    1 type  1   force =     0.01074367    0.00193229    0.00113880
     atom    2 type  1   force =    -0.01074932   -0.00193351   -0.00113931
     atom    3 type  2   force =    -0.00133321   -0.00024027   -0.00014234
     atom    4 type  2   force =     0.00132771    0.00023916    0.00014175
     atom    5 type  3   force =    -0.00041666   -0.00007491   -0.00004430
     atom    6 type  3   force =     0.00041202    0.00007415    0.00004376
     The Hubbard contrib.    to forces
     atom    1 type  1   force =     0.00000000    0.00000000    0.00000000
     atom    2 type  1   force =     0.00000000    0.00000000    0.00000000
     atom    3 type  2   force =     0.00000000    0.00000000    0.00000000
     atom    4 type  2   force =     0.00000000    0.00000000    0.00000000
     atom    5 type  3   force =     0.00000000    0.00000000    0.00000000
     atom    6 type  3   force =     0.00000000    0.00000000    0.00000000
     The SCF correction term to forces
     atom    1 type  1   force =     0.00068038    0.00012678    0.00009534
     atom    2 type  1   force =    -0.00082137   -0.00014905   -0.00010941
     atom    3 type  2   force =     0.00016506    0.00003143    0.00002375
     atom    4 type  2   force =     0.00004923    0.00000804   -0.00000125
     atom    5 type  3   force =    -0.00024507   -0.00004785   -0.00002386
     atom    6 type  3   force =     0.00016770    0.00002954    0.00001332

     Total force =     0.086626     Total SCF correction =     0.001149

     Computing stress (Cartesian axis) and pressure

     negative rho (up, down):  1.253E-01 0.000E+00
          total   stress  (Ry/bohr**3)                   (kbar)     P=       35.86
  -0.00057390  -0.00022556  -0.00013315          -84.42      -33.18      -19.59
  -0.00022556   0.00063926  -0.00002399          -33.18       94.04       -3.53
  -0.00013315  -0.00002399   0.00066592          -19.59       -3.53       97.96

     kinetic stress (kbar)  11554.24    -52.40    -30.91
                              -52.40  11836.10     -5.56
                              -30.91     -5.56  11842.26

     local   stress (kbar)  30804.64  12090.60   7131.10
                            12090.60 -34231.26   1282.81
                             7131.10   1282.81 -35649.61

     nonloc. stress (kbar)   4833.82      5.96      3.52
                                5.96   4801.75      0.63
                                3.52      0.63   4801.04

     hartree stress (kbar) -12532.73  -5717.37  -3372.14
                            -5717.37  18221.26   -606.62
                            -3372.14   -606.62  18891.97

     exc-cor stress (kbar)   6499.67     -0.83     -0.49
                               -0.83   6504.15     -0.09
                               -0.49     -0.09   6504.25

     corecor stress (kbar)  -9868.92      3.47      2.05
                                3.47  -9887.60      0.37
                                2.05      0.37  -9888.01

     ewald   stress (kbar) -31375.14  -6362.61  -3752.71
                            -6362.61   2849.63   -675.08
                            -3752.71   -675.08   3596.04

     hubbard stress (kbar)      0.00      0.00      0.00
                                0.00      0.00      0.00
                                0.00      0.00      0.00

     DFT-D   stress (kbar)      0.00      0.00      0.00
                                0.00      0.00      0.00
                                0.00      0.00      0.00

     XDM     stress (kbar)      0.00      0.00      0.00
                                0.00      0.00      0.00
                                0.00      0.00      0.00

     dft-nl  stress (kbar)      0.00      0.00      0.00
                                0.00      0.00      0.00
                                0.00      0.00      0.00

     TS-vdW  stress (kbar)      0.00      0.00      0.00
                                0.00      0.00      0.00
                                0.00      0.00      0.00

[...]

                                0.00      0.00      0.00

     Writing all to output data dir new_calculations/myprefix.save/

     General routines

     Parallel routines

   This run was terminated on:   3:52: 5  20May2023

   JOB DONE.