     Program PWSCF v.7.0 starts on 21May2023 at  6:28:11

     Reading input from espresso_18945.pwi
Warning: card &CELL ignored
Warning: card / ignored

     Current dimensions of program PWSCF are:
     Max number of different atomic species (ntypx) = 10
     Max number of k-points (npk) =  40000
     Max angular momentum in pseudopotentials (lmaxx) =  4
     file Ga.pbe-dn-kjpaw_psl.1.0.0.UPF: wavefunction(s)  4S renormalized

     gamma-point specific algorithms are used
     Message from routine setup:
     using ibrav=0 with symmetry is DISCOURAGED, use correct ibrav instead

     Subspace diagonalization in iterative solution of the eigenvalue problem:
     a serial algorithm will be used

     Using Slab Decomposition

     bravais-lattice index     =            0
     lattice parameter (alat)  =       9.1925  a.u.
     unit-cell volume          =     597.9687 (a.u.)^3
     number of atoms/cell      =            5
     number of atomic types    =            2
     number of electrons       =        67.00
     number of Kohn-Sham states=           41
     kinetic-energy cutoff     =      30.0000  Ry
     charge density cutoff     =     240.0000  Ry
     scf convergence threshold =      1.0E-06
     mixing beta               =       0.7000
     number of iterations used =            8  plain     mixing
     Exchange-correlation= SLA  PW   PBX  PBC
                           (   1   4   3   4   0   0   0)

     celldm(1)=   9.192496  celldm(2)=   0.000000  celldm(3)=   0.000000
     celldm(4)=   0.000000  celldm(5)=   0.000000  celldm(6)=   0.000000

     crystal axes: (cart. coord. in units of alat)
               a(1) = (   1.000000   0.000000   0.000000 )
               a(2) = (  -0.333333   0.942809   0.000000 )
               a(3) = (  -0.333333  -0.471405   0.816497 )

     reciprocal axes: (cart. coord. in units 2 pi/alat)
               b(1) = (  1.000000  0.353553  0.612372 )
               b(2) = (  0.000000  1.060660  0.612372 )
               b(3) = (  0.000000  0.000000  1.224745 )

     PseudoPot. # 1 for Mn read from file:
     /home/pragov/projects/rrg-bengioy-ad/pragov/crystal_structure_design/SSSP/mn_pbe_v1.5.uspp.F.UPF
     MD5 check sum: 82ef2b46521d7a7d9e736dc3972e4928
     Pseudo is Ultrasoft + core correction, Zval = 15.0
     Generated by new atomic code, or converted to UPF format
     Using radial grid of  859 points,  6 beta functions with:
                l(1) =   0
                l(2) =   0
                l(3) =   1
                l(4) =   1
                l(5) =   2
                l(6) =   2
     Q(r) pseudized with  8 coefficients,  rinner =    0.950   0.950   0.950
                                                       0.950   0.950

     PseudoPot. # 2 for Ga read from file:
     /home/pragov/projects/rrg-bengioy-ad/pragov/crystal_structure_design/SSSP/Ga.pbe-dn-kjpaw_psl.1.0.0.UPF
     MD5 check sum: a27b4342b1af7e5f338de752e9ed7044
     Pseudo is Projector augmented-wave + core cor, Zval = 13.0
     Generated using "atomic" code by A. Dal Corso  v.5.1
     Shape of augmentation charge: PSQ
     Using radial grid of 1205 points,  6 beta functions with:
                l(1) =   0
                l(2) =   0
                l(3) =   1
                l(4) =   1
                l(5) =   2
                l(6) =   2
     Q(r) pseudized with 0 coefficients

     atomic species   valence    mass     pseudopotential
        Mn            15.00    54.93804     Mn( 1.00)
        Ga            13.00    69.72300     Ga( 1.00)

      4 Sym. Ops., with inversion, found

                                    s                        frac. trans.

      isym =  1     identity

 cryst.   s( 1) = (     1          0          0      )
                  (     0          1          0      )
                  (     0          0          1      )

 cart.    s( 1) = (  1.0000000  0.0000000 -0.0000000 )
                  (  0.0000000  1.0000000 -0.0000000 )
                  (  0.0000000  0.0000000  1.0000000 )

      isym =  2     180 deg rotation - cart. axis [0,0,1]

[...]

      isym =  3     inversion

[...]

      isym =  4     inv. 180 deg rotation - cart. axis [0,0,1]

 cryst.   s( 4) = (     1          0          0      )
                  (     0          1          0      )
                  (    -1         -1         -1      )

 cart.    s( 4) = (  1.0000000  0.0000000 -0.0000000 )
                  (  0.0000000  1.0000000 -0.0000000 )
                  (  0.0000000  0.0000000 -1.0000000 )

   Cartesian axes

     site n.     atom                  positions (alat units)
         1           Mn  tau(   1) = (   0.0000000   0.0000000   0.0000000  )
         2           Ga  tau(   2) = (  -0.1666667  -0.2357023   0.4082483  )
         3           Ga  tau(   3) = (  -0.1666667   0.4714045   0.0000000  )
         4           Ga  tau(   4) = (   0.5000000   0.0000000   0.0000000  )
         5           Ga  tau(   5) = (   0.1666667   0.2357023   0.4082483  )

   Crystallographic axes

     site n.     atom                  positions (cryst. coord.)
         1           Mn  tau(   1) = (  0.0000000  0.0000000  0.0000000  )
         2           Ga  tau(   2) = (  0.0000000  0.0000000  0.5000000  )
         3           Ga  tau(   3) = (  0.0000000  0.5000000  0.0000000  )
         4           Ga  tau(   4) = (  0.5000000  0.0000000  0.0000000  )
         5           Ga  tau(   5) = (  0.5000000  0.5000000  0.5000000  )

     number of k points=     1  Methfessel-Paxton smearing, width (Ry)=  0.0010
                       cart. coord. in units 2pi/alat
        k(    1) = (   0.0000000   0.0000000   0.0000000), wk =   2.0000000

                       cryst. coord.
        k(    1) = (   0.0000000   0.0000000   0.0000000), wk =   2.0000000

     Check: negative core charge=   -0.000009

     Initial potential from superposition of free atoms

     starting charge      66.4881, renormalised to      67.0000
     Starting wfcs are   49 randomized atomic wfcs
     Checking if some PAW data can be deallocated...

     Self-consistent Calculation

     iteration #  1     ecut=    30.00 Ry     beta= 0.70
     Davidson diagonalization with overlap

     ethr =  1.00E-02,  avg # of iterations =  4.0
     Minimization algorithm failed to find Fermi energy: reverting to bisection
     Possible cause: smearing is larger than the electronic band-gap.

     total energy              =   -1320.37598237 Ry
     estimated scf accuracy    <       1.37473306 Ry

[...]

     ethr =  2.05E-03,  avg # of iterations =  6.0

[...]

     ethr =  5.25E-05,  avg # of iterations =  1.0
     Minimization algorithm failed to find Fermi energy: reverting to bisection
     Possible cause: smearing is larger than the electronic band-gap.

[...]

     total energy              =   -1321.07462239 Ry
     estimated scf accuracy    <       0.00002252 Ry

     iteration # 60     ecut=    30.00 Ry     beta= 0.70
     Davidson diagonalization with overlap

     ethr =  1.24E-08,  avg # of iterations =  1.0

     End of self-consistent calculation

          k = 0.0000 0.0000 0.0000 (   801 PWs)   bands (ev):

   -69.4036 -38.0994 -37.8376 -37.5552  -5.3811  -5.3603  -5.1153  -5.1045
    -5.0897  -5.0564  -5.0334  -5.0099  -5.0064  -4.9411  -4.8790  -4.8659
    -4.8172  -4.7373  -4.7007  -4.6033  -4.5916  -4.5724  -4.5007  -4.4430
     0.0256   6.7799   6.8903   6.9336   9.1000   9.1316   9.1428   9.6104
     9.6820   9.6929   9.6945   9.6953  11.7121  12.1265  12.5251  16.0258
    16.4522

     occupation numbers
     1.0000   1.0000   1.0000   1.0000   1.0000   1.0000   1.0000   1.0000
     1.0000   1.0000   1.0000   1.0000   1.0000   1.0000   1.0000   1.0000
     1.0000   1.0000   1.0000   1.0000   1.0000   1.0000   1.0000   1.0000
     1.0000   1.0000   1.0000   1.0000   1.0000   1.0000   1.0000   1.0000
     0.8796   0.2712   0.1923   0.1568  -0.0000  -0.0000  -0.0000  -0.0000
    -0.0000

     the Fermi energy is     9.6891 ev

!    total energy              =   -1321.07462182 Ry
     estimated scf accuracy    <       0.00000095 Ry
     smearing contrib. (-TS)   =      -0.00062016 Ry
     internal energy E=F+TS    =   -1321.07400166 Ry

     The total energy is F=E-TS. E is the sum of the following terms:
     one-electron contribution =    -524.09664584 Ry
     hartree contribution      =     321.61827840 Ry
     xc contribution           =    -178.15312086 Ry
     ewald contribution        =    -497.46326472 Ry
     one-center paw contrib.   =    -442.97924863 Ry
      -> PAW hartree energy AE =     573.01913122 Ry
      -> PAW hartree energy PS =    -563.36292515 Ry
      -> PAW xc energy AE      =    -603.28374733 Ry
      -> PAW xc energy PS      =     150.64829264 Ry
      -> total E_H with PAW    =     331.27448446 Ry
      -> total E_XC with PAW   =    -630.78857555 Ry

     convergence has been achieved in  60 iterations

     Forces acting on atoms (cartesian axes, Ry/au):

     atom    1 type  1   force =     0.00000000    0.00000000    0.00000000
     atom    2 type  2   force =     0.00000000   -0.00000000   -0.00000000
     atom    3 type  2   force =     0.00000000    0.00000000    0.00000000
     atom    4 type  2   force =     0.00000000    0.00000000    0.00000000
     atom    5 type  2   force =     0.00000000    0.00000000   -0.00000000
     The non-local contrib.  to forces
     atom    1 type  1   force =     0.00000000    0.00000000    0.00000000
     atom    2 type  2   force =     0.00000000    0.00000000   -0.00000000
     atom    3 type  2   force =     0.00000000    0.00000000    0.00000000
     atom    4 type  2   force =     0.00000000    0.00000000    0.00000000
     atom    5 type  2   force =     0.00000000    0.00000000    0.00000000
     The ionic contribution  to forces
     atom    1 type  1   force =    -0.00000000    0.00000000    0.00000000
     atom    2 type  2   force =     0.00000000    0.00000000   -0.00000000
     atom    3 type  2   force =     0.00000000   -0.00000000    0.00000000
     atom    4 type  2   force =     0.00000000    0.00000000    0.00000000
     atom    5 type  2   force =    -0.00000000   -0.00000000   -0.00000000
     The local contribution  to forces
     atom    1 type  1   force =     0.00035217    0.00077176    0.00022310
     atom    2 type  2   force =    -0.00011240   -0.00016945    0.00029830
     atom    3 type  2   force =     0.00017073   -0.00058668   -0.00007817
     atom    4 type  2   force =    -0.00040703    0.00002130    0.00003182
     atom    5 type  2   force =    -0.00003155   -0.00053265   -0.00054240
     The core correction contribution to forces
     atom    1 type  1   force =     0.00000039    0.00000265    0.00000105
     atom    2 type  2   force =    -0.00000266   -0.00000388    0.00000288
     atom    3 type  2   force =     0.00000182   -0.00000754   -0.00000114
     atom    4 type  2   force =    -0.00000460   -0.00000162   -0.00000030
     atom    5 type  2   force =     0.00000087   -0.00000857   -0.00000582
     The Hubbard contrib.    to forces
     atom    1 type  1   force =     0.00000000    0.00000000    0.00000000
     atom    2 type  2   force =     0.00000000    0.00000000    0.00000000
     atom    3 type  2   force =     0.00000000    0.00000000    0.00000000
     atom    4 type  2   force =     0.00000000    0.00000000    0.00000000
     atom    5 type  2   force =     0.00000000    0.00000000    0.00000000
     The SCF correction term to forces
     atom    1 type  1   force =    -0.00031396   -0.00070524   -0.00022675
     atom    2 type  2   force =     0.00012350    0.00016654   -0.00030093
     atom    3 type  2   force =    -0.00019392    0.00065551    0.00008745
     atom    4 type  2   force =     0.00040627   -0.00002037   -0.00003580
     atom    5 type  2   force =     0.00005970    0.00057501    0.00060937

     Total force =     0.000000     Total SCF correction =     0.001459

     Computing stress (Cartesian axis) and pressure

          total   stress  (Ry/bohr**3)                   (kbar)     P=     -398.48
  -0.00085322   0.00060254   0.00000000         -125.51       88.64        0.00
   0.00060254  -0.00371165   0.00000000           88.64     -546.00        0.00
   0.00000000   0.00000000  -0.00356146            0.00        0.00     -523.91

     kinetic stress (kbar)  16502.35     55.76     -0.00
                               55.76  16438.34     -0.00
                               -0.00     -0.00  16440.16

     local   stress (kbar)    -88.88    -80.85     91.15
                              -80.85   -144.45     -6.57
                               91.15     -6.57   -106.47

     nonloc. stress (kbar)   7586.74     94.68     -0.00
                               94.68   7269.87     -0.00
                               -0.00     -0.00   7252.56

     hartree stress (kbar)  26366.75     21.13    -20.67
                               21.13  26376.81     -4.38
                              -20.67     -4.38  26377.10

     exc-cor stress (kbar)   5467.08      0.13     -0.27
                                0.13   5467.68     -0.03
                               -0.27     -0.03   5467.89

     corecor stress (kbar) -15166.25     -2.22      3.21
                               -2.22 -15160.94     -0.91
                                3.21     -0.91 -15161.83

     ewald   stress (kbar) -40793.31     -0.00     -0.00
                               -0.00 -40793.31     -0.00
                               -0.00     -0.00 -40793.31

     hubbard stress (kbar)      0.00      0.00      0.00
                                0.00      0.00      0.00
                                0.00      0.00      0.00

     DFT-D   stress (kbar)      0.00      0.00      0.00
                                0.00      0.00      0.00
                                0.00      0.00      0.00

     XDM     stress (kbar)      0.00      0.00      0.00
                                0.00      0.00      0.00
                                0.00      0.00      0.00

     dft-nl  stress (kbar)      0.00      0.00      0.00
                                0.00      0.00      0.00
                                0.00      0.00      0.00

     TS-vdW  stress (kbar)      0.00      0.00      0.00
                                0.00      0.00      0.00
                                0.00      0.00      0.00

[...]

                                0.00      0.00      0.00

     Writing all to output data dir new_calculations/myprefix.save/

     General routines

     Parallel routines

     PAW routines

   This run was terminated on:   6:28:54  21May2023

   JOB DONE.