     Program PWSCF v.7.0 starts on 20May2023 at 11:50:21

     Reading input from espresso_14340.pwi
Warning: card &CELL ignored
Warning: card / ignored

     Current dimensions of program PWSCF are:
     Max number of different atomic species (ntypx) = 10
     Max number of k-points (npk) =  40000
     Max angular momentum in pseudopotentials (lmaxx) =  4

     gamma-point specific algorithms are used
     Message from routine setup:
     using ibrav=0 with symmetry is DISCOURAGED, use correct ibrav instead

     Subspace diagonalization in iterative solution of the eigenvalue problem:
     a serial algorithm will be used

     Using Slab Decomposition

     bravais-lattice index     =            0
     lattice parameter (alat)  =      14.0938  a.u.
     unit-cell volume          =    1751.8885 (a.u.)^3
     number of atoms/cell      =            8
     number of atomic types    =            2
     number of electrons       =       108.00
     number of Kohn-Sham states=           65
     kinetic-energy cutoff     =      30.0000  Ry
     charge density cutoff     =     240.0000  Ry
     scf convergence threshold =      1.0E-06
     mixing beta               =       0.7000
     number of iterations used =            8  plain     mixing
     Exchange-correlation= SLA  PW   PBE  PBE
                           (   1   4   3   4   0   0   0)

     celldm(1)=  14.093786  celldm(2)=   0.000000  celldm(3)=   0.000000
     celldm(4)=   0.000000  celldm(5)=   0.000000  celldm(6)=   0.000000

     crystal axes: (cart. coord. in units of alat)
               a(1) = (   1.000000   0.000000   0.000000 )
               a(2) = (  -0.500000   0.866025   0.000000 )
               a(3) = (   0.000000   0.000000   0.722591 )

     reciprocal axes: (cart. coord. in units 2 pi/alat)
               b(1) = (  1.000000  0.577350  0.000000 )
               b(2) = (  0.000000  1.154701  0.000000 )
               b(3) = (  0.000000  0.000000  1.383908 )

     PseudoPot. # 1 for Tl read from file:
     /home/pragov/projects/rrg-bengioy-ad/pragov/crystal_structure_design/SSSP/Tl_pbe_v1.2.uspp.F.UPF
     MD5 check sum: b76cf1f7e72655a2b2c53cf6385d7059
     Pseudo is Ultrasoft + core correction, Zval = 13.0
     Generated by new atomic code, or converted to UPF format
     Using radial grid of  899 points,  6 beta functions with:
                l(1) =   0
                l(2) =   0
                l(3) =   1
                l(4) =   1
                l(5) =   2
                l(6) =   2
     Q(r) pseudized with  6 coefficients,  rinner =    1.100   1.100   1.100
                                                       1.100   1.100

     PseudoPot. # 2 for Bi read from file:
     /home/pragov/projects/rrg-bengioy-ad/pragov/crystal_structure_design/SSSP/Bi_pbe_v1.uspp.F.UPF
     MD5 check sum: cceb9f28ec65b6d7ff33140f5b0b1758
     Pseudo is Ultrasoft + core correction, Zval = 15.0
     Generated by new atomic code, or converted to UPF format
     Using radial grid of  899 points,  6 beta functions with:
                l(1) =   0
                l(2) =   0
                l(3) =   1
                l(4) =   1
                l(5) =   2
                l(6) =   2
     Q(r) pseudized with  6 coefficients,  rinner =    1.000   1.000   1.000
                                                       1.000   1.000

     atomic species   valence    mass     pseudopotential
        Tl            13.00   204.38000     Tl( 1.00)
        Bi            15.00   208.98040     Bi( 1.00)

     24 Sym. Ops., with inversion, found (12 have fractional translation)

                                    s                        frac. trans.

      isym =  1     identity

 cryst.   s( 1) = (     1          0          0      )
                  (     0          1          0      )
                  (     0          0          1      )

 cart.    s( 1) = (  1.0000000 -0.0000000  0.0000000 )
                  (  0.0000000  1.0000000  0.0000000 )
                  (  0.0000000  0.0000000  1.0000000 )

      isym =  2     180 deg rotation - cart. axis [0,0,1]

 cryst.   s( 2) = (    -1          0          0      )    f =(  0.0000000 )
                  (     0         -1          0      )       ( -0.0000000 )
                  (     0          0          1      )       ( -0.5000000 )

 cart.    s( 2) = ( -1.0000000  0.0000000  0.0000000 )    f =(  0.0000000 )
                  (  0.0000000 -1.0000000  0.0000000 )       ( -0.0000000 )
                  (  0.0000000  0.0000000  1.0000000 )       ( -0.3612957 )

[...]

      isym =  4     180 deg rotation - cart. axis [1,0,0]

[...]

      isym =  5      60 deg rotation - cryst. axis [0,0,1]

[...]

 cryst.   s( 8) = (    -1         -1          0      )
                  (     1          0          0      )
                  (     0          0          1      )

 cart.    s( 8) = ( -0.5000000  0.8660254  0.0000000 )
                  ( -0.8660254 -0.5000000  0.0000000 )
                  (  0.0000000  0.0000000  1.0000000 )

[...]

 cryst.   s( 9) = (     0         -1          0      )    f =(  0.0000000 )
                  (    -1          0          0      )       ( -0.0000000 )
                  (     0          0         -1      )       (  0.5000000 )

 cart.    s( 9) = (  0.5000000 -0.8660254  0.0000000 )    f =(  0.0000000 )
                  ( -0.8660254 -0.5000000  0.0000000 )       ( -0.0000000 )
                  (  0.0000000  0.0000000 -1.0000000 )       (  0.3612957 )

[...]

 cryst.   s(10) = (     1          1          0      )    f =(  0.0000000 )
                  (     0         -1          0      )       (  0.0000000 )
                  (     0          0         -1      )       (  0.5000000 )

 cart.    s(10) = (  0.5000000  0.8660255  0.0000000 )    f =(  0.0000000 )
                  (  0.8660254 -0.5000000  0.0000000 )       (  0.0000000 )
                  (  0.0000000  0.0000000 -1.0000000 )       (  0.3612957 )

[...]

 cryst.   s(11) = (    -1         -1          0      )
                  (     0          1          0      )
                  (     0          0         -1      )

 cart.    s(11) = ( -0.5000000 -0.8660255  0.0000000 )
                  ( -0.8660254  0.5000000  0.0000000 )
                  (  0.0000000  0.0000000 -1.0000000 )

      isym = 12     180 deg rotation - cryst. axis [1,1,0]

[...]

      isym = 13     inversion

[...]

      isym = 14     inv. 180 deg rotation - cart. axis [0,0,1]

[...]

      isym = 16     inv. 180 deg rotation - cart. axis [1,0,0]

[...]

      isym = 17     inv.  60 deg rotation - cryst. axis [0,0,1]

[...]

 cryst.   s(22) = (    -1         -1          0      )    f =(  0.0000000 )
                  (     0          1          0      )       (  0.0000000 )
                  (     0          0          1      )       ( -0.5000000 )

 cart.    s(22) = ( -0.5000000 -0.8660255  0.0000000 )    f =(  0.0000000 )
                  ( -0.8660254  0.5000000  0.0000000 )       (  0.0000000 )
                  (  0.0000000  0.0000000  1.0000000 )       ( -0.3612957 )

[...]

      isym = 24     inv. 180 deg rotation - cryst. axis [1,1,0]

 cryst.   s(24) = (     0         -1          0      )
                  (    -1          0          0      )
                  (     0          0          1      )

 cart.    s(24) = (  0.5000000 -0.8660254  0.0000000 )
                  ( -0.8660254 -0.5000000  0.0000000 )
                  (  0.0000000  0.0000000  1.0000000 )

   Cartesian axes

     site n.     atom                  positions (alat units)
         1           Tl  tau(   1) = (  -0.0000000   0.2940693   0.1806479  )
         2           Tl  tau(   2) = (   0.2453285   0.7189907   0.1806479  )
         3           Tl  tau(   3) = (  -0.2453285   0.7189907   0.1806479  )
         4           Tl  tau(   4) = (   0.5000000   0.5719561   0.5419436  )
         5           Tl  tau(   5) = (   0.2546715   0.1470347   0.5419436  )
         6           Tl  tau(   6) = (   0.7453285   0.1470347   0.5419436  )
         7           Bi  tau(   7) = (  -0.0000005   0.5773505   0.5419436  )
         8           Bi  tau(   8) = (   0.5000005   0.2886748   0.1806479  )

   Crystallographic axes

     site n.     atom                  positions (cryst. coord.)
         1           Tl  tau(   1) = (  0.1697810  0.3395620  0.2500000  )
         2           Tl  tau(   2) = (  0.6604380  0.8302190  0.2500000  )
         3           Tl  tau(   3) = (  0.1697810  0.8302190  0.2500000  )
         4           Tl  tau(   4) = (  0.8302190  0.6604380  0.7500000  )
         5           Tl  tau(   5) = (  0.3395620  0.1697810  0.7500000  )
         6           Tl  tau(   6) = (  0.8302190  0.1697810  0.7500000  )
         7           Bi  tau(   7) = (  0.3333330  0.6666670  0.7500000  )
         8           Bi  tau(   8) = (  0.6666670  0.3333330  0.2500000  )

     number of k points=     1  Methfessel-Paxton smearing, width (Ry)=  0.0010
                       cart. coord. in units 2pi/alat
        k(    1) = (   0.0000000   0.0000000   0.0000000), wk =   2.0000000

                       cryst. coord.
        k(    1) = (   0.0000000   0.0000000   0.0000000), wk =   2.0000000

     Check: negative core charge=   -0.000006

     Initial potential from superposition of free atoms

     starting charge     105.9707, renormalised to     108.0000

     negative rho (up, down):  3.930E-01 0.000E+00
     Starting wfcs are   72 randomized atomic wfcs

     Self-consistent Calculation

     iteration #  1     ecut=    30.00 Ry     beta= 0.70
     Davidson diagonalization with overlap

     ethr =  1.00E-02,  avg # of iterations =  3.0

     Threshold (ethr) on eigenvalues was too large:
     Diagonalizing with lowered threshold

     Davidson diagonalization with overlap

[...]

     negative rho (up, down):  3.834E-01 0.000E+00

     total energy              =   -1239.63985985 Ry
     estimated scf accuracy    <       1.08054300 Ry

[...]

     total energy              =   -1240.11369736 Ry
     estimated scf accuracy    <       0.00000850 Ry

     iteration # 19     ecut=    30.00 Ry     beta= 0.70
     Davidson diagonalization with overlap

     ethr =  7.87E-09,  avg # of iterations =  5.0

[...]

     End of self-consistent calculation

          k = 0.0000 0.0000 0.0000 (  2421 PWs)   bands (ev):

   -12.6469 -12.6469 -12.6465 -12.6464 -12.5863 -12.5862 -12.5843 -12.5843
   -12.5462 -12.5450  -2.2277  -2.1152  -2.0907  -2.0702  -2.0689  -2.0689
    -2.0429  -2.0428  -1.9517  -1.9517  -1.9221  -1.9218  -1.9217  -1.8083
    -1.8079  -1.8079  -1.7903  -1.7469  -1.7469  -1.7204  -1.7204  -1.7087
    -1.7086  -1.6755  -1.6754  -1.6172  -1.6099  -1.6098  -1.5652  -1.5537
    -1.4827  -0.2102   2.4494   3.3123   3.3123   4.3693   4.3694   4.5999
     6.7254   8.1970   8.4306   8.4306   8.9952   9.3701   9.3702  10.3887
    10.6968  10.6968  11.6810  11.6811  12.0194  12.2854  12.6932  12.6932
    14.1598

     occupation numbers
     1.0000   1.0000   1.0000   1.0000   1.0000   1.0000   1.0000   1.0000
     1.0000   1.0000   1.0000   1.0000   1.0000   1.0000   1.0000   1.0000
     1.0000   1.0000   1.0000   1.0000   1.0000   1.0000   1.0000   1.0000
     1.0000   1.0000   1.0000   1.0000   1.0000   1.0000   1.0000   1.0000
     1.0000   1.0000   1.0000   1.0000   1.0000   1.0000   1.0000   1.0000
     1.0000   1.0000   1.0000   1.0000   1.0000   1.0000   1.0000   1.0000
     1.0000   1.0000   1.0000   1.0000   1.0000   0.5011   0.4989  -0.0000
    -0.0000  -0.0000  -0.0000  -0.0000  -0.0000  -0.0000  -0.0000  -0.0000
    -0.0000

     the Fermi energy is     9.3701 ev

!    total energy              =   -1240.11369821 Ry
     estimated scf accuracy    <       0.00000028 Ry
     smearing contrib. (-TS)   =      -0.00056419 Ry
     internal energy E=F+TS    =   -1240.11313403 Ry

     The total energy is F=E-TS. E is the sum of the following terms:
     one-electron contribution =    -246.30912631 Ry
     hartree contribution      =     206.00005475 Ry
     xc contribution           =    -501.82137403 Ry
     ewald contribution        =    -697.98268843 Ry

     convergence has been achieved in  19 iterations

     negative rho (up, down):  3.846E-01 0.000E+00

     Forces acting on atoms (cartesian axes, Ry/au):

     atom    1 type  1   force =     0.00000000    0.02869537    0.00000000
     atom    2 type  1   force =    -0.02485092   -0.01434769    0.00000000
     atom    3 type  1   force =     0.02485092   -0.01434769    0.00000000
     atom    4 type  1   force =     0.00000000   -0.02869537    0.00000000
     atom    5 type  1   force =     0.02485092    0.01434769    0.00000000
     atom    6 type  1   force =    -0.02485092    0.01434769    0.00000000
     atom    7 type  2   force =     0.00000000    0.00000000    0.00000000
     atom    8 type  2   force =     0.00000000    0.00000000   -0.00000000
     The non-local contrib.  to forces
     atom    1 type  1   force =    -0.00000000    0.00097110    0.00000000
     atom    2 type  1   force =    -0.00084099   -0.00048555    0.00000000
     atom    3 type  1   force =     0.00084099   -0.00048555   -0.00000000
     atom    4 type  1   force =    -0.00000000   -0.00097110   -0.00000000
     atom    5 type  1   force =     0.00084099    0.00048555   -0.00000000
     atom    6 type  1   force =    -0.00084099    0.00048555    0.00000000
     atom    7 type  2   force =     0.00000000    0.00000000    0.00000000
     atom    8 type  2   force =    -0.00000000   -0.00000000    0.00000000
     The ionic contribution  to forces
     atom    1 type  1   force =     0.00004633   -2.16632227   -0.00000000
     atom    2 type  1   force =     1.87611325    1.08312108   -0.00000000
     atom    3 type  1   force =    -1.87611653    1.08317634   -0.00000000
     atom    4 type  1   force =    -0.00004633    2.16632227   -0.00000000
     atom    5 type  1   force =    -1.87611325   -1.08312108   -0.00000000
     atom    6 type  1   force =     1.87611653   -1.08317634   -0.00000000
     atom    7 type  2   force =     0.00005430   -0.00003135   -0.00000000
     atom    8 type  2   force =    -0.00005430    0.00003135   -0.00000000
     The local contribution  to forces
     atom    1 type  1   force =     0.00100275    2.18943671    0.00000928
     atom    2 type  1   force =    -1.89609756   -1.09538091   -0.00005268
     atom    3 type  1   force =     1.89615805   -1.09422564    0.00003207
     atom    4 type  1   force =    -0.00072782   -2.18937396   -0.00003042
     atom    5 type  1   force =     1.89601821    1.09514859    0.00004567
     atom    6 type  1   force =    -1.89623476    1.09437182    0.00001105
     atom    7 type  2   force =     0.00047960    0.00004151   -0.00002059
     atom    8 type  2   force =    -0.00078729   -0.00001066   -0.00002222
     The core correction contribution to forces
     atom    1 type  1   force =     0.00002722    0.00490390   -0.00000143
     atom    2 type  1   force =    -0.00423650   -0.00247161   -0.00000592
     atom    3 type  1   force =     0.00423302   -0.00244157    0.00000516
     atom    4 type  1   force =    -0.00000990   -0.00489540   -0.00000101
     atom    5 type  1   force =     0.00423124    0.00247126    0.00000139
     atom    6 type  1   force =    -0.00424411    0.00243691   -0.00000292
     atom    7 type  2   force =     0.00000405    0.00000040    0.00000183
     atom    8 type  2   force =    -0.00000907    0.00000027    0.00000046
     The Hubbard contrib.    to forces
     atom    1 type  1   force =     0.00000000    0.00000000    0.00000000
     atom    2 type  1   force =     0.00000000    0.00000000    0.00000000
     atom    3 type  1   force =     0.00000000    0.00000000    0.00000000
     atom    4 type  1   force =     0.00000000    0.00000000    0.00000000
     atom    5 type  1   force =     0.00000000    0.00000000    0.00000000
     atom    6 type  1   force =     0.00000000    0.00000000    0.00000000
     atom    7 type  2   force =     0.00000000    0.00000000    0.00000000
     atom    8 type  2   force =     0.00000000    0.00000000    0.00000000
     The SCF correction term to forces
     atom    1 type  1   force =    -0.00088766   -0.00025476   -0.00002136
     atom    2 type  1   force =     0.00023496    0.00068181    0.00001919
     atom    3 type  1   force =    -0.00032306   -0.00024127    0.00000573
     atom    4 type  1   force =     0.00061017    0.00023325    0.00001898
     atom    5 type  1   force =    -0.00022171   -0.00047842   -0.00004130
     atom    6 type  1   force =     0.00025607    0.00009762   -0.00002274
     atom    7 type  2   force =    -0.00041429   -0.00003333   -0.00001157
     atom    8 type  2   force =     0.00071054   -0.00001954    0.00001817

     Total force =     0.070289     Total SCF correction =     0.001731

     Computing stress (Cartesian axis) and pressure

     negative rho (up, down):  3.846E-01 0.000E+00
          total   stress  (Ry/bohr**3)                   (kbar)     P=       55.40
  -0.00036940  -0.00000000   0.00000000          -54.34       -0.00        0.00
  -0.00000000  -0.00036940   0.00000000           -0.00      -54.34        0.00
   0.00000000   0.00000000   0.00186865            0.00        0.00      274.89

     kinetic stress (kbar)   5847.06      0.00      0.00
                                0.00   5847.06     -0.00
                                0.00     -0.00   6065.60

     local   stress (kbar)   3587.09      0.69      0.00
                                0.69   3587.27     -0.00
                                0.00     -0.00   -352.22

     nonloc. stress (kbar)  11529.68      0.00      0.00
                                0.00  11529.68      0.00
                                0.00      0.00  11548.54

     hartree stress (kbar)   5287.03     -0.33     -0.00
                               -0.33   5286.95      0.00
                               -0.00      0.00   6723.73

     exc-cor stress (kbar)  26494.12     -0.01     -0.00
                               -0.01  26494.12      0.00
                               -0.00      0.00  26494.32

     corecor stress (kbar) -32397.85      0.01     -0.00
                                0.01 -32397.84     -0.00
                               -0.00     -0.00 -32398.92

     ewald   stress (kbar) -20401.52     -0.00     -0.00
                               -0.00 -20401.52     -0.00
                               -0.00     -0.00 -17806.17

     hubbard stress (kbar)      0.00      0.00      0.00
                                0.00      0.00      0.00
                                0.00      0.00      0.00

     DFT-D   stress (kbar)      0.00      0.00      0.00
                                0.00      0.00      0.00
                                0.00      0.00      0.00

     XDM     stress (kbar)      0.00      0.00      0.00
                                0.00      0.00      0.00
                                0.00      0.00      0.00

     dft-nl  stress (kbar)      0.00      0.00      0.00
                                0.00      0.00      0.00
                                0.00      0.00      0.00

     TS-vdW  stress (kbar)      0.00      0.00      0.00
                                0.00      0.00      0.00
                                0.00      0.00      0.00

[...]

                                0.00      0.00      0.00

     Writing all to output data dir new_calculations/myprefix.save/

     General routines

     Parallel routines

   This run was terminated on:  11:50:46  20May2023

   JOB DONE.