     Program PWSCF v.7.0 starts on 21May2023 at  7:30:17

     Reading input from espresso_23486.pwi
Warning: card &CELL ignored
Warning: card / ignored

     Current dimensions of program PWSCF are:
     Max number of different atomic species (ntypx) = 10
     Max number of k-points (npk) =  40000
     Max angular momentum in pseudopotentials (lmaxx) =  4
     file Nb.pbe-spn-kjpaw_psl.0.3.0.UPF: wavefunction(s)  4S 4P renormalized
     file Al.pbe-n-kjpaw_psl.1.0.0.UPF: wavefunction(s)  3S 3P renormalized

     gamma-point specific algorithms are used
     Message from routine setup:
     using ibrav=0 with symmetry is DISCOURAGED, use correct ibrav instead

     Subspace diagonalization in iterative solution of the eigenvalue problem:
     a serial algorithm will be used

     Using Slab Decomposition

     bravais-lattice index     =            0
     lattice parameter (alat)  =      10.0753  a.u.
     unit-cell volume          =    2156.8426 (a.u.)^3
     number of atoms/cell      =           16
     number of atomic types    =            3
     number of electrons       =       140.00
     number of Kohn-Sham states=           84
     kinetic-energy cutoff     =      30.0000  Ry
     charge density cutoff     =     240.0000  Ry
     scf convergence threshold =      1.0E-06
     mixing beta               =       0.7000
     number of iterations used =            8  plain     mixing
     Exchange-correlation= SLA  PW   PBX  PBC
                           (   1   4   3   4   0   0   0)

     celldm(1)=  10.075324  celldm(2)=   0.000000  celldm(3)=   0.000000
     celldm(4)=   0.000000  celldm(5)=   0.000000  celldm(6)=   0.000000

     crystal axes: (cart. coord. in units of alat)
               a(1) = (   1.000000   0.000000   0.000000 )
               a(2) = (   0.500000   1.451124   0.000000 )
               a(3) = (  -0.500000   0.007656   1.453238 )

     reciprocal axes: (cart. coord. in units 2 pi/alat)
               b(1) = (  1.000000 -0.344560  0.345874 )
               b(2) = (  0.000000  0.689121 -0.003631 )
               b(3) = (  0.000000  0.000000  0.688119 )

     PseudoPot. # 1 for Zr read from file:
     /home/pragov/projects/rrg-bengioy-ad/pragov/crystal_structure_design/SSSP/Zr_pbe_v1.uspp.F.UPF
     MD5 check sum: 5db81b1e868ab7776c4564c113de050b
     Pseudo is Ultrasoft + core correction, Zval = 12.0
     Generated by new atomic code, or converted to UPF format
     Using radial grid of  887 points,  6 beta functions with:
                l(1) =   0
                l(2) =   0
                l(3) =   1
                l(4) =   1
                l(5) =   2
                l(6) =   2
     Q(r) pseudized with  6 coefficients,  rinner =    1.200   1.200   1.200
                                                       1.200   1.200

     PseudoPot. # 2 for Nb read from file:
     /home/pragov/projects/rrg-bengioy-ad/pragov/crystal_structure_design/SSSP/Nb.pbe-spn-kjpaw_psl.0.3.0.UPF
     MD5 check sum: 411d72ad547312f8017e2943ceca08cc
     Pseudo is Projector augmented-wave + core cor, Zval = 13.0
     Generated using "atomic" code by A. Dal Corso  v.5.0.99 svn rev. 10869
     Shape of augmentation charge: PSQ
     Using radial grid of 1227 points,  6 beta functions with:
                l(1) =   0
                l(2) =   0
                l(3) =   1
                l(4) =   1
                l(5) =   2
                l(6) =   2
     Q(r) pseudized with 0 coefficients

     PseudoPot. # 3 for Al read from file:
     /home/pragov/projects/rrg-bengioy-ad/pragov/crystal_structure_design/SSSP/Al.pbe-n-kjpaw_psl.1.0.0.UPF
     MD5 check sum: cfc449ca30b5f3223ec38ddd88ac046d
     Pseudo is Projector augmented-wave + core cor, Zval =  3.0
     Generated using "atomic" code by A. Dal Corso  v.5.1
     Shape of augmentation charge: PSQ
     Using radial grid of 1135 points,  6 beta functions with:
                l(1) =   0
                l(2) =   0
                l(3) =   1
                l(4) =   1
                l(5) =   2
                l(6) =   2
     Q(r) pseudized with 0 coefficients

     atomic species   valence    mass     pseudopotential
        Zr            12.00    91.22400     Zr( 1.00)
        Nb            13.00    92.90637     Nb( 1.00)
        Al             3.00    26.98154     Al( 1.00)

      4 Sym. Ops., with inversion, found

                                    s                        frac. trans.

      isym =  1     identity

 cryst.   s( 1) = (     1          0          0      )
                  (     0          1          0      )
                  (     0          0          1      )

 cart.    s( 1) = (  1.0000000  0.0000000 -0.0000000 )
                  (  0.0000000  1.0000000  0.0000000 )
                  (  0.0000000  0.0000000  1.0000000 )

      isym =  2     180 deg rotation - cart. axis [1,0,0]

[...]

      isym =  3     inversion

[...]

      isym =  4     inv. 180 deg rotation - cart. axis [1,0,0]

 cryst.   s( 4) = (    -1          0          0      )
                  (    -1          1          0      )
                  (     1          0          1      )

 cart.    s( 4) = ( -1.0000000 -0.0000003  0.0000003 )
                  (  0.0000000  1.0000000  0.0000000 )
                  (  0.0000000  0.0000000  1.0000000 )

   Cartesian axes

     site n.     atom                  positions (alat units)
         1           Zr  tau(   1) = (   0.9999995   0.4281435   0.2100612  )
         2           Zr  tau(   2) = (   0.0000005   1.0306371   1.2431768  )
         3           Zr  tau(   3) = (   0.9999999   1.0205104   0.2071286  )
         4           Zr  tau(   4) = (   0.0000001   0.4382703   1.2461095  )
         5           Zr  tau(   5) = (   0.5000006   0.2091269   1.0135042  )
         6           Zr  tau(   6) = (   0.4999994   1.2496538   0.4397338  )
         7           Zr  tau(   7) = (   0.2498040   0.7293903   0.7266190  )
         8           Zr  tau(   8) = (   0.7501960   0.7293903   0.7266190  )
         9           Nb  tau(   9) = (   0.5000005   1.2598779   1.0323614  )
        10           Nb  tau(  10) = (   0.4999995   0.1989028   0.4208766  )
        11           Al  tau(  11) = (   0.2521890   0.0000000   0.0000000  )
        12           Al  tau(  12) = (   0.7478110   0.0000000   0.0000000  )
        13           Al  tau(  13) = (   0.5000004   0.7174897   0.2512416  )
        14           Al  tau(  14) = (   0.4999996   0.7412909   1.2019964  )
        15           Al  tau(  15) = (   0.9999994   1.2136781   0.7251876  )
        16           Al  tau(  16) = (   0.0000006   0.2451026   0.7280505  )

   Crystallographic axes

     site n.     atom                  positions (cryst. coord.)
         1           Zr  tau(   1) = (  0.9251330  0.2942800  0.1445470  )
         2           Zr  tau(   2) = (  0.0748670  0.7057200  0.8554530  )
         3           Zr  tau(   3) = (  0.7200130  0.7025030  0.1425290  )
         4           Zr  tau(   4) = (  0.2799870  0.2974970  0.8574710  )
         5           Zr  tau(   5) = (  0.7784890  0.1404340  0.6974110  )
         6           Zr  tau(   6) = (  0.2215110  0.8595660  0.3025890  )
         7           Zr  tau(   7) = (  0.2498040  0.5000000  0.5000000  )
         8           Zr  tau(   8) = (  0.7501960  0.5000000  0.5000000  )
         9           Nb  tau(   9) = (  0.4229640  0.8644600  0.7103870  )
        10           Nb  tau(  10) = (  0.5770360  0.1355400  0.2896130  )
        11           Al  tau(  11) = (  0.2521890  0.0000000  0.0000000  )
        12           Al  tau(  12) = (  0.7478110  0.0000000  0.0000000  )
        13           Al  tau(  13) = (  0.3396800  0.4935250  0.1728840  )
        14           Al  tau(  14) = (  0.6603200  0.5064750  0.8271160  )
        15           Al  tau(  15) = (  0.8326380  0.8337380  0.4990150  )
        16           Al  tau(  16) = (  0.1673620  0.1662620  0.5009850  )

     number of k points=     1  Methfessel-Paxton smearing, width (Ry)=  0.0010
                       cart. coord. in units 2pi/alat
        k(    1) = (   0.0000000   0.0000000   0.0000000), wk =   2.0000000

                       cryst. coord.
        k(    1) = (   0.0000000   0.0000000   0.0000000), wk =   2.0000000

     Check: negative core charge=   -0.000006

     Initial potential from superposition of free atoms

     starting charge     139.9648, renormalised to     140.0000

     negative rho (up, down):  4.789E-01 0.000E+00
     Starting wfcs are  148 randomized atomic wfcs
     Checking if some PAW data can be deallocated...

     Self-consistent Calculation

     iteration #  1     ecut=    30.00 Ry     beta= 0.70
     Davidson diagonalization with overlap

     ethr =  1.00E-02,  avg # of iterations =  2.0

     negative rho (up, down):  4.805E-01 0.000E+00

     total energy              =   -1696.26490010 Ry
     estimated scf accuracy    <       4.42708642 Ry

[...]

     total energy              =   -1699.39602571 Ry
     estimated scf accuracy    <       0.00001037 Ry

     iteration # 27     ecut=    30.00 Ry     beta= 0.70
     Davidson diagonalization with overlap

     ethr =  3.77E-09,  avg # of iterations =  1.0

[...]

     End of self-consistent calculation

          k = 0.0000 0.0000 0.0000 (  2984 PWs)   bands (ev):

   -42.4796 -42.4788 -36.4842 -36.4812 -36.4051 -36.4046 -36.2879 -36.2852
   -35.3148 -34.9717 -18.5757 -18.5708 -18.5106 -18.5094 -18.5067 -18.5049
   -14.7253 -14.7143 -14.6821 -14.6564 -14.5503 -14.5468 -14.5344 -14.4877
   -14.4179 -14.3874 -14.3799 -14.3572 -14.3473 -14.3356 -14.2995 -14.2757
   -14.2700 -14.2540 -14.2403 -13.4439 -13.4394 -13.1428 -13.1299 -12.0976
     4.6325   6.4013   6.9631   7.3437   7.3830   8.7114   8.7985   9.0383
     9.2440   9.3409  10.0275  10.1382  10.3506  10.3541  10.5244  10.5849
    10.6832  10.7521  10.9892  11.0062  11.0296  11.2072  11.2196  11.4035
    11.5071  11.5909  11.7255  11.7472  11.9603  12.1283  12.1358  12.1500
    12.2625  12.2742  12.6412  12.9871  13.2177  13.8112  13.9399  13.9930
    14.4323  14.5004  14.5895  14.7801

     occupation numbers
     1.0000   1.0000   1.0000   1.0000   1.0000   1.0000   1.0000   1.0000
     1.0000   1.0000   1.0000   1.0000   1.0000   1.0000   1.0000   1.0000
     1.0000   1.0000   1.0000   1.0000   1.0000   1.0000   1.0000   1.0000
     1.0000   1.0000   1.0000   1.0000   1.0000   1.0000   1.0000   1.0000
     1.0000   1.0000   1.0000   1.0000   1.0000   1.0000   1.0000   1.0000
     1.0000   1.0000   1.0000   1.0000   1.0000   1.0000   1.0000   1.0000
     1.0000   1.0000   1.0000   1.0000   1.0000   1.0000   1.0000   1.0000
     1.0000   1.0000   1.0000   1.0000   1.0000   1.0000   1.0000   1.0000
     1.0000   1.0000   1.0000   1.0000   1.0000   0.7393   0.2954  -0.0347
    -0.0000  -0.0000  -0.0000  -0.0000  -0.0000  -0.0000  -0.0000  -0.0000
    -0.0000  -0.0000  -0.0000  -0.0000

     the Fermi energy is    12.1323 ev

!    total energy              =   -1699.39602544 Ry
     estimated scf accuracy    <       0.00000064 Ry
     smearing contrib. (-TS)   =      -0.00032061 Ry
     internal energy E=F+TS    =   -1699.39570484 Ry

     The total energy is F=E-TS. E is the sum of the following terms:
     one-electron contribution =    -250.94342340 Ry
     hartree contribution      =     180.79044447 Ry
     xc contribution           =    -215.69277514 Ry
     ewald contribution        =    -788.37427639 Ry
     one-center paw contrib.   =    -625.17567437 Ry
      -> PAW hartree energy AE =     145.78169469 Ry
      -> PAW hartree energy PS =    -145.01096483 Ry
      -> PAW xc energy AE      =    -691.83723982 Ry
      -> PAW xc energy PS      =      65.89083559 Ry
      -> total E_H with PAW    =     181.56117432 Ry
      -> total E_XC with PAW   =    -841.63917937 Ry

     convergence has been achieved in  27 iterations

     negative rho (up, down):  4.872E-01 0.000E+00

     Forces acting on atoms (cartesian axes, Ry/au):

     atom    1 type  1   force =     0.00000000    0.02911606   -0.01509270
     atom    2 type  1   force =     0.00000000   -0.02911606    0.01509270
     atom    3 type  1   force =     0.00000000   -0.02101668   -0.01205112
     atom    4 type  1   force =     0.00000000    0.02101668    0.01205112
     atom    5 type  1   force =     0.00000000    0.00087720   -0.00532683
     atom    6 type  1   force =     0.00000000   -0.00087720    0.00532683
     atom    7 type  1   force =     0.01915787    0.00000000   -0.00000000
     atom    8 type  1   force =    -0.01915787   -0.00000000    0.00000000
     atom    9 type  2   force =     0.00000000    0.00512660   -0.01680669
     atom   10 type  2   force =     0.00000000   -0.00512660    0.01680669
     atom   11 type  3   force =    -0.00102299   -0.00000000    0.00000000
     atom   12 type  3   force =     0.00102299    0.00000000   -0.00000000
     atom   13 type  3   force =     0.00000000   -0.00764773    0.01588065
     atom   14 type  3   force =     0.00000000    0.00764773   -0.01588065
     atom   15 type  3   force =     0.00000000   -0.01296189    0.01097483
     atom   16 type  3   force =     0.00000000    0.01296189   -0.01097483
     The non-local contrib.  to forces
     atom    1 type  1   force =     0.00000000    0.03923845    0.05340332
     atom    2 type  1   force =     0.00000000   -0.03923845   -0.05340332
     atom    3 type  1   force =     0.00000000   -0.08531684   -0.02661276
     atom    4 type  1   force =     0.00000000    0.08531684    0.02661276
     atom    5 type  1   force =     0.00000000   -0.01303439   -0.08784967
     atom    6 type  1   force =     0.00000000    0.01303439    0.08784967
     atom    7 type  1   force =    -0.01327101   -0.00000000    0.00000000
     atom    8 type  1   force =     0.01327101    0.00000000   -0.00000000
     atom    9 type  2   force =     0.00000000   -0.08180576   -0.01756284
     atom   10 type  2   force =     0.00000000    0.08180576    0.01756284
     atom   11 type  3   force =    -0.00580433   -0.00000000    0.00000000
     atom   12 type  3   force =     0.00580433    0.00000000   -0.00000000
     atom   13 type  3   force =     0.00000000    0.00662824   -0.03644624
     atom   14 type  3   force =     0.00000000   -0.00662824    0.03644624
     atom   15 type  3   force =     0.00000000    0.02529203    0.00542609
     atom   16 type  3   force =     0.00000000   -0.02529203   -0.00542609
     The ionic contribution  to forces
     atom    1 type  1   force =     0.00001630    0.11549633   -2.82602739
     atom    2 type  1   force =    -0.00001629   -0.11549633    2.82602739
     atom    3 type  1   force =     0.00000307   -0.14484109   -2.17324449
     atom    4 type  1   force =    -0.00000307    0.14484109    2.17324449
     atom    5 type  1   force =    -0.00000545   -1.06523671    1.49461735
     atom    6 type  1   force =     0.00000545    1.06523671   -1.49461735
     atom    7 type  1   force =     0.01314973   -0.00000019   -0.00000493
     atom    8 type  1   force =    -0.01314973    0.00000018    0.00000493
     atom    9 type  2   force =     0.00000016    1.38954059    0.73683563
     atom   10 type  2   force =    -0.00000016   -1.38954058   -0.73683563
     atom   11 type  3   force =    -0.31050408    0.00000030    0.00000083
     atom   12 type  3   force =     0.31050408   -0.00000031   -0.00000083
     atom   13 type  3   force =    -0.00001004    0.27673587   -1.02577298
     atom   14 type  3   force =     0.00001004   -0.27673587    1.02577298
     atom   15 type  3   force =     0.00000515    0.47356200   -0.00122529
     atom   16 type  3   force =    -0.00000515   -0.47356200    0.00122529
     The local contribution  to forces
     atom    1 type  1   force =     0.00002802   -0.12479023    2.76179559
     atom    2 type  1   force =    -0.00003053    0.12425708   -2.76154216
     atom    3 type  1   force =     0.00002427    0.20458814    2.18603616
     atom    4 type  1   force =     0.00000530   -0.20373397   -2.18630567
     atom    5 type  1   force =     0.00000393    1.07820608   -1.41713267
     atom    6 type  1   force =    -0.00003409   -1.07821132    1.41683043
     atom    7 type  1   force =     0.01816097    0.00012936    0.00026908
     atom    8 type  1   force =    -0.01816098    0.00013525    0.00026915
     atom    9 type  2   force =     0.00000385   -1.31086687   -0.73585070
     atom   10 type  2   force =     0.00002984    1.31030151    0.73583712
     atom   11 type  3   force =     0.31432975   -0.00009782    0.00004582
     atom   12 type  3   force =    -0.31432950   -0.00011537    0.00004149
     atom   13 type  3   force =     0.00001650   -0.29010240    1.07380231
     atom   14 type  3   force =    -0.00001482    0.29030389   -1.07391717
     atom   15 type  3   force =    -0.00000309   -0.50915668    0.00745185
     atom   16 type  3   force =     0.00000431    0.50910541   -0.00743795
     The core correction contribution to forces
     atom    1 type  1   force =     0.00000003   -0.00058933   -0.00374043
     atom    2 type  1   force =     0.00000023    0.00058820    0.00374540
     atom    3 type  1   force =    -0.00000014    0.00422062    0.00162704
     atom    4 type  1   force =     0.00000036   -0.00421961   -0.00162688
     atom    5 type  1   force =    -0.00000045    0.00136319    0.00466628
     atom    6 type  1   force =     0.00000026   -0.00135891   -0.00466764
     atom    7 type  1   force =     0.00106324   -0.00000254   -0.00000216
     atom    8 type  1   force =    -0.00106322   -0.00000164    0.00000042
     atom    9 type  2   force =     0.00003999    0.00700374   -0.00046604
     atom   10 type  2   force =    -0.00003906   -0.00699729    0.00046387
     atom   11 type  3   force =     0.00091765   -0.00000037    0.00000038
     atom   12 type  3   force =    -0.00091763   -0.00000097    0.00000020
     atom   13 type  3   force =     0.00000073   -0.00085290    0.00432793
     atom   14 type  3   force =    -0.00000036    0.00085441   -0.00432691
     atom   15 type  3   force =     0.00000006   -0.00290385   -0.00059770
     atom   16 type  3   force =    -0.00000003    0.00290355    0.00059683
     The Hubbard contrib.    to forces
     atom    1 type  1   force =     0.00000000    0.00000000    0.00000000
     atom    2 type  1   force =     0.00000000    0.00000000    0.00000000
     atom    3 type  1   force =     0.00000000    0.00000000    0.00000000
     atom    4 type  1   force =     0.00000000    0.00000000    0.00000000
     atom    5 type  1   force =     0.00000000    0.00000000    0.00000000
     atom    6 type  1   force =     0.00000000    0.00000000    0.00000000
     atom    7 type  1   force =     0.00000000    0.00000000    0.00000000
     atom    8 type  1   force =     0.00000000    0.00000000    0.00000000
     atom    9 type  2   force =     0.00000000    0.00000000    0.00000000
     atom   10 type  2   force =     0.00000000    0.00000000    0.00000000
     atom   11 type  3   force =     0.00000000    0.00000000    0.00000000
     atom   12 type  3   force =     0.00000000    0.00000000    0.00000000
     atom   13 type  3   force =     0.00000000    0.00000000    0.00000000
     atom   14 type  3   force =     0.00000000    0.00000000    0.00000000
     atom   15 type  3   force =     0.00000000    0.00000000    0.00000000
     atom   16 type  3   force =     0.00000000    0.00000000    0.00000000
     The SCF correction term to forces
     atom    1 type  1   force =    -0.00004286   -0.00024260   -0.00047064
     atom    2 type  1   force =     0.00004921    0.00076999    0.00031854
     atom    3 type  1   force =    -0.00003117    0.00035127    0.00015659
     atom    4 type  1   force =     0.00000245   -0.00116888    0.00014010
     atom    5 type  1   force =    -0.00000384   -0.00041372    0.00036752
     atom    6 type  1   force =     0.00003027    0.00042917   -0.00007263
     atom    7 type  1   force =     0.00005476   -0.00014583   -0.00031356
     atom    8 type  1   force =    -0.00005514   -0.00014280   -0.00029772
     atom    9 type  2   force =    -0.00005308    0.00129359    0.00020654
     atom   10 type  2   force =     0.00002875   -0.00065732   -0.00025222
     atom   11 type  3   force =     0.00003816    0.00008819   -0.00003279
     atom   12 type  3   force =    -0.00003816    0.00009667   -0.00002992
     atom   13 type  3   force =     0.00000190   -0.00004094   -0.00003766
     atom   14 type  3   force =    -0.00000004   -0.00013085    0.00013692
     atom   15 type  3   force =    -0.00000053    0.00024176   -0.00008188
     atom   16 type  3   force =    -0.00000035   -0.00019588    0.00006533

     Total force =     0.077040     Total SCF correction =     0.002373

     Computing stress (Cartesian axis) and pressure

     negative rho (up, down):  4.872E-01 0.000E+00
          total   stress  (Ry/bohr**3)                   (kbar)     P=      -60.65
  -0.00088095  -0.00000000   0.00000000         -129.59       -0.00        0.00
  -0.00000000  -0.00025846  -0.00003966           -0.00      -38.02       -5.83
   0.00000000  -0.00003966  -0.00009744            0.00       -5.83      -14.33

     kinetic stress (kbar)  14472.69      0.00     -0.00
                                0.00  14477.71    -41.88
                               -0.00    -41.88  14488.51

     local   stress (kbar)  -9268.34      0.01     -0.05
                                0.01  -5616.15    110.01
                               -0.05    110.01  -4987.42

     nonloc. stress (kbar)   9669.53      0.00     -0.00
                                0.00   9695.18     -6.52
                               -0.00     -6.52   9682.36

     hartree stress (kbar)   5129.12     -0.00      0.02
                               -0.00   3743.01    -26.29
                                0.02    -26.29   3458.48

     exc-cor stress (kbar)   2131.01     -0.00      0.00
                               -0.00   2127.92     -0.61
                                0.00     -0.61   2127.80

     corecor stress (kbar)  -5913.63      0.00     -0.00
                                0.00  -5914.98     -0.04
                               -0.00     -0.04  -5914.55

     ewald   stress (kbar) -16349.97      0.01      0.01
                                0.01 -18550.72    -40.51
                                0.01    -40.51 -18869.51

     hubbard stress (kbar)      0.00      0.00      0.00
                                0.00      0.00      0.00
                                0.00      0.00      0.00

     DFT-D   stress (kbar)      0.00      0.00      0.00
                                0.00      0.00      0.00
                                0.00      0.00      0.00

     XDM     stress (kbar)      0.00      0.00      0.00
                                0.00      0.00      0.00
                                0.00      0.00      0.00

     dft-nl  stress (kbar)      0.00      0.00      0.00
                                0.00      0.00      0.00
                                0.00      0.00      0.00

     TS-vdW  stress (kbar)      0.00      0.00      0.00
                                0.00      0.00      0.00
                                0.00      0.00      0.00

[...]

                                0.00      0.00      0.00

     Writing all to output data dir new_calculations/myprefix.save/

     General routines

     Parallel routines

     PAW routines

   This run was terminated on:   7:31:37  21May2023

   JOB DONE.