     Program PWSCF v.7.0 starts on 21May2023 at 16:46:29

     Reading input from espresso_24866.pwi
Warning: card &CELL ignored
Warning: card / ignored

     Current dimensions of program PWSCF are:
     Max number of different atomic species (ntypx) = 10
     Max number of k-points (npk) =  40000
     Max angular momentum in pseudopotentials (lmaxx) =  4
     file Cd.pbe-dn-rrkjus_psl.0.3.1.UPF: wavefunction(s)  4D renormalized
     file O.pbe-n-kjpaw_psl.0.1.UPF: wavefunction(s)  2P renormalized

     gamma-point specific algorithms are used
     Message from routine setup:
     using ibrav=0 with symmetry is DISCOURAGED, use correct ibrav instead

     Subspace diagonalization in iterative solution of the eigenvalue problem:
     a serial algorithm will be used

     Using Slab Decomposition

     bravais-lattice index     =            0
     lattice parameter (alat)  =       9.8576  a.u.
     unit-cell volume          =    1231.6803 (a.u.)^3
     number of atoms/cell      =           12
     number of atomic types    =            3
     number of electrons       =        84.00
     number of Kohn-Sham states=           50
     kinetic-energy cutoff     =      30.0000  Ry
     charge density cutoff     =     240.0000  Ry
     scf convergence threshold =      1.0E-06
     mixing beta               =       0.7000
     number of iterations used =            8  plain     mixing
     Exchange-correlation= SLA  PW   PBX  PBC
                           (   1   4   3   4   0   0   0)

     celldm(1)=   9.857629  celldm(2)=   0.000000  celldm(3)=   0.000000
     celldm(4)=   0.000000  celldm(5)=   0.000000  celldm(6)=   0.000000

     crystal axes: (cart. coord. in units of alat)
               a(1) = (   1.000000   0.000000   0.000000 )
               a(2) = (  -0.397027   0.917807   0.000000 )
               a(3) = (   0.000000   0.000000   1.400971 )

     reciprocal axes: (cart. coord. in units 2 pi/alat)
               b(1) = (  1.000000  0.432582  0.000000 )
               b(2) = (  0.000000  1.089554  0.000000 )
               b(3) = (  0.000000  0.000000  0.713791 )

     PseudoPot. # 1 for Cd read from file:
     /home/pragov/projects/rrg-bengioy-ad/pragov/crystal_structure_design/SSSP/Cd.pbe-dn-rrkjus_psl.0.3.1.UPF
     MD5 check sum: 558e9f355611b531a870a69ef6ace9e2
     Pseudo is Ultrasoft + core correction, Zval = 12.0
     Generated using "atomic" code by A. Dal Corso  v.5.0.99 svn rev. 10869
     Using radial grid of 1239 points,  6 beta functions with:
                l(1) =   0
                l(2) =   0
                l(3) =   1
                l(4) =   1
                l(5) =   2
                l(6) =   2
     Q(r) pseudized with 0 coefficients

     PseudoPot. # 2 for Se read from file:
     /home/pragov/projects/rrg-bengioy-ad/pragov/crystal_structure_design/SSSP/Se_pbe_v1.uspp.F.UPF
     MD5 check sum: 1b3568f3a8ae88f9a2a0ad0698632c85
     Pseudo is Ultrasoft + core correction, Zval =  6.0
     Generated by new atomic code, or converted to UPF format
     Using radial grid of  877 points,  6 beta functions with:
                l(1) =   0
                l(2) =   0
                l(3) =   1
                l(4) =   1
                l(5) =   2
                l(6) =   2
     Q(r) pseudized with  8 coefficients,  rinner =    1.300   1.300   1.300
                                                       1.300   1.300

     PseudoPot. # 3 for O  read from file:
     /home/pragov/projects/rrg-bengioy-ad/pragov/crystal_structure_design/SSSP/O.pbe-n-kjpaw_psl.0.1.UPF
     MD5 check sum: 0234752ac141de4415c5fc33072bef88
     Pseudo is Projector augmented-wave + core cor, Zval =  6.0
     Generated using "atomic" code by A. Dal Corso  v.5.0.99 svn rev. 10869
     Shape of augmentation charge: BESSEL
     Using radial grid of 1095 points,  4 beta functions with:
                l(1) =   0
                l(2) =   0
                l(3) =   1
                l(4) =   1
     Q(r) pseudized with 0 coefficients

     atomic species   valence    mass     pseudopotential
        Cd            12.00   112.41400     Cd( 1.00)
        Se             6.00    78.97100     Se( 1.00)
        O              6.00    15.99900     O ( 1.00)

      4 Sym. Ops., with inversion, found ( 2 have fractional translation)

                                    s                        frac. trans.

      isym =  1     identity

 cryst.   s( 1) = (     1          0          0      )
                  (     0          1          0      )
                  (     0          0          1      )

 cart.    s( 1) = (  1.0000000  0.0000000  0.0000000 )
                  (  0.0000000  1.0000000  0.0000000 )
                  (  0.0000000  0.0000000  1.0000000 )

      isym =  2     180 deg rotation - cart. axis [0,0,1]

 cryst.   s( 2) = (    -1          0          0      )    f =(  0.0000000 )
                  (     0         -1          0      )       (  0.0000000 )
                  (     0          0          1      )       ( -0.5000000 )

 cart.    s( 2) = ( -1.0000000 -0.0000000  0.0000000 )    f =(  0.0000000 )
                  (  0.0000000 -1.0000000  0.0000000 )       (  0.0000000 )
                  (  0.0000000  0.0000000  1.0000000 )       ( -0.7004856 )

      isym =  3     inversion

 cryst.   s( 3) = (    -1          0          0      )
                  (     0         -1          0      )
                  (     0          0         -1      )

 cart.    s( 3) = ( -1.0000000 -0.0000000  0.0000000 )
                  (  0.0000000 -1.0000000  0.0000000 )
                  (  0.0000000  0.0000000 -1.0000000 )

      isym =  4     inv. 180 deg rotation - cart. axis [0,0,1]

 cryst.   s( 4) = (     1          0          0      )    f =(  0.0000000 )
                  (     0          1          0      )       (  0.0000000 )
                  (     0          0         -1      )       (  0.5000000 )

 cart.    s( 4) = (  1.0000000  0.0000000  0.0000000 )    f =(  0.0000000 )
                  (  0.0000000  1.0000000  0.0000000 )       (  0.0000000 )
                  (  0.0000000  0.0000000 -1.0000000 )       (  0.7004856 )

   Cartesian axes

     site n.     atom                  positions (alat units)
         1           Cd  tau(   1) = (   0.0000000   0.0000000   0.0000000  )
         2           Cd  tau(   2) = (   0.0000000   0.0000000   0.7004856  )
         3           Se  tau(   3) = (   0.5039535   0.3258885   0.3502428  )
         4           Se  tau(   4) = (   0.0990196   0.5919185   1.0507284  )
         5           O   tau(   5) = (   0.1979973   0.2122943   0.3502428  )
         6           O   tau(   6) = (   0.1162349   0.2660098   1.0507284  )
         7           O   tau(   7) = (   0.6423555   0.2349623   0.0786239  )
         8           O   tau(   8) = (   0.6423555   0.2349623   0.6218617  )
         9           O   tau(   9) = (  -0.0393824   0.6828447   0.7791095  )
        10           O   tau(  10) = (  -0.0393824   0.6828447   1.3223473  )
        11           O   tau(  11) = (   0.4867382   0.6517972   0.3502428  )
        12           O   tau(  12) = (   0.4049758   0.7055127   1.0507284  )

   Crystallographic axes

     site n.     atom                  positions (cryst. coord.)
         1           Cd  tau(   1) = (  0.0000000  0.0000000  0.0000000  )
         2           Cd  tau(   2) = (  0.0000000  0.0000000  0.5000000  )
         3           Se  tau(   3) = (  0.6449270  0.3550730  0.2500000  )
         4           Se  tau(   4) = (  0.3550730  0.6449270  0.7500000  )
         5           O   tau(   5) = (  0.2898320  0.2313060  0.2500000  )
         6           O   tau(   6) = (  0.2313060  0.2898320  0.7500000  )
         7           O   tau(   7) = (  0.7439960  0.2560040  0.0561210  )
         8           O   tau(   8) = (  0.7439960  0.2560040  0.4438790  )
         9           O   tau(   9) = (  0.2560040  0.7439960  0.5561210  )
        10           O   tau(  10) = (  0.2560040  0.7439960  0.9438790  )
        11           O   tau(  11) = (  0.7686940  0.7101680  0.2500000  )
        12           O   tau(  12) = (  0.7101680  0.7686940  0.7500000  )

     number of k points=     1  Methfessel-Paxton smearing, width (Ry)=  0.0010
                       cart. coord. in units 2pi/alat
        k(    1) = (   0.0000000   0.0000000   0.0000000), wk =   2.0000000

                       cryst. coord.
        k(    1) = (   0.0000000   0.0000000   0.0000000), wk =   2.0000000

     Check: negative core charge=   -0.000008

     Initial potential from superposition of free atoms

     starting charge      83.9901, renormalised to      84.0000
     Starting wfcs are   58 randomized atomic wfcs
     Checking if some PAW data can be deallocated...

     Self-consistent Calculation

     iteration #  1     ecut=    30.00 Ry     beta= 0.70
     Davidson diagonalization with overlap

     ethr =  1.00E-02,  avg # of iterations =  3.0

     total energy              =    -662.49335074 Ry
     estimated scf accuracy    <       2.97420693 Ry

[...]

     total energy              =    -663.89590509 Ry
     estimated scf accuracy    <       0.00000104 Ry

     iteration # 10     ecut=    30.00 Ry     beta= 0.70
     Davidson diagonalization with overlap

     ethr =  1.24E-09,  avg # of iterations =  2.0

     End of self-consistent calculation

          k = 0.0000 0.0000 0.0000 (  1706 PWs)   bands (ev):

   -17.4424 -17.3026 -14.2658 -14.0793 -14.0672 -14.0291 -14.0122 -13.9700
    -6.5891  -6.0967  -3.4012  -3.3375  -3.1359  -2.7203  -2.4713  -2.3553
    -2.3345  -2.3092  -2.2663  -2.2065  -2.0600  -1.8864  -1.6603  -0.8725
    -0.7673  -0.4700   0.4328   1.0665   1.2131   1.7917   1.8763   1.9090
     2.1572   2.2757   2.4434   2.4765   2.6015   2.6909   3.1906   3.3133
     3.3243   3.4087   5.2012   7.4187   9.4655   9.9100  10.1941  10.6414
    10.9556  11.3835

     occupation numbers
     1.0000   1.0000   1.0000   1.0000   1.0000   1.0000   1.0000   1.0000
     1.0000   1.0000   1.0000   1.0000   1.0000   1.0000   1.0000   1.0000
     1.0000   1.0000   1.0000   1.0000   1.0000   1.0000   1.0000   1.0000
     1.0000   1.0000   1.0000   1.0000   1.0000   1.0000   1.0000   1.0000
     1.0000   1.0000   1.0000   1.0000   1.0000   1.0000   1.0000   1.0000
     1.0000   1.0000  -0.0000  -0.0000  -0.0000  -0.0000  -0.0000  -0.0000
    -0.0000  -0.0000

     the Fermi energy is     4.2450 ev

!    total energy              =    -663.89590525 Ry
     estimated scf accuracy    <       0.00000006 Ry
     smearing contrib. (-TS)   =       0.00000000 Ry
     internal energy E=F+TS    =    -663.89590525 Ry

     The total energy is F=E-TS. E is the sum of the following terms:
     one-electron contribution =    -213.08511451 Ry
     hartree contribution      =     164.34034379 Ry
     xc contribution           =    -204.81734022 Ry
     ewald contribution        =    -334.10726946 Ry
     one-center paw contrib.   =     -76.22652485 Ry
      -> PAW hartree energy AE =     236.82486843 Ry
      -> PAW hartree energy PS =    -236.01686598 Ry
      -> PAW xc energy AE      =    -137.37432644 Ry
      -> PAW xc energy PS      =      60.33979915 Ry
      -> total E_H with PAW    =     165.14834623 Ry
      -> total E_XC with PAW   =    -281.85186751 Ry

     convergence has been achieved in  10 iterations

     Forces acting on atoms (cartesian axes, Ry/au):

     atom    1 type  1   force =     0.00000000    0.00000000   -0.00000000
     atom    2 type  1   force =     0.00000000   -0.00000000   -0.00000000
     atom    3 type  2   force =    -0.02039477    0.01340106    0.00000000
     atom    4 type  2   force =     0.02039477   -0.01340106    0.00000000
     atom    5 type  3   force =     0.03938544    0.01792022    0.00000000
     atom    6 type  3   force =     0.00081626    0.04326718    0.00000000
     atom    7 type  3   force =    -0.00437027    0.00286902   -0.00826033
     atom    8 type  3   force =    -0.00437027    0.00286902    0.00826033
     atom    9 type  3   force =     0.00437027   -0.00286902   -0.00826033
     atom   10 type  3   force =     0.00437027   -0.00286902    0.00826033
     atom   11 type  3   force =    -0.00081626   -0.04326718    0.00000000
     atom   12 type  3   force =    -0.03938544   -0.01792022    0.00000000
     The non-local contrib.  to forces
     atom    1 type  1   force =    -0.00000000   -0.00000000    0.00000000
     atom    2 type  1   force =     0.00000000    0.00000000    0.00000000
     atom    3 type  2   force =    -0.16564833    0.10881417    0.00000000
     atom    4 type  2   force =     0.16564833   -0.10881417    0.00000000
     atom    5 type  3   force =     1.69824925    0.40411730    0.00000000
     atom    6 type  3   force =    -0.30333859    1.71914461    0.00000000
     atom    7 type  3   force =    -0.35563723    0.23363464    1.75619011
     atom    8 type  3   force =    -0.35563723    0.23363464   -1.75619011
     atom    9 type  3   force =     0.35563723   -0.23363464    1.75619011
     atom   10 type  3   force =     0.35563723   -0.23363464   -1.75619011
     atom   11 type  3   force =     0.30333859   -1.71914461    0.00000000
     atom   12 type  3   force =    -1.69824925   -0.40411730    0.00000000
     The ionic contribution  to forces
     atom    1 type  1   force =     0.00000000    0.00000000    0.00000000
     atom    2 type  1   force =     0.00000000    0.00000000   -0.00000000
     atom    3 type  2   force =    -0.23166368    0.15219646    0.00000000
     atom    4 type  2   force =     0.23166368   -0.15219646    0.00000000
     atom    5 type  3   force =    -2.45610842    1.94503197    0.00000000
     atom    6 type  3   force =     2.76030498   -1.48200350    0.00000000
     atom    7 type  3   force =    -0.68365314    0.44914070   -5.51838385
     atom    8 type  3   force =    -0.68365314    0.44914070    5.51838385
     atom    9 type  3   force =     0.68365314   -0.44914070   -5.51838385
     atom   10 type  3   force =     0.68365314   -0.44914070    5.51838385
     atom   11 type  3   force =    -2.76030498    1.48200350    0.00000000
     atom   12 type  3   force =     2.45610842   -1.94503197    0.00000000
     The local contribution  to forces
     atom    1 type  1   force =     0.00001622    0.00001532    0.00000739
     atom    2 type  1   force =     0.00000544    0.00003900   -0.00000201
     atom    3 type  2   force =     0.35456543   -0.23297328   -0.00009422
     atom    4 type  2   force =    -0.35459872    0.23295510    0.00011770
     atom    5 type  3   force =     0.81511243   -2.32690973   -0.00004226
     atom    6 type  3   force =    -2.45928971   -0.17573881    0.00003360
     atom    7 type  3   force =     1.03214160   -0.67806520    3.77173899
     atom    8 type  3   force =     1.03206561   -0.67802085   -3.77173584
     atom    9 type  3   force =    -1.03201852    0.67801786    3.77178701
     atom   10 type  3   force =    -1.03212021    0.67808207   -3.77178534
     atom   11 type  3   force =     2.45928234    0.17576997   -0.00003870
     atom   12 type  3   force =    -0.81508135    2.32690734    0.00005141
     The core correction contribution to forces
     atom    1 type  1   force =    -0.00000118    0.00000068    0.00000118
     atom    2 type  1   force =     0.00000103   -0.00000063    0.00000087
     atom    3 type  2   force =     0.02230902   -0.01465375    0.00000297
     atom    4 type  2   force =    -0.02230890    0.01465615   -0.00000594
     atom    5 type  3   force =    -0.01770655   -0.00427050    0.00000037
     atom    6 type  3   force =     0.00311026   -0.01794721   -0.00000069
     atom    7 type  3   force =     0.00276152   -0.00181379   -0.01768163
     atom    8 type  3   force =     0.00276070   -0.00181334    0.01768284
     atom    9 type  3   force =    -0.00276015    0.00181351   -0.01768308
     atom   10 type  3   force =    -0.00276119    0.00181411    0.01768106
     atom   11 type  3   force =    -0.00311027    0.01794753    0.00000054
     atom   12 type  3   force =     0.01770710    0.00427063   -0.00000051
     The Hubbard contrib.    to forces
     atom    1 type  1   force =     0.00000000    0.00000000    0.00000000
     atom    2 type  1   force =     0.00000000    0.00000000    0.00000000
     atom    3 type  2   force =     0.00000000    0.00000000    0.00000000
     atom    4 type  2   force =     0.00000000    0.00000000    0.00000000
     atom    5 type  3   force =     0.00000000    0.00000000    0.00000000
     atom    6 type  3   force =     0.00000000    0.00000000    0.00000000
     atom    7 type  3   force =     0.00000000    0.00000000    0.00000000
     atom    8 type  3   force =     0.00000000    0.00000000    0.00000000
     atom    9 type  3   force =     0.00000000    0.00000000    0.00000000
     atom   10 type  3   force =     0.00000000    0.00000000    0.00000000
     atom   11 type  3   force =     0.00000000    0.00000000    0.00000000
     atom   12 type  3   force =     0.00000000    0.00000000    0.00000000
     The SCF correction term to forces
     atom    1 type  1   force =    -0.00002722   -0.00001760   -0.00001107
     atom    2 type  1   force =    -0.00000692   -0.00006997    0.00001415
     atom    3 type  2   force =     0.00004435    0.00003070    0.00011872
     atom    4 type  2   force =    -0.00000804    0.00001155   -0.00017618
     atom    5 type  3   force =    -0.00013914   -0.00004400    0.00007447
     atom    6 type  3   force =     0.00002804   -0.00017993   -0.00007765
     atom    7 type  3   force =     0.00004816   -0.00003287   -0.00009147
     atom    8 type  3   force =     0.00008212   -0.00005341    0.00015416
     atom    9 type  3   force =    -0.00009814    0.00006158   -0.00021607
     atom   10 type  3   force =    -0.00006250    0.00003668    0.00012323
     atom   11 type  3   force =    -0.00002325    0.00016441    0.00007817
     atom   12 type  3   force =     0.00015177    0.00005590   -0.00009751

     Total force =     0.095202     Total SCF correction =     0.000562

     Computing stress (Cartesian axis) and pressure

          total   stress  (Ry/bohr**3)                   (kbar)     P=     -372.51
  -0.00270213   0.00012374   0.00000000         -397.50       18.20        0.00
   0.00012374  -0.00259494   0.00000000           18.20     -381.73        0.00
   0.00000000   0.00000000  -0.00229975            0.00        0.00     -338.31

     kinetic stress (kbar)  18380.42     93.66      0.00
                               93.66  18461.47      0.00
                                0.00      0.00  18090.46

     local   stress (kbar)  -7408.95    219.37      0.03
                              219.37  -7219.11     -0.02
                                0.03     -0.02 -12379.74

     nonloc. stress (kbar)   1356.42     -0.13      0.00
                               -0.13   1356.30      0.00
                                0.00      0.00   1373.37

     hartree stress (kbar)   5925.01    -49.28     -0.02
                              -49.28   5882.35      0.01
                               -0.02      0.01   7820.55

     exc-cor stress (kbar)   8258.28     -1.49      0.00
                               -1.49   8256.99     -0.00
                                0.00     -0.00   8263.18

     corecor stress (kbar) -12542.14     -0.39     -0.00
                               -0.39 -12542.48      0.00
                               -0.00      0.00 -12545.96

     ewald   stress (kbar) -14366.53   -243.55     -0.00
                             -243.55 -14577.24      0.00
                               -0.00      0.00 -10960.15

     hubbard stress (kbar)      0.00      0.00      0.00
                                0.00      0.00      0.00
                                0.00      0.00      0.00

     DFT-D   stress (kbar)      0.00      0.00      0.00
                                0.00      0.00      0.00
                                0.00      0.00      0.00

     XDM     stress (kbar)      0.00      0.00      0.00
                                0.00      0.00      0.00
                                0.00      0.00      0.00

     dft-nl  stress (kbar)      0.00      0.00      0.00
                                0.00      0.00      0.00
                                0.00      0.00      0.00

     TS-vdW  stress (kbar)      0.00      0.00      0.00
                                0.00      0.00      0.00
                                0.00      0.00      0.00

[...]

                                0.00      0.00      0.00

     Writing all to output data dir new_calculations/myprefix.save/

     General routines

     Parallel routines

     PAW routines

   This run was terminated on:  16:46:47  21May2023

   JOB DONE.