     Program PWSCF v.7.0 starts on 21May2023 at  1:13: 0

     Reading input from espresso_20337.pwi
Warning: card &CELL ignored
Warning: card / ignored

     Current dimensions of program PWSCF are:
     Max number of different atomic species (ntypx) = 10
     Max number of k-points (npk) =  40000
     Max angular momentum in pseudopotentials (lmaxx) =  4

     gamma-point specific algorithms are used
     Message from routine setup:
     using ibrav=0 with symmetry is DISCOURAGED, use correct ibrav instead

     Subspace diagonalization in iterative solution of the eigenvalue problem:
     a serial algorithm will be used

     Using Slab Decomposition

     bravais-lattice index     =            0
     lattice parameter (alat)  =      16.2984  a.u.
     unit-cell volume          =    2612.0829 (a.u.)^3
     number of atoms/cell      =           16
     number of atomic types    =            3
     number of electrons       =       352.00
     number of Kohn-Sham states=          211
     kinetic-energy cutoff     =      30.0000  Ry
     charge density cutoff     =     240.0000  Ry
     scf convergence threshold =      1.0E-06
     mixing beta               =       0.7000
     number of iterations used =            8  plain     mixing
     Exchange-correlation= PBE
                           (   1   4   3   4   0   0   0)

     celldm(1)=  16.298356  celldm(2)=   0.000000  celldm(3)=   0.000000
     celldm(4)=   0.000000  celldm(5)=   0.000000  celldm(6)=   0.000000

     crystal axes: (cart. coord. in units of alat)
               a(1) = (   1.000000   0.000000   0.000000 )
               a(2) = (   0.230961   0.972963   0.000000 )
               a(3) = (  -0.615480  -0.486482   0.620096 )

     reciprocal axes: (cart. coord. in units 2 pi/alat)
               b(1) = (  1.000000 -0.237379  0.806326 )
               b(2) = (  0.000000  1.027788  0.806326 )
               b(3) = (  0.000000  0.000000  1.612653 )

     PseudoPot. # 1 for Lu read from file:
     /home/pragov/projects/rrg-bengioy-ad/pragov/crystal_structure_design/SSSP/Lu.GGA-PBE-paw-v1.0.UPF
     MD5 check sum: 9ceca61ee0c17e9380a83635bfffa61d
     Pseudo is Projector augmented-wave + core cor, Zval = 25.0
     Generated using ATOMPAW code
     Shape of augmentation charge: BESSEL
     Using radial grid of 1118 points,  8 beta functions with:
                l(1) =   0
                l(2) =   0
                l(3) =   1
                l(4) =   1
                l(5) =   2
                l(6) =   2
                l(7) =   3
                l(8) =   3
     Q(r) pseudized with 0 coefficients

     PseudoPot. # 2 for Sb read from file:
     /home/pragov/projects/rrg-bengioy-ad/pragov/crystal_structure_design/SSSP/sb_pbe_v1.4.uspp.F.UPF
     MD5 check sum: 9bc50dfb53373b713f5709b9110fe27f
     Pseudo is Ultrasoft + core correction, Zval = 15.0
     Generated by new atomic code, or converted to UPF format
     Using radial grid of  891 points,  6 beta functions with:
                l(1) =   0
                l(2) =   0
                l(3) =   1
                l(4) =   1
                l(5) =   2
                l(6) =   2
     Q(r) pseudized with  8 coefficients,  rinner =    1.350   1.350   1.350
                                                       1.350   1.350

     PseudoPot. # 3 for Pd read from file:
     /home/pragov/projects/rrg-bengioy-ad/pragov/crystal_structure_design/SSSP/Pd_ONCV_PBE-1.0.oncvpsp.upf
     MD5 check sum: eb77f42b51d86fb18e25f68156a31cf1
     Pseudo is Norm-conserving, Zval = 18.0
     Generated using ONCVPSP code by D. R. Hamann
     Using radial grid of 1410 points,  6 beta functions with:
                l(1) =   0
                l(2) =   0
                l(3) =   1
                l(4) =   1
                l(5) =   2
                l(6) =   2

     atomic species   valence    mass     pseudopotential
        Lu            25.00   174.96680     Lu( 1.00)
        Sb            15.00   121.76000     Sb( 1.00)
        Pd            18.00   106.42000     Pd( 1.00)

      4 Sym. Ops., with inversion, found ( 2 have fractional translation)

                                    s                        frac. trans.

      isym =  1     identity

 cryst.   s( 1) = (     1          0          0      )
                  (     0          1          0      )
                  (     0          0          1      )

 cart.    s( 1) = (  1.0000000  0.0000000  0.0000000 )
                  (  0.0000000  1.0000000 -0.0000000 )
                  (  0.0000000  0.0000000  1.0000000 )

      isym =  2     180 deg rotation - cart. axis [0,0,1]

 cryst.   s( 2) = (    -1          0          0      )    f =(  0.5000000 )
                  (     0         -1          0      )       ( -0.5000000 )
                  (     1          1          1      )       (  0.0000000 )

 cart.    s( 2) = ( -1.0000000 -0.0000000 -0.0000000 )    f =(  0.3845195 )
                  (  0.0000000 -1.0000000 -0.0000000 )       ( -0.4864815 )
                  (  0.0000000  0.0000000  1.0000000 )       (  0.0000000 )

      isym =  3     inversion

 cryst.   s( 3) = (    -1          0          0      )
                  (     0         -1          0      )
                  (     0          0         -1      )

 cart.    s( 3) = ( -1.0000000 -0.0000000 -0.0000000 )
                  (  0.0000000 -1.0000000  0.0000000 )
                  (  0.0000000  0.0000000 -1.0000000 )

      isym =  4     inv. 180 deg rotation - cart. axis [0,0,1]

 cryst.   s( 4) = (     1          0          0      )    f =( -0.5000000 )
                  (     0          1          0      )       ( -0.5000000 )
                  (    -1         -1         -1      )       (  0.0000000 )

 cart.    s( 4) = (  1.0000000  0.0000000  0.0000000 )    f =( -0.6154805 )
                  (  0.0000000  1.0000000  0.0000000 )       ( -0.4864815 )
                  (  0.0000000  0.0000000 -1.0000000 )       (  0.0000000 )

   Cartesian axes

     site n.     atom                  positions (alat units)
         1           Lu  tau(   1) = (   0.3666268   0.4387742   0.3100482  )
         2           Lu  tau(   2) = (  -0.3686331   0.1038336   0.5032107  )
         3           Lu  tau(   3) = (   0.6313669   0.1038336   0.1168857  )
         4           Lu  tau(   4) = (   0.9841136   0.3826479   0.1168857  )
         5           Lu  tau(   5) = (  -0.1038929  -0.2311069   0.3100482  )
         6           Lu  tau(   6) = (   0.2488537   0.0477073   0.3100482  )
         7           Lu  tau(   7) = (   0.7193734   0.7175884   0.3100482  )
         8           Lu  tau(   8) = (  -0.0158864   0.3826479   0.5032107  )
         9           Lu  tau(   9) = (   0.0000000   0.0000000   0.0000000  )
        10           Lu  tau(  10) = (   0.6154805   0.4864815   0.0000000  )
        11           Sb  tau(  11) = (   0.9232207   0.7297223   0.0000000  )
        12           Sb  tau(  12) = (   0.3077402   0.2432408   0.0000000  )
        13           Pd  tau(  13) = (   0.4232207   0.7297223   0.1386077  )
        14           Pd  tau(  14) = (   0.7014306   0.3777402   0.3100482  )
        15           Pd  tau(  15) = (   0.1922598  -0.2432408   0.4814887  )
        16           Pd  tau(  16) = (  -0.0859501   0.1087413   0.3100482  )

   Crystallographic axes

     site n.     atom                  positions (cryst. coord.)
         1           Lu  tau(   1) = (  0.5124710  0.7009670  0.5000000  )
         2           Lu  tau(   2) = (  0.0124710  0.5124710  0.8115040  )
         3           Lu  tau(   3) = (  0.7009670  0.2009670  0.1884960  )
         4           Lu  tau(   4) = (  0.9875290  0.4875290  0.1884960  )
         5           Lu  tau(   5) = (  0.2009670  0.0124710  0.5000000  )
         6           Lu  tau(   6) = (  0.4875290  0.2990330  0.5000000  )
         7           Lu  tau(   7) = (  0.7990330  0.9875290  0.5000000  )
         8           Lu  tau(   8) = (  0.2990330  0.7990330  0.8115040  )
         9           Lu  tau(   9) = (  0.0000000  0.0000000  0.0000000  )
        10           Lu  tau(  10) = (  0.5000000  0.5000000  0.0000000  )
        11           Sb  tau(  11) = (  0.7500000  0.7500000  0.0000000  )
        12           Sb  tau(  12) = (  0.2500000  0.2500000  0.0000000  )
        13           Pd  tau(  13) = (  0.3617630  0.8617630  0.2235260  )
        14           Pd  tau(  14) = (  0.8617630  0.6382370  0.5000000  )
        15           Pd  tau(  15) = (  0.6382370  0.1382370  0.7764740  )
        16           Pd  tau(  16) = (  0.1382370  0.3617630  0.5000000  )

     number of k points=     1  Methfessel-Paxton smearing, width (Ry)=  0.0010
                       cart. coord. in units 2pi/alat
        k(    1) = (   0.0000000   0.0000000   0.0000000), wk =   2.0000000

                       cryst. coord.
        k(    1) = (   0.0000000   0.0000000   0.0000000), wk =   2.0000000

     Check: negative core charge=   -0.000003

     Initial potential from superposition of free atoms

     starting charge     349.9608, renormalised to     352.0000
     Starting wfcs are  378 randomized atomic wfcs
     Checking if some PAW data can be deallocated...

     Self-consistent Calculation

     iteration #  1     ecut=    30.00 Ry     beta= 0.70
     Davidson diagonalization with overlap

     ethr =  1.00E-02,  avg # of iterations =  6.0

     Threshold (ethr) on eigenvalues was too large:
     Diagonalizing with lowered threshold

     Davidson diagonalization with overlap

[...]

     total energy              =  -12186.04664628 Ry
     estimated scf accuracy    <       1.95789426 Ry

[...]

     total energy              =  -12187.11767747 Ry
     estimated scf accuracy    <       0.00000343 Ry

     iteration # 23     ecut=    30.00 Ry     beta= 0.70
     Davidson diagonalization with overlap

     ethr =  7.12E-10,  avg # of iterations =  1.0

     End of self-consistent calculation

          k = 0.0000 0.0000 0.0000 (  3632 PWs)   bands (ev):

   -75.8591 -73.7401 -72.8572 -72.7723 -41.4833 -41.3216 -40.8893 -40.7685
   -40.5160 -40.3028 -40.1618 -40.1244 -40.0940 -40.0263 -37.0888 -37.0582
   -36.9548 -36.6860 -36.5520 -36.5068 -36.4957 -36.3402 -36.3357 -36.2752
   -36.1695 -36.0657 -13.7958 -13.7654 -13.7005 -13.5098 -13.4238 -13.2727
   -13.0997 -13.0148 -12.5990 -12.3412 -12.2277 -11.9848 -11.8397 -11.8324
   -11.6946 -11.6152 -11.5869 -11.5640 -11.4949 -11.3677 -11.3655 -11.2917
   -11.2788 -11.2069 -11.1644 -11.1123 -11.1105 -11.0892 -11.0055 -10.9461
   -10.9429 -10.9164 -10.9054 -10.8610 -10.8507 -10.8153 -10.7595 -10.7215
   -10.6919 -10.2900   5.5350   6.1270   9.6135  10.6261  10.8287  10.9435
    10.9965  10.9971  11.0346  11.0435  11.0545  11.0692  11.0806  11.0879
    11.1125  11.1244  11.1326  11.1421  11.1453  11.1649  11.1693  11.1716
    11.1754  11.1901  11.1945  11.2014  11.2017  11.2143  11.2246  11.2257
    11.2285  11.2333  11.2334  11.2365  11.2428  11.2448  11.2493  11.2513
    11.2536  11.2580  11.2584  11.2685  11.2722  11.2753  11.2844  11.2857
    11.2914  11.2931  11.3043  11.3044  11.3077  11.3144  11.3176  11.3252
    11.3303  11.3332  11.3435  11.3448  11.3484  11.3535  11.3655  11.3694
    11.3823  11.3865  11.3877  11.4041  11.4050  11.4328  11.4392  11.4452
    11.4452  11.4677  11.4698  11.5323  11.5550  11.5741  11.6062  11.6329
    11.6625  11.8617  11.9181  11.9859  12.0768  12.2370  12.2839  12.2917
    12.3677  12.4550  12.6010  12.6238  12.7468  12.7677  12.7821  12.8072
    12.8694  12.9964  13.0127  13.1158  13.3069  13.4187  13.6570  13.8406
    13.8992  14.0497  14.9481  15.1977  15.1980  15.6924  15.9595  15.9598
    15.9700  16.0452  16.1198  16.2161  16.3407  16.3914  16.4440  16.6381
    16.6950  16.9189  16.9816  17.1661  17.3382  17.4111  17.4773  17.4932
    17.8793  17.9304  18.3114  18.3754  18.7442  19.1459  19.2591  19.3848
    19.3855  19.6691  19.7098  19.8177  19.8243  19.8668  20.0647  20.1221
    20.3240  20.3564  20.3801

     occupation numbers
     1.0000   1.0000   1.0000   1.0000   1.0000   1.0000   1.0000   1.0000
     1.0000   1.0000   1.0000   1.0000   1.0000   1.0000   1.0000   1.0000
     1.0000   1.0000   1.0000   1.0000   1.0000   1.0000   1.0000   1.0000
     1.0000   1.0000   1.0000   1.0000   1.0000   1.0000   1.0000   1.0000
     1.0000   1.0000   1.0000   1.0000   1.0000   1.0000   1.0000   1.0000
     1.0000   1.0000   1.0000   1.0000   1.0000   1.0000   1.0000   1.0000
     1.0000   1.0000   1.0000   1.0000   1.0000   1.0000   1.0000   1.0000
     1.0000   1.0000   1.0000   1.0000   1.0000   1.0000   1.0000   1.0000
     1.0000   1.0000   1.0000   1.0000   1.0000   1.0000   1.0000   1.0000
     1.0000   1.0000   1.0000   1.0000   1.0000   1.0000   1.0000   1.0000
     1.0000   1.0000   1.0000   1.0000   1.0000   1.0000   1.0000   1.0000
     1.0000   1.0000   1.0000   1.0000   1.0000   1.0000   1.0000   1.0000
     1.0000   1.0000   1.0000   1.0000   1.0000   1.0000   1.0000   1.0000
     1.0000   1.0000   1.0000   1.0000   1.0000   1.0000   1.0000   1.0000
     1.0000   1.0000   1.0000   1.0000   1.0000   1.0000   1.0000   1.0000
     1.0000   1.0000   1.0000   1.0000   1.0000   1.0000   1.0000   1.0000
     1.0000   1.0000   1.0000   1.0000   1.0000   1.0000   1.0000   1.0000
     1.0000   1.0000   1.0000   1.0000   1.0000   1.0000   1.0000   1.0000
     1.0000   1.0000   1.0000   1.0000   1.0000   1.0000   1.0000   1.0000
     1.0000   1.0000   1.0000   1.0000   1.0000   1.0000   1.0000   1.0000
     1.0000   1.0000   1.0000   1.0000   1.0000   1.0000   1.0000   1.0000
     1.0000   1.0000   1.0000   1.0000   1.0000   1.0000   0.8687   0.8551
     0.2762  -0.0000  -0.0000  -0.0000  -0.0000  -0.0000  -0.0000  -0.0000
    -0.0000  -0.0000  -0.0000  -0.0000  -0.0000  -0.0000  -0.0000  -0.0000
    -0.0000  -0.0000  -0.0000  -0.0000  -0.0000  -0.0000  -0.0000  -0.0000
    -0.0000  -0.0000  -0.0000  -0.0000  -0.0000  -0.0000  -0.0000  -0.0000
    -0.0000  -0.0000  -0.0000

     the Fermi energy is    15.9662 ev

!    total energy              =  -12187.11767724 Ry
     estimated scf accuracy    <       0.00000051 Ry
     smearing contrib. (-TS)   =      -0.00045738 Ry
     internal energy E=F+TS    =  -12187.11721986 Ry

     The total energy is F=E-TS. E is the sum of the following terms:
     one-electron contribution =   -4764.42277206 Ry
     hartree contribution      =    2184.66022273 Ry
     xc contribution           =    -600.80268763 Ry
     ewald contribution        =   -4099.98143711 Ry
     one-center paw contrib.   =   -4906.57054578 Ry
      -> PAW hartree energy AE =    4852.76949076 Ry
      -> PAW hartree energy PS =   -4166.18287065 Ry
      -> PAW xc energy AE      =   -5988.96485775 Ry
      -> PAW xc energy PS      =     395.80769186 Ry
      -> total E_H with PAW    =    2871.24684283 Ry
      -> total E_XC with PAW   =   -6193.95985353 Ry

     convergence has been achieved in  23 iterations

     Forces acting on atoms (cartesian axes, Ry/au):

     atom    1 type  1   force =     0.03909557    0.01923159    0.00000000
     atom    2 type  1   force =     0.07340504    0.03501656   -0.00200227
     atom    3 type  1   force =     0.07340504    0.03501656    0.00200227
     atom    4 type  1   force =    -0.07340504   -0.03501656    0.00200227
     atom    5 type  1   force =     0.05047714    0.01158302    0.00000000
     atom    6 type  1   force =    -0.03909557   -0.01923159   -0.00000000
     atom    7 type  1   force =    -0.05047714   -0.01158302   -0.00000000
     atom    8 type  1   force =    -0.07340504   -0.03501656   -0.00200227
     atom    9 type  1   force =     0.00000000    0.00000000    0.00000000
     atom   10 type  1   force =     0.00000000    0.00000000    0.00000000
     atom   11 type  2   force =     0.00000000    0.00000000    0.00095850
     atom   12 type  2   force =     0.00000000    0.00000000   -0.00095850
     atom   13 type  3   force =     0.00000000    0.00000000   -0.03345064
     atom   14 type  3   force =     0.02395274    0.07543917    0.00000000
     atom   15 type  3   force =     0.00000000    0.00000000    0.03345064
     atom   16 type  3   force =    -0.02395274   -0.07543917   -0.00000000
     The non-local contrib.  to forces
     atom    1 type  1   force =     0.14067855    0.00501224    0.00000000
     atom    2 type  1   force =     0.03769062    0.00870010    0.01791444
     atom    3 type  1   force =     0.03769062    0.00870010   -0.01791444
     atom    4 type  1   force =    -0.03769062   -0.00870010   -0.01791444
     atom    5 type  1   force =     0.05614839    0.12449546    0.00000000
     atom    6 type  1   force =    -0.14067855   -0.00501224   -0.00000000
     atom    7 type  1   force =    -0.05614839   -0.12449546   -0.00000000
     atom    8 type  1   force =    -0.03769062   -0.00870010    0.01791444
     atom    9 type  1   force =     0.00000000    0.00000000    0.00000000
     atom   10 type  1   force =     0.00000000    0.00000000    0.00000000
     atom   11 type  2   force =     0.00000000    0.00000000    0.00712568
     atom   12 type  2   force =     0.00000000    0.00000000   -0.00712568
     atom   13 type  3   force =     0.00000000    0.00000000    0.00729194
     atom   14 type  3   force =    -0.08493514    0.14828834    0.00000000
     atom   15 type  3   force =     0.00000000    0.00000000   -0.00729194
     atom   16 type  3   force =     0.08493514   -0.14828834   -0.00000000
     The ionic contribution  to forces
     atom    1 type  1   force =   -20.04587886  -20.59129684   -0.00000000
     atom    2 type  1   force =   -22.35513229  -17.66970500    3.72402339
     atom    3 type  1   force =   -22.35513229  -17.66970500   -3.72402340
     atom    4 type  1   force =    22.35513229   17.66970500   -3.72402339
     atom    5 type  1   force =   -24.66438571  -14.74811317   -0.00000000
     atom    6 type  1   force =    20.04587886   20.59129684    0.00000000
     atom    7 type  1   force =    24.66438571   14.74811317    0.00000000
     atom    8 type  1   force =    22.35513229   17.66970500    3.72402340
     atom    9 type  1   force =     0.00000000   -0.00000000   -0.00000000
     atom   10 type  1   force =     0.00000000    0.00000000   -0.00000000
     atom   11 type  2   force =    -0.00000000    0.00000000   -0.00000000
     atom   12 type  2   force =     0.00000000   -0.00000000   -0.00000000
     atom   13 type  3   force =     0.00000000   -0.00000000   -3.20968215
     atom   14 type  3   force =    -1.99031228    2.51807794    0.00000000
     atom   15 type  3   force =    -0.00000000    0.00000000    3.20968215
     atom   16 type  3   force =     1.99031228   -2.51807794    0.00000000
     The local contribution  to forces
     atom    1 type  1   force =    19.94385301   20.60688973    0.05163670
     atom    2 type  1   force =    22.50175448   17.63566038   -3.73648283
     atom    3 type  1   force =    22.28069008   17.75770180    3.74876322
     atom    4 type  1   force =   -22.50144633  -17.63539373    3.73737624
     atom    5 type  1   force =    24.66084897   14.63468560   -0.01996076
     atom    6 type  1   force =   -19.94425099  -20.60575570   -0.05170546
     atom    7 type  1   force =   -24.65957360  -14.63491778    0.01992711
     atom    8 type  1   force =   -22.28042295  -17.75793058   -3.74902748
     atom    9 type  1   force =    -0.00118191   -0.00105659    0.00013377
     atom   10 type  1   force =    -0.00130250   -0.00077448   -0.00021829
     atom   11 type  2   force =    -0.05261037    0.00698031   -0.00712498
     atom   12 type  2   force =     0.05427454   -0.00579643    0.00693595
     atom   13 type  3   force =     0.00350243   -0.05583910    3.16856172
     atom   14 type  3   force =     2.09837248   -2.59212896    0.02729774
     atom   15 type  3   force =    -0.00803056    0.05234990   -3.16900562
     atom   16 type  3   force =    -2.09999798    2.59050611   -0.02692221
     The core correction contribution to forces
     atom    1 type  1   force =    -0.00000193   -0.00000488    0.00000001
     atom    2 type  1   force =    -0.00000239   -0.00000374    0.00000168
     atom    3 type  1   force =    -0.00000468   -0.00000143   -0.00000177
     atom    4 type  1   force =     0.00000239    0.00000374   -0.00000168
     atom    5 type  1   force =    -0.00000469   -0.00000076   -0.00000156
     atom    6 type  1   force =     0.00000193    0.00000488   -0.00000001
     atom    7 type  1   force =     0.00000469    0.00000076    0.00000156
     atom    8 type  1   force =     0.00000468    0.00000142    0.00000177
     atom    9 type  1   force =    -0.00000000   -0.00000000   -0.00000000
     atom   10 type  1   force =    -0.00000000   -0.00000000   -0.00000000
     atom   11 type  2   force =    -0.00127474    0.00024362    0.00060167
     atom   12 type  2   force =     0.00128268   -0.00023880   -0.00060425
     atom   13 type  3   force =     0.00000000    0.00000000    0.00000000
     atom   14 type  3   force =     0.00000000    0.00000000    0.00000000
     atom   15 type  3   force =     0.00000000    0.00000000    0.00000000
     atom   16 type  3   force =     0.00000000    0.00000000    0.00000000
     The Hubbard contrib.    to forces
     atom    1 type  1   force =     0.00000000    0.00000000    0.00000000
     atom    2 type  1   force =     0.00000000    0.00000000    0.00000000
     atom    3 type  1   force =     0.00000000    0.00000000    0.00000000
     atom    4 type  1   force =     0.00000000    0.00000000    0.00000000
     atom    5 type  1   force =     0.00000000    0.00000000    0.00000000
     atom    6 type  1   force =     0.00000000    0.00000000    0.00000000
     atom    7 type  1   force =     0.00000000    0.00000000    0.00000000
     atom    8 type  1   force =     0.00000000    0.00000000    0.00000000
     atom    9 type  1   force =     0.00000000    0.00000000    0.00000000
     atom   10 type  1   force =     0.00000000    0.00000000    0.00000000
     atom   11 type  2   force =     0.00000000    0.00000000    0.00000000
     atom   12 type  2   force =     0.00000000    0.00000000    0.00000000
     atom   13 type  3   force =     0.00000000    0.00000000    0.00000000
     atom   14 type  3   force =     0.00000000    0.00000000    0.00000000
     atom   15 type  3   force =     0.00000000    0.00000000    0.00000000
     atom   16 type  3   force =     0.00000000    0.00000000    0.00000000
     The SCF correction term to forces
     atom    1 type  1   force =     0.00038691   -0.00140816   -0.00008091
     atom    2 type  1   force =    -0.00053179   -0.00078633   -0.00148384
     atom    3 type  1   force =    -0.00033179   -0.00061257    0.00119961
     atom    4 type  1   force =     0.00012049    0.00043479    0.00060767
     atom    5 type  1   force =    -0.00215981    0.00043429   -0.00008247
     atom    6 type  1   force =    -0.00010470    0.00019514    0.00008004
     atom    7 type  1   force =     0.00082446   -0.00036532    0.00016778
     atom    8 type  1   force =    -0.00007122    0.00075661   -0.00082646
     atom    9 type  1   force =     0.00125625    0.00108329   -0.00014814
     atom   10 type  1   force =     0.00132090    0.00079639    0.00024119
     atom   11 type  2   force =    -0.00076629   -0.00042084    0.00033671
     atom   12 type  2   force =    -0.00074432   -0.00067809   -0.00018394
     atom   13 type  3   force =     0.00183996    0.00165919    0.00039078
     atom   14 type  3   force =     0.00072959    0.00112290   -0.00021350
     atom   15 type  3   force =     0.00210705    0.00133852    0.00007898
     atom   16 type  3   force =     0.00069972    0.00034205   -0.00017823

     Total force =     0.224508     Total SCF correction =     0.006074

     Computing stress (Cartesian axis) and pressure

          total   stress  (Ry/bohr**3)                   (kbar)     P=     -196.60
  -0.00144965  -0.00088408  -0.00000000         -213.25     -130.05       -0.00
  -0.00088408  -0.00194915  -0.00000000         -130.05     -286.73       -0.00
  -0.00000000  -0.00000000  -0.00061057           -0.00       -0.00      -89.82

     kinetic stress (kbar)  25198.75    -86.69      0.00
                              -86.69  25121.39      0.00
                                0.00      0.00  25343.05

     local   stress (kbar)   7161.09   9124.80    -61.10
                             9124.80   2712.26    110.70
                              -61.10    110.70  -4603.59

     nonloc. stress (kbar)  18923.47    134.36      0.00
                              134.36  18931.83      0.00
                                0.00      0.00  18798.15

     hartree stress (kbar)  38516.23  -4229.25      7.05
                            -4229.25  40552.01    -36.65
                                7.05    -36.65  43965.61

     exc-cor stress (kbar)  -7516.33     -0.13     -0.34
                               -0.13  -7516.36     -0.27
                               -0.34     -0.27  -7515.77

     corecor stress (kbar)  -2587.68      0.07      0.69
                                0.07  -2587.64     -0.14
                                0.69     -0.14  -2586.97

     ewald   stress (kbar) -79908.77  -5073.22      0.00
                            -5073.22 -77500.22      0.00
                                0.00      0.00 -73490.30

     hubbard stress (kbar)      0.00      0.00      0.00
                                0.00      0.00      0.00
                                0.00      0.00      0.00

     DFT-D   stress (kbar)      0.00      0.00      0.00
                                0.00      0.00      0.00
                                0.00      0.00      0.00

     XDM     stress (kbar)      0.00      0.00      0.00
                                0.00      0.00      0.00
                                0.00      0.00      0.00

     dft-nl  stress (kbar)      0.00      0.00      0.00
                                0.00      0.00      0.00
                                0.00      0.00      0.00

     TS-vdW  stress (kbar)      0.00      0.00      0.00
                                0.00      0.00      0.00
                                0.00      0.00      0.00

[...]

                                0.00      0.00      0.00

     Writing all to output data dir new_calculations/myprefix.save/

     General routines

     Parallel routines

     PAW routines

   This run was terminated on:   1:17:50  21May2023

   JOB DONE.