     Program PWSCF v.7.0 starts on 21May2023 at 13:36:22

     Reading input from espresso_20655.pwi
Warning: card &CELL ignored
Warning: card / ignored

     Current dimensions of program PWSCF are:
     Max number of different atomic species (ntypx) = 10
     Max number of k-points (npk) =  40000
     Max angular momentum in pseudopotentials (lmaxx) =  4
     file Cd.pbe-dn-rrkjus_psl.0.3.1.UPF: wavefunction(s)  4D renormalized

     gamma-point specific algorithms are used
     Message from routine setup:
     using ibrav=0 with symmetry is DISCOURAGED, use correct ibrav instead

     Subspace diagonalization in iterative solution of the eigenvalue problem:
     a serial algorithm will be used

     Using Slab Decomposition

     bravais-lattice index     =            0
     lattice parameter (alat)  =      14.3754  a.u.
     unit-cell volume          =    2100.6011 (a.u.)^3
     number of atoms/cell      =           14
     number of atomic types    =            4
     number of electrons       =       136.00
     number of Kohn-Sham states=           82
     kinetic-energy cutoff     =      30.0000  Ry
     charge density cutoff     =     240.0000  Ry
     scf convergence threshold =      1.0E-06
     mixing beta               =       0.7000
     number of iterations used =            8  plain     mixing
     Exchange-correlation= SLA  PW   PBE  PBE
                           (   1   4   3   4   0   0   0)

     celldm(1)=  14.375386  celldm(2)=   0.000000  celldm(3)=   0.000000
     celldm(4)=   0.000000  celldm(5)=   0.000000  celldm(6)=   0.000000

     crystal axes: (cart. coord. in units of alat)
               a(1) = (   1.000000   0.000000   0.000000 )
               a(2) = (   0.500000   0.866025   0.000000 )
               a(3) = (   0.500000   0.288675   0.816497 )

     reciprocal axes: (cart. coord. in units 2 pi/alat)
               b(1) = (  1.000000 -0.577350 -0.408248 )
               b(2) = (  0.000000  1.154701 -0.408248 )
               b(3) = (  0.000000  0.000000  1.224745 )

     PseudoPot. # 1 for Zn read from file:
     /home/pragov/projects/rrg-bengioy-ad/pragov/crystal_structure_design/SSSP/Zn_pbe_v1.uspp.F.UPF
     MD5 check sum: df62231357ef9e81f77b2b3087fa5675
     Pseudo is Ultrasoft, Zval = 20.0
     Generated by new atomic code, or converted to UPF format
     Using radial grid of  943 points,  6 beta functions with:
                l(1) =   0
                l(2) =   0
                l(3) =   1
                l(4) =   1
                l(5) =   2
                l(6) =   2
     Q(r) pseudized with  8 coefficients,  rinner =    1.100   1.100   1.100
                                                       1.100   1.100

     PseudoPot. # 2 for Cr read from file:
     /home/pragov/projects/rrg-bengioy-ad/pragov/crystal_structure_design/SSSP/cr_pbe_v1.5.uspp.F.UPF
     MD5 check sum: 0d52af634a40206e4dee301ad30da4bf
     Pseudo is Ultrasoft + core correction, Zval = 14.0
     Generated by new atomic code, or converted to UPF format
     Using radial grid of  857 points,  6 beta functions with:
                l(1) =   0
                l(2) =   0
                l(3) =   1
                l(4) =   1
                l(5) =   2
                l(6) =   2
     Q(r) pseudized with  8 coefficients,  rinner =    0.950   0.950   0.950
                                                       0.950   0.950

     PseudoPot. # 3 for Cd read from file:
     /home/pragov/projects/rrg-bengioy-ad/pragov/crystal_structure_design/SSSP/Cd.pbe-dn-rrkjus_psl.0.3.1.UPF
     MD5 check sum: 558e9f355611b531a870a69ef6ace9e2
     Pseudo is Ultrasoft + core correction, Zval = 12.0
     Generated using "atomic" code by A. Dal Corso  v.5.0.99 svn rev. 10869
     Using radial grid of 1239 points,  6 beta functions with:
                l(1) =   0
                l(2) =   0
                l(3) =   1
                l(4) =   1
                l(5) =   2
                l(6) =   2
     Q(r) pseudized with 0 coefficients

     PseudoPot. # 4 for Se read from file:
     /home/pragov/projects/rrg-bengioy-ad/pragov/crystal_structure_design/SSSP/Se_pbe_v1.uspp.F.UPF
     MD5 check sum: 1b3568f3a8ae88f9a2a0ad0698632c85
     Pseudo is Ultrasoft + core correction, Zval =  6.0
     Generated by new atomic code, or converted to UPF format
     Using radial grid of  877 points,  6 beta functions with:
                l(1) =   0
                l(2) =   0
                l(3) =   1
                l(4) =   1
                l(5) =   2
                l(6) =   2
     Q(r) pseudized with  8 coefficients,  rinner =    1.300   1.300   1.300
                                                       1.300   1.300

     atomic species   valence    mass     pseudopotential
        Zn            20.00    65.38000     Zn( 1.00)
        Cr            14.00    51.99610     Cr( 1.00)
        Cd            12.00   112.41400     Cd( 1.00)
        Se             6.00    78.97100     Se( 1.00)

      6 Sym. Ops. (no inversion) found

                                    s                        frac. trans.

      isym =  1     identity

 cryst.   s( 1) = (     1          0          0      )
                  (     0          1          0      )
                  (     0          0          1      )

 cart.    s( 1) = (  1.0000000  0.0000000  0.0000000 )
                  (  0.0000000  1.0000000  0.0000000 )
                  (  0.0000000  0.0000000  1.0000000 )

      isym =  2     120 deg rotation - cryst. axis [0,0,1]

[...]

      isym =  3     120 deg rotation - cryst. axis [0,0,-1]

[...]

      isym =  4     inv. 180 deg rotation - cart. axis [1,0,0]

[...]

      isym =  5     inv. 180 deg rotation - cryst. axis [0,1,0]

[...]

      isym =  6     inv. 180 deg rotation - cryst. axis [1,1,0]

 cryst.   s( 6) = (     1         -1          0      )
                  (     0         -1          0      )
                  (     0         -1          1      )

 cart.    s( 6) = (  0.5000000 -0.8660254 -0.0000000 )
                  ( -0.8660254 -0.5000000 -0.0000000 )
                  (  0.0000000  0.0000000  1.0000000 )

   Cartesian axes

     site n.     atom                  positions (alat units)
         1           Zn  tau(   1) = (   1.0000000   0.5773503   0.4082483  )
         2           Cr  tau(   2) = (   0.7497370   0.1444900   0.1021699  )
         3           Cr  tau(   3) = (   0.5000005   0.5770463   0.1021699  )
         4           Cr  tau(   4) = (   0.5000005   0.2886754   0.5099878  )
         5           Cr  tau(   5) = (   0.2502640   0.1444900   0.1021699  )
         6           Cd  tau(   6) = (   1.5000000   0.8660254   0.6123724  )
         7           Se  tau(   7) = (   1.2188670   1.0283370   0.7271441  )
         8           Se  tau(   8) = (   1.4999995   0.5414013   0.7271441  )
         9           Se  tau(   9) = (   1.4999995   0.8660251   0.2680566  )
        10           Se  tau(  10) = (   1.7811320   1.0283370   0.7271441  )
        11           Se  tau(  11) = (   1.2716450   0.4205154   0.2973493  )
        12           Se  tau(  12) = (   0.9999995   0.8910192   0.2973493  )
        13           Se  tau(  13) = (   0.9999995   0.5773500   0.7409445  )
        14           Se  tau(  14) = (   0.7283540   0.4205154   0.2973493  )

   Crystallographic axes

     site n.     atom                  positions (cryst. coord.)
         1           Zn  tau(   1) = (  0.5000000  0.5000000  0.5000000  )
         2           Cr  tau(   2) = (  0.6246050  0.1251320  0.1251320  )
         3           Cr  tau(   3) = (  0.1251320  0.6246050  0.1251320  )
         4           Cr  tau(   4) = (  0.1251320  0.1251320  0.6246050  )
         5           Cr  tau(   5) = (  0.1251320  0.1251320  0.1251320  )
         6           Cd  tau(   6) = (  0.7500000  0.7500000  0.7500000  )
         7           Se  tau(   7) = (  0.3283010  0.8905660  0.8905660  )
         8           Se  tau(   8) = (  0.8905660  0.3283010  0.8905660  )
         9           Se  tau(   9) = (  0.8905660  0.8905660  0.3283010  )
        10           Se  tau(  10) = (  0.8905660  0.8905660  0.8905660  )
        11           Se  tau(  11) = (  0.9074680  0.3641770  0.3641770  )
        12           Se  tau(  12) = (  0.3641770  0.9074680  0.3641770  )
        13           Se  tau(  13) = (  0.3641770  0.3641770  0.9074680  )
        14           Se  tau(  14) = (  0.3641770  0.3641770  0.3641770  )

     number of k points=     1  Methfessel-Paxton smearing, width (Ry)=  0.0010
                       cart. coord. in units 2pi/alat
        k(    1) = (   0.0000000   0.0000000   0.0000000), wk =   2.0000000

                       cryst. coord.
        k(    1) = (   0.0000000   0.0000000   0.0000000), wk =   2.0000000

     Check: negative core charge=   -0.000004

     Initial potential from superposition of free atoms

     starting charge     131.9944, renormalised to     136.0000

     negative rho (up, down):  7.423E-03 0.000E+00
     Starting wfcs are   94 randomized atomic wfcs

     Self-consistent Calculation

     iteration #  1     ecut=    30.00 Ry     beta= 0.70
     Davidson diagonalization with overlap

     ethr =  1.00E-02,  avg # of iterations =  3.0

     negative rho (up, down):  2.134E-03 0.000E+00

     total energy              =   -1528.80779542 Ry
     estimated scf accuracy    <     129.35113294 Ry

[...]

     total energy              =   -1634.23750691 Ry
     estimated scf accuracy    <       0.00000253 Ry

     iteration # 36     ecut=    30.00 Ry     beta= 0.70
     Davidson diagonalization with overlap

     ethr =  1.86E-09,  avg # of iterations =  1.0

[...]

     End of self-consistent calculation

          k = 0.0000 0.0000 0.0000 (  2909 PWs)   bands (ev):

  -118.6566 -72.7615 -72.7615 -72.7615 -64.3172 -64.3170 -64.3169 -64.3169
   -35.6575 -35.6575 -35.6575 -35.6574 -35.6574 -35.6541 -35.6541 -35.6541
   -35.6131 -35.6011 -35.6011 -35.6010  -6.2825  -5.2587  -4.9658  -4.9658
    -4.9657  -4.8019  -4.8018  -4.8017  -0.9536  -0.9536  -0.9499  -0.9499
    -0.9499   0.4587   0.4587   0.4587   0.4914   0.4914   1.2370   1.8878
     2.3968   2.3968   2.3968   3.5230   3.5230   4.5731   4.5731   5.0622
     5.0622   5.0623   5.0997   5.0997   5.0997   5.3433   5.3433   5.3433
     5.9160   5.9160   5.9160   6.5630   6.8558   6.8558   7.3190   7.3190
     7.3190   7.3489   7.3489   7.3489   7.6081   7.6081   7.6081   7.6600
     7.6600   7.6600   9.2245   9.6962   9.6963   9.6964   9.9342   9.9545
     9.9550   9.9575

     occupation numbers
     1.0000   1.0000   1.0000   1.0000   1.0000   1.0000   1.0000   1.0000
     1.0000   1.0000   1.0000   1.0000   1.0000   1.0000   1.0000   1.0000
     1.0000   1.0000   1.0000   1.0000   1.0000   1.0000   1.0000   1.0000
     1.0000   1.0000   1.0000   1.0000   1.0000   1.0000   1.0000   1.0000
     1.0000   1.0000   1.0000   1.0000   1.0000   1.0000   1.0000   1.0000
     1.0000   1.0000   1.0000   1.0000   1.0000   1.0000   1.0000   1.0000
     1.0000   1.0000   1.0000   1.0000   1.0000   1.0000   1.0000   1.0000
     1.0000   1.0000   1.0000   1.0000   1.0000   1.0000   1.0000   1.0000
     1.0000   1.0000   1.0000   1.0000  -0.0000  -0.0000  -0.0000  -0.0000
    -0.0000  -0.0000  -0.0000  -0.0000  -0.0000  -0.0000  -0.0000  -0.0000
    -0.0000  -0.0000

     the Fermi energy is     7.4504 ev

!    total energy              =   -1634.23750683 Ry
     estimated scf accuracy    <       0.00000017 Ry
     smearing contrib. (-TS)   =       0.00000000 Ry
     internal energy E=F+TS    =   -1634.23750683 Ry

     The total energy is F=E-TS. E is the sum of the following terms:
     one-electron contribution =   -1031.25994939 Ry
     hartree contribution      =     566.12817426 Ry
     xc contribution           =    -412.24263477 Ry
     ewald contribution        =    -756.86309693 Ry

     convergence has been achieved in  36 iterations

     negative rho (up, down):  6.987E-03 0.000E+00

     Forces acting on atoms (cartesian axes, Ry/au):

     atom    1 type  1   force =     0.00000000    0.00000000   -0.00009608
     atom    2 type  2   force =    -0.02589242    0.01494900    0.01058794
     atom    3 type  2   force =     0.00000000   -0.02989800    0.01058794
     atom    4 type  2   force =     0.00000000    0.00000000   -0.03171767
     atom    5 type  2   force =     0.02589242    0.01494900    0.01058794
     atom    6 type  3   force =     0.00000000    0.00000000    0.00002129
     atom    7 type  4   force =    -0.01207060    0.00696897    0.00492051
     atom    8 type  4   force =     0.00000000   -0.01393793    0.00492051
     atom    9 type  4   force =     0.00000000    0.00000000   -0.01476783
     atom   10 type  4   force =     0.01207060    0.00696897    0.00492051
     atom   11 type  4   force =     0.00303165   -0.00175033   -0.00122455
     atom   12 type  4   force =     0.00000000    0.00350065   -0.00122455
     atom   13 type  4   force =     0.00000000    0.00000000    0.00370859
     atom   14 type  4   force =    -0.00303165   -0.00175033   -0.00122455
     The non-local contrib.  to forces
     atom    1 type  1   force =     0.00000000    0.00000000   -0.00007915
     atom    2 type  2   force =    -0.01471913    0.00849809    0.00600941
     atom    3 type  2   force =     0.00000000   -0.01699619    0.00600941
     atom    4 type  2   force =     0.00000000    0.00000000   -0.01802660
     atom    5 type  2   force =     0.01471913    0.00849809    0.00600941
     atom    6 type  3   force =     0.00000000    0.00000000    0.00002005
     atom    7 type  4   force =     0.05350057   -0.03088857   -0.02184143
     atom    8 type  4   force =     0.00000000    0.06177714   -0.02184143
     atom    9 type  4   force =     0.00000000    0.00000000    0.06552706
     atom   10 type  4   force =    -0.05350057   -0.03088857   -0.02184143
     atom   11 type  4   force =    -0.04395526    0.02537758    0.01794967
     atom   12 type  4   force =     0.00000000   -0.05075516    0.01794967
     atom   13 type  4   force =     0.00000000    0.00000000   -0.05383303
     atom   14 type  4   force =     0.04395526    0.02537758    0.01794967
     The ionic contribution  to forces
     atom    1 type  1   force =     0.00000459    0.00000265    0.00000187
     atom    2 type  2   force =    -0.13735999    0.07925395    0.05604100
     atom    3 type  2   force =    -0.00004406   -0.15858421    0.05604100
     atom    4 type  2   force =    -0.00004406   -0.00002544   -0.16819497
     atom    5 type  2   force =     0.13724263    0.07923707    0.05602907
     atom    6 type  3   force =     0.00000275    0.00000159    0.00000112
     atom    7 type  4   force =     4.54439526   -2.62367780   -1.85522037
     atom    8 type  4   force =     0.00002600    5.24740064   -1.85522037
     atom    9 type  4   force =     0.00002600    0.00001501    5.56570356
     atom   10 type  4   force =    -4.54434818   -2.62368065   -1.85522238
     atom   11 type  4   force =    -1.42623426    0.82345435    0.58227015
     atom   12 type  4   force =     0.00001525   -1.64688228    0.58227015
     atom   13 type  4   force =     0.00001525    0.00000881   -1.74678555
     atom   14 type  4   force =     1.42630283    0.82347632    0.58228569
     The local contribution  to forces
     atom    1 type  1   force =    -0.00004331    0.00001429    0.00018960
     atom    2 type  2   force =     0.12828384   -0.07389932   -0.05241369
     atom    3 type  2   force =     0.00010911    0.14800771   -0.05238541
     atom    4 type  2   force =     0.00009313    0.00008781    0.15717980
     atom    5 type  2   force =    -0.12818786   -0.07397069   -0.05246909
     atom    6 type  3   force =    -0.00001234   -0.00006576   -0.00002255
     atom    7 type  4   force =    -4.60309812    2.65745965    1.87904527
     atom    8 type  4   force =    -0.00004789   -5.31510280    1.87897465
     atom    9 type  4   force =    -0.00004138   -0.00010506   -5.63742166
     atom   10 type  4   force =     4.60306423    2.65747737    1.87904786
     atom   11 type  4   force =     1.46744298   -0.84713044   -0.59897209
     atom   12 type  4   force =     0.00001770    1.69437857   -0.59891562
     atom   13 type  4   force =     0.00000885    0.00009977    1.79706427
     atom   14 type  4   force =    -1.46750953   -0.84716462   -0.59900531
     The core correction contribution to forces
     atom    1 type  1   force =     0.00000000    0.00000000    0.00000000
     atom    2 type  2   force =    -0.00180156    0.00104051    0.00073546
     atom    3 type  2   force =    -0.00000004   -0.00208050    0.00073561
     atom    4 type  2   force =    -0.00000016    0.00000005   -0.00220670
     atom    5 type  2   force =     0.00180148    0.00104004    0.00073519
     atom    6 type  3   force =     0.00000193    0.00000029    0.00000002
     atom    7 type  4   force =    -0.00705536    0.00407380    0.00287977
     atom    8 type  4   force =     0.00000005   -0.00814751    0.00287999
     atom    9 type  4   force =    -0.00000027    0.00000211   -0.00864194
     atom   10 type  4   force =     0.00705528    0.00407378    0.00287891
     atom   11 type  4   force =     0.00588590   -0.00339832   -0.00240218
     atom   12 type  4   force =     0.00000047    0.00679612   -0.00240332
     atom   13 type  4   force =    -0.00000011   -0.00000003    0.00720733
     atom   14 type  4   force =    -0.00588565   -0.00339827   -0.00240241
     The Hubbard contrib.    to forces
     atom    1 type  1   force =     0.00000000    0.00000000    0.00000000
     atom    2 type  2   force =     0.00000000    0.00000000    0.00000000
     atom    3 type  2   force =     0.00000000    0.00000000    0.00000000
     atom    4 type  2   force =     0.00000000    0.00000000    0.00000000
     atom    5 type  2   force =     0.00000000    0.00000000    0.00000000
     atom    6 type  3   force =     0.00000000    0.00000000    0.00000000
     atom    7 type  4   force =     0.00000000    0.00000000    0.00000000
     atom    8 type  4   force =     0.00000000    0.00000000    0.00000000
     atom    9 type  4   force =     0.00000000    0.00000000    0.00000000
     atom   10 type  4   force =     0.00000000    0.00000000    0.00000000
     atom   11 type  4   force =     0.00000000    0.00000000    0.00000000
     atom   12 type  4   force =     0.00000000    0.00000000    0.00000000
     atom   13 type  4   force =     0.00000000    0.00000000    0.00000000
     atom   14 type  4   force =     0.00000000    0.00000000    0.00000000
     The SCF correction term to forces
     atom    1 type  1   force =     0.00004635   -0.00002168   -0.00021449
     atom    2 type  2   force =    -0.00029739    0.00005141    0.00021158
     atom    3 type  2   force =    -0.00007568   -0.00023843    0.00017903
     atom    4 type  2   force =    -0.00005302   -0.00006684   -0.00047530
     atom    5 type  2   force =     0.00032310    0.00014794    0.00027761
     atom    6 type  3   force =     0.00000298    0.00006532    0.00001657
     atom    7 type  4   force =     0.00019117    0.00000043    0.00005326
     atom    8 type  4   force =     0.00002165    0.00013514    0.00012225
     atom    9 type  4   force =     0.00001518    0.00009614    0.00005906
     atom   10 type  4   force =    -0.00019575   -0.00001093    0.00004871
     atom   11 type  4   force =    -0.00010683   -0.00005211   -0.00007348
     atom   12 type  4   force =    -0.00002850   -0.00003582   -0.00013637
     atom   13 type  4   force =    -0.00002208   -0.00010436    0.00004950
     atom   14 type  4   force =     0.00010586   -0.00004035   -0.00005614

     Total force =     0.070374     Total SCF correction =     0.000958

     Computing stress (Cartesian axis) and pressure

     negative rho (up, down):  6.987E-03 0.000E+00
          total   stress  (Ry/bohr**3)                   (kbar)     P=     -118.21
  -0.00080353   0.00000000   0.00000000         -118.20        0.00        0.00
   0.00000000  -0.00080353  -0.00000000            0.00     -118.20       -0.00
   0.00000000  -0.00000000  -0.00080364            0.00       -0.00     -118.22

     kinetic stress (kbar)  13369.87      0.00     -0.00
                                0.00  13369.87      0.00
                               -0.00      0.00  13369.87

     local   stress (kbar)  -9116.75      0.00      0.00
                                0.00  -9116.81      0.02
                                0.00      0.02  -9116.89

     nonloc. stress (kbar)   4625.76     -0.00     -0.00
                                0.00   4625.76      0.00
                                0.00      0.00   4625.76

     hartree stress (kbar)  13215.25     -0.00     -0.00
                               -0.00  13215.31     -0.02
                               -0.00     -0.02  13215.39

     exc-cor stress (kbar)  12044.74      0.00      0.00
                                0.00  12044.74      0.00
                                0.00      0.00  12044.74

     corecor stress (kbar) -16589.37     -0.00     -0.00
                               -0.00 -16589.37     -0.00
                               -0.00     -0.00 -16589.37

     ewald   stress (kbar) -17667.71     -0.00     -0.00
                               -0.00 -17667.71     -0.00
                               -0.00     -0.00 -17667.71

     hubbard stress (kbar)      0.00      0.00      0.00
                                0.00      0.00      0.00
                                0.00      0.00      0.00

     DFT-D   stress (kbar)      0.00      0.00      0.00
                                0.00      0.00      0.00
                                0.00      0.00      0.00

     XDM     stress (kbar)      0.00      0.00      0.00
                                0.00      0.00      0.00
                                0.00      0.00      0.00

     dft-nl  stress (kbar)      0.00      0.00      0.00
                                0.00      0.00      0.00
                                0.00      0.00      0.00

     TS-vdW  stress (kbar)      0.00      0.00      0.00
                                0.00      0.00      0.00
                                0.00      0.00      0.00

[...]

                                0.00      0.00      0.00

     Writing all to output data dir new_calculations/myprefix.save/

     General routines

     Parallel routines

   This run was terminated on:  13:38:14  21May2023

   JOB DONE.