     Program PWSCF v.7.0 starts on 21May2023 at  5:21: 8

     Reading input from espresso_19764.pwi
Warning: card &CELL ignored
Warning: card / ignored

     Current dimensions of program PWSCF are:
     Max number of different atomic species (ntypx) = 10
     Max number of k-points (npk) =  40000
     Max angular momentum in pseudopotentials (lmaxx) =  4

     gamma-point specific algorithms are used
     Message from routine setup:
     using ibrav=0 with symmetry is DISCOURAGED, use correct ibrav instead

     Subspace diagonalization in iterative solution of the eigenvalue problem:
     a serial algorithm will be used

     Using Slab Decomposition

     bravais-lattice index     =            0
     lattice parameter (alat)  =       7.3469  a.u.
     unit-cell volume          =    1234.5032 (a.u.)^3
     number of atoms/cell      =           12
     number of atomic types    =            3
     number of electrons       =       140.00
     number of Kohn-Sham states=           84
     kinetic-energy cutoff     =      30.0000  Ry
     charge density cutoff     =     240.0000  Ry
     scf convergence threshold =      1.0E-06
     mixing beta               =       0.7000
     number of iterations used =            8  plain     mixing
     Exchange-correlation= PBE
                           (   1   4   3   4   0   0   0)

     celldm(1)=   7.346936  celldm(2)=   0.000000  celldm(3)=   0.000000
     celldm(4)=   0.000000  celldm(5)=   0.000000  celldm(6)=   0.000000

     crystal axes: (cart. coord. in units of alat)
               a(1) = (   1.000000   0.000000   0.000000 )
               a(2) = (   0.000000   1.660476   0.000000 )
               a(3) = (   0.000000   0.000000   1.874740 )

     reciprocal axes: (cart. coord. in units 2 pi/alat)
               b(1) = (  1.000000  0.000000  0.000000 )
               b(2) = (  0.000000  0.602237  0.000000 )
               b(3) = (  0.000000  0.000000  0.533407 )

     PseudoPot. # 1 for Hf read from file:
     /home/pragov/projects/rrg-bengioy-ad/pragov/crystal_structure_design/SSSP/Hf-sp.oncvpsp.upf
     MD5 check sum: 417ed15784afe83d2e06dacf143de3f8
     Pseudo is Norm-conserving + core correction, Zval = 12.0
     Generated using ONCVPSP code by D. R. Hamann
     Using radial grid of 1656 points,  8 beta functions with:
                l(1) =   0
                l(2) =   0
                l(3) =   1
                l(4) =   1
                l(5) =   2
                l(6) =   2
                l(7) =   3
                l(8) =   3

     PseudoPot. # 2 for Cu read from file:
     /home/pragov/projects/rrg-bengioy-ad/pragov/crystal_structure_design/SSSP/Cu_pbe_v1.2.uspp.F.UPF
     MD5 check sum: 6e991ff952a84172a2a52a1c1e996048
     Pseudo is Ultrasoft + core correction, Zval = 19.0
     Generated by new atomic code, or converted to UPF format
     Using radial grid of  867 points,  6 beta functions with:
                l(1) =   0
                l(2) =   0
                l(3) =   1
                l(4) =   1
                l(5) =   2
                l(6) =   2
     Q(r) pseudized with  8 coefficients,  rinner =    1.150   1.150   1.150
                                                       1.150   1.150

     PseudoPot. # 3 for Si read from file:
     /home/pragov/projects/rrg-bengioy-ad/pragov/crystal_structure_design/SSSP/Si.pbe-n-rrkjus_psl.1.0.0.UPF
     MD5 check sum: 0b0bb1205258b0d07b9f9672cf965d36
     Pseudo is Ultrasoft + core correction, Zval =  4.0
     Generated using "atomic" code by A. Dal Corso  v.5.1
     Using radial grid of 1141 points,  6 beta functions with:
                l(1) =   0
                l(2) =   0
                l(3) =   1
                l(4) =   1
                l(5) =   2
                l(6) =   2
     Q(r) pseudized with 0 coefficients

     atomic species   valence    mass     pseudopotential
        Hf            12.00   178.49000     Hf( 1.00)
        Cu            19.00    63.54600     Cu( 1.00)
        Si             4.00    28.08500     Si( 1.00)

      8 Sym. Ops., with inversion, found ( 6 have fractional translation)

                                    s                        frac. trans.

      isym =  1     identity

 cryst.   s( 1) = (     1          0          0      )
                  (     0          1          0      )
                  (     0          0          1      )

 cart.    s( 1) = (  1.0000000  0.0000000  0.0000000 )
                  (  0.0000000  1.0000000  0.0000000 )
                  (  0.0000000  0.0000000  1.0000000 )

      isym =  2     180 deg rotation - cart. axis [0,0,1]

 cryst.   s( 2) = (    -1          0          0      )    f =(  0.0000000 )
                  (     0         -1          0      )       (  0.5000000 )
                  (     0          0          1      )       (  0.5000000 )

 cart.    s( 2) = ( -1.0000000  0.0000000  0.0000000 )    f =(  0.0000000 )
                  (  0.0000000 -1.0000000  0.0000000 )       (  0.8302379 )
                  (  0.0000000  0.0000000  1.0000000 )       (  0.9373698 )

[...]

      isym =  4     180 deg rotation - cart. axis [1,0,0]

[...]

      isym =  5     inversion

 cryst.   s( 5) = (    -1          0          0      )
                  (     0         -1          0      )
                  (     0          0         -1      )

 cart.    s( 5) = ( -1.0000000  0.0000000  0.0000000 )
                  (  0.0000000 -1.0000000  0.0000000 )
                  (  0.0000000  0.0000000 -1.0000000 )

      isym =  6     inv. 180 deg rotation - cart. axis [0,0,1]

[...]

      isym =  8     inv. 180 deg rotation - cart. axis [1,0,0]

 cryst.   s( 8) = (    -1          0          0      )    f =(  0.5000000 )
                  (     0          1          0      )       (  0.0000000 )
                  (     0          0          1      )       (  0.0000000 )

 cart.    s( 8) = ( -1.0000000  0.0000000  0.0000000 )    f =(  0.5000000 )
                  (  0.0000000  1.0000000  0.0000000 )       (  0.0000000 )
                  (  0.0000000  0.0000000  1.0000000 )       (  0.0000000 )

   Cartesian axes

     site n.     atom                  positions (alat units)
         1           Hf  tau(   1) = (   0.2500000   0.8500523   1.2941515  )
         2           Hf  tau(   2) = (   0.7500000   0.8104234   0.5805881  )
         3           Hf  tau(   3) = (   0.2500000   0.0198145   1.5179580  )
         4           Hf  tau(   4) = (   0.7500000   1.6406613   0.3567817  )
         5           Cu  tau(   5) = (   0.7500000   1.3844930   1.0783709  )
         6           Cu  tau(   6) = (   0.2500000   0.2759827   0.7963688  )
         7           Cu  tau(   7) = (   0.7500000   0.5542552   1.7337386  )
         8           Cu  tau(   8) = (   0.2500000   1.1062206   0.1410010  )
         9           Si  tau(   9) = (   0.2500000   0.4609580   0.1956628  )
        10           Si  tau(  10) = (   0.7500000   1.1995177   1.6790768  )
        11           Si  tau(  11) = (   0.2500000   1.2911959   0.7417070  )
        12           Si  tau(  12) = (   0.7500000   0.3692798   1.1330327  )

   Crystallographic axes

     site n.     atom                  positions (cryst. coord.)
         1           Hf  tau(   1) = (  0.2500000  0.5119330  0.6903100  )
         2           Hf  tau(   2) = (  0.7500000  0.4880670  0.3096900  )
         3           Hf  tau(   3) = (  0.2500000  0.0119330  0.8096900  )
         4           Hf  tau(   4) = (  0.7500000  0.9880670  0.1903100  )
         5           Cu  tau(   5) = (  0.7500000  0.8337930  0.5752110  )
         6           Cu  tau(   6) = (  0.2500000  0.1662070  0.4247890  )
         7           Cu  tau(   7) = (  0.7500000  0.3337930  0.9247890  )
         8           Cu  tau(   8) = (  0.2500000  0.6662070  0.0752110  )
         9           Si  tau(   9) = (  0.2500000  0.2776060  0.1043680  )
        10           Si  tau(  10) = (  0.7500000  0.7223940  0.8956320  )
        11           Si  tau(  11) = (  0.2500000  0.7776060  0.3956320  )
        12           Si  tau(  12) = (  0.7500000  0.2223940  0.6043680  )

     number of k points=     1  Methfessel-Paxton smearing, width (Ry)=  0.0010
                       cart. coord. in units 2pi/alat
        k(    1) = (   0.0000000   0.0000000   0.0000000), wk =   2.0000000

                       cryst. coord.
        k(    1) = (   0.0000000   0.0000000   0.0000000), wk =   2.0000000

     Initial potential from superposition of free atoms

     starting charge     135.9904, renormalised to     140.0000
     Starting wfcs are  108 randomized atomic wfcs

     Self-consistent Calculation

     iteration #  1     ecut=    30.00 Ry     beta= 0.70
     Davidson diagonalization with overlap

     ethr =  1.00E-02,  avg # of iterations =  3.0

     total energy              =   -2110.09354808 Ry
     estimated scf accuracy    <       2.78224608 Ry

[...]

     total energy              =   -2111.53244605 Ry
     estimated scf accuracy    <       0.00002751 Ry

     iteration # 19     ecut=    30.00 Ry     beta= 0.70
     Davidson diagonalization with overlap

     ethr =  5.87E-09,  avg # of iterations =  2.0

     End of self-consistent calculation

          k = 0.0000 0.0000 0.0000 (  1727 PWs)   bands (ev):

   -99.1124 -99.1118 -99.1107 -99.1097 -56.5932 -56.5906 -56.5898 -56.5893
   -56.4951 -56.4942 -56.4940 -56.4930 -56.2972 -56.2944 -56.2941 -56.2929
   -46.5759 -46.5573 -46.5408 -46.5386 -15.5760 -15.5573 -15.4236 -15.4176
   -15.4048 -15.3917 -15.2774 -15.2447 -15.2175 -15.1816 -15.1734 -15.1427
     3.4601   5.5591   5.8539   6.1839   8.3043   8.6411   9.6768   9.7807
     9.8125   9.9250  10.0300  10.0730  10.2294  10.2618  10.4486  10.5083
    10.5091  10.5856  10.6286  10.8364  10.8424  10.9315  10.9585  10.9965
    11.0853  11.2842  11.5294  11.9381  12.3243  12.8593  13.0681  13.3212
    13.3995  13.8611  14.0443  14.2477  15.0660  15.3407  15.4042  15.5282
    15.7906  16.0115  16.0298  16.9375  17.2930  17.4081  17.5445  18.0441
    18.1760  18.4288  18.5010  18.8395

     occupation numbers
     1.0000   1.0000   1.0000   1.0000   1.0000   1.0000   1.0000   1.0000
     1.0000   1.0000   1.0000   1.0000   1.0000   1.0000   1.0000   1.0000
     1.0000   1.0000   1.0000   1.0000   1.0000   1.0000   1.0000   1.0000
     1.0000   1.0000   1.0000   1.0000   1.0000   1.0000   1.0000   1.0000
     1.0000   1.0000   1.0000   1.0000   1.0000   1.0000   1.0000   1.0000
     1.0000   1.0000   1.0000   1.0000   1.0000   1.0000   1.0000   1.0000
     1.0000   1.0000   1.0000   1.0000   1.0000   1.0000   1.0000   1.0000
     1.0000   1.0000   1.0000   1.0000   1.0000   1.0000   1.0000   1.0000
     1.0000   1.0000   1.0000   1.0000   1.0000   1.0024  -0.0024  -0.0000
    -0.0000  -0.0000  -0.0000  -0.0000  -0.0000  -0.0000  -0.0000  -0.0000
    -0.0000  -0.0000  -0.0000  -0.0000

     the Fermi energy is    15.3725 ev

!    total energy              =   -2111.53244743 Ry
     estimated scf accuracy    <       0.00000017 Ry
     smearing contrib. (-TS)   =       0.00002407 Ry
     internal energy E=F+TS    =   -2111.53247150 Ry

     The total energy is F=E-TS. E is the sum of the following terms:
     one-electron contribution =   -1466.21085304 Ry
     hartree contribution      =     801.16553465 Ry
     xc contribution           =    -294.37129083 Ry
     ewald contribution        =   -1152.11586228 Ry

     convergence has been achieved in  19 iterations

     Forces acting on atoms (cartesian axes, Ry/au):

     atom    1 type  1   force =    -0.00000000   -0.04425046   -0.03446940
     atom    2 type  1   force =     0.00000000    0.04425046    0.03446940
     atom    3 type  1   force =     0.00000000   -0.04425046    0.03446940
     atom    4 type  1   force =    -0.00000000    0.04425046   -0.03446940
     atom    5 type  2   force =     0.00000000    0.01828641    0.01290057
     atom    6 type  2   force =     0.00000000   -0.01828641   -0.01290057
     atom    7 type  2   force =    -0.00000000    0.01828641   -0.01290057
     atom    8 type  2   force =     0.00000000   -0.01828641    0.01290057
     atom    9 type  3   force =    -0.00000000   -0.02475820    0.06969263
     atom   10 type  3   force =    -0.00000000    0.02475820   -0.06969263
     atom   11 type  3   force =    -0.00000000   -0.02475820   -0.06969263
     atom   12 type  3   force =     0.00000000    0.02475820    0.06969263
     The non-local contrib.  to forces
     atom    1 type  1   force =     0.00000000    0.01609525    0.04775031
     atom    2 type  1   force =     0.00000000   -0.01609525   -0.04775031
     atom    3 type  1   force =    -0.00000000    0.01609525   -0.04775031
     atom    4 type  1   force =    -0.00000000   -0.01609525    0.04775031
     atom    5 type  2   force =     0.00000000    0.08092578   -0.67235271
     atom    6 type  2   force =     0.00000000   -0.08092578    0.67235271
     atom    7 type  2   force =     0.00000000    0.08092578    0.67235271
     atom    8 type  2   force =    -0.00000000   -0.08092578   -0.67235271
     atom    9 type  3   force =     0.00000000    0.06039792   -0.05288640
     atom   10 type  3   force =     0.00000000   -0.06039792    0.05288640
     atom   11 type  3   force =    -0.00000000    0.06039792    0.05288640
     atom   12 type  3   force =    -0.00000000   -0.06039792   -0.05288640
     The ionic contribution  to forces
     atom    1 type  1   force =     0.00000000    0.23803229   -5.68849136
     atom    2 type  1   force =    -0.00000000   -0.23803229    5.68849136
     atom    3 type  1   force =     0.00000000    0.23803229    5.68849136
     atom    4 type  1   force =    -0.00000000   -0.23803229   -5.68849136
     atom    5 type  2   force =    -0.00000000   -7.06038342    2.49527547
     atom    6 type  2   force =     0.00000000    7.06038342   -2.49527547
     atom    7 type  2   force =    -0.00000000   -7.06038342   -2.49527547
     atom    8 type  2   force =    -0.00000000    7.06038342    2.49527547
     atom    9 type  3   force =     0.00000000   -2.52618974    0.86791593
     atom   10 type  3   force =     0.00000000    2.52618974   -0.86791593
     atom   11 type  3   force =     0.00000000   -2.52618974   -0.86791593
     atom   12 type  3   force =    -0.00000000    2.52618974    0.86791593
     The local contribution  to forces
     atom    1 type  1   force =    -0.00000801   -0.29088966    5.61324477
     atom    2 type  1   force =    -0.00000049    0.29022010   -5.61318577
     atom    3 type  1   force =     0.00000943   -0.28998857   -5.61281254
     atom    4 type  1   force =     0.00000493    0.29018003    5.61268458
     atom    5 type  2   force =    -0.00001897    6.99808721   -1.81027103
     atom    6 type  2   force =    -0.00001621   -6.99743662    1.81126790
     atom    7 type  2   force =     0.00000824    6.99680671    1.81014561
     atom    8 type  2   force =    -0.00000736   -6.99695073   -1.81098994
     atom    9 type  3   force =    -0.00000230    2.44789116   -0.75131521
     atom   10 type  3   force =    -0.00000206   -2.44783717    0.75131395
     atom   11 type  3   force =     0.00000171    2.44800886    0.75108613
     atom   12 type  3   force =     0.00000120   -2.44795237   -0.75107779
     The core correction contribution to forces
     atom    1 type  1   force =    -0.00000020   -0.00807173   -0.00693386
     atom    2 type  1   force =     0.00000031    0.00806305    0.00692941
     atom    3 type  1   force =    -0.00000007   -0.00805736    0.00691615
     atom    4 type  1   force =     0.00000011    0.00805721   -0.00691302
     atom    5 type  2   force =     0.00000000    0.00001542    0.00081428
     atom    6 type  2   force =     0.00000001   -0.00001550   -0.00081430
     atom    7 type  2   force =    -0.00000001    0.00001574   -0.00081387
     atom    8 type  2   force =    -0.00000002   -0.00001559    0.00081419
     atom    9 type  3   force =    -0.00000036   -0.00694918    0.00587410
     atom   10 type  3   force =    -0.00000024    0.00695117   -0.00587201
     atom   11 type  3   force =     0.00000016   -0.00694851   -0.00587020
     atom   12 type  3   force =    -0.00000003    0.00695058    0.00587075
     The Hubbard contrib.    to forces
     atom    1 type  1   force =     0.00000000    0.00000000    0.00000000
     atom    2 type  1   force =     0.00000000    0.00000000    0.00000000
     atom    3 type  1   force =     0.00000000    0.00000000    0.00000000
     atom    4 type  1   force =     0.00000000    0.00000000    0.00000000
     atom    5 type  2   force =     0.00000000    0.00000000    0.00000000
     atom    6 type  2   force =     0.00000000    0.00000000    0.00000000
     atom    7 type  2   force =     0.00000000    0.00000000    0.00000000
     atom    8 type  2   force =     0.00000000    0.00000000    0.00000000
     atom    9 type  3   force =     0.00000000    0.00000000    0.00000000
     atom   10 type  3   force =     0.00000000    0.00000000    0.00000000
     atom   11 type  3   force =     0.00000000    0.00000000    0.00000000
     atom   12 type  3   force =     0.00000000    0.00000000    0.00000000
     The SCF correction term to forces
     atom    1 type  1   force =     0.00000762    0.00051665   -0.00014634
     atom    2 type  1   force =     0.00000377    0.00007367    0.00008329
     atom    3 type  1   force =    -0.00000941   -0.00028315   -0.00047757
     atom    4 type  1   force =    -0.00000573    0.00014412    0.00060345
     atom    5 type  2   force =     0.00002770   -0.00041478   -0.00058287
     atom    6 type  2   force =     0.00001066   -0.00026771   -0.00043756
     atom    7 type  2   force =    -0.00001057    0.00091446    0.00071779
     atom    8 type  2   force =     0.00000431   -0.00086531    0.00019216
     atom    9 type  3   force =     0.00000017    0.00008840    0.00012205
     atom   10 type  3   force =     0.00000037   -0.00011453   -0.00011344
     atom   11 type  3   force =    -0.00000115    0.00000414    0.00013232
     atom   12 type  3   force =    -0.00000012   -0.00003732   -0.00014478

     Total force =     0.190967     Total SCF correction =     0.001999

     Computing stress (Cartesian axis) and pressure

          total   stress  (Ry/bohr**3)                   (kbar)     P=     -396.44
  -0.00189216   0.00000000   0.00000000         -278.35        0.00        0.00
   0.00000000  -0.00407531   0.00000000            0.00     -599.50        0.00
   0.00000000   0.00000000  -0.00211737            0.00        0.00     -311.48

     kinetic stress (kbar)  23568.28      0.00      0.00
                                0.00  23439.99      0.00
                                0.00      0.00  23483.38

     local   stress (kbar) -19289.18      0.00      0.00
                                0.00 -13672.48     -0.06
                                0.00     -0.06 -14000.41

     nonloc. stress (kbar)  14916.61      0.00      0.00
                                0.00  14953.56      0.00
                                0.00      0.00  14972.77

     hartree stress (kbar)  33435.00     -0.00     -0.00
                               -0.00  31245.52      0.08
                               -0.00      0.08  30787.45

     exc-cor stress (kbar)    304.45     -0.00     -0.00
                               -0.00    301.97     -0.00
                               -0.00     -0.00    300.03

     corecor stress (kbar)  -9554.84     -0.00     -0.00
                               -0.00  -9549.52     -0.00
                               -0.00     -0.00  -9544.22

     ewald   stress (kbar) -43658.66     -0.00      0.00
                               -0.00 -47318.54     -0.00
                                0.00     -0.00 -46310.48

     hubbard stress (kbar)      0.00      0.00      0.00
                                0.00      0.00      0.00
                                0.00      0.00      0.00

     DFT-D   stress (kbar)      0.00      0.00      0.00
                                0.00      0.00      0.00
                                0.00      0.00      0.00

     XDM     stress (kbar)      0.00      0.00      0.00
                                0.00      0.00      0.00
                                0.00      0.00      0.00

     dft-nl  stress (kbar)      0.00      0.00      0.00
                                0.00      0.00      0.00
                                0.00      0.00      0.00

     TS-vdW  stress (kbar)      0.00      0.00      0.00
                                0.00      0.00      0.00
                                0.00      0.00      0.00

[...]

                                0.00      0.00      0.00

     Writing all to output data dir new_calculations/myprefix.save/

     General routines

     Parallel routines

   This run was terminated on:   5:22:13  21May2023

   JOB DONE.