     Program PWSCF v.7.0 starts on 21May2023 at 20:42:42

     Reading input from espresso_24044.pwi
Warning: card &CELL ignored
Warning: card / ignored

     Current dimensions of program PWSCF are:
     Max number of different atomic species (ntypx) = 10
     Max number of k-points (npk) =  40000
     Max angular momentum in pseudopotentials (lmaxx) =  4
     file Al.pbe-n-kjpaw_psl.1.0.0.UPF: wavefunction(s)  3S 3P renormalized

     gamma-point specific algorithms are used
     Message from routine setup:
     using ibrav=0 with symmetry is DISCOURAGED, use correct ibrav instead

     Subspace diagonalization in iterative solution of the eigenvalue problem:
     a serial algorithm will be used

     Using Slab Decomposition

     bravais-lattice index     =            0
     lattice parameter (alat)  =       7.9488  a.u.
     unit-cell volume          =     770.1355 (a.u.)^3
     number of atoms/cell      =            5
     number of atomic types    =            3
     number of electrons       =        24.00
     number of Kohn-Sham states=           16
     kinetic-energy cutoff     =      30.0000  Ry
     charge density cutoff     =     240.0000  Ry
     scf convergence threshold =      1.0E-06
     mixing beta               =       0.7000
     number of iterations used =            8  plain     mixing
     Exchange-correlation= PBE
                           (   1   4   3   4   0   0   0)

     celldm(1)=   7.948812  celldm(2)=   0.000000  celldm(3)=   0.000000
     celldm(4)=   0.000000  celldm(5)=   0.000000  celldm(6)=   0.000000

     crystal axes: (cart. coord. in units of alat)
               a(1) = (   1.000000   0.000000   0.000000 )
               a(2) = (  -0.500000   0.866025   0.000000 )
               a(3) = (   0.000000   0.000000   1.770638 )

     reciprocal axes: (cart. coord. in units 2 pi/alat)
               b(1) = (  1.000000  0.577350  0.000000 )
               b(2) = (  0.000000  1.154701  0.000000 )
               b(3) = (  0.000000  0.000000  0.564768 )

     PseudoPot. # 1 for Sr read from file:
     /home/pragov/projects/rrg-bengioy-ad/pragov/crystal_structure_design/SSSP/Sr_pbe_v1.uspp.F.UPF
     MD5 check sum: 6b418c05fbe9db5448babca5e47b7a5b
     Pseudo is Ultrasoft + core correction, Zval = 10.0
     Generated by new atomic code, or converted to UPF format
     Using radial grid of  883 points,  6 beta functions with:
                l(1) =   0
                l(2) =   0
                l(3) =   1
                l(4) =   1
                l(5) =   2
                l(6) =   2
     Q(r) pseudized with  6 coefficients,  rinner =    1.400   1.400   1.400
                                                       1.400   1.400

     PseudoPot. # 2 for Al read from file:
     /home/pragov/projects/rrg-bengioy-ad/pragov/crystal_structure_design/SSSP/Al.pbe-n-kjpaw_psl.1.0.0.UPF
     MD5 check sum: cfc449ca30b5f3223ec38ddd88ac046d
     Pseudo is Projector augmented-wave + core cor, Zval =  3.0
     Generated using "atomic" code by A. Dal Corso  v.5.1
     Shape of augmentation charge: PSQ
     Using radial grid of 1135 points,  6 beta functions with:
                l(1) =   0
                l(2) =   0
                l(3) =   1
                l(4) =   1
                l(5) =   2
                l(6) =   2
     Q(r) pseudized with 0 coefficients

     PseudoPot. # 3 for Si read from file:
     /home/pragov/projects/rrg-bengioy-ad/pragov/crystal_structure_design/SSSP/Si.pbe-n-rrkjus_psl.1.0.0.UPF
     MD5 check sum: 0b0bb1205258b0d07b9f9672cf965d36
     Pseudo is Ultrasoft + core correction, Zval =  4.0
     Generated using "atomic" code by A. Dal Corso  v.5.1
     Using radial grid of 1141 points,  6 beta functions with:
                l(1) =   0
                l(2) =   0
                l(3) =   1
                l(4) =   1
                l(5) =   2
                l(6) =   2
     Q(r) pseudized with 0 coefficients

     atomic species   valence    mass     pseudopotential
        Sr            10.00    87.62000     Sr( 1.00)
        Al             3.00    26.98154     Al( 1.00)
        Si             4.00    28.08500     Si( 1.00)

     12 Sym. Ops., with inversion, found

                                    s                        frac. trans.

      isym =  1     identity

 cryst.   s( 1) = (     1          0          0      )
                  (     0          1          0      )
                  (     0          0          1      )

 cart.    s( 1) = (  1.0000000  0.0000000  0.0000000 )
                  (  0.0000000  1.0000000  0.0000000 )
                  (  0.0000000  0.0000000  1.0000000 )

      isym =  2     180 deg rotation - cart. axis [1,0,0]

[...]

      isym =  3     120 deg rotation - cryst. axis [0,0,1]

[...]

      isym =  6     180 deg rotation - cryst. axis [1,1,0]

[...]

      isym =  7     inversion

[...]

      isym =  8     inv. 180 deg rotation - cart. axis [1,0,0]

[...]

      isym =  9     inv. 120 deg rotation - cryst. axis [0,0,1]

 cryst.   s( 9) = (     0         -1          0      )
                  (     1          1          0      )
                  (     0          0         -1      )

 cart.    s( 9) = (  0.5000001  0.8660254  0.0000000 )
                  ( -0.8660254  0.4999999  0.0000000 )
                  (  0.0000000  0.0000000 -1.0000000 )

[...]

 cryst.   s(10) = (     1          1          0      )
                  (    -1          0          0      )
                  (     0          0         -1      )

 cart.    s(10) = (  0.4999999 -0.8660254  0.0000000 )
                  (  0.8660254  0.5000001  0.0000000 )
                  (  0.0000000  0.0000000 -1.0000000 )

[...]

      isym = 12     inv. 180 deg rotation - cryst. axis [1,1,0]

 cryst.   s(12) = (     0         -1          0      )
                  (    -1          0          0      )
                  (     0          0          1      )

 cart.    s(12) = (  0.5000001 -0.8660254  0.0000000 )
                  ( -0.8660254 -0.5000001  0.0000000 )
                  (  0.0000000  0.0000000  1.0000000 )

   Cartesian axes

     site n.     atom                  positions (alat units)
         1           Sr  tau(   1) = (   0.0000000   0.0000000   0.0000000  )
         2           Al  tau(   2) = (   0.5000005   0.2886748   0.6626100  )
         3           Al  tau(   3) = (  -0.0000005   0.5773505   1.1080282  )
         4           Si  tau(   4) = (   0.5000005   0.2886748   1.2814073  )
         5           Si  tau(   5) = (  -0.0000005   0.5773505   0.4892309  )

   Crystallographic axes

     site n.     atom                  positions (cryst. coord.)
         1           Sr  tau(   1) = (  0.0000000  0.0000000  0.0000000  )
         2           Al  tau(   2) = (  0.6666670  0.3333330  0.3742210  )
         3           Al  tau(   3) = (  0.3333330  0.6666670  0.6257790  )
         4           Si  tau(   4) = (  0.6666670  0.3333330  0.7236980  )
         5           Si  tau(   5) = (  0.3333330  0.6666670  0.2763020  )

     number of k points=     1  Methfessel-Paxton smearing, width (Ry)=  0.0010
                       cart. coord. in units 2pi/alat
        k(    1) = (   0.0000000   0.0000000   0.0000000), wk =   2.0000000

                       cryst. coord.
        k(    1) = (   0.0000000   0.0000000   0.0000000), wk =   2.0000000

     Check: negative core charge=   -0.000002

     Initial potential from superposition of free atoms

     starting charge      23.9606, renormalised to      24.0000

     negative rho (up, down):  6.470E-02 0.000E+00
     Starting wfcs are   29 randomized atomic wfcs
     Checking if some PAW data can be deallocated...

     Self-consistent Calculation

     iteration #  1     ecut=    30.00 Ry     beta= 0.70
     Davidson diagonalization with overlap

     ethr =  1.00E-02,  avg # of iterations =  2.0

     negative rho (up, down):  6.651E-02 0.000E+00

     total energy              =    -170.69576396 Ry
     estimated scf accuracy    <       0.70160511 Ry

[...]

     ethr =  5.64E-07,  avg # of iterations =  1.0
     Minimization algorithm failed to find Fermi energy: reverting to bisection
     Possible cause: smearing is larger than the electronic band-gap.

[...]

     WARNING: integrated charge=    24.00210323, expected=    24.00000000

[...]

     ethr =  1.47E-07,  avg # of iterations =  1.0
     Minimization algorithm failed to find Fermi energy: reverting to bisection
     Possible cause: smearing is larger than the electronic band-gap.

[...]

     total energy              =    -170.89753292 Ry
     estimated scf accuracy    <       0.00000184 Ry

     iteration # 47     ecut=    30.00 Ry     beta= 0.70
     Davidson diagonalization with overlap

     ethr =  5.08E-09,  avg # of iterations =  1.0

[...]

     End of self-consistent calculation

          k = 0.0000 0.0000 0.0000 (  1054 PWs)   bands (ev):

   -28.8648 -11.0452 -10.7985 -10.7985  -2.7557  -0.6026   2.2570   6.1181
     6.1183   7.5990   7.7545   7.7546   7.7932   7.9902   9.1878   9.1879

     occupation numbers
     1.0000   1.0000   1.0000   1.0000   1.0000   1.0000   1.0000   1.0000
     1.0000   1.0000   1.0144   1.0149  -0.0292  -0.0000  -0.0000  -0.0000

     the Fermi energy is     7.7790 ev

     WARNING: integrated charge=    24.00021678, expected=    24.00000000

!    total energy              =    -170.89740888 Ry
     estimated scf accuracy    <       0.00000043 Ry
     smearing contrib. (-TS)   =       0.00023451 Ry
     internal energy E=F+TS    =    -170.89764339 Ry

     The total energy is F=E-TS. E is the sum of the following terms:
     one-electron contribution =     -11.49362947 Ry
     hartree contribution      =      15.67136707 Ry
     xc contribution           =     -35.97667659 Ry
     ewald contribution        =     -69.81807175 Ry
     one-center paw contrib.   =     -69.28063265 Ry
      -> PAW hartree energy AE =       2.33034479 Ry
      -> PAW hartree energy PS =      -2.32400534 Ry
      -> PAW xc energy AE      =     -72.89798345 Ry
      -> PAW xc energy PS      =       3.61101135 Ry
      -> total E_H with PAW    =      15.67770652 Ry
      -> total E_XC with PAW   =    -105.26364869 Ry

     convergence has been achieved in  47 iterations

     negative rho (up, down):  6.822E-02 0.000E+00

     Forces acting on atoms (cartesian axes, Ry/au):

     atom    1 type  1   force =     0.00000000   -0.00000000    0.00000000
     atom    2 type  2   force =    -0.00000000    0.00000000    0.00702944
     atom    3 type  2   force =     0.00000000   -0.00000000   -0.00702944
     atom    4 type  3   force =     0.00000000    0.00000000   -0.10794490
     atom    5 type  3   force =     0.00000000    0.00000000    0.10794490
     The non-local contrib.  to forces
     atom    1 type  1   force =     0.00000000   -0.00000000    0.00000000
     atom    2 type  2   force =    -0.00000000   -0.00000000   -0.05666369
     atom    3 type  2   force =     0.00000000    0.00000000    0.05666369
     atom    4 type  3   force =     0.00000000   -0.00000000    0.25596734
     atom    5 type  3   force =    -0.00000000   -0.00000000   -0.25596734
     The ionic contribution  to forces
     atom    1 type  1   force =     0.00000000    0.00000000    0.00000000
     atom    2 type  2   force =    -0.00000445    0.00000257    0.59439767
     atom    3 type  2   force =     0.00000445   -0.00000257   -0.59439767
     atom    4 type  3   force =    -0.00000468    0.00000270   -1.17735322
     atom    5 type  3   force =     0.00000468   -0.00000270    1.17735322
     The local contribution  to forces
     atom    1 type  1   force =     0.00000228   -0.00001452    0.00006592
     atom    2 type  2   force =     0.00010404   -0.00002546   -0.53652845
     atom    3 type  2   force =    -0.00011032    0.00001819    0.53653600
     atom    4 type  3   force =    -0.00025180    0.00010654    0.84233665
     atom    5 type  3   force =     0.00025157   -0.00007637   -0.84237501
     The core correction contribution to forces
     atom    1 type  1   force =    -0.00000007   -0.00000024    0.00000074
     atom    2 type  2   force =     0.00001616   -0.00000592    0.00574483
     atom    3 type  2   force =    -0.00001664    0.00000479   -0.00574327
     atom    4 type  3   force =    -0.00003113    0.00001135   -0.02861078
     atom    5 type  3   force =     0.00003305   -0.00001047    0.02860987
     The Hubbard contrib.    to forces
     atom    1 type  1   force =     0.00000000    0.00000000    0.00000000
     atom    2 type  2   force =     0.00000000    0.00000000    0.00000000
     atom    3 type  2   force =     0.00000000    0.00000000    0.00000000
     atom    4 type  3   force =     0.00000000    0.00000000    0.00000000
     atom    5 type  3   force =     0.00000000    0.00000000    0.00000000
     The SCF correction term to forces
     atom    1 type  1   force =     0.00000307    0.00000591   -0.00005173
     atom    2 type  2   force =    -0.00000593    0.00000052    0.00008799
     atom    3 type  2   force =     0.00000526    0.00000051   -0.00007928
     atom    4 type  3   force =     0.00002430   -0.00001302   -0.00029648
     atom    5 type  3   force =    -0.00002162    0.00000386    0.00031256

     Total force =     0.152980     Total SCF correction =     0.000451

     Computing stress (Cartesian axis) and pressure

     negative rho (up, down):  6.822E-02 0.000E+00
          total   stress  (Ry/bohr**3)                   (kbar)     P=      130.47
   0.00172218   0.00000000   0.00000000          253.34        0.00        0.00
   0.00000000   0.00172218   0.00000000            0.00      253.34        0.00
  -0.00000000  -0.00000000  -0.00078358           -0.00       -0.00     -115.27

     kinetic stress (kbar)   4232.92      0.00      0.00
                                0.00   4232.92      0.00
                                0.00      0.00   3724.60

     local   stress (kbar)  -2666.83     -0.06      0.15
                               -0.06  -2666.82     -0.04
                                0.15     -0.04  -1233.88

     nonloc. stress (kbar)   3079.46      0.00      0.00
                                0.00   3079.46      0.00
                                0.00      0.00   3064.40

     hartree stress (kbar)   1226.55      0.05     -0.04
                                0.05   1226.58      0.01
                               -0.04      0.01    540.29

     exc-cor stress (kbar)   2294.39      0.00     -0.00
                                0.00   2294.39      0.00
                               -0.00      0.00   2295.96

     corecor stress (kbar)  -3668.75      0.00      0.01
                                0.00  -3668.74     -0.00
                                0.01     -0.00  -3659.38

     ewald   stress (kbar)  -4244.42      0.00     -0.00
                                0.00  -4244.42      0.00
                               -0.00      0.00  -4847.25

     hubbard stress (kbar)      0.00      0.00      0.00
                                0.00      0.00      0.00
                                0.00      0.00      0.00

     DFT-D   stress (kbar)      0.00      0.00      0.00
                                0.00      0.00      0.00
                                0.00      0.00      0.00

     XDM     stress (kbar)      0.00      0.00      0.00
                                0.00      0.00      0.00
                                0.00      0.00      0.00

     dft-nl  stress (kbar)      0.00      0.00      0.00
                                0.00      0.00      0.00
                                0.00      0.00      0.00

     TS-vdW  stress (kbar)      0.00      0.00      0.00
                                0.00      0.00      0.00
                                0.00      0.00      0.00

[...]

                                0.00      0.00      0.00

     Writing all to output data dir new_calculations/myprefix.save/

     General routines

     Parallel routines

     PAW routines

   This run was terminated on:  20:43: 8  21May2023

   JOB DONE.