     Program PWSCF v.7.0 starts on 20May2023 at 14:50:46

     Reading input from espresso_20022.pwi
Warning: card &CELL ignored
Warning: card / ignored

     Current dimensions of program PWSCF are:
     Max number of different atomic species (ntypx) = 10
     Max number of k-points (npk) =  40000
     Max angular momentum in pseudopotentials (lmaxx) =  4
     file C.pbe-n-kjpaw_psl.1.0.0.UPF: wavefunction(s)  2S 2P renormalized

     gamma-point specific algorithms are used
     Message from routine setup:
     using ibrav=0 with symmetry is DISCOURAGED, use correct ibrav instead

     Subspace diagonalization in iterative solution of the eigenvalue problem:
     a serial algorithm will be used

     Using Slab Decomposition

     bravais-lattice index     =            0
     lattice parameter (alat)  =       9.7972  a.u.
     unit-cell volume          =     751.0422 (a.u.)^3
     number of atoms/cell      =           15
     number of atomic types    =            2
     number of electrons       =        48.00
     number of Kohn-Sham states=           29
     kinetic-energy cutoff     =      30.0000  Ry
     charge density cutoff     =     240.0000  Ry
     scf convergence threshold =      1.0E-06
     mixing beta               =       0.7000
     number of iterations used =            8  plain     mixing
     Exchange-correlation= SLA  PW   PBX  PBC
                           (   1   4   3   4   0   0   0)

     celldm(1)=   9.797221  celldm(2)=   0.000000  celldm(3)=   0.000000
     celldm(4)=   0.000000  celldm(5)=   0.000000  celldm(6)=   0.000000

     crystal axes: (cart. coord. in units of alat)
               a(1) = (   1.000000   0.000000   0.000000 )
               a(2) = (   0.407036   0.913412   0.000000 )
               a(3) = (   0.407036   0.264237   0.874357 )

     reciprocal axes: (cart. coord. in units 2 pi/alat)
               b(1) = (  1.000000 -0.445622 -0.330856 )
               b(2) = (  0.000000  1.094796 -0.330856 )
               b(3) = (  0.000000  0.000000  1.143697 )

     PseudoPot. # 1 for B  read from file:
     /home/pragov/projects/rrg-bengioy-ad/pragov/crystal_structure_design/SSSP/b_pbe_v1.4.uspp.F.UPF
     MD5 check sum: cc6de2960df11db49a60e589f9ebb39b
     Pseudo is Ultrasoft + core correction, Zval =  3.0
     Generated by new atomic code, or converted to UPF format
     Using radial grid of  781 points,  4 beta functions with:
                l(1) =   0
                l(2) =   0
                l(3) =   1
                l(4) =   1
     Q(r) pseudized with  8 coefficients,  rinner =    1.100   1.100   1.100

     PseudoPot. # 2 for C  read from file:
     /home/pragov/projects/rrg-bengioy-ad/pragov/crystal_structure_design/SSSP/C.pbe-n-kjpaw_psl.1.0.0.UPF
     MD5 check sum: 5d2aebdfa2cae82b50a7e79e9516da0f
     Pseudo is Projector augmented-wave + core cor, Zval =  4.0
     Generated using "atomic" code by A. Dal Corso  v.5.1
     Shape of augmentation charge: PSQ
     Using radial grid of 1073 points,  4 beta functions with:
                l(1) =   0
                l(2) =   0
                l(3) =   1
                l(4) =   1
     Q(r) pseudized with 0 coefficients

     atomic species   valence    mass     pseudopotential
        B              3.00    10.81000     B ( 1.00)
        C              4.00    12.01100     C ( 1.00)

      2 Sym. Ops., with inversion, found

                                    s                        frac. trans.

      isym =  1     identity

 cryst.   s( 1) = (     1          0          0      )
                  (     0          1          0      )
                  (     0          0          1      )

 cart.    s( 1) = (  1.0000000 -0.0000000 -0.0000000 )
                  (  0.0000000  1.0000000  0.0000000 )
                  (  0.0000000  0.0000000  1.0000000 )

      isym =  2     inversion

 cryst.   s( 2) = (    -1          0          0      )
                  (     0         -1          0      )
                  (     0          0         -1      )

 cart.    s( 2) = ( -1.0000000  0.0000000  0.0000000 )
                  (  0.0000000 -1.0000000 -0.0000000 )
                  (  0.0000000  0.0000000 -1.0000000 )

   Cartesian axes

     site n.     atom                  positions (alat units)
         1           B   tau(   1) = (   1.2603505   0.4949882   0.7051445  )
         2           B   tau(   2) = (   1.2603506   0.8181876   0.2698354  )
         3           B   tau(   3) = (   0.9651363   0.9497413   0.7051445  )
         4           B   tau(   4) = (   0.5537215   0.6826613   0.1692126  )
         5           B   tau(   5) = (   0.5537215   0.3594619   0.6045218  )
         6           B   tau(   6) = (   0.8489357   0.2279082   0.1692126  )
         7           B   tau(   7) = (   1.6712426   0.8749832   0.8689623  )
         8           B   tau(   8) = (   1.6712426   1.0849282   0.5861926  )
         9           B   tau(   9) = (   1.4794763   1.1703834   0.8689623  )
        10           B   tau(  10) = (   0.1428295   0.3026663   0.0053948  )
        11           B   tau(  11) = (   0.1428295   0.0927213   0.2881645  )
        12           B   tau(  12) = (   0.3345958   0.0072661   0.0053948  )
        13           C   tau(  13) = (   1.1069268   0.7185888   0.5335231  )
        14           C   tau(  14) = (   0.7071453   0.4590607   0.3408340  )
        15           C   tau(  15) = (   0.9070360   0.5888248   0.4371786  )

   Crystallographic axes

     site n.     atom                  positions (cryst. coord.)
         1           B   tau(   1) = (  0.8064720  0.3086100  0.8064720  )
         2           B   tau(   2) = (  0.8064720  0.8064720  0.3086100  )
         3           B   tau(   3) = (  0.3086100  0.8064720  0.8064720  )
         4           B   tau(   4) = (  0.1935280  0.6913900  0.1935280  )
         5           B   tau(   5) = (  0.1935280  0.1935280  0.6913900  )
         6           B   tau(   6) = (  0.6913900  0.1935280  0.1935280  )
         7           B   tau(   7) = (  0.9938300  0.6704270  0.9938300  )
         8           B   tau(   8) = (  0.9938300  0.9938300  0.6704270  )
         9           B   tau(   9) = (  0.6704270  0.9938300  0.9938300  )
        10           B   tau(  10) = (  0.0061700  0.3295730  0.0061700  )
        11           B   tau(  11) = (  0.0061700  0.0061700  0.3295730  )
        12           B   tau(  12) = (  0.3295730  0.0061700  0.0061700  )
        13           C   tau(  13) = (  0.6101890  0.6101890  0.6101890  )
        14           C   tau(  14) = (  0.3898110  0.3898110  0.3898110  )
        15           C   tau(  15) = (  0.5000000  0.5000000  0.5000000  )

     number of k points=     1  Methfessel-Paxton smearing, width (Ry)=  0.0010
                       cart. coord. in units 2pi/alat
        k(    1) = (   0.0000000   0.0000000   0.0000000), wk =   2.0000000

                       cryst. coord.
        k(    1) = (   0.0000000   0.0000000   0.0000000), wk =   2.0000000

     Check: negative core charge=   -0.000012

     Initial potential from superposition of free atoms

     starting charge      47.9965, renormalised to      48.0000
     Starting wfcs are   60 randomized atomic wfcs
     Checking if some PAW data can be deallocated...

     Self-consistent Calculation

     iteration #  1     ecut=    30.00 Ry     beta= 0.70
     Davidson diagonalization with overlap

     ethr =  1.00E-02,  avg # of iterations =  2.0

     total energy              =    -131.62208210 Ry
     estimated scf accuracy    <       1.40355982 Ry

[...]

     total energy              =    -131.96268024 Ry
     estimated scf accuracy    <       0.00000302 Ry

     iteration #  8     ecut=    30.00 Ry     beta= 0.70
     Davidson diagonalization with overlap

     ethr =  6.29E-09,  avg # of iterations =  2.0

     End of self-consistent calculation

          k = 0.0000 0.0000 0.0000 (  1057 PWs)   bands (ev):

    -9.2276  -6.0432  -5.8926  -2.2850  -2.2849  -1.2484  -0.2776   0.2604
     0.2605   1.3027   1.3028   1.3762   1.3762   1.9399   2.1315   5.1083
     5.4579   5.4580   6.1604   6.2243   6.9701   6.9701   7.9957   7.9958
    10.1370  10.1371  12.8872  13.7126  13.7127

     occupation numbers
     1.0000   1.0000   1.0000   1.0000   1.0000   1.0000   1.0000   1.0000
     1.0000   1.0000   1.0000   1.0000   1.0000   1.0000   1.0000   1.0000
     1.0000   1.0000   1.0000   1.0000   1.0000   1.0000   1.0000   1.0000
    -0.0000  -0.0000  -0.0000  -0.0000  -0.0000

     the Fermi energy is     9.4964 ev

!    total energy              =    -131.96268069 Ry
     estimated scf accuracy    <       0.00000017 Ry
     smearing contrib. (-TS)   =       0.00000000 Ry
     internal energy E=F+TS    =    -131.96268069 Ry

     The total energy is F=E-TS. E is the sum of the following terms:
     one-electron contribution =      26.56118790 Ry
     hartree contribution      =      14.62046015 Ry
     xc contribution           =     -49.90514128 Ry
     ewald contribution        =    -104.72235777 Ry
     one-center paw contrib.   =     -18.51682969 Ry
      -> PAW hartree energy AE =      27.12304612 Ry
      -> PAW hartree energy PS =     -27.09577831 Ry
      -> PAW xc energy AE      =     -31.72385241 Ry
      -> PAW xc energy PS      =      13.17975491 Ry
      -> total E_H with PAW    =      14.64772796 Ry
      -> total E_XC with PAW   =     -68.44923878 Ry

     convergence has been achieved in   8 iterations

     Forces acting on atoms (cartesian axes, Ry/au):

     atom    1 type  1   force =    -0.01015908    0.01048708   -0.01005845
     atom    2 type  1   force =    -0.01015760   -0.00659447    0.01294891
     atom    3 type  1   force =     0.00544620   -0.01354733   -0.01005742
     atom    4 type  1   force =     0.01015908   -0.01048708    0.01005845
     atom    5 type  1   force =     0.01015760    0.00659447   -0.01294891
     atom    6 type  1   force =    -0.00544620    0.01354733    0.01005742
     atom    7 type  1   force =    -0.01469389   -0.04664847    0.00413300
     atom    8 type  1   force =    -0.01469534   -0.00953780   -0.04584906
     atom    9 type  1   force =    -0.04859099    0.00556731    0.00413116
     atom   10 type  1   force =     0.01469389    0.04664847   -0.00413300
     atom   11 type  1   force =     0.01469534    0.00953780    0.04584906
     atom   12 type  1   force =     0.04859099   -0.00556731   -0.00413116
     atom   13 type  2   force =     0.04811965    0.03123522    0.02319232
     atom   14 type  2   force =    -0.04811965   -0.03123522   -0.02319232
     atom   15 type  2   force =     0.00000000    0.00000000    0.00000000
     The non-local contrib.  to forces
     atom    1 type  1   force =    -0.08602266    0.06541280   -0.07810583
     atom    2 type  1   force =    -0.08602267   -0.05584386    0.08521125
     atom    3 type  1   force =     0.02473518   -0.10520064   -0.07810617
     atom    4 type  1   force =     0.08602266   -0.06541280    0.07810583
     atom    5 type  1   force =     0.08602267    0.05584386   -0.08521125
     atom    6 type  1   force =    -0.02473518    0.10520064    0.07810617
     atom    7 type  1   force =     0.14913818    0.20617982    0.03883269
     atom    8 type  1   force =     0.14913629    0.09681675    0.18613066
     atom    9 type  1   force =     0.24903028    0.05230218    0.03883072
     atom   10 type  1   force =    -0.14913818   -0.20617982   -0.03883269
     atom   11 type  1   force =    -0.14913629   -0.09681675   -0.18613066
     atom   12 type  1   force =    -0.24903028   -0.05230218   -0.03883072
     atom   13 type  2   force =    -0.29827518   -0.19363552   -0.14376422
     atom   14 type  2   force =     0.29827518    0.19363552    0.14376422
     atom   15 type  2   force =     0.00000000    0.00000000    0.00000000
     The ionic contribution  to forces
     atom    1 type  1   force =    -0.29575361    0.88076522   -0.46674520
     atom    2 type  1   force =    -0.29575415   -0.19199608    0.97812955
     atom    3 type  1   force =     0.68411920   -0.62864815   -0.46674520
     atom    4 type  1   force =     0.29575361   -0.88076522    0.46674520
     atom    5 type  1   force =     0.29575415    0.19199608   -0.97812955
     atom    6 type  1   force =    -0.68411920    0.62864815    0.46674520
     atom    7 type  1   force =    -1.02151488   -1.60388764   -0.20805518
     atom    8 type  1   force =    -1.02151525   -0.66314175   -1.47512231
     atom    9 type  1   force =    -1.88080376   -0.28022388   -0.20805518
     atom   10 type  1   force =     1.02151488    1.60388764    0.20805518
     atom   11 type  1   force =     1.02151525    0.66314175    1.47512231
     atom   12 type  1   force =     1.88080376    0.28022388    0.20805518
     atom   13 type  2   force =     2.56992812    1.66833204    1.23866803
     atom   14 type  2   force =    -2.56992812   -1.66833204   -1.23866803
     atom   15 type  2   force =    -0.00000000   -0.00000000   -0.00000000
     The local contribution  to forces
     atom    1 type  1   force =     0.36793934   -0.93128952    0.53097394
     atom    2 type  1   force =     0.36795388    0.23887032   -1.04506785
     atom    3 type  1   force =    -0.70086645    0.71516242    0.53098319
     atom    4 type  1   force =    -0.36798163    0.93143479   -0.53103680
     atom    5 type  1   force =    -0.36799850   -0.23888535    1.04522843
     atom    6 type  1   force =     0.70098500   -0.71525694   -0.53105140
     atom    7 type  1   force =     0.85984470    1.35459306    0.17377267
     atom    8 type  1   force =     0.85983570    0.55821404    1.24639605
     atom    9 type  1   force =     1.58728481    0.23405348    0.17376303
     atom   10 type  1   force =    -0.85989531   -1.35460235   -0.17377394
     atom   11 type  1   force =    -0.85989034   -0.55821897   -1.24640283
     atom   12 type  1   force =    -1.58729286   -0.23405960   -0.17376895
     atom   13 type  2   force =    -2.22244677   -1.44280402   -1.07121067
     atom   14 type  2   force =     2.22266098    1.44288350    1.07126378
     atom   15 type  2   force =     0.00010198    0.00003262    0.00002432
     The core correction contribution to forces
     atom    1 type  1   force =     0.00357489   -0.00429850    0.00372335
     atom    2 type  1   force =     0.00357496    0.00232070   -0.00519187
     atom    3 type  1   force =    -0.00247121    0.00501512    0.00372351
     atom    4 type  1   force =    -0.00357471    0.00429889   -0.00372347
     atom    5 type  1   force =    -0.00357476   -0.00232070    0.00519225
     atom    6 type  1   force =     0.00247161   -0.00501502   -0.00372345
     atom    7 type  1   force =    -0.00229313   -0.00366461   -0.00044771
     atom    8 type  1   force =    -0.00229312   -0.00148866   -0.00337838
     atom    9 type  1   force =    -0.00428064   -0.00060294   -0.00044767
     atom   10 type  1   force =     0.00229302    0.00366465    0.00044755
     atom   11 type  1   force =     0.00229296    0.00148847    0.00337851
     atom   12 type  1   force =     0.00428057    0.00060281    0.00044753
     atom   13 type  2   force =    -0.00108667   -0.00070550   -0.00052384
     atom   14 type  2   force =     0.00108748    0.00070592    0.00052406
     atom   15 type  2   force =    -0.00000097   -0.00000085   -0.00000060
     The Hubbard contrib.    to forces
     atom    1 type  1   force =     0.00000000    0.00000000    0.00000000
     atom    2 type  1   force =     0.00000000    0.00000000    0.00000000
     atom    3 type  1   force =     0.00000000    0.00000000    0.00000000
     atom    4 type  1   force =     0.00000000    0.00000000    0.00000000
     atom    5 type  1   force =     0.00000000    0.00000000    0.00000000
     atom    6 type  1   force =     0.00000000    0.00000000    0.00000000
     atom    7 type  1   force =     0.00000000    0.00000000    0.00000000
     atom    8 type  1   force =     0.00000000    0.00000000    0.00000000
     atom    9 type  1   force =     0.00000000    0.00000000    0.00000000
     atom   10 type  1   force =     0.00000000    0.00000000    0.00000000
     atom   11 type  1   force =     0.00000000    0.00000000    0.00000000
     atom   12 type  1   force =     0.00000000    0.00000000    0.00000000
     atom   13 type  2   force =     0.00000000    0.00000000    0.00000000
     atom   14 type  2   force =     0.00000000    0.00000000    0.00000000
     atom   15 type  2   force =     0.00000000    0.00000000    0.00000000
     The SCF correction term to forces
     atom    1 type  1   force =     0.00010590   -0.00009230    0.00008935
     atom    2 type  1   force =     0.00009217    0.00005291   -0.00011873
     atom    3 type  1   force =    -0.00006077    0.00012158    0.00008601
     atom    4 type  1   force =    -0.00005792   -0.00003211   -0.00003823
     atom    5 type  1   force =    -0.00004420   -0.00004099   -0.00001534
     atom    6 type  1   force =    -0.00003869   -0.00003183   -0.00002034
     atom    7 type  1   force =     0.00012931    0.00012946    0.00002695
     atom    8 type  1   force =     0.00013747    0.00005841    0.00012535
     atom    9 type  1   force =     0.00017613    0.00003681    0.00003837
     atom   10 type  1   force =    -0.00008243   -0.00012310   -0.00003267
     atom   11 type  1   force =    -0.00008979   -0.00006010   -0.00011784
     atom   12 type  1   force =    -0.00017240   -0.00003388   -0.00003607
     atom   13 type  2   force =     0.00003352    0.00006820    0.00003588
     atom   14 type  2   force =    -0.00018180   -0.00010813   -0.00006348
     atom   15 type  2   force =    -0.00017598   -0.00008828   -0.00006533

     Total force =     0.154915     Total SCF correction =     0.000614

     Computing stress (Cartesian axis) and pressure

          total   stress  (Ry/bohr**3)                   (kbar)     P=      -43.87
  -0.00042753  -0.00018698  -0.00013887          -62.89      -27.51      -20.43
  -0.00018698  -0.00026084  -0.00009010          -27.51      -38.37      -13.25
  -0.00013887  -0.00009010  -0.00020637          -20.43      -13.25      -30.36

     kinetic stress (kbar)   8759.24   -147.61   -109.60
                             -147.61   8890.79    -71.15
                             -109.60    -71.15   8933.79

     local   stress (kbar)  -2699.24   -665.14   -493.85
                             -665.14  -2106.42   -320.58
                             -493.85   -320.58  -1912.65

     nonloc. stress (kbar)   1716.75      7.83      5.81
                                7.83   1709.77      3.77
                                5.81      3.77   1707.49

     hartree stress (kbar)    993.76     56.70     42.10
                               56.70    943.22     27.32
                               42.10     27.32    926.70

     exc-cor stress (kbar)     -5.53      5.22      3.88
                                5.22    -10.19      2.52
                                3.88      2.52    -11.71

     corecor stress (kbar)  -2487.99     -4.03     -2.99
                               -4.03  -2484.40     -1.94
                               -2.99     -1.94  -2483.23

     ewald   stress (kbar)  -6339.87    719.52    534.22
                              719.52  -6981.14    346.80
                              534.22    346.80  -7190.75

     hubbard stress (kbar)      0.00      0.00      0.00
                                0.00      0.00      0.00
                                0.00      0.00      0.00

     DFT-D   stress (kbar)      0.00      0.00      0.00
                                0.00      0.00      0.00
                                0.00      0.00      0.00

     XDM     stress (kbar)      0.00      0.00      0.00
                                0.00      0.00      0.00
                                0.00      0.00      0.00

     dft-nl  stress (kbar)      0.00      0.00      0.00
                                0.00      0.00      0.00
                                0.00      0.00      0.00

     TS-vdW  stress (kbar)      0.00      0.00      0.00
                                0.00      0.00      0.00
                                0.00      0.00      0.00

[...]

                                0.00      0.00      0.00

     Writing all to output data dir new_calculations/myprefix.save/

     General routines

     Parallel routines

     PAW routines

   This run was terminated on:  14:50:57  20May2023

   JOB DONE.