     Program PWSCF v.7.0 starts on 21May2023 at  1:43: 7

     Reading input from espresso_11740.pwi
Warning: card &CELL ignored
Warning: card / ignored

     Current dimensions of program PWSCF are:
     Max number of different atomic species (ntypx) = 10
     Max number of k-points (npk) =  40000
     Max angular momentum in pseudopotentials (lmaxx) =  4
     file K.pbe-spn-kjpaw_psl.1.0.0.UPF: wavefunction(s)  3S renormalized
     file O.pbe-n-kjpaw_psl.0.1.UPF: wavefunction(s)  2P renormalized

     gamma-point specific algorithms are used
     Message from routine setup:
     using ibrav=0 with symmetry is DISCOURAGED, use correct ibrav instead

     Subspace diagonalization in iterative solution of the eigenvalue problem:
     a serial algorithm will be used

     Using Slab Decomposition

     bravais-lattice index     =            0
     lattice parameter (alat)  =      11.8718  a.u.
     unit-cell volume          =    2032.8827 (a.u.)^3
     number of atoms/cell      =           17
     number of atomic types    =            4
     number of electrons       =       129.00
     number of Kohn-Sham states=           78
     kinetic-energy cutoff     =      30.0000  Ry
     charge density cutoff     =     240.0000  Ry
     scf convergence threshold =      1.0E-06
     mixing beta               =       0.7000
     number of iterations used =            8  plain     mixing
     Exchange-correlation= SLA  PW   PBX  PBC
                           (   1   4   3   4   0   0   0)

     celldm(1)=  11.871826  celldm(2)=   0.000000  celldm(3)=   0.000000
     celldm(4)=   0.000000  celldm(5)=   0.000000  celldm(6)=   0.000000

     crystal axes: (cart. coord. in units of alat)
               a(1) = (   1.000000   0.000000   0.000000 )
               a(2) = (   0.370158   1.008933   0.000000 )
               a(3) = (   0.049560   0.128821   1.204197 )

     reciprocal axes: (cart. coord. in units 2 pi/alat)
               b(1) = (  1.000000 -0.366881 -0.001909 )
               b(2) = (  0.000000  0.991146 -0.106030 )
               b(3) = (  0.000000  0.000000  0.830429 )

     PseudoPot. # 1 for K  read from file:
     /home/pragov/projects/rrg-bengioy-ad/pragov/crystal_structure_design/SSSP/K.pbe-spn-kjpaw_psl.1.0.0.UPF
     MD5 check sum: 7d58810084cac21f60fbe77ea2b688fd
     Pseudo is Projector augmented-wave + core cor, Zval =  9.0
     Generated using "atomic" code by A. Dal Corso  v.5.1
     Shape of augmentation charge: PSQ
     Using radial grid of 1165 points,  6 beta functions with:
                l(1) =   0
                l(2) =   0
                l(3) =   1
                l(4) =   1
                l(5) =   2
                l(6) =   2
     Q(r) pseudized with 0 coefficients

     PseudoPot. # 2 for Cu read from file:
     /home/pragov/projects/rrg-bengioy-ad/pragov/crystal_structure_design/SSSP/Cu_pbe_v1.2.uspp.F.UPF
     MD5 check sum: 6e991ff952a84172a2a52a1c1e996048
     Pseudo is Ultrasoft + core correction, Zval = 19.0
     Generated by new atomic code, or converted to UPF format
     Using radial grid of  867 points,  6 beta functions with:
                l(1) =   0
                l(2) =   0
                l(3) =   1
                l(4) =   1
                l(5) =   2
                l(6) =   2
     Q(r) pseudized with  8 coefficients,  rinner =    1.150   1.150   1.150
                                                       1.150   1.150

     PseudoPot. # 3 for Si read from file:
     /home/pragov/projects/rrg-bengioy-ad/pragov/crystal_structure_design/SSSP/Si.pbe-n-rrkjus_psl.1.0.0.UPF
     MD5 check sum: 0b0bb1205258b0d07b9f9672cf965d36
     Pseudo is Ultrasoft + core correction, Zval =  4.0
     Generated using "atomic" code by A. Dal Corso  v.5.1
     Using radial grid of 1141 points,  6 beta functions with:
                l(1) =   0
                l(2) =   0
                l(3) =   1
                l(4) =   1
                l(5) =   2
                l(6) =   2
     Q(r) pseudized with 0 coefficients

     PseudoPot. # 4 for O  read from file:
     /home/pragov/projects/rrg-bengioy-ad/pragov/crystal_structure_design/SSSP/O.pbe-n-kjpaw_psl.0.1.UPF
     MD5 check sum: 0234752ac141de4415c5fc33072bef88
     Pseudo is Projector augmented-wave + core cor, Zval =  6.0
     Generated using "atomic" code by A. Dal Corso  v.5.0.99 svn rev. 10869
     Shape of augmentation charge: BESSEL
     Using radial grid of 1095 points,  4 beta functions with:
                l(1) =   0
                l(2) =   0
                l(3) =   1
                l(4) =   1
     Q(r) pseudized with 0 coefficients

     atomic species   valence    mass     pseudopotential
        K              9.00    39.09830     K ( 1.00)
        Cu            19.00    63.54600     Cu( 1.00)
        Si             4.00    28.08500     Si( 1.00)
        O              6.00    15.99900     O ( 1.00)

      2 Sym. Ops., with inversion, found

                                    s                        frac. trans.

      isym =  1     identity

 cryst.   s( 1) = (     1          0          0      )
                  (     0          1          0      )
                  (     0          0          1      )

 cart.    s( 1) = (  1.0000000 -0.0000000 -0.0000000 )
                  (  0.0000000  1.0000000 -0.0000000 )
                  (  0.0000000  0.0000000  1.0000000 )

      isym =  2     inversion

 cryst.   s( 2) = (    -1          0          0      )
                  (     0         -1          0      )
                  (     0          0         -1      )

 cart.    s( 2) = ( -1.0000000  0.0000000  0.0000000 )
                  (  0.0000000 -1.0000000  0.0000000 )
                  (  0.0000000  0.0000000 -1.0000000 )

   Cartesian axes

     site n.     atom                  positions (alat units)
         1           K   tau(   1) = (   0.9680064   0.8564133   0.2016295  )
         2           K   tau(   2) = (   0.9605186   0.4326740   1.1746517  )
         3           K   tau(   3) = (   0.6040708   0.8934869   0.6730942  )
         4           K   tau(   4) = (   0.8156477   0.2442675   0.5311025  )
         5           K   tau(   5) = (   0.4591998   0.7050803   0.0295450  )
         6           K   tau(   6) = (   0.4517120   0.2813411   1.0025672  )
         7           Cu  tau(   7) = (   0.2098592   0.5688772   0.6020984  )
         8           Si  tau(   8) = (   1.0980000   0.8606417   0.8813528  )
         9           Si  tau(   9) = (   0.3217184   0.2771126   0.3228439  )
        10           O   tau(  10) = (   0.8744414   0.8403735   1.0141383  )
        11           O   tau(  11) = (   1.2292461   1.0771949   0.9452583  )
        12           O   tau(  12) = (   0.1904723   0.0605594   0.2589384  )
        13           O   tau(  13) = (   0.2541833   0.6434701   0.9072526  )
        14           O   tau(  14) = (   0.5452770   0.2973808   0.1900584  )
        15           O   tau(  15) = (   1.1655351   0.4942842   0.2969441  )
        16           O   tau(  16) = (   1.0542108   0.8423883   0.6165897  )
        17           O   tau(  17) = (   0.3655076   0.2953660   0.5876071  )

   Crystallographic axes

     site n.     atom                  positions (cryst. coord.)
         1           K   tau(   1) = (  0.6534200  0.8274520  0.1674390  )
         2           K   tau(   2) = (  0.7995370  0.3042950  0.9754650  )
         3           K   tau(   3) = (  0.2749830  0.8142080  0.5589570  )
         4           K   tau(   4) = (  0.7250170  0.1857920  0.4410430  )
         5           K   tau(   5) = (  0.2004630  0.6957050  0.0245350  )
         6           K   tau(   6) = (  0.3465800  0.1725480  0.8325610  )
         7           Cu  tau(   7) = (  0.0000000  0.5000000  0.5000000  )
         8           Si  tau(   8) = (  0.7805650  0.7595720  0.7319010  )
         9           Si  tau(   9) = (  0.2194350  0.2404280  0.2680990  )
        10           O   tau(  10) = (  0.5641890  0.7254040  0.8421700  )
        11           O   tau(  11) = (  0.8322400  0.9674320  0.7849700  )
        12           O   tau(  12) = (  0.1677600  0.0325680  0.2150300  )
        13           O   tau(  13) = (  0.0163750  0.5415770  0.7534090  )
        14           O   tau(  14) = (  0.4358110  0.2745960  0.1578300  )
        15           O   tau(  15) = (  0.9836250  0.4584230  0.2465910  )
        16           O   tau(  16) = (  0.7439780  0.7695530  0.5120340  )
        17           O   tau(  17) = (  0.2560220  0.2304470  0.4879660  )

     number of k points=     1  Methfessel-Paxton smearing, width (Ry)=  0.0010
                       cart. coord. in units 2pi/alat
        k(    1) = (   0.0000000   0.0000000   0.0000000), wk =   2.0000000

                       cryst. coord.
        k(    1) = (   0.0000000   0.0000000   0.0000000), wk =   2.0000000

     Check: negative core charge=   -0.000010

     Initial potential from superposition of free atoms

     starting charge     127.8859, renormalised to     129.0000
     Starting wfcs are  101 randomized atomic wfcs
     Checking if some PAW data can be deallocated...

     Self-consistent Calculation

     iteration #  1     ecut=    30.00 Ry     beta= 0.70
     Davidson diagonalization with overlap

     ethr =  1.00E-02,  avg # of iterations =  6.0

     total energy              =   -1436.42584807 Ry
     estimated scf accuracy    <       4.43368568 Ry

[...]

     total energy              =   -1438.70372413 Ry
     estimated scf accuracy    <       0.00000228 Ry

     iteration # 14     ecut=    30.00 Ry     beta= 0.70
     Davidson diagonalization with overlap

     ethr =  1.77E-09,  avg # of iterations =  2.0

     End of self-consistent calculation

          k = 0.0000 0.0000 0.0000 (  2827 PWs)   bands (ev):

  -107.0993 -64.6018 -64.5200 -64.2839 -24.3337 -24.2983 -24.2791 -24.2489
   -24.0538 -24.0393 -13.6827 -13.5470 -12.3739 -12.3646 -12.2472 -12.2083
   -11.8581 -11.8399  -8.0851  -8.0387  -7.9391  -7.9166  -7.8960  -7.8671
    -7.8112  -7.8062  -7.7570  -7.6870  -7.6595  -7.5802  -7.5590  -7.5304
    -7.5109  -7.4874  -7.4484  -7.4238  -1.0978  -0.6590   0.1192   0.4773
     0.6336   0.9976   1.1038   1.1302   1.3128   2.0990   2.2275   2.3020
     2.4343   2.6792   2.7696   2.9248   3.1663   3.2437   3.2504   3.2601
     3.3950   3.4249   3.6633   3.7704   3.9534   3.9865   4.2258   4.4289
     5.7123   7.5038   9.6019  10.3759  10.3782  10.6677  10.8306  11.4102
    11.4764  11.6789  11.7365  11.8192  11.8994  12.0050

     occupation numbers
     1.0000   1.0000   1.0000   1.0000   1.0000   1.0000   1.0000   1.0000
     1.0000   1.0000   1.0000   1.0000   1.0000   1.0000   1.0000   1.0000
     1.0000   1.0000   1.0000   1.0000   1.0000   1.0000   1.0000   1.0000
     1.0000   1.0000   1.0000   1.0000   1.0000   1.0000   1.0000   1.0000
     1.0000   1.0000   1.0000   1.0000   1.0000   1.0000   1.0000   1.0000
     1.0000   1.0000   1.0000   1.0000   1.0000   1.0000   1.0000   1.0000
     1.0000   1.0000   1.0000   1.0000   1.0000   1.0000   1.0000   1.0000
     1.0000   1.0000   1.0000   1.0000   1.0000   1.0000   1.0000   1.0000
     0.5000  -0.0000  -0.0000  -0.0000  -0.0000  -0.0000  -0.0000  -0.0000
    -0.0000  -0.0000  -0.0000  -0.0000  -0.0000  -0.0000

     the Fermi energy is     5.7123 ev

!    total energy              =   -1438.70372453 Ry
     estimated scf accuracy    <       0.00000020 Ry
     smearing contrib. (-TS)   =      -0.00028209 Ry
     internal energy E=F+TS    =   -1438.70344243 Ry

     The total energy is F=E-TS. E is the sum of the following terms:
     one-electron contribution =    -720.22908504 Ry
     hartree contribution      =     420.25715027 Ry
     xc contribution           =    -179.35250035 Ry
     ewald contribution        =    -550.72072463 Ry
     one-center paw contrib.   =    -408.65828269 Ry
      -> PAW hartree energy AE =     467.73425058 Ry
      -> PAW hartree energy PS =    -465.61982568 Ry
      -> PAW xc energy AE      =    -535.31301185 Ry
      -> PAW xc energy PS      =     124.54030426 Ry
      -> total E_H with PAW    =     422.37157517 Ry
      -> total E_XC with PAW   =    -590.12520793 Ry

     convergence has been achieved in  14 iterations

     Forces acting on atoms (cartesian axes, Ry/au):

     atom    1 type  1   force =    -0.00057132    0.00009360   -0.00124636
     atom    2 type  1   force =     0.00023806    0.00166087    0.00050874
     atom    3 type  1   force =     0.00211166    0.00369309    0.00500349
     atom    4 type  1   force =    -0.00211166   -0.00369309   -0.00500349
     atom    5 type  1   force =    -0.00023806   -0.00166087   -0.00050874
     atom    6 type  1   force =     0.00057132   -0.00009360    0.00124636
     atom    7 type  2   force =     0.00000000    0.00000000    0.00000000
     atom    8 type  3   force =     0.00038825   -0.00273382   -0.00797640
     atom    9 type  3   force =    -0.00038825    0.00273382    0.00797640
     atom   10 type  4   force =    -0.00634845   -0.00111665    0.00321507
     atom   11 type  4   force =     0.00139687    0.00261333   -0.00225929
     atom   12 type  4   force =    -0.00139687   -0.00261333    0.00225929
     atom   13 type  4   force =     0.00541477   -0.00132330   -0.00106657
     atom   14 type  4   force =     0.00634845    0.00111665   -0.00321507
     atom   15 type  4   force =    -0.00541477    0.00132330    0.00106657
     atom   16 type  4   force =     0.00191604    0.00120304    0.00498817
     atom   17 type  4   force =    -0.00191604   -0.00120304   -0.00498817
     The non-local contrib.  to forces
     atom    1 type  1   force =     0.00919203    0.00377879   -0.00068846
     atom    2 type  1   force =     0.00587812   -0.01711009   -0.01191953
     atom    3 type  1   force =    -0.02534183   -0.03455845   -0.01161048
     atom    4 type  1   force =     0.02534183    0.03455845    0.01161048
     atom    5 type  1   force =    -0.00587812    0.01711009    0.01191953
     atom    6 type  1   force =    -0.00919203   -0.00377879    0.00068846
     atom    7 type  2   force =     0.00000000    0.00000000    0.00000000
     atom    8 type  3   force =     0.01543006   -0.04124285   -0.03393513
     atom    9 type  3   force =    -0.01543006    0.04124285    0.03393513
     atom   10 type  4   force =     1.01440632    0.12774494   -0.59161095
     atom   11 type  4   force =    -0.62266791   -0.98755950   -0.28878168
     atom   12 type  4   force =     0.62266791    0.98755950    0.28878168
     atom   13 type  4   force =    -0.68461815    0.73931412   -0.54521996
     atom   14 type  4   force =    -1.01440632   -0.12774494    0.59161095
     atom   15 type  4   force =     0.68461815   -0.73931412    0.54521996
     atom   16 type  4   force =     0.41910192   -0.34950162    1.00347413
     atom   17 type  4   force =    -0.41910192    0.34950162   -1.00347413
     The ionic contribution  to forces
     atom    1 type  1   force =    -1.54775230    0.95158991   -2.60801182
     atom    2 type  1   force =    -2.14112442   -1.67260276   -0.05928126
     atom    3 type  1   force =     1.56955885   -1.15022614    0.20496155
     atom    4 type  1   force =    -1.56955885    1.15022614   -0.20496155
     atom    5 type  1   force =     2.14112442    1.67260276    0.05928126
     atom    6 type  1   force =     1.54775230   -0.95158991    2.60801182
     atom    7 type  2   force =     0.00000000   -0.00000000   -0.00000000
     atom    8 type  3   force =    -1.24111918    2.65116622    3.04385593
     atom    9 type  3   force =     1.24111917   -2.65116622   -3.04385592
     atom   10 type  4   force =    -5.36639848   -0.84460313    3.57549022
     atom   11 type  4   force =     3.20335209    5.73739953    2.87562394
     atom   12 type  4   force =    -3.20335209   -5.73739953   -2.87562394
     atom   13 type  4   force =     4.59165283   -0.90262697   12.61243184
     atom   14 type  4   force =     5.36639848    0.84460313   -3.57549022
     atom   15 type  4   force =    -4.59165283    0.90262697  -12.61243183
     atom   16 type  4   force =    -7.44361378    9.78308370   -3.90029743
     atom   17 type  4   force =     7.44361378   -9.78308370    3.90029743
     The local contribution  to forces
     atom    1 type  1   force =     1.53847081   -0.95511701    2.60727897
     atom    2 type  1   force =     2.13578914    1.69041060    0.07116071
     atom    3 type  1   force =    -1.54368787    1.18662477   -0.18885605
     atom    4 type  1   force =     1.54373796   -1.18652965    0.18878872
     atom    5 type  1   force =    -2.13570894   -1.69033867   -0.07100212
     atom    6 type  1   force =    -1.53850986    0.95495568   -2.60727354
     atom    7 type  2   force =     0.00006323   -0.00023133   -0.00033629
     atom    8 type  3   force =     1.22784646   -2.61758506   -3.02222796
     atom    9 type  3   force =    -1.22784792    2.61765083    3.02226872
     atom   10 type  4   force =     4.35470517    0.71699639   -2.98590889
     atom   11 type  4   force =    -2.58480836   -4.75591746   -2.59162282
     atom   12 type  4   force =     2.58485342    4.75599105    2.59162977
     atom   13 type  4   force =    -3.90786632    0.16840176  -12.07389278
     atom   14 type  4   force =    -4.35484358   -0.71699980    2.98603936
     atom   15 type  4   force =     3.90788510   -0.16841715   12.07396675
     atom   16 type  4   force =     7.03054201   -9.43626935    2.91059139
     atom   17 type  4   force =    -7.03056215    9.43625071   -2.91067842
     The core correction contribution to forces
     atom    1 type  1   force =    -0.00051399   -0.00019110    0.00028696
     atom    2 type  1   force =    -0.00025905    0.00094238    0.00056054
     atom    3 type  1   force =     0.00152389    0.00186676    0.00043893
     atom    4 type  1   force =    -0.00152293   -0.00186656   -0.00043836
     atom    5 type  1   force =     0.00026061   -0.00094090   -0.00056089
     atom    6 type  1   force =     0.00051303    0.00018849   -0.00028784
     atom    7 type  2   force =     0.00000002   -0.00000006   -0.00000004
     atom    8 type  3   force =    -0.00182150    0.00507222    0.00436719
     atom    9 type  3   force =     0.00182555   -0.00507723   -0.00436993
     atom   10 type  4   force =    -0.00901596   -0.00115524    0.00525972
     atom   11 type  4   force =     0.00545950    0.00871097    0.00255873
     atom   12 type  4   force =    -0.00545972   -0.00871142   -0.00255909
     atom   13 type  4   force =     0.00626498   -0.00640065    0.00576357
     atom   14 type  4   force =     0.00901652    0.00115497   -0.00526002
     atom   15 type  4   force =    -0.00626489    0.00640062   -0.00576274
     atom   16 type  4   force =    -0.00423252    0.00402989   -0.00891732
     atom   17 type  4   force =     0.00423231   -0.00402990    0.00891774
     The Hubbard contrib.    to forces
     atom    1 type  1   force =     0.00000000    0.00000000    0.00000000
     atom    2 type  1   force =     0.00000000    0.00000000    0.00000000
     atom    3 type  1   force =     0.00000000    0.00000000    0.00000000
     atom    4 type  1   force =     0.00000000    0.00000000    0.00000000
     atom    5 type  1   force =     0.00000000    0.00000000    0.00000000
     atom    6 type  1   force =     0.00000000    0.00000000    0.00000000
     atom    7 type  2   force =     0.00000000    0.00000000    0.00000000
     atom    8 type  3   force =     0.00000000    0.00000000    0.00000000
     atom    9 type  3   force =     0.00000000    0.00000000    0.00000000
     atom   10 type  4   force =     0.00000000    0.00000000    0.00000000
     atom   11 type  4   force =     0.00000000    0.00000000    0.00000000
     atom   12 type  4   force =     0.00000000    0.00000000    0.00000000
     atom   13 type  4   force =     0.00000000    0.00000000    0.00000000
     atom   14 type  4   force =     0.00000000    0.00000000    0.00000000
     atom   15 type  4   force =     0.00000000    0.00000000    0.00000000
     atom   16 type  4   force =     0.00000000    0.00000000    0.00000000
     atom   17 type  4   force =     0.00000000    0.00000000    0.00000000
     The SCF correction term to forces
     atom    1 type  1   force =     0.00001790    0.00001323   -0.00012128
     atom    2 type  1   force =    -0.00003333    0.00004415   -0.00002351
     atom    3 type  1   force =     0.00007071   -0.00001034    0.00009083
     atom    4 type  1   force =    -0.00009759   -0.00007795    0.00001851
     atom    5 type  1   force =    -0.00002363   -0.00007075   -0.00015832
     atom    6 type  1   force =    -0.00000633    0.00011116    0.00009819
     atom    7 type  2   force =    -0.00006713    0.00023235    0.00040313
     atom    8 type  3   force =     0.00006222   -0.00016009   -0.00004040
     atom    9 type  3   force =    -0.00004518    0.00006785   -0.00000558
     atom   10 type  4   force =    -0.00003359   -0.00010963   -0.00003070
     atom   11 type  4   force =     0.00005319   -0.00003807   -0.00004580
     atom   12 type  4   force =    -0.00011476   -0.00007079    0.00002253
     atom   13 type  4   force =    -0.00001902   -0.00001278   -0.00012244
     atom   14 type  4   force =     0.00019528    0.00009328   -0.00013080
     atom   15 type  4   force =    -0.00000074    0.00002577    0.00010122
     atom   16 type  4   force =     0.00011206   -0.00013285    0.00016062
     atom   17 type  4   force =    -0.00010441    0.00016498   -0.00002758

     Total force =     0.022241     Total SCF correction =     0.000764

     Computing stress (Cartesian axis) and pressure

          total   stress  (Ry/bohr**3)                   (kbar)     P=     -230.84
  -0.00153851   0.00000448   0.00001807         -226.32        0.66        2.66
   0.00000448  -0.00156590   0.00002110            0.66     -230.35        3.10
   0.00001807   0.00002110  -0.00160317            2.66        3.10     -235.83

     kinetic stress (kbar)  15606.01     51.86     17.45
                               51.86  15533.29    -93.30
                               17.45    -93.30  15522.82

     local   stress (kbar)  -5961.59   6536.47  -1347.23
                             6536.47 -16805.41  -4285.61
                            -1347.23  -4285.61 -18101.86

     nonloc. stress (kbar)   4811.35      8.07     -7.64
                                8.07   4799.99      8.96
                               -7.64      8.96   4795.42

     hartree stress (kbar)   6716.46  -2888.50    644.99
                            -2888.50  11568.07   1781.83
                              644.99   1781.83  12126.46

     exc-cor stress (kbar)  -1851.82     -1.73     -0.19
                               -1.73  -1848.86      2.00
                               -0.19      2.00  -1848.69

     corecor stress (kbar)  -1968.27     -1.02      1.05
                               -1.02  -1967.60     -0.90
                                1.05     -0.90  -1966.61

     ewald   stress (kbar) -17578.47  -3704.50    694.23
                            -3704.50 -11509.84   2590.13
                              694.23   2590.13 -10763.38

     hubbard stress (kbar)      0.00      0.00      0.00
                                0.00      0.00      0.00
                                0.00      0.00      0.00

     DFT-D   stress (kbar)      0.00      0.00      0.00
                                0.00      0.00      0.00
                                0.00      0.00      0.00

     XDM     stress (kbar)      0.00      0.00      0.00
                                0.00      0.00      0.00
                                0.00      0.00      0.00

     dft-nl  stress (kbar)      0.00      0.00      0.00
                                0.00      0.00      0.00
                                0.00      0.00      0.00

     TS-vdW  stress (kbar)      0.00      0.00      0.00
                                0.00      0.00      0.00
                                0.00      0.00      0.00

[...]

                                0.00      0.00      0.00

     Writing all to output data dir new_calculations/myprefix.save/

     General routines

     Parallel routines

     PAW routines

   This run was terminated on:   1:44:49  21May2023

   JOB DONE.