     Program PWSCF v.7.0 starts on 20May2023 at  5:31:25

     Reading input from espresso_12098.pwi
Warning: card &CELL ignored
Warning: card / ignored

     Current dimensions of program PWSCF are:
     Max number of different atomic species (ntypx) = 10
     Max number of k-points (npk) =  40000
     Max angular momentum in pseudopotentials (lmaxx) =  4
     file Ba.pbe-spn-kjpaw_psl.1.0.0.UPF: wavefunction(s)  5S 6S renormalized
     file O.pbe-n-kjpaw_psl.0.1.UPF: wavefunction(s)  2P renormalized

     gamma-point specific algorithms are used
     Message from routine setup:
     using ibrav=0 with symmetry is DISCOURAGED, use correct ibrav instead

     Subspace diagonalization in iterative solution of the eigenvalue problem:
     a serial algorithm will be used

     Using Slab Decomposition

     bravais-lattice index     =            0
     lattice parameter (alat)  =      11.3986  a.u.
     unit-cell volume          =    1047.2159 (a.u.)^3
     number of atoms/cell      =           10
     number of atomic types    =            4
     number of electrons       =        82.00
     number of Kohn-Sham states=           49
     kinetic-energy cutoff     =      30.0000  Ry
     charge density cutoff     =     240.0000  Ry
     scf convergence threshold =      1.0E-06
     mixing beta               =       0.7000
     number of iterations used =            8  plain     mixing
     Exchange-correlation= SLA  PW   PBX  PBC
                           (   1   4   3   4   0   0   0)

     celldm(1)=  11.398571  celldm(2)=   0.000000  celldm(3)=   0.000000
     celldm(4)=   0.000000  celldm(5)=   0.000000  celldm(6)=   0.000000

     crystal axes: (cart. coord. in units of alat)
               a(1) = (   1.000000   0.000000   0.000000 )
               a(2) = (   0.500000   0.866025   0.000000 )
               a(3) = (   0.500000   0.288675   0.816497 )

     reciprocal axes: (cart. coord. in units 2 pi/alat)
               b(1) = (  1.000000 -0.577350 -0.408248 )
               b(2) = (  0.000000  1.154701 -0.408248 )
               b(3) = (  0.000000  0.000000  1.224745 )

     PseudoPot. # 1 for Ba read from file:
     /home/pragov/projects/rrg-bengioy-ad/pragov/crystal_structure_design/SSSP/Ba.pbe-spn-kjpaw_psl.1.0.0.UPF
     MD5 check sum: c432291d3e53af55f19d5e8866385beb
     Pseudo is Projector augmented-wave + core cor, Zval = 10.0
     Generated using "atomic" code by A. Dal Corso  v.5.1
     Shape of augmentation charge: PSQ
     Using radial grid of 1251 points,  7 beta functions with:
                l(1) =   0
                l(2) =   0
                l(3) =   0
                l(4) =   1
                l(5) =   1
                l(6) =   2
                l(7) =   2
     Q(r) pseudized with 0 coefficients

     PseudoPot. # 2 for Y  read from file:
     /home/pragov/projects/rrg-bengioy-ad/pragov/crystal_structure_design/SSSP/Y_pbe_v1.uspp.F.UPF
     MD5 check sum: 2cf71db95cafeb975fc457bd7f14888e
     Pseudo is Ultrasoft + core correction, Zval = 11.0
     Generated by new atomic code, or converted to UPF format
     Using radial grid of  885 points,  6 beta functions with:
                l(1) =   0
                l(2) =   0
                l(3) =   1
                l(4) =   1
                l(5) =   2
                l(6) =   2
     Q(r) pseudized with  6 coefficients,  rinner =    1.200   1.200   1.200
                                                       1.200   1.200

     PseudoPot. # 3 for Sb read from file:
     /home/pragov/projects/rrg-bengioy-ad/pragov/crystal_structure_design/SSSP/sb_pbe_v1.4.uspp.F.UPF
     MD5 check sum: 9bc50dfb53373b713f5709b9110fe27f
     Pseudo is Ultrasoft + core correction, Zval = 15.0
     Generated by new atomic code, or converted to UPF format
     Using radial grid of  891 points,  6 beta functions with:
                l(1) =   0
                l(2) =   0
                l(3) =   1
                l(4) =   1
                l(5) =   2
                l(6) =   2
     Q(r) pseudized with  8 coefficients,  rinner =    1.350   1.350   1.350
                                                       1.350   1.350

     PseudoPot. # 4 for O  read from file:
     /home/pragov/projects/rrg-bengioy-ad/pragov/crystal_structure_design/SSSP/O.pbe-n-kjpaw_psl.0.1.UPF
     MD5 check sum: 0234752ac141de4415c5fc33072bef88
     Pseudo is Projector augmented-wave + core cor, Zval =  6.0
     Generated using "atomic" code by A. Dal Corso  v.5.0.99 svn rev. 10869
     Shape of augmentation charge: BESSEL
     Using radial grid of 1095 points,  4 beta functions with:
                l(1) =   0
                l(2) =   0
                l(3) =   1
                l(4) =   1
     Q(r) pseudized with 0 coefficients

     atomic species   valence    mass     pseudopotential
        Ba            10.00   137.32700     Ba( 1.00)
        Y             11.00    88.90584     Y ( 1.00)
        Sb            15.00   121.76000     Sb( 1.00)
        O              6.00    15.99900     O ( 1.00)

     12 Sym. Ops., with inversion, found

                                    s                        frac. trans.

      isym =  1     identity

 cryst.   s( 1) = (     1          0          0      )
                  (     0          1          0      )
                  (     0          0          1      )

 cart.    s( 1) = (  1.0000000  0.0000000  0.0000000 )
                  (  0.0000000  1.0000000 -0.0000000 )
                  (  0.0000000  0.0000000  1.0000000 )

      isym =  2     180 deg rotation - cart. axis [1,0,0]

[...]

      isym =  3     120 deg rotation - cryst. axis [0,0,1]

[...]

      isym =  6     180 deg rotation - cryst. axis [1,1,0]

[...]

      isym =  7     inversion

[...]

      isym =  8     inv. 180 deg rotation - cart. axis [1,0,0]

[...]

      isym =  9     inv. 120 deg rotation - cryst. axis [0,0,1]

 cryst.   s( 9) = (     1         -1          0      )
                  (     1          0          0      )
                  (     1          0         -1      )

 cart.    s( 9) = (  0.5000000  0.8660254 -0.0000000 )
                  ( -0.8660254  0.5000000 -0.0000000 )
                  (  0.0000000  0.0000000 -1.0000000 )

[...]

 cryst.   s(10) = (     0          1          0      )
                  (    -1          1          0      )
                  (     0          1         -1      )

 cart.    s(10) = (  0.5000000 -0.8660254  0.0000000 )
                  (  0.8660254  0.5000000 -0.0000000 )
                  (  0.0000000  0.0000000 -1.0000000 )

[...]

      isym = 12     inv. 180 deg rotation - cryst. axis [1,1,0]

 cryst.   s(12) = (     1         -1          0      )
                  (     0         -1          0      )
                  (     0         -1          1      )

 cart.    s(12) = (  0.5000000 -0.8660254  0.0000000 )
                  ( -0.8660254 -0.5000000  0.0000000 )
                  (  0.0000000  0.0000000  1.0000000 )

   Cartesian axes

     site n.     atom                  positions (alat units)
         1           Ba  tau(   1) = (   1.5000000   0.8660254   0.6123724  )
         2           Ba  tau(   2) = (   0.5000000   0.2886751   0.2041241  )
         3           Y   tau(   3) = (   0.0000000   0.0000000   0.0000000  )
         4           Sb  tau(   4) = (   1.0000000   0.5773503   0.4082483  )
         5           O   tau(   5) = (   1.2365670   0.4407682   0.6014044  )
         6           O   tau(   6) = (   0.7634330   0.4407682   0.6014044  )
         7           O   tau(   7) = (   1.2365670   0.7139323   0.2150921  )
         8           O   tau(   8) = (   1.0000000   0.3041862   0.2150921  )
         9           O   tau(   9) = (   0.7634330   0.7139323   0.2150921  )
        10           O   tau(  10) = (   1.0000000   0.8505143   0.6014044  )

   Crystallographic axes

     site n.     atom                  positions (cryst. coord.)
         1           Ba  tau(   1) = (  0.7500000  0.7500000  0.7500000  )
         2           Ba  tau(   2) = (  0.2500000  0.2500000  0.2500000  )
         3           Y   tau(   3) = (  0.0000000  0.0000000  0.0000000  )
         4           Sb  tau(   4) = (  0.5000000  0.5000000  0.5000000  )
         5           O   tau(   5) = (  0.7365670  0.2634330  0.7365670  )
         6           O   tau(   6) = (  0.2634330  0.2634330  0.7365670  )
         7           O   tau(   7) = (  0.7365670  0.7365670  0.2634330  )
         8           O   tau(   8) = (  0.7365670  0.2634330  0.2634330  )
         9           O   tau(   9) = (  0.2634330  0.7365670  0.2634330  )
        10           O   tau(  10) = (  0.2634330  0.7365670  0.7365670  )

     number of k points=     1  Methfessel-Paxton smearing, width (Ry)=  0.0010
                       cart. coord. in units 2pi/alat
        k(    1) = (   0.0000000   0.0000000   0.0000000), wk =   2.0000000

                       cryst. coord.
        k(    1) = (   0.0000000   0.0000000   0.0000000), wk =   2.0000000

     Check: negative core charge=   -0.000010

     Initial potential from superposition of free atoms

     starting charge      80.9615, renormalised to      82.0000

     negative rho (up, down):  4.421E-02 0.000E+00
     Starting wfcs are   56 randomized atomic wfcs
     Checking if some PAW data can be deallocated...

     Self-consistent Calculation

     iteration #  1     ecut=    30.00 Ry     beta= 0.70
     Davidson diagonalization with overlap

     ethr =  1.00E-02,  avg # of iterations =  4.0

     negative rho (up, down):  4.406E-02 0.000E+00

     total energy              =   -1393.62753697 Ry
     estimated scf accuracy    <       2.70557762 Ry

[...]

     total energy              =   -1394.88660990 Ry
     estimated scf accuracy    <       0.00000171 Ry

     iteration # 20     ecut=    30.00 Ry     beta= 0.70
     Davidson diagonalization with overlap

     ethr =  2.08E-09,  avg # of iterations =  1.0

[...]

     End of self-consistent calculation

          k = 0.0000 0.0000 0.0000 (  1446 PWs)   bands (ev):

   -30.2893 -18.4937 -18.4937 -18.3438 -18.3438 -18.3438 -16.7020 -16.6084
   -10.7092 -10.7092 -10.7092  -7.6530  -6.0025  -6.0025  -6.0024  -5.7136
    -5.7135  -2.1186  -2.1186  -2.1186  -1.7736  -1.7736  -1.7736   2.2070
     6.3803   6.3803   6.3804   7.8022   7.8023   7.8023   7.9216   7.9217
     9.0472   9.0473   9.0473   9.4442   9.4442   9.4442  10.0451  10.0452
    10.0452  13.3018  13.7248  13.7248  14.5508  14.5508  14.5508  14.7753
    14.7754

     occupation numbers
     1.0000   1.0000   1.0000   1.0000   1.0000   1.0000   1.0000   1.0000
     1.0000   1.0000   1.0000   1.0000   1.0000   1.0000   1.0000   1.0000
     1.0000   1.0000   1.0000   1.0000   1.0000   1.0000   1.0000   1.0000
     1.0000   1.0000   1.0000   1.0000   1.0000   1.0000   1.0000   1.0000
     1.0000   1.0000   1.0000   1.0000   1.0000   1.0000   1.0000   1.0000
     1.0000  -0.0000  -0.0000  -0.0000  -0.0000  -0.0000  -0.0000  -0.0000
    -0.0000

     the Fermi energy is    12.0779 ev

!    total energy              =   -1394.88660965 Ry
     estimated scf accuracy    <       0.00000075 Ry
     smearing contrib. (-TS)   =       0.00000000 Ry
     internal energy E=F+TS    =   -1394.88660965 Ry

     The total energy is F=E-TS. E is the sum of the following terms:
     one-electron contribution =    -167.57965550 Ry
     hartree contribution      =     140.14756608 Ry
     xc contribution           =    -152.41628206 Ry
     ewald contribution        =    -408.03900718 Ry
     one-center paw contrib.   =    -806.99923100 Ry
      -> PAW hartree energy AE =     240.57221120 Ry
      -> PAW hartree energy PS =    -239.63982293 Ry
      -> PAW xc energy AE      =    -892.32029085 Ry
      -> PAW xc energy PS      =      84.38867158 Ry
      -> total E_H with PAW    =     141.07995435 Ry
      -> total E_XC with PAW   =    -960.34790132 Ry

     convergence has been achieved in  20 iterations

     negative rho (up, down):  4.435E-02 0.000E+00

     Forces acting on atoms (cartesian axes, Ry/au):

     atom    1 type  1   force =     0.00000000    0.00000000   -0.00000139
     atom    2 type  1   force =     0.00000000    0.00000000    0.00000139
     atom    3 type  2   force =    -0.00000000   -0.00000000    0.00000000
     atom    4 type  3   force =     0.00000000    0.00000000   -0.00000000
     atom    5 type  4   force =    -0.00661610    0.00381981   -0.00540174
     atom    6 type  4   force =     0.00661610    0.00381981   -0.00540174
     atom    7 type  4   force =    -0.00661610   -0.00381981    0.00540174
     atom    8 type  4   force =     0.00000000    0.00763962    0.00540174
     atom    9 type  4   force =     0.00661610   -0.00381981    0.00540174
     atom   10 type  4   force =     0.00000000   -0.00763962   -0.00540174
     The non-local contrib.  to forces
     atom    1 type  1   force =    -0.00000000   -0.00000000   -0.00000482
     atom    2 type  1   force =     0.00000000    0.00000000    0.00000482
     atom    3 type  2   force =    -0.00000000    0.00000000    0.00000000
     atom    4 type  3   force =     0.00000000    0.00000000    0.00000000
     atom    5 type  4   force =    -0.42520817    0.24549405   -0.34718260
     atom    6 type  4   force =     0.42520817    0.24549405   -0.34718260
     atom    7 type  4   force =    -0.42520817   -0.24549405    0.34718260
     atom    8 type  4   force =     0.00000000    0.49098811    0.34718260
     atom    9 type  4   force =     0.42520817   -0.24549405    0.34718260
     atom   10 type  4   force =     0.00000000   -0.49098811   -0.34718260
     The ionic contribution  to forces
     atom    1 type  1   force =    -0.00000000    0.00000000   -0.00000000
     atom    2 type  1   force =    -0.00000000    0.00000000    0.00000000
     atom    3 type  2   force =    -0.00000000    0.00000000    0.00000000
     atom    4 type  3   force =     0.00000000   -0.00000000   -0.00000000
     atom    5 type  4   force =     4.11718869   -2.37706000    3.36167049
     atom    6 type  4   force =    -4.11718869   -2.37706000    3.36167049
     atom    7 type  4   force =     4.11718869    2.37706000   -3.36167049
     atom    8 type  4   force =    -0.00000000   -4.75411999   -3.36167049
     atom    9 type  4   force =    -4.11718869    2.37706000   -3.36167049
     atom   10 type  4   force =    -0.00000000    4.75412000    3.36167049
     The local contribution  to forces
     atom    1 type  1   force =     0.00036563    0.00074321    0.00021776
     atom    2 type  1   force =    -0.00110227   -0.00000737    0.00020682
     atom    3 type  2   force =     0.00000452   -0.00000884    0.00000813
     atom    4 type  3   force =    -0.00000925    0.00000584    0.00000547
     atom    5 type  4   force =    -3.70332479    2.13812727   -3.02374385
     atom    6 type  4   force =     3.70334076    2.13811970   -3.02376562
     atom    7 type  4   force =    -3.70333267   -2.13811671    3.02376585
     atom    8 type  4   force =    -0.00001118    4.27624792    3.02376226
     atom    9 type  4   force =     3.70332750   -2.13812820    3.02374980
     atom   10 type  4   force =     0.00001411   -4.27624892   -3.02375691
     The core correction contribution to forces
     atom    1 type  1   force =     0.00001620    0.00002069    0.00000185
     atom    2 type  1   force =    -0.00003874   -0.00000686    0.00000204
     atom    3 type  2   force =     0.00000018   -0.00000016    0.00000017
     atom    4 type  3   force =     0.00000004   -0.00000023    0.00000011
     atom    5 type  4   force =     0.00472277   -0.00272684    0.00385607
     atom    6 type  4   force =    -0.00472252   -0.00272664    0.00385605
     atom    7 type  4   force =     0.00472257    0.00272645   -0.00385610
     atom    8 type  4   force =     0.00000019   -0.00545316   -0.00385595
     atom    9 type  4   force =    -0.00472265    0.00272668   -0.00385613
     atom   10 type  4   force =    -0.00000007    0.00545315    0.00385598
     The Hubbard contrib.    to forces
     atom    1 type  1   force =     0.00000000    0.00000000    0.00000000
     atom    2 type  1   force =     0.00000000    0.00000000    0.00000000
     atom    3 type  2   force =     0.00000000    0.00000000    0.00000000
     atom    4 type  3   force =     0.00000000    0.00000000    0.00000000
     atom    5 type  4   force =     0.00000000    0.00000000    0.00000000
     atom    6 type  4   force =     0.00000000    0.00000000    0.00000000
     atom    7 type  4   force =     0.00000000    0.00000000    0.00000000
     atom    8 type  4   force =     0.00000000    0.00000000    0.00000000
     atom    9 type  4   force =     0.00000000    0.00000000    0.00000000
     atom   10 type  4   force =     0.00000000    0.00000000    0.00000000
     The SCF correction term to forces
     atom    1 type  1   force =    -0.00002186   -0.00008357   -0.00002387
     atom    2 type  1   force =     0.00010622   -0.00000250   -0.00001996
     atom    3 type  2   force =    -0.00000418    0.00000895   -0.00000645
     atom    4 type  3   force =     0.00001268   -0.00001194   -0.00000533
     atom    5 type  4   force =     0.00001427   -0.00003058   -0.00000246
     atom    6 type  4   force =    -0.00001469   -0.00000823    0.00002008
     atom    7 type  4   force =     0.00001040   -0.00000719   -0.00002397
     atom    8 type  4   force =     0.00002401   -0.00002099   -0.00001187
     atom    9 type  4   force =    -0.00000915    0.00002088   -0.00000859
     atom   10 type  4   force =    -0.00001969    0.00002161    0.00000821

     Total force =     0.022918     Total SCF correction =     0.000159

     Computing stress (Cartesian axis) and pressure

     negative rho (up, down):  4.435E-02 0.000E+00
          total   stress  (Ry/bohr**3)                   (kbar)     P=     -217.04
  -0.00147543   0.00000000   0.00000000         -217.04        0.00        0.00
   0.00000000  -0.00147543   0.00000000            0.00     -217.04        0.00
   0.00000000   0.00000000  -0.00147542            0.00        0.00     -217.04

     kinetic stress (kbar)  18594.71      0.00      0.00
                                0.00  18594.71     -0.00
                                0.00     -0.00  18594.71

     local   stress (kbar)  -6857.59     -0.02      0.01
                               -0.02  -6857.60     -0.01
                                0.01     -0.01  -6857.59

     nonloc. stress (kbar)   5497.07      0.00     -0.00
                                0.00   5497.07     -0.00
                               -0.00     -0.00   5497.07

     hartree stress (kbar)   6562.29      0.01     -0.01
                                0.01   6562.30      0.01
                               -0.01      0.01   6562.29

     exc-cor stress (kbar)   4035.07      0.00      0.00
                                0.00   4035.07     -0.00
                                0.00     -0.00   4035.07

     corecor stress (kbar)  -8942.49     -0.00     -0.00
                               -0.00  -8942.49      0.00
                               -0.00      0.00  -8942.49

     ewald   stress (kbar) -19106.09      0.00      0.00
                                0.00 -19106.09      0.00
                                0.00      0.00 -19106.09

     hubbard stress (kbar)      0.00      0.00      0.00
                                0.00      0.00      0.00
                                0.00      0.00      0.00

     DFT-D   stress (kbar)      0.00      0.00      0.00
                                0.00      0.00      0.00
                                0.00      0.00      0.00

     XDM     stress (kbar)      0.00      0.00      0.00
                                0.00      0.00      0.00
                                0.00      0.00      0.00

     dft-nl  stress (kbar)      0.00      0.00      0.00
                                0.00      0.00      0.00
                                0.00      0.00      0.00

     TS-vdW  stress (kbar)      0.00      0.00      0.00
                                0.00      0.00      0.00
                                0.00      0.00      0.00

[...]

                                0.00      0.00      0.00

     Writing all to output data dir new_calculations/myprefix.save/

     General routines

     Parallel routines

     PAW routines

   This run was terminated on:   5:31:54  20May2023

   JOB DONE.