     Program PWSCF v.7.0 starts on 21May2023 at  5:45:12

     Reading input from espresso_18919.pwi
Warning: card &CELL ignored
Warning: card / ignored

     Current dimensions of program PWSCF are:
     Max number of different atomic species (ntypx) = 10
     Max number of k-points (npk) =  40000
     Max angular momentum in pseudopotentials (lmaxx) =  4
     file O.pbe-n-kjpaw_psl.0.1.UPF: wavefunction(s)  2P renormalized

     gamma-point specific algorithms are used
     Message from routine setup:
     using ibrav=0 with symmetry is DISCOURAGED, use correct ibrav instead

     Subspace diagonalization in iterative solution of the eigenvalue problem:
     a serial algorithm will be used

     Using Slab Decomposition

     bravais-lattice index     =            0
     lattice parameter (alat)  =      15.1856  a.u.
     unit-cell volume          =    2324.0251 (a.u.)^3
     number of atoms/cell      =           12
     number of atomic types    =            3
     number of electrons       =       136.00
     number of Kohn-Sham states=           82
     kinetic-energy cutoff     =      30.0000  Ry
     charge density cutoff     =     240.0000  Ry
     scf convergence threshold =      1.0E-06
     mixing beta               =       0.7000
     number of iterations used =            8  plain     mixing
     Exchange-correlation= SLA  PW   PBX  PBC
                           (   1   4   3   4   0   0   0)

     celldm(1)=  15.185636  celldm(2)=   0.000000  celldm(3)=   0.000000
     celldm(4)=   0.000000  celldm(5)=   0.000000  celldm(6)=   0.000000

     crystal axes: (cart. coord. in units of alat)
               a(1) = (   1.000000   0.000000   0.000000 )
               a(2) = (  -0.692488   0.721430   0.000000 )
               a(3) = (  -0.153756  -0.360715   0.919915 )

     reciprocal axes: (cart. coord. in units 2 pi/alat)
               b(1) = (  1.000000  0.959882  0.543528 )
               b(2) = (  0.000000  1.386136  0.543528 )
               b(3) = (  0.000000  0.000000  1.087057 )

     PseudoPot. # 1 for Cs read from file:
     /home/pragov/projects/rrg-bengioy-ad/pragov/crystal_structure_design/SSSP/Cs_pbe_v1.uspp.F.UPF
     MD5 check sum: 3476d69cb178dfad3ffaa59df4e07ca4
     Pseudo is Ultrasoft + core correction, Zval =  9.0
     Generated by new atomic code, or converted to UPF format
     Using radial grid of  905 points,  6 beta functions with:
                l(1) =   0
                l(2) =   0
                l(3) =   1
                l(4) =   1
                l(5) =   2
                l(6) =   2
     Q(r) pseudized with  6 coefficients,  rinner =    1.500   1.500   1.500
                                                       1.500   1.500

     PseudoPot. # 2 for Ag read from file:
     /home/pragov/projects/rrg-bengioy-ad/pragov/crystal_structure_design/SSSP/Ag_ONCV_PBE-1.0.oncvpsp.upf
     MD5 check sum: 94f47bd0669c641108e45594df92fabc
     Pseudo is Norm-conserving, Zval = 19.0
     Generated using ONCVPSP code by D. R. Hamann
     Using radial grid of 1398 points,  6 beta functions with:
                l(1) =   0
                l(2) =   0
                l(3) =   1
                l(4) =   1
                l(5) =   2
                l(6) =   2

     PseudoPot. # 3 for O  read from file:
     /home/pragov/projects/rrg-bengioy-ad/pragov/crystal_structure_design/SSSP/O.pbe-n-kjpaw_psl.0.1.UPF
     MD5 check sum: 0234752ac141de4415c5fc33072bef88
     Pseudo is Projector augmented-wave + core cor, Zval =  6.0
     Generated using "atomic" code by A. Dal Corso  v.5.0.99 svn rev. 10869
     Shape of augmentation charge: BESSEL
     Using radial grid of 1095 points,  4 beta functions with:
                l(1) =   0
                l(2) =   0
                l(3) =   1
                l(4) =   1
     Q(r) pseudized with 0 coefficients

     atomic species   valence    mass     pseudopotential
        Cs             9.00   132.90545     Cs( 1.00)
        Ag            19.00   107.86820     Ag( 1.00)
        O              6.00    15.99900     O ( 1.00)

      4 Sym. Ops., with inversion, found

                                    s                        frac. trans.

      isym =  1     identity

 cryst.   s( 1) = (     1          0          0      )
                  (     0          1          0      )
                  (     0          0          1      )

 cart.    s( 1) = (  1.0000000 -0.0000000 -0.0000000 )
                  (  0.0000000  1.0000000  0.0000000 )
                  (  0.0000000  0.0000000  1.0000000 )

      isym =  2     180 deg rotation - cart. axis [0,0,1]

[...]

      isym =  3     inversion

[...]

      isym =  4     inv. 180 deg rotation - cart. axis [0,0,1]

 cryst.   s( 4) = (     1          0          0      )
                  (     0          1          0      )
                  (    -1         -1         -1      )

 cart.    s( 4) = (  1.0000000 -0.0000000 -0.0000000 )
                  (  0.0000000  1.0000000 -0.0000000 )
                  (  0.0000000  0.0000000 -1.0000000 )

   Cartesian axes

     site n.     atom                  positions (alat units)
         1           Cs  tau(   1) = (  -0.2600626   0.1108527   0.6372123  )
         2           Cs  tau(   2) = (   0.2600626  -0.1108527   0.6372123  )
         3           Cs  tau(   3) = (   0.4138188   0.2498622   0.2827028  )
         4           Cs  tau(   4) = (  -0.1063063   0.4715676   0.2827028  )
         5           Ag  tau(   5) = (   0.7619533   0.1014684   0.0000000  )
         6           Ag  tau(   6) = (  -0.4544409   0.6199614   0.0000000  )
         7           Ag  tau(   7) = (  -0.0000002  -0.0000004   0.2587712  )
         8           Ag  tau(   8) = (   0.1537564   0.3607153   0.6611439  )
         9           O   tau(   9) = (   0.2394955  -0.1020859   0.2603452  )
        10           O   tau(  10) = (   0.7605045   0.1020859   0.2603452  )
        11           O   tau(  11) = (   0.3932517   0.2586290   0.6595699  )
        12           O   tau(  12) = (  -0.0857392   0.4628008   0.6595699  )

   Crystallographic axes

     site n.     atom                  positions (cryst. coord.)
         1           Cs  tau(   1) = (  0.1926860  0.5000000  0.6926860  )
         2           Cs  tau(   2) = (  0.5000000  0.1926860  0.6926860  )
         3           Cs  tau(   3) = (  0.8073140  0.5000000  0.3073140  )
         4           Cs  tau(   4) = (  0.5000000  0.8073140  0.3073140  )
         5           Ag  tau(   5) = (  0.8593510  0.1406490  0.0000000  )
         6           Ag  tau(   6) = (  0.1406490  0.8593510  0.0000000  )
         7           Ag  tau(   7) = (  0.1406490  0.1406490  0.2812990  )
         8           Ag  tau(   8) = (  0.8593510  0.8593510  0.7187010  )
         9           O   tau(   9) = (  0.2830100  0.0000000  0.2830100  )
        10           O   tau(  10) = (  1.0000000  0.2830100  0.2830100  )
        11           O   tau(  11) = (  1.0000000  0.7169900  0.7169900  )
        12           O   tau(  12) = (  0.7169900  1.0000000  0.7169900  )

     number of k points=     1  Methfessel-Paxton smearing, width (Ry)=  0.0010
                       cart. coord. in units 2pi/alat
        k(    1) = (   0.0000000   0.0000000   0.0000000), wk =   2.0000000

                       cryst. coord.
        k(    1) = (   0.0000000   0.0000000   0.0000000), wk =   2.0000000

     Check: negative core charge=   -0.000005

     Initial potential from superposition of free atoms

     starting charge     135.8413, renormalised to     136.0000
     Starting wfcs are  108 randomized atomic wfcs
     Checking if some PAW data can be deallocated...

     Self-consistent Calculation

     iteration #  1     ecut=    30.00 Ry     beta= 0.70
     Davidson diagonalization with overlap

     ethr =  1.00E-02,  avg # of iterations =  4.0

     total energy              =   -1565.27720780 Ry
     estimated scf accuracy    <       2.98713244 Ry

[...]

     total energy              =   -1566.84546132 Ry
     estimated scf accuracy    <       0.00000418 Ry

     iteration # 12     ecut=    30.00 Ry     beta= 0.70
     Davidson diagonalization with overlap

     ethr =  3.08E-09,  avg # of iterations =  2.0

     End of self-consistent calculation

          k = 0.0000 0.0000 0.0000 (  3238 PWs)   bands (ev):

   -85.8695 -85.8089 -85.7518 -85.7416 -48.9313 -48.9154 -48.9060 -48.8539
   -48.8251 -48.7836 -48.7730 -48.7442 -48.7383 -48.7129 -48.6989 -48.6967
   -14.8714 -14.7484 -14.7461 -14.7257 -10.1654 -10.0119  -9.9419  -9.7808
    -2.3093  -2.0408  -2.0365  -1.8332  -1.8305  -1.6969  -1.6673  -1.6641
    -1.3928  -1.3927  -1.3913  -1.3853   1.6656   1.6946   1.9290   2.1615
     2.2114   2.5344   2.7774   2.9381   3.0205   3.1313   3.1562   3.1980
     3.2013   3.4704   3.4830   3.5030   3.5281   3.5591   3.6011   3.7710
     4.1731   4.5142   4.5274   5.2244   5.3221   5.3768   5.7529   5.8672
     5.8858   6.0499   6.1153   6.5932   7.8345   8.3213   9.7144   9.8371
     9.8438  10.0869  10.0906  10.1028  10.7309  11.1368  11.5618  11.8946
    11.9006  12.2321

     occupation numbers
     1.0000   1.0000   1.0000   1.0000   1.0000   1.0000   1.0000   1.0000
     1.0000   1.0000   1.0000   1.0000   1.0000   1.0000   1.0000   1.0000
     1.0000   1.0000   1.0000   1.0000   1.0000   1.0000   1.0000   1.0000
     1.0000   1.0000   1.0000   1.0000   1.0000   1.0000   1.0000   1.0000
     1.0000   1.0000   1.0000   1.0000   1.0000   1.0000   1.0000   1.0000
     1.0000   1.0000   1.0000   1.0000   1.0000   1.0000   1.0000   1.0000
     1.0000   1.0000   1.0000   1.0000   1.0000   1.0000   1.0000   1.0000
     1.0000   1.0000   1.0000   1.0000   1.0000   1.0000   1.0000   1.0000
     1.0000   1.0000   1.0000   1.0000  -0.0000  -0.0000  -0.0000  -0.0000
    -0.0000  -0.0000  -0.0000  -0.0000  -0.0000  -0.0000  -0.0000  -0.0000
    -0.0000  -0.0000

     the Fermi energy is     7.7569 ev

!    total energy              =   -1566.84546200 Ry
     estimated scf accuracy    <       0.00000008 Ry
     smearing contrib. (-TS)   =       0.00000000 Ry
     internal energy E=F+TS    =   -1566.84546200 Ry

     The total energy is F=E-TS. E is the sum of the following terms:
     one-electron contribution =   -1135.89132927 Ry
     hartree contribution      =     608.28442430 Ry
     xc contribution           =    -258.75154640 Ry
     ewald contribution        =    -742.37119919 Ry
     one-center paw contrib.   =     -38.11581143 Ry
      -> PAW hartree energy AE =     112.81457888 Ry
      -> PAW hartree energy PS =    -112.43610030 Ry
      -> PAW xc energy AE      =     -67.77543338 Ry
      -> PAW xc energy PS      =      29.28114337 Ry
      -> total E_H with PAW    =     608.66290287 Ry
      -> total E_XC with PAW   =    -297.24583641 Ry

     convergence has been achieved in  12 iterations

     Forces acting on atoms (cartesian axes, Ry/au):

     atom    1 type  1   force =    -0.01094197    0.00535859   -0.01251846
     atom    2 type  1   force =     0.01094197   -0.00535859   -0.01251846
     atom    3 type  1   force =     0.01094197   -0.00535859    0.01251846
     atom    4 type  1   force =    -0.01094197    0.00535859    0.01251846
     atom    5 type  2   force =    -0.00483863   -0.02566840    0.00000000
     atom    6 type  2   force =     0.00483863    0.02566840   -0.00000000
     atom    7 type  2   force =     0.00000000    0.00000000    0.01379640
     atom    8 type  2   force =     0.00000000    0.00000000   -0.01379640
     atom    9 type  3   force =    -0.01666660    0.00803401   -0.01550534
     atom   10 type  3   force =     0.01666660   -0.00803401   -0.01550534
     atom   11 type  3   force =    -0.01666660    0.00803401    0.01550534
     atom   12 type  3   force =     0.01666660   -0.00803401    0.01550534
     The non-local contrib.  to forces
     atom    1 type  1   force =     0.00430115   -0.00160275    0.00506575
     atom    2 type  1   force =    -0.00430115    0.00160275    0.00506575
     atom    3 type  1   force =    -0.00430115    0.00160275   -0.00506575
     atom    4 type  1   force =     0.00430115   -0.00160275   -0.00506575
     atom    5 type  2   force =    -0.03613303   -0.01022781    0.00000000
     atom    6 type  2   force =     0.03613303    0.01022781   -0.00000000
     atom    7 type  2   force =     0.00000000    0.00000000    0.04574173
     atom    8 type  2   force =     0.00000000    0.00000000   -0.04574173
     atom    9 type  3   force =    -0.67787928    0.28826042   -0.73286307
     atom   10 type  3   force =     0.67787928   -0.28826042   -0.73286307
     atom   11 type  3   force =    -0.67787928    0.28826042    0.73286307
     atom   12 type  3   force =     0.67787928   -0.28826042    0.73286307
     The ionic contribution  to forces
     atom    1 type  1   force =    -0.19411043    0.08275447   -0.21096094
     atom    2 type  1   force =     0.19412060   -0.08273060   -0.21096094
     atom    3 type  1   force =     0.19411043   -0.08275447    0.21096094
     atom    4 type  1   force =    -0.19412060    0.08273061    0.21096094
     atom    5 type  2   force =   -17.62544535    7.51291885    0.00000000
     atom    6 type  2   force =    17.62544535   -7.51291885    0.00000000
     atom    7 type  2   force =    -0.00001531   -0.00003591   19.15984973
     atom    8 type  2   force =     0.00001531    0.00003591  -19.15984973
     atom    9 type  3   force =    10.25057087   -4.36932698   11.14288300
     atom   10 type  3   force =   -10.25055559    4.36936282   11.14288300
     atom   11 type  3   force =    10.25055559   -4.36936282  -11.14288300
     atom   12 type  3   force =   -10.25057087    4.36932698  -11.14288300
     The local contribution  to forces
     atom    1 type  1   force =     0.17944950   -0.07623423    0.19566843
     atom    2 type  1   force =    -0.17969873    0.07584042    0.19377282
     atom    3 type  1   force =    -0.17945120    0.07624027   -0.19561998
     atom    4 type  1   force =     0.17974056   -0.07585376   -0.19371639
     atom    5 type  2   force =    17.65649374   -7.52824704   -0.00223247
     atom    6 type  2   force =   -17.65646905    7.52824946    0.00195622
     atom    7 type  2   force =    -0.00566372   -0.00745357  -19.19261630
     atom    8 type  2   force =     0.00557010    0.00750050   19.19270079
     atom    9 type  3   force =    -9.59843650    4.09914813  -10.44181153
     atom   10 type  3   force =     9.59654468   -4.08598524  -10.42762476
     atom   11 type  3   force =    -9.59656895    4.08600570   10.42767175
     atom   12 type  3   force =     9.59849523   -4.09916742   10.44188916
     The core correction contribution to forces
     atom    1 type  1   force =    -0.00079090    0.00041409   -0.00055437
     atom    2 type  1   force =     0.00069763   -0.00013112   -0.00159213
     atom    3 type  1   force =     0.00079150   -0.00041393    0.00055375
     atom    4 type  1   force =    -0.00069657    0.00013107    0.00159291
     atom    5 type  2   force =     0.00000000    0.00000000    0.00000000
     atom    6 type  2   force =     0.00000000    0.00000000    0.00000000
     atom    7 type  2   force =     0.00000000    0.00000000    0.00000000
     atom    8 type  2   force =     0.00000000    0.00000000    0.00000000
     atom    9 type  3   force =     0.00817155   -0.00336984    0.00876578
     atom   10 type  3   force =    -0.00832340    0.00361712    0.00917556
     atom   11 type  3   force =     0.00832324   -0.00361698   -0.00917457
     atom   12 type  3   force =    -0.00817094    0.00336966   -0.00876474
     The Hubbard contrib.    to forces
     atom    1 type  1   force =     0.00000000    0.00000000    0.00000000
     atom    2 type  1   force =     0.00000000    0.00000000    0.00000000
     atom    3 type  1   force =     0.00000000    0.00000000    0.00000000
     atom    4 type  1   force =     0.00000000    0.00000000    0.00000000
     atom    5 type  2   force =     0.00000000    0.00000000    0.00000000
     atom    6 type  2   force =     0.00000000    0.00000000    0.00000000
     atom    7 type  2   force =     0.00000000    0.00000000    0.00000000
     atom    8 type  2   force =     0.00000000    0.00000000    0.00000000
     atom    9 type  3   force =     0.00000000    0.00000000    0.00000000
     atom   10 type  3   force =     0.00000000    0.00000000    0.00000000
     atom   11 type  3   force =     0.00000000    0.00000000    0.00000000
     atom   12 type  3   force =     0.00000000    0.00000000    0.00000000
     The SCF correction term to forces
     atom    1 type  1   force =     0.00004943   -0.00002082   -0.00025710
     atom    2 type  1   force =    -0.00004176    0.00001602   -0.00027923
     atom    3 type  1   force =    -0.00003425    0.00001135    0.00021207
     atom    4 type  1   force =     0.00000072    0.00000190    0.00022912
     atom    5 type  2   force =     0.00024715   -0.00011228    0.00014120
     atom    6 type  2   force =    -0.00026956    0.00011011    0.00030998
     atom    7 type  2   force =     0.00012658   -0.00002586    0.00083075
     atom    8 type  2   force =    -0.00000777   -0.00002967   -0.00089621
     atom    9 type  3   force =    -0.00009556    0.00004044    0.00023339
     atom   10 type  3   force =     0.00010118   -0.00004326    0.00024963
     atom   11 type  3   force =    -0.00008560    0.00002584   -0.00025666
     atom   12 type  3   force =     0.00006362   -0.00003155   -0.00027579

     Total force =     0.072779     Total SCF correction =     0.001526

     Computing stress (Cartesian axis) and pressure

          total   stress  (Ry/bohr**3)                   (kbar)     P=     -433.98
  -0.00289961   0.00018607   0.00000000         -426.55       27.37        0.00
   0.00018607  -0.00285323   0.00000000           27.37     -419.72        0.00
   0.00000000   0.00000000  -0.00309764            0.00        0.00     -455.68

     kinetic stress (kbar)  20797.44    175.78     -0.00
                              175.78  21120.06     -0.00
                               -0.00     -0.00  20715.19

     local   stress (kbar) -24904.68  13835.14     -1.07
                            13835.14   1654.32      1.70
                               -1.07      1.70 -30803.01

     nonloc. stress (kbar)   3210.79    -30.37     -0.00
                              -30.37   3109.56     -0.00
                               -0.00     -0.00   3210.50

     hartree stress (kbar)  15921.83  -6212.47      2.58
                            -6212.47   4007.49     -0.55
                                2.58     -0.55  18573.59

     exc-cor stress (kbar)   2533.21     -3.69      0.10
                               -3.69   2526.54     -0.01
                                0.10     -0.01   2534.92

     corecor stress (kbar)  -6173.18     -0.58      0.09
                               -0.58  -6173.59      0.06
                                0.09      0.06  -6172.66

     ewald   stress (kbar) -11811.96  -7736.45     -0.01
                            -7736.45 -26664.11     -0.03
                               -0.01     -0.03  -8514.20

     hubbard stress (kbar)      0.00      0.00      0.00
                                0.00      0.00      0.00
                                0.00      0.00      0.00

     DFT-D   stress (kbar)      0.00      0.00      0.00
                                0.00      0.00      0.00
                                0.00      0.00      0.00

     XDM     stress (kbar)      0.00      0.00      0.00
                                0.00      0.00      0.00
                                0.00      0.00      0.00

     dft-nl  stress (kbar)      0.00      0.00      0.00
                                0.00      0.00      0.00
                                0.00      0.00      0.00

     TS-vdW  stress (kbar)      0.00      0.00      0.00
                                0.00      0.00      0.00
                                0.00      0.00      0.00

[...]

                                0.00      0.00      0.00

     Writing all to output data dir new_calculations/myprefix.save/

     General routines

     Parallel routines

     PAW routines

   This run was terminated on:   5:45:39  21May2023

   JOB DONE.