     Program PWSCF v.7.0 starts on 21May2023 at  4:15:43

     Reading input from espresso_9998.pwi
Warning: card &CELL ignored
Warning: card / ignored

     Current dimensions of program PWSCF are:
     Max number of different atomic species (ntypx) = 10
     Max number of k-points (npk) =  40000
     Max angular momentum in pseudopotentials (lmaxx) =  4
     file Nb.pbe-spn-kjpaw_psl.0.3.0.UPF: wavefunction(s)  4S 4P renormalized
     file Pb.pbe-dn-kjpaw_psl.0.2.2.UPF: wavefunction(s)  6S renormalized
     file O.pbe-n-kjpaw_psl.0.1.UPF: wavefunction(s)  2P renormalized

     gamma-point specific algorithms are used
     Message from routine setup:
     using ibrav=0 with symmetry is DISCOURAGED, use correct ibrav instead

     Subspace diagonalization in iterative solution of the eigenvalue problem:
     a serial algorithm will be used

     Using Slab Decomposition

     bravais-lattice index     =            0
     lattice parameter (alat)  =       7.4536  a.u.
     unit-cell volume          =    2078.2970 (a.u.)^3
     number of atoms/cell      =           19
     number of atomic types    =            5
     number of electrons       =       172.00
     number of Kohn-Sham states=          103
     kinetic-energy cutoff     =      30.0000  Ry
     charge density cutoff     =     240.0000  Ry
     scf convergence threshold =      1.0E-06
     mixing beta               =       0.7000
     number of iterations used =            8  plain     mixing
     Exchange-correlation= SLA  PW   PBX  PBC
                           (   1   4   3   4   0   0   0)

     celldm(1)=   7.453634  celldm(2)=   0.000000  celldm(3)=   0.000000
     celldm(4)=   0.000000  celldm(5)=   0.000000  celldm(6)=   0.000000

     crystal axes: (cart. coord. in units of alat)
               a(1) = (   1.000000   0.000000   0.000000 )
               a(2) = (   0.000000   1.000000   0.000000 )
               a(3) = (   0.000000   0.000000   5.018842 )

     reciprocal axes: (cart. coord. in units 2 pi/alat)
               b(1) = (  1.000000  0.000000  0.000000 )
               b(2) = (  0.000000  1.000000  0.000000 )
               b(3) = (  0.000000  0.000000  0.199249 )

     PseudoPot. # 1 for Nb read from file:
     /home/pragov/projects/rrg-bengioy-ad/pragov/crystal_structure_design/SSSP/Nb.pbe-spn-kjpaw_psl.0.3.0.UPF
     MD5 check sum: 411d72ad547312f8017e2943ceca08cc
     Pseudo is Projector augmented-wave + core cor, Zval = 13.0
     Generated using "atomic" code by A. Dal Corso  v.5.0.99 svn rev. 10869
     Shape of augmentation charge: PSQ
     Using radial grid of 1227 points,  6 beta functions with:
                l(1) =   0
                l(2) =   0
                l(3) =   1
                l(4) =   1
                l(5) =   2
                l(6) =   2
     Q(r) pseudized with 0 coefficients

     PseudoPot. # 2 for Bi read from file:
     /home/pragov/projects/rrg-bengioy-ad/pragov/crystal_structure_design/SSSP/Bi_pbe_v1.uspp.F.UPF
     MD5 check sum: cceb9f28ec65b6d7ff33140f5b0b1758
     Pseudo is Ultrasoft + core correction, Zval = 15.0
     Generated by new atomic code, or converted to UPF format
     Using radial grid of  899 points,  6 beta functions with:
                l(1) =   0
                l(2) =   0
                l(3) =   1
                l(4) =   1
                l(5) =   2
                l(6) =   2
     Q(r) pseudized with  6 coefficients,  rinner =    1.000   1.000   1.000
                                                       1.000   1.000

     PseudoPot. # 3 for Pb read from file:
     /home/pragov/projects/rrg-bengioy-ad/pragov/crystal_structure_design/SSSP/Pb.pbe-dn-kjpaw_psl.0.2.2.UPF
     MD5 check sum: 9d431e6316058b74ade52399a6cf67da
     Pseudo is Projector augmented-wave + core cor, Zval = 14.0
     Generated using "atomic" code by A. Dal Corso  v.5.0.99 svn rev. 10869
     Shape of augmentation charge: PSQ
     Using radial grid of 1281 points,  6 beta functions with:
                l(1) =   0
                l(2) =   0
                l(3) =   1
                l(4) =   1
                l(5) =   2
                l(6) =   2
     Q(r) pseudized with 0 coefficients

     PseudoPot. # 4 for Cl read from file:
     /home/pragov/projects/rrg-bengioy-ad/pragov/crystal_structure_design/SSSP/cl_pbe_v1.4.uspp.F.UPF
     MD5 check sum: fc6f6913ecf08c9257cb748ef0700058
     Pseudo is Ultrasoft + core correction, Zval =  7.0
     Generated by new atomic code, or converted to UPF format
     Using radial grid of  909 points,  6 beta functions with:
                l(1) =   0
                l(2) =   0
                l(3) =   1
                l(4) =   1
                l(5) =   2
                l(6) =   2
     Q(r) pseudized with  8 coefficients,  rinner =    1.300   1.300   1.300
                                                       1.300   1.300

     PseudoPot. # 5 for O  read from file:
     /home/pragov/projects/rrg-bengioy-ad/pragov/crystal_structure_design/SSSP/O.pbe-n-kjpaw_psl.0.1.UPF
     MD5 check sum: 0234752ac141de4415c5fc33072bef88
     Pseudo is Projector augmented-wave + core cor, Zval =  6.0
     Generated using "atomic" code by A. Dal Corso  v.5.0.99 svn rev. 10869
     Shape of augmentation charge: BESSEL
     Using radial grid of 1095 points,  4 beta functions with:
                l(1) =   0
                l(2) =   0
                l(3) =   1
                l(4) =   1
     Q(r) pseudized with 0 coefficients

     atomic species   valence    mass     pseudopotential
        Nb            13.00    92.90637     Nb( 1.00)
        Bi            15.00   208.98040     Bi( 1.00)
        Pb            14.00   207.20000     Pb( 1.00)
        Cl             7.00    35.45000     Cl( 1.00)
        O              6.00    15.99900     O ( 1.00)

     16 Sym. Ops., with inversion, found

                                    s                        frac. trans.

      isym =  1     identity

 cryst.   s( 1) = (     1          0          0      )
                  (     0          1          0      )
                  (     0          0          1      )

 cart.    s( 1) = (  1.0000000  0.0000000  0.0000000 )
                  (  0.0000000  1.0000000  0.0000000 )
                  (  0.0000000  0.0000000  1.0000000 )

      isym =  2     180 deg rotation - cart. axis [0,0,1]

[...]

      isym =  8      90 deg rotation - cart. axis [0,0,1]

[...]

      isym =  9     inversion

 cryst.   s( 9) = (    -1          0          0      )
                  (     0         -1          0      )
                  (     0          0         -1      )

 cart.    s( 9) = ( -1.0000000  0.0000000  0.0000000 )
                  (  0.0000000 -1.0000000  0.0000000 )
                  (  0.0000000  0.0000000 -1.0000000 )

      isym = 10     inv. 180 deg rotation - cart. axis [0,0,1]

 cryst.   s(10) = (     1          0          0      )
                  (     0          1          0      )
                  (     0          0         -1      )

 cart.    s(10) = (  1.0000000  0.0000000  0.0000000 )
                  (  0.0000000  1.0000000  0.0000000 )
                  (  0.0000000  0.0000000 -1.0000000 )

[...]

      isym = 16     inv.  90 deg rotation - cart. axis [0,0,1]

 cryst.   s(16) = (     0         -1          0      )
                  (     1          0          0      )
                  (     0          0         -1      )

 cart.    s(16) = (  0.0000000  1.0000000  0.0000000 )
                  ( -1.0000000  0.0000000  0.0000000 )
                  (  0.0000000  0.0000000 -1.0000000 )

   Cartesian axes

     site n.     atom                  positions (alat units)
         1           Nb  tau(   1) = (   0.5000000   0.5000000   4.4395067  )
         2           Nb  tau(   2) = (   0.5000000   0.5000000   0.5793349  )
         3           Bi  tau(   3) = (   0.0000000   0.0000000   0.0000000  )
         4           Bi  tau(   4) = (   0.5000000   0.5000000   3.0236965  )
         5           Bi  tau(   5) = (   0.5000000   0.5000000   1.9951451  )
         6           Pb  tau(   6) = (   0.0000000   0.0000000   3.6615812  )
         7           Pb  tau(   7) = (   0.0000000   0.0000000   1.3572604  )
         8           Cl  tau(   8) = (   0.0000000   0.0000000   2.5094208  )
         9           O   tau(   9) = (   0.5000000   0.5000000   3.9794897  )
        10           O   tau(  10) = (   0.5000000   0.5000000   1.0393519  )
        11           O   tau(  11) = (   0.5000000   0.0000000   3.3028646  )
        12           O   tau(  12) = (   0.0000000   0.5000000   3.3028646  )
        13           O   tau(  13) = (   0.5000000   0.0000000   1.7159771  )
        14           O   tau(  14) = (   0.0000000   0.5000000   1.7159771  )
        15           O   tau(  15) = (   0.5000000   0.0000000   4.5463478  )
        16           O   tau(  16) = (   0.0000000   0.5000000   4.5463478  )
        17           O   tau(  17) = (   0.5000000   0.0000000   0.4724938  )
        18           O   tau(  18) = (   0.0000000   0.5000000   0.4724938  )
        19           O   tau(  19) = (   0.5000000   0.5000000   0.0000000  )

   Crystallographic axes

     site n.     atom                  positions (cryst. coord.)
         1           Nb  tau(   1) = (  0.5000000  0.5000000  0.8845680  )
         2           Nb  tau(   2) = (  0.5000000  0.5000000  0.1154320  )
         3           Bi  tau(   3) = (  0.0000000  0.0000000  0.0000000  )
         4           Bi  tau(   4) = (  0.5000000  0.5000000  0.6024690  )
         5           Bi  tau(   5) = (  0.5000000  0.5000000  0.3975310  )
         6           Pb  tau(   6) = (  0.0000000  0.0000000  0.7295670  )
         7           Pb  tau(   7) = (  0.0000000  0.0000000  0.2704330  )
         8           Cl  tau(   8) = (  0.0000000  0.0000000  0.5000000  )
         9           O   tau(   9) = (  0.5000000  0.5000000  0.7929100  )
        10           O   tau(  10) = (  0.5000000  0.5000000  0.2070900  )
        11           O   tau(  11) = (  0.5000000  0.0000000  0.6580930  )
        12           O   tau(  12) = (  0.0000000  0.5000000  0.6580930  )
        13           O   tau(  13) = (  0.5000000  0.0000000  0.3419070  )
        14           O   tau(  14) = (  0.0000000  0.5000000  0.3419070  )
        15           O   tau(  15) = (  0.5000000  0.0000000  0.9058560  )
        16           O   tau(  16) = (  0.0000000  0.5000000  0.9058560  )
        17           O   tau(  17) = (  0.5000000  0.0000000  0.0941440  )
        18           O   tau(  18) = (  0.0000000  0.5000000  0.0941440  )
        19           O   tau(  19) = (  0.5000000  0.5000000  0.0000000  )

     number of k points=     1  Methfessel-Paxton smearing, width (Ry)=  0.0010
                       cart. coord. in units 2pi/alat
        k(    1) = (   0.0000000   0.0000000   0.0000000), wk =   2.0000000

                       cryst. coord.
        k(    1) = (   0.0000000   0.0000000   0.0000000), wk =   2.0000000

     Check: negative core charge=   -0.000012

     Initial potential from superposition of free atoms

     starting charge     168.9909, renormalised to     172.0000

     negative rho (up, down):  1.474E-01 0.000E+00
[...]

     ethr =  1.00E-02,  avg # of iterations =  8.0

     negative rho (up, down):  1.626E-01 0.000E+00

     total energy              =   -2960.69688367 Ry
     estimated scf accuracy    <     560.71801025 Ry

[...]

     total energy              =   -3455.76107736 Ry
     estimated scf accuracy    <       0.00000132 Ry

     iteration # 48     ecut=    30.00 Ry     beta= 0.70
     Davidson diagonalization with overlap

     ethr =  7.66E-10,  avg # of iterations =  3.0

[...]

     End of self-consistent calculation

          k = 0.0000 0.0000 0.0000 (  2917 PWs)   bands (ev):

   -47.4310 -47.4309 -23.5861 -23.5861 -23.5859 -23.5859 -23.3108 -23.3007
   -14.2097 -14.1424 -14.1424 -14.1292 -14.0532 -13.6814 -13.6667 -13.6286
   -13.6278 -13.6162 -13.6162 -13.6123 -13.6123 -13.4572 -13.4565  -9.1437
    -8.8381  -8.7958  -8.7782  -8.3546  -8.3469  -7.9019  -7.8283  -7.4153
    -7.4151  -7.0733  -6.7946  -6.7925  -6.7810  -6.7810  -6.7807  -6.7807
    -6.7490  -6.7487  -5.7768  -5.7763  -5.0575  -0.6444  -0.1816  -0.0955
     2.7067   2.7712   4.2417   4.4279   4.4279   5.0347   5.0347   5.0466
     5.0466   5.2422   5.2422   5.9973   6.2456   6.2995   6.2995   6.5036
     6.5036   6.5678   6.8062   6.8237   6.9748   7.1348   7.1348   7.4959
     7.4959   7.6716   7.6716   7.8306   7.8306   8.1518   8.1605   8.1723
     8.3453   8.3453   8.3510   8.3510   8.7103   8.9424   9.3750   9.3814
    10.0997  11.3477  12.0419  12.1844  12.1844  12.3716  12.3717  12.5101
    13.0033  13.3766  13.4242  13.8752  13.8752  13.9902  13.9902

     occupation numbers
     1.0000   1.0000   1.0000   1.0000   1.0000   1.0000   1.0000   1.0000
     1.0000   1.0000   1.0000   1.0000   1.0000   1.0000   1.0000   1.0000
     1.0000   1.0000   1.0000   1.0000   1.0000   1.0000   1.0000   1.0000
     1.0000   1.0000   1.0000   1.0000   1.0000   1.0000   1.0000   1.0000
     1.0000   1.0000   1.0000   1.0000   1.0000   1.0000   1.0000   1.0000
     1.0000   1.0000   1.0000   1.0000   1.0000   1.0000   1.0000   1.0000
     1.0000   1.0000   1.0000   1.0000   1.0000   1.0000   1.0000   1.0000
     1.0000   1.0000   1.0000   1.0000   1.0000   1.0000   1.0000   1.0000
     1.0000   1.0000   1.0000   1.0000   1.0000   1.0000   1.0000   1.0000
     1.0000   1.0000   1.0000   1.0000   1.0000   1.0000   1.0000   1.0000
     1.0000   1.0000   1.0000   1.0000   1.0000   1.0000  -0.0000  -0.0000
    -0.0000  -0.0000  -0.0000  -0.0000  -0.0000  -0.0000  -0.0000  -0.0000
    -0.0000  -0.0000  -0.0000  -0.0000  -0.0000  -0.0000  -0.0000

     the Fermi energy is     9.3064 ev

!    total energy              =   -3455.76107744 Ry
     estimated scf accuracy    <       0.00000026 Ry
     smearing contrib. (-TS)   =       0.00000000 Ry
     internal energy E=F+TS    =   -3455.76107744 Ry

     The total energy is F=E-TS. E is the sum of the following terms:
     one-electron contribution =    -629.62213436 Ry
     hartree contribution      =     432.50894488 Ry
     xc contribution           =    -432.03772810 Ry
     ewald contribution        =    -847.92284135 Ry
     one-center paw contrib.   =   -1978.68731851 Ry
      -> PAW hartree energy AE =     648.33122848 Ry
      -> PAW hartree energy PS =    -646.01536456 Ry
      -> PAW xc energy AE      =   -2204.80897267 Ry
      -> PAW xc energy PS      =     223.80579024 Ry
      -> total E_H with PAW    =     434.82480880 Ry
      -> total E_XC with PAW   =   -2413.04091053 Ry

     convergence has been achieved in  48 iterations

     negative rho (up, down):  1.423E-01 0.000E+00

     Forces acting on atoms (cartesian axes, Ry/au):

     atom    1 type  1   force =     0.00000000    0.00000000   -0.53344728
     atom    2 type  1   force =     0.00000000    0.00000000    0.53344728
     atom    3 type  2   force =     0.00000000    0.00000000    0.00000000
     atom    4 type  2   force =     0.00000000    0.00000000    0.08303612
     atom    5 type  2   force =     0.00000000    0.00000000   -0.08303612
     atom    6 type  3   force =     0.00000000    0.00000000    0.02664973
     atom    7 type  3   force =     0.00000000    0.00000000   -0.02664973
     atom    8 type  4   force =     0.00000000    0.00000000    0.00000000
     atom    9 type  5   force =     0.00000000    0.00000000    0.02809917
     atom   10 type  5   force =     0.00000000    0.00000000   -0.02809917
     atom   11 type  5   force =     0.00000000    0.00000000   -0.05088930
     atom   12 type  5   force =     0.00000000    0.00000000   -0.05088930
     atom   13 type  5   force =     0.00000000    0.00000000    0.05088930
     atom   14 type  5   force =     0.00000000    0.00000000    0.05088930
     atom   15 type  5   force =     0.00000000    0.00000000    0.25294286
     atom   16 type  5   force =     0.00000000    0.00000000    0.25294286
     atom   17 type  5   force =     0.00000000    0.00000000   -0.25294286
     atom   18 type  5   force =     0.00000000    0.00000000   -0.25294286
     atom   19 type  5   force =     0.00000000    0.00000000    0.00000000
     The non-local contrib.  to forces
     atom    1 type  1   force =     0.00000000    0.00000000    0.55554744
     atom    2 type  1   force =     0.00000000    0.00000000   -0.55554744
     atom    3 type  2   force =     0.00000000    0.00000000    0.00000000
     atom    4 type  2   force =     0.00000000    0.00000000    0.31563346
     atom    5 type  2   force =     0.00000000    0.00000000   -0.31563346
     atom    6 type  3   force =     0.00000000    0.00000000   -0.35040002
     atom    7 type  3   force =     0.00000000    0.00000000    0.35040002
     atom    8 type  4   force =     0.00000000    0.00000000    0.00000000
     atom    9 type  5   force =     0.00000000    0.00000000    1.10060102
     atom   10 type  5   force =     0.00000000    0.00000000   -1.10060102
     atom   11 type  5   force =     0.00000000    0.00000000   -0.06219398
     atom   12 type  5   force =     0.00000000    0.00000000   -0.06219398
     atom   13 type  5   force =     0.00000000    0.00000000    0.06219398
     atom   14 type  5   force =     0.00000000    0.00000000    0.06219398
     atom   15 type  5   force =     0.00000000    0.00000000   -0.95671314
     atom   16 type  5   force =     0.00000000    0.00000000   -0.95671314
     atom   17 type  5   force =     0.00000000    0.00000000    0.95671314
     atom   18 type  5   force =     0.00000000    0.00000000    0.95671314
     atom   19 type  5   force =     0.00000000    0.00000000    0.00000000
     The ionic contribution  to forces
     atom    1 type  1   force =     0.00000000    0.00000000  -26.19756841
     atom    2 type  1   force =    -0.00000000   -0.00000000   26.19756841
     atom    3 type  2   force =     0.00000000    0.00000000    0.00000000
     atom    4 type  2   force =     0.00000000    0.00000000  -36.08966113
     atom    5 type  2   force =    -0.00000000   -0.00000000   36.08966113
     atom    6 type  3   force =     0.00000000   -0.00000000  -12.85615646
     atom    7 type  3   force =     0.00000000    0.00000000   12.85615646
     atom    8 type  4   force =    -0.00000000   -0.00000000   -0.00000000
     atom    9 type  5   force =     0.00000000    0.00000000  -18.81598302
     atom   10 type  5   force =     0.00000000    0.00000000   18.81598302
     atom   11 type  5   force =    -0.00000000   -0.00000000   -9.35136896
     atom   12 type  5   force =    -0.00000000    0.00000000   -9.35136896
     atom   13 type  5   force =    -0.00000000   -0.00000000    9.35136896
     atom   14 type  5   force =    -0.00000000   -0.00000000    9.35136896
     atom   15 type  5   force =     0.00000000   -0.00000000  -10.61239916
     atom   16 type  5   force =    -0.00000000    0.00000000  -10.61239916
     atom   17 type  5   force =     0.00000000   -0.00000000   10.61239916
     atom   18 type  5   force =    -0.00000000    0.00000000   10.61239916
     atom   19 type  5   force =    -0.00000000   -0.00000000    0.00000000
     The local contribution  to forces
     atom    1 type  1   force =     0.00000224    0.00000011   25.14959434
     atom    2 type  1   force =     0.00000045    0.00000022  -25.15113902
     atom    3 type  2   force =     0.00000160    0.00000053   -0.00016846
     atom    4 type  2   force =    -0.00000980    0.00000241   35.86374848
     atom    5 type  2   force =     0.00000288    0.00001023  -35.86444319
     atom    6 type  3   force =    -0.00000662   -0.00000472   13.21187512
     atom    7 type  3   force =     0.00000419    0.00000355  -13.21005457
     atom    8 type  4   force =     0.00000612    0.00000110   -0.00022437
     atom    9 type  5   force =     0.00000026    0.00000074   17.75259400
     atom   10 type  5   force =    -0.00000067    0.00000153  -17.75279512
     atom   11 type  5   force =    -0.00000158   -0.00000294    9.36271517
     atom   12 type  5   force =     0.00000353    0.00000192    9.36266535
     atom   13 type  5   force =     0.00000217    0.00000006   -9.36226875
     atom   14 type  5   force =     0.00000023    0.00000102   -9.36227088
     atom   15 type  5   force =    -0.00000140   -0.00000101   11.80967966
     atom   16 type  5   force =    -0.00000135   -0.00000099   11.80967023
     atom   17 type  5   force =    -0.00000033   -0.00000106  -11.80993594
     atom   18 type  5   force =     0.00000071    0.00000007  -11.80993765
     atom   19 type  5   force =    -0.00000121   -0.00000179    0.00011392
     The core correction contribution to forces
     atom    1 type  1   force =     0.00000012   -0.00000017   -0.04224105
     atom    2 type  1   force =     0.00000006    0.00000003    0.04220612
     atom    3 type  2   force =     0.00000004   -0.00000001   -0.00000395
     atom    4 type  2   force =    -0.00000034   -0.00000004   -0.00751632
     atom    5 type  2   force =     0.00000018    0.00000020    0.00750087
     atom    6 type  3   force =    -0.00000011    0.00000014    0.02206778
     atom    7 type  3   force =     0.00000019    0.00000019   -0.02205328
     atom    8 type  4   force =     0.00000016    0.00000006    0.00000260
     atom    9 type  5   force =    -0.00000002   -0.00000001   -0.00926344
     atom   10 type  5   force =    -0.00000001    0.00000002    0.00926381
     atom   11 type  5   force =    -0.00000001   -0.00000001    0.00008442
     atom   12 type  5   force =     0.00000001   -0.00000006    0.00008417
     atom   13 type  5   force =     0.00000004    0.00000007   -0.00008496
     atom   14 type  5   force =     0.00000002    0.00000004   -0.00008477
     atom   15 type  5   force =    -0.00000002   -0.00000000    0.01208030
     atom   16 type  5   force =    -0.00000001   -0.00000002    0.01208025
     atom   17 type  5   force =    -0.00000001   -0.00000001   -0.01207998
     atom   18 type  5   force =    -0.00000000    0.00000001   -0.01208002
     atom   19 type  5   force =    -0.00000001   -0.00000002    0.00000091
     The Hubbard contrib.    to forces
     atom    1 type  1   force =     0.00000000    0.00000000    0.00000000
     atom    2 type  1   force =     0.00000000    0.00000000    0.00000000
     atom    3 type  2   force =     0.00000000    0.00000000    0.00000000
     atom    4 type  2   force =     0.00000000    0.00000000    0.00000000
     atom    5 type  2   force =     0.00000000    0.00000000    0.00000000
     atom    6 type  3   force =     0.00000000    0.00000000    0.00000000
     atom    7 type  3   force =     0.00000000    0.00000000    0.00000000
     atom    8 type  4   force =     0.00000000    0.00000000    0.00000000
     atom    9 type  5   force =     0.00000000    0.00000000    0.00000000
     atom   10 type  5   force =     0.00000000    0.00000000    0.00000000
     atom   11 type  5   force =     0.00000000    0.00000000    0.00000000
     atom   12 type  5   force =     0.00000000    0.00000000    0.00000000
     atom   13 type  5   force =     0.00000000    0.00000000    0.00000000
     atom   14 type  5   force =     0.00000000    0.00000000    0.00000000
     atom   15 type  5   force =     0.00000000    0.00000000    0.00000000
     atom   16 type  5   force =     0.00000000    0.00000000    0.00000000
     atom   17 type  5   force =     0.00000000    0.00000000    0.00000000
     atom   18 type  5   force =     0.00000000    0.00000000    0.00000000
     atom   19 type  5   force =     0.00000000    0.00000000    0.00000000
     The SCF correction term to forces
     atom    1 type  1   force =    -0.00000135   -0.00000085    0.00105995
     atom    2 type  1   force =     0.00000012    0.00000036    0.00019875
     atom    3 type  2   force =    -0.00000130   -0.00000179    0.00018616
     atom    4 type  2   force =     0.00000906   -0.00000337    0.00077777
     atom    5 type  2   force =    -0.00000354   -0.00000964   -0.00017532
     atom    6 type  3   force =     0.00000808    0.00001268   -0.00079157
     atom    7 type  3   force =    -0.00000461   -0.00000159   -0.00115326
     atom    8 type  4   force =    -0.00000258   -0.00000011    0.00029378
     atom    9 type  5   force =    -0.00000149   -0.00000112    0.00013844
     atom   10 type  5   force =     0.00000104   -0.00000011    0.00003799
     atom   11 type  5   force =     0.00000223    0.00000336   -0.00014185
     atom   12 type  5   force =    -0.00000181   -0.00000466   -0.00011262
     atom   13 type  5   force =    -0.00000158    0.00000102   -0.00034539
     atom   14 type  5   force =     0.00000155    0.00000050   -0.00034518
     atom   15 type  5   force =     0.00000088    0.00000022    0.00031900
     atom   16 type  5   force =     0.00000084    0.00000032    0.00032592
     atom   17 type  5   force =     0.00000056    0.00000017   -0.00001641
     atom   18 type  5   force =    -0.00000064    0.00000033   -0.00001529
     atom   19 type  5   force =     0.00000029    0.00000113   -0.00007573

     Total force =     0.923147     Total SCF correction =     0.002094

     Computing stress (Cartesian axis) and pressure

     negative rho (up, down):  1.423E-01 0.000E+00
          total   stress  (Ry/bohr**3)                   (kbar)     P=     -166.69
  -0.00072505   0.00000000   0.00000000         -106.66        0.00        0.00
   0.00000000  -0.00072505   0.00000000            0.00     -106.66        0.00
   0.00000000   0.00000000  -0.00194923            0.00        0.00     -286.74

     kinetic stress (kbar)  18561.58      0.00      0.00
                                0.00  18561.58      0.00
                                0.00      0.00  18727.56

     local   stress (kbar) -27056.26     -0.00     -0.00
                               -0.00 -27056.25      0.00
                               -0.00      0.00  17894.92

     nonloc. stress (kbar)   9213.55      0.00      0.00
                                0.00   9213.55      0.00
                                0.00      0.00   9019.65

     hartree stress (kbar)  17463.26      0.00      0.00
                                0.00  17463.25     -0.00
                                0.00     -0.00  -4312.85

     exc-cor stress (kbar)  10895.20     -0.00      0.00
                               -0.00  10895.20     -0.00
                                0.00     -0.00  10897.54

     corecor stress (kbar) -16956.28     -0.00      0.00
                               -0.00 -16956.28      0.00
                                0.00      0.00 -16951.68

     ewald   stress (kbar) -12227.70      0.00     -0.00
                                0.00 -12227.70     -0.00
                               -0.00     -0.00 -35561.88

     hubbard stress (kbar)      0.00      0.00      0.00
                                0.00      0.00      0.00
                                0.00      0.00      0.00

     DFT-D   stress (kbar)      0.00      0.00      0.00
                                0.00      0.00      0.00
                                0.00      0.00      0.00

     XDM     stress (kbar)      0.00      0.00      0.00
                                0.00      0.00      0.00
                                0.00      0.00      0.00

     dft-nl  stress (kbar)      0.00      0.00      0.00
                                0.00      0.00      0.00
                                0.00      0.00      0.00

     TS-vdW  stress (kbar)      0.00      0.00      0.00
                                0.00      0.00      0.00
                                0.00      0.00      0.00

[...]

                                0.00      0.00      0.00

     Writing all to output data dir new_calculations/myprefix.save/

     General routines

     Parallel routines

     PAW routines

   This run was terminated on:   4:17:14  21May2023

   JOB DONE.