     Program PWSCF v.7.0 starts on 20May2023 at  9: 3:56

     Reading input from espresso_2303.pwi
Warning: card &CELL ignored
Warning: card / ignored

     Current dimensions of program PWSCF are:
     Max number of different atomic species (ntypx) = 10
     Max number of k-points (npk) =  40000
     Max angular momentum in pseudopotentials (lmaxx) =  4
     file Al.pbe-n-kjpaw_psl.1.0.0.UPF: wavefunction(s)  3S 3P renormalized

     gamma-point specific algorithms are used
     Message from routine setup:
     using ibrav=0 with symmetry is DISCOURAGED, use correct ibrav instead

     Subspace diagonalization in iterative solution of the eigenvalue problem:
     a serial algorithm will be used

     Using Slab Decomposition

     bravais-lattice index     =            0
     lattice parameter (alat)  =      18.1578  a.u.
     unit-cell volume          =    1460.4387 (a.u.)^3
     number of atoms/cell      =           13
     number of atomic types    =            2
     number of electrons       =        39.00
     number of Kohn-Sham states=           24
     kinetic-energy cutoff     =      30.0000  Ry
     charge density cutoff     =     240.0000  Ry
     scf convergence threshold =      1.0E-06
     mixing beta               =       0.7000
     number of iterations used =            8  plain     mixing
     Exchange-correlation= SLA  PW   PBX  PBC
                           (   1   4   3   4   0   0   0)

     celldm(1)=  18.157813  celldm(2)=   0.000000  celldm(3)=   0.000000
     celldm(4)=   0.000000  celldm(5)=   0.000000  celldm(6)=   0.000000

     crystal axes: (cart. coord. in units of alat)
               a(1) = (   1.000000   0.000000   0.000000 )
               a(2) = (   0.891744   0.452540   0.000000 )
               a(3) = (   0.142832   0.034168   0.539059 )

     reciprocal axes: (cart. coord. in units 2 pi/alat)
               b(1) = (  1.000000 -1.970532 -0.140064 )
               b(2) = (  0.000000  2.209750 -0.140064 )
               b(3) = (  0.000000  0.000000  1.855086 )

     PseudoPot. # 1 for Li read from file:
     /home/pragov/projects/rrg-bengioy-ad/pragov/crystal_structure_design/SSSP/li_pbe_v1.4.uspp.F.UPF
     MD5 check sum: e912e257baa3777c20ea3d68f190483c
     Pseudo is Ultrasoft, Zval =  3.0
     Generated by new atomic code, or converted to UPF format
     Using radial grid of  751 points,  5 beta functions with:
                l(1) =   0
                l(2) =   0
                l(3) =   0
                l(4) =   1
                l(5) =   1
     Q(r) pseudized with 10 coefficients,  rinner =    1.150   1.150   1.150

     PseudoPot. # 2 for Al read from file:
     /home/pragov/projects/rrg-bengioy-ad/pragov/crystal_structure_design/SSSP/Al.pbe-n-kjpaw_psl.1.0.0.UPF
     MD5 check sum: cfc449ca30b5f3223ec38ddd88ac046d
     Pseudo is Projector augmented-wave + core cor, Zval =  3.0
     Generated using "atomic" code by A. Dal Corso  v.5.1
     Shape of augmentation charge: PSQ
     Using radial grid of 1135 points,  6 beta functions with:
                l(1) =   0
                l(2) =   0
                l(3) =   1
                l(4) =   1
                l(5) =   2
                l(6) =   2
     Q(r) pseudized with 0 coefficients

     atomic species   valence    mass     pseudopotential
        Li             3.00     6.94000     Li( 1.00)
        Al             3.00    26.98154     Al( 1.00)

      2 Sym. Ops., with inversion, found

                                    s                        frac. trans.

      isym =  1     identity

 cryst.   s( 1) = (     1          0          0      )
                  (     0          1          0      )
                  (     0          0          1      )

 cart.    s( 1) = (  1.0000000  0.0000000 -0.0000000 )
                  (  0.0000000  1.0000000  0.0000000 )
                  (  0.0000000  0.0000000  1.0000000 )

      isym =  2     inversion

 cryst.   s( 2) = (    -1          0          0      )
                  (     0         -1          0      )
                  (     0          0         -1      )

 cart.    s( 2) = ( -1.0000000 -0.0000000  0.0000000 )
                  (  0.0000000 -1.0000000 -0.0000000 )
                  (  0.0000000  0.0000000 -1.0000000 )

   Cartesian axes

     site n.     atom                  positions (alat units)
         1           Li  tau(   1) = (   1.5715155   0.3759352   0.4542075  )
         2           Li  tau(   2) = (   1.3767415   0.3293417   0.2549127  )
         3           Li  tau(   3) = (   0.6578343   0.1573660   0.2841458  )
         4           Li  tau(   4) = (   0.9100260   0.2176949   0.1756576  )
         5           Li  tau(   5) = (   0.4630603   0.1107725   0.0848510  )
         6           Li  tau(   6) = (   1.1245499   0.2690129   0.3634009  )
         7           Li  tau(   7) = (   0.0000000   0.0000000   0.0000000  )
         8           Li  tau(   8) = (   0.2138307   0.0511522   0.1937091  )
         9           Li  tau(   9) = (   1.8207451   0.4355555   0.3453495  )
        10           Al  tau(  10) = (   0.8630701   0.2064622   0.5035119  )
        11           Al  tau(  11) = (   1.1715057   0.2802456   0.0355466  )
        12           Al  tau(  12) = (   1.6373807   0.3916914   0.1168054  )
        13           Al  tau(  13) = (   0.3971952   0.0950163   0.4222532  )

   Crystallographic axes

     site n.     atom                  positions (cryst. coord.)
         1           Li  tau(   1) = (  0.7671050  0.7671050  0.8425940  )
         2           Li  tau(   2) = (  0.6920590  0.6920590  0.4728850  )
         3           Li  tau(   3) = (  0.3079410  0.3079410  0.5271150  )
         4           Li  tau(   4) = (  0.4564480  0.4564480  0.3258600  )
         5           Li  tau(   5) = (  0.2328950  0.2328950  0.1574060  )
         6           Li  tau(   6) = (  0.5435520  0.5435520  0.6741400  )
         7           Li  tau(   7) = (  0.0000000  0.0000000  0.0000000  )
         8           Li  tau(   8) = (  0.0859020  0.0859020  0.3593470  )
         9           Li  tau(   9) = (  0.9140980  0.9140980  0.6406530  )
        10           Al  tau(  10) = (  0.3857060  0.3857060  0.9340580  )
        11           Al  tau(  11) = (  0.6142940  0.6142940  0.0659420  )
        12           Al  tau(  12) = (  0.8491800  0.8491800  0.2166840  )
        13           Al  tau(  13) = (  0.1508200  0.1508200  0.7833160  )

     number of k points=     1  Methfessel-Paxton smearing, width (Ry)=  0.0010
                       cart. coord. in units 2pi/alat
        k(    1) = (   0.0000000   0.0000000   0.0000000), wk =   2.0000000

                       cryst. coord.
        k(    1) = (   0.0000000   0.0000000   0.0000000), wk =   2.0000000

     Initial potential from superposition of free atoms

     starting charge      34.9342, renormalised to      39.0000
     Starting wfcs are   61 randomized atomic wfcs
     Checking if some PAW data can be deallocated...

     Self-consistent Calculation

     iteration #  1     ecut=    30.00 Ry     beta= 0.70
     Davidson diagonalization with overlap

     ethr =  1.00E-02,  avg # of iterations =  2.0

     total energy              =    -287.86072837 Ry
     estimated scf accuracy    <       0.84082383 Ry

[...]

     total energy              =    -287.99625713 Ry
     estimated scf accuracy    <       0.00000355 Ry

     iteration # 11     ecut=    30.00 Ry     beta= 0.70
     Davidson diagonalization with overlap

     ethr =  9.10E-09,  avg # of iterations =  4.0

     End of self-consistent calculation

          k = 0.0000 0.0000 0.0000 (  2022 PWs)   bands (ev):

   -43.1620 -43.0583 -43.0396 -42.9029 -42.8931 -42.6967 -42.6955 -42.6276
   -42.6244  -3.8836  -3.3926  -0.5389   0.9974   1.3197   1.9720   2.1956
     2.2456   2.3829   2.6157   3.5585   4.2985   4.3993   4.5707   4.9532

     occupation numbers
     1.0000   1.0000   1.0000   1.0000   1.0000   1.0000   1.0000   1.0000
     1.0000   1.0000   1.0000   1.0000   1.0000   1.0000   1.0000   1.0000
     1.0000   1.0000   1.0000   0.5000  -0.0000  -0.0000  -0.0000  -0.0000

     the Fermi energy is     3.5585 ev

!    total energy              =    -287.99625777 Ry
     estimated scf accuracy    <       0.00000030 Ry
     smearing contrib. (-TS)   =      -0.00028209 Ry
     internal energy E=F+TS    =    -287.99597568 Ry

     The total energy is F=E-TS. E is the sum of the following terms:
     one-electron contribution =     -70.29663820 Ry
     hartree contribution      =      31.79412876 Ry
     xc contribution           =     -40.84845861 Ry
     ewald contribution        =     -69.88944475 Ry
     one-center paw contrib.   =    -138.75556287 Ry
      -> PAW hartree energy AE =       5.11254900 Ry
      -> PAW hartree energy PS =      -5.09094852 Ry
      -> PAW xc energy AE      =    -146.16617294 Ry
      -> PAW xc energy PS      =       7.38900958 Ry
      -> total E_H with PAW    =      31.81572924 Ry
      -> total E_XC with PAW   =    -179.62562197 Ry

     convergence has been achieved in  11 iterations

     Forces acting on atoms (cartesian axes, Ry/au):

     atom    1 type  1   force =     0.00764904    0.00181347    0.00448249
     atom    2 type  1   force =    -0.01149816   -0.00274087   -0.00143633
     atom    3 type  1   force =     0.01149816    0.00274087    0.00143633
     atom    4 type  1   force =    -0.01382154   -0.00327130   -0.00429079
     atom    5 type  1   force =    -0.00764904   -0.00181347   -0.00448249
     atom    6 type  1   force =     0.01382154    0.00327130    0.00429079
     atom    7 type  1   force =     0.00000000    0.00000000    0.00000000
     atom    8 type  1   force =     0.01196502    0.00285999   -0.00368344
     atom    9 type  1   force =    -0.01196502   -0.00285999    0.00368344
     atom   10 type  2   force =    -0.01480323   -0.00354812   -0.02302266
     atom   11 type  2   force =     0.01480323    0.00354812    0.02302266
     atom   12 type  2   force =     0.02552403    0.00610972    0.02178001
     atom   13 type  2   force =    -0.02552403   -0.00610972   -0.02178001
     The non-local contrib.  to forces
     atom    1 type  1   force =    -0.00821621   -0.00198513    0.01670199
     atom    2 type  1   force =     0.02863535    0.00685537    0.05385195
     atom    3 type  1   force =    -0.02863535   -0.00685537   -0.05385195
     atom    4 type  1   force =    -0.00016412   -0.00000176   -0.02558770
     atom    5 type  1   force =     0.00821621    0.00198513   -0.01670199
     atom    6 type  1   force =     0.00016412    0.00000176    0.02558770
     atom    7 type  1   force =     0.00000000    0.00000000    0.00000000
     atom    8 type  1   force =    -0.05788116   -0.01384185   -0.05590310
     atom    9 type  1   force =     0.05788116    0.01384185    0.05590310
     atom   10 type  2   force =     0.00104029    0.00024702    0.04014629
     atom   11 type  2   force =    -0.00104029   -0.00024702   -0.04014629
     atom   12 type  2   force =    -0.02288953   -0.00546190   -0.04656853
     atom   13 type  2   force =     0.02288953    0.00546190    0.04656853
     The ionic contribution  to forces
     atom    1 type  1   force =    -0.00578785   -0.00138456    0.03210158
     atom    2 type  1   force =    -0.00189526   -0.00045338   -0.08262011
     atom    3 type  1   force =     0.00189526    0.00045338    0.08262010
     atom    4 type  1   force =     0.17394319    0.04161039   -0.01080162
     atom    5 type  1   force =     0.00578785    0.00138456   -0.03210158
     atom    6 type  1   force =    -0.17394319   -0.04161039    0.01080162
     atom    7 type  1   force =     0.00000000   -0.00000000    0.00000000
     atom    8 type  1   force =    -0.21889100   -0.05236273    0.15539606
     atom    9 type  1   force =     0.21889100    0.05236273   -0.15539606
     atom   10 type  2   force =     0.09382795    0.02244536   -0.10331847
     atom   11 type  2   force =    -0.09382795   -0.02244536    0.10331847
     atom   12 type  2   force =     0.01601961    0.00383218    0.06684937
     atom   13 type  2   force =    -0.01601961   -0.00383218   -0.06684937
     The local contribution  to forces
     atom    1 type  1   force =     0.02170061    0.00518255   -0.04425771
     atom    2 type  1   force =    -0.03847730   -0.00919452    0.02738050
     atom    3 type  1   force =     0.03839630    0.00918059   -0.02738074
     atom    4 type  1   force =    -0.18763175   -0.04485157    0.03219009
     atom    5 type  1   force =    -0.02172438   -0.00517517    0.04425263
     atom    6 type  1   force =     0.18770385    0.04489530   -0.03220221
     atom    7 type  1   force =     0.00004250   -0.00000230   -0.00001610
     atom    8 type  1   force =     0.28884567    0.06909216   -0.10327330
     atom    9 type  1   force =    -0.28878954   -0.06909377    0.10324584
     atom   10 type  2   force =    -0.10945740   -0.02618790    0.04331656
     atom   11 type  2   force =     0.10948076    0.02618670   -0.04335974
     atom   12 type  2   force =     0.02983459    0.00712555   -0.00240643
     atom   13 type  2   force =    -0.02989849   -0.00713736    0.00245622
     The core correction contribution to forces
     atom    1 type  1   force =     0.00000000    0.00000000    0.00000000
     atom    2 type  1   force =     0.00000000    0.00000000    0.00000000
     atom    3 type  1   force =     0.00000000    0.00000000    0.00000000
     atom    4 type  1   force =     0.00000000    0.00000000    0.00000000
     atom    5 type  1   force =     0.00000000    0.00000000    0.00000000
     atom    6 type  1   force =     0.00000000    0.00000000    0.00000000
     atom    7 type  1   force =     0.00000000    0.00000000    0.00000000
     atom    8 type  1   force =     0.00000000    0.00000000    0.00000000
     atom    9 type  1   force =     0.00000000    0.00000000    0.00000000
     atom   10 type  2   force =    -0.00024085   -0.00005786   -0.00318239
     atom   11 type  2   force =     0.00024219    0.00005821    0.00318165
     atom   12 type  2   force =     0.00258237    0.00061626    0.00382623
     atom   13 type  2   force =    -0.00258425   -0.00061732   -0.00382325
     The Hubbard contrib.    to forces
     atom    1 type  1   force =     0.00000000    0.00000000    0.00000000
     atom    2 type  1   force =     0.00000000    0.00000000    0.00000000
     atom    3 type  1   force =     0.00000000    0.00000000    0.00000000
     atom    4 type  1   force =     0.00000000    0.00000000    0.00000000
     atom    5 type  1   force =     0.00000000    0.00000000    0.00000000
     atom    6 type  1   force =     0.00000000    0.00000000    0.00000000
     atom    7 type  1   force =     0.00000000    0.00000000    0.00000000
     atom    8 type  1   force =     0.00000000    0.00000000    0.00000000
     atom    9 type  1   force =     0.00000000    0.00000000    0.00000000
     atom   10 type  2   force =     0.00000000    0.00000000    0.00000000
     atom   11 type  2   force =     0.00000000    0.00000000    0.00000000
     atom   12 type  2   force =     0.00000000    0.00000000    0.00000000
     atom   13 type  2   force =     0.00000000    0.00000000    0.00000000
     The SCF correction term to forces
     atom    1 type  1   force =    -0.00005365    0.00000189   -0.00006804
     atom    2 type  1   force =     0.00022739    0.00005518   -0.00004283
     atom    3 type  1   force =    -0.00016971   -0.00003421    0.00005474
     atom    4 type  1   force =     0.00004045   -0.00001050   -0.00009673
     atom    5 type  1   force =     0.00006513   -0.00000670    0.00006377
     atom    6 type  1   force =    -0.00009392    0.00000248    0.00009850
     atom    7 type  1   force =    -0.00001185   -0.00001840    0.00002914
     atom    8 type  1   force =    -0.00011637   -0.00003586    0.00009121
     atom    9 type  1   force =     0.00004450    0.00002093   -0.00007514
     atom   10 type  2   force =     0.00002967    0.00000484    0.00001071
     atom   11 type  2   force =    -0.00004858   -0.00000484    0.00002394
     atom   12 type  2   force =    -0.00003700   -0.00000629    0.00009215
     atom   13 type  2   force =     0.00007481    0.00001132   -0.00011938

     Total force =     0.071185     Total SCF correction =     0.000449

     Computing stress (Cartesian axis) and pressure

          total   stress  (Ry/bohr**3)                   (kbar)     P=       14.74
   0.00013340   0.00012499   0.00027744           19.62       18.39       40.81
   0.00012499  -0.00035926   0.00006635           18.39      -52.85        9.76
   0.00027744   0.00006635   0.00052640           40.81        9.76       77.44

     kinetic stress (kbar)   2427.91     19.32     72.02
                               19.32   2351.75     17.23
                               72.02     17.23   2453.57

     local   stress (kbar)    622.89     24.45    -48.32
                               24.45    526.55    -11.56
                              -48.32    -11.56    666.52

     nonloc. stress (kbar)   -512.42    -11.50      4.95
                              -11.50   -467.12      1.18
                                4.95      1.18   -526.34

     hartree stress (kbar)   1083.74      3.34     11.94
                                3.34   1070.56      2.85
                               11.94      2.85   1048.22

     exc-cor stress (kbar)   -829.01     -0.29      0.51
                               -0.29   -827.88      0.12
                                0.51      0.12   -829.40

     corecor stress (kbar)   -390.36      1.48     -0.99
                                1.48   -396.20     -0.24
                               -0.99     -0.24   -389.04

     ewald   stress (kbar)  -2383.11    -18.42      0.69
                              -18.42  -2310.50      0.17
                                0.69      0.17  -2346.12

     hubbard stress (kbar)      0.00      0.00      0.00
                                0.00      0.00      0.00
                                0.00      0.00      0.00

     DFT-D   stress (kbar)      0.00      0.00      0.00
                                0.00      0.00      0.00
                                0.00      0.00      0.00

     XDM     stress (kbar)      0.00      0.00      0.00
                                0.00      0.00      0.00
                                0.00      0.00      0.00

     dft-nl  stress (kbar)      0.00      0.00      0.00
                                0.00      0.00      0.00
                                0.00      0.00      0.00

     TS-vdW  stress (kbar)      0.00      0.00      0.00
                                0.00      0.00      0.00
                                0.00      0.00      0.00

[...]

                                0.00      0.00      0.00

     Writing all to output data dir new_calculations/myprefix.save/

     General routines

     Parallel routines

     PAW routines

   This run was terminated on:   9: 4:31  20May2023

   JOB DONE.