     Program PWSCF v.7.0 starts on 20May2023 at  3:34:32

     Reading input from espresso_15027.pwi
Warning: card &CELL ignored
Warning: card / ignored

     Current dimensions of program PWSCF are:
     Max number of different atomic species (ntypx) = 10
     Max number of k-points (npk) =  40000
     Max angular momentum in pseudopotentials (lmaxx) =  4
     file O.pbe-n-kjpaw_psl.0.1.UPF: wavefunction(s)  2P renormalized

     gamma-point specific algorithms are used
     Message from routine setup:
     using ibrav=0 with symmetry is DISCOURAGED, use correct ibrav instead

     Subspace diagonalization in iterative solution of the eigenvalue problem:
     a serial algorithm will be used

     Using Slab Decomposition

     bravais-lattice index     =            0
     lattice parameter (alat)  =      14.0907  a.u.
     unit-cell volume          =    1173.5129 (a.u.)^3
     number of atoms/cell      =           10
     number of atomic types    =            3
     number of electrons       =        88.00
     number of Kohn-Sham states=           53
     kinetic-energy cutoff     =      30.0000  Ry
     charge density cutoff     =     240.0000  Ry
     scf convergence threshold =      1.0E-06
     mixing beta               =       0.7000
     number of iterations used =            8  plain     mixing
     Exchange-correlation= SLA  PW   PBX  PBC
                           (   1   4   3   4   0   0   0)

     celldm(1)=  14.090701  celldm(2)=   0.000000  celldm(3)=   0.000000
     celldm(4)=   0.000000  celldm(5)=   0.000000  celldm(6)=   0.000000

     crystal axes: (cart. coord. in units of alat)
               a(1) = (   1.000000   0.000000   0.000000 )
               a(2) = (   0.732874   0.680364   0.000000 )
               a(3) = (   0.732874   0.287742   0.616522 )

     reciprocal axes: (cart. coord. in units 2 pi/alat)
               b(1) = (  1.000000 -1.077180 -0.685984 )
               b(2) = (  0.000000  1.469801 -0.685984 )
               b(3) = (  0.000000  0.000000  1.622002 )

     PseudoPot. # 1 for Hf read from file:
     /home/pragov/projects/rrg-bengioy-ad/pragov/crystal_structure_design/SSSP/Hf-sp.oncvpsp.upf
     MD5 check sum: 417ed15784afe83d2e06dacf143de3f8
     Pseudo is Norm-conserving + core correction, Zval = 12.0
     Generated using ONCVPSP code by D. R. Hamann
     Using radial grid of 1656 points,  8 beta functions with:
                l(1) =   0
                l(2) =   0
                l(3) =   1
                l(4) =   1
                l(5) =   2
                l(6) =   2
                l(7) =   3
                l(8) =   3

     PseudoPot. # 2 for Sn read from file:
     /home/pragov/projects/rrg-bengioy-ad/pragov/crystal_structure_design/SSSP/Sn_pbe_v1.uspp.F.UPF
     MD5 check sum: 4cf58ce39ec5d5d420df3dd08604eb00
     Pseudo is Ultrasoft + core correction, Zval = 14.0
     Generated by new atomic code, or converted to UPF format
     Using radial grid of  891 points,  6 beta functions with:
                l(1) =   0
                l(2) =   0
                l(3) =   1
                l(4) =   1
                l(5) =   2
                l(6) =   2
     Q(r) pseudized with  6 coefficients,  rinner =    1.200   1.200   1.200
                                                       1.200   1.200

     PseudoPot. # 3 for O  read from file:
     /home/pragov/projects/rrg-bengioy-ad/pragov/crystal_structure_design/SSSP/O.pbe-n-kjpaw_psl.0.1.UPF
     MD5 check sum: 0234752ac141de4415c5fc33072bef88
     Pseudo is Projector augmented-wave + core cor, Zval =  6.0
     Generated using "atomic" code by A. Dal Corso  v.5.0.99 svn rev. 10869
     Shape of augmentation charge: BESSEL
     Using radial grid of 1095 points,  4 beta functions with:
                l(1) =   0
                l(2) =   0
                l(3) =   1
                l(4) =   1
     Q(r) pseudized with 0 coefficients

     atomic species   valence    mass     pseudopotential
        Hf            12.00   178.49000     Hf( 1.00)
        Sn            14.00   118.71000     Sn( 1.00)
        O              6.00    15.99900     O ( 1.00)

      2 Sym. Ops., with inversion, found

                                    s                        frac. trans.

      isym =  1     identity

 cryst.   s( 1) = (     1          0          0      )
                  (     0          1          0      )
                  (     0          0          1      )

 cart.    s( 1) = (  1.0000000 -0.0000000 -0.0000000 )
                  (  0.0000000  1.0000000  0.0000000 )
                  (  0.0000000  0.0000000  1.0000000 )

      isym =  2     inversion

 cryst.   s( 2) = (    -1          0          0      )
                  (     0         -1          0      )
                  (     0          0         -1      )

 cart.    s( 2) = ( -1.0000000  0.0000000  0.0000000 )
                  (  0.0000000 -1.0000000 -0.0000000 )
                  (  0.0000000  0.0000000 -1.0000000 )

   Cartesian axes

     site n.     atom                  positions (alat units)
         1           Hf  tau(   1) = (   0.8212127   0.3224259   0.2053315  )
         2           Hf  tau(   2) = (   1.6445360   0.6456805   0.4111907  )
         3           Sn  tau(   3) = (   0.2687198   0.1055052   0.0671892  )
         4           Sn  tau(   4) = (   2.1970289   0.8626012   0.5493330  )
         5           O   tau(   5) = (   0.8682639   0.4774267   0.4350840  )
         6           O   tau(   6) = (   0.9611523   0.4961157   0.0342349  )
         7           O   tau(   7) = (   1.4238055   0.8142909   0.3679022  )
         8           O   tau(   8) = (   1.0419431   0.1538155   0.2486200  )
         9           O   tau(   9) = (   1.5045963   0.4719907   0.5822873  )
        10           O   tau(  10) = (   1.5974847   0.4906796   0.1814382  )

   Crystallographic axes

     site n.     atom                  positions (cryst. coord.)
         1           Hf  tau(   1) = (  0.3330480  0.3330480  0.3330480  )
         2           Hf  tau(   2) = (  0.6669520  0.6669520  0.6669520  )
         3           Sn  tau(   3) = (  0.1089810  0.1089810  0.1089810  )
         4           Sn  tau(   4) = (  0.8910190  0.8910190  0.8910190  )
         5           O   tau(   5) = (  0.0555290  0.4032620  0.7057070  )
         6           O   tau(   6) = (  0.4032620  0.7057070  0.0555290  )
         7           O   tau(   7) = (  0.2942930  0.9444710  0.5967380  )
         8           O   tau(   8) = (  0.7057070  0.0555290  0.4032620  )
         9           O   tau(   9) = (  0.5967380  0.2942930  0.9444710  )
        10           O   tau(  10) = (  0.9444710  0.5967380  0.2942930  )

     number of k points=     1  Methfessel-Paxton smearing, width (Ry)=  0.0010
                       cart. coord. in units 2pi/alat
        k(    1) = (   0.0000000   0.0000000   0.0000000), wk =   2.0000000

                       cryst. coord.
        k(    1) = (   0.0000000   0.0000000   0.0000000), wk =   2.0000000

     Check: negative core charge=   -0.000009

     Initial potential from superposition of free atoms

     starting charge      85.9962, renormalised to      88.0000
     Starting wfcs are   62 randomized atomic wfcs
     Checking if some PAW data can be deallocated...

     Self-consistent Calculation

     iteration #  1     ecut=    30.00 Ry     beta= 0.70
     Davidson diagonalization with overlap

     ethr =  1.00E-02,  avg # of iterations =  3.0

     total energy              =    -801.41910770 Ry
     estimated scf accuracy    <       2.40368419 Ry

[...]

     total energy              =    -802.55308758 Ry
     estimated scf accuracy    <       0.00000187 Ry

     iteration #  9     ecut=    30.00 Ry     beta= 0.70
     Davidson diagonalization with overlap

     ethr =  2.13E-09,  avg # of iterations =  4.0

     End of self-consistent calculation

          k = 0.0000 0.0000 0.0000 (  1614 PWs)   bands (ev):

   -54.0865 -54.0611 -23.1986 -23.1986 -23.0350 -22.8424 -22.7491 -22.7491
   -13.4341 -13.4341 -13.4222 -13.4222 -13.2699 -13.2699 -13.2632 -13.2632
   -13.2205 -13.2152 -11.2290 -10.1620 -10.1615  -9.9969  -9.7183  -9.7178
     0.0910   1.4994   2.4434   2.4435   2.6577   2.6581   2.9499   2.9877
     3.2443   3.2447   4.0447   4.0451   4.7143   4.9961   5.1816   5.4948
     5.4950   5.5978   5.5983   7.4286  10.6633  10.6634  11.0896  11.6784
    12.1767  12.1767  12.2435  12.3485  12.3486

     occupation numbers
     1.0000   1.0000   1.0000   1.0000   1.0000   1.0000   1.0000   1.0000
     1.0000   1.0000   1.0000   1.0000   1.0000   1.0000   1.0000   1.0000
     1.0000   1.0000   1.0000   1.0000   1.0000   1.0000   1.0000   1.0000
     1.0000   1.0000   1.0000   1.0000   1.0000   1.0000   1.0000   1.0000
     1.0000   1.0000   1.0000   1.0000   1.0000   1.0000   1.0000   1.0000
     1.0000   1.0000   1.0000   1.0000  -0.0000  -0.0000  -0.0000  -0.0000
    -0.0000  -0.0000  -0.0000  -0.0000  -0.0000

     the Fermi energy is     8.3155 ev

!    total energy              =    -802.55308785 Ry
     estimated scf accuracy    <       0.00000085 Ry
     smearing contrib. (-TS)   =       0.00000000 Ry
     internal energy E=F+TS    =    -802.55308785 Ry

     The total energy is F=E-TS. E is the sum of the following terms:
     one-electron contribution =    -371.03859975 Ry
     hartree contribution      =     232.21546870 Ry
     xc contribution           =    -197.01560032 Ry
     ewald contribution        =    -409.58303213 Ry
     one-center paw contrib.   =     -57.13132435 Ry
      -> PAW hartree energy AE =     180.59074674 Ry
      -> PAW hartree energy PS =    -179.96375921 Ry
      -> PAW xc energy AE      =    -103.43885665 Ry
      -> PAW xc energy PS      =      45.68054477 Ry
      -> total E_H with PAW    =     232.84245624 Ry
      -> total E_XC with PAW   =    -254.77391220 Ry

     convergence has been achieved in   9 iterations

     Forces acting on atoms (cartesian axes, Ry/au):

     atom    1 type  1   force =    -0.00210453   -0.00082974   -0.00052959
     atom    2 type  1   force =     0.00210453    0.00082974    0.00052959
     atom    3 type  2   force =    -0.02540376   -0.01006270   -0.00626534
     atom    4 type  2   force =     0.02540376    0.01006270    0.00626534
     atom    5 type  3   force =     0.00251098    0.00890980   -0.00345759
     atom    6 type  3   force =     0.00789012   -0.00517088   -0.00291353
     atom    7 type  3   force =    -0.00226857   -0.00123837   -0.00952684
     atom    8 type  3   force =     0.00226857    0.00123837    0.00952684
     atom    9 type  3   force =    -0.00789012    0.00517088    0.00291353
     atom   10 type  3   force =    -0.00251098   -0.00890980    0.00345759
     The non-local contrib.  to forces
     atom    1 type  1   force =     0.00006715    0.00000717    0.00000225
     atom    2 type  1   force =    -0.00006715   -0.00000717   -0.00000225
     atom    3 type  2   force =    -0.67124435   -0.26364157   -0.16773330
     atom    4 type  2   force =     0.67124435    0.26364157    0.16773330
     atom    5 type  3   force =    -0.32113901   -0.16196365   -0.02168255
     atom    6 type  3   force =    -0.34557682   -0.06182333   -0.08126164
     atom    7 type  3   force =     0.29531927    0.15390298    0.13763994
     atom    8 type  3   force =    -0.29531927   -0.15390298   -0.13763994
     atom    9 type  3   force =     0.34557682    0.06182333    0.08126164
     atom   10 type  3   force =     0.32113901    0.16196365    0.02168255
     The ionic contribution  to forces
     atom    1 type  1   force =     0.29041524    0.11402331    0.07261324
     atom    2 type  1   force =    -0.29041523   -0.11402331   -0.07261324
     atom    3 type  2   force =    18.84066956    7.39725601    4.71081777
     atom    4 type  2   force =   -18.84066956   -7.39725601   -4.71081777
     atom    5 type  3   force =     9.06011617    3.36831009    1.92669907
     atom    6 type  3   force =     8.93160306    3.30887677    2.53400252
     atom    7 type  3   force =    -8.79698489   -3.84063713   -2.23739833
     atom    8 type  3   force =     8.79698489    3.84063713    2.23739833
     atom    9 type  3   force =    -8.93160306   -3.30887676   -2.53400252
     atom   10 type  3   force =    -9.06011617   -3.36831009   -1.92669907
     The local contribution  to forces
     atom    1 type  1   force =    -0.29258852   -0.11466819   -0.07307008
     atom    2 type  1   force =     0.29217200    0.11440467    0.07283261
     atom    3 type  2   force =   -18.21175197   -7.15003197   -4.55365103
     atom    4 type  2   force =    18.21193173    7.15031707    4.55387028
     atom    5 type  3   force =    -8.73860155   -3.19922971   -1.90756654
     atom    6 type  3   force =    -8.58095425   -3.25149476   -2.45614715
     atom    7 type  3   force =     8.50084113    3.68697335    2.09223437
     atom    8 type  3   force =    -8.50085912   -3.68705320   -2.09228472
     atom    9 type  3   force =     8.58088741    3.25135316    2.45609680
     atom   10 type  3   force =     8.73851058    3.19925275    1.90751212
     The core correction contribution to forces
     atom    1 type  1   force =    -0.00029697   -0.00010926   -0.00007269
     atom    2 type  1   force =     0.00028800    0.00010594    0.00006657
     atom    3 type  2   force =     0.01627267    0.00639298    0.00406705
     atom    4 type  2   force =    -0.01627142   -0.00639116   -0.00406526
     atom    5 type  3   force =     0.00251607    0.00172657   -0.00047902
     atom    6 type  3   force =     0.00301899   -0.00024579    0.00060703
     atom    7 type  3   force =    -0.00204522   -0.00149426   -0.00176778
     atom    8 type  3   force =     0.00204595    0.00149456    0.00176748
     atom    9 type  3   force =    -0.00301887    0.00024460   -0.00060676
     atom   10 type  3   force =    -0.00251567   -0.00172656    0.00047819
     The Hubbard contrib.    to forces
     atom    1 type  1   force =     0.00000000    0.00000000    0.00000000
     atom    2 type  1   force =     0.00000000    0.00000000    0.00000000
     atom    3 type  2   force =     0.00000000    0.00000000    0.00000000
     atom    4 type  2   force =     0.00000000    0.00000000    0.00000000
     atom    5 type  3   force =     0.00000000    0.00000000    0.00000000
     atom    6 type  3   force =     0.00000000    0.00000000    0.00000000
     atom    7 type  3   force =     0.00000000    0.00000000    0.00000000
     atom    8 type  3   force =     0.00000000    0.00000000    0.00000000
     atom    9 type  3   force =     0.00000000    0.00000000    0.00000000
     atom   10 type  3   force =     0.00000000    0.00000000    0.00000000
     The SCF correction term to forces
     atom    1 type  1   force =     0.00029716   -0.00007489   -0.00000394
     atom    2 type  1   force =     0.00012550    0.00035749    0.00024425
     atom    3 type  2   force =     0.00064321   -0.00003941    0.00022818
     atom    4 type  2   force =    -0.00083848   -0.00025002   -0.00046121
     atom    5 type  3   force =    -0.00036924    0.00006744   -0.00044936
     atom    6 type  3   force =    -0.00019602   -0.00051918   -0.00010737
     atom    7 type  3   force =     0.00061590    0.00003149   -0.00023928
     atom    8 type  3   force =    -0.00056912    0.00007767    0.00028147
     atom    9 type  3   force =     0.00027242    0.00059114    0.00017129
     atom   10 type  3   force =     0.00048274   -0.00008862    0.00046299

     Total force =     0.046558     Total SCF correction =     0.002040

     Computing stress (Cartesian axis) and pressure

          total   stress  (Ry/bohr**3)                   (kbar)     P=     -298.62
  -0.00207978  -0.00003274  -0.00002110         -305.95       -4.82       -3.10
  -0.00003274  -0.00200886  -0.00000825           -4.82     -295.51       -1.21
  -0.00002110  -0.00000825  -0.00200131           -3.10       -1.21     -294.40

     kinetic stress (kbar)  16978.14     46.29     29.47
                               46.29  16878.43     11.57
                               29.47     11.57  16867.63

     local   stress (kbar)   8706.40  12585.75   8014.93
                            12585.75 -18407.71   3146.86
                             8014.93   3146.86 -21345.17

     nonloc. stress (kbar)   5958.44      6.79      4.32
                                6.79   5943.81      1.70
                                4.32      1.70   5942.22

     hartree stress (kbar)   1367.62  -5505.48  -3506.00
                            -5505.48  13228.33  -1376.55
                            -3506.00  -1376.55  14513.30

     exc-cor stress (kbar)   6155.16     -2.94     -1.87
                               -2.94   6161.50     -0.74
                               -1.87     -0.74   6162.18

     corecor stress (kbar) -11554.37     -0.01     -0.00
                               -0.01 -11554.35     -0.00
                               -0.00     -0.00 -11554.35

     ewald   stress (kbar) -27917.33  -7135.22  -4543.94
                            -7135.22 -12545.51  -1784.05
                            -4543.94  -1784.05 -10880.22

     hubbard stress (kbar)      0.00      0.00      0.00
                                0.00      0.00      0.00
                                0.00      0.00      0.00

     DFT-D   stress (kbar)      0.00      0.00      0.00
                                0.00      0.00      0.00
                                0.00      0.00      0.00

     XDM     stress (kbar)      0.00      0.00      0.00
                                0.00      0.00      0.00
                                0.00      0.00      0.00

     dft-nl  stress (kbar)      0.00      0.00      0.00
                                0.00      0.00      0.00
                                0.00      0.00      0.00

     TS-vdW  stress (kbar)      0.00      0.00      0.00
                                0.00      0.00      0.00
                                0.00      0.00      0.00

[...]

                                0.00      0.00      0.00

     Writing all to output data dir new_calculations/myprefix.save/

     General routines

     Parallel routines

     PAW routines

   This run was terminated on:   3:35:35  20May2023

   JOB DONE.