     Program PWSCF v.7.0 starts on 20May2023 at  9:19:50

     Reading input from espresso_2309.pwi
Warning: card &CELL ignored
Warning: card / ignored

     Current dimensions of program PWSCF are:
     Max number of different atomic species (ntypx) = 10
     Max number of k-points (npk) =  40000
     Max angular momentum in pseudopotentials (lmaxx) =  4
     file O.pbe-n-kjpaw_psl.0.1.UPF: wavefunction(s)  2P renormalized

     gamma-point specific algorithms are used
     Message from routine setup:
     using ibrav=0 with symmetry is DISCOURAGED, use correct ibrav instead

     Subspace diagonalization in iterative solution of the eigenvalue problem:
     a serial algorithm will be used

     Using Slab Decomposition

     bravais-lattice index     =            0
     lattice parameter (alat)  =      17.6996  a.u.
     unit-cell volume          =    1612.2370 (a.u.)^3
     number of atoms/cell      =           19
     number of atomic types    =            3
     number of electrons       =       152.00
     number of Kohn-Sham states=           91
     kinetic-energy cutoff     =      30.0000  Ry
     charge density cutoff     =     240.0000  Ry
     scf convergence threshold =      1.0E-06
     mixing beta               =       0.7000
     number of iterations used =            8  plain     mixing
     Exchange-correlation= SLA  PW   PBX  PBC
                           (   1   4   3   4   0   0   0)

     celldm(1)=  17.699619  celldm(2)=   0.000000  celldm(3)=   0.000000
     celldm(4)=   0.000000  celldm(5)=   0.000000  celldm(6)=   0.000000

     crystal axes: (cart. coord. in units of alat)
               a(1) = (   1.000000   0.000000   0.000000 )
               a(2) = (   0.821125   0.570749   0.000000 )
               a(3) = (   0.821125   0.257344   0.509439 )

     reciprocal axes: (cart. coord. in units 2 pi/alat)
               b(1) = (  1.000000 -1.438680 -0.885069 )
               b(2) = (  0.000000  1.752084 -0.885069 )
               b(3) = (  0.000000  0.000000  1.962944 )

     PseudoPot. # 1 for La read from file:
     /home/pragov/projects/rrg-bengioy-ad/pragov/crystal_structure_design/SSSP/La.GGA-PBE-paw-v1.0.UPF
     MD5 check sum: 436541e95c1ad8901025bd0b0ed42ae2
     Pseudo is Projector augmented-wave + core cor, Zval = 11.0
     Generated using ATOMPAW code
     Shape of augmentation charge: BESSEL
     Using radial grid of 1101 points,  8 beta functions with:
                l(1) =   0
                l(2) =   0
                l(3) =   1
                l(4) =   1
                l(5) =   2
                l(6) =   2
                l(7) =   3
                l(8) =   3
     Q(r) pseudized with 0 coefficients

     PseudoPot. # 2 for Ti read from file:
     /home/pragov/projects/rrg-bengioy-ad/pragov/crystal_structure_design/SSSP/ti_pbe_v1.4.uspp.F.UPF
     MD5 check sum: 88a00a6731bd790ddea75d31a80cb452
     Pseudo is Ultrasoft + core correction, Zval = 12.0
     Generated by new atomic code, or converted to UPF format
     Using radial grid of  851 points,  6 beta functions with:
                l(1) =   0
                l(2) =   0
                l(3) =   1
                l(4) =   1
                l(5) =   2
                l(6) =   2
     Q(r) pseudized with  6 coefficients,  rinner =    1.000   1.000   1.000
                                                       1.000   1.000

     PseudoPot. # 3 for O  read from file:
     /home/pragov/projects/rrg-bengioy-ad/pragov/crystal_structure_design/SSSP/O.pbe-n-kjpaw_psl.0.1.UPF
     MD5 check sum: 0234752ac141de4415c5fc33072bef88
     Pseudo is Projector augmented-wave + core cor, Zval =  6.0
     Generated using "atomic" code by A. Dal Corso  v.5.0.99 svn rev. 10869
     Shape of augmentation charge: BESSEL
     Using radial grid of 1095 points,  4 beta functions with:
                l(1) =   0
                l(2) =   0
                l(3) =   1
                l(4) =   1
     Q(r) pseudized with 0 coefficients

     atomic species   valence    mass     pseudopotential
        La            11.00   138.90547     La( 1.00)
        Ti            12.00    47.86700     Ti( 1.00)
        O              6.00    15.99900     O ( 1.00)

      2 Sym. Ops., with inversion, found

                                    s                        frac. trans.

      isym =  1     identity

 cryst.   s( 1) = (     1          0          0      )
                  (     0          1          0      )
                  (     0          0          1      )

 cart.    s( 1) = (  1.0000000  0.0000000 -0.0000000 )
                  (  0.0000000  1.0000000 -0.0000000 )
                  (  0.0000000  0.0000000  1.0000000 )

      isym =  2     inversion

 cryst.   s( 2) = (    -1          0          0      )
                  (     0         -1          0      )
                  (     0          0         -1      )

 cart.    s( 2) = ( -1.0000000 -0.0000000  0.0000000 )
                  (  0.0000000 -1.0000000  0.0000000 )
                  (  0.0000000  0.0000000 -1.0000000 )

   Cartesian axes

     site n.     atom                  positions (alat units)
         1           La  tau(   1) = (   0.3547379   0.1111765   0.0683952  )
         2           La  tau(   2) = (   2.2875117   0.7169166   0.4410437  )
         3           La  tau(   3) = (   0.7593561   0.2379857   0.1464077  )
         4           La  tau(   4) = (   1.8828934   0.5901074   0.3630313  )
         5           Ti  tau(   5) = (   0.0000000   0.0000000   0.0000000  )
         6           Ti  tau(   6) = (   1.1213099   0.3514236   0.2161942  )
         7           Ti  tau(   7) = (   1.5209396   0.4766694   0.2932448  )
         8           O   tau(   8) = (   1.2469553   0.3453610   0.0593914  )
         9           O   tau(   9) = (   1.2210203   0.2460433   0.3553469  )
        10           O   tau(  10) = (   1.1430389   0.5403041   0.2814834  )
        11           O   tau(  11) = (   1.3952942   0.4827321   0.4500475  )
        12           O   tau(  12) = (   1.4212293   0.5820497   0.1540920  )
        13           O   tau(  13) = (   1.4992107   0.2877890   0.2279556  )
        14           O   tau(  14) = (   1.6939103   0.4906938   0.1483262  )
        15           O   tau(  15) = (   1.0494975   0.1516795   0.1383341  )
        16           O   tau(  16) = (   0.9712749   0.4414544   0.0730128  )
        17           O   tau(  17) = (   0.9483392   0.3373992   0.3611128  )
        18           O   tau(  18) = (   1.5927521   0.6764136   0.3711049  )
        19           O   tau(  19) = (   1.6709746   0.3866386   0.4364262  )

   Crystallographic axes

     site n.     atom                  positions (cryst. coord.)
         1           La  tau(   1) = (  0.1342560  0.1342560  0.1342560  )
         2           La  tau(   2) = (  0.8657440  0.8657440  0.8657440  )
         3           La  tau(   3) = (  0.2873900  0.2873900  0.2873900  )
         4           La  tau(   4) = (  0.7126100  0.7126100  0.7126100  )
         5           Ti  tau(   5) = (  0.0000000  0.0000000  0.0000000  )
         6           Ti  tau(   6) = (  0.4243770  0.4243770  0.4243770  )
         7           Ti  tau(   7) = (  0.5756230  0.5756230  0.5756230  )
         8           O   tau(   8) = (  0.6975260  0.5525360  0.1165820  )
         9           O   tau(   9) = (  0.5525360  0.1165820  0.6975260  )
        10           O   tau(  10) = (  0.1165820  0.6975260  0.5525360  )
        11           O   tau(  11) = (  0.3024740  0.4474640  0.8834180  )
        12           O   tau(  12) = (  0.4474640  0.8834180  0.3024740  )
        13           O   tau(  13) = (  0.8834180  0.3024740  0.4474640  )
        14           O   tau(  14) = (  0.8566800  0.7284580  0.2911560  )
        15           O   tau(  15) = (  0.7088440  0.1433200  0.2715420  )
        16           O   tau(  16) = (  0.2715420  0.7088440  0.1433200  )
        17           O   tau(  17) = (  0.1433200  0.2715420  0.7088440  )
        18           O   tau(  18) = (  0.2911560  0.8566800  0.7284580  )
        19           O   tau(  19) = (  0.7284580  0.2911560  0.8566800  )

     number of k points=     1  Methfessel-Paxton smearing, width (Ry)=  0.0010
                       cart. coord. in units 2pi/alat
        k(    1) = (   0.0000000   0.0000000   0.0000000), wk =   2.0000000

                       cryst. coord.
        k(    1) = (   0.0000000   0.0000000   0.0000000), wk =   2.0000000

     Check: negative core charge=   -0.000013

     Initial potential from superposition of free atoms

     starting charge     148.9657, renormalised to     152.0000

     negative rho (up, down):  3.873E-03 0.000E+00
     Starting wfcs are  206 randomized atomic wfcs
     Checking if some PAW data can be deallocated...

     Self-consistent Calculation

     iteration #  1     ecut=    30.00 Ry     beta= 0.70
     Davidson diagonalization with overlap

     ethr =  1.00E-02,  avg # of iterations =  2.0

     negative rho (up, down):  4.414E-03 0.000E+00

     total energy              =   -2690.74684989 Ry
     estimated scf accuracy    <       3.14098031 Ry

[...]

     c_bands:  2 eigenvalues not converged
     ethr =  1.00E-05,  avg # of iterations = 20.0

[...]

     total energy              =   -2692.41057002 Ry
     estimated scf accuracy    <       0.00000121 Ry

     iteration # 18     ecut=    30.00 Ry     beta= 0.70
     Davidson diagonalization with overlap

     ethr =  7.94E-10,  avg # of iterations =  5.0

[...]

     End of self-consistent calculation

          k = 0.0000 0.0000 0.0000 (  2235 PWs)   bands (ev):

   -45.3746 -45.2349 -45.2308 -21.6988 -21.6380 -21.6379 -21.5402 -21.5402
   -21.5363 -21.5362 -21.5358 -21.5260 -19.4913 -19.3222 -19.0663 -19.0092
    -6.3731  -6.1621  -6.0337  -5.9510  -5.9508  -5.8465  -5.8462  -5.6361
    -5.6361  -5.4566  -5.4565  -5.1111  -3.2920  -2.8730  -2.8729  -2.7541
    -2.7541  -2.7479  -2.4713  -2.4713  -2.3438  -2.3399  -2.3398  -2.2121
     6.9158   7.4372   7.4373   7.6637   7.7064   7.7921   7.8195   7.9669
     7.9669   8.0268   8.0268   8.1202   8.1202   8.4412   8.4414   8.6825
     8.6827   8.8212   9.0628   9.1074   9.1075   9.5012   9.5013   9.5182
     9.7740   9.7772   9.7773   9.9788  10.1121  10.1122  10.2372  10.2739
    10.2739  10.6999  10.6999  10.8104  13.7814  13.7814  13.8149  14.4693
    14.4693  14.5022  14.7846  14.7846  14.8148  15.3128  15.3130  15.5090
    15.6052  15.6291  15.6293

     occupation numbers
     1.0000   1.0000   1.0000   1.0000   1.0000   1.0000   1.0000   1.0000
     1.0000   1.0000   1.0000   1.0000   1.0000   1.0000   1.0000   1.0000
     1.0000   1.0000   1.0000   1.0000   1.0000   1.0000   1.0000   1.0000
     1.0000   1.0000   1.0000   1.0000   1.0000   1.0000   1.0000   1.0000
     1.0000   1.0000   1.0000   1.0000   1.0000   1.0000   1.0000   1.0000
     1.0000   1.0000   1.0000   1.0000   1.0000   1.0000   1.0000   1.0000
     1.0000   1.0000   1.0000   1.0000   1.0000   1.0000   1.0000   1.0000
     1.0000   1.0000   1.0000   1.0000   1.0000   1.0000   1.0000   1.0000
     1.0000   1.0000   1.0000   1.0000   1.0000   1.0000   1.0000   1.0000
     1.0000   1.0000   1.0000   1.0000  -0.0000  -0.0000  -0.0000  -0.0000
    -0.0000  -0.0000  -0.0000  -0.0000  -0.0000  -0.0000  -0.0000  -0.0000
    -0.0000  -0.0000  -0.0000

     the Fermi energy is    11.9356 ev

!    total energy              =   -2692.41057018 Ry
     estimated scf accuracy    <       0.00000083 Ry
     smearing contrib. (-TS)   =       0.00000000 Ry
     internal energy E=F+TS    =   -2692.41057018 Ry

     The total energy is F=E-TS. E is the sum of the following terms:
     one-electron contribution =    -213.95258190 Ry
     hartree contribution      =     209.52701465 Ry
     xc contribution           =    -179.33039881 Ry
     ewald contribution        =    -801.96625009 Ry
     one-center paw contrib.   =   -1706.68835403 Ry
      -> PAW hartree energy AE =     499.32353609 Ry
      -> PAW hartree energy PS =    -498.23801149 Ry
      -> PAW xc energy AE      =   -1828.12939346 Ry
      -> PAW xc energy PS      =     120.35551482 Ry
      -> total E_H with PAW    =     210.61253925 Ry
      -> total E_XC with PAW   =   -1887.10427744 Ry

     convergence has been achieved in  18 iterations

     negative rho (up, down):  3.605E-03 0.000E+00

     Forces acting on atoms (cartesian axes, Ry/au):

     atom    1 type  1   force =     0.01064106    0.00335141    0.00204216
     atom    2 type  1   force =    -0.01064106   -0.00335141   -0.00204216
     atom    3 type  1   force =    -0.00822837   -0.00256898   -0.00159390
     atom    4 type  1   force =     0.00822837    0.00256898    0.00159390
     atom    5 type  2   force =     0.00000000    0.00000000    0.00000000
     atom    6 type  2   force =     0.03169521    0.00992239    0.00612822
     atom    7 type  2   force =    -0.03169521   -0.00992239   -0.00612822
     atom    8 type  3   force =    -0.01593236   -0.03292007    0.00572749
     atom    9 type  3   force =    -0.03188733    0.01321093    0.01341844
     atom   10 type  3   force =    -0.01864035   -0.00111733   -0.03197524
     atom   11 type  3   force =     0.01593236    0.03292007   -0.00572749
     atom   12 type  3   force =     0.03188733   -0.01321093   -0.01341844
     atom   13 type  3   force =     0.01864035    0.00111733    0.03197524
     atom   14 type  3   force =     0.02491870   -0.03456659   -0.00011474
     atom   15 type  3   force =    -0.01150496   -0.02710473    0.03080006
     atom   16 type  3   force =    -0.00073366   -0.01910494   -0.03807989
     atom   17 type  3   force =    -0.02491870    0.03456659    0.00011474
     atom   18 type  3   force =     0.01150496    0.02710473   -0.03080006
     atom   19 type  3   force =     0.00073366    0.01910494    0.03807989
     The non-local contrib.  to forces
     atom    1 type  1   force =    -0.05765274   -0.01805235   -0.01111386
     atom    2 type  1   force =     0.05765274    0.01805235    0.01111386
     atom    3 type  1   force =     0.04827589    0.01513533    0.00929530
     atom    4 type  1   force =    -0.04827589   -0.01513533   -0.00929530
     atom    5 type  2   force =     0.00000000    0.00000000    0.00000000
     atom    6 type  2   force =     0.02564609    0.00803094    0.00497326
     atom    7 type  2   force =    -0.02564609   -0.00803094   -0.00497326
     atom    8 type  3   force =    -0.15130584   -0.11365494    0.19604128
     atom    9 type  3   force =    -0.18910964    0.17812228   -0.08219602
     atom   10 type  3   force =    -0.05361992   -0.18799704   -0.18983651
     atom   11 type  3   force =     0.15130584    0.11365494   -0.19604128
     atom   12 type  3   force =     0.18910964   -0.17812228    0.08219602
     atom   13 type  3   force =     0.05361992    0.18799704    0.18983651
     atom   14 type  3   force =    -0.00191397   -0.04435842   -0.09089771
     atom   15 type  3   force =     0.05929814   -0.08194459   -0.00141100
     atom   16 type  3   force =     0.02688957    0.06522359   -0.07251051
     atom   17 type  3   force =     0.00191397    0.04435842    0.09089771
     atom   18 type  3   force =    -0.05929814    0.08194459    0.00141100
     atom   19 type  3   force =    -0.02688957   -0.06522359    0.07251051
     The ionic contribution  to forces
     atom    1 type  1   force =     2.44321704    0.76571623    0.47106529
     atom    2 type  1   force =    -2.44321704   -0.76571623   -0.47106529
     atom    3 type  1   force =    -1.54203197   -0.48327910   -0.29731132
     atom    4 type  1   force =     1.54203197    0.48327910    0.29731132
     atom    5 type  2   force =     0.00000000    0.00000000   -0.00000000
     atom    6 type  2   force =     2.57302855    0.80639984    0.49609336
     atom    7 type  2   force =    -2.57302855   -0.80639984   -0.49609337
     atom    8 type  3   force =     5.52907511    1.16530784   -4.58092079
     atom    9 type  3   force =     5.20515844   -3.09740167    4.02813253
     atom   10 type  3   force =     2.50624607    6.08171740    3.10561597
     atom   11 type  3   force =    -5.52907511   -1.16530784    4.58092080
     atom   12 type  3   force =    -5.20515844    3.09740167   -4.02813253
     atom   13 type  3   force =    -2.50624607   -6.08171740   -3.10561597
     atom   14 type  3   force =    -1.25508964   -1.37140400    0.98038028
     atom   15 type  3   force =     0.88406445    0.92713879    1.66612861
     atom   16 type  3   force =     1.81331125   -1.05981927    0.07630613
     atom   17 type  3   force =     1.25508964    1.37140400   -0.98038027
     atom   18 type  3   force =    -0.88406445   -0.92713879   -1.66612861
     atom   19 type  3   force =    -1.81331125    1.05981927   -0.07630613
     The local contribution  to forces
     atom    1 type  1   force =    -2.37472582   -0.74396696   -0.45778074
     atom    2 type  1   force =     2.37554552    0.74460063    0.45819621
     atom    3 type  1   force =     1.48515530    0.46561196    0.28644484
     atom    4 type  1   force =    -1.48635071   -0.46578185   -0.28639080
     atom    5 type  2   force =    -0.00071958   -0.00031037   -0.00007300
     atom    6 type  2   force =    -2.55985169   -0.80263551   -0.49426112
     atom    7 type  2   force =     2.56104505    0.80217586    0.49339697
     atom    8 type  3   force =    -5.39395793   -1.08517752    4.39143513
     atom    9 type  3   force =    -5.04852228    2.93336126   -3.93266610
     atom   10 type  3   force =    -2.47127099   -5.89549000   -2.94878696
     atom   11 type  3   force =     5.39498967    1.08538935   -4.39193631
     atom   12 type  3   force =     5.04945276   -2.93377571    3.93317813
     atom   13 type  3   force =     2.47178853    5.89627097    2.94889638
     atom   14 type  3   force =     1.28086318    1.38068296   -0.88984419
     atom   15 type  3   force =    -0.95425689   -0.87272365   -1.63398524
     atom   16 type  3   force =    -1.84058213    0.97594829   -0.04234917
     atom   17 type  3   force =    -1.28178677   -1.38088827    0.89030661
     atom   18 type  3   force =     0.95378336    0.87212458    1.63364254
     atom   19 type  3   force =     1.83980909   -0.97583979    0.04177776
     The core correction contribution to forces
     atom    1 type  1   force =    -0.00003703   -0.00001156   -0.00000712
     atom    2 type  1   force =     0.00003721    0.00001167    0.00000724
     atom    3 type  1   force =     0.00004079    0.00001283    0.00000789
     atom    4 type  1   force =    -0.00004108   -0.00001286   -0.00000789
     atom    5 type  2   force =    -0.00000726   -0.00000300    0.00000032
     atom    6 type  2   force =    -0.00688761   -0.00216523   -0.00133735
     atom    7 type  2   force =     0.00689592    0.00215414    0.00132504
     atom    8 type  3   force =     0.00058880    0.00065733   -0.00099248
     atom    9 type  3   force =     0.00085843   -0.00097712    0.00026593
     atom   10 type  3   force =     0.00014736    0.00082004    0.00103334
     atom   11 type  3   force =    -0.00059166   -0.00065701    0.00099348
     atom   12 type  3   force =    -0.00086076    0.00097790   -0.00026791
     atom   13 type  3   force =    -0.00014845   -0.00082339   -0.00103513
     atom   14 type  3   force =     0.00058596    0.00040543    0.00060697
     atom   15 type  3   force =    -0.00089239    0.00026251   -0.00008694
     atom   16 type  3   force =    -0.00070963   -0.00054290    0.00027363
     atom   17 type  3   force =    -0.00058267   -0.00040435   -0.00060741
     atom   18 type  3   force =     0.00089446   -0.00026011    0.00008777
     atom   19 type  3   force =     0.00071212    0.00054272   -0.00027169
     The Hubbard contrib.    to forces
     atom    1 type  1   force =     0.00000000    0.00000000    0.00000000
     atom    2 type  1   force =     0.00000000    0.00000000    0.00000000
     atom    3 type  1   force =     0.00000000    0.00000000    0.00000000
     atom    4 type  1   force =     0.00000000    0.00000000    0.00000000
     atom    5 type  2   force =     0.00000000    0.00000000    0.00000000
     atom    6 type  2   force =     0.00000000    0.00000000    0.00000000
     atom    7 type  2   force =     0.00000000    0.00000000    0.00000000
     atom    8 type  3   force =     0.00000000    0.00000000    0.00000000
     atom    9 type  3   force =     0.00000000    0.00000000    0.00000000
     atom   10 type  3   force =     0.00000000    0.00000000    0.00000000
     atom   11 type  3   force =     0.00000000    0.00000000    0.00000000
     atom   12 type  3   force =     0.00000000    0.00000000    0.00000000
     atom   13 type  3   force =     0.00000000    0.00000000    0.00000000
     atom   14 type  3   force =     0.00000000    0.00000000    0.00000000
     atom   15 type  3   force =     0.00000000    0.00000000    0.00000000
     atom   16 type  3   force =     0.00000000    0.00000000    0.00000000
     atom   17 type  3   force =     0.00000000    0.00000000    0.00000000
     atom   18 type  3   force =     0.00000000    0.00000000    0.00000000
     atom   19 type  3   force =     0.00000000    0.00000000    0.00000000
     The SCF correction term to forces
     atom    1 type  1   force =    -0.00019528   -0.00033468   -0.00011256
     atom    2 type  1   force =    -0.00069438   -0.00030055   -0.00028532
     atom    3 type  1   force =     0.00031860   -0.00004123   -0.00002130
     atom    4 type  1   force =     0.00085105    0.00022869   -0.00001411
     atom    5 type  2   force =     0.00076451    0.00033081    0.00007641
     atom    6 type  2   force =    -0.00023171    0.00028218    0.00064345
     atom    7 type  2   force =    -0.00095312    0.00016822    0.00019978
     atom    8 type  3   force =    -0.00042202   -0.00005072    0.00016173
     atom    9 type  3   force =    -0.00036307    0.00012477   -0.00017030
     atom   10 type  3   force =    -0.00020035   -0.00028106   -0.00005717
     atom   11 type  3   force =    -0.00078591   -0.00015731    0.00033319
     atom   12 type  3   force =    -0.00074668    0.00032609   -0.00044455
     atom   13 type  3   force =    -0.00043107   -0.00072319   -0.00016263
     atom   14 type  3   force =     0.00058974    0.00014561   -0.00037272
     atom   15 type  3   force =     0.00035396    0.00023754    0.00018303
     atom   16 type  3   force =     0.00045196    0.00008300    0.00026566
     atom   17 type  3   force =     0.00056369    0.00013494   -0.00011454
     atom   18 type  3   force =     0.00026195    0.00050978    0.00021563
     atom   19 type  3   force =     0.00050796   -0.00019604    0.00043506

     Total force =     0.147689     Total SCF correction =     0.002999

     Computing stress (Cartesian axis) and pressure

     negative rho (up, down):  3.605E-03 0.000E+00
          total   stress  (Ry/bohr**3)                   (kbar)     P=     -302.16
  -0.00253212  -0.00024110  -0.00014829         -372.49      -35.47      -21.81
  -0.00024110  -0.00183849  -0.00004648          -35.47     -270.45       -6.84
  -0.00014829  -0.00004648  -0.00179142          -21.81       -6.84     -263.53

     kinetic stress (kbar)  21420.73    -72.51    -44.60
                              -72.51  21629.38    -13.99
                              -44.60    -13.99  21643.51

     local   stress (kbar)  -3031.92   1871.68   1151.47
                             1871.68  -8417.40    360.87
                             1151.47    360.87  -8782.00

     nonloc. stress (kbar)   7955.87     10.68      6.57
                               10.68   7925.14      2.06
                                6.57      2.06   7923.06

     hartree stress (kbar)   5152.92   -615.03   -378.38
                             -615.03   6922.55   -118.58
                             -378.38   -118.58   7042.37

     exc-cor stress (kbar)  -3555.87     -2.10     -1.29
                               -2.10  -3549.84     -0.40
                               -1.29     -0.40  -3549.43

     corecor stress (kbar)  -1486.70      0.30      0.18
                                0.30  -1487.55      0.06
                                0.18      0.06  -1487.60

     ewald   stress (kbar) -26827.52  -1228.48   -755.76
                            -1228.48 -23292.73   -236.86
                             -755.76   -236.86 -23053.43

     hubbard stress (kbar)      0.00      0.00      0.00
                                0.00      0.00      0.00
                                0.00      0.00      0.00

     DFT-D   stress (kbar)      0.00      0.00      0.00
                                0.00      0.00      0.00
                                0.00      0.00      0.00

     XDM     stress (kbar)      0.00      0.00      0.00
                                0.00      0.00      0.00
                                0.00      0.00      0.00

     dft-nl  stress (kbar)      0.00      0.00      0.00
                                0.00      0.00      0.00
                                0.00      0.00      0.00

     TS-vdW  stress (kbar)      0.00      0.00      0.00
                                0.00      0.00      0.00
                                0.00      0.00      0.00

[...]

                                0.00      0.00      0.00

     Writing all to output data dir new_calculations/myprefix.save/

     General routines

     Parallel routines

     PAW routines

   This run was terminated on:   9:21: 0  20May2023

   JOB DONE.