     Program PWSCF v.7.0 starts on 21May2023 at 15:41:10

     Reading input from espresso_20712.pwi
Warning: card &CELL ignored
Warning: card / ignored

     Current dimensions of program PWSCF are:
     Max number of different atomic species (ntypx) = 10
     Max number of k-points (npk) =  40000
     Max angular momentum in pseudopotentials (lmaxx) =  4

     gamma-point specific algorithms are used
     Message from routine setup:
     using ibrav=0 with symmetry is DISCOURAGED, use correct ibrav instead

     Subspace diagonalization in iterative solution of the eigenvalue problem:
     a serial algorithm will be used

     Using Slab Decomposition

     bravais-lattice index     =            0
     lattice parameter (alat)  =      13.3123  a.u.
     unit-cell volume          =    1645.3957 (a.u.)^3
     number of atoms/cell      =            8
     number of atomic types    =            2
     number of electrons       =       106.00
     number of Kohn-Sham states=           64
     kinetic-energy cutoff     =      30.0000  Ry
     charge density cutoff     =     240.0000  Ry
     scf convergence threshold =      1.0E-06
     mixing beta               =       0.7000
     number of iterations used =            8  plain     mixing
     Exchange-correlation= SLA  PW   PBE  PBE
                           (   1   4   3   4   0   0   0)

     celldm(1)=  13.312318  celldm(2)=   0.000000  celldm(3)=   0.000000
     celldm(4)=   0.000000  celldm(5)=   0.000000  celldm(6)=   0.000000

     crystal axes: (cart. coord. in units of alat)
               a(1) = (   1.000000   0.000000   0.000000 )
               a(2) = (  -0.500000   0.866025   0.000000 )
               a(3) = (   0.000000   0.000000   0.805339 )

     reciprocal axes: (cart. coord. in units 2 pi/alat)
               b(1) = (  1.000000  0.577350  0.000000 )
               b(2) = (  0.000000  1.154700  0.000000 )
               b(3) = (  0.000000  0.000000  1.241713 )

     PseudoPot. # 1 for Tl read from file:
     /home/pragov/projects/rrg-bengioy-ad/pragov/crystal_structure_design/SSSP/Tl_pbe_v1.2.uspp.F.UPF
     MD5 check sum: b76cf1f7e72655a2b2c53cf6385d7059
     Pseudo is Ultrasoft + core correction, Zval = 13.0
     Generated by new atomic code, or converted to UPF format
     Using radial grid of  899 points,  6 beta functions with:
                l(1) =   0
                l(2) =   0
                l(3) =   1
                l(4) =   1
                l(5) =   2
                l(6) =   2
     Q(r) pseudized with  6 coefficients,  rinner =    1.100   1.100   1.100
                                                       1.100   1.100

     PseudoPot. # 2 for Sn read from file:
     /home/pragov/projects/rrg-bengioy-ad/pragov/crystal_structure_design/SSSP/Sn_pbe_v1.uspp.F.UPF
     MD5 check sum: 4cf58ce39ec5d5d420df3dd08604eb00
     Pseudo is Ultrasoft + core correction, Zval = 14.0
     Generated by new atomic code, or converted to UPF format
     Using radial grid of  891 points,  6 beta functions with:
                l(1) =   0
                l(2) =   0
                l(3) =   1
                l(4) =   1
                l(5) =   2
                l(6) =   2
     Q(r) pseudized with  6 coefficients,  rinner =    1.200   1.200   1.200
                                                       1.200   1.200

     atomic species   valence    mass     pseudopotential
        Tl            13.00   204.38000     Tl( 1.00)
        Sn            14.00   118.71000     Sn( 1.00)

     24 Sym. Ops., with inversion, found (12 have fractional translation)

                                    s                        frac. trans.

      isym =  1     identity

 cryst.   s( 1) = (     1          0          0      )
                  (     0          1          0      )
                  (     0          0          1      )

 cart.    s( 1) = (  1.0000000  0.0000000  0.0000000 )
                  (  0.0000000  1.0000000  0.0000000 )
                  (  0.0000000  0.0000000  1.0000000 )

      isym =  2     180 deg rotation - cart. axis [0,0,1]

 cryst.   s( 2) = (    -1          0          0      )    f =( -0.0000000 )
                  (     0         -1          0      )       ( -0.0000000 )
                  (     0          0          1      )       ( -0.5000000 )

 cart.    s( 2) = ( -1.0000000 -0.0000000  0.0000000 )    f =(  0.0000000 )
                  (  0.0000000 -1.0000000  0.0000000 )       ( -0.0000000 )
                  (  0.0000000  0.0000000  1.0000000 )       ( -0.4026694 )

[...]

      isym =  4     180 deg rotation - cart. axis [1,0,0]

[...]

      isym =  5      60 deg rotation - cryst. axis [0,0,1]

[...]

 cryst.   s( 8) = (    -1         -1          0      )
                  (     1          0          0      )
                  (     0          0          1      )

 cart.    s( 8) = ( -0.5000001  0.8660253  0.0000000 )
                  ( -0.8660255 -0.4999999  0.0000000 )
                  (  0.0000000  0.0000000  1.0000000 )

[...]

 cryst.   s( 9) = (     0         -1          0      )    f =( -0.0000000 )
                  (    -1          0          0      )       ( -0.0000000 )
                  (     0          0         -1      )       (  0.5000000 )

 cart.    s( 9) = (  0.4999999 -0.8660255  0.0000000 )    f =( -0.0000000 )
                  ( -0.8660255 -0.4999999  0.0000000 )       ( -0.0000000 )
                  (  0.0000000  0.0000000 -1.0000000 )       (  0.4026694 )

[...]

 cryst.   s(10) = (     1          1          0      )    f =( -0.0000000 )
                  (     0         -1          0      )       ( -0.0000000 )
                  (     0          0         -1      )       (  0.5000000 )

 cart.    s(10) = (  0.5000001  0.8660252  0.0000000 )    f =(  0.0000000 )
                  (  0.8660255 -0.5000001  0.0000000 )       ( -0.0000000 )
                  (  0.0000000  0.0000000 -1.0000000 )       (  0.4026694 )

[...]

 cryst.   s(11) = (    -1         -1          0      )
                  (     0          1          0      )
                  (     0          0         -1      )

 cart.    s(11) = ( -0.5000001 -0.8660252  0.0000000 )
                  ( -0.8660255  0.5000001  0.0000000 )
                  (  0.0000000  0.0000000 -1.0000000 )

      isym = 12     180 deg rotation - cryst. axis [1,1,0]

[...]

      isym = 13     inversion

[...]

      isym = 14     inv. 180 deg rotation - cart. axis [0,0,1]

[...]

      isym = 16     inv. 180 deg rotation - cart. axis [1,0,0]

[...]

      isym = 17     inv.  60 deg rotation - cryst. axis [0,0,1]

[...]

 cryst.   s(22) = (    -1         -1          0      )    f =( -0.0000000 )
                  (     0          1          0      )       ( -0.0000000 )
                  (     0          0          1      )       ( -0.5000000 )

 cart.    s(22) = ( -0.5000001 -0.8660252  0.0000000 )    f =( -0.0000000 )
                  ( -0.8660255  0.5000001  0.0000000 )       ( -0.0000000 )
                  (  0.0000000  0.0000000  1.0000000 )       ( -0.4026694 )

[...]

      isym = 24     inv. 180 deg rotation - cryst. axis [1,1,0]

 cryst.   s(24) = (     0         -1          0      )
                  (    -1          0          0      )
                  (     0          0          1      )

 cart.    s(24) = (  0.4999999 -0.8660255  0.0000000 )
                  ( -0.8660255 -0.4999999  0.0000000 )
                  (  0.0000000  0.0000000  1.0000000 )

   Cartesian axes

     site n.     atom                  positions (alat units)
         1           Tl  tau(   1) = (   0.0000000   0.2952437   0.2013347  )
         2           Tl  tau(   2) = (   0.2443116   0.7184036   0.2013347  )
         3           Tl  tau(   3) = (  -0.2443114   0.7184036   0.2013347  )
         4           Tl  tau(   4) = (   0.5000001   0.5707818   0.6040041  )
         5           Tl  tau(   5) = (   0.2556885   0.1476218   0.6040041  )
         6           Tl  tau(   6) = (   0.7443115   0.1476218   0.6040041  )
         7           Sn  tau(   7) = (  -0.0000004   0.5773506   0.6040041  )
         8           Sn  tau(   8) = (   0.5000005   0.2886749   0.2013347  )

   Crystallographic axes

     site n.     atom                  positions (cryst. coord.)
         1           Tl  tau(   1) = (  0.1704590  0.3409180  0.2500000  )
         2           Tl  tau(   2) = (  0.6590820  0.8295410  0.2500000  )
         3           Tl  tau(   3) = (  0.1704590  0.8295410  0.2500000  )
         4           Tl  tau(   4) = (  0.8295410  0.6590820  0.7500000  )
         5           Tl  tau(   5) = (  0.3409180  0.1704590  0.7500000  )
         6           Tl  tau(   6) = (  0.8295410  0.1704590  0.7500000  )
         7           Sn  tau(   7) = (  0.3333330  0.6666670  0.7500000  )
         8           Sn  tau(   8) = (  0.6666670  0.3333330  0.2500000  )

     number of k points=     1  Methfessel-Paxton smearing, width (Ry)=  0.0010
                       cart. coord. in units 2pi/alat
        k(    1) = (   0.0000000   0.0000000   0.0000000), wk =   2.0000000

                       cryst. coord.
        k(    1) = (   0.0000000   0.0000000   0.0000000), wk =   2.0000000

     Check: negative core charge=   -0.000005

     Initial potential from superposition of free atoms

     starting charge     103.9707, renormalised to     106.0000

     negative rho (up, down):  3.080E-01 0.000E+00
     Starting wfcs are   72 randomized atomic wfcs

     Self-consistent Calculation

     iteration #  1     ecut=    30.00 Ry     beta= 0.70
     Davidson diagonalization with overlap

     ethr =  1.00E-02,  avg # of iterations =  3.0

     Threshold (ethr) on eigenvalues was too large:
     Diagonalizing with lowered threshold

     Davidson diagonalization with overlap

[...]

     negative rho (up, down):  2.931E-01 0.000E+00

     total energy              =   -1195.82678671 Ry
     estimated scf accuracy    <       0.81485383 Ry

[...]

     total energy              =   -1196.13502833 Ry
     estimated scf accuracy    <       0.00000356 Ry

     iteration # 22     ecut=    30.00 Ry     beta= 0.70
     Davidson diagonalization with overlap

     ethr =  3.36E-09,  avg # of iterations =  2.0

[...]

     End of self-consistent calculation

          k = 0.0000 0.0000 0.0000 (  2257 PWs)   bands (ev):

   -11.7421 -11.7406 -11.6966 -11.6965 -11.6942 -11.6941 -11.5252 -11.5252
   -11.5247 -11.5247  -1.8353  -1.8100  -1.7664  -1.7352  -1.7352  -1.6519
    -1.6489  -1.6489  -1.6411  -1.5963  -1.5963  -1.5616  -1.5616  -1.5356
    -1.5059  -1.5059  -1.4635  -1.3917  -1.3917  -1.3408  -1.3408  -1.3143
    -1.3142  -1.2744  -1.2744  -1.2024  -1.2024  -1.1944  -1.1043  -1.0647
    -0.0733   3.2616   4.0247   4.0247   4.2710   4.7479   4.9383   4.9383
     6.6200   8.5235   8.6247   8.6248   9.5657   9.5657   9.5724  10.2056
    10.9174  10.9175  12.5729  12.7633  12.7634  12.8836  12.8836  13.6316

     occupation numbers
     1.0000   1.0000   1.0000   1.0000   1.0000   1.0000   1.0000   1.0000
     1.0000   1.0000   1.0000   1.0000   1.0000   1.0000   1.0000   1.0000
     1.0000   1.0000   1.0000   1.0000   1.0000   1.0000   1.0000   1.0000
     1.0000   1.0000   1.0000   1.0000   1.0000   1.0000   1.0000   1.0000
     1.0000   1.0000   1.0000   1.0000   1.0000   1.0000   1.0000   1.0000
     1.0000   1.0000   1.0000   1.0000   1.0000   1.0000   1.0000   1.0000
     1.0000   1.0000   1.0000   1.0000   0.4511   0.4465   0.1024  -0.0000
    -0.0000  -0.0000  -0.0000  -0.0000  -0.0000  -0.0000  -0.0000  -0.0000

     the Fermi energy is     9.5649 ev

!    total energy              =   -1196.13502787 Ry
     estimated scf accuracy    <       0.00000100 Ry
     smearing contrib. (-TS)   =      -0.00063887 Ry
     internal energy E=F+TS    =   -1196.13438900 Ry

     The total energy is F=E-TS. E is the sum of the following terms:
     one-electron contribution =    -253.15856002 Ry
     hartree contribution      =     211.70416095 Ry
     xc contribution           =    -467.74843103 Ry
     ewald contribution        =    -686.93155890 Ry

     convergence has been achieved in  22 iterations

     negative rho (up, down):  2.982E-01 0.000E+00

     Forces acting on atoms (cartesian axes, Ry/au):

     atom    1 type  1   force =    -0.00000000    0.00687687   -0.00000000
     atom    2 type  1   force =    -0.00595554   -0.00343843    0.00000000
     atom    3 type  1   force =     0.00595554   -0.00343843   -0.00000000
     atom    4 type  1   force =     0.00000000   -0.00687687    0.00000000
     atom    5 type  1   force =     0.00595554    0.00343843   -0.00000000
     atom    6 type  1   force =    -0.00595554    0.00343843    0.00000000
     atom    7 type  2   force =     0.00000000   -0.00000000    0.00000000
     atom    8 type  2   force =     0.00000000    0.00000000    0.00000000
     The non-local contrib.  to forces
     atom    1 type  1   force =     0.00000000   -0.01987624   -0.00000000
     atom    2 type  1   force =     0.01721333    0.00993812   -0.00000000
     atom    3 type  1   force =    -0.01721333    0.00993812    0.00000000
     atom    4 type  1   force =     0.00000000    0.01987624   -0.00000000
     atom    5 type  1   force =    -0.01721333   -0.00993812    0.00000000
     atom    6 type  1   force =     0.01721333   -0.00993812   -0.00000000
     atom    7 type  2   force =     0.00000000   -0.00000000    0.00000000
     atom    8 type  2   force =     0.00000000   -0.00000000    0.00000000
     The ionic contribution  to forces
     atom    1 type  1   force =     0.00004368   -1.89581918    0.00000000
     atom    2 type  1   force =     1.64184951    0.94787158    0.00000000
     atom    3 type  1   force =    -1.64184972    0.94792250    0.00000000
     atom    4 type  1   force =    -0.00004368    1.89581918   -0.00000000
     atom    5 type  1   force =    -1.64184951   -0.94787158   -0.00000000
     atom    6 type  1   force =     1.64184972   -0.94792250   -0.00000000
     atom    7 type  2   force =     0.00005023   -0.00002900   -0.00000000
     atom    8 type  2   force =    -0.00005023    0.00002900    0.00000000
     The local contribution  to forces
     atom    1 type  1   force =     0.00048820    1.91746889    0.00001176
     atom    2 type  1   force =    -1.66145161   -0.95725734   -0.00000038
     atom    3 type  1   force =     1.66168103   -0.95692222    0.00004347
     atom    4 type  1   force =    -0.00042234   -1.91720183   -0.00000602
     atom    5 type  1   force =     1.66132694    0.95719768   -0.00002136
     atom    6 type  1   force =    -1.66148958    0.95680476    0.00002772
     atom    7 type  2   force =     0.00026539    0.00135486   -0.00002730
     atom    8 type  2   force =    -0.00024288   -0.00137858   -0.00002161
     The core correction contribution to forces
     atom    1 type  1   force =     0.00001774    0.00535124   -0.00000092
     atom    2 type  1   force =    -0.00463818   -0.00260795   -0.00000009
     atom    3 type  1   force =     0.00464837   -0.00260263   -0.00000047
     atom    4 type  1   force =    -0.00001493   -0.00533588    0.00000324
     atom    5 type  1   force =     0.00463767    0.00260258   -0.00000456
     atom    6 type  1   force =    -0.00465089    0.00259747    0.00000010
     atom    7 type  2   force =     0.00000221    0.00000694    0.00000002
     atom    8 type  2   force =    -0.00000041   -0.00000702   -0.00000078
     The Hubbard contrib.    to forces
     atom    1 type  1   force =     0.00000000    0.00000000    0.00000000
     atom    2 type  1   force =     0.00000000    0.00000000    0.00000000
     atom    3 type  1   force =     0.00000000    0.00000000    0.00000000
     atom    4 type  1   force =     0.00000000    0.00000000    0.00000000
     atom    5 type  1   force =     0.00000000    0.00000000    0.00000000
     atom    6 type  1   force =     0.00000000    0.00000000    0.00000000
     atom    7 type  2   force =     0.00000000    0.00000000    0.00000000
     atom    8 type  2   force =     0.00000000    0.00000000    0.00000000
     The SCF correction term to forces
     atom    1 type  1   force =    -0.00042264   -0.00009416   -0.00002369
     atom    2 type  1   force =     0.00089151   -0.00091715    0.00001777
     atom    3 type  1   force =    -0.00105773   -0.00121159   -0.00003520
     atom    4 type  1   force =     0.00038232   -0.00012210    0.00002722
     atom    5 type  1   force =    -0.00068353    0.00091083    0.00000396
     atom    6 type  1   force =     0.00086533    0.00133042   -0.00002738
     atom    7 type  2   force =    -0.00029404   -0.00115407    0.00003356
     atom    8 type  2   force =     0.00025202    0.00119602    0.00001903

     Total force =     0.016845     Total SCF correction =     0.003362
     SCF correction compared to forces is large: reduce conv_thr to get better values

     Computing stress (Cartesian axis) and pressure

     negative rho (up, down):  2.982E-01 0.000E+00
          total   stress  (Ry/bohr**3)                   (kbar)     P=       64.40
  -0.00017197   0.00000000   0.00000000          -25.30        0.00        0.00
   0.00000000  -0.00017197   0.00000000            0.00      -25.30        0.00
   0.00000000  -0.00000000   0.00165730            0.00       -0.00      243.80

     kinetic stress (kbar)   7104.23     -0.00      0.00
                               -0.00   7104.23      0.00
                                0.00      0.00   7195.12

     local   stress (kbar)   4011.72      0.23     -0.01
                                0.23   4009.59     -0.06
                               -0.01     -0.06   3912.48

     nonloc. stress (kbar)   9210.44     -0.00      0.00
                               -0.00   9210.44      0.00
                                0.00      0.00   9049.22

     hartree stress (kbar)   6326.33     -0.13      0.01
                               -0.13   6327.49      0.03
                                0.01      0.03   6273.40

     exc-cor stress (kbar)  25059.70     -0.00      0.00
                               -0.00  25059.72      0.00
                                0.00      0.00  25051.26

     corecor stress (kbar) -31101.61      0.00     -0.00
                                0.00 -31101.64     -0.00
                               -0.00     -0.00 -31094.45

     ewald   stress (kbar) -20635.63     -0.00     -0.00
                               -0.00 -20635.63      0.00
                               -0.00      0.00 -20143.23

     hubbard stress (kbar)      0.00      0.00      0.00
                                0.00      0.00      0.00
                                0.00      0.00      0.00

     DFT-D   stress (kbar)      0.00      0.00      0.00
                                0.00      0.00      0.00
                                0.00      0.00      0.00

     XDM     stress (kbar)      0.00      0.00      0.00
                                0.00      0.00      0.00
                                0.00      0.00      0.00

     dft-nl  stress (kbar)      0.00      0.00      0.00
                                0.00      0.00      0.00
                                0.00      0.00      0.00

     TS-vdW  stress (kbar)      0.00      0.00      0.00
                                0.00      0.00      0.00
                                0.00      0.00      0.00

[...]

                                0.00      0.00      0.00

     Writing all to output data dir new_calculations/myprefix.save/

     General routines

     Parallel routines

   This run was terminated on:  15:41:46  21May2023

   JOB DONE.