     Program PWSCF v.7.0 starts on 21May2023 at  4:20:35

     Reading input from espresso_2937.pwi
Warning: card &CELL ignored
Warning: card / ignored

     Current dimensions of program PWSCF are:
     Max number of different atomic species (ntypx) = 10
     Max number of k-points (npk) =  40000
     Max angular momentum in pseudopotentials (lmaxx) =  4
     file Mg.pbe-n-kjpaw_psl.0.3.0.UPF: wavefunction(s)  3S renormalized

     gamma-point specific algorithms are used
     Message from routine setup:
     using ibrav=0 with symmetry is DISCOURAGED, use correct ibrav instead

     Subspace diagonalization in iterative solution of the eigenvalue problem:
     a serial algorithm will be used

     Using Slab Decomposition

     bravais-lattice index     =            0
     lattice parameter (alat)  =      11.6758  a.u.
     unit-cell volume          =     955.1477 (a.u.)^3
     number of atoms/cell      =            6
     number of atomic types    =            2
     number of electrons       =        30.00
     number of Kohn-Sham states=           19
     kinetic-energy cutoff     =      30.0000  Ry
     charge density cutoff     =     240.0000  Ry
     scf convergence threshold =      1.0E-06
     mixing beta               =       0.7000
     number of iterations used =            8  plain     mixing
     Exchange-correlation= PBE
                           (   1   4   3   4   0   0   0)

     celldm(1)=  11.675772  celldm(2)=   0.000000  celldm(3)=   0.000000
     celldm(4)=   0.000000  celldm(5)=   0.000000  celldm(6)=   0.000000

     crystal axes: (cart. coord. in units of alat)
               a(1) = (   1.000000   0.000000   0.000000 )
               a(2) = (   0.862742   0.505644   0.000000 )
               a(3) = (   0.311542   0.084568   1.186776 )

     reciprocal axes: (cart. coord. in units 2 pi/alat)
               b(1) = (  1.000000 -1.706224 -0.140927 )
               b(2) = (  0.000000  1.977676 -0.140927 )
               b(3) = (  0.000000  0.000000  0.842619 )

     PseudoPot. # 1 for Mg read from file:
     /home/pragov/projects/rrg-bengioy-ad/pragov/crystal_structure_design/SSSP/Mg.pbe-n-kjpaw_psl.0.3.0.UPF
     MD5 check sum: 24ecedc7f3e3cbe212e682f4413594e4
     Pseudo is Projector augmented-wave + core cor, Zval =  2.0
     Generated using "atomic" code by A. Dal Corso  v.5.0.99 svn rev. 10869
     Shape of augmentation charge: PSQ
     Using radial grid of 1129 points,  4 beta functions with:
                l(1) =   0
                l(2) =   0
                l(3) =   1
                l(4) =   1
     Q(r) pseudized with 0 coefficients

     PseudoPot. # 2 for Sc read from file:
     /home/pragov/projects/rrg-bengioy-ad/pragov/crystal_structure_design/SSSP/Sc_ONCV_PBE-1.0.oncvpsp.upf
     MD5 check sum: e21af8023abb52e52cb7cd3133e4a229
     Pseudo is Norm-conserving, Zval = 11.0
     Generated using ONCVPSP code by D. R. Hamann
     Using radial grid of 1662 points,  6 beta functions with:
                l(1) =   0
                l(2) =   0
                l(3) =   1
                l(4) =   1
                l(5) =   2
                l(6) =   2

     atomic species   valence    mass     pseudopotential
        Mg             2.00    24.30500     Mg( 1.00)
        Sc            11.00    44.95591     Sc( 1.00)

      2 Sym. Ops., with inversion, found

                                    s                        frac. trans.

      isym =  1     identity

 cryst.   s( 1) = (     1          0          0      )
                  (     0          1          0      )
                  (     0          0          1      )

 cart.    s( 1) = (  1.0000000 -0.0000000 -0.0000000 )
                  (  0.0000000  1.0000000  0.0000000 )
                  (  0.0000000  0.0000000  1.0000000 )

      isym =  2     inversion

 cryst.   s( 2) = (    -1          0          0      )
                  (     0         -1          0      )
                  (     0          0         -1      )

 cart.    s( 2) = ( -1.0000000  0.0000000  0.0000000 )
                  (  0.0000000 -1.0000000 -0.0000000 )
                  (  0.0000000  0.0000000 -1.0000000 )

   Cartesian axes

     site n.     atom                  positions (alat units)
         1           Mg  tau(   1) = (   0.2682125   0.0728067   0.8231062  )
         2           Mg  tau(   2) = (   0.7692405   0.2088115   0.7586073  )
         3           Mg  tau(   3) = (   1.4050432   0.3814011   0.4281685  )
         4           Mg  tau(   4) = (   1.9060713   0.5174059   0.3636696  )
         5           Sc  tau(   5) = (   0.6813597   0.1849561   0.0325782  )
         6           Sc  tau(   6) = (   1.4929241   0.4052564   1.1541976  )

   Crystallographic axes

     site n.     atom                  positions (cryst. coord.)
         1           Mg  tau(   1) = (  0.0279900  0.0279900  0.6935650  )
         2           Mg  tau(   2) = (  0.3060530  0.3060530  0.6392170  )
         3           Mg  tau(   3) = (  0.6939470  0.6939470  0.3607830  )
         4           Mg  tau(   4) = (  0.9720100  0.9720100  0.3064350  )
         5           Sc  tau(   5) = (  0.3611920  0.3611920  0.0274510  )
         6           Sc  tau(   6) = (  0.6388080  0.6388080  0.9725490  )

     number of k points=     1  Methfessel-Paxton smearing, width (Ry)=  0.0010
                       cart. coord. in units 2pi/alat
        k(    1) = (   0.0000000   0.0000000   0.0000000), wk =   2.0000000

                       cryst. coord.
        k(    1) = (   0.0000000   0.0000000   0.0000000), wk =   2.0000000

     Initial potential from superposition of free atoms

     starting charge      29.9910, renormalised to      30.0000
     Starting wfcs are   36 randomized atomic wfcs
     Checking if some PAW data can be deallocated...

     Self-consistent Calculation

     iteration #  1     ecut=    30.00 Ry     beta= 0.70
     Davidson diagonalization with overlap

     ethr =  1.00E-02,  avg # of iterations =  2.0

     Threshold (ethr) on eigenvalues was too large:
     Diagonalizing with lowered threshold

     Davidson diagonalization with overlap

[...]

     total energy              =    -318.82269569 Ry
     estimated scf accuracy    <       0.15244234 Ry

[...]

     total energy              =    -318.85186970 Ry
     estimated scf accuracy    <       0.00000720 Ry

     iteration # 10     ecut=    30.00 Ry     beta= 0.70
     Davidson diagonalization with overlap

     ethr =  2.40E-08,  avg # of iterations =  2.0

     End of self-consistent calculation

          k = 0.0000 0.0000 0.0000 (  1330 PWs)   bands (ev):

   -45.8414 -45.8101 -24.4573 -24.4542 -24.3359 -24.3092 -24.2819 -24.0573
    -0.7203   2.0310   2.0811   3.2147   3.5883   3.8021   4.6397   4.9975
     5.3039   5.6041   6.1066

     occupation numbers
     1.0000   1.0000   1.0000   1.0000   1.0000   1.0000   1.0000   1.0000
     1.0000   1.0000   1.0000   1.0000   1.0000   1.0000   1.0000  -0.0000
    -0.0000  -0.0000  -0.0000

     the Fermi energy is     4.8147 ev

!    total energy              =    -318.85187115 Ry
     estimated scf accuracy    <       0.00000100 Ry
     smearing contrib. (-TS)   =       0.00000000 Ry
     internal energy E=F+TS    =    -318.85187115 Ry

     The total energy is F=E-TS. E is the sum of the following terms:
     one-electron contribution =    -148.71653375 Ry
     hartree contribution      =      76.16830834 Ry
     xc contribution           =     -29.90059369 Ry
     ewald contribution        =     -91.19908853 Ry
     one-center paw contrib.   =    -125.20396352 Ry
      -> PAW hartree energy AE =       3.56443949 Ry
      -> PAW hartree energy PS =      -3.55607943 Ry
      -> PAW xc energy AE      =    -130.67551078 Ry
      -> PAW xc energy PS      =       5.46318720 Ry
      -> total E_H with PAW    =      76.17666840 Ry
      -> total E_XC with PAW   =    -155.11291727 Ry

     convergence has been achieved in  10 iterations

     Forces acting on atoms (cartesian axes, Ry/au):

     atom    1 type  1   force =    -0.00579697   -0.00157355   -0.00565806
     atom    2 type  1   force =    -0.00147152   -0.00039976   -0.00614084
     atom    3 type  1   force =     0.00147152    0.00039976    0.00614084
     atom    4 type  1   force =     0.00579697    0.00157355    0.00565806
     atom    5 type  2   force =    -0.01889639   -0.00511336   -0.00133234
     atom    6 type  2   force =     0.01889639    0.00511336    0.00133234
     The non-local contrib.  to forces
     atom    1 type  1   force =    -0.00066578   -0.00018042   -0.06337459
     atom    2 type  1   force =     0.02131188    0.00578405   -0.07484990
     atom    3 type  1   force =    -0.02131188   -0.00578405    0.07484990
     atom    4 type  1   force =     0.00066578    0.00018042    0.06337459
     atom    5 type  2   force =     0.02939748    0.00798804   -0.00553590
     atom    6 type  2   force =    -0.02939748   -0.00798804    0.00553590
     The ionic contribution  to forces
     atom    1 type  1   force =    -0.11973932   -0.03250342   -2.14447443
     atom    2 type  1   force =     0.14278020    0.03875790   -1.83350569
     atom    3 type  1   force =    -0.14278020   -0.03875790    1.83350569
     atom    4 type  1   force =     0.11973932    0.03250342    2.14447443
     atom    5 type  2   force =     1.50024835    0.40724463    1.80502983
     atom    6 type  2   force =    -1.50024835   -0.40724463   -1.80502983
     The local contribution  to forces
     atom    1 type  1   force =     0.11458121    0.03111631    2.19588735
     atom    2 type  1   force =    -0.16344093   -0.04436319    1.89475822
     atom    3 type  1   force =     0.16330209    0.04433083   -1.89449484
     atom    4 type  1   force =    -0.11445024   -0.03105341   -2.19586322
     atom    5 type  2   force =    -1.54669567   -0.41957988   -1.80192782
     atom    6 type  2   force =     1.54660083    0.41990035    1.80079381
     The core correction contribution to forces
     atom    1 type  1   force =     0.00006143    0.00001753    0.00637901
     atom    2 type  1   force =    -0.00214022   -0.00058054    0.00758318
     atom    3 type  1   force =     0.00213599    0.00058002   -0.00757920
     atom    4 type  1   force =    -0.00005987   -0.00001533   -0.00638194
     atom    5 type  2   force =     0.00000000    0.00000000    0.00000000
     atom    6 type  2   force =     0.00000000    0.00000000    0.00000000
     The Hubbard contrib.    to forces
     atom    1 type  1   force =     0.00000000    0.00000000    0.00000000
     atom    2 type  1   force =     0.00000000    0.00000000    0.00000000
     atom    3 type  1   force =     0.00000000    0.00000000    0.00000000
     atom    4 type  1   force =     0.00000000    0.00000000    0.00000000
     atom    5 type  2   force =     0.00000000    0.00000000    0.00000000
     atom    6 type  2   force =     0.00000000    0.00000000    0.00000000
     The SCF correction term to forces
     atom    1 type  1   force =    -0.00002422   -0.00000788   -0.00010195
     atom    2 type  1   force =    -0.00000724   -0.00000236   -0.00011296
     atom    3 type  1   force =     0.00010073    0.00002646   -0.00012704
     atom    4 type  1   force =    -0.00008774   -0.00002588    0.00002766
     atom    5 type  2   force =    -0.00197281   -0.00077215    0.00141502
     atom    6 type  2   force =     0.00181513    0.00043969    0.00034592

     Total force =     0.031405     Total SCF correction =     0.003187
     SCF correction compared to forces is large: reduce conv_thr to get better values

     Computing stress (Cartesian axis) and pressure

          total   stress  (Ry/bohr**3)                   (kbar)     P=      -44.57
   0.00115054   0.00090367   0.00026150          169.25      132.93       38.47
   0.00090367  -0.00193316   0.00007099          132.93     -284.38       10.44
   0.00026150   0.00007099  -0.00012641           38.47       10.44      -18.60

     kinetic stress (kbar)   6935.76    163.20    125.22
                              163.20   6378.86     34.00
                              125.22     34.00   6519.39

     local   stress (kbar) -10610.07     53.74   -354.61
                               53.74 -10793.46    -96.27
                             -354.61    -96.27  12384.94

     nonloc. stress (kbar)  -1579.42     -8.19    -15.85
                               -8.19  -1551.48     -4.31
                              -15.85     -4.31  -1477.28

     hartree stress (kbar)   7429.75    -39.49    134.50
                              -39.49   7564.50     36.51
                              134.50     36.51  -3263.34

     exc-cor stress (kbar)   -888.71     -0.73      0.74
                               -0.73   -886.20      0.20
                                0.74      0.20   -890.80

     corecor stress (kbar)   -452.70      0.27     -1.88
                                0.27   -453.62     -0.51
                               -1.88     -0.51   -454.00

     ewald   stress (kbar)   -665.36    -35.87    150.36
                              -35.87   -542.97     40.81
                              150.36     40.81 -12837.50

     hubbard stress (kbar)      0.00      0.00      0.00
                                0.00      0.00      0.00
                                0.00      0.00      0.00

     DFT-D   stress (kbar)      0.00      0.00      0.00
                                0.00      0.00      0.00
                                0.00      0.00      0.00

     XDM     stress (kbar)      0.00      0.00      0.00
                                0.00      0.00      0.00
                                0.00      0.00      0.00

     dft-nl  stress (kbar)      0.00      0.00      0.00
                                0.00      0.00      0.00
                                0.00      0.00      0.00

     TS-vdW  stress (kbar)      0.00      0.00      0.00
                                0.00      0.00      0.00
                                0.00      0.00      0.00

[...]

                                0.00      0.00      0.00

     Writing all to output data dir new_calculations/myprefix.save/

     General routines

     Parallel routines

     PAW routines

   This run was terminated on:   4:20:53  21May2023

   JOB DONE.