     Program PWSCF v.7.0 starts on 20May2023 at 22:43: 3

     Reading input from espresso_19567.pwi
Warning: card &CELL ignored
Warning: card / ignored

     Current dimensions of program PWSCF are:
     Max number of different atomic species (ntypx) = 10
     Max number of k-points (npk) =  40000
     Max angular momentum in pseudopotentials (lmaxx) =  4
     file C.pbe-n-kjpaw_psl.1.0.0.UPF: wavefunction(s)  2S 2P renormalized

     gamma-point specific algorithms are used
     Message from routine setup:
     using ibrav=0 with symmetry is DISCOURAGED, use correct ibrav instead

     Subspace diagonalization in iterative solution of the eigenvalue problem:
     a serial algorithm will be used

     Using Slab Decomposition

     bravais-lattice index     =            0
     lattice parameter (alat)  =       9.6479  a.u.
     unit-cell volume          =     408.3994 (a.u.)^3
     number of atoms/cell      =            5
     number of atomic types    =            3
     number of electrons       =        20.00
     number of Kohn-Sham states=           14
     kinetic-energy cutoff     =      30.0000  Ry
     charge density cutoff     =     240.0000  Ry
     scf convergence threshold =      1.0E-06
     mixing beta               =       0.7000
     number of iterations used =            8  plain     mixing
     Exchange-correlation= PBE
                           (   1   4   3   4   0   0   0)

     celldm(1)=   9.647908  celldm(2)=   0.000000  celldm(3)=   0.000000
     celldm(4)=   0.000000  celldm(5)=   0.000000  celldm(6)=   0.000000

     crystal axes: (cart. coord. in units of alat)
               a(1) = (   1.000000   0.000000   0.000000 )
               a(2) = (   0.469455   0.882957   0.000000 )
               a(3) = (  -0.734727  -0.441478   0.515046 )

     reciprocal axes: (cart. coord. in units 2 pi/alat)
               b(1) = (  1.000000 -0.531685  0.970786 )
               b(2) = (  0.000000  1.132558  0.970786 )
               b(3) = (  0.000000  0.000000  1.941573 )

     PseudoPot. # 1 for Li read from file:
     /home/pragov/projects/rrg-bengioy-ad/pragov/crystal_structure_design/SSSP/li_pbe_v1.4.uspp.F.UPF
     MD5 check sum: e912e257baa3777c20ea3d68f190483c
     Pseudo is Ultrasoft, Zval =  3.0
     Generated by new atomic code, or converted to UPF format
     Using radial grid of  751 points,  5 beta functions with:
                l(1) =   0
                l(2) =   0
                l(3) =   0
                l(4) =   1
                l(5) =   1
     Q(r) pseudized with 10 coefficients,  rinner =    1.150   1.150   1.150

     PseudoPot. # 2 for C  read from file:
     /home/pragov/projects/rrg-bengioy-ad/pragov/crystal_structure_design/SSSP/C.pbe-n-kjpaw_psl.1.0.0.UPF
     MD5 check sum: 5d2aebdfa2cae82b50a7e79e9516da0f
     Pseudo is Projector augmented-wave + core cor, Zval =  4.0
     Generated using "atomic" code by A. Dal Corso  v.5.1
     Shape of augmentation charge: PSQ
     Using radial grid of 1073 points,  4 beta functions with:
                l(1) =   0
                l(2) =   0
                l(3) =   1
                l(4) =   1
     Q(r) pseudized with 0 coefficients

     PseudoPot. # 3 for N  read from file:
     /home/pragov/projects/rrg-bengioy-ad/pragov/crystal_structure_design/SSSP/N.pbe-n-radius_5.UPF
     MD5 check sum: 16739722b17309cd8fe442a2ace49922
     Pseudo is Ultrasoft + core correction, Zval =  5.0
     Generated using "atomic" code by A. Dal Corso  v.5.1
     Using radial grid of 1085 points,  4 beta functions with:
                l(1) =   0
                l(2) =   0
                l(3) =   1
                l(4) =   1
     Q(r) pseudized with 0 coefficients

     atomic species   valence    mass     pseudopotential
        Li             3.00     6.94000     Li( 1.00)
        C              4.00    12.01100     C ( 1.00)
        N              5.00    14.00700     N ( 1.00)

      4 Sym. Ops., with inversion, found

                                    s                        frac. trans.

      isym =  1     identity

 cryst.   s( 1) = (     1          0          0      )
                  (     0          1          0      )
                  (     0          0          1      )

 cart.    s( 1) = (  1.0000000 -0.0000000 -0.0000000 )
                  (  0.0000000  1.0000000  0.0000000 )
                  (  0.0000000  0.0000000  1.0000000 )

      isym =  2     180 deg rotation - cart. axis [0,0,1]

[...]

      isym =  3     inversion

[...]

      isym =  4     inv. 180 deg rotation - cart. axis [0,0,1]

 cryst.   s( 4) = (     1          0          0      )
                  (     0          1          0      )
                  (    -1         -1         -1      )

 cart.    s( 4) = (  1.0000000 -0.0000000  0.0000000 )
                  (  0.0000000  1.0000000  0.0000000 )
                  (  0.0000000  0.0000000 -1.0000000 )

   Cartesian axes

     site n.     atom                  positions (alat units)
         1           Li  tau(   1) = (   0.2347273   0.4414783   0.2575232  )
         2           Li  tau(   2) = (   0.5000000   0.0000000   0.2575232  )
         3           C   tau(   3) = (   0.0000000   0.0000000   0.0000000  )
         4           N   tau(   4) = (   0.2077882   0.1248545   0.0000000  )
         5           N   tau(   5) = (   1.2616663   0.7581022   0.0000000  )

   Crystallographic axes

     site n.     atom                  positions (cryst. coord.)
         1           Li  tau(   1) = (  0.2500000  0.7500000  0.5000000  )
         2           Li  tau(   2) = (  0.7500000  0.2500000  0.5000000  )
         3           C   tau(   3) = (  0.0000000  0.0000000  0.0000000  )
         4           N   tau(   4) = (  0.1414050  0.1414050  0.0000000  )
         5           N   tau(   5) = (  0.8585950  0.8585950  0.0000000  )

     number of k points=     1  Methfessel-Paxton smearing, width (Ry)=  0.0010
                       cart. coord. in units 2pi/alat
        k(    1) = (   0.0000000   0.0000000   0.0000000), wk =   2.0000000

                       cryst. coord.
        k(    1) = (   0.0000000   0.0000000   0.0000000), wk =   2.0000000

     Check: negative core charge=   -0.000014

     Initial potential from superposition of free atoms

     starting charge      19.0985, renormalised to      20.0000
     Starting wfcs are   22 randomized atomic wfcs
     Checking if some PAW data can be deallocated...

     Self-consistent Calculation

     iteration #  1     ecut=    30.00 Ry     beta= 0.70
     Davidson diagonalization with overlap

     ethr =  1.00E-02,  avg # of iterations =  2.0

     total energy              =     -87.64942108 Ry
     estimated scf accuracy    <       0.61605825 Ry

[...]

     total energy              =     -87.90646979 Ry
     estimated scf accuracy    <       0.00001883 Ry

     iteration #  8     ecut=    30.00 Ry     beta= 0.70
     Davidson diagonalization with overlap

     ethr =  9.41E-08,  avg # of iterations =  2.0

     End of self-consistent calculation

          k = 0.0000 0.0000 0.0000 (   562 PWs)   bands (ev):

   -41.8314 -41.7497 -15.4612 -13.3316  -3.8015  -1.8603  -1.8327  -1.1523
     0.7450   0.7668   5.6389   8.6010   9.1617   9.2161

     occupation numbers
     1.0000   1.0000   1.0000   1.0000   1.0000   1.0000   1.0000   1.0000
     1.0000   1.0000  -0.0000  -0.0000  -0.0000  -0.0000

     the Fermi energy is     2.9372 ev

!    total energy              =     -87.90647287 Ry
     estimated scf accuracy    <       0.00000013 Ry
     smearing contrib. (-TS)   =       0.00000000 Ry
     internal energy E=F+TS    =     -87.90647287 Ry

     The total energy is F=E-TS. E is the sum of the following terms:
     one-electron contribution =     -45.97808296 Ry
     hartree contribution      =      27.81175158 Ry
     xc contribution           =     -22.53587106 Ry
     ewald contribution        =     -41.02863338 Ry
     one-center paw contrib.   =      -6.17563705 Ry
      -> PAW hartree energy AE =      10.21178838 Ry
      -> PAW hartree energy PS =     -10.20217247 Ry
      -> PAW xc energy AE      =     -10.85895638 Ry
      -> PAW xc energy PS      =       4.67370342 Ry
      -> total E_H with PAW    =      27.82136750 Ry
      -> total E_XC with PAW   =     -28.72112402 Ry

     convergence has been achieved in   8 iterations

     Forces acting on atoms (cartesian axes, Ry/au):

     atom    1 type  1   force =     0.00000000    0.00000000    0.00010938
     atom    2 type  1   force =     0.00000000    0.00000000   -0.00010938
     atom    3 type  2   force =     0.00000000    0.00000000    0.00000000
     atom    4 type  3   force =     0.01578365    0.01139881    0.00000000
     atom    5 type  3   force =    -0.01578365   -0.01139881   -0.00000000
     The non-local contrib.  to forces
     atom    1 type  1   force =     0.00000000    0.00000000    0.00019202
     atom    2 type  1   force =     0.00000000    0.00000000   -0.00019202
     atom    3 type  2   force =     0.00000000    0.00000000    0.00000000
     atom    4 type  3   force =    -1.37549188   -0.82438492   -0.00000000
     atom    5 type  3   force =     1.37549188    0.82438492    0.00000000
     The ionic contribution  to forces
     atom    1 type  1   force =    -0.00000000    0.00000000    0.00000000
     atom    2 type  1   force =     0.00000000   -0.00000000   -0.00000000
     atom    3 type  2   force =     0.00000000    0.00000000   -0.00000000
     atom    4 type  3   force =     4.06111314    2.44021623   -0.00000000
     atom    5 type  3   force =    -4.06111314   -2.44021623    0.00000000
     The local contribution  to forces
     atom    1 type  1   force =     0.00016448    0.00010376   -0.00007597
     atom    2 type  1   force =    -0.00010783   -0.00005843    0.00008745
     atom    3 type  2   force =    -0.00012765   -0.00011811   -0.00002775
     atom    4 type  3   force =    -2.67922591   -1.61014997   -0.00015580
     atom    5 type  3   force =     2.67932936    1.61015321    0.00011516
     The core correction contribution to forces
     atom    1 type  1   force =     0.00000000    0.00000000    0.00000000
     atom    2 type  1   force =     0.00000000    0.00000000    0.00000000
     atom    3 type  2   force =     0.00000834    0.00000229   -0.00000063
     atom    4 type  3   force =     0.00947623    0.00569028   -0.00000223
     atom    5 type  3   force =    -0.00947413   -0.00569009    0.00000119
     The Hubbard contrib.    to forces
     atom    1 type  1   force =     0.00000000    0.00000000    0.00000000
     atom    2 type  1   force =     0.00000000    0.00000000    0.00000000
     atom    3 type  2   force =     0.00000000    0.00000000    0.00000000
     atom    4 type  3   force =     0.00000000    0.00000000    0.00000000
     atom    5 type  3   force =     0.00000000    0.00000000    0.00000000
     The SCF correction term to forces
     atom    1 type  1   force =     0.00001982   -0.00000065   -0.00000075
     atom    2 type  1   force =    -0.00001364   -0.00000663    0.00000110
     atom    3 type  2   force =     0.00026319    0.00017271    0.00000863
     atom    4 type  3   force =    -0.00011640   -0.00002284    0.00005789
     atom    5 type  3   force =    -0.00004611   -0.00008064   -0.00007258

     Total force =     0.027534     Total SCF correction =     0.000362

     Computing stress (Cartesian axis) and pressure

          total   stress  (Ry/bohr**3)                   (kbar)     P=      -49.27
  -0.00115366  -0.00090528  -0.00000000         -169.71     -133.17       -0.00
  -0.00090528  -0.00018574  -0.00000000         -133.17      -27.32       -0.00
  -0.00000000  -0.00000000   0.00033457           -0.00       -0.00       49.22

     kinetic stress (kbar)   8264.62   -687.82      0.00
                             -687.82   8994.90      0.00
                                0.00      0.00   9415.46

     local   stress (kbar) -11256.21  -5140.61      1.91
                            -5140.61  -5791.18     -0.94
                                1.91     -0.94  -2706.26

     nonloc. stress (kbar)   1722.34     25.37      0.00
                               25.37   1699.47      0.00
                                0.00      0.00   1678.65

     hartree stress (kbar)   4456.78   1228.23      0.04
                             1228.23   3150.00     -0.42
                                0.04     -0.42   2410.99

     exc-cor stress (kbar)  -1774.64     21.56     -0.01
                               21.56  -1797.70     -0.02
                               -0.01     -0.02  -1810.79

     corecor stress (kbar)   -681.29     -6.70      0.05
                               -6.70   -674.19     -0.06
                                0.05     -0.06   -670.27

     ewald   stress (kbar)   -901.30   4426.79      0.00
                             4426.79  -5608.62      0.00
                                0.00      0.00  -8268.56

     hubbard stress (kbar)      0.00      0.00      0.00
                                0.00      0.00      0.00
                                0.00      0.00      0.00

     DFT-D   stress (kbar)      0.00      0.00      0.00
                                0.00      0.00      0.00
                                0.00      0.00      0.00

     XDM     stress (kbar)      0.00      0.00      0.00
                                0.00      0.00      0.00
                                0.00      0.00      0.00

     dft-nl  stress (kbar)      0.00      0.00      0.00
                                0.00      0.00      0.00
                                0.00      0.00      0.00

     TS-vdW  stress (kbar)      0.00      0.00      0.00
                                0.00      0.00      0.00
                                0.00      0.00      0.00

[...]

                                0.00      0.00      0.00

     Writing all to output data dir new_calculations/myprefix.save/

     General routines

     Parallel routines

     PAW routines

   This run was terminated on:  22:43:33  20May2023

   JOB DONE.