     Program PWSCF v.7.0 starts on 20May2023 at  8:15:45

     Reading input from espresso_6190.pwi
Warning: card &CELL ignored
Warning: card / ignored

     Current dimensions of program PWSCF are:
     Max number of different atomic species (ntypx) = 10
     Max number of k-points (npk) =  40000
     Max angular momentum in pseudopotentials (lmaxx) =  4
     file K.pbe-spn-kjpaw_psl.1.0.0.UPF: wavefunction(s)  3S renormalized
     file Cd.pbe-dn-rrkjus_psl.0.3.1.UPF: wavefunction(s)  4D renormalized

     gamma-point specific algorithms are used
     Message from routine setup:
     using ibrav=0 with symmetry is DISCOURAGED, use correct ibrav instead

     Subspace diagonalization in iterative solution of the eigenvalue problem:
     a serial algorithm will be used

     Using Slab Decomposition

     bravais-lattice index     =            0
     lattice parameter (alat)  =       7.6907  a.u.
     unit-cell volume          =    3690.1630 (a.u.)^3
     number of atoms/cell      =           20
     number of atomic types    =            3
     number of electrons       =       168.00
     number of Kohn-Sham states=          101
     kinetic-energy cutoff     =      30.0000  Ry
     charge density cutoff     =     240.0000  Ry
     scf convergence threshold =      1.0E-06
     mixing beta               =       0.7000
     number of iterations used =            8  plain     mixing
     Exchange-correlation=  SLA  PW   PBX  PBC
                           (   1   4   3   4   0   0   0)

     celldm(1)=   7.690668  celldm(2)=   0.000000  celldm(3)=   0.000000
     celldm(4)=   0.000000  celldm(5)=   0.000000  celldm(6)=   0.000000

     crystal axes: (cart. coord. in units of alat)
               a(1) = (   1.000000   0.000000   0.000000 )
               a(2) = (   0.000000   2.214801   0.000000 )
               a(3) = (   0.000000   0.000000   3.662846 )

     reciprocal axes: (cart. coord. in units 2 pi/alat)
               b(1) = (  1.000000  0.000000  0.000000 )
               b(2) = (  0.000000  0.451508  0.000000 )
               b(3) = (  0.000000  0.000000  0.273012 )

     PseudoPot. # 1 for K  read from file:
     /home/pragov/projects/rrg-bengioy-ad/pragov/crystal_structure_design/SSSP/K.pbe-spn-kjpaw_psl.1.0.0.UPF
     MD5 check sum: 7d58810084cac21f60fbe77ea2b688fd
     Pseudo is Projector augmented-wave + core cor, Zval =  9.0
     Generated using "atomic" code by A. Dal Corso  v.5.1
     Shape of augmentation charge: PSQ
     Using radial grid of 1165 points,  6 beta functions with:
                l(1) =   0
                l(2) =   0
                l(3) =   1
                l(4) =   1
                l(5) =   2
                l(6) =   2
     Q(r) pseudized with 0 coefficients

     PseudoPot. # 2 for Cd read from file:
     /home/pragov/projects/rrg-bengioy-ad/pragov/crystal_structure_design/SSSP/Cd.pbe-dn-rrkjus_psl.0.3.1.UPF
     MD5 check sum: 558e9f355611b531a870a69ef6ace9e2
     Pseudo is Ultrasoft + core correction, Zval = 12.0
     Generated using "atomic" code by A. Dal Corso  v.5.0.99 svn rev. 10869
     Using radial grid of 1239 points,  6 beta functions with:
                l(1) =   0
                l(2) =   0
                l(3) =   1
                l(4) =   1
                l(5) =   2
                l(6) =   2
     Q(r) pseudized with 0 coefficients

     PseudoPot. # 3 for Cl read from file:
     /home/pragov/projects/rrg-bengioy-ad/pragov/crystal_structure_design/SSSP/cl_pbe_v1.4.uspp.F.UPF
     MD5 check sum: fc6f6913ecf08c9257cb748ef0700058
     Pseudo is Ultrasoft + core correction, Zval =  7.0
     Generated by new atomic code, or converted to UPF format
     Using radial grid of  909 points,  6 beta functions with:
                l(1) =   0
                l(2) =   0
                l(3) =   1
                l(4) =   1
                l(5) =   2
                l(6) =   2
     Q(r) pseudized with  8 coefficients,  rinner =    1.300   1.300   1.300
                                                       1.300   1.300

     atomic species   valence    mass     pseudopotential
        K              9.00    39.09830     K ( 1.00)
        Cd            12.00   112.41400     Cd( 1.00)
        Cl             7.00    35.45000     Cl( 1.00)

      8 Sym. Ops., with inversion, found ( 6 have fractional translation)

                                    s                        frac. trans.

      isym =  1     identity

 cryst.   s( 1) = (     1          0          0      )
                  (     0          1          0      )
                  (     0          0          1      )

 cart.    s( 1) = (  1.0000000  0.0000000  0.0000000 )
                  (  0.0000000  1.0000000  0.0000000 )
                  (  0.0000000  0.0000000  1.0000000 )

      isym =  2     180 deg rotation - cart. axis [0,0,1]

 cryst.   s( 2) = (    -1          0          0      )    f =(  0.0000000 )
                  (     0         -1          0      )       (  0.5000000 )
                  (     0          0          1      )       ( -0.5000000 )

 cart.    s( 2) = ( -1.0000000  0.0000000  0.0000000 )    f =(  0.0000000 )
                  (  0.0000000 -1.0000000  0.0000000 )       (  1.1074007 )
                  (  0.0000000  0.0000000  1.0000000 )       ( -1.8314229 )

[...]

      isym =  4     180 deg rotation - cart. axis [1,0,0]

[...]

      isym =  5     inversion

 cryst.   s( 5) = (    -1          0          0      )
                  (     0         -1          0      )
                  (     0          0         -1      )

 cart.    s( 5) = ( -1.0000000  0.0000000  0.0000000 )
                  (  0.0000000 -1.0000000  0.0000000 )
                  (  0.0000000  0.0000000 -1.0000000 )

      isym =  6     inv. 180 deg rotation - cart. axis [0,0,1]

[...]

      isym =  8     inv. 180 deg rotation - cart. axis [1,0,0]

 cryst.   s( 8) = (    -1          0          0      )    f =(  0.5000000 )
                  (     0          1          0      )       (  0.0000000 )
                  (     0          0          1      )       (  0.0000000 )

 cart.    s( 8) = ( -1.0000000  0.0000000  0.0000000 )    f =(  0.5000000 )
                  (  0.0000000  1.0000000  0.0000000 )       (  0.0000000 )
                  (  0.0000000  0.0000000  1.0000000 )       (  0.0000000 )

   Cartesian axes

     site n.     atom                  positions (alat units)
         1           K   tau(   1) = (   0.2500000   0.9474921   0.6533418  )
         2           K   tau(   2) = (   0.7500000   1.2673094   3.0095040  )
         3           K   tau(   3) = (   0.2500000   2.0548928   1.1780811  )
         4           K   tau(   4) = (   0.7500000   0.1599087   2.4847647  )
         5           Cd  tau(   5) = (   0.7500000   1.8350759   0.1997240  )
         6           Cd  tau(   6) = (   0.2500000   0.3797255   3.4631219  )
         7           Cd  tau(   7) = (   0.7500000   0.7276752   1.6316989  )
         8           Cd  tau(   8) = (   0.2500000   1.4871262   2.0311469  )
         9           Cl  tau(   9) = (   0.7500000   2.1723614   3.2930889  )
        10           Cl  tau(  10) = (   0.2500000   0.0424400   0.3697570  )
        11           Cl  tau(  11) = (   0.7500000   1.0649607   2.2011799  )
        12           Cl  tau(  12) = (   0.2500000   1.1498407   1.4616660  )
        13           Cl  tau(  13) = (   0.2500000   1.4759902   3.6257009  )
        14           Cl  tau(  14) = (   0.7500000   0.7388112   0.0371449  )
        15           Cl  tau(  15) = (   0.2500000   0.3685895   1.8685678  )
        16           Cl  tau(  16) = (   0.7500000   1.8462120   1.7942780  )
        17           Cl  tau(  17) = (   0.2500000   1.7522911   2.5978881  )
        18           Cl  tau(  18) = (   0.7500000   0.4625103   1.0649578  )
        19           Cl  tau(  19) = (   0.2500000   0.6448904   2.8963807  )
        20           Cl  tau(  20) = (   0.7500000   1.5699111   0.7664651  )

   Crystallographic axes

     site n.     atom                  positions (cryst. coord.)
         1           K   tau(   1) = (  0.2500000  0.4278000  0.1783700  )
         2           K   tau(   2) = (  0.7500000  0.5722000  0.8216300  )
         3           K   tau(   3) = (  0.2500000  0.9278000  0.3216300  )
         4           K   tau(   4) = (  0.7500000  0.0722000  0.6783700  )
         5           Cd  tau(   5) = (  0.7500000  0.8285510  0.0545270  )
         6           Cd  tau(   6) = (  0.2500000  0.1714490  0.9454730  )
         7           Cd  tau(   7) = (  0.7500000  0.3285510  0.4454730  )
         8           Cd  tau(   8) = (  0.2500000  0.6714490  0.5545270  )
         9           Cl  tau(   9) = (  0.7500000  0.9808380  0.8990520  )
        10           Cl  tau(  10) = (  0.2500000  0.0191620  0.1009480  )
        11           Cl  tau(  11) = (  0.7500000  0.4808380  0.6009480  )
        12           Cl  tau(  12) = (  0.2500000  0.5191620  0.3990520  )
        13           Cl  tau(  13) = (  0.2500000  0.6664210  0.9898590  )
        14           Cl  tau(  14) = (  0.7500000  0.3335790  0.0101410  )
        15           Cl  tau(  15) = (  0.2500000  0.1664210  0.5101410  )
        16           Cl  tau(  16) = (  0.7500000  0.8335790  0.4898590  )
        17           Cl  tau(  17) = (  0.2500000  0.7911730  0.7092540  )
        18           Cl  tau(  18) = (  0.7500000  0.2088270  0.2907460  )
        19           Cl  tau(  19) = (  0.2500000  0.2911730  0.7907460  )
        20           Cl  tau(  20) = (  0.7500000  0.7088270  0.2092540  )

     number of k points=     1  Methfessel-Paxton smearing, width (Ry)=  0.0010
                       cart. coord. in units 2pi/alat
        k(    1) = (   0.0000000   0.0000000   0.0000000), wk =   2.0000000

                       cryst. coord.
        k(    1) = (   0.0000000   0.0000000   0.0000000), wk =   2.0000000

     Check: negative core charge=   -0.000002

     Initial potential from superposition of free atoms

     starting charge     167.9050, renormalised to     168.0000

     negative rho (up, down):  1.793E-01 0.000E+00
     Starting wfcs are  116 randomized atomic wfcs
     Checking if some PAW data can be deallocated...

     Self-consistent Calculation

     iteration #  1     ecut=    30.00 Ry     beta= 0.70
     Davidson diagonalization with overlap

     ethr =  1.00E-02,  avg # of iterations =  6.0

     Threshold (ethr) on eigenvalues was too large:
     Diagonalizing with lowered threshold

     Davidson diagonalization with overlap

[...]

     negative rho (up, down):  1.850E-01 0.000E+00

     total energy              =   -1341.64043240 Ry
     estimated scf accuracy    <       0.77714227 Ry

[...]

     total energy              =   -1341.88817859 Ry
     estimated scf accuracy    <       0.00000174 Ry

     iteration #  8     ecut=    30.00 Ry     beta= 0.70
     Davidson diagonalization with overlap

     ethr =  1.03E-09,  avg # of iterations =  4.0

[...]

     End of self-consistent calculation

          k = 0.0000 0.0000 0.0000 (  5123 PWs)   bands (ev):

   -25.4654 -25.4647 -25.4645 -25.4638 -11.0127 -11.0012 -10.6869 -10.6571
   -10.4494 -10.4373 -10.4123 -10.3605 -10.3396 -10.2949 -10.2420 -10.2391
    -8.9491  -8.9440  -8.9374  -8.9211  -8.9166  -8.9102  -8.9094  -8.9060
    -8.9052  -8.8814  -8.8252  -8.8245  -4.2325  -4.2313  -4.2028  -4.2021
    -4.1651  -4.1607  -4.0990  -4.0975  -4.0859  -4.0761  -4.0075  -4.0051
    -3.9878  -3.9810  -3.9230  -3.9226  -3.9214  -3.9071  -3.8513  -3.8496
    -0.7191  -0.6538  -0.5916  -0.3721   0.0071   0.1091   0.5874   0.9017
     0.9116   0.9304   1.0585   1.1337   1.1612   1.1966   1.2449   1.4020
     1.4966   1.5688   1.6275   1.7387   1.7868   1.9337   1.9736   1.9862
     2.0084   2.0341   2.0423   2.0848   2.0898   2.1503   2.1625   2.2090
     2.2252   2.2363   2.2847   2.3146   5.7597   6.4755   6.6633   6.9218
     8.4775   8.8194   8.8236   8.9108   9.0274   9.0430   9.6802   9.6815
     9.9900  10.0684  10.2669  10.3792  10.8845

     occupation numbers
     1.0000   1.0000   1.0000   1.0000   1.0000   1.0000   1.0000   1.0000
     1.0000   1.0000   1.0000   1.0000   1.0000   1.0000   1.0000   1.0000
     1.0000   1.0000   1.0000   1.0000   1.0000   1.0000   1.0000   1.0000
     1.0000   1.0000   1.0000   1.0000   1.0000   1.0000   1.0000   1.0000
     1.0000   1.0000   1.0000   1.0000   1.0000   1.0000   1.0000   1.0000
     1.0000   1.0000   1.0000   1.0000   1.0000   1.0000   1.0000   1.0000
     1.0000   1.0000   1.0000   1.0000   1.0000   1.0000   1.0000   1.0000
     1.0000   1.0000   1.0000   1.0000   1.0000   1.0000   1.0000   1.0000
     1.0000   1.0000   1.0000   1.0000   1.0000   1.0000   1.0000   1.0000
     1.0000   1.0000   1.0000   1.0000   1.0000   1.0000   1.0000   1.0000
     1.0000   1.0000   1.0000   1.0000  -0.0000  -0.0000  -0.0000  -0.0000
    -0.0000  -0.0000  -0.0000  -0.0000  -0.0000  -0.0000  -0.0000  -0.0000
    -0.0000  -0.0000  -0.0000  -0.0000  -0.0000

     the Fermi energy is     4.1540 ev

!    total energy              =   -1341.88817907 Ry
     estimated scf accuracy    <       0.00000024 Ry
     smearing contrib. (-TS)   =       0.00000000 Ry
     internal energy E=F+TS    =   -1341.88817907 Ry

     The total energy is F=E-TS. E is the sum of the following terms:
     one-electron contribution =    -393.89968201 Ry
     hartree contribution      =     289.77829215 Ry
     xc contribution           =    -330.77338744 Ry
     ewald contribution        =    -685.32227418 Ry
     one-center paw contrib.   =    -221.67112759 Ry
      -> PAW hartree energy AE =     150.83954759 Ry
      -> PAW hartree energy PS =    -149.99810909 Ry
      -> PAW xc energy AE      =    -264.88499924 Ry
      -> PAW xc energy PS      =      42.37243315 Ry
      -> total E_H with PAW    =     290.61973065 Ry
      -> total E_XC with PAW   =    -553.28595353 Ry

     convergence has been achieved in   8 iterations

     negative rho (up, down):  1.770E-01 0.000E+00

     Forces acting on atoms (cartesian axes, Ry/au):

     atom    1 type  1   force =    -0.00000000    0.00073067   -0.00114570
     atom    2 type  1   force =     0.00000000   -0.00073067    0.00114570
     atom    3 type  1   force =     0.00000000    0.00073067    0.00114570
     atom    4 type  1   force =    -0.00000000   -0.00073067   -0.00114570
     atom    5 type  2   force =     0.00000000    0.00318018    0.00370964
     atom    6 type  2   force =     0.00000000   -0.00318018   -0.00370964
     atom    7 type  2   force =     0.00000000    0.00318018   -0.00370964
     atom    8 type  2   force =     0.00000000   -0.00318018    0.00370964
     atom    9 type  3   force =     0.00000000   -0.02197533   -0.00185900
     atom   10 type  3   force =     0.00000000    0.02197533    0.00185900
     atom   11 type  3   force =    -0.00000000   -0.02197533    0.00185900
     atom   12 type  3   force =    -0.00000000    0.02197533   -0.00185900
     atom   13 type  3   force =     0.00000000   -0.02236438   -0.01516629
     atom   14 type  3   force =    -0.00000000    0.02236438    0.01516629
     atom   15 type  3   force =     0.00000000   -0.02236438    0.01516629
     atom   16 type  3   force =     0.00000000    0.02236438   -0.01516629
     atom   17 type  3   force =    -0.00000000   -0.00221404   -0.00375593
     atom   18 type  3   force =     0.00000000    0.00221404    0.00375593
     atom   19 type  3   force =     0.00000000   -0.00221404    0.00375593
     atom   20 type  3   force =     0.00000000    0.00221404   -0.00375593
     The non-local contrib.  to forces
     atom    1 type  1   force =    -0.00000000   -0.00416460   -0.00292957
     atom    2 type  1   force =    -0.00000000    0.00416460    0.00292957
     atom    3 type  1   force =     0.00000000   -0.00416460    0.00292957
     atom    4 type  1   force =    -0.00000000    0.00416460   -0.00292957
     atom    5 type  2   force =     0.00000000    0.06153482   -0.07949918
     atom    6 type  2   force =     0.00000000   -0.06153482    0.07949918
     atom    7 type  2   force =    -0.00000000    0.06153482    0.07949918
     atom    8 type  2   force =    -0.00000000   -0.06153482   -0.07949918
     atom    9 type  3   force =    -0.00000000    0.10427406    0.12369284
     atom   10 type  3   force =     0.00000000   -0.10427406   -0.12369284
     atom   11 type  3   force =    -0.00000000    0.10427406   -0.12369284
     atom   12 type  3   force =     0.00000000   -0.10427406    0.12369284
     atom   13 type  3   force =     0.00000000    0.17699883    0.07776156
     atom   14 type  3   force =     0.00000000   -0.17699883   -0.07776156
     atom   15 type  3   force =     0.00000000    0.17699883   -0.07776156
     atom   16 type  3   force =     0.00000000   -0.17699883    0.07776156
     atom   17 type  3   force =     0.00000000   -0.06158403   -0.12643410
     atom   18 type  3   force =     0.00000000    0.06158403    0.12643410
     atom   19 type  3   force =     0.00000000   -0.06158403    0.12643410
     atom   20 type  3   force =     0.00000000    0.06158403   -0.12643410
     The ionic contribution  to forces
     atom    1 type  1   force =    -0.00000000   -0.17808244    0.47281808
     atom    2 type  1   force =    -0.00000000    0.17808244   -0.47281808
     atom    3 type  1   force =     0.00000000   -0.17808244   -0.47281808
     atom    4 type  1   force =     0.00000000    0.17808244    0.47281808
     atom    5 type  2   force =     0.00000000   -3.01760070    1.94688604
     atom    6 type  2   force =     0.00000000    3.01760070   -1.94688604
     atom    7 type  2   force =     0.00000000   -3.01760070   -1.94688604
     atom    8 type  2   force =    -0.00000000    3.01760070    1.94688604
     atom    9 type  3   force =     0.00000000   -2.95348868   -6.62382182
     atom   10 type  3   force =    -0.00000000    2.95348868    6.62382182
     atom   11 type  3   force =     0.00000000   -2.95348868    6.62382182
     atom   12 type  3   force =    -0.00000000    2.95348868   -6.62382182
     atom   13 type  3   force =    -0.00000000   -4.74883256   -2.71613194
     atom   14 type  3   force =     0.00000000    4.74883256    2.71613194
     atom   15 type  3   force =    -0.00000000   -4.74883256    2.71613194
     atom   16 type  3   force =     0.00000000    4.74883256   -2.71613194
     atom   17 type  3   force =    -0.00000000    2.10512950    4.57997818
     atom   18 type  3   force =     0.00000000   -2.10512950   -4.57997818
     atom   19 type  3   force =     0.00000000    2.10512950   -4.57997818
     atom   20 type  3   force =    -0.00000000   -2.10512950    4.57997818
     The local contribution  to forces
     atom    1 type  1   force =    -0.00003088    0.18275854   -0.47117303
     atom    2 type  1   force =    -0.00001730   -0.18269603    0.47101597
     atom    3 type  1   force =    -0.00002195    0.18262145    0.47127699
     atom    4 type  1   force =     0.00002163   -0.18263078   -0.47109374
     atom    5 type  2   force =    -0.00000678    2.96244504   -1.86873208
     atom    6 type  2   force =    -0.00000518   -2.96255406    1.86825327
     atom    7 type  2   force =     0.00000942    2.96267851    1.86872724
     atom    8 type  2   force =    -0.00001005   -2.96272117   -1.86833266
     atom    9 type  3   force =     0.00001336    2.83034330    6.50150757
     atom   10 type  3   force =    -0.00003197   -2.83034079   -6.50189708
     atom   11 type  3   force =     0.00000330    2.83040464   -6.50170995
     atom   12 type  3   force =    -0.00000028   -2.83036893    6.50197071
     atom   13 type  3   force =     0.00002465    4.55490459    2.62538759
     atom   14 type  3   force =    -0.00003464   -4.55482761   -2.62573650
     atom   15 type  3   force =    -0.00002002    4.55511664   -2.62543676
     atom   16 type  3   force =     0.00003150   -4.55518363    2.62584758
     atom   17 type  3   force =     0.00000687   -2.04751364   -4.46076366
     atom   18 type  3   force =    -0.00000219    2.04754247    4.46091409
     atom   19 type  3   force =    -0.00000747   -2.04740756    4.46062044
     atom   20 type  3   force =     0.00001434    2.04732690   -4.46070226
     The core correction contribution to forces
     atom    1 type  1   force =    -0.00000068    0.00025046    0.00014313
     atom    2 type  1   force =    -0.00000041   -0.00025083   -0.00014304
     atom    3 type  1   force =    -0.00000041    0.00025166   -0.00014359
     atom    4 type  1   force =     0.00000041   -0.00025167    0.00014284
     atom    5 type  2   force =    -0.00000069   -0.00320646    0.00473958
     atom    6 type  2   force =    -0.00000029    0.00320539   -0.00473715
     atom    7 type  2   force =     0.00000015   -0.00320809   -0.00474212
     atom    8 type  2   force =    -0.00000007    0.00320736    0.00473931
     atom    9 type  3   force =     0.00000009   -0.00300484   -0.00320489
     atom   10 type  3   force =    -0.00000130    0.00300594    0.00320384
     atom   11 type  3   force =     0.00000033   -0.00300377    0.00320403
     atom   12 type  3   force =    -0.00000060    0.00300525   -0.00320457
     atom   13 type  3   force =     0.00000103   -0.00520118   -0.00225305
     atom   14 type  3   force =    -0.00000167    0.00520262    0.00225388
     atom   15 type  3   force =    -0.00000088   -0.00520078    0.00225187
     atom   16 type  3   force =     0.00000054    0.00519874   -0.00225052
     atom   17 type  3   force =     0.00000032    0.00163348    0.00334369
     atom   18 type  3   force =    -0.00000006   -0.00163343   -0.00334277
     atom   19 type  3   force =    -0.00000023    0.00163225   -0.00334318
     atom   20 type  3   force =     0.00000042   -0.00163340    0.00334316
     The Hubbard contrib.    to forces
     atom    1 type  1   force =     0.00000000    0.00000000    0.00000000
     atom    2 type  1   force =     0.00000000    0.00000000    0.00000000
     atom    3 type  1   force =     0.00000000    0.00000000    0.00000000
     atom    4 type  1   force =     0.00000000    0.00000000    0.00000000
     atom    5 type  2   force =     0.00000000    0.00000000    0.00000000
     atom    6 type  2   force =     0.00000000    0.00000000    0.00000000
     atom    7 type  2   force =     0.00000000    0.00000000    0.00000000
     atom    8 type  2   force =     0.00000000    0.00000000    0.00000000
     atom    9 type  3   force =     0.00000000    0.00000000    0.00000000
     atom   10 type  3   force =     0.00000000    0.00000000    0.00000000
     atom   11 type  3   force =     0.00000000    0.00000000    0.00000000
     atom   12 type  3   force =     0.00000000    0.00000000    0.00000000
     atom   13 type  3   force =     0.00000000    0.00000000    0.00000000
     atom   14 type  3   force =     0.00000000    0.00000000    0.00000000
     atom   15 type  3   force =     0.00000000    0.00000000    0.00000000
     atom   16 type  3   force =     0.00000000    0.00000000    0.00000000
     atom   17 type  3   force =     0.00000000    0.00000000    0.00000000
     atom   18 type  3   force =     0.00000000    0.00000000    0.00000000
     atom   19 type  3   force =     0.00000000    0.00000000    0.00000000
     atom   20 type  3   force =     0.00000000    0.00000000    0.00000000
     The SCF correction term to forces
     atom    1 type  1   force =     0.00002408   -0.00006281   -0.00001150
     atom    2 type  1   force =     0.00001500   -0.00001649    0.00017617
     atom    3 type  1   force =     0.00001942    0.00012882   -0.00013488
     atom    4 type  1   force =    -0.00001384   -0.00011693   -0.00009691
     atom    5 type  2   force =     0.00001964    0.00006207    0.00037358
     atom    6 type  2   force =     0.00000492    0.00006918    0.00025853
     atom    7 type  2   force =    -0.00001140   -0.00027126   -0.00039697
     atom    8 type  2   force =     0.00001263    0.00030884   -0.00013378
     atom    9 type  3   force =    -0.00000286   -0.00008447   -0.00003130
     atom   10 type  3   force =     0.00000820    0.00012387    0.00043519
     atom   11 type  3   force =    -0.00000399   -0.00014007    0.00021972
     atom   12 type  3   force =    -0.00000015    0.00013229   -0.00050183
     atom   13 type  3   force =    -0.00001097   -0.00023950    0.00007143
     atom   14 type  3   force =     0.00001007    0.00019181    0.00033255
     atom   15 type  3   force =     0.00001097   -0.00044814   -0.00004124
     atom   16 type  3   force =    -0.00001619    0.00047229   -0.00036286
     atom   17 type  3   force =    -0.00000433    0.00013554    0.00012283
     atom   18 type  3   force =     0.00000021   -0.00016359   -0.00027169
     atom   19 type  3   force =     0.00000691   -0.00000284    0.00003261
     atom   20 type  3   force =    -0.00000516    0.00007635    0.00006571

     Total force =     0.071029     Total SCF correction =     0.001455

     Computing stress (Cartesian axis) and pressure

     negative rho (up, down):  1.770E-01 0.000E+00
          total   stress  (Ry/bohr**3)                   (kbar)     P=      -11.60
   0.00034368   0.00000000   0.00000000           50.56        0.00        0.00
   0.00000000  -0.00022592   0.00000000            0.00      -33.23        0.00
   0.00000000   0.00000000  -0.00035427            0.00        0.00      -52.12

     kinetic stress (kbar)  10459.65      0.00      0.00
                                0.00  10252.00      0.00
                                0.00      0.00  10210.53

     local   stress (kbar)  -8271.43     -0.00     -0.00
                               -0.00  -4526.03     -0.00
                               -0.00     -0.00  -3077.17

     nonloc. stress (kbar)   2946.10      0.00      0.00
                                0.00   2880.76      0.00
                                0.00      0.00   2884.73

     hartree stress (kbar)   5139.11      0.00      0.00
                                0.00   3596.84      0.00
                                0.00      0.00   2815.81

     exc-cor stress (kbar)   3659.37      0.00     -0.00
                                0.00   3658.07     -0.00
                               -0.00     -0.00   3659.86

     corecor stress (kbar)  -6338.03     -0.00      0.00
                               -0.00  -6332.19      0.00
                                0.00      0.00  -6332.99

     ewald   stress (kbar)  -7544.20     -0.00     -0.00
                               -0.00  -9562.68      0.00
                               -0.00      0.00 -10212.88

     hubbard stress (kbar)      0.00      0.00      0.00
                                0.00      0.00      0.00
                                0.00      0.00      0.00

     DFT-D   stress (kbar)      0.00      0.00      0.00
                                0.00      0.00      0.00
                                0.00      0.00      0.00

     XDM     stress (kbar)      0.00      0.00      0.00
                                0.00      0.00      0.00
                                0.00      0.00      0.00

     dft-nl  stress (kbar)      0.00      0.00      0.00
                                0.00      0.00      0.00
                                0.00      0.00      0.00

     TS-vdW  stress (kbar)      0.00      0.00      0.00
                                0.00      0.00      0.00
                                0.00      0.00      0.00

[...]

                                0.00      0.00      0.00

     Writing all to output data dir new_calculations/myprefix.save/

     General routines

     Parallel routines

     PAW routines

   This run was terminated on:   8:16:41  20May2023

   JOB DONE.