     Program PWSCF v.7.0 starts on 21May2023 at  7: 7:20

     Reading input from espresso_10127.pwi
Warning: card &CELL ignored
Warning: card / ignored

     Current dimensions of program PWSCF are:
     Max number of different atomic species (ntypx) = 10
     Max number of k-points (npk) =  40000
     Max angular momentum in pseudopotentials (lmaxx) =  4
     file O.pbe-n-kjpaw_psl.0.1.UPF: wavefunction(s)  2P renormalized

     gamma-point specific algorithms are used
     Message from routine setup:
     using ibrav=0 with symmetry is DISCOURAGED, use correct ibrav instead

     Subspace diagonalization in iterative solution of the eigenvalue problem:
     a serial algorithm will be used

     Using Slab Decomposition

     bravais-lattice index     =            0
     lattice parameter (alat)  =       9.4083  a.u.
     unit-cell volume          =    1632.0821 (a.u.)^3
     number of atoms/cell      =           16
     number of atomic types    =            3
     number of electrons       =       120.00
     number of Kohn-Sham states=           72
     kinetic-energy cutoff     =      30.0000  Ry
     charge density cutoff     =     240.0000  Ry
     scf convergence threshold =      1.0E-06
     mixing beta               =       0.7000
     number of iterations used =            8  plain     mixing
     Exchange-correlation= SLA  PW   PBX  PBC
                           (   1   4   3   4   0   0   0)

     celldm(1)=   9.408329  celldm(2)=   0.000000  celldm(3)=   0.000000
     celldm(4)=   0.000000  celldm(5)=   0.000000  celldm(6)=   0.000000

     crystal axes: (cart. coord. in units of alat)
               a(1) = (   1.000000   0.000000   0.000000 )
               a(2) = (  -0.000016   1.051820   0.000000 )
               a(3) = (  -0.509304  -0.525976   1.863216 )

     reciprocal axes: (cart. coord. in units 2 pi/alat)
               b(1) = (  1.000000  0.000015  0.273351 )
               b(2) = (  0.000000  0.950733  0.268387 )
               b(3) = (  0.000000  0.000000  0.536707 )

     PseudoPot. # 1 for Li read from file:
     /home/pragov/projects/rrg-bengioy-ad/pragov/crystal_structure_design/SSSP/li_pbe_v1.4.uspp.F.UPF
     MD5 check sum: e912e257baa3777c20ea3d68f190483c
     Pseudo is Ultrasoft, Zval =  3.0
     Generated by new atomic code, or converted to UPF format
     Using radial grid of  751 points,  5 beta functions with:
                l(1) =   0
                l(2) =   0
                l(3) =   0
                l(4) =   1
                l(5) =   1
     Q(r) pseudized with 10 coefficients,  rinner =    1.150   1.150   1.150

     PseudoPot. # 2 for Bi read from file:
     /home/pragov/projects/rrg-bengioy-ad/pragov/crystal_structure_design/SSSP/Bi_pbe_v1.uspp.F.UPF
     MD5 check sum: cceb9f28ec65b6d7ff33140f5b0b1758
     Pseudo is Ultrasoft + core correction, Zval = 15.0
     Generated by new atomic code, or converted to UPF format
     Using radial grid of  899 points,  6 beta functions with:
                l(1) =   0
                l(2) =   0
                l(3) =   1
                l(4) =   1
                l(5) =   2
                l(6) =   2
     Q(r) pseudized with  6 coefficients,  rinner =    1.000   1.000   1.000
                                                       1.000   1.000

     PseudoPot. # 3 for O  read from file:
     /home/pragov/projects/rrg-bengioy-ad/pragov/crystal_structure_design/SSSP/O.pbe-n-kjpaw_psl.0.1.UPF
     MD5 check sum: 0234752ac141de4415c5fc33072bef88
     Pseudo is Projector augmented-wave + core cor, Zval =  6.0
     Generated using "atomic" code by A. Dal Corso  v.5.0.99 svn rev. 10869
     Shape of augmentation charge: BESSEL
     Using radial grid of 1095 points,  4 beta functions with:
                l(1) =   0
                l(2) =   0
                l(3) =   1
                l(4) =   1
     Q(r) pseudized with 0 coefficients

     atomic species   valence    mass     pseudopotential
        Li             3.00     6.94000     Li( 1.00)
        Bi            15.00   208.98040     Bi( 1.00)
        O              6.00    15.99900     O ( 1.00)

      2 Sym. Ops., with inversion, found

                                    s                        frac. trans.

      isym =  1     identity

 cryst.   s( 1) = (     1          0          0      )
                  (     0          1          0      )
                  (     0          0          1      )

 cart.    s( 1) = (  1.0000000  0.0000000 -0.0000000 )
                  (  0.0000000  1.0000000 -0.0000000 )
                  (  0.0000000  0.0000000  1.0000000 )

      isym =  2     inversion

 cryst.   s( 2) = (    -1          0          0      )
                  (     0         -1          0      )
                  (     0          0         -1      )

 cart.    s( 2) = ( -1.0000000 -0.0000000  0.0000000 )
                  (  0.0000000 -1.0000000  0.0000000 )
                  (  0.0000000  0.0000000 -1.0000000 )

   Cartesian axes

     site n.     atom                  positions (alat units)
         1           Li  tau(   1) = (   0.7451090   0.0005798   0.9303240  )
         2           Li  tau(   2) = (   0.2455749   0.5264901   0.9328971  )
         3           Li  tau(   3) = (  -0.2544286   0.5252642   0.9328915  )
         4           Li  tau(   4) = (   0.2451056  -0.0006461   0.9303184  )
         5           Bi  tau(   5) = (  -0.0072322   0.2524716   0.3383506  )
         6           Bi  tau(   6) = (   0.4979127   0.2733724   1.5248649  )
         7           Bi  tau(   7) = (  -0.0020738  -0.2734735   1.5248705  )
         8           Bi  tau(   8) = (   0.4927542   0.7993175   0.3383450  )
         9           O   tau(   9) = (  -0.0038515   0.2634925   0.7559755  )
        10           O   tau(  10) = (   0.4945320   0.2623515   1.1072400  )
        11           O   tau(  11) = (  -0.0054588  -0.2624272   1.1072456  )
        12           O   tau(  12) = (   0.4961392   0.7882712   0.7559699  )
        13           O   tau(  13) = (   0.0565154   0.8744034   0.3043656  )
        14           O   tau(  14) = (   0.4341650  -0.3485594   1.5588499  )
        15           O   tau(  15) = (  -0.0658528   0.3484580   1.5588443  )
        16           O   tau(  16) = (   0.5565332   0.1773860   0.3043712  )

   Crystallographic axes

     site n.     atom                  positions (cryst. coord.)
         1           Li  tau(   1) = (  0.9994140  0.2502380  0.4993110  )
         2           Li  tau(   2) = (  0.5005910  0.7509290  0.5006920  )
         3           Li  tau(   3) = (  0.0005860  0.7497620  0.5006890  )
         4           Li  tau(   4) = (  0.4994090  0.2490710  0.4993080  )
         5           Bi  tau(   5) = (  0.0852600  0.3308420  0.1815950  )
         6           Bi  tau(   6) = (  0.9147400  0.6691580  0.8184050  )
         7           Bi  tau(   7) = (  0.4147470  0.1492550  0.8184080  )
         8           Bi  tau(   8) = (  0.5852530  0.8507450  0.1815920  )
         9           O   tau(   9) = (  0.2027990  0.4534050  0.4057370  )
        10           O   tau(  10) = (  0.7972010  0.5465950  0.5942630  )
        11           O   tau(  11) = (  0.2972040  0.0476720  0.5942660  )
        12           O   tau(  12) = (  0.7027960  0.9523280  0.4057340  )
        13           O   tau(  13) = (  0.1397270  0.9130120  0.1633550  )
        14           O   tau(  14) = (  0.8602730  0.0869880  0.8366450  )
        15           O   tau(  15) = (  0.3602640  0.7496640  0.8366420  )
        16           O   tau(  16) = (  0.6397360  0.2503360  0.1633580  )

     number of k points=     1  Methfessel-Paxton smearing, width (Ry)=  0.0010
                       cart. coord. in units 2pi/alat
        k(    1) = (   0.0000000   0.0000000   0.0000000), wk =   2.0000000

                       cryst. coord.
        k(    1) = (   0.0000000   0.0000000   0.0000000), wk =   2.0000000

     Check: negative core charge=   -0.000011

     Initial potential from superposition of free atoms

     starting charge     114.1969, renormalised to     120.0000

     negative rho (up, down):  1.741E-01 0.000E+00
     Starting wfcs are   88 randomized atomic wfcs
     Checking if some PAW data can be deallocated...

     Self-consistent Calculation

     iteration #  1     ecut=    30.00 Ry     beta= 0.70
     Davidson diagonalization with overlap

     ethr =  1.00E-02,  avg # of iterations =  3.0

     negative rho (up, down):  1.540E-01 0.000E+00

     total energy              =   -1130.62259853 Ry
     estimated scf accuracy    <       4.85922206 Ry

[...]

     total energy              =   -1132.94182292 Ry
     estimated scf accuracy    <       0.00000218 Ry

     iteration # 14     ecut=    30.00 Ry     beta= 0.70
     Davidson diagonalization with overlap

     ethr =  1.82E-09,  avg # of iterations =  2.0

[...]

     End of self-consistent calculation

          k = 0.0000 0.0000 0.0000 (  2260 PWs)   bands (ev):

   -36.0502 -36.0105 -35.9902 -35.9570 -15.9957 -15.9927 -15.8307 -15.8142
   -15.7221 -15.7209 -15.6508 -15.6496 -15.6319 -15.6296 -15.5698 -15.5649
   -15.5507 -15.5449 -15.5396 -15.5351 -15.5099 -15.5086 -15.5079 -15.4967
   -11.8913 -11.6954 -10.3707 -10.3687  -9.5357  -9.4813  -9.4758  -9.2077
    -2.6269  -2.5925  -2.0056  -1.8071   1.3923   1.4019   1.6889   1.7105
     2.3126   3.2567   3.4159   3.5223   3.5500   3.9030   4.1466   4.3172
     4.7822   4.9402   5.0251   5.0327   5.0855   5.1715   5.3203   5.4173
     5.4437   5.6186   6.0533   6.1843  10.3387  10.4811  10.8485  11.0530
    11.4254  11.7524  11.9521  12.1000  12.6876  13.0862  13.2561  13.3485

     occupation numbers
     1.0000   1.0000   1.0000   1.0000   1.0000   1.0000   1.0000   1.0000
     1.0000   1.0000   1.0000   1.0000   1.0000   1.0000   1.0000   1.0000
     1.0000   1.0000   1.0000   1.0000   1.0000   1.0000   1.0000   1.0000
     1.0000   1.0000   1.0000   1.0000   1.0000   1.0000   1.0000   1.0000
     1.0000   1.0000   1.0000   1.0000   1.0000   1.0000   1.0000   1.0000
     1.0000   1.0000   1.0000   1.0000   1.0000   1.0000   1.0000   1.0000
     1.0000   1.0000   1.0000   1.0000   1.0000   1.0000   1.0000   1.0000
     1.0000   1.0000   1.0000   1.0000  -0.0000  -0.0000  -0.0000  -0.0000
    -0.0000  -0.0000  -0.0000  -0.0000  -0.0000  -0.0000  -0.0000  -0.0000

     the Fermi energy is     7.2757 ev

!    total energy              =   -1132.94182263 Ry
     estimated scf accuracy    <       0.00000080 Ry
     smearing contrib. (-TS)   =       0.00000000 Ry
     internal energy E=F+TS    =   -1132.94182263 Ry

     The total energy is F=E-TS. E is the sum of the following terms:
     one-electron contribution =    -350.26318969 Ry
     hartree contribution      =     240.99290745 Ry
     xc contribution           =    -331.84077209 Ry
     ewald contribution        =    -615.56506570 Ry
     one-center paw contrib.   =     -76.26570260 Ry
      -> PAW hartree energy AE =     230.03099344 Ry
      -> PAW hartree energy PS =    -229.27336617 Ry
      -> PAW xc energy AE      =    -136.28796673 Ry
      -> PAW xc energy PS      =      59.26463686 Ry
      -> total E_H with PAW    =     241.75053471 Ry
      -> total E_XC with PAW   =    -408.86410196 Ry

     convergence has been achieved in  14 iterations

     negative rho (up, down):  1.662E-01 0.000E+00

     Forces acting on atoms (cartesian axes, Ry/au):

     atom    1 type  1   force =    -0.00009730   -0.00014250    0.00000258
     atom    2 type  1   force =     0.00009907   -0.00013258   -0.00001012
     atom    3 type  1   force =     0.00009730    0.00014250   -0.00000258
     atom    4 type  1   force =    -0.00009907    0.00013258    0.00001012
     atom    5 type  2   force =     0.06022156    0.00197195    0.01531569
     atom    6 type  2   force =    -0.06022156   -0.00197195   -0.01531569
     atom    7 type  2   force =    -0.06009876    0.00210750   -0.01520322
     atom    8 type  2   force =     0.06009876   -0.00210750    0.01520322
     atom    9 type  3   force =    -0.00218980   -0.00069293    0.00036347
     atom   10 type  3   force =     0.00218980    0.00069293   -0.00036347
     atom   11 type  3   force =     0.00219096   -0.00068809   -0.00038036
     atom   12 type  3   force =    -0.00219096    0.00068809    0.00038036
     atom   13 type  3   force =    -0.05710786   -0.11378334    0.00264574
     atom   14 type  3   force =     0.05710786    0.11378334   -0.00264574
     atom   15 type  3   force =     0.05713545   -0.11377426   -0.00264498
     atom   16 type  3   force =    -0.05713545    0.11377426    0.00264498
     The non-local contrib.  to forces
     atom    1 type  1   force =    -0.00056532   -0.00041157   -0.00284342
     atom    2 type  1   force =     0.00059217   -0.00037166    0.00284702
     atom    3 type  1   force =     0.00056532    0.00041157    0.00284342
     atom    4 type  1   force =    -0.00059217    0.00037166   -0.00284702
     atom    5 type  2   force =    -0.20572581   -0.25695809    0.32706122
     atom    6 type  2   force =     0.20572581    0.25695809   -0.32706122
     atom    7 type  2   force =     0.20582976   -0.25681522   -0.32699899
     atom    8 type  2   force =    -0.20582976    0.25681522    0.32699899
     atom    9 type  3   force =    -0.02284139   -0.02282444   -0.64372725
     atom   10 type  3   force =     0.02284139    0.02282444    0.64372725
     atom   11 type  3   force =     0.02283892   -0.02288357    0.64359605
     atom   12 type  3   force =    -0.02283892    0.02288357   -0.64359605
     atom   13 type  3   force =     0.40426294    0.58687979    0.07278106
     atom   14 type  3   force =    -0.40426294   -0.58687979   -0.07278106
     atom   15 type  3   force =    -0.40425107    0.58682915   -0.07277615
     atom   16 type  3   force =     0.40425107   -0.58682915    0.07277615
     The ionic contribution  to forces
     atom    1 type  1   force =     0.00460274   -0.03616181    0.31916895
     atom    2 type  1   force =    -0.00434616   -0.03593380   -0.31905632
     atom    3 type  1   force =    -0.00460274    0.03616181   -0.31916895
     atom    4 type  1   force =     0.00434616    0.03593380    0.31905632
     atom    5 type  2   force =     2.83171327    8.93614144   -3.35451775
     atom    6 type  2   force =    -2.83171327   -8.93614144    3.35451775
     atom    7 type  2   force =    -2.83156653    8.93580405    3.35490291
     atom    8 type  2   force =     2.83156653   -8.93580405   -3.35490291
     atom    9 type  3   force =     0.20053126    0.83266424    5.75431616
     atom   10 type  3   force =    -0.20053126   -0.83266424   -5.75431616
     atom   11 type  3   force =    -0.20066805    0.83318913   -5.75426296
     atom   12 type  3   force =     0.20066805   -0.83318913    5.75426296
     atom   13 type  3   force =    -2.87280820   -5.28345881   -0.07961873
     atom   14 type  3   force =     2.87280820    5.28345881    0.07961873
     atom   15 type  3   force =     2.87305662   -5.28334048    0.07942615
     atom   16 type  3   force =    -2.87305662    5.28334048   -0.07942615
     The local contribution  to forces
     atom    1 type  1   force =    -0.00415277    0.03638611   -0.31634391
     atom    2 type  1   force =     0.00386319    0.03621769    0.31620634
     atom    3 type  1   force =     0.00412820   -0.03638926    0.31633471
     atom    4 type  1   force =    -0.00384196   -0.03621659   -0.31621795
     atom    5 type  2   force =    -2.57755048   -8.68090283    3.05571027
     atom    6 type  2   force =     2.57754372    8.68071510   -3.05572369
     atom    7 type  2   force =     2.57714685   -8.68065702   -3.05616695
     atom    8 type  2   force =    -2.57726769    8.68074596    3.05626573
     atom    9 type  3   force =    -0.18017291   -0.81076600   -5.11614081
     atom   10 type  3   force =     0.18016943    0.81079722    5.11611870
     atom   11 type  3   force =     0.18029144   -0.81126268    5.11616675
     atom   12 type  3   force =    -0.18029449    0.81125276   -5.11626759
     atom   13 type  3   force =     2.41547899    4.58917248    0.01091918
     atom   14 type  3   force =    -2.41543679   -4.58910423   -0.01092789
     atom   15 type  3   force =    -2.41567925    4.58909542   -0.01074542
     atom   16 type  3   force =     2.41569702   -4.58908695    0.01073745
     The core correction contribution to forces
     atom    1 type  1   force =     0.00000000    0.00000000    0.00000000
     atom    2 type  1   force =     0.00000000    0.00000000    0.00000000
     atom    3 type  1   force =     0.00000000    0.00000000    0.00000000
     atom    4 type  1   force =     0.00000000    0.00000000    0.00000000
     atom    5 type  2   force =     0.01173725    0.00348881   -0.01163410
     atom    6 type  2   force =    -0.01173609   -0.00348804    0.01163791
     atom    7 type  2   force =    -0.01173563    0.00348706    0.01163772
     atom    8 type  2   force =     0.01173607   -0.00348918   -0.01163436
     atom    9 type  3   force =     0.00027570    0.00021647    0.00664014
     atom   10 type  3   force =    -0.00027571   -0.00021627   -0.00663907
     atom   11 type  3   force =    -0.00027509    0.00021872   -0.00663777
     atom   12 type  3   force =     0.00027520   -0.00021896    0.00663752
     atom   13 type  3   force =    -0.00405935   -0.00624805   -0.00080639
     atom   14 type  3   force =     0.00405991    0.00624885    0.00080606
     atom   15 type  3   force =     0.00405947   -0.00624992    0.00080621
     atom   16 type  3   force =    -0.00405941    0.00625018   -0.00080646
     The Hubbard contrib.    to forces
     atom    1 type  1   force =     0.00000000    0.00000000    0.00000000
     atom    2 type  1   force =     0.00000000    0.00000000    0.00000000
     atom    3 type  1   force =     0.00000000    0.00000000    0.00000000
     atom    4 type  1   force =     0.00000000    0.00000000    0.00000000
     atom    5 type  2   force =     0.00000000    0.00000000    0.00000000
     atom    6 type  2   force =     0.00000000    0.00000000    0.00000000
     atom    7 type  2   force =     0.00000000    0.00000000    0.00000000
     atom    8 type  2   force =     0.00000000    0.00000000    0.00000000
     atom    9 type  3   force =     0.00000000    0.00000000    0.00000000
     atom   10 type  3   force =     0.00000000    0.00000000    0.00000000
     atom   11 type  3   force =     0.00000000    0.00000000    0.00000000
     atom   12 type  3   force =     0.00000000    0.00000000    0.00000000
     atom   13 type  3   force =     0.00000000    0.00000000    0.00000000
     atom   14 type  3   force =     0.00000000    0.00000000    0.00000000
     atom   15 type  3   force =     0.00000000    0.00000000    0.00000000
     atom   16 type  3   force =     0.00000000    0.00000000    0.00000000
     The SCF correction term to forces
     atom    1 type  1   force =     0.00002104    0.00004449    0.00001911
     atom    2 type  1   force =    -0.00001095   -0.00004267   -0.00000389
     atom    3 type  1   force =     0.00000952   -0.00004191   -0.00001361
     atom    4 type  1   force =    -0.00001190    0.00004585    0.00002201
     atom    5 type  2   force =     0.00004125    0.00021081   -0.00128589
     atom    6 type  2   force =    -0.00004783   -0.00000748    0.00133164
     atom    7 type  2   force =     0.00023942    0.00028550    0.00142892
     atom    8 type  2   force =    -0.00009378   -0.00037857   -0.00151740
     atom    9 type  3   force =     0.00001630    0.00002791   -0.00068948
     atom   10 type  3   force =    -0.00001530   -0.00003711    0.00078112
     atom   11 type  3   force =     0.00000730    0.00004627    0.00076318
     atom   12 type  3   force =     0.00000276   -0.00004418   -0.00065087
     atom   13 type  3   force =     0.00003411   -0.00010444   -0.00064200
     atom   14 type  3   force =    -0.00004417    0.00008401    0.00062580
     atom   15 type  3   force =    -0.00004538   -0.00011175    0.00063835
     atom   16 type  3   force =     0.00003743    0.00009637   -0.00064189

     Total force =     0.283388     Total SCF correction =     0.003448

     Computing stress (Cartesian axis) and pressure

     negative rho (up, down):  1.662E-01 0.000E+00
          total   stress  (Ry/bohr**3)                   (kbar)     P=     -295.32
  -0.00210564   0.00000003   0.00003506         -309.75        0.00        5.16
   0.00000003  -0.00216724   0.00000026            0.00     -318.81        0.04
   0.00003506   0.00000026  -0.00174984            5.16        0.04     -257.41

     kinetic stress (kbar)  12292.57      0.01    -20.71
                                0.01  12249.58      0.03
                              -20.71      0.03  12422.45

     local   stress (kbar) -10061.78     -0.24  -1162.54
                               -0.24  -6820.87      0.20
                            -1162.54      0.20  -1698.21

     nonloc. stress (kbar)  10403.19      0.00     -3.24
                                0.00  10405.84      0.00
                               -3.24      0.00  10538.34

     hartree stress (kbar)   8907.91      0.10    448.33
                                0.10   7393.92     -0.08
                              448.33     -0.08   5419.68

     exc-cor stress (kbar)  11915.52     -0.00      0.63
                               -0.00  11915.32     -0.00
                                0.63     -0.00  11911.92

     corecor stress (kbar) -17530.60     -0.00      0.32
                               -0.00 -17530.98      0.00
                                0.32      0.00 -17536.80

     ewald   stress (kbar) -16236.55      0.13    742.36
                                0.13 -17931.62     -0.12
                              742.36     -0.12 -21314.79

     hubbard stress (kbar)      0.00      0.00      0.00
                                0.00      0.00      0.00
                                0.00      0.00      0.00

     DFT-D   stress (kbar)      0.00      0.00      0.00
                                0.00      0.00      0.00
                                0.00      0.00      0.00

     XDM     stress (kbar)      0.00      0.00      0.00
                                0.00      0.00      0.00
                                0.00      0.00      0.00

     dft-nl  stress (kbar)      0.00      0.00      0.00
                                0.00      0.00      0.00
                                0.00      0.00      0.00

     TS-vdW  stress (kbar)      0.00      0.00      0.00
                                0.00      0.00      0.00
                                0.00      0.00      0.00

[...]

                                0.00      0.00      0.00

     Writing all to output data dir new_calculations/myprefix.save/

     General routines

     Parallel routines

     PAW routines

   This run was terminated on:   7: 7:42  21May2023

   JOB DONE.