     Program PWSCF v.7.0 starts on 20May2023 at 22: 0:51

     Reading input from espresso_865.pwi
Warning: card &CELL ignored
Warning: card / ignored

     Current dimensions of program PWSCF are:
     Max number of different atomic species (ntypx) = 10
     Max number of k-points (npk) =  40000
     Max angular momentum in pseudopotentials (lmaxx) =  4

     gamma-point specific algorithms are used
     Message from routine setup:
     using ibrav=0 with symmetry is DISCOURAGED, use correct ibrav instead

     Subspace diagonalization in iterative solution of the eigenvalue problem:
     a serial algorithm will be used

     Using Slab Decomposition

     bravais-lattice index     =            0
     lattice parameter (alat)  =      11.2343  a.u.
     unit-cell volume          =     663.9585 (a.u.)^3
     number of atoms/cell      =            4
     number of atomic types    =            3
     number of electrons       =        55.00
     number of Kohn-Sham states=           34
     kinetic-energy cutoff     =      30.0000  Ry
     charge density cutoff     =     240.0000  Ry
     scf convergence threshold =      1.0E-06
     mixing beta               =       0.7000
     number of iterations used =            8  plain     mixing
     Exchange-correlation=  SLA  PW   PBX  PBC
                           (   1   4   3   4   0   0   0)

     celldm(1)=  11.234305  celldm(2)=   0.000000  celldm(3)=   0.000000
     celldm(4)=   0.000000  celldm(5)=   0.000000  celldm(6)=   0.000000

     crystal axes: (cart. coord. in units of alat)
               a(1) = (   1.000000   0.000000   0.000000 )
               a(2) = (  -0.785126   0.619335   0.000000 )
               a(3) = (   0.000000   0.000000   0.756095 )

     reciprocal axes: (cart. coord. in units 2 pi/alat)
               b(1) = (  1.000000  1.267692  0.000000 )
               b(2) = (  0.000000  1.614634  0.000000 )
               b(3) = (  0.000000  0.000000  1.322585 )

     PseudoPot. # 1 for La read from file:
     /home/pragov/projects/rrg-bengioy-ad/pragov/crystal_structure_design/SSSP/La.GGA-PBE-paw-v1.0.UPF
     MD5 check sum: 436541e95c1ad8901025bd0b0ed42ae2
     Pseudo is Projector augmented-wave + core cor, Zval = 11.0
     Generated using ATOMPAW code
     Shape of augmentation charge: BESSEL
     Using radial grid of 1101 points,  8 beta functions with:
                l(1) =   0
                l(2) =   0
                l(3) =   1
                l(4) =   1
                l(5) =   2
                l(6) =   2
                l(7) =   3
                l(8) =   3
     Q(r) pseudized with 0 coefficients

     PseudoPot. # 2 for Ce read from file:
     /home/pragov/projects/rrg-bengioy-ad/pragov/crystal_structure_design/SSSP/Ce.GGA-PBE-paw-v1.0.UPF
     MD5 check sum: f2b950f613061344c13339c8d844425d
     Pseudo is Projector augmented-wave + core cor, Zval = 12.0
     Generated using ATOMPAW code
     Shape of augmentation charge: BESSEL
     Using radial grid of 1102 points,  8 beta functions with:
                l(1) =   0
                l(2) =   0
                l(3) =   1
                l(4) =   1
                l(5) =   2
                l(6) =   2
                l(7) =   3
                l(8) =   3
     Q(r) pseudized with 0 coefficients

     PseudoPot. # 3 for Pt read from file:
     /home/pragov/projects/rrg-bengioy-ad/pragov/crystal_structure_design/SSSP/pt_pbe_v1.4.uspp.F.UPF
     MD5 check sum: f09d6de1a584b5a045c4fc126da2d0c4
     Pseudo is Ultrasoft + core correction, Zval = 16.0
     Generated by new atomic code, or converted to UPF format
     Using radial grid of  985 points,  6 beta functions with:
                l(1) =   0
                l(2) =   0
                l(3) =   1
                l(4) =   1
                l(5) =   2
                l(6) =   2
     Q(r) pseudized with  8 coefficients,  rinner =    1.300   1.300   1.300
                                                       1.300   1.300

     atomic species   valence    mass     pseudopotential
        La            11.00   138.90547     La( 1.00)
        Ce            12.00   140.11600     Ce( 1.00)
        Pt            16.00   195.08400     Pt( 1.00)

      2 Sym. Ops. (no inversion) found

                                    s                        frac. trans.

      isym =  1     identity

 cryst.   s( 1) = (     1          0          0      )
                  (     0          1          0      )
                  (     0          0          1      )

 cart.    s( 1) = (  1.0000000 -0.0000000  0.0000000 )
                  (  0.0000000  1.0000000  0.0000000 )
                  (  0.0000000  0.0000000  1.0000000 )

      isym =  2     inv. 180 deg rotation - cart. axis [0,0,1]

 cryst.   s( 2) = (     1          0          0      )
                  (     0          1          0      )
                  (     0          0         -1      )

 cart.    s( 2) = (  1.0000000 -0.0000000  0.0000000 )
                  (  0.0000000  1.0000000  0.0000000 )
                  (  0.0000000  0.0000000 -1.0000000 )

   Cartesian axes

     site n.     atom                  positions (alat units)
         1           La  tau(   1) = (   0.7546808   0.0851116   0.3780475  )
         2           Ce  tau(   2) = (  -0.5475493   0.5369100   0.0000000  )
         3           Pt  tau(   3) = (  -0.0551186   0.3660650   0.0000000  )
         4           Pt  tau(   4) = (   0.2777360   0.2505838   0.3780475  )

   Crystallographic axes

     site n.     atom                  positions (cryst. coord.)
         1           La  tau(   1) = (  0.8625760  0.1374240  0.5000000  )
         2           Ce  tau(   2) = (  0.1330870  0.8669130  0.0000000  )
         3           Pt  tau(   3) = (  0.4089390  0.5910610  0.0000000  )
         4           Pt  tau(   4) = (  0.5953990  0.4046010  0.5000000  )

     number of k points=     1  Methfessel-Paxton smearing, width (Ry)=  0.0010
                       cart. coord. in units 2pi/alat
        k(    1) = (   0.0000000   0.0000000   0.0000000), wk =   2.0000000

                       cryst. coord.
        k(    1) = (   0.0000000   0.0000000   0.0000000), wk =   2.0000000

     Initial potential from superposition of free atoms

     starting charge      53.9845, renormalised to      55.0000

     negative rho (up, down):  3.705E-01 0.000E+00
     Starting wfcs are   88 randomized atomic wfcs
     Checking if some PAW data can be deallocated...

     Self-consistent Calculation

     iteration #  1     ecut=    30.00 Ry     beta= 0.70
     Davidson diagonalization with overlap

     ethr =  1.00E-02,  avg # of iterations =  2.0

     negative rho (up, down):  3.250E-01 0.000E+00

     total energy              =   -1355.61804953 Ry
     estimated scf accuracy    <       8.49706107 Ry

[...]

     total energy              =   -1362.28549307 Ry
     estimated scf accuracy    <       0.00000738 Ry

     iteration # 77     ecut=    30.00 Ry     beta= 0.70
     Davidson diagonalization with overlap

     ethr =  4.58E-09,  avg # of iterations =  1.0

[...]

     End of self-consistent calculation

          k = 0.0000 0.0000 0.0000 (   926 PWs)   bands (ev):

   -38.0814 -37.9540 -37.8827 -37.7729 -37.5172 -37.3441 -18.6522 -16.9052
    -1.7684  -1.6568  -1.4449  -0.7310  -0.5604  -0.4670   9.0986  10.2932
    10.6211  10.6703  10.8271  10.8542  11.4955  11.7609  12.3843  12.5869
    12.9067  12.9981  16.5189  16.5274  16.5335  16.6071  16.9374  16.9885
    17.0860  17.2039

     occupation numbers
     1.0000   1.0000   1.0000   1.0000   1.0000   1.0000   1.0000   1.0000
     1.0000   1.0000   1.0000   1.0000   1.0000   1.0000   1.0000   1.0000
     1.0000   1.0000   1.0000   1.0000   1.0000   1.0000   1.0000   1.0000
     1.0000   1.0000   0.9097   0.4607   0.1296  -0.0000  -0.0000  -0.0000
    -0.0000  -0.0000

     the Fermi energy is    16.5267 ev

!    total energy              =   -1362.28549280 Ry
     estimated scf accuracy    <       0.00000052 Ry
     smearing contrib. (-TS)   =      -0.00045700 Ry
     internal energy E=F+TS    =   -1362.28503580 Ry

     The total energy is F=E-TS. E is the sum of the following terms:
     one-electron contribution =    -127.29407710 Ry
     hartree contribution      =     100.41665256 Ry
     xc contribution           =    -132.91144122 Ry
     ewald contribution        =    -395.89097996 Ry
     one-center paw contrib.   =    -806.60519007 Ry
      -> PAW hartree energy AE =      80.28483387 Ry
      -> PAW hartree energy PS =     -80.03723587 Ry
      -> PAW xc energy AE      =    -822.86443879 Ry
      -> PAW xc energy PS      =      16.01165072 Ry
      -> total E_H with PAW    =     100.66425056 Ry
      -> total E_XC with PAW   =    -939.76422929 Ry

     convergence has been achieved in  77 iterations

     negative rho (up, down):  3.413E-01 0.000E+00

     Forces acting on atoms (cartesian axes, Ry/au):

     atom    1 type  1   force =     0.02136541   -0.00740014    0.00000000
     atom    2 type  2   force =    -0.02787722    0.00967369    0.00000000
     atom    3 type  3   force =    -0.09185881    0.03188543    0.00000000
     atom    4 type  3   force =     0.09837062   -0.03415898    0.00000000
     The non-local contrib.  to forces
     atom    1 type  1   force =     0.08945464   -0.03102512    0.00000000
     atom    2 type  2   force =    -0.27617648    0.09570715    0.00000000
     atom    3 type  3   force =     0.02333340   -0.00810500    0.00000000
     atom    4 type  3   force =    -0.02080365    0.00720297    0.00000000
     The ionic contribution  to forces
     atom    1 type  1   force =    -4.30112669    1.49224180   -0.00000000
     atom    2 type  2   force =     5.50768096   -1.91084624   -0.00000000
     atom    3 type  3   force =    -7.71975830    2.67830893    0.00000000
     atom    4 type  3   force =     6.51320403   -2.25970450   -0.00000000
     The local contribution  to forces
     atom    1 type  1   force =     4.23314896   -1.46867838   -0.00006189
     atom    2 type  2   force =    -5.25936590    1.82484864    0.00002125
     atom    3 type  3   force =     7.60291720   -2.63776152    0.00001659
     atom    4 type  3   force =    -6.39307461    2.21800554    0.00002433
     The core correction contribution to forces
     atom    1 type  1   force =     0.00009979   -0.00003462   -0.00000001
     atom    2 type  2   force =    -0.00002252    0.00000792   -0.00000001
     atom    3 type  3   force =     0.00194024   -0.00066980   -0.00000462
     atom    4 type  3   force =    -0.00147673    0.00050727    0.00000150
     The Hubbard contrib.    to forces
     atom    1 type  1   force =     0.00000000    0.00000000    0.00000000
     atom    2 type  2   force =     0.00000000    0.00000000    0.00000000
     atom    3 type  3   force =     0.00000000    0.00000000    0.00000000
     atom    4 type  3   force =     0.00000000    0.00000000    0.00000000
     The SCF correction term to forces
     atom    1 type  1   force =    -0.00019018    0.00007687    0.00005393
     atom    2 type  2   force =     0.00002783   -0.00006308   -0.00002317
     atom    3 type  3   force =    -0.00027024    0.00009350   -0.00001688
     atom    4 type  3   force =     0.00054271   -0.00018958   -0.00002244

     Total force =     0.147242     Total SCF correction =     0.000681

     Computing stress (Cartesian axis) and pressure

     negative rho (up, down):  3.413E-01 0.000E+00
          total   stress  (Ry/bohr**3)                   (kbar)     P=     -112.37
   0.00058762  -0.00057941   0.00000000           86.44      -85.23        0.00
  -0.00057941  -0.00088138   0.00000000          -85.23     -129.66        0.00
   0.00000000   0.00000000  -0.00199779            0.00        0.00     -293.88

     kinetic stress (kbar)  22890.99   -145.65      0.00
                             -145.65  22521.54      0.00
                                0.00      0.00  22020.26

     local   stress (kbar)   2607.57   -418.18      0.02
                             -418.18   1547.60     -0.00
                                0.02     -0.00  -4887.47

     nonloc. stress (kbar)   5784.21   -191.91      0.00
                             -191.91   5297.54      0.00
                                0.00      0.00   5360.02

     hartree stress (kbar)   6077.25    272.16     -0.04
                              272.16   6767.30      0.01
                               -0.04      0.01   9403.53

     exc-cor stress (kbar)  11099.36      0.11     -0.00
                                0.11  11099.64      0.00
                               -0.00      0.00  11101.61

     corecor stress (kbar) -17123.14      8.02      0.00
                                8.02 -17102.80      0.00
                                0.00      0.00 -17089.42

     ewald   stress (kbar) -31249.80    390.21     -0.00
                              390.21 -30260.47     -0.00
                               -0.00     -0.00 -26202.40

     hubbard stress (kbar)      0.00      0.00      0.00
                                0.00      0.00      0.00
                                0.00      0.00      0.00

     DFT-D   stress (kbar)      0.00      0.00      0.00
                                0.00      0.00      0.00
                                0.00      0.00      0.00

     XDM     stress (kbar)      0.00      0.00      0.00
                                0.00      0.00      0.00
                                0.00      0.00      0.00

     dft-nl  stress (kbar)      0.00      0.00      0.00
                                0.00      0.00      0.00
                                0.00      0.00      0.00

     TS-vdW  stress (kbar)      0.00      0.00      0.00
                                0.00      0.00      0.00
                                0.00      0.00      0.00

[...]

                                0.00      0.00      0.00

     Writing all to output data dir new_calculations/myprefix.save/

     General routines

     Parallel routines

     PAW routines

   This run was terminated on:  22: 2:25  20May2023

   JOB DONE.