     Program PWSCF v.7.0 starts on 20May2023 at  4:26:24

     Reading input from espresso_16034.pwi
Warning: card &CELL ignored
Warning: card / ignored

     Current dimensions of program PWSCF are:
     Max number of different atomic species (ntypx) = 10
     Max number of k-points (npk) =  40000
     Max angular momentum in pseudopotentials (lmaxx) =  4
     file Pb.pbe-dn-kjpaw_psl.0.2.2.UPF: wavefunction(s)  6S renormalized

     gamma-point specific algorithms are used
     Message from routine setup:
     using ibrav=0 with symmetry is DISCOURAGED, use correct ibrav instead

     Subspace diagonalization in iterative solution of the eigenvalue problem:
     a serial algorithm will be used

     Using Slab Decomposition

     bravais-lattice index     =            0
     lattice parameter (alat)  =       8.7374  a.u.
     unit-cell volume          =     902.3217 (a.u.)^3
     number of atoms/cell      =            6
     number of atomic types    =            3
     number of electrons       =       110.00
     number of Kohn-Sham states=           66
     kinetic-energy cutoff     =      30.0000  Ry
     charge density cutoff     =     240.0000  Ry
     scf convergence threshold =      1.0E-06
     mixing beta               =       0.7000
     number of iterations used =            8  plain     mixing
     Exchange-correlation= SLA  PW   PBX  PBC
                           (   1   4   3   4   0   0   0)

     celldm(1)=   8.737427  celldm(2)=   0.000000  celldm(3)=   0.000000
     celldm(4)=   0.000000  celldm(5)=   0.000000  celldm(6)=   0.000000

     crystal axes: (cart. coord. in units of alat)
               a(1) = (   1.000000   0.000000   0.000000 )
               a(2) = (  -0.500000   0.866025   0.000000 )
               a(3) = (   0.000000   0.000000   1.561996 )

     reciprocal axes: (cart. coord. in units 2 pi/alat)
               b(1) = (  1.000000  0.577350  0.000000 )
               b(2) = (  0.000000  1.154700  0.000000 )
               b(3) = (  0.000000  0.000000  0.640206 )

     PseudoPot. # 1 for Er read from file:
     /home/pragov/projects/rrg-bengioy-ad/pragov/crystal_structure_design/SSSP/Er.GGA-PBE-paw-v1.0.UPF
     MD5 check sum: 5952a841f12bc97f67d25f9d1b2e7e35
     Pseudo is Projector augmented-wave + core cor, Zval = 22.0
     Generated using ATOMPAW code
     Shape of augmentation charge: BESSEL
     Using radial grid of 1114 points,  8 beta functions with:
                l(1) =   0
                l(2) =   0
                l(3) =   1
                l(4) =   1
                l(5) =   2
                l(6) =   2
                l(7) =   3
                l(8) =   3
     Q(r) pseudized with 0 coefficients

     PseudoPot. # 2 for Cu read from file:
     /home/pragov/projects/rrg-bengioy-ad/pragov/crystal_structure_design/SSSP/Cu_pbe_v1.2.uspp.F.UPF
     MD5 check sum: 6e991ff952a84172a2a52a1c1e996048
     Pseudo is Ultrasoft + core correction, Zval = 19.0
     Generated by new atomic code, or converted to UPF format
     Using radial grid of  867 points,  6 beta functions with:
                l(1) =   0
                l(2) =   0
                l(3) =   1
                l(4) =   1
                l(5) =   2
                l(6) =   2
     Q(r) pseudized with  8 coefficients,  rinner =    1.150   1.150   1.150
                                                       1.150   1.150

     PseudoPot. # 3 for Pb read from file:
     /home/pragov/projects/rrg-bengioy-ad/pragov/crystal_structure_design/SSSP/Pb.pbe-dn-kjpaw_psl.0.2.2.UPF
     MD5 check sum: 9d431e6316058b74ade52399a6cf67da
     Pseudo is Projector augmented-wave + core cor, Zval = 14.0
     Generated using "atomic" code by A. Dal Corso  v.5.0.99 svn rev. 10869
     Shape of augmentation charge: PSQ
     Using radial grid of 1281 points,  6 beta functions with:
                l(1) =   0
                l(2) =   0
                l(3) =   1
                l(4) =   1
                l(5) =   2
                l(6) =   2
     Q(r) pseudized with 0 coefficients

     atomic species   valence    mass     pseudopotential
        Er            22.00   167.25900     Er( 1.00)
        Cu            19.00    63.54600     Cu( 1.00)
        Pb            14.00   207.20000     Pb( 1.00)

     24 Sym. Ops., with inversion, found (12 have fractional translation)

                                    s                        frac. trans.

      isym =  1     identity

 cryst.   s( 1) = (     1          0          0      )
                  (     0          1          0      )
                  (     0          0          1      )

 cart.    s( 1) = (  1.0000000 -0.0000000  0.0000000 )
                  (  0.0000000  1.0000000  0.0000000 )
                  (  0.0000000  0.0000000  1.0000000 )

      isym =  2     180 deg rotation - cart. axis [0,0,1]

 cryst.   s( 2) = (    -1          0          0      )    f =(  0.0000000 )
                  (     0         -1          0      )       (  0.0000000 )
                  (     0          0          1      )       (  0.5000000 )

 cart.    s( 2) = ( -1.0000000  0.0000000  0.0000000 )    f =(  0.0000000 )
                  (  0.0000000 -1.0000000  0.0000000 )       (  0.0000000 )
                  (  0.0000000  0.0000000  1.0000000 )       (  0.7809981 )

[...]

      isym =  4     180 deg rotation - cart. axis [1,0,0]

[...]

      isym =  5      60 deg rotation - cryst. axis [0,0,1]

[...]

 cryst.   s( 8) = (    -1         -1          0      )
                  (     1          0          0      )
                  (     0          0          1      )

 cart.    s( 8) = ( -0.5000001  0.8660253  0.0000000 )
                  ( -0.8660255 -0.4999999  0.0000000 )
                  (  0.0000000  0.0000000  1.0000000 )

[...]

 cryst.   s( 9) = (     0         -1          0      )    f =(  0.0000000 )
                  (    -1          0          0      )       (  0.0000000 )
                  (     0          0         -1      )       (  0.5000000 )

 cart.    s( 9) = (  0.4999999 -0.8660255  0.0000000 )    f =(  0.0000000 )
                  ( -0.8660255 -0.4999999  0.0000000 )       (  0.0000000 )
                  (  0.0000000  0.0000000 -1.0000000 )       (  0.7809981 )

[...]

 cryst.   s(10) = (     1          1          0      )    f =(  0.0000000 )
                  (     0         -1          0      )       (  0.0000000 )
                  (     0          0         -1      )       (  0.5000000 )

 cart.    s(10) = (  0.5000001  0.8660252  0.0000000 )    f =(  0.0000000 )
                  (  0.8660255 -0.5000001  0.0000000 )       (  0.0000000 )
                  (  0.0000000  0.0000000 -1.0000000 )       (  0.7809981 )

[...]

 cryst.   s(11) = (    -1         -1          0      )
                  (     0          1          0      )
                  (     0          0         -1      )

 cart.    s(11) = ( -0.5000001 -0.8660252  0.0000000 )
                  ( -0.8660255  0.5000001  0.0000000 )
                  (  0.0000000  0.0000000 -1.0000000 )

      isym = 12     180 deg rotation - cryst. axis [1,1,0]

[...]

      isym = 13     inversion

[...]

      isym = 14     inv. 180 deg rotation - cart. axis [0,0,1]

[...]

      isym = 16     inv. 180 deg rotation - cart. axis [1,0,0]

[...]

      isym = 17     inv.  60 deg rotation - cryst. axis [0,0,1]

[...]

 cryst.   s(22) = (    -1         -1          0      )    f =(  0.0000000 )
                  (     0          1          0      )       (  0.0000000 )
                  (     0          0          1      )       (  0.5000000 )

 cart.    s(22) = ( -0.5000001 -0.8660252  0.0000000 )    f =(  0.0000000 )
                  ( -0.8660255  0.5000001  0.0000000 )       (  0.0000000 )
                  (  0.0000000  0.0000000  1.0000000 )       (  0.7809981 )

[...]

      isym = 24     inv. 180 deg rotation - cryst. axis [1,1,0]

 cryst.   s(24) = (     0         -1          0      )
                  (    -1          0          0      )
                  (     0          0          1      )

 cart.    s(24) = (  0.4999999 -0.8660255  0.0000000 )
                  ( -0.8660255 -0.4999999  0.0000000 )
                  (  0.0000000  0.0000000  1.0000000 )

   Cartesian axes

     site n.     atom                  positions (alat units)
         1           Er  tau(   1) = (   0.0000000   0.0000000   0.7809981  )
         2           Er  tau(   2) = (   0.0000000   0.0000000   0.0000000  )
         3           Cu  tau(   3) = (  -0.0000004   0.5773506   0.3904991  )
         4           Cu  tau(   4) = (   0.5000005   0.2886749   1.1714972  )
         5           Pb  tau(   5) = (  -0.0000004   0.5773506   1.1714972  )
         6           Pb  tau(   6) = (   0.5000005   0.2886749   0.3904991  )

   Crystallographic axes

     site n.     atom                  positions (cryst. coord.)
         1           Er  tau(   1) = (  0.0000000  0.0000000  0.5000000  )
         2           Er  tau(   2) = (  0.0000000  0.0000000  0.0000000  )
         3           Cu  tau(   3) = (  0.3333330  0.6666670  0.2500000  )
         4           Cu  tau(   4) = (  0.6666670  0.3333330  0.7500000  )
         5           Pb  tau(   5) = (  0.3333330  0.6666670  0.7500000  )
         6           Pb  tau(   6) = (  0.6666670  0.3333330  0.2500000  )

     number of k points=     1  Methfessel-Paxton smearing, width (Ry)=  0.0010
                       cart. coord. in units 2pi/alat
        k(    1) = (   0.0000000   0.0000000   0.0000000), wk =   2.0000000

                       cryst. coord.
        k(    1) = (   0.0000000   0.0000000   0.0000000), wk =   2.0000000

     Check: negative core charge=   -0.000001

     Initial potential from superposition of free atoms

     starting charge     107.9869, renormalised to     110.0000
     Starting wfcs are  108 randomized atomic wfcs
     Checking if some PAW data can be deallocated...

     Self-consistent Calculation

     iteration #  1     ecut=    30.00 Ry     beta= 0.70
     Davidson diagonalization with overlap

     ethr =  1.00E-02,  avg # of iterations =  2.0

     total energy              =   -4317.24445809 Ry
     estimated scf accuracy    <       2.65630214 Ry

[...]

     total energy              =   -4319.54135741 Ry
     estimated scf accuracy    <       0.00000119 Ry

     iteration # 59     ecut=    30.00 Ry     beta= 0.70
     Davidson diagonalization with overlap

     ethr =  1.08E-09,  avg # of iterations =  1.0

     End of self-consistent calculation

          k = 0.0000 0.0000 0.0000 (  1245 PWs)   bands (ev):

   -99.3542 -99.3541 -56.8247 -56.8247 -56.8240 -56.8240 -56.5262 -56.5245
   -33.3260 -33.3132  -7.9171  -7.7928  -7.7927  -7.7516  -7.7516  -7.5633
    -2.9293  -2.9293  -2.8993  -2.8993  -2.8458  -2.8458  -2.8387  -2.8302
    -2.7946  -2.7946   3.5513   5.0070   9.8953   9.8953   9.9380  10.0861
    10.0861  10.5885  10.5885  10.7035  10.7570  10.7570  11.0286  13.1872
    13.1872  14.1993  14.4034  14.4035  14.5883  14.7895  14.7941  14.8797
    14.8797  14.9408  14.9408  14.9829  14.9950  15.0650  15.0651  15.0651
    15.3898  15.7630  15.7630  15.8377  15.9788  15.9788  16.4334  17.2704
    17.2704  18.5597

     occupation numbers
     1.0000   1.0000   1.0000   1.0000   1.0000   1.0000   1.0000   1.0000
     1.0000   1.0000   1.0000   1.0000   1.0000   1.0000   1.0000   1.0000
     1.0000   1.0000   1.0000   1.0000   1.0000   1.0000   1.0000   1.0000
     1.0000   1.0000   1.0000   1.0000   1.0000   1.0000   1.0000   1.0000
     1.0000   1.0000   1.0000   1.0000   1.0000   1.0000   1.0000   1.0000
     1.0000   1.0000   1.0000   1.0000   1.0000   1.0000   1.0000   1.0000
     1.0000   1.0000   1.0000   1.0000   1.0000   0.6720   0.6641   0.6640
    -0.0000  -0.0000  -0.0000  -0.0000  -0.0000  -0.0000  -0.0000  -0.0000
    -0.0000  -0.0000

     the Fermi energy is    15.0678 ev

!    total energy              =   -4319.54135723 Ry
     estimated scf accuracy    <       0.00000013 Ry
     smearing contrib. (-TS)   =      -0.00074666 Ry
     internal energy E=F+TS    =   -4319.54061057 Ry

     The total energy is F=E-TS. E is the sum of the following terms:
     one-electron contribution =   -1195.57494252 Ry
     hartree contribution      =     643.40857172 Ry
     xc contribution           =    -232.42948025 Ry
     ewald contribution        =   -1106.21451297 Ry
     one-center paw contrib.   =   -2428.73024655 Ry
      -> PAW hartree energy AE =     903.17919028 Ry
      -> PAW hartree energy PS =    -829.28613539 Ry
      -> PAW xc energy AE      =   -2654.74004608 Ry
      -> PAW xc energy PS      =     152.11674464 Ry
      -> total E_H with PAW    =     717.30162662 Ry
      -> total E_XC with PAW   =   -2735.05278169 Ry

     convergence has been achieved in  59 iterations

     Forces acting on atoms (cartesian axes, Ry/au):

     atom    1 type  1   force =     0.00000000   -0.00000000    0.00000000
     atom    2 type  1   force =    -0.00000000    0.00000000   -0.00000000
     atom    3 type  2   force =     0.00000000    0.00000000   -0.00000000
     atom    4 type  2   force =    -0.00000000   -0.00000000   -0.00000000
     atom    5 type  3   force =    -0.00000000    0.00000000   -0.00000000
     atom    6 type  3   force =     0.00000000    0.00000000    0.00000000
     The non-local contrib.  to forces
     atom    1 type  1   force =    -0.00000000   -0.00000000    0.00000000
     atom    2 type  1   force =     0.00000000    0.00000000   -0.00000000
     atom    3 type  2   force =    -0.00000000   -0.00000000    0.00000000
     atom    4 type  2   force =     0.00000000    0.00000000    0.00000000
     atom    5 type  3   force =     0.00000000    0.00000000   -0.00000000
     atom    6 type  3   force =    -0.00000000   -0.00000000    0.00000000
     The ionic contribution  to forces
     atom    1 type  1   force =    -0.00000000   -0.00000000    0.00000000
     atom    2 type  1   force =    -0.00000000   -0.00000000    0.00000000
     atom    3 type  2   force =     0.00012173   -0.00007028   -0.00000000
     atom    4 type  2   force =    -0.00012173    0.00007028   -0.00000000
     atom    5 type  3   force =     0.00010864   -0.00006272   -0.00000000
     atom    6 type  3   force =    -0.00010864    0.00006272   -0.00000000
     The local contribution  to forces
     atom    1 type  1   force =    -0.00020870   -0.00050089    0.00011673
     atom    2 type  1   force =     0.00012037    0.00048300    0.00002052
     atom    3 type  2   force =    -0.00009628    0.00006731   -0.00015838
     atom    4 type  2   force =     0.00011532   -0.00006590    0.00016308
     atom    5 type  3   force =    -0.00009419    0.00006329    0.00011144
     atom    6 type  3   force =     0.00010546   -0.00006065   -0.00012586
     The core correction contribution to forces
     atom    1 type  1   force =    -0.00000000   -0.00000001    0.00000000
     atom    2 type  1   force =     0.00000000    0.00000000    0.00000000
     atom    3 type  2   force =     0.00000001   -0.00000002   -0.00000002
     atom    4 type  2   force =    -0.00000002    0.00000002   -0.00000001
     atom    5 type  3   force =     0.00000004    0.00000005   -0.00000044
     atom    6 type  3   force =     0.00000014   -0.00000008    0.00000019
     The Hubbard contrib.    to forces
     atom    1 type  1   force =     0.00000000    0.00000000    0.00000000
     atom    2 type  1   force =     0.00000000    0.00000000    0.00000000
     atom    3 type  2   force =     0.00000000    0.00000000    0.00000000
     atom    4 type  2   force =     0.00000000    0.00000000    0.00000000
     atom    5 type  3   force =     0.00000000    0.00000000    0.00000000
     atom    6 type  3   force =     0.00000000    0.00000000    0.00000000
     The SCF correction term to forces
     atom    1 type  1   force =     0.00017800    0.00038807   -0.00008663
     atom    2 type  1   force =    -0.00009799   -0.00036852   -0.00002376
     atom    3 type  2   force =    -0.00001433   -0.00000924    0.00016501
     atom    4 type  2   force =    -0.00000513    0.00000424   -0.00015274
     atom    5 type  3   force =    -0.00000447   -0.00000576   -0.00011921
     atom    6 type  3   force =    -0.00000217    0.00000216    0.00012514

     Total force =     0.000000     Total SCF correction =     0.000645

     Computing stress (Cartesian axis) and pressure

          total   stress  (Ry/bohr**3)                   (kbar)     P=     -185.29
  -0.00030571   0.00000000   0.00000000          -44.97        0.00        0.00
   0.00000000  -0.00030571   0.00000000            0.00      -44.97        0.00
  -0.00000000  -0.00000000  -0.00316721           -0.00       -0.00     -465.91

     kinetic stress (kbar)  20820.08     -0.00      0.00
                               -0.00  20820.08     -0.00
                                0.00     -0.00  20856.03

     local   stress (kbar)  -6174.60     -0.06      0.01
                               -0.06  -6174.54     -0.01
                                0.01     -0.01  12099.28

     nonloc. stress (kbar)  14285.75     -0.00      0.00
                               -0.00  14285.75      0.00
                                0.00      0.00  14265.29

     hartree stress (kbar)  37244.45      0.02     -0.00
                                0.02  37244.42      0.01
                               -0.00      0.01  30405.72

     exc-cor stress (kbar)   -606.50      0.00      0.00
                                0.00   -606.50      0.00
                                0.00      0.00   -611.03

     corecor stress (kbar)  -9454.79      0.00     -0.00
                                0.00  -9454.79     -0.00
                               -0.00     -0.00  -9454.32

     ewald   stress (kbar) -56159.38      0.01     -0.00
                                0.01 -56159.37      0.00
                               -0.00      0.00 -68026.88

     hubbard stress (kbar)      0.00      0.00      0.00
                                0.00      0.00      0.00
                                0.00      0.00      0.00

     DFT-D   stress (kbar)      0.00      0.00      0.00
                                0.00      0.00      0.00
                                0.00      0.00      0.00

     XDM     stress (kbar)      0.00      0.00      0.00
                                0.00      0.00      0.00
                                0.00      0.00      0.00

     dft-nl  stress (kbar)      0.00      0.00      0.00
                                0.00      0.00      0.00
                                0.00      0.00      0.00

     TS-vdW  stress (kbar)      0.00      0.00      0.00
                                0.00      0.00      0.00
                                0.00      0.00      0.00

[...]

                                0.00      0.00      0.00

     Writing all to output data dir new_calculations/myprefix.save/

     General routines

     Parallel routines

     PAW routines

   This run was terminated on:   4:28: 8  20May2023

   JOB DONE.