     Program PWSCF v.7.0 starts on 21May2023 at  9:13:33

     Reading input from espresso_18039.pwi
Warning: card &CELL ignored
Warning: card / ignored

     Current dimensions of program PWSCF are:
     Max number of different atomic species (ntypx) = 10
     Max number of k-points (npk) =  40000
     Max angular momentum in pseudopotentials (lmaxx) =  4

     gamma-point specific algorithms are used
     Message from routine setup:
     using ibrav=0 with symmetry is DISCOURAGED, use correct ibrav instead

     Subspace diagonalization in iterative solution of the eigenvalue problem:
     a serial algorithm will be used

     Using Slab Decomposition

     bravais-lattice index     =            0
     lattice parameter (alat)  =      16.1489  a.u.
     unit-cell volume          =    2977.9066 (a.u.)^3
     number of atoms/cell      =            9
     number of atomic types    =            3
     number of electrons       =        72.00
     number of Kohn-Sham states=           43
     kinetic-energy cutoff     =      30.0000  Ry
     charge density cutoff     =     240.0000  Ry
     scf convergence threshold =      1.0E-06
     mixing beta               =       0.7000
     number of iterations used =            8  plain     mixing
     Exchange-correlation= SLA  PW   PBX  PBC
                           (   1   4   3   4   0   0   0)

     celldm(1)=  16.148866  celldm(2)=   0.000000  celldm(3)=   0.000000
     celldm(4)=   0.000000  celldm(5)=   0.000000  celldm(6)=   0.000000

     crystal axes: (cart. coord. in units of alat)
               a(1) = (   1.000000   0.000000   0.000000 )
               a(2) = (   0.500000   0.866025   0.000000 )
               a(3) = (   0.500000   0.288675   0.816497 )

     reciprocal axes: (cart. coord. in units 2 pi/alat)
               b(1) = (  1.000000 -0.577350 -0.408248 )
               b(2) = (  0.000000  1.154701 -0.408248 )
               b(3) = (  0.000000  0.000000  1.224745 )

     PseudoPot. # 1 for Cs read from file:
     /home/pragov/projects/rrg-bengioy-ad/pragov/crystal_structure_design/SSSP/Cs_pbe_v1.uspp.F.UPF
     MD5 check sum: 3476d69cb178dfad3ffaa59df4e07ca4
     Pseudo is Ultrasoft + core correction, Zval =  9.0
     Generated by new atomic code, or converted to UPF format
     Using radial grid of  905 points,  6 beta functions with:
                l(1) =   0
                l(2) =   0
                l(3) =   1
                l(4) =   1
                l(5) =   2
                l(6) =   2
     Q(r) pseudized with  6 coefficients,  rinner =    1.500   1.500   1.500
                                                       1.500   1.500

     PseudoPot. # 2 for Zr read from file:
     /home/pragov/projects/rrg-bengioy-ad/pragov/crystal_structure_design/SSSP/Zr_pbe_v1.uspp.F.UPF
     MD5 check sum: 5db81b1e868ab7776c4564c113de050b
     Pseudo is Ultrasoft + core correction, Zval = 12.0
     Generated by new atomic code, or converted to UPF format
     Using radial grid of  887 points,  6 beta functions with:
                l(1) =   0
                l(2) =   0
                l(3) =   1
                l(4) =   1
                l(5) =   2
                l(6) =   2
     Q(r) pseudized with  6 coefficients,  rinner =    1.200   1.200   1.200
                                                       1.200   1.200

     PseudoPot. # 3 for I  read from file:
     /home/pragov/projects/rrg-bengioy-ad/pragov/crystal_structure_design/SSSP/I.pbe-n-kjpaw_psl.0.2.UPF
     MD5 check sum: d4ef18d9c8f18dc85e5843bca1e50dc0
     Pseudo is Projector augmented-wave + core cor, Zval =  7.0
     Generated using "atomic" code by A. Dal Corso  v.5.0.99 svn rev. 10869
     Shape of augmentation charge: PSQ
     Using radial grid of 1247 points,  4 beta functions with:
                l(1) =   0
                l(2) =   0
                l(3) =   1
                l(4) =   1
     Q(r) pseudized with 0 coefficients

     atomic species   valence    mass     pseudopotential
        Cs             9.00   132.90545     Cs( 1.00)
        Zr            12.00    91.22400     Zr( 1.00)
        I              7.00   126.90447     I ( 1.00)

     12 Sym. Ops., with inversion, found

                                    s                        frac. trans.

      isym =  1     identity

 cryst.   s( 1) = (     1          0          0      )
                  (     0          1          0      )
                  (     0          0          1      )

 cart.    s( 1) = (  1.0000000  0.0000000  0.0000000 )
                  (  0.0000000  1.0000000 -0.0000000 )
                  (  0.0000000  0.0000000  1.0000000 )

      isym =  2     180 deg rotation - cart. axis [1,0,0]

[...]

      isym =  3     120 deg rotation - cryst. axis [0,0,1]

[...]

      isym =  6     180 deg rotation - cryst. axis [1,1,0]

[...]

      isym =  7     inversion

[...]

      isym =  8     inv. 180 deg rotation - cart. axis [1,0,0]

[...]

      isym =  9     inv. 120 deg rotation - cryst. axis [0,0,1]

 cryst.   s( 9) = (     1         -1          0      )
                  (     1          0          0      )
                  (     1          0         -1      )

 cart.    s( 9) = (  0.5000000  0.8660254  0.0000000 )
                  ( -0.8660254  0.5000000  0.0000000 )
                  (  0.0000000  0.0000000 -1.0000000 )

[...]

 cryst.   s(10) = (     0          1          0      )
                  (    -1          1          0      )
                  (     0          1         -1      )

 cart.    s(10) = (  0.5000000 -0.8660254  0.0000000 )
                  (  0.8660254  0.5000000 -0.0000000 )
                  (  0.0000000  0.0000000 -1.0000000 )

[...]

      isym = 12     inv. 180 deg rotation - cryst. axis [1,1,0]

 cryst.   s(12) = (     1         -1          0      )
                  (     0         -1          0      )
                  (     0         -1          1      )

 cart.    s(12) = (  0.5000000 -0.8660254  0.0000000 )
                  ( -0.8660254 -0.5000000  0.0000000 )
                  (  0.0000000  0.0000000  1.0000000 )

   Cartesian axes

     site n.     atom                  positions (alat units)
         1           Cs  tau(   1) = (   0.5000000   0.2886751   0.2041241  )
         2           Cs  tau(   2) = (   1.5000000   0.8660254   0.6123724  )
         3           Zr  tau(   3) = (   0.0000000   0.0000000   0.0000000  )
         4           I   tau(   4) = (   1.0000000   0.2753014   0.1946675  )
         5           I   tau(   5) = (   1.0000000   0.8793991   0.6218291  )
         6           I   tau(   6) = (   0.7384180   0.7283747   0.1946675  )
         7           I   tau(   7) = (   1.2615820   0.4263258   0.6218291  )
         8           I   tau(   8) = (   0.7384180   0.4263258   0.6218291  )
         9           I   tau(   9) = (   1.2615820   0.7283747   0.1946675  )

   Crystallographic axes

     site n.     atom                  positions (cryst. coord.)
         1           Cs  tau(   1) = (  0.2500000  0.2500000  0.2500000  )
         2           Cs  tau(   2) = (  0.7500000  0.7500000  0.7500000  )
         3           Zr  tau(   3) = (  0.0000000  0.0000000  0.0000000  )
         4           I   tau(   4) = (  0.7615820  0.2384180  0.2384180  )
         5           I   tau(   5) = (  0.2384180  0.7615820  0.7615820  )
         6           I   tau(   6) = (  0.2384180  0.7615820  0.2384180  )
         7           I   tau(   7) = (  0.7615820  0.2384180  0.7615820  )
         8           I   tau(   8) = (  0.2384180  0.2384180  0.7615820  )
         9           I   tau(   9) = (  0.7615820  0.7615820  0.2384180  )

     number of k points=     1  Methfessel-Paxton smearing, width (Ry)=  0.0010
                       cart. coord. in units 2pi/alat
        k(    1) = (   0.0000000   0.0000000   0.0000000), wk =   2.0000000

                       cryst. coord.
        k(    1) = (   0.0000000   0.0000000   0.0000000), wk =   2.0000000

     Check: negative core charge=   -0.000001

     Initial potential from superposition of free atoms

     starting charge      71.9186, renormalised to      72.0000

     negative rho (up, down):  6.156E-02 0.000E+00
     Starting wfcs are   63 randomized atomic wfcs
     Checking if some PAW data can be deallocated...

     Self-consistent Calculation

     iteration #  1     ecut=    30.00 Ry     beta= 0.70
     Davidson diagonalization with overlap

     ethr =  1.00E-02,  avg # of iterations =  2.0

     Threshold (ethr) on eigenvalues was too large:
     Diagonalizing with lowered threshold

     Davidson diagonalization with overlap

[...]

     negative rho (up, down):  6.333E-02 0.000E+00

     total energy              =   -2499.26318202 Ry
     estimated scf accuracy    <       0.25937564 Ry

[...]

     total energy              =   -2499.35198070 Ry
     estimated scf accuracy    <       0.00002147 Ry

     iteration #  7     ecut=    30.00 Ry     beta= 0.70
     Davidson diagonalization with overlap

     ethr =  2.98E-08,  avg # of iterations =  2.0

[...]

     End of self-consistent calculation

          k = 0.0000 0.0000 0.0000 (  4182 PWs)   bands (ev):

   -46.8457 -24.8046 -24.8045 -24.8045 -18.3321 -18.3304  -8.8280  -8.3496
    -8.3495  -8.3492  -8.2882  -8.2880  -5.1651  -5.1650  -5.1650  -5.1360
    -5.1360  -5.1360  -0.6432   0.5181   0.5181   0.5182   0.5817   0.5817
     0.5818   0.7652   0.7653   1.9359   1.9360   1.9361   2.4341   2.4342
     2.4342   2.6752   2.6753   2.6754   4.4758   4.4759   4.4759   6.4669
     6.8829   6.8831   7.1744

     occupation numbers
     1.0000   1.0000   1.0000   1.0000   1.0000   1.0000   1.0000   1.0000
     1.0000   1.0000   1.0000   1.0000   1.0000   1.0000   1.0000   1.0000
     1.0000   1.0000   1.0000   1.0000   1.0000   1.0000   1.0000   1.0000
     1.0000   1.0000   1.0000   1.0000   1.0000   1.0000   1.0000   1.0000
     1.0000   1.0000   1.0000   1.0000  -0.0000  -0.0000  -0.0000  -0.0000
    -0.0000  -0.0000  -0.0000

     the Fermi energy is     3.9172 ev

!    total energy              =   -2499.35198437 Ry
     estimated scf accuracy    <       0.00000092 Ry
     smearing contrib. (-TS)   =       0.00000000 Ry
     internal energy E=F+TS    =   -2499.35198437 Ry

     The total energy is F=E-TS. E is the sum of the following terms:
     one-electron contribution =     -99.63878593 Ry
     hartree contribution      =      75.32806388 Ry
     xc contribution           =    -329.06631853 Ry
     ewald contribution        =    -222.79959922 Ry
     one-center paw contrib.   =   -1923.17534458 Ry
      -> PAW hartree energy AE =      59.99921120 Ry
      -> PAW hartree energy PS =     -60.38337918 Ry
      -> PAW xc energy AE      =   -2166.16054065 Ry
      -> PAW xc energy PS      =     243.36936406 Ry
      -> total E_H with PAW    =      74.94389590 Ry
      -> total E_XC with PAW   =   -2251.85749513 Ry

     convergence has been achieved in   7 iterations

     negative rho (up, down):  6.422E-02 0.000E+00

     Forces acting on atoms (cartesian axes, Ry/au):

     atom    1 type  1   force =     0.00000000    0.00000000   -0.00001467
     atom    2 type  1   force =    -0.00000000   -0.00000000    0.00001467
     atom    3 type  2   force =     0.00000000    0.00000000    0.00000000
     atom    4 type  3   force =     0.00000000   -0.00956157   -0.00676313
     atom    5 type  3   force =     0.00000000    0.00956157    0.00676313
     atom    6 type  3   force =    -0.00828056    0.00478078   -0.00676313
     atom    7 type  3   force =     0.00828056   -0.00478078    0.00676313
     atom    8 type  3   force =    -0.00828056   -0.00478078    0.00676313
     atom    9 type  3   force =     0.00828056    0.00478078   -0.00676313
     The non-local contrib.  to forces
     atom    1 type  1   force =     0.00000000    0.00000000    0.00006081
     atom    2 type  1   force =    -0.00000000   -0.00000000   -0.00006081
     atom    3 type  2   force =    -0.00000000   -0.00000000    0.00000000
     atom    4 type  3   force =     0.00000000   -0.09758533   -0.06900293
     atom    5 type  3   force =     0.00000000    0.09758533    0.06900293
     atom    6 type  3   force =    -0.08451138    0.04879267   -0.06900293
     atom    7 type  3   force =     0.08451138   -0.04879267    0.06900293
     atom    8 type  3   force =    -0.08451138   -0.04879267    0.06900293
     atom    9 type  3   force =     0.08451138    0.04879267   -0.06900293
     The ionic contribution  to forces
     atom    1 type  1   force =    -0.00000000    0.00000000    0.00000000
     atom    2 type  1   force =     0.00000000   -0.00000000   -0.00000000
     atom    3 type  2   force =    -0.00000000    0.00000000   -0.00000000
     atom    4 type  3   force =     0.00000000    4.34344436    3.07127896
     atom    5 type  3   force =     0.00000000   -4.34344436   -3.07127896
     atom    6 type  3   force =     3.76153315   -2.17172218    3.07127896
     atom    7 type  3   force =    -3.76153315    2.17172218   -3.07127896
     atom    8 type  3   force =     3.76153315    2.17172218   -3.07127896
     atom    9 type  3   force =    -3.76153315   -2.17172218    3.07127896
     The local contribution  to forces
     atom    1 type  1   force =    -0.00000886   -0.00009335   -0.00009308
     atom    2 type  1   force =    -0.00005911   -0.00010156    0.00005329
     atom    3 type  2   force =     0.00022775    0.00037181    0.00006530
     atom    4 type  3   force =    -0.00000020   -4.26351076   -3.01479055
     atom    5 type  3   force =     0.00004608    4.26335987    3.01464125
     atom    6 type  3   force =    -3.69222675    2.13175380   -3.01472037
     atom    7 type  3   force =     3.69224688   -2.13162411    3.01471603
     atom    8 type  3   force =    -3.69227261   -2.13169863    3.01475011
     atom    9 type  3   force =     3.69216239    2.13172021   -3.01460250
     The core correction contribution to forces
     atom    1 type  1   force =    -0.00000207   -0.00001466   -0.00001823
     atom    2 type  1   force =     0.00000477   -0.00000616    0.00001361
     atom    3 type  2   force =     0.00000203    0.00000413   -0.00000013
     atom    4 type  3   force =    -0.00000012    0.00719005    0.00508361
     atom    5 type  3   force =     0.00000065   -0.00720410   -0.00509422
     atom    6 type  3   force =     0.00623192   -0.00359501    0.00508489
     atom    7 type  3   force =    -0.00623193    0.00360323   -0.00508671
     atom    8 type  3   force =     0.00622877    0.00359888   -0.00508675
     atom    9 type  3   force =    -0.00624016   -0.00360044    0.00509814
     The Hubbard contrib.    to forces
     atom    1 type  1   force =     0.00000000    0.00000000    0.00000000
     atom    2 type  1   force =     0.00000000    0.00000000    0.00000000
     atom    3 type  2   force =     0.00000000    0.00000000    0.00000000
     atom    4 type  3   force =     0.00000000    0.00000000    0.00000000
     atom    5 type  3   force =     0.00000000    0.00000000    0.00000000
     atom    6 type  3   force =     0.00000000    0.00000000    0.00000000
     atom    7 type  3   force =     0.00000000    0.00000000    0.00000000
     atom    8 type  3   force =     0.00000000    0.00000000    0.00000000
     atom    9 type  3   force =     0.00000000    0.00000000    0.00000000
     The SCF correction term to forces
     atom    1 type  1   force =    -0.00000286    0.00004193    0.00002849
     atom    2 type  1   force =     0.00006313    0.00006603    0.00000123
     atom    3 type  2   force =    -0.00016954   -0.00032627   -0.00004272
     atom    4 type  3   force =     0.00000157    0.00089828    0.00067602
     atom    5 type  3   force =    -0.00005787   -0.00074030   -0.00050955
     atom    6 type  3   force =     0.00068868   -0.00044952    0.00059169
     atom    7 type  3   force =    -0.00071262    0.00030502   -0.00059440
     atom    8 type  3   force =     0.00073771    0.00038170   -0.00062078
     atom    9 type  3   force =    -0.00062638   -0.00041708    0.00045904

     Total force =     0.028688     Total SCF correction =     0.002461

     Computing stress (Cartesian axis) and pressure

     negative rho (up, down):  6.422E-02 0.000E+00
          total   stress  (Ry/bohr**3)                   (kbar)     P=       30.84
   0.00020962   0.00000000  -0.00000000           30.84        0.00       -0.00
  -0.00000000   0.00020962  -0.00000000           -0.00       30.84       -0.00
  -0.00000000   0.00000000   0.00020961           -0.00        0.00       30.84

     kinetic stress (kbar)   2943.85      0.00      0.00
                                0.00   2943.85      0.00
                                0.00     -0.00   2943.85

     local   stress (kbar)   -740.08      0.01      0.00
                                0.01   -740.08     -0.00
                                0.00     -0.00   -740.08

     nonloc. stress (kbar)   1594.16     -0.00     -0.00
                               -0.00   1594.16     -0.00
                                0.00     -0.00   1594.16

     hartree stress (kbar)   1240.37     -0.00     -0.00
                               -0.00   1240.37     -0.00
                               -0.00     -0.00   1240.37

     exc-cor stress (kbar)  12170.41     -0.00      0.00
                               -0.00  12170.41      0.00
                                0.00      0.00  12170.41

     corecor stress (kbar) -13509.20      0.00     -0.00
                                0.00 -13509.20     -0.00
                               -0.00     -0.00 -13509.20

     ewald   stress (kbar)  -3668.68     -0.00     -0.00
                               -0.00  -3668.68      0.00
                               -0.00      0.00  -3668.68

     hubbard stress (kbar)      0.00      0.00      0.00
                                0.00      0.00      0.00
                                0.00      0.00      0.00

     DFT-D   stress (kbar)      0.00      0.00      0.00
                                0.00      0.00      0.00
                                0.00      0.00      0.00

     XDM     stress (kbar)      0.00      0.00      0.00
                                0.00      0.00      0.00
                                0.00      0.00      0.00

     dft-nl  stress (kbar)      0.00      0.00      0.00
                                0.00      0.00      0.00
                                0.00      0.00      0.00

     TS-vdW  stress (kbar)      0.00      0.00      0.00
                                0.00      0.00      0.00
                                0.00      0.00      0.00

[...]

                                0.00      0.00      0.00

     Writing all to output data dir new_calculations/myprefix.save/

     General routines

     Parallel routines

     PAW routines

   This run was terminated on:   9:13:59  21May2023

   JOB DONE.