     Program PWSCF v.7.0 starts on 20May2023 at 21:24:26

     Reading input from espresso_7686.pwi
Warning: card &CELL ignored
Warning: card / ignored

     Current dimensions of program PWSCF are:
     Max number of different atomic species (ntypx) = 10
     Max number of k-points (npk) =  40000
     Max angular momentum in pseudopotentials (lmaxx) =  4
     file K.pbe-spn-kjpaw_psl.1.0.0.UPF: wavefunction(s)  3S renormalized
     file O.pbe-n-kjpaw_psl.0.1.UPF: wavefunction(s)  2P renormalized

     gamma-point specific algorithms are used
     Message from routine setup:
     using ibrav=0 with symmetry is DISCOURAGED, use correct ibrav instead

     Subspace diagonalization in iterative solution of the eigenvalue problem:
     a serial algorithm will be used

     Using Slab Decomposition

     bravais-lattice index     =            0
     lattice parameter (alat)  =      12.3902  a.u.
     unit-cell volume          =    2157.7304 (a.u.)^3
     number of atoms/cell      =           16
     number of atomic types    =            3
     number of electrons       =       132.00
     number of Kohn-Sham states=           79
     kinetic-energy cutoff     =      30.0000  Ry
     charge density cutoff     =     240.0000  Ry
     scf convergence threshold =      1.0E-06
     mixing beta               =       0.7000
     number of iterations used =            8  plain     mixing
     Exchange-correlation= SLA  PW   PBX  PBC
                           (   1   4   3   4   0   0   0)

     celldm(1)=  12.390203  celldm(2)=   0.000000  celldm(3)=   0.000000
     celldm(4)=   0.000000  celldm(5)=   0.000000  celldm(6)=   0.000000

     crystal axes: (cart. coord. in units of alat)
               a(1) = (   1.000000   0.000000   0.000000 )
               a(2) = (  -0.279871   0.986452   0.000000 )
               a(3) = (  -0.148328  -0.287710   1.149969 )

     reciprocal axes: (cart. coord. in units 2 pi/alat)
               b(1) = (  1.000000  0.283715  0.199967 )
               b(2) = (  0.000000  1.013734  0.253626 )
               b(3) = (  0.000000  0.000000  0.869589 )

     PseudoPot. # 1 for K  read from file:
     /home/pragov/projects/rrg-bengioy-ad/pragov/crystal_structure_design/SSSP/K.pbe-spn-kjpaw_psl.1.0.0.UPF
     MD5 check sum: 7d58810084cac21f60fbe77ea2b688fd
     Pseudo is Projector augmented-wave + core cor, Zval =  9.0
     Generated using "atomic" code by A. Dal Corso  v.5.1
     Shape of augmentation charge: PSQ
     Using radial grid of 1165 points,  6 beta functions with:
                l(1) =   0
                l(2) =   0
                l(3) =   1
                l(4) =   1
                l(5) =   2
                l(6) =   2
     Q(r) pseudized with 0 coefficients

     PseudoPot. # 2 for Bi read from file:
     /home/pragov/projects/rrg-bengioy-ad/pragov/crystal_structure_design/SSSP/Bi_pbe_v1.uspp.F.UPF
     MD5 check sum: cceb9f28ec65b6d7ff33140f5b0b1758
     Pseudo is Ultrasoft + core correction, Zval = 15.0
     Generated by new atomic code, or converted to UPF format
     Using radial grid of  899 points,  6 beta functions with:
                l(1) =   0
                l(2) =   0
                l(3) =   1
                l(4) =   1
                l(5) =   2
                l(6) =   2
     Q(r) pseudized with  6 coefficients,  rinner =    1.000   1.000   1.000
                                                       1.000   1.000

     PseudoPot. # 3 for O  read from file:
     /home/pragov/projects/rrg-bengioy-ad/pragov/crystal_structure_design/SSSP/O.pbe-n-kjpaw_psl.0.1.UPF
     MD5 check sum: 0234752ac141de4415c5fc33072bef88
     Pseudo is Projector augmented-wave + core cor, Zval =  6.0
     Generated using "atomic" code by A. Dal Corso  v.5.0.99 svn rev. 10869
     Shape of augmentation charge: BESSEL
     Using radial grid of 1095 points,  4 beta functions with:
                l(1) =   0
                l(2) =   0
                l(3) =   1
                l(4) =   1
     Q(r) pseudized with 0 coefficients

     atomic species   valence    mass     pseudopotential
        K              9.00    39.09830     K ( 1.00)
        Bi            15.00   208.98040     Bi( 1.00)
        O              6.00    15.99900     O ( 1.00)

      2 Sym. Ops., with inversion, found

                                    s                        frac. trans.

      isym =  1     identity

 cryst.   s( 1) = (     1          0          0      )
                  (     0          1          0      )
                  (     0          0          1      )

 cart.    s( 1) = (  1.0000000 -0.0000000  0.0000000 )
                  (  0.0000000  1.0000000  0.0000000 )
                  (  0.0000000  0.0000000  1.0000000 )

      isym =  2     inversion

 cryst.   s( 2) = (    -1          0          0      )
                  (     0         -1          0      )
                  (     0          0         -1      )

 cart.    s( 2) = ( -1.0000000  0.0000000 -0.0000000 )
                  (  0.0000000 -1.0000000 -0.0000000 )
                  (  0.0000000  0.0000000 -1.0000000 )

   Cartesian axes

     site n.     atom                  positions (alat units)
         1           K   tau(   1) = (   0.3058513   0.4861213   1.1241220  )
         2           K   tau(   2) = (   0.6484985  -0.0082061   0.9556045  )
         3           K   tau(   3) = (   0.3624475   0.6297349   0.5357428  )
         4           K   tau(   4) = (   0.2093526   0.0690068   0.6142259  )
         5           K   tau(   5) = (   0.2659488   0.2126204   0.0258467  )
         6           K   tau(   6) = (  -0.0766984   0.7069478   0.1943643  )
         7           Bi  tau(   7) = (   0.7155771   0.2069084   0.3615283  )
         8           Bi  tau(   8) = (  -0.1437770   0.4918333   0.7884404  )
         9           O   tau(   9) = (   0.6146692   0.6663911   0.8854368  )
        10           O   tau(  10) = (  -0.0428691   0.0323506   0.2645319  )
        11           O   tau(  11) = (  -0.0383341   0.2717640   0.9866134  )
        12           O   tau(  12) = (   0.6101342   0.4269777   0.1633554  )
        13           O   tau(  13) = (   0.0752389   0.7173254   0.8359709  )
        14           O   tau(  14) = (   0.4965612  -0.0185837   0.3139978  )
        15           O   tau(  15) = (  -0.0349272   0.4227817   0.4891726  )
        16           O   tau(  16) = (   0.6067273   0.2759600   0.6607962  )

   Crystallographic axes

     site n.     atom                  positions (cryst. coord.)
         1           K   tau(   1) = (  0.6685590  0.7779040  0.9775240  )
         2           K   tau(   2) = (  0.8372600  0.2340470  0.8309830  )
         3           K   tau(   3) = (  0.6482440  0.7742620  0.4658760  )
         4           K   tau(   4) = (  0.3517560  0.2257380  0.5341240  )
         5           K   tau(   5) = (  0.3314410  0.2220960  0.0224760  )
         6           K   tau(   6) = (  0.1627400  0.7659530  0.1690170  )
         7           Bi  tau(   7) = (  0.8465740  0.3014430  0.3143810  )
         8           Bi  tau(   8) = (  0.1534260  0.6985570  0.6856190  )
         9           O   tau(   9) = (  0.9807930  0.9001130  0.7699660  )
        10           O   tau(  10) = (  0.0192070  0.0998870  0.2300340  )
        11           O   tau(  11) = (  0.2360600  0.5257270  0.8579480  )
        12           O   tau(  12) = (  0.7639400  0.4742730  0.1420520  )
        13           O   tau(  13) = (  0.4459220  0.9392010  0.7269510  )
        14           O   tau(  14) = (  0.5540780  0.0607990  0.2730490  )
        15           O   tau(  15) = (  0.1828410  0.5526550  0.4253790  )
        16           O   tau(  16) = (  0.8171590  0.4473450  0.5746210  )

     number of k points=     1  Methfessel-Paxton smearing, width (Ry)=  0.0010
                       cart. coord. in units 2pi/alat
        k(    1) = (   0.0000000   0.0000000   0.0000000), wk =   2.0000000

                       cryst. coord.
        k(    1) = (   0.0000000   0.0000000   0.0000000), wk =   2.0000000

     Check: negative core charge=   -0.000010

     Initial potential from superposition of free atoms

     starting charge     129.8869, renormalised to     132.0000

     negative rho (up, down):  8.262E-02 0.000E+00
     Starting wfcs are   98 randomized atomic wfcs
     Checking if some PAW data can be deallocated...

     Self-consistent Calculation

     iteration #  1     ecut=    30.00 Ry     beta= 0.70
     Davidson diagonalization with overlap

     ethr =  1.00E-02,  avg # of iterations =  7.0

     negative rho (up, down):  8.153E-02 0.000E+00

     total energy              =   -1380.02410033 Ry
     estimated scf accuracy    <       3.40356141 Ry

[...]

     total energy              =   -1381.75534574 Ry
     estimated scf accuracy    <       0.00001737 Ry

     iteration # 10     ecut=    30.00 Ry     beta= 0.70
     Davidson diagonalization with overlap

     ethr =  1.32E-08,  avg # of iterations =  2.0

[...]

     End of self-consistent calculation

          k = 0.0000 0.0000 0.0000 (  2996 PWs)   bands (ev):

   -23.7534 -23.7312 -23.6722 -23.6499 -23.5785 -23.5742 -17.2800 -17.2502
   -17.2053 -17.1698 -17.0843 -17.0752 -16.9377 -16.9117 -16.8601 -16.8572
   -12.7457 -11.9064 -11.5159 -11.3367 -10.9864 -10.9277 -10.6123 -10.3777
    -7.3979  -7.3662  -7.3345  -7.3136  -7.2978  -7.2738  -7.2109  -7.1941
    -7.1840  -7.1525  -7.1220  -7.1034  -7.0671  -7.0442  -7.0227  -6.9509
    -6.9264  -6.9210  -3.7998  -3.1187   1.1143   1.4259   1.5561   1.7690
     2.1209   2.5520   3.2114   3.3392   3.5097   3.7076   3.8278   3.8395
     3.9485   3.9914   3.9951   4.1389   4.1990   4.2319   4.2528   4.4557
     4.6268   4.6755   5.8225   6.9263   9.7753   9.9835   9.9851  10.6348
    10.7524  10.7613  11.3164  11.6119  11.8312  11.9393  12.1110

     occupation numbers
     1.0000   1.0000   1.0000   1.0000   1.0000   1.0000   1.0000   1.0000
     1.0000   1.0000   1.0000   1.0000   1.0000   1.0000   1.0000   1.0000
     1.0000   1.0000   1.0000   1.0000   1.0000   1.0000   1.0000   1.0000
     1.0000   1.0000   1.0000   1.0000   1.0000   1.0000   1.0000   1.0000
     1.0000   1.0000   1.0000   1.0000   1.0000   1.0000   1.0000   1.0000
     1.0000   1.0000   1.0000   1.0000   1.0000   1.0000   1.0000   1.0000
     1.0000   1.0000   1.0000   1.0000   1.0000   1.0000   1.0000   1.0000
     1.0000   1.0000   1.0000   1.0000   1.0000   1.0000   1.0000   1.0000
     1.0000   1.0000  -0.0000  -0.0000  -0.0000  -0.0000  -0.0000  -0.0000
    -0.0000  -0.0000  -0.0000  -0.0000  -0.0000  -0.0000  -0.0000

     the Fermi energy is     5.4714 ev

!    total energy              =   -1381.75534841 Ry
     estimated scf accuracy    <       0.00000097 Ry
     smearing contrib. (-TS)   =       0.00000000 Ry
     internal energy E=F+TS    =   -1381.75534841 Ry

     The total energy is F=E-TS. E is the sum of the following terms:
     one-electron contribution =    -386.47947813 Ry
     hartree contribution      =     261.72861372 Ry
     xc contribution           =    -256.66373026 Ry
     ewald contribution        =    -591.58009800 Ry
     one-center paw contrib.   =    -408.76065574 Ry
      -> PAW hartree energy AE =     454.21644716 Ry
      -> PAW hartree energy PS =    -452.18736372 Ry
      -> PAW xc energy AE      =    -533.27843860 Ry
      -> PAW xc energy PS      =     122.48869942 Ry
      -> total E_H with PAW    =     263.75769716 Ry
      -> total E_XC with PAW   =    -667.45346944 Ry

     convergence has been achieved in  10 iterations

     negative rho (up, down):  8.691E-02 0.000E+00

     Forces acting on atoms (cartesian axes, Ry/au):

     atom    1 type  1   force =     0.00064336    0.00100482   -0.00004579
     atom    2 type  1   force =    -0.00126977   -0.00276684   -0.00070962
     atom    3 type  1   force =    -0.00188437    0.00077534    0.00274280
     atom    4 type  1   force =     0.00188437   -0.00077534   -0.00274280
     atom    5 type  1   force =    -0.00064336   -0.00100482    0.00004579
     atom    6 type  1   force =     0.00126977    0.00276684    0.00070962
     atom    7 type  2   force =    -0.00088597   -0.00217125   -0.00164896
     atom    8 type  2   force =     0.00088597    0.00217125    0.00164896
     atom    9 type  3   force =     0.00917650   -0.00800670    0.00110327
     atom   10 type  3   force =    -0.00917650    0.00800670   -0.00110327
     atom   11 type  3   force =     0.00044484    0.00657158    0.00080322
     atom   12 type  3   force =    -0.00044484   -0.00657158   -0.00080322
     atom   13 type  3   force =    -0.00844502    0.00158622   -0.00622567
     atom   14 type  3   force =     0.00844502   -0.00158622    0.00622567
     atom   15 type  3   force =    -0.00154784    0.00171183    0.00637348
     atom   16 type  3   force =     0.00154784   -0.00171183   -0.00637348
     The non-local contrib.  to forces
     atom    1 type  1   force =     0.01369366   -0.01511898    0.00078122
     atom    2 type  1   force =    -0.01686706   -0.03340279    0.00288047
     atom    3 type  1   force =     0.01708052   -0.00781305   -0.02776832
     atom    4 type  1   force =    -0.01708052    0.00781305    0.02776832
     atom    5 type  1   force =    -0.01369366    0.01511898   -0.00078122
     atom    6 type  1   force =     0.01686706    0.03340279   -0.00288047
     atom    7 type  2   force =     0.05643521    0.09397380    0.12742675
     atom    8 type  2   force =    -0.05643521   -0.09397380   -0.12742675
     atom    9 type  3   force =     0.75299423   -0.57728543   -0.32398645
     atom   10 type  3   force =    -0.75299423    0.57728543    0.32398645
     atom   11 type  3   force =    -0.36626746    0.70299120   -0.61496543
     atom   12 type  3   force =     0.36626746   -0.70299120    0.61496543
     atom   13 type  3   force =    -0.60928762   -0.66050575   -0.12143926
     atom   14 type  3   force =     0.60928762    0.66050575    0.12143926
     atom   15 type  3   force =    -0.56407681   -0.05474886    0.55662623
     atom   16 type  3   force =     0.56407681    0.05474886   -0.55662623
     The ionic contribution  to forces
     atom    1 type  1   force =     0.22698011   -2.52637469    0.20314092
     atom    2 type  1   force =    -1.03911257   -0.18699642    0.24773841
     atom    3 type  1   force =    -0.12726725    0.52928905   -2.04396009
     atom    4 type  1   force =     0.12726725   -0.52928905    2.04396009
     atom    5 type  1   force =    -0.22698011    2.52637469   -0.20314092
     atom    6 type  1   force =     1.03911257    0.18699643   -0.24773841
     atom    7 type  2   force =    -0.60927036   -2.82234389   -2.84335412
     atom    8 type  2   force =     0.60927036    2.82234389    2.84335412
     atom    9 type  3   force =    -5.65780677    4.75437312    2.28650096
     atom   10 type  3   force =     5.65780677   -4.75437312   -2.28650096
     atom   11 type  3   force =     4.03281521   -6.02157186    5.61524254
     atom   12 type  3   force =    -4.03281521    6.02157186   -5.61524254
     atom   13 type  3   force =     4.78608188    5.86014376    1.30462227
     atom   14 type  3   force =    -4.78608188   -5.86014376   -1.30462227
     atom   15 type  3   force =     7.67983202    2.26277977   -5.18153349
     atom   16 type  3   force =    -7.67983202   -2.26277977    5.18153349
     The local contribution  to forces
     atom    1 type  1   force =    -0.23918023    2.54091062   -0.20396820
     atom    2 type  1   force =     1.05415574    0.21687742   -0.25061192
     atom    3 type  1   force =     0.10950052   -0.52165961    2.07268270
     atom    4 type  1   force =    -0.10936073    0.52167190   -2.07237710
     atom    5 type  1   force =     0.23900268   -2.54086984    0.20359403
     atom    6 type  1   force =    -1.05401367   -0.21688859    0.25030784
     atom    7 type  2   force =     0.55967726    2.73530045    2.72800872
     atom    8 type  2   force =    -0.55985702   -2.73553391   -2.72761974
     atom    9 type  3   force =     4.92214241   -4.19170911   -1.96480033
     atom   10 type  3   force =    -4.92218193    4.19165995    1.96469097
     atom   11 type  3   force =    -3.67006451    5.33258009   -5.00592595
     atom   12 type  3   force =     3.67002588   -5.33251672    5.00575166
     atom   13 type  3   force =    -4.19188771   -5.20525738   -1.19036314
     atom   14 type  3   force =     4.19183233    5.20525521    1.19026999
     atom   15 type  3   force =    -7.12301471   -2.20697098    4.63675733
     atom   16 type  3   force =     7.12304957    2.20697945   -4.63673640
     The core correction contribution to forces
     atom    1 type  1   force =    -0.00067647    0.00081723   -0.00008383
     atom    2 type  1   force =     0.00082557    0.00136726   -0.00040304
     atom    3 type  1   force =    -0.00089566    0.00043055    0.00161168
     atom    4 type  1   force =     0.00089603   -0.00043047   -0.00161350
     atom    5 type  1   force =     0.00067536   -0.00081724    0.00008394
     atom    6 type  1   force =    -0.00082578   -0.00136879    0.00040314
     atom    7 type  2   force =    -0.00713243   -0.00838930   -0.01401948
     atom    8 type  2   force =     0.00713650    0.00839563    0.01399833
     atom    9 type  3   force =    -0.00817152    0.00635972    0.00360544
     atom   10 type  3   force =     0.00817121   -0.00635971   -0.00360640
     atom   11 type  3   force =     0.00396524   -0.00755249    0.00671300
     atom   12 type  3   force =    -0.00396581    0.00755443   -0.00671445
     atom   13 type  3   force =     0.00663297    0.00721714    0.00125278
     atom   14 type  3   force =    -0.00663355   -0.00721694   -0.00125463
     atom   15 type  3   force =     0.00578381    0.00050209   -0.00582461
     atom   16 type  3   force =    -0.00578248   -0.00050191    0.00582083
     The Hubbard contrib.    to forces
     atom    1 type  1   force =     0.00000000    0.00000000    0.00000000
     atom    2 type  1   force =     0.00000000    0.00000000    0.00000000
     atom    3 type  1   force =     0.00000000    0.00000000    0.00000000
     atom    4 type  1   force =     0.00000000    0.00000000    0.00000000
     atom    5 type  1   force =     0.00000000    0.00000000    0.00000000
     atom    6 type  1   force =     0.00000000    0.00000000    0.00000000
     atom    7 type  2   force =     0.00000000    0.00000000    0.00000000
     atom    8 type  2   force =     0.00000000    0.00000000    0.00000000
     atom    9 type  3   force =     0.00000000    0.00000000    0.00000000
     atom   10 type  3   force =     0.00000000    0.00000000    0.00000000
     atom   11 type  3   force =     0.00000000    0.00000000    0.00000000
     atom   12 type  3   force =     0.00000000    0.00000000    0.00000000
     atom   13 type  3   force =     0.00000000    0.00000000    0.00000000
     atom   14 type  3   force =     0.00000000    0.00000000    0.00000000
     atom   15 type  3   force =     0.00000000    0.00000000    0.00000000
     atom   16 type  3   force =     0.00000000    0.00000000    0.00000000
     The SCF correction term to forces
     atom    1 type  1   force =    -0.00018541    0.00076650    0.00009562
     atom    2 type  1   force =    -0.00027152   -0.00063313   -0.00031235
     atom    3 type  1   force =    -0.00029130    0.00053114    0.00015325
     atom    4 type  1   force =     0.00017354   -0.00053803   -0.00050419
     atom    5 type  1   force =     0.00034069   -0.00081555    0.00030147
     atom    6 type  1   force =     0.00012952    0.00060417    0.00061872
     atom    7 type  2   force =    -0.00057486   -0.00069264    0.00018898
     atom    8 type  2   force =     0.00079211    0.00095910   -0.00075719
     atom    9 type  3   force =     0.00000500    0.00025890   -0.00024295
     atom   10 type  3   force =     0.00000854   -0.00020195    0.00030004
     atom   11 type  3   force =    -0.00001121    0.00016571   -0.00029799
     atom   12 type  3   force =     0.00003527   -0.00014885    0.00039964
     atom   13 type  3   force =     0.00000523   -0.00000370   -0.00035189
     atom   14 type  3   force =     0.00003028    0.00002138    0.00033975
     atom   15 type  3   force =    -0.00003536    0.00014866    0.00024315
     atom   16 type  3   force =     0.00007276   -0.00015961   -0.00047004

     Total force =     0.027684     Total SCF correction =     0.002811
     SCF correction compared to forces is large: reduce conv_thr to get better values

     Computing stress (Cartesian axis) and pressure

     negative rho (up, down):  8.691E-02 0.000E+00
          total   stress  (Ry/bohr**3)                   (kbar)     P=     -186.30
  -0.00122370   0.00000032   0.00001162         -180.01        0.05        1.71
   0.00000032  -0.00131783  -0.00000521            0.05     -193.86       -0.77
   0.00001162  -0.00000521  -0.00125779            1.71       -0.77     -185.03

     kinetic stress (kbar)  13670.43     41.08     13.86
                               41.08  13622.76    -23.91
                               13.86    -23.91  13643.58

     local   stress (kbar)  -9137.09  -1848.32  -1358.61
                            -1848.32  -8787.69  -2776.84
                            -1358.61  -2776.84  -8785.10

     nonloc. stress (kbar)   6523.51     -5.68     -4.06
                               -5.68   6524.41      5.72
                               -4.06      5.72   6504.96

     hartree stress (kbar)   6016.36    834.44    574.37
                              834.44   5848.21   1207.38
                              574.37   1207.38   5978.99

     exc-cor stress (kbar)   3901.49      0.39      0.49
                                0.39   3901.26      0.88
                                0.49      0.88   3898.97

     corecor stress (kbar)  -7851.30      0.05      0.15
                                0.05  -7851.04     -0.07
                                0.15     -0.07  -7850.16

     ewald   stress (kbar) -13303.43    978.08    775.51
                              978.08 -13451.77   1586.07
                              775.51   1586.07 -13576.27

     hubbard stress (kbar)      0.00      0.00      0.00
                                0.00      0.00      0.00
                                0.00      0.00      0.00

     DFT-D   stress (kbar)      0.00      0.00      0.00
                                0.00      0.00      0.00
                                0.00      0.00      0.00

     XDM     stress (kbar)      0.00      0.00      0.00
                                0.00      0.00      0.00
                                0.00      0.00      0.00

     dft-nl  stress (kbar)      0.00      0.00      0.00
                                0.00      0.00      0.00
                                0.00      0.00      0.00

     TS-vdW  stress (kbar)      0.00      0.00      0.00
                                0.00      0.00      0.00
                                0.00      0.00      0.00

[...]

                                0.00      0.00      0.00

     Writing all to output data dir new_calculations/myprefix.save/

     General routines

     Parallel routines

     PAW routines

   This run was terminated on:  21:25:31  20May2023

   JOB DONE.