     Program PWSCF v.7.0 starts on 21May2023 at 11:46:31

     Reading input from espresso_24701.pwi
Warning: card &CELL ignored
Warning: card / ignored

     Current dimensions of program PWSCF are:
     Max number of different atomic species (ntypx) = 10
     Max number of k-points (npk) =  40000
     Max angular momentum in pseudopotentials (lmaxx) =  4
     file Ba.pbe-spn-kjpaw_psl.1.0.0.UPF: wavefunction(s)  5S 6S renormalized

     gamma-point specific algorithms are used
     Message from routine setup:
     using ibrav=0 with symmetry is DISCOURAGED, use correct ibrav instead

     Subspace diagonalization in iterative solution of the eigenvalue problem:
     a serial algorithm will be used

     Using Slab Decomposition

     bravais-lattice index     =            0
     lattice parameter (alat)  =      17.4842  a.u.
     unit-cell volume          =    4087.8634 (a.u.)^3
     number of atoms/cell      =           12
     number of atomic types    =            3
     number of electrons       =        96.00
     number of Kohn-Sham states=           58
     kinetic-energy cutoff     =      30.0000  Ry
     charge density cutoff     =     240.0000  Ry
     scf convergence threshold =      1.0E-06
     mixing beta               =       0.7000
     number of iterations used =            8  plain     mixing
     Exchange-correlation= SLA  PW   PBX  PBC
                           (   1   4   3   4   0   0   0)

     celldm(1)=  17.484204  celldm(2)=   0.000000  celldm(3)=   0.000000
     celldm(4)=   0.000000  celldm(5)=   0.000000  celldm(6)=   0.000000

     crystal axes: (cart. coord. in units of alat)
               a(1) = (   1.000000   0.000000   0.000000 )
               a(2) = (  -0.286210   0.958167   0.000000 )
               a(3) = (  -0.294961  -0.525221   0.798211 )

     reciprocal axes: (cart. coord. in units 2 pi/alat)
               b(1) = (  1.000000  0.298706  0.566076 )
               b(2) = (  0.000000  1.043660  0.686726 )
               b(3) = (  0.000000  0.000000  1.252802 )

     PseudoPot. # 1 for Ba read from file:
     /home/pragov/projects/rrg-bengioy-ad/pragov/crystal_structure_design/SSSP/Ba.pbe-spn-kjpaw_psl.1.0.0.UPF
     MD5 check sum: c432291d3e53af55f19d5e8866385beb
     Pseudo is Projector augmented-wave + core cor, Zval = 10.0
     Generated using "atomic" code by A. Dal Corso  v.5.1
     Shape of augmentation charge: PSQ
     Using radial grid of 1251 points,  7 beta functions with:
                l(1) =   0
                l(2) =   0
                l(3) =   0
                l(4) =   1
                l(5) =   1
                l(6) =   2
                l(7) =   2
     Q(r) pseudized with 0 coefficients

     PseudoPot. # 2 for Ca read from file:
     /home/pragov/projects/rrg-bengioy-ad/pragov/crystal_structure_design/SSSP/Ca_pbe_v1.uspp.F.UPF
     MD5 check sum: 403a4c14b9e4d4dfdc3024c9a3812218
     Pseudo is Ultrasoft + core correction, Zval = 10.0
     Generated by new atomic code, or converted to UPF format
     Using radial grid of  845 points,  6 beta functions with:
                l(1) =   0
                l(2) =   0
                l(3) =   1
                l(4) =   1
                l(5) =   2
                l(6) =   2
     Q(r) pseudized with  8 coefficients,  rinner =    1.500   1.500   1.500
                                                       1.500   1.500

     PseudoPot. # 3 for I  read from file:
     /home/pragov/projects/rrg-bengioy-ad/pragov/crystal_structure_design/SSSP/I.pbe-n-kjpaw_psl.0.2.UPF
     MD5 check sum: d4ef18d9c8f18dc85e5843bca1e50dc0
     Pseudo is Projector augmented-wave + core cor, Zval =  7.0
     Generated using "atomic" code by A. Dal Corso  v.5.0.99 svn rev. 10869
     Shape of augmentation charge: PSQ
     Using radial grid of 1247 points,  4 beta functions with:
                l(1) =   0
                l(2) =   0
                l(3) =   1
                l(4) =   1
     Q(r) pseudized with 0 coefficients

     atomic species   valence    mass     pseudopotential
        Ba            10.00   137.32700     Ba( 1.00)
        Ca            10.00    40.07800     Ca( 1.00)
        I              7.00   126.90447     I ( 1.00)

      2 Sym. Ops., with inversion, found

                                    s                        frac. trans.

      isym =  1     identity

 cryst.   s( 1) = (     1          0          0      )
                  (     0          1          0      )
                  (     0          0          1      )

 cart.    s( 1) = (  1.0000000 -0.0000000  0.0000000 )
                  (  0.0000000  1.0000000  0.0000000 )
                  (  0.0000000  0.0000000  1.0000000 )

      isym =  2     inversion

 cryst.   s( 2) = (    -1          0          0      )
                  (     0         -1          0      )
                  (     0          0         -1      )

 cart.    s( 2) = ( -1.0000000  0.0000000 -0.0000000 )
                  (  0.0000000 -1.0000000 -0.0000000 )
                  (  0.0000000  0.0000000 -1.0000000 )

   Cartesian axes

     site n.     atom                  positions (alat units)
         1           Ba  tau(   1) = (  -0.2739193   0.5765338   0.2159448  )
         2           Ba  tau(   2) = (   0.6927481  -0.1435884   0.5822661  )
         3           Ca  tau(   3) = (   0.2094144   0.2164727   0.3991055  )
         4           Ca  tau(   4) = (   0.5000000   0.0000000   0.0000000  )
         5           I   tau(   5) = (  -0.0794468   0.1591823   0.5839080  )
         6           I   tau(   6) = (  -0.0082931  -0.3662988   0.5856122  )
         7           I   tau(   7) = (   0.3996579   0.0747502   0.6434155  )
         8           I   tau(   8) = (   0.1816332   0.5096471   0.5839080  )
         9           I   tau(   9) = (   0.2371956  -0.0767016   0.2143029  )
        10           I   tau(  10) = (   0.4271219   0.7992442   0.2125987  )
        11           I   tau(  11) = (   0.0191709   0.3581953   0.1547954  )
        12           I   tau(  12) = (   0.4982756   0.2737632   0.2143029  )

   Crystallographic axes

     site n.     atom                  positions (cryst. coord.)
         1           Ba  tau(   1) = (  0.0205360  0.7500000  0.2705360  )
         2           Ba  tau(   2) = (  0.9794640  0.2500000  0.7294640  )
         3           Ca  tau(   3) = (  0.5000000  0.5000000  0.5000000  )
         4           Ca  tau(   4) = (  0.5000000  0.0000000  0.0000000  )
         5           I   tau(   5) = (  0.2986380  0.5671170  0.7315210  )
         6           I   tau(   6) = (  0.2137920  0.0198640  0.7336560  )
         7           I   tau(   7) = (  0.7862080  0.5198640  0.8060720  )
         8           I   tau(   8) = (  0.6644040  0.9328830  0.7315210  )
         9           I   tau(   9) = (  0.3355960  0.0671170  0.2684790  )
        10           I   tau(  10) = (  0.7862080  0.9801360  0.2663440  )
        11           I   tau(  11) = (  0.2137920  0.4801360  0.1939280  )
        12           I   tau(  12) = (  0.7013620  0.4328830  0.2684790  )

     number of k points=     1  Methfessel-Paxton smearing, width (Ry)=  0.0010
                       cart. coord. in units 2pi/alat
        k(    1) = (   0.0000000   0.0000000   0.0000000), wk =   2.0000000

                       cryst. coord.
        k(    1) = (   0.0000000   0.0000000   0.0000000), wk =   2.0000000

     Check: negative core charge=   -0.000001

     Initial potential from superposition of free atoms

     starting charge      95.9545, renormalised to      96.0000
     Starting wfcs are   62 randomized atomic wfcs
     Checking if some PAW data can be deallocated...

     Self-consistent Calculation

     iteration #  1     ecut=    30.00 Ry     beta= 0.70
     Davidson diagonalization with overlap

     ethr =  1.00E-02,  avg # of iterations =  4.0

     Threshold (ethr) on eigenvalues was too large:
     Diagonalizing with lowered threshold

     Davidson diagonalization with overlap

[...]

     negative rho (up, down):  7.669E-02 0.000E+00

     total energy              =   -4054.82396004 Ry
     estimated scf accuracy    <       0.35806436 Ry

[...]

     negative rho (up, down):  1.898E-02 0.000E+00

[...]

     c_bands:  2 eigenvalues not converged
     ethr =  1.37E-09,  avg # of iterations = 20.0

     total energy              =   -4054.87685358 Ry
     estimated scf accuracy    <       0.00000150 Ry

     iteration # 18     ecut=    30.00 Ry     beta= 0.70
     Davidson diagonalization with overlap

     ethr =  1.37E-09,  avg # of iterations =  2.0

     End of self-consistent calculation

          k = 0.0000 0.0000 0.0000 (  5683 PWs)   bands (ev):

   -38.5120 -38.5118 -25.0909 -25.0869 -19.5065 -19.5039 -19.5016 -19.5012
   -19.4753 -19.4654 -10.5891 -10.4813 -10.3717 -10.3648 -10.2717 -10.2681
    -9.2319  -9.0197  -8.9842  -8.9607  -8.7648  -8.7571  -8.7481  -8.7353
    -0.6433  -0.3652  -0.2400   0.1574   0.1840   0.2848   0.3893   0.3936
     0.4713   0.6229   0.7427   0.7791   0.8165   0.8366   0.9398   1.2226
     1.3441   1.5016   1.5072   1.5087   1.6034   1.6495   1.6911   1.8970
     5.1892   5.7095   5.9054   5.9670   6.0281   6.0980   6.1286   6.1300
     6.2794   6.3075

     occupation numbers
     1.0000   1.0000   1.0000   1.0000   1.0000   1.0000   1.0000   1.0000
     1.0000   1.0000   1.0000   1.0000   1.0000   1.0000   1.0000   1.0000
     1.0000   1.0000   1.0000   1.0000   1.0000   1.0000   1.0000   1.0000
     1.0000   1.0000   1.0000   1.0000   1.0000   1.0000   1.0000   1.0000
     1.0000   1.0000   1.0000   1.0000   1.0000   1.0000   1.0000   1.0000
     1.0000   1.0000   1.0000   1.0000   1.0000   1.0000   1.0000   1.0000
    -0.0000  -0.0000  -0.0000  -0.0000  -0.0000  -0.0000  -0.0000  -0.0000
    -0.0000  -0.0000

     the Fermi energy is     3.6254 ev

!    total energy              =   -4054.87685348 Ry
     estimated scf accuracy    <       0.00000033 Ry
     smearing contrib. (-TS)   =       0.00000000 Ry
     internal energy E=F+TS    =   -4054.87685348 Ry

     The total energy is F=E-TS. E is the sum of the following terms:
     one-electron contribution =    -151.15984762 Ry
     hartree contribution      =     106.68173907 Ry
     xc contribution           =    -398.57230388 Ry
     ewald contribution        =    -297.70301508 Ry
     one-center paw contrib.   =   -3314.12342597 Ry
      -> PAW hartree energy AE =     136.44836500 Ry
      -> PAW hartree energy PS =    -136.73183900 Ry
      -> PAW xc energy AE      =   -3676.42121058 Ry
      -> PAW xc energy PS      =     362.58125861 Ry
      -> total E_H with PAW    =     106.39826507 Ry
      -> total E_XC with PAW   =   -3712.41225585 Ry

     convergence has been achieved in  18 iterations

     Forces acting on atoms (cartesian axes, Ry/au):

     atom    1 type  1   force =     0.00043732   -0.00032512    0.00049931
     atom    2 type  1   force =    -0.00043732    0.00032512   -0.00049931
     atom    3 type  2   force =     0.00000000    0.00000000    0.00000000
     atom    4 type  2   force =     0.00000000    0.00000000    0.00000000
     atom    5 type  3   force =     0.00208436    0.00471540   -0.00104034
     atom    6 type  3   force =    -0.00559466    0.00416776   -0.00175366
     atom    7 type  3   force =     0.00193843   -0.00144419    0.00677532
     atom    8 type  3   force =    -0.00392182   -0.00334650   -0.00104027
     atom    9 type  3   force =     0.00392182    0.00334650    0.00104027
     atom   10 type  3   force =     0.00559466   -0.00416776    0.00175366
     atom   11 type  3   force =    -0.00193843    0.00144419   -0.00677532
     atom   12 type  3   force =    -0.00208436   -0.00471540    0.00104034
     The non-local contrib.  to forces
     atom    1 type  1   force =     0.00043625   -0.00033175    0.00049858
     atom    2 type  1   force =    -0.00043625    0.00033175   -0.00049858
     atom    3 type  2   force =     0.00000000    0.00000000    0.00000000
     atom    4 type  2   force =     0.00000000    0.00000000    0.00000000
     atom    5 type  3   force =     0.01520557    0.01028419    0.00549263
     atom    6 type  3   force =    -0.00050062    0.00037300   -0.02386804
     atom    7 type  3   force =     0.01909977   -0.01422879   -0.00167718
     atom    8 type  3   force =    -0.00550219   -0.01751293    0.00549263
     atom    9 type  3   force =     0.00550219    0.01751293   -0.00549263
     atom   10 type  3   force =     0.00050062   -0.00037300    0.02386804
     atom   11 type  3   force =    -0.01909977    0.01422879    0.00167718
     atom   12 type  3   force =    -0.01520557   -0.01028419   -0.00549263
     The ionic contribution  to forces
     atom    1 type  1   force =     0.04623663   -0.03444414    0.05234685
     atom    2 type  1   force =    -0.04623663    0.03444414   -0.05234685
     atom    3 type  2   force =     0.00000000    0.00000000    0.00000000
     atom    4 type  2   force =    -0.00000000   -0.00000000   -0.00000000
     atom    5 type  3   force =    -1.35549054   -1.66330925   -0.08475184
     atom    6 type  3   force =    -0.56979258    0.42446894   -0.11357730
     atom    7 type  3   force =     0.14553227   -0.10841477    0.69627858
     atom    8 type  3   force =     1.20577230    1.77484237   -0.08475184
     atom    9 type  3   force =    -1.20577230   -1.77484237    0.08475184
     atom   10 type  3   force =     0.56979258   -0.42446894    0.11357730
     atom   11 type  3   force =    -0.14553227    0.10841477   -0.69627858
     atom   12 type  3   force =     1.35549054    1.66330925    0.08475184
     The local contribution  to forces
     atom    1 type  1   force =    -0.04642402    0.03404360   -0.05195688
     atom    2 type  1   force =     0.04624436   -0.03499912    0.05296114
     atom    3 type  2   force =    -0.00000024   -0.00000182    0.00000329
     atom    4 type  2   force =     0.00000293   -0.00000310   -0.00000047
     atom    5 type  3   force =     1.34421984    1.65793979    0.07945634
     atom    6 type  3   force =     0.56605929   -0.42168689    0.13465997
     atom    7 type  3   force =    -0.16200089    0.12068345   -0.68961236
     atom    8 type  3   force =    -1.20385456   -1.76250674    0.07945684
     atom    9 type  3   force =     1.20385443    1.76250499   -0.07945656
     atom   10 type  3   force =    -0.56605793    0.42168714   -0.13465721
     atom   11 type  3   force =     0.16200033   -0.12068188    0.68961575
     atom   12 type  3   force =    -1.34421929   -1.65794046   -0.07945749
     The core correction contribution to forces
     atom    1 type  1   force =     0.00009905   -0.00008472    0.00012450
     atom    2 type  1   force =    -0.00010307    0.00006605   -0.00010415
     atom    3 type  2   force =     0.00000004   -0.00000012    0.00000008
     atom    4 type  2   force =     0.00000008   -0.00000015   -0.00000007
     atom    5 type  3   force =    -0.00184923   -0.00019741   -0.00123941
     atom    6 type  3   force =    -0.00135750    0.00101121    0.00103037
     atom    7 type  3   force =    -0.00069165    0.00051529    0.00178417
     atom    8 type  3   force =    -0.00033984    0.00182873   -0.00123930
     atom    9 type  3   force =     0.00034019   -0.00182851    0.00123946
     atom   10 type  3   force =     0.00135750   -0.00101129   -0.00103014
     atom   11 type  3   force =     0.00069163   -0.00051530   -0.00178403
     atom   12 type  3   force =     0.00184962    0.00019778    0.00123930
     The Hubbard contrib.    to forces
     atom    1 type  1   force =     0.00000000    0.00000000    0.00000000
     atom    2 type  1   force =     0.00000000    0.00000000    0.00000000
     atom    3 type  2   force =     0.00000000    0.00000000    0.00000000
     atom    4 type  2   force =     0.00000000    0.00000000    0.00000000
     atom    5 type  3   force =     0.00000000    0.00000000    0.00000000
     atom    6 type  3   force =     0.00000000    0.00000000    0.00000000
     atom    7 type  3   force =     0.00000000    0.00000000    0.00000000
     atom    8 type  3   force =     0.00000000    0.00000000    0.00000000
     atom    9 type  3   force =     0.00000000    0.00000000    0.00000000
     atom   10 type  3   force =     0.00000000    0.00000000    0.00000000
     atom   11 type  3   force =     0.00000000    0.00000000    0.00000000
     atom   12 type  3   force =     0.00000000    0.00000000    0.00000000
     The SCF correction term to forces
     atom    1 type  1   force =     0.00000888    0.00006222   -0.00005882
     atom    2 type  1   force =     0.00001373    0.00005265   -0.00005593
     atom    3 type  2   force =     0.00000095    0.00000152   -0.00000312
     atom    4 type  2   force =    -0.00000226    0.00000217   -0.00000072
     atom    5 type  3   force =    -0.00000078   -0.00000160    0.00000186
     atom    6 type  3   force =    -0.00000338    0.00000118    0.00000191
     atom    7 type  3   force =    -0.00000143    0.00000054    0.00000216
     atom    8 type  3   force =     0.00000272    0.00000249    0.00000147
     atom    9 type  3   force =    -0.00000244   -0.00000012   -0.00000179
     atom   10 type  3   force =     0.00000175   -0.00000199   -0.00000377
     atom   11 type  3   force =     0.00000128   -0.00000227   -0.00000560
     atom   12 type  3   force =     0.00000082    0.00000253   -0.00000078

     Total force =     0.017853     Total SCF correction =     0.000117

     Computing stress (Cartesian axis) and pressure

          total   stress  (Ry/bohr**3)                   (kbar)     P=        7.73
   0.00005437   0.00002089   0.00000999            8.00        3.07        1.47
   0.00002089   0.00006685  -0.00000744            3.07        9.83       -1.10
   0.00000999  -0.00000744   0.00003639            1.47       -1.10        5.35

     kinetic stress (kbar)   3059.02      7.49      5.56
                                7.49   3063.50     -4.14
                                5.56     -4.14   3052.10

     local   stress (kbar)    274.01    939.63    691.32
                              939.63    835.35   -515.00
                              691.32   -515.00   -592.79

     nonloc. stress (kbar)    320.46      1.41     -0.06
                                1.41    321.30      0.04
                               -0.06      0.04    319.42

     hartree stress (kbar)   1238.30   -376.39   -284.28
                             -376.39   1013.44    211.77
                             -284.28    211.77   1587.29

     exc-cor stress (kbar)  10318.02     -0.63     -0.22
                               -0.63  10317.64      0.16
                               -0.22      0.16  10318.54

     corecor stress (kbar) -11569.81     -0.32     -0.27
                               -0.32 -11570.01      0.20
                               -0.27      0.20 -11569.51

     ewald   stress (kbar)  -3631.99   -568.12   -410.58
                             -568.12  -3971.39    305.87
                             -410.58    305.87  -3109.70

     hubbard stress (kbar)      0.00      0.00      0.00
                                0.00      0.00      0.00
                                0.00      0.00      0.00

     DFT-D   stress (kbar)      0.00      0.00      0.00
                                0.00      0.00      0.00
                                0.00      0.00      0.00

     XDM     stress (kbar)      0.00      0.00      0.00
                                0.00      0.00      0.00
                                0.00      0.00      0.00

     dft-nl  stress (kbar)      0.00      0.00      0.00
                                0.00      0.00      0.00
                                0.00      0.00      0.00

     TS-vdW  stress (kbar)      0.00      0.00      0.00
                                0.00      0.00      0.00
                                0.00      0.00      0.00

[...]

                                0.00      0.00      0.00

     Writing all to output data dir new_calculations/myprefix.save/

     General routines

     Parallel routines

     PAW routines

   This run was terminated on:  11:47: 9  21May2023

   JOB DONE.