     Program PWSCF v.7.0 starts on 20May2023 at 21: 0: 4

     Reading input from espresso_10720.pwi
Warning: card &CELL ignored
Warning: card / ignored

     Current dimensions of program PWSCF are:
     Max number of different atomic species (ntypx) = 10
     Max number of k-points (npk) =  40000
     Max angular momentum in pseudopotentials (lmaxx) =  4
     file Al.pbe-n-kjpaw_psl.1.0.0.UPF: wavefunction(s)  3S 3P renormalized
     file Pb.pbe-dn-kjpaw_psl.0.2.2.UPF: wavefunction(s)  6S renormalized
     file O.pbe-n-kjpaw_psl.0.1.UPF: wavefunction(s)  2P renormalized

     gamma-point specific algorithms are used
     Message from routine setup:
     using ibrav=0 with symmetry is DISCOURAGED, use correct ibrav instead

     Subspace diagonalization in iterative solution of the eigenvalue problem:
     a serial algorithm will be used

     Using Slab Decomposition

     bravais-lattice index     =            0
     lattice parameter (alat)  =      10.0688  a.u.
     unit-cell volume          =    1390.8154 (a.u.)^3
     number of atoms/cell      =           14
     number of atomic types    =            3
     number of electrons       =        88.00
     number of Kohn-Sham states=           53
     kinetic-energy cutoff     =      30.0000  Ry
     charge density cutoff     =     240.0000  Ry
     scf convergence threshold =      1.0E-06
     mixing beta               =       0.7000
     number of iterations used =            8  plain     mixing
     Exchange-correlation= SLA  PW   PBX  PBC
                           (   1   4   3   4   0   0   0)

     celldm(1)=  10.068785  celldm(2)=   0.000000  celldm(3)=   0.000000
     celldm(4)=   0.000000  celldm(5)=   0.000000  celldm(6)=   0.000000

     crystal axes: (cart. coord. in units of alat)
               a(1) = (   1.000000   0.000000   0.000000 )
               a(2) = (  -0.531391   0.847127   0.000000 )
               a(3) = (   0.000000   0.000000   1.608385 )

     reciprocal axes: (cart. coord. in units 2 pi/alat)
               b(1) = (  1.000000  0.627286  0.000000 )
               b(2) = (  0.000000  1.180461  0.000000 )
               b(3) = (  0.000000  0.000000  0.621742 )

     PseudoPot. # 1 for Al read from file:
     /home/pragov/projects/rrg-bengioy-ad/pragov/crystal_structure_design/SSSP/Al.pbe-n-kjpaw_psl.1.0.0.UPF
     MD5 check sum: cfc449ca30b5f3223ec38ddd88ac046d
     Pseudo is Projector augmented-wave + core cor, Zval =  3.0
     Generated using "atomic" code by A. Dal Corso  v.5.1
     Shape of augmentation charge: PSQ
     Using radial grid of 1135 points,  6 beta functions with:
                l(1) =   0
                l(2) =   0
                l(3) =   1
                l(4) =   1
                l(5) =   2
                l(6) =   2
     Q(r) pseudized with 0 coefficients

     PseudoPot. # 2 for Pb read from file:
     /home/pragov/projects/rrg-bengioy-ad/pragov/crystal_structure_design/SSSP/Pb.pbe-dn-kjpaw_psl.0.2.2.UPF
     MD5 check sum: 9d431e6316058b74ade52399a6cf67da
     Pseudo is Projector augmented-wave + core cor, Zval = 14.0
     Generated using "atomic" code by A. Dal Corso  v.5.0.99 svn rev. 10869
     Shape of augmentation charge: PSQ
     Using radial grid of 1281 points,  6 beta functions with:
                l(1) =   0
                l(2) =   0
                l(3) =   1
                l(4) =   1
                l(5) =   2
                l(6) =   2
     Q(r) pseudized with 0 coefficients

     PseudoPot. # 3 for O  read from file:
     /home/pragov/projects/rrg-bengioy-ad/pragov/crystal_structure_design/SSSP/O.pbe-n-kjpaw_psl.0.1.UPF
     MD5 check sum: 0234752ac141de4415c5fc33072bef88
     Pseudo is Projector augmented-wave + core cor, Zval =  6.0
     Generated using "atomic" code by A. Dal Corso  v.5.0.99 svn rev. 10869
     Shape of augmentation charge: BESSEL
     Using radial grid of 1095 points,  4 beta functions with:
                l(1) =   0
                l(2) =   0
                l(3) =   1
                l(4) =   1
     Q(r) pseudized with 0 coefficients

     atomic species   valence    mass     pseudopotential
        Al             3.00    26.98154     Al( 1.00)
        Pb            14.00   207.20000     Pb( 1.00)
        O              6.00    15.99900     O ( 1.00)

      2 Sym. Ops. (no inversion) found ( 1 have fractional translation)

                                    s                        frac. trans.

      isym =  1     identity

 cryst.   s( 1) = (     1          0          0      )
                  (     0          1          0      )
                  (     0          0          1      )

 cart.    s( 1) = (  1.0000000  0.0000000  0.0000000 )
                  (  0.0000000  1.0000000  0.0000000 )
                  (  0.0000000  0.0000000  1.0000000 )

      isym =  2     inv. 180 deg rotation - cart. axis [0,0,1]

 cryst.   s( 2) = (     1          0          0      )    f =(  0.0000000 )
                  (     0          1          0      )       (  0.0000000 )
                  (     0          0         -1      )       (  0.5000000 )

 cart.    s( 2) = (  1.0000000  0.0000000  0.0000000 )    f =(  0.0000000 )
                  (  0.0000000  1.0000000  0.0000000 )       (  0.0000000 )
                  (  0.0000000  0.0000000 -1.0000000 )       (  0.8041923 )

   Cartesian axes

     site n.     atom                  positions (alat units)
         1           Al  tau(   1) = (  -0.0440645   0.5419256   0.8915629  )
         2           Al  tau(   2) = (   0.4824951   0.2506461   0.7168216  )
         3           Al  tau(   3) = (  -0.0440645   0.5419256   1.5210139  )
         4           Al  tau(   4) = (   0.4824951   0.2506461   0.0873707  )
         5           Pb  tau(   5) = (   0.9536318   0.0254130   1.2062884  )
         6           Pb  tau(   6) = (  -0.4852234   0.8213511   0.4020961  )
         7           O   tau(   7) = (  -0.1203829   0.4558905   1.2062884  )
         8           O   tau(   8) = (   0.4501674   0.1402766   0.4020961  )
         9           O   tau(   9) = (   0.1678857   0.3034950   0.8041923  )
        10           O   tau(  10) = (   0.1678857   0.3034950   0.0000000  )
        11           O   tau(  11) = (   0.6179600   0.0008370   0.8915324  )
        12           O   tau(  12) = (  -0.3276694   0.5239351   0.7168522  )
        13           O   tau(  13) = (  -0.3276694   0.5239351   0.0873401  )
        14           O   tau(  14) = (   0.6179600   0.0008370   1.5210444  )

   Crystallographic axes

     site n.     atom                  positions (cryst. coord.)
         1           Al  tau(   1) = (  0.2958780  0.6397220  0.5543220  )
         2           Al  tau(   2) = (  0.6397220  0.2958780  0.4456780  )
         3           Al  tau(   3) = (  0.2958780  0.6397220  0.9456780  )
         4           Al  tau(   4) = (  0.6397220  0.2958780  0.0543220  )
         5           Pb  tau(   5) = (  0.9695730  0.0299990  0.7500000  )
         6           Pb  tau(   6) = (  0.0299990  0.9695730  0.2500000  )
         7           O   tau(   7) = (  0.1655910  0.5381610  0.7500000  )
         8           O   tau(   8) = (  0.5381610  0.1655910  0.2500000  )
         9           O   tau(   9) = (  0.3582640  0.3582640  0.5000000  )
        10           O   tau(  10) = (  0.3582640  0.3582640  0.0000000  )
        11           O   tau(  11) = (  0.6184850  0.0009880  0.5543030  )
        12           O   tau(  12) = (  0.0009880  0.6184850  0.4456970  )
        13           O   tau(  13) = (  0.0009880  0.6184850  0.0543030  )
        14           O   tau(  14) = (  0.6184850  0.0009880  0.9456970  )

     number of k points=     1  Methfessel-Paxton smearing, width (Ry)=  0.0010
                       cart. coord. in units 2pi/alat
        k(    1) = (   0.0000000   0.0000000   0.0000000), wk =   2.0000000

                       cryst. coord.
        k(    1) = (   0.0000000   0.0000000   0.0000000), wk =   2.0000000

     Check: negative core charge=   -0.000007

     Initial potential from superposition of free atoms

     starting charge      87.9861, renormalised to      88.0000
     Starting wfcs are   66 randomized atomic wfcs
     Checking if some PAW data can be deallocated...

     Self-consistent Calculation

     iteration #  1     ecut=    30.00 Ry     beta= 0.70
     Davidson diagonalization with overlap

     ethr =  1.00E-02,  avg # of iterations =  3.0

     total energy              =   -2231.53253145 Ry
     estimated scf accuracy    <       3.94690947 Ry

[...]

     total energy              =   -2233.39854057 Ry
     estimated scf accuracy    <       0.00000102 Ry

     iteration # 10     ecut=    30.00 Ry     beta= 0.70
     Davidson diagonalization with overlap

     ethr =  1.16E-09,  avg # of iterations =  4.0

     End of self-consistent calculation

          k = 0.0000 0.0000 0.0000 (  1930 PWs)   bands (ev):

   -12.9036 -12.3885 -12.3826 -11.9407 -11.7546 -11.7458 -11.5017 -11.4070
   -10.1175 -10.1081 -10.0940 -10.0602 -10.0350 -10.0218  -9.9231  -9.9089
    -9.8497  -9.8205  -1.4712  -1.3584  -0.6812   0.0568   0.8345   0.9785
     1.0413   1.0587   1.7517   1.7790   2.1739   2.6607   2.6715   2.9665
     2.9969   3.0729   3.4086   3.5696   3.6160   3.7510   3.8242   4.1296
     4.1336   4.1576   4.2776   4.7232   8.9901   9.8941  10.0741  11.0138
    11.1568  11.3480  11.3845  13.3365  14.0021

     occupation numbers
     1.0000   1.0000   1.0000   1.0000   1.0000   1.0000   1.0000   1.0000
     1.0000   1.0000   1.0000   1.0000   1.0000   1.0000   1.0000   1.0000
     1.0000   1.0000   1.0000   1.0000   1.0000   1.0000   1.0000   1.0000
     1.0000   1.0000   1.0000   1.0000   1.0000   1.0000   1.0000   1.0000
     1.0000   1.0000   1.0000   1.0000   1.0000   1.0000   1.0000   1.0000
     1.0000   1.0000   1.0000   1.0000  -0.0000  -0.0000  -0.0000  -0.0000
    -0.0000  -0.0000  -0.0000  -0.0000  -0.0000

     the Fermi energy is     7.3437 ev

!    total energy              =   -2233.39854087 Ry

     total all-electron energy =    -86675.801738 Ry
     estimated scf accuracy    <       0.00000011 Ry
     smearing contrib. (-TS)   =       0.00000000 Ry
     internal energy E=F+TS    =   -2233.39854087 Ry

     The total energy is F=E-TS. E is the sum of the following terms:
     one-electron contribution =    -187.72093915 Ry
     hartree contribution      =     154.13165017 Ry
     xc contribution           =    -159.60269273 Ry
     ewald contribution        =    -368.40990884 Ry
     one-center paw contrib.   =   -1671.79665032 Ry
      -> PAW hartree energy AE =     449.63747855 Ry
      -> PAW hartree energy PS =    -448.32396800 Ry
      -> PAW xc energy AE      =   -1832.19005774 Ry
      -> PAW xc energy PS      =     159.07989688 Ry
      -> total E_H with PAW    =     155.44516072 Ry
      -> total E_XC with PAW   =   -1832.71285360 Ry

     convergence has been achieved in  10 iterations

     Forces acting on atoms (cartesian axes, Ry/au):

     atom    1 type  1   force =     0.00314491    0.00402062   -0.00344064
     atom    2 type  1   force =     0.00174241    0.00480050    0.00343036
     atom    3 type  1   force =     0.00314491    0.00402062    0.00344064
     atom    4 type  1   force =     0.00174241    0.00480050   -0.00343036
     atom    5 type  2   force =     0.01020398    0.00849696    0.00000000
     atom    6 type  2   force =     0.00175330    0.01315241    0.00000000
     atom    7 type  3   force =    -0.01740870   -0.00686998    0.00000000
     atom    8 type  3   force =     0.00342002   -0.01837902    0.00000000
     atom    9 type  3   force =    -0.00525608   -0.00949803   -0.00000857
     atom   10 type  3   force =    -0.00525608   -0.00949803    0.00000857
     atom   11 type  3   force =     0.01517238   -0.00677009    0.01923259
     atom   12 type  3   force =    -0.01378793    0.00924681   -0.01922952
     atom   13 type  3   force =    -0.01378793    0.00924681    0.01922952
     atom   14 type  3   force =     0.01517238   -0.00677009   -0.01923259
     The non-local contrib.  to forces
     atom    1 type  1   force =    -0.00856918    0.01419362   -0.01233366
     atom    2 type  1   force =     0.01658218    0.00027677    0.01233817
     atom    3 type  1   force =    -0.00856918    0.01419362    0.01233366
     atom    4 type  1   force =     0.01658218    0.00027677   -0.01233817
     atom    5 type  2   force =    -0.24341587    0.19055109    0.00000000
     atom    6 type  2   force =     0.29077942   -0.10494514    0.00000000
     atom    7 type  3   force =     0.49700196    0.08057094    0.00000000
     atom    8 type  3   force =    -0.19586910    0.46379235    0.00000000
     atom    9 type  3   force =     0.25157702    0.45482114    0.00005355
     atom   10 type  3   force =     0.25157702    0.45482114   -0.00005355
     atom   11 type  3   force =    -0.43827531   -0.13005979   -0.33113302
     atom   12 type  3   force =     0.12274357   -0.44038146    0.33124195
     atom   13 type  3   force =     0.12274357   -0.44038146   -0.33124195
     atom   14 type  3   force =    -0.43827531   -0.13005979    0.33113302
     The ionic contribution  to forces
     atom    1 type  1   force =     0.18632655    0.49897310   -0.66883152
     atom    2 type  1   force =     0.32368116    0.42299202    0.66883152
     atom    3 type  1   force =     0.18632655    0.49897310    0.66883152
     atom    4 type  1   force =     0.32368116    0.42299202   -0.66883152
     atom    5 type  2   force =     4.42446413   -6.03237412    0.00000000
     atom    6 type  2   force =    -7.46130547    0.54253200    0.00000000
     atom    7 type  3   force =    -2.30699156    2.82642005    0.00000000
     atom    8 type  3   force =     3.62025039   -0.45237978   -0.00000000
     atom    9 type  3   force =     0.46616995    0.84271753   -0.00000000
     atom   10 type  3   force =     0.46616995    0.84271753    0.00000000
     atom   11 type  3   force =    -0.38610858    0.07855678   -0.54071177
     atom   12 type  3   force =     0.27172218   -0.28533850    0.54071177
     atom   13 type  3   force =     0.27172218   -0.28533850   -0.54071177
     atom   14 type  3   force =    -0.38610858    0.07855678    0.54071177
     The local contribution  to forces
     atom    1 type  1   force =    -0.17578401   -0.50673155    0.67550793
     atom    2 type  1   force =    -0.33585915   -0.41817024   -0.67543575
     atom    3 type  1   force =    -0.17577823   -0.50672559   -0.67552142
     atom    4 type  1   force =    -0.33585766   -0.41818186    0.67543832
     atom    5 type  2   force =    -4.18018841    5.85543420    0.00003144
     atom    6 type  2   force =     7.18165505   -0.42959452    0.00000011
     atom    7 type  3   force =     1.79734976   -2.91326126    0.00002145
     atom    8 type  3   force =    -3.42300104   -0.02550327    0.00000420
     atom    9 type  3   force =    -0.72071839   -1.30286601    0.00008058
     atom   10 type  3   force =    -0.72072595   -1.30287413   -0.00008976
     atom   11 type  3   force =     0.83599008    0.04360291    0.88813063
     atom   12 type  3   force =    -0.40730053    0.73141182   -0.88796185
     atom   13 type  3   force =    -0.40729187    0.73139019    0.88796002
     atom   14 type  3   force =     0.83601917    0.04360018   -0.88814218
     The core correction contribution to forces
     atom    1 type  1   force =     0.00119137   -0.00242055    0.00224583
     atom    2 type  1   force =    -0.00268413   -0.00027654   -0.00224550
     atom    3 type  1   force =     0.00119102   -0.00242043   -0.00224534
     atom    4 type  1   force =    -0.00268367   -0.00027608    0.00224525
     atom    5 type  2   force =     0.00929491   -0.00518087    0.00000133
     atom    6 type  2   force =    -0.00932781    0.00512048   -0.00000132
     atom    7 type  3   force =    -0.00468185   -0.00064486    0.00000033
     atom    8 type  3   force =     0.00194200   -0.00430792    0.00000004
     atom    9 type  3   force =    -0.00233687   -0.00422496   -0.00000066
     atom   10 type  3   force =    -0.00233677   -0.00422484    0.00000063
     atom   11 type  3   force =     0.00366027    0.00109805    0.00315657
     atom   12 type  3   force =    -0.00101530    0.00368434   -0.00315773
     atom   13 type  3   force =    -0.00101500    0.00368411    0.00315794
     atom   14 type  3   force =     0.00366031    0.00109802   -0.00315669
     The Hubbard contrib.    to forces
     atom    1 type  1   force =     0.00000000    0.00000000    0.00000000
     atom    2 type  1   force =     0.00000000    0.00000000    0.00000000
     atom    3 type  1   force =     0.00000000    0.00000000    0.00000000
     atom    4 type  1   force =     0.00000000    0.00000000    0.00000000
     atom    5 type  2   force =     0.00000000    0.00000000    0.00000000
     atom    6 type  2   force =     0.00000000    0.00000000    0.00000000
     atom    7 type  3   force =     0.00000000    0.00000000    0.00000000
     atom    8 type  3   force =     0.00000000    0.00000000    0.00000000
     atom    9 type  3   force =     0.00000000    0.00000000    0.00000000
     atom   10 type  3   force =     0.00000000    0.00000000    0.00000000
     atom   11 type  3   force =     0.00000000    0.00000000    0.00000000
     atom   12 type  3   force =     0.00000000    0.00000000    0.00000000
     atom   13 type  3   force =     0.00000000    0.00000000    0.00000000
     atom   14 type  3   force =     0.00000000    0.00000000    0.00000000
     The SCF correction term to forces
     atom    1 type  1   force =    -0.00001883    0.00001108   -0.00002845
     atom    2 type  1   force =     0.00002098   -0.00001650   -0.00005899
     atom    3 type  1   force =    -0.00002690    0.00000724    0.00004298
     atom    4 type  1   force =     0.00002112   -0.00000294    0.00005483
     atom    5 type  2   force =     0.00004890    0.00007287   -0.00005541
     atom    6 type  2   force =    -0.00004821    0.00004580    0.00001632
     atom    7 type  3   force =    -0.00008734    0.00005136   -0.00001832
     atom    8 type  3   force =     0.00009745    0.00002582    0.00000057
     atom    9 type  3   force =     0.00004914    0.00005953   -0.00014169
     atom   10 type  3   force =     0.00006209    0.00006943    0.00015161
     atom   11 type  3   force =    -0.00009188    0.00003520   -0.00021409
     atom   12 type  3   force =     0.00005590   -0.00011113   -0.00006108
     atom   13 type  3   force =     0.00005880   -0.00011337    0.00006785
     atom   14 type  3   force =    -0.00012607    0.00004392    0.00021721

     Total force =     0.063419     Total SCF correction =     0.000516

     Computing stress (Cartesian axis) and pressure

          total   stress  (Ry/bohr**3)                   (kbar)     P=     -287.51
  -0.00201712   0.00009357   0.00000000         -296.73       13.77        0.00
   0.00009357  -0.00189968   0.00000000           13.77     -279.45        0.00
   0.00000000   0.00000000  -0.00194655            0.00        0.00     -286.35

     kinetic stress (kbar)  14730.25    -41.75      0.00
                              -41.75  14677.87      0.00
                                0.00      0.00  14845.39

     local   stress (kbar)  -3971.95  -1652.23     -0.00
                            -1652.23  -6044.79      0.00
                               -0.00      0.00  -6883.86

     nonloc. stress (kbar)   2120.68     -4.62      0.00
                               -4.62   2114.90      0.00
                                0.00      0.00   2092.71

     hartree stress (kbar)   4679.02    643.84      0.00
                              643.84   5486.75     -0.00
                                0.00     -0.00   6136.57

     exc-cor stress (kbar)   2880.32      0.34     -0.00
                                0.34   2880.74      0.00
                               -0.00      0.00   2877.20

     corecor stress (kbar)  -6840.77      0.25      0.00
                                0.25  -6840.45      0.00
                                0.00      0.00  -6836.79

     ewald   stress (kbar) -13894.28   1067.94      0.00
                             1067.94 -12554.48     -0.00
                                0.00     -0.00 -12517.57

     hubbard stress (kbar)      0.00      0.00      0.00
                                0.00      0.00      0.00
                                0.00      0.00      0.00

     DFT-D   stress (kbar)      0.00      0.00      0.00
                                0.00      0.00      0.00
                                0.00      0.00      0.00

     XDM     stress (kbar)      0.00      0.00      0.00
                                0.00      0.00      0.00
                                0.00      0.00      0.00

     dft-nl  stress (kbar)      0.00      0.00      0.00
                                0.00      0.00      0.00
                                0.00      0.00      0.00

     TS-vdW  stress (kbar)      0.00      0.00      0.00
                                0.00      0.00      0.00
                                0.00      0.00      0.00

[...]

                                0.00      0.00      0.00

     Writing all to output data dir new_calculations/myprefix.save/

     General routines

     Parallel routines

     PAW routines

   This run was terminated on:  21: 0:26  20May2023

   JOB DONE.