     Program PWSCF v.7.0 starts on 21May2023 at  1:41: 9

     Reading input from espresso_19647.pwi
Warning: card &CELL ignored
Warning: card / ignored

     Current dimensions of program PWSCF are:
     Max number of different atomic species (ntypx) = 10
     Max number of k-points (npk) =  40000
     Max angular momentum in pseudopotentials (lmaxx) =  4

     gamma-point specific algorithms are used
     Message from routine setup:
     using ibrav=0 with symmetry is DISCOURAGED, use correct ibrav instead

     Subspace diagonalization in iterative solution of the eigenvalue problem:
     a serial algorithm will be used

     Using Slab Decomposition

     bravais-lattice index     =            0
     lattice parameter (alat)  =       7.3472  a.u.
     unit-cell volume          =    1167.8674 (a.u.)^3
     number of atoms/cell      =           10
     number of atomic types    =            3
     number of electrons       =        80.00
     number of Kohn-Sham states=           48
     kinetic-energy cutoff     =      30.0000  Ry
     charge density cutoff     =     240.0000  Ry
     scf convergence threshold =      1.0E-06
     mixing beta               =       0.7000
     number of iterations used =            8  plain     mixing
     Exchange-correlation= PBE
                           (   1   4   3   4   0   0   0)

     celldm(1)=   7.347232  celldm(2)=   0.000000  celldm(3)=   0.000000
     celldm(4)=   0.000000  celldm(5)=   0.000000  celldm(6)=   0.000000

     crystal axes: (cart. coord. in units of alat)
               a(1) = (   1.000000   0.000000   0.000000 )
               a(2) = (   0.000000   1.509353   0.000000 )
               a(3) = (   0.000000   0.683366   1.950883 )

     reciprocal axes: (cart. coord. in units 2 pi/alat)
               b(1) = (  1.000000  0.000000  0.000000 )
               b(2) = (  0.000000  0.662535 -0.232076 )
               b(3) = (  0.000000  0.000000  0.512588 )

     PseudoPot. # 1 for La read from file:
     /home/pragov/projects/rrg-bengioy-ad/pragov/crystal_structure_design/SSSP/La.GGA-PBE-paw-v1.0.UPF
     MD5 check sum: 436541e95c1ad8901025bd0b0ed42ae2
     Pseudo is Projector augmented-wave + core cor, Zval = 11.0
     Generated using ATOMPAW code
     Shape of augmentation charge: BESSEL
     Using radial grid of 1101 points,  8 beta functions with:
                l(1) =   0
                l(2) =   0
                l(3) =   1
                l(4) =   1
                l(5) =   2
                l(6) =   2
                l(7) =   3
                l(8) =   3
     Q(r) pseudized with 0 coefficients

     PseudoPot. # 2 for W  read from file:
     /home/pragov/projects/rrg-bengioy-ad/pragov/crystal_structure_design/SSSP/W_pbe_v1.2.uspp.F.UPF
     MD5 check sum: 9c083fa34c2a2ea0f02f1f893e16e1c8
     Pseudo is Ultrasoft + core correction, Zval = 14.0
     Generated by new atomic code, or converted to UPF format
     Using radial grid of  923 points,  8 beta functions with:
                l(1) =   0
                l(2) =   0
                l(3) =   0
                l(4) =   1
                l(5) =   1
                l(6) =   2
                l(7) =   2
                l(8) =   3
     Q(r) pseudized with  6 coefficients,  rinner =    1.350   1.350   1.350
                                                       1.350   1.350   1.350
                                                       1.350

     PseudoPot. # 3 for N  read from file:
     /home/pragov/projects/rrg-bengioy-ad/pragov/crystal_structure_design/SSSP/N.pbe-n-radius_5.UPF
     MD5 check sum: 16739722b17309cd8fe442a2ace49922
     Pseudo is Ultrasoft + core correction, Zval =  5.0
     Generated using "atomic" code by A. Dal Corso  v.5.1
     Using radial grid of 1085 points,  4 beta functions with:
                l(1) =   0
                l(2) =   0
                l(3) =   1
                l(4) =   1
     Q(r) pseudized with 0 coefficients

     atomic species   valence    mass     pseudopotential
        La            11.00   138.90547     La( 1.00)
        W             14.00   183.84000     W ( 1.00)
        N              5.00    14.00700     N ( 1.00)

      4 Sym. Ops., with inversion, found ( 2 have fractional translation)

                                    s                        frac. trans.

      isym =  1     identity

 cryst.   s( 1) = (     1          0          0      )
                  (     0          1          0      )
                  (     0          0          1      )

 cart.    s( 1) = (  1.0000000  0.0000000  0.0000000 )
                  (  0.0000000  1.0000000 -0.0000000 )
                  (  0.0000000  0.0000000  1.0000000 )

      isym =  2     180 deg rotation - cart. axis [1,0,0]

 cryst.   s( 2) = (     1          0          0      )    f =( -0.5000000 )
                  (     0         -1          0      )       (  0.0000000 )
                  (     0          0         -1      )       ( -0.0000000 )

 cart.    s( 2) = (  1.0000000  0.0000000  0.0000000 )    f =( -0.5000000 )
                  (  0.0000000 -1.0000000  0.0000000 )       (  0.0000000 )
                  (  0.0000000  0.0000000 -1.0000000 )       ( -0.0000000 )

      isym =  3     inversion

 cryst.   s( 3) = (    -1          0          0      )
                  (     0         -1          0      )
                  (     0          0         -1      )

 cart.    s( 3) = ( -1.0000000  0.0000000  0.0000000 )
                  (  0.0000000 -1.0000000  0.0000000 )
                  (  0.0000000  0.0000000 -1.0000000 )

      isym =  4     inv. 180 deg rotation - cart. axis [1,0,0]

 cryst.   s( 4) = (    -1          0          0      )    f =(  0.5000000 )
                  (     0          1          0      )       (  0.0000000 )
                  (     0          0          1      )       (  0.0000000 )

 cart.    s( 4) = ( -1.0000000  0.0000000  0.0000000 )    f =(  0.5000000 )
                  (  0.0000000  1.0000000 -0.0000000 )       (  0.0000000 )
                  (  0.0000000  0.0000000  1.0000000 )       (  0.0000000 )

   Cartesian axes

     site n.     atom                  positions (alat units)
         1           La  tau(   1) = (   0.2500000   0.9240364   1.5880793  )
         2           La  tau(   2) = (   0.7500000   1.2686828   0.3628038  )
         3           W   tau(   3) = (   0.2500000   0.4420050   0.6465539  )
         4           W   tau(   4) = (   0.7500000   1.7507142   1.3043292  )
         5           N   tau(   5) = (   0.2500000   0.1537337   0.2605521  )
         6           N   tau(   6) = (   0.7500000   2.0389855   1.6903309  )
         7           N   tau(   7) = (   0.2500000   1.8880208   1.1888389  )
         8           N   tau(   8) = (   0.7500000   0.3046985   0.7620442  )
         9           N   tau(   9) = (   0.2500000   0.8865372   0.5091220  )
        10           N   tau(  10) = (   0.7500000   1.3061821   1.4417611  )

   Crystallographic axes

     site n.     atom                  positions (cryst. coord.)
         1           La  tau(   1) = (  0.2500000  0.2436510  0.8140310  )
         2           La  tau(   2) = (  0.7500000  0.7563490  0.1859690  )
         3           W   tau(   3) = (  0.2500000  0.1427940  0.3314160  )
         4           W   tau(   4) = (  0.7500000  0.8572060  0.6685840  )
         5           N   tau(   5) = (  0.2500000  0.0413860  0.1335560  )
         6           N   tau(   6) = (  0.7500000  0.9586140  0.8664440  )
         7           N   tau(   7) = (  0.2500000  0.9749790  0.6093850  )
         8           N   tau(   8) = (  0.7500000  0.0250210  0.3906150  )
         9           N   tau(   9) = (  0.2500000  0.4692070  0.2609700  )
        10           N   tau(  10) = (  0.7500000  0.5307930  0.7390300  )

     number of k points=     1  Methfessel-Paxton smearing, width (Ry)=  0.0010
                       cart. coord. in units 2pi/alat
        k(    1) = (   0.0000000   0.0000000   0.0000000), wk =   2.0000000

                       cryst. coord.
        k(    1) = (   0.0000000   0.0000000   0.0000000), wk =   2.0000000

     Check: negative core charge=   -0.000003

     Initial potential from superposition of free atoms

     starting charge      79.7822, renormalised to      80.0000

     negative rho (up, down):  1.269E-01 0.000E+00
     Starting wfcs are  114 randomized atomic wfcs
     Checking if some PAW data can be deallocated...

     Self-consistent Calculation

     iteration #  1     ecut=    30.00 Ry     beta= 0.70
     Davidson diagonalization with overlap

     ethr =  1.00E-02,  avg # of iterations =  2.0

     negative rho (up, down):  1.213E-01 0.000E+00

     total energy              =   -1353.34781675 Ry
     estimated scf accuracy    <       5.59936273 Ry

[...]

     total energy              =   -1356.48931169 Ry
     estimated scf accuracy    <       0.00000214 Ry

     iteration # 17     ecut=    30.00 Ry     beta= 0.70
     Davidson diagonalization with overlap

     ethr =  2.68E-09,  avg # of iterations =  4.0

[...]

     End of self-consistent calculation

          k = 0.0000 0.0000 0.0000 (  1638 PWs)   bands (ev):

   -64.8897 -64.8842 -29.2741 -29.2434 -29.2384 -29.2264 -29.1045 -29.0014
   -21.5009 -21.4373  -6.6002  -6.1633  -5.9498  -5.4530  -5.0475  -4.9010
    -4.8416  -3.9623  -3.2762  -3.2094  -2.1261  -1.7674   4.3307   4.5317
     5.0568   5.6505   5.7439   6.0166   6.0896   6.1314   6.5083   6.7594
     7.2206   7.5370   7.5724   7.9329   8.0247   8.2463   8.5656   9.3588
    10.8675  11.5606  12.2549  12.6514  12.7228  12.8996  13.3614  13.4322

     occupation numbers
     1.0000   1.0000   1.0000   1.0000   1.0000   1.0000   1.0000   1.0000
     1.0000   1.0000   1.0000   1.0000   1.0000   1.0000   1.0000   1.0000
     1.0000   1.0000   1.0000   1.0000   1.0000   1.0000   1.0000   1.0000
     1.0000   1.0000   1.0000   1.0000   1.0000   1.0000   1.0000   1.0000
     1.0000   1.0000   1.0000   1.0000   1.0000   1.0000   1.0000   1.0000
    -0.0000  -0.0000  -0.0000  -0.0000  -0.0000  -0.0000  -0.0000  -0.0000

     the Fermi energy is     9.8841 ev

!    total energy              =   -1356.48931219 Ry
     estimated scf accuracy    <       0.00000012 Ry
     smearing contrib. (-TS)   =       0.00000000 Ry
     internal energy E=F+TS    =   -1356.48931219 Ry

     The total energy is F=E-TS. E is the sum of the following terms:
     one-electron contribution =    -217.15639745 Ry
     hartree contribution      =     145.77603053 Ry
     xc contribution           =    -132.50806688 Ry
     ewald contribution        =    -356.38472151 Ry
     one-center paw contrib.   =    -796.21615687 Ry
      -> PAW hartree energy AE =      70.67988451 Ry
      -> PAW hartree energy PS =     -70.77866291 Ry
      -> PAW xc energy AE      =    -810.82602045 Ry
      -> PAW xc energy PS      =      14.70864198 Ry
      -> total E_H with PAW    =     145.67725213 Ry
      -> total E_XC with PAW   =    -928.62544535 Ry

     convergence has been achieved in  17 iterations

     negative rho (up, down):  1.246E-01 0.000E+00

     Forces acting on atoms (cartesian axes, Ry/au):

     atom    1 type  1   force =     0.00000000    0.01543322   -0.02396120
     atom    2 type  1   force =     0.00000000   -0.01543322    0.02396120
     atom    3 type  2   force =     0.00000000    0.07694899   -0.11926983
     atom    4 type  2   force =     0.00000000   -0.07694899    0.11926983
     atom    5 type  3   force =     0.00000000   -0.00146989    0.07834821
     atom    6 type  3   force =     0.00000000    0.00146989   -0.07834821
     atom    7 type  3   force =     0.00000000    0.12923929   -0.08712143
     atom    8 type  3   force =     0.00000000   -0.12923929    0.08712143
     atom    9 type  3   force =     0.00000000    0.04772415   -0.00612404
     atom   10 type  3   force =     0.00000000   -0.04772415    0.00612404
     The non-local contrib.  to forces
     atom    1 type  1   force =     0.00000000    0.08830832   -0.09494252
     atom    2 type  1   force =     0.00000000   -0.08830832    0.09494252
     atom    3 type  2   force =     0.00000000    0.01639425    0.03274790
     atom    4 type  2   force =     0.00000000   -0.01639425   -0.03274790
     atom    5 type  3   force =     0.00000000    0.23103482    0.41678975
     atom    6 type  3   force =     0.00000000   -0.23103482   -0.41678975
     atom    7 type  3   force =     0.00000000   -0.64015630    0.48075514
     atom    8 type  3   force =     0.00000000    0.64015630   -0.48075514
     atom    9 type  3   force =    -0.00000000   -0.54751295    0.09616730
     atom   10 type  3   force =     0.00000000    0.54751295   -0.09616730
     The ionic contribution  to forces
     atom    1 type  1   force =    -0.00000000    6.69826116    0.73275160
     atom    2 type  1   force =    -0.00000000   -6.69826116   -0.73275160
     atom    3 type  2   force =    -0.00000000    5.65611130   -6.05953032
     atom    4 type  2   force =    -0.00000000   -5.65611130    6.05953032
     atom    5 type  3   force =    -0.00000000   -2.51182488   -6.84408624
     atom    6 type  3   force =    -0.00000000    2.51182488    6.84408624
     atom    7 type  3   force =     0.00000000    1.40772556    3.25538641
     atom    8 type  3   force =    -0.00000000   -1.40772556   -3.25538641
     atom    9 type  3   force =    -0.00000000    7.46508044   -3.02592865
     atom   10 type  3   force =    -0.00000000   -7.46508044    3.02592865
     The local contribution  to forces
     atom    1 type  1   force =    -0.00002857   -6.77131159   -0.66157521
     atom    2 type  1   force =     0.00000516    6.77127313    0.66137351
     atom    3 type  2   force =    -0.00000328   -5.62178856    5.90803000
     atom    4 type  2   force =     0.00001449    5.62191649   -5.90783167
     atom    5 type  3   force =     0.00001743    2.28058142    6.50799321
     atom    6 type  3   force =     0.00001104   -2.28052248   -6.50826592
     atom    7 type  3   force =     0.00003085   -0.64450361   -3.81797098
     atom    8 type  3   force =    -0.00003250    0.64460706    3.81813748
     atom    9 type  3   force =     0.00000593   -6.87315579    2.92386808
     atom   10 type  3   force =    -0.00000240    6.87287582   -2.92377304
     The core correction contribution to forces
     atom    1 type  1   force =    -0.00000002    0.00000744    0.00003522
     atom    2 type  1   force =     0.00000000   -0.00000749   -0.00003528
     atom    3 type  2   force =     0.00000329    0.02603206   -0.00088325
     atom    4 type  2   force =     0.00000205   -0.02603478    0.00088217
     atom    5 type  3   force =     0.00000013   -0.00126742   -0.00264463
     atom    6 type  3   force =     0.00000030    0.00126608    0.00264425
     atom    7 type  3   force =     0.00000059    0.00624001   -0.00505907
     atom    8 type  3   force =    -0.00000057   -0.00624035    0.00505874
     atom    9 type  3   force =    -0.00000006    0.00320385   -0.00028382
     atom   10 type  3   force =    -0.00000026   -0.00320452    0.00028403
     The Hubbard contrib.    to forces
     atom    1 type  1   force =     0.00000000    0.00000000    0.00000000
     atom    2 type  1   force =     0.00000000    0.00000000    0.00000000
     atom    3 type  2   force =     0.00000000    0.00000000    0.00000000
     atom    4 type  2   force =     0.00000000    0.00000000    0.00000000
     atom    5 type  3   force =     0.00000000    0.00000000    0.00000000
     atom    6 type  3   force =     0.00000000    0.00000000    0.00000000
     atom    7 type  3   force =     0.00000000    0.00000000    0.00000000
     atom    8 type  3   force =     0.00000000    0.00000000    0.00000000
     atom    9 type  3   force =     0.00000000    0.00000000    0.00000000
     atom   10 type  3   force =     0.00000000    0.00000000    0.00000000
     The SCF correction term to forces
     atom    1 type  1   force =     0.00001181    0.00014410   -0.00023305
     atom    2 type  1   force =    -0.00000088   -0.00015316    0.00042931
     atom    3 type  2   force =    -0.00000539    0.00019598    0.00033472
     atom    4 type  2   force =    -0.00001967   -0.00032909   -0.00059423
     atom    5 type  3   force =    -0.00000404   -0.00004235    0.00029040
     atom    6 type  3   force =     0.00000095   -0.00011228   -0.00002876
     atom    7 type  3   force =     0.00001619   -0.00008436   -0.00024417
     atom    8 type  3   force =    -0.00001058   -0.00005473    0.00005551
     atom    9 type  3   force =    -0.00001537    0.00009290    0.00006232
     atom   10 type  3   force =    -0.00000694    0.00015635   -0.00013902

     Total force =     0.327742     Total SCF correction =     0.001060

     Computing stress (Cartesian axis) and pressure

     negative rho (up, down):  1.246E-01 0.000E+00
          total   stress  (Ry/bohr**3)                   (kbar)     P=      -68.49
  -0.00044309   0.00000000   0.00000000          -65.18        0.00        0.00
   0.00000000  -0.00067545   0.00002562            0.00      -99.36        3.77
   0.00000000   0.00002562  -0.00027829            0.00        3.77      -40.94

     kinetic stress (kbar)  16500.74      0.00      0.00
                                0.00  16634.12      7.82
                                0.00      7.82  16635.93

     local   stress (kbar) -14268.97     -0.00      0.01
                               -0.00   2763.90  -1758.63
                                0.01  -1758.63  -3934.88

     nonloc. stress (kbar)   1394.39      0.00      0.00
                                0.00   1294.59     22.29
                                0.00     22.29   1364.27

     hartree stress (kbar)  10166.61      0.00     -0.00
                                0.00   2395.12    821.91
                               -0.00    821.91   5800.28

     exc-cor stress (kbar)   2863.59      0.00     -0.00
                                0.00   2866.42     -2.02
                               -0.00     -2.02   2859.77

     corecor stress (kbar)  -6881.26     -0.00      0.00
                               -0.00  -6886.21      1.44
                                0.00      1.44  -6883.52

     ewald   stress (kbar)  -9840.28     -0.00      0.00
                               -0.00 -19167.31    910.96
                                0.00    910.96 -15882.79

     hubbard stress (kbar)      0.00      0.00      0.00
                                0.00      0.00      0.00
                                0.00      0.00      0.00

     DFT-D   stress (kbar)      0.00      0.00      0.00
                                0.00      0.00      0.00
                                0.00      0.00      0.00

     XDM     stress (kbar)      0.00      0.00      0.00
                                0.00      0.00      0.00
                                0.00      0.00      0.00

     dft-nl  stress (kbar)      0.00      0.00      0.00
                                0.00      0.00      0.00
                                0.00      0.00      0.00

     TS-vdW  stress (kbar)      0.00      0.00      0.00
                                0.00      0.00      0.00
                                0.00      0.00      0.00

[...]

                                0.00      0.00      0.00

     Writing all to output data dir new_calculations/myprefix.save/

     General routines

     Parallel routines

     PAW routines

   This run was terminated on:   1:41:42  21May2023

   JOB DONE.