     Program PWSCF v.7.0 starts on 21May2023 at  4:27:40

     Reading input from espresso_22474.pwi
Warning: card &CELL ignored
Warning: card / ignored

     Current dimensions of program PWSCF are:
     Max number of different atomic species (ntypx) = 10
     Max number of k-points (npk) =  40000
     Max angular momentum in pseudopotentials (lmaxx) =  4

     gamma-point specific algorithms are used
     Message from routine setup:
     using ibrav=0 with symmetry is DISCOURAGED, use correct ibrav instead

     Subspace diagonalization in iterative solution of the eigenvalue problem:
     a serial algorithm will be used

     Using Slab Decomposition

     bravais-lattice index     =            0
     lattice parameter (alat)  =       9.3392  a.u.
     unit-cell volume          =     487.5814 (a.u.)^3
     number of atoms/cell      =            3
     number of atomic types    =            2
     number of electrons       =        62.00
     number of Kohn-Sham states=           37
     kinetic-energy cutoff     =      30.0000  Ry
     charge density cutoff     =     240.0000  Ry
     scf convergence threshold =      1.0E-06
     mixing beta               =       0.7000
     number of iterations used =            8  plain     mixing
     Exchange-correlation= PBE
                           (   1   4   3   4   0   0   0)

     celldm(1)=   9.339235  celldm(2)=   0.000000  celldm(3)=   0.000000
     celldm(4)=   0.000000  celldm(5)=   0.000000  celldm(6)=   0.000000

     crystal axes: (cart. coord. in units of alat)
               a(1) = (   1.000000   0.000000   0.000000 )
               a(2) = (  -0.500000   0.866025   0.000000 )
               a(3) = (   0.000000   0.000000   0.691167 )

     reciprocal axes: (cart. coord. in units 2 pi/alat)
               b(1) = (  1.000000  0.577350  0.000000 )
               b(2) = (  0.000000  1.154701  0.000000 )
               b(3) = (  0.000000  0.000000  1.446829 )

     PseudoPot. # 1 for Er read from file:
     /home/pragov/projects/rrg-bengioy-ad/pragov/crystal_structure_design/SSSP/Er.GGA-PBE-paw-v1.0.UPF
     MD5 check sum: 5952a841f12bc97f67d25f9d1b2e7e35
     Pseudo is Projector augmented-wave + core cor, Zval = 22.0
     Generated using ATOMPAW code
     Shape of augmentation charge: BESSEL
     Using radial grid of 1114 points,  8 beta functions with:
                l(1) =   0
                l(2) =   0
                l(3) =   1
                l(4) =   1
                l(5) =   2
                l(6) =   2
                l(7) =   3
                l(8) =   3
     Q(r) pseudized with 0 coefficients

     PseudoPot. # 2 for Hg read from file:
     /home/pragov/projects/rrg-bengioy-ad/pragov/crystal_structure_design/SSSP/Hg_ONCV_PBE-1.0.oncvpsp.upf
     MD5 check sum: dd5a8773074bfcf4280086d4d95875c4
     Pseudo is Norm-conserving, Zval = 20.0
     Generated using ONCVPSP code by D. R. Hamann
     Using radial grid of 1262 points,  8 beta functions with:
                l(1) =   0
                l(2) =   0
                l(3) =   1
                l(4) =   1
                l(5) =   2
                l(6) =   2
                l(7) =   3
                l(8) =   3

     atomic species   valence    mass     pseudopotential
        Er            22.00   167.25900     Er( 1.00)
        Hg            20.00   200.59200     Hg( 1.00)

     24 Sym. Ops., with inversion, found

                                    s                        frac. trans.

      isym =  1     identity

 cryst.   s( 1) = (     1          0          0      )
                  (     0          1          0      )
                  (     0          0          1      )

 cart.    s( 1) = (  1.0000000 -0.0000000  0.0000000 )
                  (  0.0000000  1.0000000  0.0000000 )
                  (  0.0000000  0.0000000  1.0000000 )

      isym =  2     180 deg rotation - cart. axis [0,0,1]

[...]

      isym =  4     180 deg rotation - cart. axis [1,0,0]

[...]

      isym =  5      60 deg rotation - cryst. axis [0,0,1]

[...]

 cryst.   s( 9) = (     0         -1          0      )
                  (    -1          0          0      )
                  (     0          0         -1      )

 cart.    s( 9) = (  0.5000000 -0.8660254  0.0000000 )
                  ( -0.8660254 -0.5000000  0.0000000 )
                  (  0.0000000  0.0000000 -1.0000000 )

[...]

 cryst.   s(10) = (     1          1          0      )
                  (     0         -1          0      )
                  (     0          0         -1      )

 cart.    s(10) = (  0.5000000  0.8660255  0.0000000 )
                  (  0.8660254 -0.5000000  0.0000000 )
                  (  0.0000000  0.0000000 -1.0000000 )

[...]

      isym = 12     180 deg rotation - cryst. axis [1,1,0]

[...]

      isym = 13     inversion

[...]

      isym = 14     inv. 180 deg rotation - cart. axis [0,0,1]

[...]

      isym = 16     inv. 180 deg rotation - cart. axis [1,0,0]

[...]

      isym = 17     inv.  60 deg rotation - cryst. axis [0,0,1]

[...]

      isym = 24     inv. 180 deg rotation - cryst. axis [1,1,0]

 cryst.   s(24) = (     0         -1          0      )
                  (    -1          0          0      )
                  (     0          0          1      )

 cart.    s(24) = (  0.5000000 -0.8660254  0.0000000 )
                  ( -0.8660254 -0.5000000  0.0000000 )
                  (  0.0000000  0.0000000  1.0000000 )

   Cartesian axes

     site n.     atom                  positions (alat units)
         1           Er  tau(   1) = (   0.0000000   0.0000000   0.0000000  )
         2           Hg  tau(   2) = (  -0.0000005   0.5773505   0.3455833  )
         3           Hg  tau(   3) = (   0.5000005   0.2886748   0.3455833  )

   Crystallographic axes

     site n.     atom                  positions (cryst. coord.)
         1           Er  tau(   1) = (  0.0000000  0.0000000  0.0000000  )
         2           Hg  tau(   2) = (  0.3333330  0.6666670  0.5000000  )
         3           Hg  tau(   3) = (  0.6666670  0.3333330  0.5000000  )

     number of k points=     1  Methfessel-Paxton smearing, width (Ry)=  0.0010
                       cart. coord. in units 2pi/alat
        k(    1) = (   0.0000000   0.0000000   0.0000000), wk =   2.0000000

                       cryst. coord.
        k(    1) = (   0.0000000   0.0000000   0.0000000), wk =   2.0000000

     Initial potential from superposition of free atoms

     starting charge      61.9957, renormalised to      62.0000
     Starting wfcs are   52 randomized atomic wfcs
     Checking if some PAW data can be deallocated...

     Self-consistent Calculation

     iteration #  1     ecut=    30.00 Ry     beta= 0.70
     Davidson diagonalization with overlap

     ethr =  1.00E-02,  avg # of iterations =  2.0

     total energy              =   -1499.00493508 Ry
     estimated scf accuracy    <       5.90281006 Ry

[...]

     ethr =  2.50E-05,  avg # of iterations =  1.0
     Minimization algorithm failed to find Fermi energy: reverting to bisection
     Possible cause: smearing is larger than the electronic band-gap.

[...]

     ethr =  2.50E-05,  avg # of iterations =  1.0
     Minimization algorithm failed to find Fermi energy: reverting to bisection
     Possible cause: smearing is larger than the electronic band-gap.

[...]

     total energy              =   -1505.58818423 Ry
     estimated scf accuracy    <       0.00002220 Ry

     iteration # 99     ecut=    30.00 Ry     beta= 0.70
     Davidson diagonalization with overlap

     ethr =  1.10E-08,  avg # of iterations =  1.0

     End of self-consistent calculation

          k = 0.0000 0.0000 0.0000 (   669 PWs)   bands (ev):

  -101.2664-101.2621 -49.1014 -49.1013 -49.0570 -49.0569 -49.0217 -49.0114
   -32.7200  -7.2491  -6.8353  -6.8352   6.6205   7.7191   7.8249   7.8250
     8.1958   8.1958   8.2540   8.2542   8.3283   8.9044   8.9045  14.9895
    15.2661  15.2661  15.2972  15.3970  15.3970  15.3996  15.3996  15.4020
    16.0030  16.0627  20.2591  20.2591  20.8549

     occupation numbers
     1.0000   1.0000   1.0000   1.0000   1.0000   1.0000   1.0000   1.0000
     1.0000   1.0000   1.0000   1.0000   1.0000   1.0000   1.0000   1.0000
     1.0000   1.0000   1.0000   1.0000   1.0000   1.0000   1.0000   1.0000
     1.0000   1.0000   1.0000   0.8952   0.8935   0.7825   0.7803   0.6484
    -0.0000  -0.0000  -0.0000  -0.0000  -0.0000

     the Fermi energy is    15.4044 ev

!    total energy              =   -1505.58818339 Ry
     estimated scf accuracy    <       0.00000087 Ry
     smearing contrib. (-TS)   =      -0.00079544 Ry
     internal energy E=F+TS    =   -1505.58738795 Ry

     The total energy is F=E-TS. E is the sum of the following terms:
     one-electron contribution =    -525.51197334 Ry
     hartree contribution      =     269.47446121 Ry
     xc contribution           =     -87.69233362 Ry
     ewald contribution        =    -675.98875059 Ry
     one-center paw contrib.   =    -485.86879161 Ry
      -> PAW hartree energy AE =     345.98835280 Ry
      -> PAW hartree energy PS =    -309.22536356 Ry
      -> PAW xc energy AE      =    -554.47352723 Ry
      -> PAW xc energy PS      =      31.84174639 Ry
      -> total E_H with PAW    =     306.23745044 Ry
      -> total E_XC with PAW   =    -610.32411447 Ry

     convergence has been achieved in  99 iterations

     Forces acting on atoms (cartesian axes, Ry/au):

     atom    1 type  1   force =     0.00000000    0.00000000    0.00000000
     atom    2 type  2   force =     0.00000000    0.00000000    0.00000000
     atom    3 type  2   force =     0.00000000    0.00000000    0.00000000
     The non-local contrib.  to forces
     atom    1 type  1   force =    -0.00000000    0.00000000    0.00000000
     atom    2 type  2   force =    -0.00000000    0.00000000    0.00000000
     atom    3 type  2   force =     0.00000000   -0.00000000   -0.00000000
     The ionic contribution  to forces
     atom    1 type  1   force =     0.00000000   -0.00000000    0.00000000
     atom    2 type  2   force =     0.00015844   -0.00009147   -0.00000000
     atom    3 type  2   force =    -0.00015844    0.00009147   -0.00000000
     The local contribution  to forces
     atom    1 type  1   force =    -0.00120335    0.00013480    0.00075053
     atom    2 type  2   force =    -0.00162807   -0.00050316   -0.00005266
     atom    3 type  2   force =     0.00227133    0.00035427   -0.00003838
     The core correction contribution to forces
     atom    1 type  1   force =    -0.00000001    0.00000000    0.00000001
     atom    2 type  2   force =     0.00000000    0.00000000    0.00000000
     atom    3 type  2   force =     0.00000000    0.00000000    0.00000000
     The Hubbard contrib.    to forces
     atom    1 type  1   force =     0.00000000    0.00000000    0.00000000
     atom    2 type  2   force =     0.00000000    0.00000000    0.00000000
     atom    3 type  2   force =     0.00000000    0.00000000    0.00000000
     The SCF correction term to forces
     atom    1 type  1   force =     0.00100982   -0.00018236   -0.00059143
     atom    2 type  2   force =     0.00120934    0.00049451    0.00004683
     atom    3 type  2   force =    -0.00171799   -0.00033210    0.00005961

     Total force =     0.000000     Total SCF correction =     0.002485

     Computing stress (Cartesian axis) and pressure

          total   stress  (Ry/bohr**3)                   (kbar)     P=     -896.17
  -0.00484225  -0.00000000   0.00000000         -712.32       -0.00        0.00
  -0.00000000  -0.00484225  -0.00000000           -0.00     -712.32       -0.00
  -0.00000000   0.00000000  -0.00859157           -0.00        0.00    -1263.86

     kinetic stress (kbar)  42287.70      0.00      0.00
                                0.00  42287.71      0.00
                                0.00      0.00  41621.78

     local   stress (kbar) -12487.32     -0.00      0.38
                               -0.00 -12485.08      0.69
                                0.38      0.69   8090.98

     nonloc. stress (kbar)  12002.19      0.00      0.00
                                0.00  12002.19      0.00
                                0.00     -0.00  11723.00

     hartree stress (kbar)  29822.53      0.14     -0.16
                                0.14  29821.52     -0.28
                               -0.16     -0.28  21657.37

     exc-cor stress (kbar)  -8354.62      0.01     -0.00
                                0.01  -8354.63     -0.00
                               -0.00     -0.00  -8372.84

     corecor stress (kbar)     -0.92      0.00      0.00
                                0.00     -0.92      0.00
                                0.00      0.00     -0.90

     ewald   stress (kbar) -63982.52      0.03     -0.00
                                0.03 -63982.48     -0.00
                               -0.00     -0.00 -75983.24

     hubbard stress (kbar)      0.00      0.00      0.00
                                0.00      0.00      0.00
                                0.00      0.00      0.00

     DFT-D   stress (kbar)      0.00      0.00      0.00
                                0.00      0.00      0.00
                                0.00      0.00      0.00

     XDM     stress (kbar)      0.00      0.00      0.00
                                0.00      0.00      0.00
                                0.00      0.00      0.00

     dft-nl  stress (kbar)      0.00      0.00      0.00
                                0.00      0.00      0.00
                                0.00      0.00      0.00

     TS-vdW  stress (kbar)      0.00      0.00      0.00
                                0.00      0.00      0.00
                                0.00      0.00      0.00

[...]

                                0.00      0.00      0.00

     Writing all to output data dir new_calculations/myprefix.save/

     General routines

     Parallel routines

     PAW routines

   This run was terminated on:   4:28:40  21May2023

   JOB DONE.