     Program PWSCF v.7.0 starts on 20May2023 at 20: 0:31

     Reading input from espresso_22200.pwi
Warning: card &CELL ignored
Warning: card / ignored

     Current dimensions of program PWSCF are:
     Max number of different atomic species (ntypx) = 10
     Max number of k-points (npk) =  40000
     Max angular momentum in pseudopotentials (lmaxx) =  4

     gamma-point specific algorithms are used
     Message from routine setup:
     using ibrav=0 with symmetry is DISCOURAGED, use correct ibrav instead

     Subspace diagonalization in iterative solution of the eigenvalue problem:
     a serial algorithm will be used

     Using Slab Decomposition

     bravais-lattice index     =            0
     lattice parameter (alat)  =      14.5198  a.u.
     unit-cell volume          =    2164.5591 (a.u.)^3
     number of atoms/cell      =           10
     number of atomic types    =            4
     number of electrons       =        94.00
     number of Kohn-Sham states=           56
     kinetic-energy cutoff     =      30.0000  Ry
     charge density cutoff     =     240.0000  Ry
     scf convergence threshold =      1.0E-06
     mixing beta               =       0.7000
     number of iterations used =            8  plain     mixing
     Exchange-correlation=  SLA  PW   PBX  PBC
                           (   1   4   3   4   0   0   0)

     celldm(1)=  14.519828  celldm(2)=   0.000000  celldm(3)=   0.000000
     celldm(4)=   0.000000  celldm(5)=   0.000000  celldm(6)=   0.000000

     crystal axes: (cart. coord. in units of alat)
               a(1) = (   1.000000   0.000000   0.000000 )
               a(2) = (   0.500000   0.866025   0.000000 )
               a(3) = (   0.500000   0.288675   0.816497 )

     reciprocal axes: (cart. coord. in units 2 pi/alat)
               b(1) = (  1.000000 -0.577350 -0.408248 )
               b(2) = (  0.000000  1.154701 -0.408248 )
               b(3) = (  0.000000  0.000000  1.224745 )

     PseudoPot. # 1 for Rb read from file:
     /home/pragov/projects/rrg-bengioy-ad/pragov/crystal_structure_design/SSSP/Rb_ONCV_PBE-1.0.oncvpsp.upf
     MD5 check sum: 55a5172d6bfbce6759a58e35d43f6aa9
     Pseudo is Norm-conserving, Zval =  9.0
     Generated using ONCVPSP code by D. R. Hamann
     Using radial grid of 2308 points,  6 beta functions with:
                l(1) =   0
                l(2) =   0
                l(3) =   1
                l(4) =   1
                l(5) =   2
                l(6) =   2

     PseudoPot. # 2 for Bi read from file:
     /home/pragov/projects/rrg-bengioy-ad/pragov/crystal_structure_design/SSSP/Bi_pbe_v1.uspp.F.UPF
     MD5 check sum: cceb9f28ec65b6d7ff33140f5b0b1758
     Pseudo is Ultrasoft + core correction, Zval = 15.0
     Generated by new atomic code, or converted to UPF format
     Using radial grid of  899 points,  6 beta functions with:
                l(1) =   0
                l(2) =   0
                l(3) =   1
                l(4) =   1
                l(5) =   2
                l(6) =   2
     Q(r) pseudized with  6 coefficients,  rinner =    1.000   1.000   1.000
                                                       1.000   1.000

     PseudoPot. # 3 for Au read from file:
     /home/pragov/projects/rrg-bengioy-ad/pragov/crystal_structure_design/SSSP/Au_ONCV_PBE-1.0.oncvpsp.upf
     MD5 check sum: d14007822ba0e19f0206237467fc06c2
     Pseudo is Norm-conserving, Zval = 19.0
     Generated using ONCVPSP code by D. R. Hamann
     Using radial grid of 1278 points,  8 beta functions with:
                l(1) =   0
                l(2) =   0
                l(3) =   1
                l(4) =   1
                l(5) =   2
                l(6) =   2
                l(7) =   3
                l(8) =   3

     PseudoPot. # 4 for Cl read from file:
     /home/pragov/projects/rrg-bengioy-ad/pragov/crystal_structure_design/SSSP/cl_pbe_v1.4.uspp.F.UPF
     MD5 check sum: fc6f6913ecf08c9257cb748ef0700058
     Pseudo is Ultrasoft + core correction, Zval =  7.0
     Generated by new atomic code, or converted to UPF format
     Using radial grid of  909 points,  6 beta functions with:
                l(1) =   0
                l(2) =   0
                l(3) =   1
                l(4) =   1
                l(5) =   2
                l(6) =   2
     Q(r) pseudized with  8 coefficients,  rinner =    1.300   1.300   1.300
                                                       1.300   1.300

     atomic species   valence    mass     pseudopotential
        Rb             9.00    85.46780     Rb( 1.00)
        Bi            15.00   208.98040     Bi( 1.00)
        Au            19.00   196.96657     Au( 1.00)
        Cl             7.00    35.45000     Cl( 1.00)

     12 Sym. Ops., with inversion, found

                                    s                        frac. trans.

      isym =  1     identity

 cryst.   s( 1) = (     1          0          0      )
                  (     0          1          0      )
                  (     0          0          1      )

 cart.    s( 1) = (  1.0000000  0.0000000  0.0000000 )
                  (  0.0000000  1.0000000  0.0000000 )
                  (  0.0000000  0.0000000  1.0000000 )

      isym =  2     180 deg rotation - cart. axis [1,0,0]

[...]

      isym =  3     120 deg rotation - cryst. axis [0,0,1]

[...]

      isym =  6     180 deg rotation - cryst. axis [1,1,0]

[...]

      isym =  7     inversion

[...]

      isym =  8     inv. 180 deg rotation - cart. axis [1,0,0]

[...]

      isym =  9     inv. 120 deg rotation - cryst. axis [0,0,1]

 cryst.   s( 9) = (     1         -1          0      )
                  (     1          0          0      )
                  (     1          0         -1      )

 cart.    s( 9) = (  0.5000000  0.8660254 -0.0000000 )
                  ( -0.8660254  0.5000000 -0.0000000 )
                  (  0.0000000  0.0000000 -1.0000000 )

[...]

 cryst.   s(10) = (     0          1          0      )
                  (    -1          1          0      )
                  (     0          1         -1      )

 cart.    s(10) = (  0.5000000 -0.8660254  0.0000000 )
                  (  0.8660254  0.5000000 -0.0000000 )
                  (  0.0000000  0.0000000 -1.0000000 )

[...]

      isym = 12     inv. 180 deg rotation - cryst. axis [1,1,0]

 cryst.   s(12) = (     1         -1          0      )
                  (     0         -1          0      )
                  (     0         -1          1      )

 cart.    s(12) = (  0.5000000 -0.8660254  0.0000000 )
                  ( -0.8660254 -0.5000000  0.0000000 )
                  (  0.0000000  0.0000000  1.0000000 )

   Cartesian axes

     site n.     atom                  positions (alat units)
         1           Rb  tau(   1) = (   1.5000000   0.8660254   0.6123724  )
         2           Rb  tau(   2) = (   0.5000000   0.2886751   0.2041241  )
         3           Bi  tau(   3) = (   0.0000000   0.0000000   0.0000000  )
         4           Au  tau(   4) = (   1.0000000   0.5773503   0.4082483  )
         5           Cl  tau(   5) = (   1.0000000   0.2897144   0.2048590  )
         6           Cl  tau(   6) = (   0.7509000   0.4335323   0.6116376  )
         7           Cl  tau(   7) = (   1.0000000   0.8649862   0.6116376  )
         8           Cl  tau(   8) = (   0.7509000   0.7211682   0.2048590  )
         9           Cl  tau(   9) = (   1.2491000   0.4335323   0.6116376  )
        10           Cl  tau(  10) = (   1.2491000   0.7211682   0.2048590  )

   Crystallographic axes

     site n.     atom                  positions (cryst. coord.)
         1           Rb  tau(   1) = (  0.7500000  0.7500000  0.7500000  )
         2           Rb  tau(   2) = (  0.2500000  0.2500000  0.2500000  )
         3           Bi  tau(   3) = (  0.0000000  0.0000000  0.0000000  )
         4           Au  tau(   4) = (  0.5000000  0.5000000  0.5000000  )
         5           Cl  tau(   5) = (  0.7491000  0.2509000  0.2509000  )
         6           Cl  tau(   6) = (  0.2509000  0.2509000  0.7491000  )
         7           Cl  tau(   7) = (  0.2509000  0.7491000  0.7491000  )
         8           Cl  tau(   8) = (  0.2509000  0.7491000  0.2509000  )
         9           Cl  tau(   9) = (  0.7491000  0.2509000  0.7491000  )
        10           Cl  tau(  10) = (  0.7491000  0.7491000  0.2509000  )

     number of k points=     1  Methfessel-Paxton smearing, width (Ry)=  0.0010
                       cart. coord. in units 2pi/alat
        k(    1) = (   0.0000000   0.0000000   0.0000000), wk =   2.0000000

                       cryst. coord.
        k(    1) = (   0.0000000   0.0000000   0.0000000), wk =   2.0000000

     Check: negative core charge=   -0.000002

     Initial potential from superposition of free atoms

     starting charge      92.9503, renormalised to      94.0000

     negative rho (up, down):  1.326E-01 0.000E+00
     Starting wfcs are   53 randomized atomic wfcs +    3 random wfcs

     Self-consistent Calculation

     iteration #  1     ecut=    30.00 Ry     beta= 0.70
     Davidson diagonalization with overlap

     ethr =  1.00E-02,  avg # of iterations =  6.0

     Threshold (ethr) on eigenvalues was too large:
     Diagonalizing with lowered threshold

     Davidson diagonalization with overlap

[...]

     negative rho (up, down):  1.312E-01 0.000E+00

     total energy              =    -757.93573851 Ry
     estimated scf accuracy    <       0.48283192 Ry

[...]

     total energy              =    -758.10904773 Ry
     estimated scf accuracy    <       0.00000397 Ry

     iteration #  7     ecut=    30.00 Ry     beta= 0.70
     Davidson diagonalization with overlap

     ethr =  4.22E-09,  avg # of iterations =  4.0

[...]

     End of self-consistent calculation

          k = 0.0000 0.0000 0.0000 (  2993 PWs)   bands (ev):

   -99.7180 -50.7937 -50.7937 -50.7936 -22.4974 -22.4960 -19.7325 -19.7325
   -19.7177 -19.7176 -19.7176 -11.0782 -10.3615 -10.3614 -10.3613 -10.1544
   -10.1543  -6.6873  -6.5815  -6.5815  -6.5815  -6.5606  -6.5606  -6.5606
    -0.5604  -0.5604  -0.5603   0.3154   0.3155   0.5226   0.6729   0.6729
     0.6729   1.8122   1.8123   1.8123   1.8903   1.8904   1.8904   2.3140
     2.3141   2.3141   2.7682   2.7682   2.7682   4.1595   4.1596   6.3437
     6.3437   6.3438   7.2497   8.1118   8.9690   9.2183   9.2183  10.2441

     occupation numbers
     1.0000   1.0000   1.0000   1.0000   1.0000   1.0000   1.0000   1.0000
     1.0000   1.0000   1.0000   1.0000   1.0000   1.0000   1.0000   1.0000
     1.0000   1.0000   1.0000   1.0000   1.0000   1.0000   1.0000   1.0000
     1.0000   1.0000   1.0000   1.0000   1.0000   1.0000   1.0000   1.0000
     1.0000   1.0000   1.0000   1.0000   1.0000   1.0000   1.0000   1.0000
     1.0000   1.0000   1.0000   1.0000   1.0000   1.0000   1.0000  -0.0000
    -0.0000  -0.0000  -0.0000  -0.0000  -0.0000  -0.0000  -0.0000  -0.0000

     the Fermi energy is     5.2129 ev

!    total energy              =    -758.10905052 Ry
     estimated scf accuracy    <       0.00000050 Ry
     smearing contrib. (-TS)   =       0.00000000 Ry
     internal energy E=F+TS    =    -758.10905052 Ry

     The total energy is F=E-TS. E is the sum of the following terms:
     one-electron contribution =    -401.04998931 Ry
     hartree contribution      =     229.11572043 Ry
     xc contribution           =    -161.86333434 Ry
     ewald contribution        =    -424.31144730 Ry

     convergence has been achieved in   7 iterations

     negative rho (up, down):  1.283E-01 0.000E+00

     Forces acting on atoms (cartesian axes, Ry/au):

     atom    1 type  1   force =    -0.00000000   -0.00000000    0.00000344
     atom    2 type  1   force =    -0.00000000   -0.00000000   -0.00000344
     atom    3 type  2   force =     0.00000000    0.00000000   -0.00000000
     atom    4 type  3   force =     0.00000000   -0.00000000   -0.00000000
     atom    5 type  4   force =     0.00000000   -0.03108432   -0.02198661
     atom    6 type  4   force =    -0.02691981   -0.01554216    0.02198661
     atom    7 type  4   force =     0.00000000    0.03108432    0.02198661
     atom    8 type  4   force =    -0.02691981    0.01554216   -0.02198661
     atom    9 type  4   force =     0.02691981   -0.01554216    0.02198661
     atom   10 type  4   force =     0.02691981    0.01554216   -0.02198661
     The non-local contrib.  to forces
     atom    1 type  1   force =    -0.00000000   -0.00000000   -0.00000016
     atom    2 type  1   force =     0.00000000   -0.00000000    0.00000016
     atom    3 type  2   force =     0.00000000    0.00000000    0.00000000
     atom    4 type  3   force =     0.00000000    0.00000000    0.00000000
     atom    5 type  4   force =     0.00000000   -0.07685330   -0.05432997
     atom    6 type  4   force =    -0.06655691   -0.03842665    0.05432997
     atom    7 type  4   force =     0.00000000    0.07685330    0.05432997
     atom    8 type  4   force =    -0.06655691    0.03842665   -0.05432997
     atom    9 type  4   force =     0.06655691   -0.03842665    0.05432997
     atom   10 type  4   force =     0.06655691    0.03842665   -0.05432997
     The ionic contribution  to forces
     atom    1 type  1   force =     0.00000000   -0.00000000    0.00000000
     atom    2 type  1   force =     0.00000000    0.00000000   -0.00000000
     atom    3 type  2   force =     0.00000000   -0.00000000   -0.00000000
     atom    4 type  3   force =    -0.00000000   -0.00000000   -0.00000000
     atom    5 type  4   force =     0.00000000   -1.51893434   -1.07404877
     atom    6 type  4   force =    -1.31543573   -0.75946717    1.07404878
     atom    7 type  4   force =     0.00000000    1.51893434    1.07404878
     atom    8 type  4   force =    -1.31543573    0.75946717   -1.07404878
     atom    9 type  4   force =     1.31543573   -0.75946717    1.07404878
     atom   10 type  4   force =     1.31543573    0.75946717   -1.07404878
     The local contribution  to forces
     atom    1 type  1   force =    -0.00002140    0.00003932   -0.00001376
     atom    2 type  1   force =     0.00002109   -0.00003099    0.00001160
     atom    3 type  2   force =    -0.00002622   -0.00002342   -0.00000637
     atom    4 type  3   force =     0.00006301   -0.00001488   -0.00000727
     atom    5 type  4   force =    -0.00002244    1.56383962    1.10578612
     atom    6 type  4   force =     1.35428269    0.78185365   -1.10573259
     atom    7 type  4   force =     0.00002251   -1.56380757   -1.10577049
     atom    8 type  4   force =     1.35425766   -0.78189478    1.10571842
     atom    9 type  4   force =    -1.35426866    0.78189865   -1.10572667
     atom   10 type  4   force =    -1.35427549   -0.78185905    1.10571538
     The core correction contribution to forces
     atom    1 type  1   force =     0.00000000    0.00000000    0.00000000
     atom    2 type  1   force =     0.00000000    0.00000000    0.00000000
     atom    3 type  2   force =    -0.00000045   -0.00000045   -0.00000009
     atom    4 type  3   force =     0.00000000    0.00000000    0.00000000
     atom    5 type  4   force =    -0.00000000    0.00142935    0.00100967
     atom    6 type  4   force =     0.00123577    0.00071347   -0.00100830
     atom    7 type  4   force =     0.00000006   -0.00142845   -0.00100953
     atom    8 type  4   force =     0.00123512   -0.00071345    0.00100778
     atom    9 type  4   force =    -0.00123491    0.00071324   -0.00100778
     atom   10 type  4   force =    -0.00123546   -0.00071317    0.00100780
     The Hubbard contrib.    to forces
     atom    1 type  1   force =     0.00000000    0.00000000    0.00000000
     atom    2 type  1   force =     0.00000000    0.00000000    0.00000000
     atom    3 type  2   force =     0.00000000    0.00000000    0.00000000
     atom    4 type  3   force =     0.00000000    0.00000000    0.00000000
     atom    5 type  4   force =     0.00000000    0.00000000    0.00000000
     atom    6 type  4   force =     0.00000000    0.00000000    0.00000000
     atom    7 type  4   force =     0.00000000    0.00000000    0.00000000
     atom    8 type  4   force =     0.00000000    0.00000000    0.00000000
     atom    9 type  4   force =     0.00000000    0.00000000    0.00000000
     atom   10 type  4   force =     0.00000000    0.00000000    0.00000000
     The SCF correction term to forces
     atom    1 type  1   force =     0.00002543   -0.00004465    0.00001747
     atom    2 type  1   force =    -0.00002571    0.00003563   -0.00001509
     atom    3 type  2   force =     0.00003338    0.00002539    0.00000428
     atom    4 type  3   force =    -0.00007012    0.00001405    0.00001110
     atom    5 type  4   force =     0.00002178   -0.00052319   -0.00038274
     atom    6 type  4   force =    -0.00045446   -0.00021538    0.00035596
     atom    7 type  4   force =    -0.00002551    0.00051130    0.00037049
     atom    8 type  4   force =    -0.00044359    0.00025729   -0.00034500
     atom    9 type  4   force =     0.00045525   -0.00026088    0.00034979
     atom   10 type  4   force =     0.00045110    0.00022572   -0.00034377

     Total force =     0.093262     Total SCF correction =     0.001538

     Computing stress (Cartesian axis) and pressure

     negative rho (up, down):  1.283E-01 0.000E+00
          total   stress  (Ry/bohr**3)                   (kbar)     P=      -34.97
  -0.00023769  -0.00000000  -0.00000000          -34.97       -0.00       -0.00
  -0.00000000  -0.00023769   0.00000000           -0.00      -34.97        0.00
  -0.00000000   0.00000000  -0.00023768           -0.00        0.00      -34.96

     kinetic stress (kbar)   8813.55     -0.00     -0.00
                                0.00   8813.55     -0.00
                                0.00     -0.00   8813.54

     local   stress (kbar)  -6905.80     -0.00      0.01
                               -0.00  -6905.78      0.01
                                0.01      0.01  -6905.79

     nonloc. stress (kbar)   4947.91      0.00      0.00
                                0.00   4947.91     -0.00
                               -0.00     -0.00   4947.92

     hartree stress (kbar)   5190.30      0.00     -0.00
                                0.00   5190.29     -0.01
                               -0.00     -0.01   5190.29

     exc-cor stress (kbar)   2311.03     -0.00     -0.00
                               -0.00   2311.03      0.00
                               -0.00      0.00   2311.03

     corecor stress (kbar)  -4779.78     -0.00      0.00
                               -0.00  -4779.78      0.00
                                0.00      0.00  -4779.78

     ewald   stress (kbar)  -9612.18      0.00     -0.00
                                0.00  -9612.18     -0.00
                               -0.00     -0.00  -9612.18

     hubbard stress (kbar)      0.00      0.00      0.00
                                0.00      0.00      0.00
                                0.00      0.00      0.00

     DFT-D   stress (kbar)      0.00      0.00      0.00
                                0.00      0.00      0.00
                                0.00      0.00      0.00

     XDM     stress (kbar)      0.00      0.00      0.00
                                0.00      0.00      0.00
                                0.00      0.00      0.00

     dft-nl  stress (kbar)      0.00      0.00      0.00
                                0.00      0.00      0.00
                                0.00      0.00      0.00

     TS-vdW  stress (kbar)      0.00      0.00      0.00
                                0.00      0.00      0.00
                                0.00      0.00      0.00

[...]

                                0.00      0.00      0.00

     Writing all to output data dir new_calculations/myprefix.save/

     General routines

     Parallel routines

   This run was terminated on:  20: 0:49  20May2023

   JOB DONE.