     Program PWSCF v.7.0 starts on 21May2023 at 10: 3:59

     Reading input from espresso_22688.pwi
Warning: card &CELL ignored
Warning: card / ignored

     Current dimensions of program PWSCF are:
     Max number of different atomic species (ntypx) = 10
     Max number of k-points (npk) =  40000
     Max angular momentum in pseudopotentials (lmaxx) =  4

     gamma-point specific algorithms are used
     Message from routine setup:
     using ibrav=0 with symmetry is DISCOURAGED, use correct ibrav instead

     Subspace diagonalization in iterative solution of the eigenvalue problem:
     a serial algorithm will be used

     Using Slab Decomposition

     bravais-lattice index     =            0
     lattice parameter (alat)  =      10.4105  a.u.
     unit-cell volume          =     714.2307 (a.u.)^3
     number of atoms/cell      =            8
     number of atomic types    =            3
     number of electrons       =        78.00
     number of Kohn-Sham states=           47
     kinetic-energy cutoff     =      30.0000  Ry
     charge density cutoff     =     240.0000  Ry
     scf convergence threshold =      1.0E-06
     mixing beta               =       0.7000
     number of iterations used =            8  plain     mixing
     Exchange-correlation=  SLA  PW   PBX  PBC
                           (   1   4   3   4   0   0   0)

     celldm(1)=  10.410538  celldm(2)=   0.000000  celldm(3)=   0.000000
     celldm(4)=   0.000000  celldm(5)=   0.000000  celldm(6)=   0.000000

     crystal axes: (cart. coord. in units of alat)
               a(1) = (   1.000000   0.000000   0.000000 )
               a(2) = (   0.566582   0.824005   0.000000 )
               a(3) = (   0.566582   0.298016   0.768226 )

     reciprocal axes: (cart. coord. in units 2 pi/alat)
               b(1) = (  1.000000 -0.687595 -0.470783 )
               b(2) = (  0.000000  1.213585 -0.470783 )
               b(3) = (  0.000000  0.000000  1.301700 )

     PseudoPot. # 1 for Zn read from file:
     /home/pragov/projects/rrg-bengioy-ad/pragov/crystal_structure_design/SSSP/Zn_pbe_v1.uspp.F.UPF
     MD5 check sum: df62231357ef9e81f77b2b3087fa5675
     Pseudo is Ultrasoft, Zval = 20.0
     Generated by new atomic code, or converted to UPF format
     Using radial grid of  943 points,  6 beta functions with:
                l(1) =   0
                l(2) =   0
                l(3) =   1
                l(4) =   1
                l(5) =   2
                l(6) =   2
     Q(r) pseudized with  8 coefficients,  rinner =    1.100   1.100   1.100
                                                       1.100   1.100

     PseudoPot. # 2 for Pt read from file:
     /home/pragov/projects/rrg-bengioy-ad/pragov/crystal_structure_design/SSSP/pt_pbe_v1.4.uspp.F.UPF
     MD5 check sum: f09d6de1a584b5a045c4fc126da2d0c4
     Pseudo is Ultrasoft + core correction, Zval = 16.0
     Generated by new atomic code, or converted to UPF format
     Using radial grid of  985 points,  6 beta functions with:
                l(1) =   0
                l(2) =   0
                l(3) =   1
                l(4) =   1
                l(5) =   2
                l(6) =   2
     Q(r) pseudized with  8 coefficients,  rinner =    1.300   1.300   1.300
                                                       1.300   1.300

     PseudoPot. # 3 for F  read from file:
     /home/pragov/projects/rrg-bengioy-ad/pragov/crystal_structure_design/SSSP/f_pbe_v1.4.uspp.F.UPF
     MD5 check sum: 4c38b6a325caf53ec0e86aed9459de46
     Pseudo is Ultrasoft, Zval =  7.0
     Generated by new atomic code, or converted to UPF format
     Using radial grid of  799 points,  4 beta functions with:
                l(1) =   0
                l(2) =   0
                l(3) =   1
                l(4) =   1
     Q(r) pseudized with  8 coefficients,  rinner =    0.950   0.950   0.950

     atomic species   valence    mass     pseudopotential
        Zn            20.00    65.38000     Zn( 1.00)
        Pt            16.00   195.08400     Pt( 1.00)
        F              7.00    18.99840     F ( 1.00)

      2 Sym. Ops., with inversion, found

                                    s                        frac. trans.

      isym =  1     identity

 cryst.   s( 1) = (     1          0          0      )
                  (     0          1          0      )
                  (     0          0          1      )

 cart.    s( 1) = (  1.0000000  0.0000000 -0.0000000 )
                  (  0.0000000  1.0000000  0.0000000 )
                  (  0.0000000  0.0000000  1.0000000 )

      isym =  2     inversion

 cryst.   s( 2) = (    -1          0          0      )
                  (     0         -1          0      )
                  (     0          0         -1      )

 cart.    s( 2) = ( -1.0000000 -0.0000000  0.0000000 )
                  (  0.0000000 -1.0000000 -0.0000000 )
                  (  0.0000000  0.0000000 -1.0000000 )

   Cartesian axes

     site n.     atom                  positions (alat units)
         1           Zn  tau(   1) = (   1.0665821   0.5610106   0.3841130  )
         2           Pt  tau(   2) = (   0.0000000   0.0000000   0.0000000  )
         3           F   tau(   3) = (   0.7507774   0.5437562   0.5825427  )
         4           F   tau(   4) = (   1.0349495   0.1995053   0.2962610  )
         5           F   tau(   5) = (   1.2597291   0.4665924   0.6893737  )
         6           F   tau(   6) = (   1.0982147   0.9225159   0.4719650  )
         7           F   tau(   7) = (   1.3823869   0.5782650   0.1856833  )
         8           F   tau(   8) = (   0.8734351   0.6554288   0.0788523  )

   Crystallographic axes

     site n.     atom                  positions (cryst. coord.)
         1           Zn  tau(   1) = (  0.5000000  0.5000000  0.5000000  )
         2           Pt  tau(   2) = (  0.0000000  0.0000000  0.0000000  )
         3           F   tau(   3) = (  0.1026420  0.3856430  0.7582960  )
         4           F   tau(   4) = (  0.7582960  0.1026420  0.3856430  )
         5           F   tau(   5) = (  0.6143570  0.2417040  0.8973580  )
         6           F   tau(   6) = (  0.2417040  0.8973580  0.6143570  )
         7           F   tau(   7) = (  0.8973580  0.6143570  0.2417040  )
         8           F   tau(   8) = (  0.3856430  0.7582960  0.1026420  )

     number of k points=     1  Methfessel-Paxton smearing, width (Ry)=  0.0010
                       cart. coord. in units 2pi/alat
        k(    1) = (   0.0000000   0.0000000   0.0000000), wk =   2.0000000

                       cryst. coord.
        k(    1) = (   0.0000000   0.0000000   0.0000000), wk =   2.0000000

     Initial potential from superposition of free atoms

     starting charge      77.4998, renormalised to      78.0000

     negative rho (up, down):  1.852E-01 0.000E+00
     Starting wfcs are   49 randomized atomic wfcs

     Self-consistent Calculation

     iteration #  1     ecut=    30.00 Ry     beta= 0.70
     Davidson diagonalization with overlap

     ethr =  1.00E-02,  avg # of iterations =  3.0

     negative rho (up, down):  1.730E-01 0.000E+00

     total energy              =    -962.45542442 Ry
     estimated scf accuracy    <       2.51837950 Ry

[...]

     total energy              =    -963.79902758 Ry
     estimated scf accuracy    <       0.00000144 Ry

     iteration #  8     ecut=    30.00 Ry     beta= 0.70
     Davidson diagonalization with overlap

     ethr =  1.85E-09,  avg # of iterations =  2.0

[...]

     End of self-consistent calculation

          k = 0.0000 0.0000 0.0000 (   968 PWs)   bands (ev):

  -119.7710 -73.9135 -73.9134 -73.8560 -49.0074 -49.0063 -49.0063 -18.5082
   -17.9260 -17.9254 -17.7620 -17.7194 -17.7188  -2.7274  -2.7271  -2.6052
    -1.4342  -1.4342  -1.3386  -0.7238  -0.7235  -0.3395  -0.2925  -0.2925
    -0.2512   0.2238   0.2238   0.8998   1.1591   1.5689   1.5692   1.8619
     1.8854   1.8859   2.0630   2.0632   3.7287   3.9112   3.9113   6.7882
     6.7884   8.1310  13.8618  14.5958  15.9462  15.9463  16.8316

     occupation numbers
     1.0000   1.0000   1.0000   1.0000   1.0000   1.0000   1.0000   1.0000
     1.0000   1.0000   1.0000   1.0000   1.0000   1.0000   1.0000   1.0000
     1.0000   1.0000   1.0000   1.0000   1.0000   1.0000   1.0000   1.0000
     1.0000   1.0000   1.0000   1.0000   1.0000   1.0000   1.0000   1.0000
     1.0000   1.0000   1.0000   1.0000   1.0000   1.0000   1.0000  -0.0000
    -0.0000  -0.0000  -0.0000  -0.0000  -0.0000  -0.0000  -0.0000

     the Fermi energy is     4.1357 ev

!    total energy              =    -963.79902787 Ry
     estimated scf accuracy    <       0.00000018 Ry
     smearing contrib. (-TS)   =       0.00000000 Ry
     internal energy E=F+TS    =    -963.79902787 Ry

     The total energy is F=E-TS. E is the sum of the following terms:
     one-electron contribution =    -701.71277556 Ry
     hartree contribution      =     386.02635566 Ry
     xc contribution           =    -154.91095773 Ry
     ewald contribution        =    -493.20165024 Ry

     convergence has been achieved in   8 iterations

     negative rho (up, down):  1.797E-01 0.000E+00

     Forces acting on atoms (cartesian axes, Ry/au):

     atom    1 type  1   force =     0.00000000    0.00000000    0.00000000
     atom    2 type  2   force =     0.00000000    0.00000000    0.00000000
     atom    3 type  3   force =     0.00859238   -0.00567976   -0.00204901
     atom    4 type  3   force =     0.00160128    0.00934687   -0.00458503
     atom    5 type  3   force =    -0.00017450   -0.00182430   -0.01036338
     atom    6 type  3   force =    -0.00160128   -0.00934687    0.00458503
     atom    7 type  3   force =    -0.00859238    0.00567976    0.00204901
     atom    8 type  3   force =     0.00017450    0.00182430    0.01036338
     The non-local contrib.  to forces
     atom    1 type  1   force =     0.00000000    0.00000000    0.00000000
     atom    2 type  2   force =     0.00000000    0.00000000    0.00000000
     atom    3 type  3   force =    -0.03175449   -0.94302704    0.30850848
     atom    4 type  3   force =    -0.06202289    0.00416120   -0.99083570
     atom    5 type  3   force =     0.79507766   -0.47142262   -0.36221622
     atom    6 type  3   force =     0.06202289   -0.00416120    0.99083570
     atom    7 type  3   force =     0.03175449    0.94302704   -0.30850848
     atom    8 type  3   force =    -0.79507766    0.47142262    0.36221622
     The ionic contribution  to forces
     atom    1 type  1   force =     0.00000000   -0.00000000   -0.00000000
     atom    2 type  2   force =     0.00000000    0.00000000   -0.00000000
     atom    3 type  3   force =    -4.40543082    7.11694252    0.28741560
     atom    4 type  3   force =    -0.15427745   -5.24028789    6.53122913
     atom    5 type  3   force =    -3.36836324    2.50329415    7.24769065
     atom    6 type  3   force =     0.15427745    5.24028789   -6.53122913
     atom    7 type  3   force =     4.40543082   -7.11694253   -0.28741560
     atom    8 type  3   force =     3.36836324   -2.50329415   -7.24769065
     The local contribution  to forces
     atom    1 type  1   force =    -0.00026935    0.00020740    0.00010649
     atom    2 type  2   force =     0.00025859    0.00017010   -0.00040062
     atom    3 type  3   force =     4.44571402   -6.17978627   -0.59795706
     atom    4 type  3   force =     0.21785076    5.24538355   -5.54506561
     atom    5 type  3   force =     2.57326950   -2.03369835   -6.89583242
     atom    6 type  3   force =    -0.21782495   -5.24540203    5.54512817
     atom    7 type  3   force =    -4.44569134    6.17958552    0.59797373
     atom    8 type  3   force =    -2.57323773    2.03372030    6.89580497
     The core correction contribution to forces
     atom    1 type  1   force =     0.00000000    0.00000000    0.00000000
     atom    2 type  2   force =     0.00000387    0.00000437   -0.00000825
     atom    3 type  3   force =     0.00000000    0.00000000    0.00000000
     atom    4 type  3   force =     0.00000000    0.00000000    0.00000000
     atom    5 type  3   force =     0.00000000    0.00000000    0.00000000
     atom    6 type  3   force =     0.00000000    0.00000000    0.00000000
     atom    7 type  3   force =     0.00000000    0.00000000    0.00000000
     atom    8 type  3   force =     0.00000000    0.00000000    0.00000000
     The Hubbard contrib.    to forces
     atom    1 type  1   force =     0.00000000    0.00000000    0.00000000
     atom    2 type  2   force =     0.00000000    0.00000000    0.00000000
     atom    3 type  3   force =     0.00000000    0.00000000    0.00000000
     atom    4 type  3   force =     0.00000000    0.00000000    0.00000000
     atom    5 type  3   force =     0.00000000    0.00000000    0.00000000
     atom    6 type  3   force =     0.00000000    0.00000000    0.00000000
     atom    7 type  3   force =     0.00000000    0.00000000    0.00000000
     atom    8 type  3   force =     0.00000000    0.00000000    0.00000000
     The SCF correction term to forces
     atom    1 type  1   force =     0.00037808   -0.00029677   -0.00016044
     atom    2 type  2   force =    -0.00031449   -0.00021346    0.00048669
     atom    3 type  3   force =     0.00006583    0.00014720   -0.00000515
     atom    4 type  3   force =     0.00005788    0.00008760    0.00011490
     atom    5 type  3   force =    -0.00016429   -0.00000221   -0.00000359
     atom    6 type  3   force =    -0.00006965   -0.00007395   -0.00012198
     atom    7 type  3   force =    -0.00008418   -0.00003410    0.00001023
     atom    8 type  3   force =     0.00012078   -0.00002919    0.00003463

     Total force =     0.025768     Total SCF correction =     0.000875

     Computing stress (Cartesian axis) and pressure

     negative rho (up, down):  1.797E-01 0.000E+00
          total   stress  (Ry/bohr**3)                   (kbar)     P=     -287.23
  -0.00207176  -0.00011810  -0.00008056         -304.77      -17.37      -11.85
  -0.00011810  -0.00190944  -0.00004226          -17.37     -280.89       -6.22
  -0.00008056  -0.00004226  -0.00187642          -11.85       -6.22     -276.03

     kinetic stress (kbar)  28090.49      9.27      6.35
                                9.27  28077.71      3.35
                                6.35      3.35  28075.14

     local   stress (kbar) -13673.06   -901.43   -617.06
                             -901.43 -12433.30   -324.56
                             -617.06   -324.56 -12181.52

     nonloc. stress (kbar)    358.24    -11.03     -7.53
                              -11.03    373.40     -3.95
                               -7.53     -3.95    376.48

     hartree stress (kbar)  26897.35    391.05    267.63
                              391.05  26359.49    140.76
                              267.63    140.76  26250.30

     exc-cor stress (kbar)   -685.35      0.09      0.06
                                0.09   -685.48      0.03
                                0.06      0.03   -685.50

     corecor stress (kbar)  -7932.03     -0.42     -0.29
                               -0.42  -7931.45     -0.15
                               -0.29     -0.15  -7931.33

     ewald   stress (kbar) -33360.42    495.09    338.99
                              495.09 -34041.26    178.30
                              338.99    178.30 -34179.60

     hubbard stress (kbar)      0.00      0.00      0.00
                                0.00      0.00      0.00
                                0.00      0.00      0.00

     DFT-D   stress (kbar)      0.00      0.00      0.00
                                0.00      0.00      0.00
                                0.00      0.00      0.00

     XDM     stress (kbar)      0.00      0.00      0.00
                                0.00      0.00      0.00
                                0.00      0.00      0.00

     dft-nl  stress (kbar)      0.00      0.00      0.00
                                0.00      0.00      0.00
                                0.00      0.00      0.00

     TS-vdW  stress (kbar)      0.00      0.00      0.00
                                0.00      0.00      0.00
                                0.00      0.00      0.00

[...]

                                0.00      0.00      0.00

     Writing all to output data dir new_calculations/myprefix.save/

     General routines

     Parallel routines

   This run was terminated on:  10: 4: 8  21May2023

   JOB DONE.