     Program PWSCF v.7.0 starts on 20May2023 at 16:40:44

     Reading input from espresso_7532.pwi
Warning: card &CELL ignored
Warning: card / ignored

     Current dimensions of program PWSCF are:
     Max number of different atomic species (ntypx) = 10
     Max number of k-points (npk) =  40000
     Max angular momentum in pseudopotentials (lmaxx) =  4
     file Ga.pbe-dn-kjpaw_psl.1.0.0.UPF: wavefunction(s)  4S renormalized
     file O.pbe-n-kjpaw_psl.0.1.UPF: wavefunction(s)  2P renormalized

     gamma-point specific algorithms are used
     Message from routine setup:
     using ibrav=0 with symmetry is DISCOURAGED, use correct ibrav instead

     Subspace diagonalization in iterative solution of the eigenvalue problem:
     a serial algorithm will be used

     Using Slab Decomposition

     bravais-lattice index     =            0
     lattice parameter (alat)  =      12.3163  a.u.
     unit-cell volume          =     338.3747 (a.u.)^3
     number of atoms/cell      =            4
     number of atomic types    =            3
     number of electrons       =        44.00
     number of Kohn-Sham states=           26
     kinetic-energy cutoff     =      30.0000  Ry
     charge density cutoff     =     240.0000  Ry
     scf convergence threshold =      1.0E-06
     mixing beta               =       0.7000
     number of iterations used =            8  plain     mixing
     Exchange-correlation= SLA  PW   PBX  PBC
                           (   1   4   3   4   0   0   0)

     celldm(1)=  12.316311  celldm(2)=   0.000000  celldm(3)=   0.000000
     celldm(4)=   0.000000  celldm(5)=   0.000000  celldm(6)=   0.000000

     crystal axes: (cart. coord. in units of alat)
               a(1) = (   1.000000   0.000000   0.000000 )
               a(2) = (   0.891430   0.453159   0.000000 )
               a(3) = (   0.891430   0.213573   0.399674 )

     reciprocal axes: (cart. coord. in units 2 pi/alat)
               b(1) = (  1.000000 -1.967147 -1.179210 )
               b(2) = (  0.000000  2.206733 -1.179210 )
               b(3) = (  0.000000  0.000000  2.502041 )

     PseudoPot. # 1 for Ga read from file:
     /home/pragov/projects/rrg-bengioy-ad/pragov/crystal_structure_design/SSSP/Ga.pbe-dn-kjpaw_psl.1.0.0.UPF
     MD5 check sum: a27b4342b1af7e5f338de752e9ed7044
     Pseudo is Projector augmented-wave + core cor, Zval = 13.0
     Generated using "atomic" code by A. Dal Corso  v.5.1
     Shape of augmentation charge: PSQ
     Using radial grid of 1205 points,  6 beta functions with:
                l(1) =   0
                l(2) =   0
                l(3) =   1
                l(4) =   1
                l(5) =   2
                l(6) =   2
     Q(r) pseudized with 0 coefficients

     PseudoPot. # 2 for Ag read from file:
     /home/pragov/projects/rrg-bengioy-ad/pragov/crystal_structure_design/SSSP/Ag_ONCV_PBE-1.0.oncvpsp.upf
     MD5 check sum: 94f47bd0669c641108e45594df92fabc
     Pseudo is Norm-conserving, Zval = 19.0
     Generated using ONCVPSP code by D. R. Hamann
     Using radial grid of 1398 points,  6 beta functions with:
                l(1) =   0
                l(2) =   0
                l(3) =   1
                l(4) =   1
                l(5) =   2
                l(6) =   2

     PseudoPot. # 3 for O  read from file:
     /home/pragov/projects/rrg-bengioy-ad/pragov/crystal_structure_design/SSSP/O.pbe-n-kjpaw_psl.0.1.UPF
     MD5 check sum: 0234752ac141de4415c5fc33072bef88
     Pseudo is Projector augmented-wave + core cor, Zval =  6.0
     Generated using "atomic" code by A. Dal Corso  v.5.0.99 svn rev. 10869
     Shape of augmentation charge: BESSEL
     Using radial grid of 1095 points,  4 beta functions with:
                l(1) =   0
                l(2) =   0
                l(3) =   1
                l(4) =   1
     Q(r) pseudized with 0 coefficients

     atomic species   valence    mass     pseudopotential
        Ga            13.00    69.72300     Ga( 1.00)
        Ag            19.00   107.86820     Ag( 1.00)
        O              6.00    15.99900     O ( 1.00)

      2 Sym. Ops., with inversion, found

                                    s                        frac. trans.

      isym =  1     identity

 cryst.   s( 1) = (     1          0          0      )
                  (     0          1          0      )
                  (     0          0          1      )

 cart.    s( 1) = (  1.0000000 -0.0000000  0.0000000 )
                  (  0.0000000  1.0000000  0.0000000 )
                  (  0.0000000  0.0000000  1.0000000 )

      isym =  2     inversion

 cryst.   s( 2) = (    -1          0          0      )
                  (     0         -1          0      )
                  (     0          0         -1      )

 cart.    s( 2) = ( -1.0000000  0.0000000 -0.0000000 )
                  (  0.0000000 -1.0000000 -0.0000000 )
                  (  0.0000000  0.0000000 -1.0000000 )

   Cartesian axes

     site n.     atom                  positions (alat units)
         1           Ga  tau(   1) = (   1.3914299   0.3333661   0.1998369  )
         2           Ag  tau(   2) = (   0.0000000   0.0000000   0.0000000  )
         3           O   tau(   3) = (   2.4683354   0.5913767   0.3545018  )
         4           O   tau(   4) = (   0.3145244   0.0753554   0.0451719  )

   Crystallographic axes

     site n.     atom                  positions (cryst. coord.)
         1           Ga  tau(   1) = (  0.5000000  0.5000000  0.5000000  )
         2           Ag  tau(   2) = (  0.0000000  0.0000000  0.0000000  )
         3           O   tau(   3) = (  0.8869780  0.8869780  0.8869780  )
         4           O   tau(   4) = (  0.1130220  0.1130220  0.1130220  )

     number of k points=     1  Methfessel-Paxton smearing, width (Ry)=  0.0010
                       cart. coord. in units 2pi/alat
        k(    1) = (   0.0000000   0.0000000   0.0000000), wk =   2.0000000

                       cryst. coord.
        k(    1) = (   0.0000000   0.0000000   0.0000000), wk =   2.0000000

     Check: negative core charge=   -0.000010

     Initial potential from superposition of free atoms

     starting charge      43.9968, renormalised to      44.0000
     Starting wfcs are   27 randomized atomic wfcs
     Checking if some PAW data can be deallocated...

     Self-consistent Calculation

     iteration #  1     ecut=    30.00 Ry     beta= 0.70
     Davidson diagonalization with overlap

     ethr =  1.00E-02,  avg # of iterations =  2.0

     total energy              =    -646.96963621 Ry
     estimated scf accuracy    <       1.34372128 Ry

[...]

     total energy              =    -647.54598703 Ry
     estimated scf accuracy    <       0.00001092 Ry

     iteration # 13     ecut=    30.00 Ry     beta= 0.70
     Davidson diagonalization with overlap

     ethr =  2.48E-08,  avg # of iterations =  2.0

     End of self-consistent calculation

          k = 0.0000 0.0000 0.0000 (   458 PWs)   bands (ev):

   -80.7660 -44.2356 -43.4335 -43.4334  -8.2941  -6.0325  -5.5313  -5.5313
    -5.4887  -5.3909  -5.3909   4.2437   7.2380   8.4333   8.4334   8.6170
     8.6170   8.7791   9.8307   9.8307  10.8978  10.8979  11.4093  16.1359
    16.4755  20.9144

     occupation numbers
     1.0000   1.0000   1.0000   1.0000   1.0000   1.0000   1.0000   1.0000
     1.0000   1.0000   1.0000   1.0000   1.0000   1.0000   1.0000   1.0000
     1.0000   1.0000   1.0000   1.0000   1.0000   1.0000  -0.0000  -0.0000
    -0.0000  -0.0000

     the Fermi energy is    11.0942 ev

!    total energy              =    -647.54598931 Ry
     estimated scf accuracy    <       0.00000009 Ry
     smearing contrib. (-TS)   =       0.00000000 Ry
     internal energy E=F+TS    =    -647.54598931 Ry

     The total energy is F=E-TS. E is the sum of the following terms:
     one-electron contribution =    -236.53681995 Ry
     hartree contribution      =     149.18396312 Ry
     xc contribution           =     -80.43357424 Ry
     ewald contribution        =    -349.79693470 Ry
     one-center paw contrib.   =    -129.96262354 Ry
      -> PAW hartree energy AE =     197.45612934 Ry
      -> PAW hartree energy PS =    -195.08749491 Ry
      -> PAW xc energy AE      =    -185.49596188 Ry
      -> PAW xc energy PS      =      53.16470391 Ry
      -> total E_H with PAW    =     151.55259755 Ry
      -> total E_XC with PAW   =    -212.76483221 Ry

     convergence has been achieved in  13 iterations

     Forces acting on atoms (cartesian axes, Ry/au):

     atom    1 type  1   force =     0.00000000    0.00000000    0.00000000
     atom    2 type  2   force =     0.00000000    0.00000000    0.00000000
     atom    3 type  3   force =     0.11218855    0.02680069    0.01620818
     atom    4 type  3   force =    -0.11218855   -0.02680069   -0.01620818
     The non-local contrib.  to forces
     atom    1 type  1   force =     0.00000000    0.00000000    0.00000000
     atom    2 type  2   force =     0.00000000    0.00000000    0.00000000
     atom    3 type  3   force =     0.04920265    0.01117044    0.00784447
     atom    4 type  3   force =    -0.04920265   -0.01117044   -0.00784447
     The ionic contribution  to forces
     atom    1 type  1   force =     0.00000000   -0.00000000    0.00000000
     atom    2 type  2   force =    -0.00000000   -0.00000000   -0.00000000
     atom    3 type  3   force =     3.27336752    0.78425053    0.47011784
     atom    4 type  3   force =    -3.27336752   -0.78425053   -0.47011784
     The local contribution  to forces
     atom    1 type  1   force =    -0.00103244   -0.00020822    0.00013468
     atom    2 type  2   force =    -0.00026903   -0.00004908   -0.00006792
     atom    3 type  3   force =    -3.20721288   -0.76762451   -0.46156329
     atom    4 type  3   force =     3.20733889    0.76761746    0.46167432
     The core correction contribution to forces
     atom    1 type  1   force =    -0.00002866   -0.00000707    0.00000646
     atom    2 type  2   force =     0.00000000    0.00000000    0.00000000
     atom    3 type  3   force =    -0.00300842   -0.00071122   -0.00044359
     atom    4 type  3   force =     0.00300819    0.00071153    0.00044420
     The Hubbard contrib.    to forces
     atom    1 type  1   force =     0.00000000    0.00000000    0.00000000
     atom    2 type  2   force =     0.00000000    0.00000000    0.00000000
     atom    3 type  3   force =     0.00000000    0.00000000    0.00000000
     atom    4 type  3   force =     0.00000000    0.00000000    0.00000000
     The SCF correction term to forces
     atom    1 type  1   force =     0.00147914    0.00028734   -0.00024425
     atom    2 type  2   force =     0.00030352    0.00006514    0.00006757
     atom    3 type  3   force =    -0.00012943   -0.00029935    0.00028787
     atom    4 type  3   force =     0.00006544    0.00027647   -0.00032928

     Total force =     0.164726     Total SCF correction =     0.001676

     Computing stress (Cartesian axis) and pressure

          total   stress  (Ry/bohr**3)                   (kbar)     P=     -834.03
  -0.00631502  -0.00024121  -0.00014468         -928.97      -35.48      -21.28
  -0.00024121  -0.00536509  -0.00003481          -35.48     -789.23       -5.12
  -0.00014468  -0.00003481  -0.00532884          -21.28       -5.12     -783.90

     kinetic stress (kbar)  40419.87   -764.01   -457.93
                             -764.01  43425.61   -109.78
                             -457.93   -109.78  43542.74

     local   stress (kbar)  -2521.99   1224.92    734.06
                             1224.92  -7340.62    175.91
                              734.06    175.91  -7528.71

     nonloc. stress (kbar)   1104.60    130.45     78.25
                              130.45    591.31     18.77
                               78.25     18.77    571.35

     hartree stress (kbar)  20274.86   -502.63   -301.20
                             -502.63  22252.12    -72.18
                             -301.20    -72.18  22329.29

     exc-cor stress (kbar)  -2523.74     -1.54     -0.92
                               -1.54  -2517.67     -0.22
                               -0.92     -0.22  -2517.43

     corecor stress (kbar)  -6658.84      2.04      1.23
                                2.04  -6666.87      0.29
                                1.23      0.29  -6667.19

     ewald   stress (kbar) -51023.74   -124.71    -74.76
                             -124.71 -50533.11    -17.91
                              -74.76    -17.91 -50513.95

     hubbard stress (kbar)      0.00      0.00      0.00
                                0.00      0.00      0.00
                                0.00      0.00      0.00

     DFT-D   stress (kbar)      0.00      0.00      0.00
                                0.00      0.00      0.00
                                0.00      0.00      0.00

     XDM     stress (kbar)      0.00      0.00      0.00
                                0.00      0.00      0.00
                                0.00      0.00      0.00

     dft-nl  stress (kbar)      0.00      0.00      0.00
                                0.00      0.00      0.00
                                0.00      0.00      0.00

     TS-vdW  stress (kbar)      0.00      0.00      0.00
                                0.00      0.00      0.00
                                0.00      0.00      0.00

[...]

                                0.00      0.00      0.00

     Writing all to output data dir new_calculations/myprefix.save/

     General routines

     Parallel routines

     PAW routines

   This run was terminated on:  16:40:54  20May2023

   JOB DONE.