     Program PWSCF v.7.0 starts on 21May2023 at  0:25:35

     Reading input from espresso_18684.pwi
Warning: card &CELL ignored
Warning: card / ignored

     Current dimensions of program PWSCF are:
     Max number of different atomic species (ntypx) = 10
     Max number of k-points (npk) =  40000
     Max angular momentum in pseudopotentials (lmaxx) =  4
     file O.pbe-n-kjpaw_psl.0.1.UPF: wavefunction(s)  2P renormalized

     gamma-point specific algorithms are used
     Message from routine setup:
     using ibrav=0 with symmetry is DISCOURAGED, use correct ibrav instead

     Subspace diagonalization in iterative solution of the eigenvalue problem:
     a serial algorithm will be used

     Using Slab Decomposition

     bravais-lattice index     =            0
     lattice parameter (alat)  =       7.3032  a.u.
     unit-cell volume          =    1693.9061 (a.u.)^3
     number of atoms/cell      =           19
     number of atomic types    =            3
     number of electrons       =       168.00
     number of Kohn-Sham states=          101
     kinetic-energy cutoff     =      30.0000  Ry
     charge density cutoff     =     240.0000  Ry
     scf convergence threshold =      1.0E-06
     mixing beta               =       0.7000
     number of iterations used =            8  plain     mixing
     Exchange-correlation= SLA  PW   PBX  PBC
                           (   1   4   3   4   0   0   0)

     celldm(1)=   7.303214  celldm(2)=   0.000000  celldm(3)=   0.000000
     celldm(4)=   0.000000  celldm(5)=   0.000000  celldm(6)=   0.000000

     crystal axes: (cart. coord. in units of alat)
               a(1) = (   1.000000   0.000000   0.000000 )
               a(2) = (   0.020359   0.999793   0.000000 )
               a(3) = (   0.442252   0.433339   4.349480 )

     reciprocal axes: (cart. coord. in units 2 pi/alat)
               b(1) = (  1.000000 -0.020363 -0.099651 )
               b(2) = (  0.000000  1.000207 -0.099651 )
               b(3) = (  0.000000  0.000000  0.229913 )

     PseudoPot. # 1 for Ti read from file:
     /home/pragov/projects/rrg-bengioy-ad/pragov/crystal_structure_design/SSSP/ti_pbe_v1.4.uspp.F.UPF
     MD5 check sum: 88a00a6731bd790ddea75d31a80cb452
     Pseudo is Ultrasoft + core correction, Zval = 12.0
     Generated by new atomic code, or converted to UPF format
     Using radial grid of  851 points,  6 beta functions with:
                l(1) =   0
                l(2) =   0
                l(3) =   1
                l(4) =   1
                l(5) =   2
                l(6) =   2
     Q(r) pseudized with  6 coefficients,  rinner =    1.000   1.000   1.000
                                                       1.000   1.000

     PseudoPot. # 2 for Bi read from file:
     /home/pragov/projects/rrg-bengioy-ad/pragov/crystal_structure_design/SSSP/Bi_pbe_v1.uspp.F.UPF
     MD5 check sum: cceb9f28ec65b6d7ff33140f5b0b1758
     Pseudo is Ultrasoft + core correction, Zval = 15.0
     Generated by new atomic code, or converted to UPF format
     Using radial grid of  899 points,  6 beta functions with:
                l(1) =   0
                l(2) =   0
                l(3) =   1
                l(4) =   1
                l(5) =   2
                l(6) =   2
     Q(r) pseudized with  6 coefficients,  rinner =    1.000   1.000   1.000
                                                       1.000   1.000

     PseudoPot. # 3 for O  read from file:
     /home/pragov/projects/rrg-bengioy-ad/pragov/crystal_structure_design/SSSP/O.pbe-n-kjpaw_psl.0.1.UPF
     MD5 check sum: 0234752ac141de4415c5fc33072bef88
     Pseudo is Projector augmented-wave + core cor, Zval =  6.0
     Generated using "atomic" code by A. Dal Corso  v.5.0.99 svn rev. 10869
     Shape of augmentation charge: BESSEL
     Using radial grid of 1095 points,  4 beta functions with:
                l(1) =   0
                l(2) =   0
                l(3) =   1
                l(4) =   1
     Q(r) pseudized with 0 coefficients

     atomic species   valence    mass     pseudopotential
        Ti            12.00    47.86700     Ti( 1.00)
        Bi            15.00   208.98040     Bi( 1.00)
        O              6.00    15.99900     O ( 1.00)

      2 Sym. Ops., with inversion, found

                                    s                        frac. trans.

      isym =  1     identity

 cryst.   s( 1) = (     1          0          0      )
                  (     0          1          0      )
                  (     0          0          1      )

 cart.    s( 1) = (  1.0000000  0.0000000  0.0000000 )
                  (  0.0000000  1.0000000  0.0000000 )
                  (  0.0000000  0.0000000  1.0000000 )

      isym =  2     inversion

 cryst.   s( 2) = (    -1          0          0      )
                  (     0         -1          0      )
                  (     0          0         -1      )

 cart.    s( 2) = ( -1.0000000 -0.0000000 -0.0000000 )
                  (  0.0000000 -1.0000000 -0.0000000 )
                  (  0.0000000  0.0000000 -1.0000000 )

   Cartesian axes

     site n.     atom                  positions (alat units)
         1           Ti  tau(   1) = (   0.4858216   0.4760296   1.1179685  )
         2           Ti  tau(   2) = (   0.9767895   0.9571018   3.2315110  )
         3           Ti  tau(   3) = (   0.5101793   0.4998964   0.0000000  )
         4           Bi  tau(   4) = (   0.9365427   0.9176661   0.5761364  )
         5           Bi  tau(   5) = (   0.4817298   0.4720203   2.5075010  )
         6           Bi  tau(   6) = (   0.9808813   0.9611111   1.8419785  )
         7           Bi  tau(   7) = (   0.5260684   0.5154652   3.7733431  )
         8           O   tau(   8) = (   0.5268717   0.5162523   0.5153133  )
         9           O   tau(   9) = (   0.9357394   0.9168791   3.8341662  )
        10           O   tau(  10) = (   0.9306883   0.4392039   3.3376992  )
        11           O   tau(  11) = (   0.4861337   0.9667808   2.1747398  )
        12           O   tau(  12) = (   0.5319228   0.9939275   1.0117803  )
        13           O   tau(  13) = (   0.9764775   0.4663506   2.1747398  )
        14           O   tau(  14) = (   0.4580604   0.9215539   3.3376992  )
        15           O   tau(  15) = (   0.0101793   0.4998964   0.0000000  )
        16           O   tau(  16) = (   0.9724556   0.9528552   2.7694528  )
        17           O   tau(  17) = (   0.4901555   0.4802761   1.5800267  )
        18           O   tau(  18) = (   1.0045507   0.5115775   1.0117803  )
        19           O   tau(  19) = (   0.5000000   0.0000000   0.0000000  )

   Crystallographic axes

     site n.     atom                  positions (cryst. coord.)
         1           Ti  tau(   1) = (  0.3647220  0.3647220  0.2570350  )
         2           Ti  tau(   2) = (  0.6352780  0.6352780  0.7429650  )
         3           Ti  tau(   3) = (  0.5000000  0.5000000  0.0000000  )
         4           Bi  tau(   4) = (  0.8604440  0.8604440  0.1324610  )
         5           Bi  tau(   5) = (  0.2222440  0.2222440  0.5765060  )
         6           Bi  tau(   6) = (  0.7777560  0.7777560  0.4234940  )
         7           Bi  tau(   7) = (  0.1395560  0.1395560  0.8675390  )
         8           O   tau(   8) = (  0.4650080  0.4650080  0.1184770  )
         9           O   tau(   9) = (  0.5349920  0.5349920  0.8815230  )
        10           O   tau(  10) = (  0.5891410  0.1066910  0.7673790  )
        11           O   tau(  11) = (  0.2497330  0.7502670  0.5000000  )
        12           O   tau(  12) = (  0.4108590  0.8933090  0.2326210  )
        13           O   tau(  13) = (  0.7502670  0.2497330  0.5000000  )
        14           O   tau(  14) = (  0.1066910  0.5891410  0.7673790  )
        15           O   tau(  15) = (  0.0000000  0.5000000  0.0000000  )
        16           O   tau(  16) = (  0.6770750  0.6770750  0.6367320  )
        17           O   tau(  17) = (  0.3229250  0.3229250  0.3632680  )
        18           O   tau(  18) = (  0.8933090  0.4108590  0.2326210  )
        19           O   tau(  19) = (  0.5000000  0.0000000  0.0000000  )

     number of k points=     1  Methfessel-Paxton smearing, width (Ry)=  0.0010
                       cart. coord. in units 2pi/alat
        k(    1) = (   0.0000000   0.0000000   0.0000000), wk =   2.0000000

                       cryst. coord.
        k(    1) = (   0.0000000   0.0000000   0.0000000), wk =   2.0000000

     Check: negative core charge=   -0.000014

     Initial potential from superposition of free atoms

     starting charge     160.9997, renormalised to     168.0000

     negative rho (up, down):  1.828E-01 0.000E+00
     Starting wfcs are  114 randomized atomic wfcs
     Checking if some PAW data can be deallocated...

     Self-consistent Calculation

     iteration #  1     ecut=    30.00 Ry     beta= 0.70
     Davidson diagonalization with overlap

     ethr =  1.00E-02,  avg # of iterations =  2.0

     negative rho (up, down):  1.641E-01 0.000E+00

     total energy              =   -1594.83690093 Ry
     estimated scf accuracy    <       6.01640404 Ry

[...]

     total energy              =   -1597.64536451 Ry
     estimated scf accuracy    <       0.00010861 Ry

     iteration # 67     ecut=    30.00 Ry     beta= 0.70
     Davidson diagonalization with overlap

     ethr =  2.53E-08,  avg # of iterations =  1.0

[...]

     End of self-consistent calculation

          k = 0.0000 0.0000 0.0000 (  2356 PWs)   bands (ev):

   -47.9444 -46.8500 -46.8498 -24.1406 -24.0785 -24.0751 -23.1961 -23.1960
   -23.1484 -23.1482 -23.0302 -23.0301 -13.0074 -12.9218 -12.8952 -12.8926
   -12.8910 -12.8562 -12.8350 -12.8261 -12.7996 -12.7770 -12.4848 -12.4832
   -12.4685 -12.4644 -12.4324 -12.4292 -12.4117 -12.4114 -12.3624 -12.3621
    -8.6392  -8.1912  -8.0444  -6.9868  -6.7510  -6.6048  -6.4636  -6.3904
    -6.3901  -5.8980  -5.7179  -5.0254  -0.3338   0.9510   1.1527   2.0458
     5.3777   5.3779   5.6752   5.7090   5.9731   6.0495   6.1356   6.1599
     7.3262   7.4289   7.4643   7.5156   7.5937   7.6286   7.7611   7.8349
     7.9057   7.9102   7.9916   8.0585   8.3079   8.4681   8.5775   8.5984
     8.8234   8.8942   8.9777   9.1344   9.3348   9.3970   9.4643   9.4916
     9.9567   9.9704  10.9870  11.1251  11.1404  11.7350  11.8890  11.9718
    12.0058  12.0250  12.3746  13.3578  13.4019  13.4384  13.5445  13.5905
    13.6966  14.1650  14.2406  14.3116  14.8285

     occupation numbers
     1.0000   1.0000   1.0000   1.0000   1.0000   1.0000   1.0000   1.0000
     1.0000   1.0000   1.0000   1.0000   1.0000   1.0000   1.0000   1.0000
     1.0000   1.0000   1.0000   1.0000   1.0000   1.0000   1.0000   1.0000
     1.0000   1.0000   1.0000   1.0000   1.0000   1.0000   1.0000   1.0000
     1.0000   1.0000   1.0000   1.0000   1.0000   1.0000   1.0000   1.0000
     1.0000   1.0000   1.0000   1.0000   1.0000   1.0000   1.0000   1.0000
     1.0000   1.0000   1.0000   1.0000   1.0000   1.0000   1.0000   1.0000
     1.0000   1.0000   1.0000   1.0000   1.0000   1.0000   1.0000   1.0000
     1.0000   1.0000   1.0000   1.0000   1.0000   1.0000   1.0000   1.0000
     1.0000   1.0000   1.0000   1.0000   1.0000   1.0000   1.0000   1.0000
     1.0000   1.0000   1.0000   0.9015   0.0985  -0.0000  -0.0000  -0.0000
    -0.0000  -0.0000  -0.0000  -0.0000  -0.0000  -0.0000  -0.0000  -0.0000
    -0.0000  -0.0000  -0.0000  -0.0000  -0.0000

     the Fermi energy is    11.1328 ev

!    total energy              =   -1597.64536448 Ry
     estimated scf accuracy    <       0.00000072 Ry
     smearing contrib. (-TS)   =      -0.00015310 Ry
     internal energy E=F+TS    =   -1597.64521138 Ry

     The total energy is F=E-TS. E is the sum of the following terms:
     one-electron contribution =    -436.54787177 Ry
     hartree contribution      =     327.60084271 Ry
     xc contribution           =    -402.27786770 Ry
     ewald contribution        =    -972.19404771 Ry
     one-center paw contrib.   =    -114.22626690 Ry
      -> PAW hartree energy AE =     361.19880240 Ry
      -> PAW hartree energy PS =    -359.89500735 Ry
      -> PAW xc energy AE      =    -206.91373987 Ry
      -> PAW xc energy PS      =      91.38367791 Ry
      -> total E_H with PAW    =     328.90463777 Ry
      -> total E_XC with PAW   =    -517.80792966 Ry

     convergence has been achieved in  67 iterations

     negative rho (up, down):  1.714E-01 0.000E+00

     Forces acting on atoms (cartesian axes, Ry/au):

     atom    1 type  1   force =    -0.18778007   -0.18399560    0.40715938
     atom    2 type  1   force =     0.18778007    0.18399560   -0.40715938
     atom    3 type  1   force =     0.00000000    0.00000000    0.00000000
     atom    4 type  2   force =     0.00714034    0.00700614   -0.02611862
     atom    5 type  2   force =     0.00395598    0.00387650    0.00447457
     atom    6 type  2   force =    -0.00395598   -0.00387650   -0.00447457
     atom    7 type  2   force =    -0.00714034   -0.00700614    0.02611862
     atom    8 type  3   force =    -0.01944667   -0.01905467   -0.06686588
     atom    9 type  3   force =     0.01944667    0.01905467    0.06686588
     atom   10 type  3   force =    -0.11777642   -0.06858905    0.18679659
     atom   11 type  3   force =     0.00456528   -0.00465923   -0.00000039
     atom   12 type  3   force =     0.11777642    0.06858905   -0.18679659
     atom   13 type  3   force =    -0.00456528    0.00465923    0.00000039
     atom   14 type  3   force =    -0.07097209   -0.11635505    0.18679612
     atom   15 type  3   force =     0.00000000    0.00000000    0.00000000
     atom   16 type  3   force =    -0.00896719   -0.00878673    0.00165558
     atom   17 type  3   force =     0.00896719    0.00878673   -0.00165558
     atom   18 type  3   force =     0.07097209    0.11635505   -0.18679612
     atom   19 type  3   force =     0.00000000    0.00000000    0.00000000
     The non-local contrib.  to forces
     atom    1 type  1   force =     0.02676918    0.02622839   -0.17049301
     atom    2 type  1   force =    -0.02676918   -0.02622839    0.17049301
     atom    3 type  1   force =     0.00000000    0.00000000    0.00000000
     atom    4 type  2   force =    -0.21932351   -0.21489501    0.06519408
     atom    5 type  2   force =     0.02320803    0.02274055   -0.42532300
     atom    6 type  2   force =    -0.02320803   -0.02274055    0.42532300
     atom    7 type  2   force =     0.21932351    0.21489501   -0.06519408
     atom    8 type  3   force =     0.24055260    0.23570500   -0.33244759
     atom    9 type  3   force =    -0.24055260   -0.23570500    0.33244759
     atom   10 type  3   force =    -0.08331024   -0.15197670   -0.50704288
     atom   11 type  3   force =     0.06158699   -0.06285383   -0.00000038
     atom   12 type  3   force =     0.08331024    0.15197670    0.50704288
     atom   13 type  3   force =    -0.06158699    0.06285383    0.00000038
     atom   14 type  3   force =    -0.15364188   -0.08019652   -0.50704381
     atom   15 type  3   force =     0.00000000    0.00000000    0.00000000
     atom   16 type  3   force =    -0.02997765   -0.02937346    0.77180643
     atom   17 type  3   force =     0.02997765    0.02937346   -0.77180643
     atom   18 type  3   force =     0.15364188    0.08019652    0.50704381
     atom   19 type  3   force =     0.00000000    0.00000000    0.00000000
     The ionic contribution  to forces
     atom    1 type  1   force =    -0.49054199   -0.48065484   17.19639558
     atom    2 type  1   force =     0.49054199    0.48065485  -17.19639558
     atom    3 type  1   force =     0.00000000   -0.00000000   -0.00000000
     atom    4 type  2   force =     5.72862058    5.61315701    7.51624603
     atom    5 type  2   force =    -0.66192625   -0.64858476    6.00920823
     atom    6 type  2   force =     0.66192625    0.64858476   -6.00920822
     atom    7 type  2   force =    -5.72862058   -5.61315701   -7.51624603
     atom    8 type  3   force =    -2.61401768   -2.56133068    5.49753473
     atom    9 type  3   force =     2.61401768    2.56133068   -5.49753473
     atom   10 type  3   force =     1.23173407    0.32974471   -9.26527183
     atom   11 type  3   force =    -0.36519527    0.37270740    0.00000000
     atom   12 type  3   force =    -1.23173407   -0.32974472    9.26527183
     atom   13 type  3   force =     0.36519527   -0.37270740    0.00000000
     atom   14 type  3   force =     0.35475281    1.22476563   -9.26527183
     atom   15 type  3   force =    -0.00000000   -0.00000000   -0.00000000
     atom   16 type  3   force =     0.30603670    0.29986836  -10.39404398
     atom   17 type  3   force =    -0.30603670   -0.29986836   10.39404398
     atom   18 type  3   force =    -0.35475281   -1.22476563    9.26527183
     atom   19 type  3   force =    -0.00000000    0.00000000   -0.00000000
     The local contribution  to forces
     atom    1 type  1   force =     0.27937468    0.27374402  -16.64029451
     atom    2 type  1   force =    -0.27938603   -0.27376251   16.64014324
     atom    3 type  1   force =     0.00048161   -0.00048463    0.00011219
     atom    4 type  2   force =    -5.50881961   -5.39778186   -7.60667967
     atom    5 type  2   force =     0.64361853    0.63064498   -5.60367165
     atom    6 type  2   force =    -0.64361618   -0.63064442    5.60381790
     atom    7 type  2   force =     5.50877817    5.39777503    7.60659746
     atom    8 type  3   force =     2.35605472    2.30853998   -5.23486605
     atom    9 type  3   force =    -2.35602985   -2.30856579    5.23488314
     atom   10 type  3   force =    -1.26671163   -0.24753141    9.95217251
     atom   11 type  3   force =     0.30885157   -0.31520613    0.00000818
     atom   12 type  3   force =     1.26671040    0.24754950   -9.95224645
     atom   13 type  3   force =    -0.30885378    0.31520546    0.00001034
     atom   14 type  3   force =    -0.27326595   -1.26141196    9.95217172
     atom   15 type  3   force =    -0.00021969    0.00010588    0.00006459
     atom   16 type  3   force =    -0.28534085   -0.27958875    9.63043034
     atom   17 type  3   force =     0.28533728    0.27958823   -9.63050705
     atom   18 type  3   force =     0.27328663    1.26141131   -9.95225082
     atom   19 type  3   force =    -0.00009968    0.00022366    0.00004590
     The core correction contribution to forces
     atom    1 type  1   force =    -0.00338488   -0.00331667    0.02093464
     atom    2 type  1   force =     0.00338464    0.00331611   -0.02093467
     atom    3 type  1   force =     0.00001402   -0.00001425    0.00000007
     atom    4 type  2   force =     0.00671085    0.00657572   -0.00151237
     atom    5 type  2   force =    -0.00094906   -0.00092994    0.02463376
     atom    6 type  2   force =     0.00094905    0.00092994   -0.02463141
     atom    7 type  2   force =    -0.00671100   -0.00657573    0.00151156
     atom    8 type  3   force =    -0.00201314   -0.00197258    0.00300904
     atom    9 type  3   force =     0.00201319    0.00197262   -0.00300921
     atom   10 type  3   force =     0.00051681    0.00118356    0.00712219
     atom   11 type  3   force =    -0.00068072    0.00069471   -0.00000041
     atom   12 type  3   force =    -0.00051679   -0.00118366   -0.00712229
     atom   13 type  3   force =     0.00068071   -0.00069472   -0.00000042
     atom   14 type  3   force =     0.00119386    0.00049257    0.00712218
     atom   15 type  3   force =    -0.00000004    0.00000009    0.00000007
     atom   16 type  3   force =     0.00031046    0.00030420   -0.00634519
     atom   17 type  3   force =    -0.00031049   -0.00030422    0.00634539
     atom   18 type  3   force =    -0.00119393   -0.00049255   -0.00712233
     atom   19 type  3   force =    -0.00000009    0.00000006   -0.00000005
     The Hubbard contrib.    to forces
     atom    1 type  1   force =     0.00000000    0.00000000    0.00000000
     atom    2 type  1   force =     0.00000000    0.00000000    0.00000000
     atom    3 type  1   force =     0.00000000    0.00000000    0.00000000
     atom    4 type  2   force =     0.00000000    0.00000000    0.00000000
     atom    5 type  2   force =     0.00000000    0.00000000    0.00000000
     atom    6 type  2   force =     0.00000000    0.00000000    0.00000000
     atom    7 type  2   force =     0.00000000    0.00000000    0.00000000
     atom    8 type  3   force =     0.00000000    0.00000000    0.00000000
     atom    9 type  3   force =     0.00000000    0.00000000    0.00000000
     atom   10 type  3   force =     0.00000000    0.00000000    0.00000000
     atom   11 type  3   force =     0.00000000    0.00000000    0.00000000
     atom   12 type  3   force =     0.00000000    0.00000000    0.00000000
     atom   13 type  3   force =     0.00000000    0.00000000    0.00000000
     atom   14 type  3   force =     0.00000000    0.00000000    0.00000000
     atom   15 type  3   force =     0.00000000    0.00000000    0.00000000
     atom   16 type  3   force =     0.00000000    0.00000000    0.00000000
     atom   17 type  3   force =     0.00000000    0.00000000    0.00000000
     atom   18 type  3   force =     0.00000000    0.00000000    0.00000000
     atom   19 type  3   force =     0.00000000    0.00000000    0.00000000
     The SCF correction term to forces
     atom    1 type  1   force =    -0.00000057   -0.00000086    0.00062282
     atom    2 type  1   force =     0.00000513    0.00001116   -0.00045924
     atom    3 type  1   force =    -0.00027583    0.00027535   -0.00011571
     atom    4 type  2   force =    -0.00004868   -0.00004982    0.00063673
     atom    5 type  2   force =     0.00000486    0.00000583   -0.00037215
     atom    6 type  2   force =    -0.00000694   -0.00000608    0.00022477
     atom    7 type  2   force =     0.00008887    0.00005647   -0.00054687
     atom    8 type  3   force =    -0.00002209    0.00000505   -0.00009677
     atom    9 type  3   force =    -0.00000069    0.00002358    0.00007834
     atom   10 type  3   force =    -0.00000304   -0.00000941   -0.00018399
     atom   11 type  3   force =     0.00000189   -0.00000155   -0.00003933
     atom   12 type  3   force =     0.00000906   -0.00000898    0.00025685
     atom   13 type  3   force =    -0.00000130    0.00000190   -0.00004145
     atom   14 type  3   force =    -0.00001003   -0.00000234   -0.00018409
     atom   15 type  3   force =     0.00013665   -0.00003710   -0.00005830
     atom   16 type  3   force =     0.00000339    0.00000310   -0.00018921
     atom   17 type  3   force =    -0.00000132   -0.00000220    0.00027133
     atom   18 type  3   force =    -0.00000878    0.00000785    0.00025944
     atom   19 type  3   force =     0.00003042   -0.00013544   -0.00005105

     Total force =     0.834362     Total SCF correction =     0.001432

     Computing stress (Cartesian axis) and pressure

     negative rho (up, down):  1.714E-01 0.000E+00
          total   stress  (Ry/bohr**3)                   (kbar)     P=     -229.77
  -0.00082552   0.00011712  -0.00010911         -121.44       17.23      -16.05
   0.00011712  -0.00083021  -0.00010691           17.23     -122.13      -15.73
  -0.00010911  -0.00010691  -0.00303006          -16.05      -15.73     -445.74

     kinetic stress (kbar)  19633.87    -49.66     10.40
                              -49.66  19635.90     10.19
                               10.40     10.19  19502.49

     local   stress (kbar) -11110.72   -404.37   -259.49
                             -404.37 -11094.22   -254.26
                             -259.49   -254.26   2198.28

     nonloc. stress (kbar)  12797.41     19.84    -19.53
                               19.84  12796.61    -19.14
                              -19.53    -19.14  12703.44

     hartree stress (kbar)  11586.15    104.64    107.85
                              104.64  11581.86    105.68
                              107.85    105.68   5282.07

     exc-cor stress (kbar)  10735.38      0.39      0.21
                                0.39  10735.36      0.21
                                0.21      0.21  10739.48

     corecor stress (kbar) -17995.22     -0.46      0.77
                               -0.46 -17995.20      0.75
                                0.77      0.75 -17993.29

     ewald   stress (kbar) -25768.30    346.85    143.75
                              346.85 -25782.43    140.85
                              143.75    140.85 -32878.20

     hubbard stress (kbar)      0.00      0.00      0.00
                                0.00      0.00      0.00
                                0.00      0.00      0.00

     DFT-D   stress (kbar)      0.00      0.00      0.00
                                0.00      0.00      0.00
                                0.00      0.00      0.00

     XDM     stress (kbar)      0.00      0.00      0.00
                                0.00      0.00      0.00
                                0.00      0.00      0.00

     dft-nl  stress (kbar)      0.00      0.00      0.00
                                0.00      0.00      0.00
                                0.00      0.00      0.00

     TS-vdW  stress (kbar)      0.00      0.00      0.00
                                0.00      0.00      0.00
                                0.00      0.00      0.00

[...]

                                0.00      0.00      0.00

     Writing all to output data dir new_calculations/myprefix.save/

     General routines

     Parallel routines

     PAW routines

   This run was terminated on:   0:27: 4  21May2023

   JOB DONE.