     Program PWSCF v.7.0 starts on 20May2023 at 19:20:11

     Reading input from espresso_17586.pwi
Warning: card &CELL ignored
Warning: card / ignored

     Current dimensions of program PWSCF are:
     Max number of different atomic species (ntypx) = 10
     Max number of k-points (npk) =  40000
     Max angular momentum in pseudopotentials (lmaxx) =  4
     file K.pbe-spn-kjpaw_psl.1.0.0.UPF: wavefunction(s)  3S renormalized

     gamma-point specific algorithms are used
     Message from routine setup:
     using ibrav=0 with symmetry is DISCOURAGED, use correct ibrav instead

     Subspace diagonalization in iterative solution of the eigenvalue problem:
     a serial algorithm will be used

     Using Slab Decomposition

     bravais-lattice index     =            0
     lattice parameter (alat)  =      12.2358  a.u.
     unit-cell volume          =    2218.0153 (a.u.)^3
     number of atoms/cell      =            9
     number of atomic types    =            2
     number of electrons       =        65.00
     number of Kohn-Sham states=           40
     kinetic-energy cutoff     =      30.0000  Ry
     charge density cutoff     =     240.0000  Ry
     scf convergence threshold =      1.0E-06
     mixing beta               =       0.7000
     number of iterations used =            8  plain     mixing
     Exchange-correlation= PBE
                           (   1   4   3   4   0   0   0)

     celldm(1)=  12.235788  celldm(2)=   0.000000  celldm(3)=   0.000000
     celldm(4)=   0.000000  celldm(5)=   0.000000  celldm(6)=   0.000000

     crystal axes: (cart. coord. in units of alat)
               a(1) = (   1.000000   0.000000   0.000000 )
               a(2) = (   0.087007   1.007157   0.000000 )
               a(3) = (   0.072973   0.476626   1.202186 )

     reciprocal axes: (cart. coord. in units 2 pi/alat)
               b(1) = (  1.000000 -0.086389 -0.026450 )
               b(2) = (  0.000000  0.992894 -0.393649 )
               b(3) = (  0.000000  0.000000  0.831818 )

     PseudoPot. # 1 for K  read from file:
     /home/pragov/projects/rrg-bengioy-ad/pragov/crystal_structure_design/SSSP/K.pbe-spn-kjpaw_psl.1.0.0.UPF
     MD5 check sum: 7d58810084cac21f60fbe77ea2b688fd
     Pseudo is Projector augmented-wave + core cor, Zval =  9.0
     Generated using "atomic" code by A. Dal Corso  v.5.1
     Shape of augmentation charge: PSQ
     Using radial grid of 1165 points,  6 beta functions with:
                l(1) =   0
                l(2) =   0
                l(3) =   1
                l(4) =   1
                l(5) =   2
                l(6) =   2
     Q(r) pseudized with 0 coefficients

     PseudoPot. # 2 for As read from file:
     /home/pragov/projects/rrg-bengioy-ad/pragov/crystal_structure_design/SSSP/As.pbe-n-rrkjus_psl.0.2.UPF
     MD5 check sum: 767315de957beeeb34f87d97bf945c8f
     Pseudo is Ultrasoft + core correction, Zval =  5.0
     Generated using "atomic" code by A. Dal Corso  v.5.0.99 svn rev. 10869
     Using radial grid of 1209 points,  4 beta functions with:
                l(1) =   0
                l(2) =   0
                l(3) =   1
                l(4) =   1
     Q(r) pseudized with 0 coefficients

     atomic species   valence    mass     pseudopotential
        K              9.00    39.09830     K ( 1.00)
        As             5.00    74.92159     As( 1.00)

      2 Sym. Ops., with inversion, found

                                    s                        frac. trans.

      isym =  1     identity

 cryst.   s( 1) = (     1          0          0      )
                  (     0          1          0      )
                  (     0          0          1      )

 cart.    s( 1) = (  1.0000000 -0.0000000  0.0000000 )
                  (  0.0000000  1.0000000  0.0000000 )
                  (  0.0000000  0.0000000  1.0000000 )

      isym =  2     inversion

 cryst.   s( 2) = (    -1          0          0      )
                  (     0         -1          0      )
                  (     0          0         -1      )

 cart.    s( 2) = ( -1.0000000  0.0000000 -0.0000000 )
                  (  0.0000000 -1.0000000 -0.0000000 )
                  (  0.0000000  0.0000000 -1.0000000 )

   Cartesian axes

     site n.     atom                  positions (alat units)
         1           K   tau(   1) = (   0.8127054   0.6770636   1.1878074  )
         2           K   tau(   2) = (   0.9196355   0.6488357   0.3358522  )
         3           K   tau(   3) = (   0.5364866   0.2383131   0.6010928  )
         4           K   tau(   4) = (   0.2403448   0.8349477   0.8663334  )
         5           K   tau(   5) = (   0.3472748   0.8067197   0.0143781  )
         6           As  tau(   6) = (   1.0300857   0.3481158   0.7567577  )
         7           As  tau(   7) = (   0.2560556   0.2953577   0.1757271  )
         8           As  tau(   8) = (   0.9039246   1.1884257   1.0264585  )
         9           As  tau(   9) = (   0.1298946   1.1356676   0.4454278  )

   Crystallographic axes

     site n.     atom                  positions (cryst. coord.)
         1           K   tau(   1) = (  0.7227970  0.2046730  0.9880400  )
         2           K   tau(   2) = (  0.8547000  0.5120170  0.2793680  )
         3           K   tau(   3) = (  0.5000000  0.0000000  0.5000000  )
         4           K   tau(   4) = (  0.1453000  0.4879830  0.7206320  )
         5           K   tau(   5) = (  0.2772030  0.7953270  0.0119600  )
         6           As  tau(   6) = (  0.9799960  0.0477450  0.6294850  )
         7           As  tau(   7) = (  0.2258920  0.2240840  0.1461730  )
         8           As  tau(   8) = (  0.7741080  0.7759160  0.8538270  )
         9           As  tau(   9) = (  0.0200040  0.9522550  0.3705150  )

     number of k points=     1  Methfessel-Paxton smearing, width (Ry)=  0.0010
                       cart. coord. in units 2pi/alat
        k(    1) = (   0.0000000   0.0000000   0.0000000), wk =   2.0000000

                       cryst. coord.
        k(    1) = (   0.0000000   0.0000000   0.0000000), wk =   2.0000000

     Check: negative core charge=   -0.000002

     Initial potential from superposition of free atoms

     starting charge      64.9049, renormalised to      65.0000
     Starting wfcs are   56 randomized atomic wfcs
     Checking if some PAW data can be deallocated...

     Self-consistent Calculation

     iteration #  1     ecut=    30.00 Ry     beta= 0.70
     Davidson diagonalization with overlap

     ethr =  1.00E-02,  avg # of iterations =  4.0

     Threshold (ethr) on eigenvalues was too large:
     Diagonalizing with lowered threshold

     Davidson diagonalization with overlap

[...]

     total energy              =    -637.80557773 Ry
     estimated scf accuracy    <       0.58463682 Ry

[...]

     total energy              =    -638.03859837 Ry
     estimated scf accuracy    <       0.00000294 Ry

     iteration # 18     ecut=    30.00 Ry     beta= 0.70
     Davidson diagonalization with overlap

     ethr =  4.52E-09,  avg # of iterations =  1.0

     End of self-consistent calculation

          k = 0.0000 0.0000 0.0000 (  3076 PWs)   bands (ev):

   -27.2242 -27.2195 -27.0366 -27.0296 -26.7263 -10.8436 -10.8346 -10.7737
   -10.7219 -10.7178 -10.6951 -10.5851 -10.5713 -10.5328 -10.5252 -10.5236
   -10.4719 -10.3443 -10.2571 -10.1813  -8.1250  -6.5894  -5.0799  -3.9578
     0.5616   0.9622   1.4724   1.5836   2.2780   3.0833   3.3022   3.8520
     3.8596   4.9690   5.2482   5.8559   6.2138   7.0798   7.3803   7.5083

     occupation numbers
     1.0000   1.0000   1.0000   1.0000   1.0000   1.0000   1.0000   1.0000
     1.0000   1.0000   1.0000   1.0000   1.0000   1.0000   1.0000   1.0000
     1.0000   1.0000   1.0000   1.0000   1.0000   1.0000   1.0000   1.0000
     1.0000   1.0000   1.0000   1.0000   1.0000   1.0000   1.0000   0.9352
     0.5648  -0.0000  -0.0000  -0.0000  -0.0000  -0.0000  -0.0000  -0.0000

     the Fermi energy is     3.8606 ev

!    total energy              =    -638.03859840 Ry
     estimated scf accuracy    <       0.00000001 Ry
     smearing contrib. (-TS)   =      -0.00031351 Ry
     internal energy E=F+TS    =    -638.03828489 Ry

     The total energy is F=E-TS. E is the sum of the following terms:
     one-electron contribution =    -139.96409058 Ry
     hartree contribution      =      89.32200601 Ry
     xc contribution           =     -93.07121933 Ry
     ewald contribution        =    -217.24004796 Ry
     one-center paw contrib.   =    -277.08493303 Ry
      -> PAW hartree energy AE =     188.83978155 Ry
      -> PAW hartree energy PS =    -187.78868315 Ry
      -> PAW xc energy AE      =    -331.12716544 Ry
      -> PAW xc energy PS      =      52.99113400 Ry
      -> total E_H with PAW    =      90.37310441 Ry
      -> total E_XC with PAW   =    -371.20725077 Ry

     convergence has been achieved in  18 iterations

     Forces acting on atoms (cartesian axes, Ry/au):

     atom    1 type  1   force =     0.00079621   -0.00161196    0.00367582
     atom    2 type  1   force =    -0.00350521   -0.00766150    0.00104411
     atom    3 type  1   force =     0.00000000    0.00000000    0.00000000
     atom    4 type  1   force =     0.00350521    0.00766150   -0.00104411
     atom    5 type  1   force =    -0.00079621    0.00161196   -0.00367582
     atom    6 type  2   force =    -0.01828193   -0.00388102    0.01634323
     atom    7 type  2   force =     0.00215064   -0.00754564    0.04028437
     atom    8 type  2   force =    -0.00215064    0.00754564   -0.04028437
     atom    9 type  2   force =     0.01828193    0.00388102   -0.01634323
     The non-local contrib.  to forces
     atom    1 type  1   force =     0.02037105    0.01615637   -0.04073165
     atom    2 type  1   force =    -0.02777915    0.01744280   -0.00130429
     atom    3 type  1   force =     0.00000000    0.00000000    0.00000000
     atom    4 type  1   force =     0.02777915   -0.01744280    0.00130429
     atom    5 type  1   force =    -0.02037105   -0.01615637    0.04073165
     atom    6 type  2   force =    -0.07002031   -0.19140414    0.00945073
     atom    7 type  2   force =    -0.08192570   -0.06976839    0.12258522
     atom    8 type  2   force =     0.08192570    0.06976839   -0.12258522
     atom    9 type  2   force =     0.07002031    0.19140414   -0.00945073
     The ionic contribution  to forces
     atom    1 type  1   force =    -1.53598118    0.05690589   -0.74791266
     atom    2 type  1   force =    -1.64954057    1.35142647    1.79072781
     atom    3 type  1   force =     0.00000000    0.00000000    0.00000000
     atom    4 type  1   force =     1.64954057   -1.35142647   -1.79072781
     atom    5 type  1   force =     1.53598118   -0.05690589    0.74791266
     atom    6 type  2   force =     0.33725423    1.48187014    0.02906392
     atom    7 type  2   force =     1.21832207    0.39331120   -0.29608508
     atom    8 type  2   force =    -1.21832207   -0.39331120    0.29608508
     atom    9 type  2   force =    -0.33725423   -1.48187014   -0.02906392
     The local contribution  to forces
     atom    1 type  1   force =     1.51705300   -0.07387135    0.79082680
     atom    2 type  1   force =     1.67212099   -1.37553525   -1.78837364
     atom    3 type  1   force =    -0.00001872   -0.00001542   -0.00017272
     atom    4 type  1   force =    -1.67208525    1.37549345    1.78839375
     atom    5 type  1   force =    -1.51709072    0.07391527   -0.79060960
     atom    6 type  2   force =    -0.29019409   -1.31111163   -0.01836090
     atom    7 type  2   force =    -1.13922695   -0.33536786    0.22400508
     atom    8 type  2   force =     1.13926435    0.33538082   -0.22401009
     atom    9 type  2   force =     0.29021783    1.31107506    0.01830615
     The core correction contribution to forces
     atom    1 type  1   force =    -0.00065169   -0.00078156    0.00159153
     atom    2 type  1   force =     0.00171448   -0.00101921   -0.00001441
     atom    3 type  1   force =    -0.00000002    0.00000009   -0.00000035
     atom    4 type  1   force =    -0.00171444    0.00101889    0.00001485
     atom    5 type  1   force =     0.00065148    0.00078184   -0.00159159
     atom    6 type  2   force =     0.00469121    0.01674135   -0.00383977
     atom    7 type  2   force =     0.00499227    0.00428552   -0.01022294
     atom    8 type  2   force =    -0.00499201   -0.00428300    0.01022003
     atom    9 type  2   force =    -0.00468895   -0.01674460    0.00384426
     The Hubbard contrib.    to forces
     atom    1 type  1   force =     0.00000000    0.00000000    0.00000000
     atom    2 type  1   force =     0.00000000    0.00000000    0.00000000
     atom    3 type  1   force =     0.00000000    0.00000000    0.00000000
     atom    4 type  1   force =     0.00000000    0.00000000    0.00000000
     atom    5 type  1   force =     0.00000000    0.00000000    0.00000000
     atom    6 type  2   force =     0.00000000    0.00000000    0.00000000
     atom    7 type  2   force =     0.00000000    0.00000000    0.00000000
     atom    8 type  2   force =     0.00000000    0.00000000    0.00000000
     atom    9 type  2   force =     0.00000000    0.00000000    0.00000000
     The SCF correction term to forces
     atom    1 type  1   force =     0.00000160   -0.00001784   -0.00009640
     atom    2 type  1   force =    -0.00001887    0.00001866    0.00001511
     atom    3 type  1   force =     0.00001539    0.00001527    0.00016184
     atom    4 type  1   force =    -0.00001271    0.00001341   -0.00002272
     atom    5 type  1   force =     0.00002946   -0.00001943   -0.00011714
     atom    6 type  2   force =    -0.00001038    0.00000692    0.00004691
     atom    7 type  2   force =    -0.00000436    0.00000720   -0.00001415
     atom    8 type  2   force =    -0.00001991    0.00000396   -0.00001040
     atom    9 type  2   force =    -0.00001043    0.00000023    0.00003867

     Total force =     0.069132     Total SCF correction =     0.000240

     Computing stress (Cartesian axis) and pressure

          total   stress  (Ry/bohr**3)                   (kbar)     P=       -6.03
  -0.00001342  -0.00001317   0.00001700           -1.97       -1.94        2.50
  -0.00001317  -0.00003421   0.00001836           -1.94       -5.03        2.70
   0.00001700   0.00001836  -0.00007536            2.50        2.70      -11.09

     kinetic stress (kbar)   5863.29    -44.55     55.19
                              -44.55   5861.52     10.68
                               55.19     10.68   5821.60

     local   stress (kbar)  -3344.51   -379.08    189.24
                             -379.08  -3153.59    209.70
                              189.24    209.70  -3741.49

     nonloc. stress (kbar)   1882.01      3.02     -1.10
                                3.02   1882.01      0.28
                               -1.10      0.28   1875.71

     hartree stress (kbar)   1957.50    147.19    -40.77
                              147.19   1880.55    -82.53
                              -40.77    -82.53   2086.03

     exc-cor stress (kbar)   1007.30     -0.14     -0.31
                               -0.14   1007.39     -0.20
                               -0.31     -0.20   1009.06

     corecor stress (kbar)  -2501.72      1.69     -1.80
                                1.69  -2502.18     -0.41
                               -1.80     -0.41  -2500.62

     ewald   stress (kbar)  -4865.84    269.93   -197.95
                              269.93  -4980.74   -134.83
                             -197.95   -134.83  -4561.39

     hubbard stress (kbar)      0.00      0.00      0.00
                                0.00      0.00      0.00
                                0.00      0.00      0.00

     DFT-D   stress (kbar)      0.00      0.00      0.00
                                0.00      0.00      0.00
                                0.00      0.00      0.00

     XDM     stress (kbar)      0.00      0.00      0.00
                                0.00      0.00      0.00
                                0.00      0.00      0.00

     dft-nl  stress (kbar)      0.00      0.00      0.00
                                0.00      0.00      0.00
                                0.00      0.00      0.00

     TS-vdW  stress (kbar)      0.00      0.00      0.00
                                0.00      0.00      0.00
                                0.00      0.00      0.00

[...]

                                0.00      0.00      0.00

     Writing all to output data dir new_calculations/myprefix.save/

     General routines

     Parallel routines

     PAW routines

   This run was terminated on:  19:21:14  20May2023

   JOB DONE.