     Program PWSCF v.7.0 starts on 21May2023 at  2:46:24

     Reading input from espresso_2891.pwi
Warning: card &CELL ignored
Warning: card / ignored

     Current dimensions of program PWSCF are:
     Max number of different atomic species (ntypx) = 10
     Max number of k-points (npk) =  40000
     Max angular momentum in pseudopotentials (lmaxx) =  4

     gamma-point specific algorithms are used
     Message from routine setup:
     using ibrav=0 with symmetry is DISCOURAGED, use correct ibrav instead

     Subspace diagonalization in iterative solution of the eigenvalue problem:
     a serial algorithm will be used

     Using Slab Decomposition

     bravais-lattice index     =            0
     lattice parameter (alat)  =      15.0883  a.u.
     unit-cell volume          =    2644.2228 (a.u.)^3
     number of atoms/cell      =           14
     number of atomic types    =            2
     number of electrons       =       118.00
     number of Kohn-Sham states=           71
     kinetic-energy cutoff     =      30.0000  Ry
     charge density cutoff     =     240.0000  Ry
     scf convergence threshold =      1.0E-06
     mixing beta               =       0.7000
     number of iterations used =            8  plain     mixing
     Exchange-correlation= PBE
                           (   1   4   3   4   0   0   0)

     celldm(1)=  15.088288  celldm(2)=   0.000000  celldm(3)=   0.000000
     celldm(4)=   0.000000  celldm(5)=   0.000000  celldm(6)=   0.000000

     crystal axes: (cart. coord. in units of alat)
               a(1) = (   1.000000   0.000000   0.000000 )
               a(2) = (  -0.333333   0.942809   0.000000 )
               a(3) = (  -0.333333  -0.471405   0.816497 )

     reciprocal axes: (cart. coord. in units 2 pi/alat)
               b(1) = (  1.000000  0.353553  0.612372 )
               b(2) = (  0.000000  1.060660  0.612372 )
               b(3) = (  0.000000  0.000000  1.224745 )

     PseudoPot. # 1 for La read from file:
     /home/pragov/projects/rrg-bengioy-ad/pragov/crystal_structure_design/SSSP/La.GGA-PBE-paw-v1.0.UPF
     MD5 check sum: 436541e95c1ad8901025bd0b0ed42ae2
     Pseudo is Projector augmented-wave + core cor, Zval = 11.0
     Generated using ATOMPAW code
     Shape of augmentation charge: BESSEL
     Using radial grid of 1101 points,  8 beta functions with:
                l(1) =   0
                l(2) =   0
                l(3) =   1
                l(4) =   1
                l(5) =   2
                l(6) =   2
                l(7) =   3
                l(8) =   3
     Q(r) pseudized with 0 coefficients

     PseudoPot. # 2 for As read from file:
     /home/pragov/projects/rrg-bengioy-ad/pragov/crystal_structure_design/SSSP/As.pbe-n-rrkjus_psl.0.2.UPF
     MD5 check sum: 767315de957beeeb34f87d97bf945c8f
     Pseudo is Ultrasoft + core correction, Zval =  5.0
     Generated using "atomic" code by A. Dal Corso  v.5.0.99 svn rev. 10869
     Using radial grid of 1209 points,  4 beta functions with:
                l(1) =   0
                l(2) =   0
                l(3) =   1
                l(4) =   1
     Q(r) pseudized with 0 coefficients

     atomic species   valence    mass     pseudopotential
        La            11.00   138.90547     La( 1.00)
        As             5.00    74.92159     As( 1.00)

      2 Sym. Ops. (no inversion) found ( 1 have fractional translation)

                                    s                        frac. trans.

      isym =  1     identity

 cryst.   s( 1) = (     1          0          0      )
                  (     0          1          0      )
                  (     0          0          1      )

 cart.    s( 1) = (  1.0000000  0.0000000  0.0000000 )
                  (  0.0000000  1.0000000 -0.0000000 )
                  (  0.0000000  0.0000000  1.0000000 )

      isym =  2     inv. 180 deg rotation - cart. axis [0,0,1]

 cryst.   s( 2) = (     1          0          0      )    f =(  0.5000000 )
                  (     0          1          0      )       (  0.0000000 )
                  (    -1         -1         -1      )       (  0.0000000 )

 cart.    s( 2) = (  1.0000000  0.0000000 -0.0000000 )    f =(  0.5000000 )
                  (  0.0000000  1.0000000 -0.0000000 )       (  0.0000000 )
                  (  0.0000000  0.0000000 -1.0000000 )       (  0.0000000 )

   Cartesian axes

     site n.     atom                  positions (alat units)
         1           La  tau(   1) = (   0.7875893  -0.1063187   0.4082483  )
         2           La  tau(   2) = (   0.1209227   0.1710105   0.2961988  )
         3           La  tau(   3) = (   0.4705653   0.4714045   0.0000000  )
         4           La  tau(   4) = (   0.1209227   0.8781173   0.1120495  )
         5           La  tau(   5) = (   0.2875893   0.4067127   0.7044471  )
         6           La  tau(   6) = (  -0.0457440   0.6424150   0.5202977  )
         7           La  tau(   7) = (   0.6209227   0.3650858   0.4082483  )
         8           La  tau(   8) = (  -0.0294347   0.4714045   0.0000000  )
         9           As  tau(   9) = (   0.7500000   0.1767767   0.1020621  )
        10           As  tau(  10) = (  -0.0833333   0.2357023   0.6123724  )
        11           As  tau(  11) = (  -0.2500000   0.7071068   0.2041241  )
        12           As  tau(  12) = (   0.2500000   0.5303301   0.3061862  )
        13           As  tau(  13) = (  -0.0833333  -0.2946278   0.7144345  )
        14           As  tau(  14) = (   0.4166667   0.0589256   0.5103104  )

   Crystallographic axes

     site n.     atom                  positions (cryst. coord.)
         1           La  tau(   1) = (  1.0000000  0.1372320  0.5000000  )
         2           La  tau(   2) = (  0.3627680  0.3627680  0.3627680  )
         3           La  tau(   3) = (  0.6372320  0.5000000  0.0000000  )
         4           La  tau(   4) = (  0.5000000  1.0000000  0.1372320  )
         5           La  tau(   5) = (  0.8627680  0.8627680  0.8627680  )
         6           La  tau(   6) = (  0.5000000  1.0000000  0.6372320  )
         7           La  tau(   7) = (  1.0000000  0.6372320  0.5000000  )
         8           La  tau(   8) = (  0.1372320  0.5000000  0.0000000  )
         9           As  tau(   9) = (  0.8750000  0.2500000  0.1250000  )
        10           As  tau(  10) = (  0.3750000  0.6250000  0.7500000  )
        11           As  tau(  11) = (  0.1250000  0.8750000  0.2500000  )
        12           As  tau(  12) = (  0.6250000  0.7500000  0.3750000  )
        13           As  tau(  13) = (  0.2500000  0.1250000  0.8750000  )
        14           As  tau(  14) = (  0.7500000  0.3750000  0.6250000  )

     number of k points=     1  Methfessel-Paxton smearing, width (Ry)=  0.0010
                       cart. coord. in units 2pi/alat
        k(    1) = (   0.0000000   0.0000000   0.0000000), wk =   2.0000000

                       cryst. coord.
        k(    1) = (   0.0000000   0.0000000   0.0000000), wk =   2.0000000

     Initial potential from superposition of free atoms

     starting charge     117.9303, renormalised to     118.0000
     Starting wfcs are  280 randomized atomic wfcs
     Checking if some PAW data can be deallocated...

     Self-consistent Calculation

     iteration #  1     ecut=    30.00 Ry     beta= 0.70
     Davidson diagonalization with overlap

     ethr =  1.00E-02,  avg # of iterations = 11.0

     total energy              =   -3797.08205430 Ry
     estimated scf accuracy    <       4.13958088 Ry

[...]

     c_bands:  1 eigenvalues not converged
     ethr =  2.97E-04,  avg # of iterations = 20.0

[...]

     c_bands:  1 eigenvalues not converged
     ethr =  2.29E-06,  avg # of iterations = 20.0

[...]

     total energy              =   -3798.77116988 Ry
     estimated scf accuracy    <       0.00000168 Ry

     iteration # 18     ecut=    30.00 Ry     beta= 0.70
     Davidson diagonalization with overlap

     ethr =  1.43E-09,  avg # of iterations =  2.0

     End of self-consistent calculation

          k = 0.0000 0.0000 0.0000 (  3698 PWs)   bands (ev):

   -24.0107 -23.8122 -22.9940 -22.4669 -21.3302 -21.1658 -20.7472 -20.1936
   -11.8479  -9.8091  -9.4221  -8.7650  -8.4499  -7.9909  -7.3947  -7.2953
    -6.9960  -6.5383  -6.1159  -6.0619  -6.0359  -5.8437  -5.7314  -5.4769
    -5.0188  -4.9149  -4.7294  -4.4959  -4.4291  -4.1707  -4.0273  -3.9252
    -2.9699  -2.2385  -1.6801  -0.4881  -0.2188   0.3370   5.7189   6.2170
     6.6877   6.7115   7.0951   7.2049   7.7105   7.7663   7.9029   7.9843
     8.0860   8.1494   8.2470   8.3589   8.4662   9.4077   9.4788   9.7322
     9.8464   9.8978  10.0966  10.1098  10.1977  10.5640  10.6204  10.6894
    10.7926  10.8747  11.3082  11.5435  11.7774  12.0202  12.2417

     occupation numbers
     1.0000   1.0000   1.0000   1.0000   1.0000   1.0000   1.0000   1.0000
     1.0000   1.0000   1.0000   1.0000   1.0000   1.0000   1.0000   1.0000
     1.0000   1.0000   1.0000   1.0000   1.0000   1.0000   1.0000   1.0000
     1.0000   1.0000   1.0000   1.0000   1.0000   1.0000   1.0000   1.0000
     1.0000   1.0000   1.0000   1.0000   1.0000   1.0000   1.0000   1.0000
     1.0000   1.0000   1.0000   1.0000   1.0000   1.0000   1.0000   1.0000
     1.0000   1.0000   1.0000   1.0000   1.0000   1.0000   1.0000   1.0000
     1.0000   1.0000   0.8628   0.1372  -0.0000  -0.0000  -0.0000  -0.0000
    -0.0000  -0.0000  -0.0000  -0.0000  -0.0000  -0.0000  -0.0000

     the Fermi energy is    10.1032 ev

!    total energy              =   -3798.77116984 Ry
     estimated scf accuracy    <       0.00000044 Ry
     smearing contrib. (-TS)   =      -0.00023414 Ry
     internal energy E=F+TS    =   -3798.77093571 Ry

     The total energy is F=E-TS. E is the sum of the following terms:
     one-electron contribution =     -30.73093257 Ry
     hartree contribution      =      77.60261687 Ry
     xc contribution           =    -130.09680355 Ry
     ewald contribution        =    -533.55236469 Ry
     one-center paw contrib.   =   -3181.99345176 Ry
      -> PAW hartree energy AE =     261.71222473 Ry
      -> PAW hartree energy PS =    -262.43003488 Ry
      -> PAW xc energy AE      =   -3236.55536573 Ry
      -> PAW xc energy PS      =      55.27972413 Ry
      -> total E_H with PAW    =      76.88480671 Ry
      -> total E_XC with PAW   =   -3311.37244516 Ry

     convergence has been achieved in  18 iterations

     Forces acting on atoms (cartesian axes, Ry/au):

     atom    1 type  1   force =    -0.01022149    0.00131115   -0.04107566
     atom    2 type  1   force =     0.04473516   -0.12406258   -0.15931056
     atom    3 type  1   force =     0.03279858    0.05962636    0.02377714
     atom    4 type  1   force =    -0.02791589   -0.09137577    0.04154759
     atom    5 type  1   force =    -0.02791589   -0.09137577   -0.04154759
     atom    6 type  1   force =     0.04473516   -0.12406258    0.15931056
     atom    7 type  1   force =    -0.01022149    0.00131115    0.04107566
     atom    8 type  1   force =     0.03279858    0.05962636   -0.02377714
     atom    9 type  2   force =    -0.01176477    0.15128912    0.13567011
     atom   10 type  2   force =    -0.00243556    0.12396162   -0.13189784
     atom   11 type  2   force =    -0.00243556    0.12396162    0.13189784
     atom   12 type  2   force =    -0.02519604   -0.12074991   -0.09961208
     atom   13 type  2   force =    -0.01176477    0.15128912   -0.13567011
     atom   14 type  2   force =    -0.02519604   -0.12074991    0.09961208
     The non-local contrib.  to forces
     atom    1 type  1   force =    -0.00231789    0.03179263   -0.04330893
     atom    2 type  1   force =     0.02316290   -0.09234003   -0.12811040
     atom    3 type  1   force =    -0.05819128    0.01552342    0.05323967
     atom    4 type  1   force =    -0.07180140   -0.11031121    0.02063001
     atom    5 type  1   force =    -0.07180140   -0.11031121   -0.02063001
     atom    6 type  1   force =     0.02316290   -0.09234003    0.12811040
     atom    7 type  1   force =    -0.00231789    0.03179263    0.04330893
     atom    8 type  1   force =    -0.05819128    0.01552342   -0.05323967
     atom    9 type  2   force =     0.06059933    0.02902574    0.01967160
     atom   10 type  2   force =    -0.01498020    0.03099330   -0.02766780
     atom   11 type  2   force =    -0.01498020    0.03099330    0.02766780
     atom   12 type  2   force =     0.02625670   -0.00428107    0.05540510
     atom   13 type  2   force =     0.06059933    0.02902574   -0.01967160
     atom   14 type  2   force =     0.02625670   -0.00428107   -0.05540510
     The ionic contribution  to forces
     atom    1 type  1   force =     0.04781066   -0.13522898    0.00000000
     atom    2 type  1   force =     0.04781067    0.06761449    0.11711174
     atom    3 type  1   force =    -0.14343200   -0.00000000    0.00000000
     atom    4 type  1   force =     0.04781067    0.06761449   -0.11711173
     atom    5 type  1   force =     0.04781067    0.06761449    0.11711173
     atom    6 type  1   force =     0.04781067    0.06761449   -0.11711173
     atom    7 type  1   force =     0.04781067   -0.13522898   -0.00000000
     atom    8 type  1   force =    -0.14343200    0.00000000   -0.00000000
     atom    9 type  2   force =    -0.00000000   -0.00000000   -0.00000000
     atom   10 type  2   force =    -0.00000000   -0.00000000   -0.00000000
     atom   11 type  2   force =     0.00000000   -0.00000000   -0.00000000
     atom   12 type  2   force =    -0.00000000    0.00000000   -0.00000000
     atom   13 type  2   force =    -0.00000000   -0.00000000   -0.00000000
     atom   14 type  2   force =     0.00000000   -0.00000000    0.00000000
     The local contribution  to forces
     atom    1 type  1   force =    -0.12912768    0.18761266    0.11556477
     atom    2 type  1   force =    -0.05247577   -0.14696035   -0.12723298
     atom    3 type  1   force =     0.22167461    0.01664281    0.00999736
     atom    4 type  1   force =    -0.05642414   -0.03760718    0.21887997
     atom    5 type  1   force =     0.03091853   -0.05889529   -0.05680978
     atom    6 type  1   force =    -0.01763046   -0.05057589    0.16970335
     atom    7 type  1   force =    -0.00032869    0.02249945    0.11092096
     atom    8 type  1   force =     0.22892623    0.07213056    0.06855212
     atom    9 type  2   force =    -0.10306074    0.02902586    0.04758018
     atom   10 type  2   force =    -0.03937761    0.26204884   -0.11864916
     atom   11 type  2   force =     0.04740440   -0.09544756    0.06745108
     atom   12 type  2   force =    -0.09141091   -0.25349674   -0.24632049
     atom   13 type  2   force =    -0.04454677    0.19187012   -0.16491212
     atom   14 type  2   force =    -0.01801866    0.03691640    0.02878509
     The core correction contribution to forces
     atom    1 type  1   force =    -0.00009022    0.00009605    0.00003923
     atom    2 type  1   force =    -0.00005172   -0.00001293   -0.00007963
     atom    3 type  1   force =     0.00012860   -0.00006560    0.00007889
     atom    4 type  1   force =     0.00001859    0.00003397    0.00002671
     atom    5 type  1   force =     0.00004234    0.00006482   -0.00002577
     atom    6 type  1   force =    -0.00000549   -0.00001745    0.00004258
     atom    7 type  1   force =     0.00000712   -0.00003843    0.00011054
     atom    8 type  1   force =     0.00014721    0.00003087    0.00001581
     atom    9 type  2   force =    -0.01354168    0.00360711    0.00278071
     atom   10 type  2   force =    -0.00466000    0.03183768   -0.01332967
     atom   11 type  2   force =     0.00383178   -0.01185018    0.00881940
     atom   12 type  2   force =    -0.01233071   -0.02494123   -0.02942401
     atom   13 type  2   force =    -0.00134554    0.02089764   -0.01676175
     atom   14 type  2   force =     0.00128796    0.00941504    0.00574191
     The Hubbard contrib.    to forces
     atom    1 type  1   force =     0.00000000    0.00000000    0.00000000
     atom    2 type  1   force =     0.00000000    0.00000000    0.00000000
     atom    3 type  1   force =     0.00000000    0.00000000    0.00000000
     atom    4 type  1   force =     0.00000000    0.00000000    0.00000000
     atom    5 type  1   force =     0.00000000    0.00000000    0.00000000
     atom    6 type  1   force =     0.00000000    0.00000000    0.00000000
     atom    7 type  1   force =     0.00000000    0.00000000    0.00000000
     atom    8 type  1   force =     0.00000000    0.00000000    0.00000000
     atom    9 type  2   force =     0.00000000    0.00000000    0.00000000
     atom   10 type  2   force =     0.00000000    0.00000000    0.00000000
     atom   11 type  2   force =     0.00000000    0.00000000    0.00000000
     atom   12 type  2   force =     0.00000000    0.00000000    0.00000000
     atom   13 type  2   force =     0.00000000    0.00000000    0.00000000
     atom   14 type  2   force =     0.00000000    0.00000000    0.00000000
     The SCF correction term to forces
     atom    1 type  1   force =    -0.00008800    0.00041966    0.00011761
     atom    2 type  1   force =    -0.00037154   -0.00010985    0.00028375
     atom    3 type  1   force =     0.00016333    0.00014478   -0.00050940
     atom    4 type  1   force =     0.00008484   -0.00041889    0.00009678
     atom    5 type  1   force =    -0.00027194    0.00025729   -0.00021962
     atom    6 type  1   force =     0.00027672   -0.00020480   -0.00015099
     atom    7 type  1   force =     0.00041746   -0.00030156    0.00022355
     atom    8 type  1   force =     0.00002224    0.00011524   -0.00007602
     atom    9 type  2   force =     0.00013586   -0.00006240   -0.00008479
     atom   10 type  2   force =    -0.00008869    0.00010139   -0.00008177
     atom   11 type  2   force =     0.00019794    0.00003929    0.00012901
     atom   12 type  2   force =    -0.00026740    0.00009791    0.00022463
     atom   13 type  2   force =    -0.00015079   -0.00001877   -0.00004704
     atom   14 type  2   force =     0.00005277   -0.00013626   -0.00001252

     Total force =     0.565611     Total SCF correction =     0.001372

     Computing stress (Cartesian axis) and pressure

          total   stress  (Ry/bohr**3)                   (kbar)     P=     1324.20
   0.00269484  -0.00001907  -0.00000000          396.42       -2.81       -0.00
  -0.00001907   0.01148349  -0.00000000           -2.81     1689.28       -0.00
  -0.00000000  -0.00000000   0.01282694           -0.00       -0.00     1886.91

     kinetic stress (kbar)   7241.15     34.65     -0.00
                               34.65   8149.21     -0.00
                               -0.00     -0.00   8370.79

     local   stress (kbar)   -913.13    -61.77     84.08
                              -61.77   -685.51    -26.77
                               84.08    -26.77   -678.23

     nonloc. stress (kbar)   4276.59     11.07     -0.00
                               11.07   4450.31     -0.00
                               -0.00     -0.00   4421.04

     hartree stress (kbar)   1453.88     14.26      4.66
                               14.26   1434.34      5.73
                                4.66      5.73   1429.02

     exc-cor stress (kbar)    311.55      0.43      0.59
                                0.43    311.69      0.22
                                0.59      0.22    310.39

     corecor stress (kbar)  -2079.31     -1.45      3.68
                               -1.45  -2076.46     -1.63
                                3.68     -1.63  -2071.78

     ewald   stress (kbar)  -9894.31     -0.00     -0.00
                               -0.00  -9894.31     -0.00
                               -0.00     -0.00  -9894.31

     hubbard stress (kbar)      0.00      0.00      0.00
                                0.00      0.00      0.00
                                0.00      0.00      0.00

     DFT-D   stress (kbar)      0.00      0.00      0.00
                                0.00      0.00      0.00
                                0.00      0.00      0.00

     XDM     stress (kbar)      0.00      0.00      0.00
                                0.00      0.00      0.00
                                0.00      0.00      0.00

     dft-nl  stress (kbar)      0.00      0.00      0.00
                                0.00      0.00      0.00
                                0.00      0.00      0.00

     TS-vdW  stress (kbar)      0.00      0.00      0.00
                                0.00      0.00      0.00
                                0.00      0.00      0.00

[...]

                                0.00      0.00      0.00

     Writing all to output data dir new_calculations/myprefix.save/

     General routines

     Parallel routines

     PAW routines

   This run was terminated on:   2:48: 3  21May2023

   JOB DONE.