     Program PWSCF v.7.0 starts on 21May2023 at  3:12:20

     Reading input from espresso_19689.pwi
Warning: card &CELL ignored
Warning: card / ignored

     Current dimensions of program PWSCF are:
     Max number of different atomic species (ntypx) = 10
     Max number of k-points (npk) =  40000
     Max angular momentum in pseudopotentials (lmaxx) =  4
     file O.pbe-n-kjpaw_psl.0.1.UPF: wavefunction(s)  2P renormalized

     gamma-point specific algorithms are used

     Subspace diagonalization in iterative solution of the eigenvalue problem:
     a serial algorithm will be used

     Using Slab Decomposition

     bravais-lattice index     =            0
     lattice parameter (alat)  =      10.8424  a.u.
     unit-cell volume          =    1368.3734 (a.u.)^3
     number of atoms/cell      =           16
     number of atomic types    =            3
     number of electrons       =       148.00
     number of Kohn-Sham states=           89
     kinetic-energy cutoff     =      30.0000  Ry
     charge density cutoff     =     240.0000  Ry
     scf convergence threshold =      1.0E-06
     mixing beta               =       0.7000
     number of iterations used =            8  plain     mixing
     Exchange-correlation= SLA  PW   PBX  PBC
                           (   1   4   3   4   0   0   0)

     celldm(1)=  10.842355  celldm(2)=   0.000000  celldm(3)=   0.000000
     celldm(4)=   0.000000  celldm(5)=   0.000000  celldm(6)=   0.000000

     crystal axes: (cart. coord. in units of alat)
               a(1) = (   1.000000   0.000000   0.000000 )
               a(2) = (   0.000116   1.141972   0.000000 )
               a(3) = (   0.350831  -0.000137   0.940109 )

     reciprocal axes: (cart. coord. in units 2 pi/alat)
               b(1) = (  1.000000 -0.000102 -0.373181 )
               b(2) = (  0.000000  0.875678  0.000128 )
               b(3) = (  0.000000  0.000000  1.063706 )

     PseudoPot. # 1 for Ca read from file:
     /home/pragov/projects/rrg-bengioy-ad/pragov/crystal_structure_design/SSSP/Ca_pbe_v1.uspp.F.UPF
     MD5 check sum: 403a4c14b9e4d4dfdc3024c9a3812218
     Pseudo is Ultrasoft + core correction, Zval = 10.0
     Generated by new atomic code, or converted to UPF format
     Using radial grid of  845 points,  6 beta functions with:
                l(1) =   0
                l(2) =   0
                l(3) =   1
                l(4) =   1
                l(5) =   2
                l(6) =   2
     Q(r) pseudized with  8 coefficients,  rinner =    1.500   1.500   1.500
                                                       1.500   1.500

     PseudoPot. # 2 for Mn read from file:
     /home/pragov/projects/rrg-bengioy-ad/pragov/crystal_structure_design/SSSP/mn_pbe_v1.5.uspp.F.UPF
     MD5 check sum: 82ef2b46521d7a7d9e736dc3972e4928
     Pseudo is Ultrasoft + core correction, Zval = 15.0
     Generated by new atomic code, or converted to UPF format
     Using radial grid of  859 points,  6 beta functions with:
                l(1) =   0
                l(2) =   0
                l(3) =   1
                l(4) =   1
                l(5) =   2
                l(6) =   2
     Q(r) pseudized with  8 coefficients,  rinner =    0.950   0.950   0.950
                                                       0.950   0.950

     PseudoPot. # 3 for O  read from file:
     /home/pragov/projects/rrg-bengioy-ad/pragov/crystal_structure_design/SSSP/O.pbe-n-kjpaw_psl.0.1.UPF
     MD5 check sum: 0234752ac141de4415c5fc33072bef88
     Pseudo is Projector augmented-wave + core cor, Zval =  6.0
     Generated using "atomic" code by A. Dal Corso  v.5.0.99 svn rev. 10869
     Shape of augmentation charge: BESSEL
     Using radial grid of 1095 points,  4 beta functions with:
                l(1) =   0
                l(2) =   0
                l(3) =   1
                l(4) =   1
     Q(r) pseudized with 0 coefficients

     atomic species   valence    mass     pseudopotential
        Ca            10.00    40.07800     Ca( 1.00)
        Mn            15.00    54.93804     Mn( 1.00)
        O              6.00    15.99900     O ( 1.00)

     No symmetry found

                                    s                        frac. trans.

      isym =  1     identity

 cryst.   s( 1) = (     1          0          0      )
                  (     0          1          0      )
                  (     0          0          1      )

 cart.    s( 1) = (  1.0000000 -0.0000000  0.0000000 )
                  (  0.0000000  1.0000000 -0.0000000 )
                  (  0.0000000  0.0000000  1.0000000 )

   Cartesian axes

     site n.     atom                  positions (alat units)
         1           Ca  tau(   1) = (   1.1559693   1.0099759   0.4998750  )
         2           Ca  tau(   2) = (   0.4805536   1.0100387   0.0298193  )
         3           Ca  tau(   3) = (   0.9805095   0.7029123   0.0298410  )
         4           Ca  tau(   4) = (   0.6559238   0.7028484   0.4998957  )
         5           Mn  tau(   5) = (   0.4825329   0.4237868   0.0315313  )
         6           Mn  tau(   6) = (   0.6579604   0.1471076   0.5015117  )
         7           Mn  tau(   7) = (   1.1579373   0.4238348   0.5015728  )
         8           Mn  tau(   8) = (   0.9825453   0.1470802   0.0314523  )
         9           O   tau(   9) = (   0.3138944   0.1602193   0.2617904  )
        10           O   tau(  10) = (   0.9893010   0.1601508   0.7318460  )
        11           O   tau(  11) = (   0.4893978   0.4106297   0.7317586  )
        12           O   tau(  12) = (   0.8139739   0.4106971   0.2617048  )
        13           O   tau(  13) = (   0.4929756   1.0091698   0.7344943  )
        14           O   tau(  14) = (   0.8175567   1.0092383   0.2644434  )
        15           O   tau(  15) = (   0.3176237   0.7036490   0.2643042  )
        16           O   tau(  16) = (   0.9930350   0.7035804   0.7343618  )

   Crystallographic axes

     site n.     atom                  positions (cryst. coord.)
         1           Ca  tau(   1) = (  0.9693230  0.8844780  0.5317200  )
         2           Ca  tau(   2) = (  0.4693230  0.8844730  0.0317190  )
         3           Ca  tau(   3) = (  0.9693020  0.6155290  0.0317420  )
         4           Ca  tau(   4) = (  0.4693010  0.6155330  0.5317420  )
         5           Mn  tau(   5) = (  0.4707230  0.3711050  0.0335400  )
         6           Mn  tau(   6) = (  0.4707910  0.1288830  0.5334610  )
         7           Mn  tau(   7) = (  0.9707170  0.3712070  0.5335260  )
         8           Mn  tau(   8) = (  0.9707930  0.1287990  0.0334560  )
         9           O   tau(   9) = (  0.2161830  0.1403340  0.2784680  )
        10           O   tau(  10) = (  0.7161740  0.1403340  0.7784690  )
        11           O   tau(  11) = (  0.2162780  0.3596730  0.7783760  )
        12           O   tau(  12) = (  0.7162690  0.3596720  0.2783770  )
        13           O   tau(  13) = (  0.2187740  0.8838020  0.7812860  )
        14           O   tau(  14) = (  0.7187690  0.8838020  0.2812900  )
        15           O   tau(  15) = (  0.2189190  0.6162040  0.2811420  )
        16           O   tau(  16) = (  0.7189140  0.6162040  0.7811450  )

     number of k points=     1  Methfessel-Paxton smearing, width (Ry)=  0.0010
                       cart. coord. in units 2pi/alat
        k(    1) = (   0.0000000   0.0000000   0.0000000), wk =   2.0000000

                       cryst. coord.
        k(    1) = (   0.0000000   0.0000000   0.0000000), wk =   2.0000000

     Check: negative core charge=   -0.000025

     Initial potential from superposition of free atoms

     starting charge     145.9778, renormalised to     148.0000
     Starting wfcs are  124 randomized atomic wfcs
     Checking if some PAW data can be deallocated...

     Self-consistent Calculation

     iteration #  1     ecut=    30.00 Ry     beta= 0.70
     Davidson diagonalization with overlap

     ethr =  1.00E-02,  avg # of iterations =  2.0

     total energy              =   -1473.81933472 Ry
     estimated scf accuracy    <       6.07858317 Ry

[...]

     total energy              =   -1477.76510665 Ry
     estimated scf accuracy    <       0.00001018 Ry

     iteration # 45     ecut=    30.00 Ry     beta= 0.70
     Davidson diagonalization with overlap

     ethr =  7.89E-10,  avg # of iterations =  1.0

     End of self-consistent calculation

          k = 0.0000 0.0000 0.0000 (  1902 PWs)   bands (ev):

   -68.3626 -68.3606 -68.3603 -68.3603 -37.2281 -37.2280 -37.2131 -37.2011
   -37.1831 -37.1783 -37.1780 -37.1737 -36.9093 -36.8983 -36.8972 -36.8968
   -29.1306 -29.0558 -29.0422 -29.0413 -10.8936 -10.8929 -10.5877 -10.4525
   -10.3743 -10.2494 -10.2485 -10.1402 -10.1385 -10.0735 -10.0536  -9.9611
    -7.9392  -7.4653  -7.3216  -7.3181  -6.9670  -6.9377  -6.6539  -6.6526
     4.7659   4.7701   5.4174   5.4829   5.6986   6.4402   6.4404   6.4463
     6.4497   6.5439   6.5713   6.5911   6.6680   6.6733   6.6737   6.8425
     6.8516   6.9482   7.1924   7.5069   7.5455   8.0338   8.0836   8.1149
     9.6384  10.3102  10.3259  10.5586  10.6418  10.6467  10.7571  10.7709
    10.7732  10.8614  10.8628  10.8751  10.9823  11.1332  11.5021  11.6769
    11.6775  11.7314  12.2145  12.2197  12.2363  14.1232  14.8642  15.2267
    15.2358

     occupation numbers
     1.0000   1.0000   1.0000   1.0000   1.0000   1.0000   1.0000   1.0000
     1.0000   1.0000   1.0000   1.0000   1.0000   1.0000   1.0000   1.0000
     1.0000   1.0000   1.0000   1.0000   1.0000   1.0000   1.0000   1.0000
     1.0000   1.0000   1.0000   1.0000   1.0000   1.0000   1.0000   1.0000
     1.0000   1.0000   1.0000   1.0000   1.0000   1.0000   1.0000   1.0000
     1.0000   1.0000   1.0000   1.0000   1.0000   1.0000   1.0000   1.0000
     1.0000   1.0000   1.0000   1.0000   1.0000   1.0000   1.0000   1.0000
     1.0000   1.0000   1.0000   1.0000   1.0000   1.0000   1.0000   1.0000
     1.0000   1.0000   1.0000   1.0000   1.0000   1.0000   1.0000   1.0000
     1.0000   0.5538   0.4645  -0.0183  -0.0000  -0.0000  -0.0000  -0.0000
    -0.0000  -0.0000  -0.0000  -0.0000  -0.0000  -0.0000  -0.0000  -0.0000
    -0.0000

     the Fermi energy is    10.8622 ev

!    total energy              =   -1477.76510646 Ry
     estimated scf accuracy    <       0.00000028 Ry
     smearing contrib. (-TS)   =      -0.00046869 Ry
     internal energy E=F+TS    =   -1477.76463777 Ry

     The total energy is F=E-TS. E is the sum of the following terms:
     one-electron contribution =    -623.43369338 Ry
     hartree contribution      =     382.94812635 Ry
     xc contribution           =    -212.84418263 Ry
     ewald contribution        =    -948.25224703 Ry
     one-center paw contrib.   =     -76.18264107 Ry
      -> PAW hartree energy AE =     228.89737475 Ry
      -> PAW hartree energy PS =    -228.09118124 Ry
      -> PAW xc energy AE      =    -136.05909581 Ry
      -> PAW xc energy PS      =      59.07026122 Ry
      -> total E_H with PAW    =     383.75431986 Ry
      -> total E_XC with PAW   =    -289.83301722 Ry

     convergence has been achieved in  45 iterations

     Forces acting on atoms (cartesian axes, Ry/au):

     atom    1 type  1   force =    -0.00029274    0.01556735   -0.00029544
     atom    2 type  1   force =    -0.00028900    0.01554766   -0.00029928
     atom    3 type  1   force =    -0.00028373   -0.01555094   -0.00033024
     atom    4 type  1   force =    -0.00027433   -0.01553266   -0.00031917
     atom    5 type  2   force =     0.00405084   -0.04473631    0.00259745
     atom    6 type  2   force =     0.00395659    0.04477415    0.00265779
     atom    7 type  2   force =     0.00406744   -0.04472106    0.00258992
     atom    8 type  2   force =     0.00394829    0.04476532    0.00263863
     atom    9 type  3   force =    -0.00783951    0.04704485   -0.00505223
     atom   10 type  3   force =    -0.00788258    0.04704484   -0.00498591
     atom   11 type  3   force =    -0.00752925   -0.04704651   -0.00513889
     atom   12 type  3   force =    -0.00755790   -0.04704447   -0.00507417
     atom   13 type  3   force =     0.00384659    0.05356347    0.00281221
     atom   14 type  3   force =     0.00388034    0.05356828    0.00274744
     atom   15 type  3   force =     0.00407413   -0.05362313    0.00276797
     atom   16 type  3   force =     0.00412482   -0.05362084    0.00268393
     The non-local contrib.  to forces
     atom    1 type  1   force =    -0.00108603   -0.01721054   -0.00086613
     atom    2 type  1   force =    -0.00108374   -0.01719934   -0.00086792
     atom    3 type  1   force =    -0.00112186    0.01725393   -0.00083029
     atom    4 type  1   force =    -0.00111106    0.01724530   -0.00082612
     atom    5 type  2   force =     0.00668819    0.08601412    0.00429197
     atom    6 type  2   force =     0.00665726   -0.08598655    0.00427035
     atom    7 type  2   force =     0.00668140    0.08615406    0.00426942
     atom    8 type  2   force =     0.00665970   -0.08610013    0.00428076
     atom    9 type  3   force =    -0.05175203    0.39786595   -0.03664745
     atom   10 type  3   force =    -0.05218729    0.39780182   -0.03580003
     atom   11 type  3   force =    -0.05198897   -0.39784533   -0.03637901
     atom   12 type  3   force =    -0.05228870   -0.39781236   -0.03563974
     atom   13 type  3   force =     0.01635780    0.33204608    0.01116243
     atom   14 type  3   force =     0.01675355    0.33201873    0.01063318
     atom   15 type  3   force =     0.01654167   -0.33204694    0.01090319
     atom   16 type  3   force =     0.01701928   -0.33200585    0.01025354
     The ionic contribution  to forces
     atom    1 type  1   force =     0.09779597   -5.50858894    0.06165436
     atom    2 type  1   force =     0.09783049   -5.51310754    0.06164085
     atom    3 type  1   force =     0.09611014    5.50804258    0.06540982
     atom    4 type  1   force =     0.09601739    5.51177349    0.06594395
     atom    5 type  2   force =    -0.37707623    7.62748216   -0.28839169
     atom    6 type  2   force =    -0.38054461   -7.62531951   -0.28404579
     atom    7 type  2   force =    -0.37640192    7.61888640   -0.28670172
     atom    8 type  2   force =    -0.38052943   -7.61823907   -0.28432010
     atom    9 type  3   force =     0.34670705   -5.21962860    0.26000469
     atom   10 type  3   force =     0.35243474   -5.21943730    0.25333327
     atom   11 type  3   force =     0.34568296    5.21968447    0.26316537
     atom   12 type  3   force =     0.35073077    5.21962266    0.25771740
     atom   13 type  3   force =    -0.06247375   -5.54939114   -0.04428657
     atom   14 type  3   force =    -0.06545702   -5.54920861   -0.03944368
     atom   15 type  3   force =    -0.06853635    5.54885886   -0.03383322
     atom   16 type  3   force =    -0.07229020    5.54857008   -0.02784692
     The local contribution  to forces
     atom    1 type  1   force =    -0.09702218    5.54168544   -0.06108513
     atom    2 type  1   force =    -0.09704106    5.54617470   -0.06109588
     atom    3 type  1   force =    -0.09530398   -5.54083340   -0.06493798
     atom    4 type  1   force =    -0.09516389   -5.54453269   -0.06543229
     atom    5 type  2   force =     0.37587301   -7.75628041    0.28773447
     atom    6 type  2   force =     0.37926751    7.75361899    0.28347342
     atom    7 type  2   force =     0.37516308   -7.74774931    0.28612077
     atom    8 type  2   force =     0.37922448    7.74658569    0.28372481
     atom    9 type  3   force =    -0.30363509    4.87424617   -0.22888033
     atom   10 type  3   force =    -0.30855274    4.87412868   -0.22293424
     atom   11 type  3   force =    -0.30202281   -4.87472221   -0.23229000
     atom   12 type  3   force =    -0.30642200   -4.87469859   -0.22763805
     atom   13 type  3   force =     0.05009910    5.27583748    0.03619593
     atom   14 type  3   force =     0.05290655    5.27568579    0.03157526
     atom   15 type  3   force =     0.05622503   -5.27496318    0.02590603
     atom   16 type  3   force =     0.05969255   -5.27472451    0.02033905
     The core correction contribution to forces
     atom    1 type  1   force =     0.00001941   -0.00014594    0.00000633
     atom    2 type  1   force =     0.00001956   -0.00014659    0.00000618
     atom    3 type  1   force =     0.00001796    0.00014652    0.00000794
     atom    4 type  1   force =     0.00001831    0.00014697    0.00000801
     atom    5 type  2   force =    -0.00139993   -0.00223593   -0.00107685
     atom    6 type  2   force =    -0.00140755    0.00224104   -0.00105086
     atom    7 type  2   force =    -0.00139995   -0.00226832   -0.00107481
     atom    8 type  2   force =    -0.00140890    0.00226762   -0.00105061
     atom    9 type  3   force =     0.00062733   -0.00563059    0.00043603
     atom   10 type  3   force =     0.00063145   -0.00562984    0.00042619
     atom   11 type  3   force =     0.00063248    0.00563015    0.00043257
     atom   12 type  3   force =     0.00063493    0.00562980    0.00042400
     atom   13 type  3   force =    -0.00021999   -0.00472324   -0.00014728
     atom   14 type  3   force =    -0.00022510   -0.00472295   -0.00014103
     atom   15 type  3   force =    -0.00021957    0.00472287   -0.00014714
     atom   16 type  3   force =    -0.00022557    0.00472242   -0.00013955
     The Hubbard contrib.    to forces
     atom    1 type  1   force =     0.00000000    0.00000000    0.00000000
     atom    2 type  1   force =     0.00000000    0.00000000    0.00000000
     atom    3 type  1   force =     0.00000000    0.00000000    0.00000000
     atom    4 type  1   force =     0.00000000    0.00000000    0.00000000
     atom    5 type  2   force =     0.00000000    0.00000000    0.00000000
     atom    6 type  2   force =     0.00000000    0.00000000    0.00000000
     atom    7 type  2   force =     0.00000000    0.00000000    0.00000000
     atom    8 type  2   force =     0.00000000    0.00000000    0.00000000
     atom    9 type  3   force =     0.00000000    0.00000000    0.00000000
     atom   10 type  3   force =     0.00000000    0.00000000    0.00000000
     atom   11 type  3   force =     0.00000000    0.00000000    0.00000000
     atom   12 type  3   force =     0.00000000    0.00000000    0.00000000
     atom   13 type  3   force =     0.00000000    0.00000000    0.00000000
     atom   14 type  3   force =     0.00000000    0.00000000    0.00000000
     atom   15 type  3   force =     0.00000000    0.00000000    0.00000000
     atom   16 type  3   force =     0.00000000    0.00000000    0.00000000
     The SCF correction term to forces
     atom    1 type  1   force =     0.00000733   -0.00016041   -0.00001108
     atom    2 type  1   force =    -0.00000701   -0.00016133    0.00001130
     atom    3 type  1   force =     0.00002125   -0.00014833    0.00001408
     atom    4 type  1   force =    -0.00002785   -0.00015347   -0.00001890
     atom    5 type  2   force =    -0.00002696    0.00029598    0.00003335
     atom    6 type  2   force =    -0.00000879    0.00023241    0.00000448
     atom    7 type  2   force =     0.00003208    0.00026835   -0.00002993
     atom    8 type  2   force =     0.00000968    0.00026345   -0.00000241
     atom    9 type  3   force =     0.00022046    0.00020417    0.00002863
     atom   10 type  3   force =    -0.00020151    0.00019372   -0.00001730
     atom   11 type  3   force =     0.00017434    0.00021864   -0.00007403
     atom   12 type  3   force =    -0.00020566    0.00022626    0.00005602
     atom   13 type  3   force =     0.00009067   -0.00019347   -0.00011849
     atom   14 type  3   force =    -0.00009040   -0.00019244    0.00011752
     atom   15 type  3   force =     0.00007059   -0.00018251   -0.00006709
     atom   16 type  3   force =    -0.00006401   -0.00017074    0.00007162

     Total force =     0.172758     Total SCF correction =     0.000968

     Computing stress (Cartesian axis) and pressure

          total   stress  (Ry/bohr**3)                   (kbar)     P=     -519.34
  -0.00317448   0.00000379   0.00055703         -466.98        0.56       81.94
   0.00000379  -0.00384118  -0.00000022            0.56     -565.06       -0.03
   0.00055703  -0.00000022  -0.00357547           81.94       -0.03     -525.97

     kinetic stress (kbar)  27906.12      0.11    276.58
                                0.11  27702.60     -0.01
                              276.58     -0.01  27688.12

     local   stress (kbar) -13733.53      9.14   1899.53
                                9.14  -4933.40    -12.11
                             1899.53    -12.11 -15215.68

     nonloc. stress (kbar)  10407.06      0.39     44.10
                                0.39  10322.33     -0.09
                               44.10     -0.09  10374.96

     hartree stress (kbar)  15040.15     -3.47   -817.32
                               -3.47  10450.03      4.49
                             -817.32      4.49  15678.13

     exc-cor stress (kbar)  -4460.91     -0.01      2.05
                               -0.01  -4461.76      0.02
                                2.05      0.02  -4462.41

     corecor stress (kbar)  -2641.00     -0.01     -1.49
                               -0.01  -2638.45      0.00
                               -1.49      0.00  -2639.81

     ewald   stress (kbar) -32984.86     -5.59  -1321.51
                               -5.59 -37006.40      7.66
                            -1321.51      7.66 -31949.28

     hubbard stress (kbar)      0.00      0.00      0.00
                                0.00      0.00      0.00
                                0.00      0.00      0.00

     DFT-D   stress (kbar)      0.00      0.00      0.00
                                0.00      0.00      0.00
                                0.00      0.00      0.00

     XDM     stress (kbar)      0.00      0.00      0.00
                                0.00      0.00      0.00
                                0.00      0.00      0.00

     dft-nl  stress (kbar)      0.00      0.00      0.00
                                0.00      0.00      0.00
                                0.00      0.00      0.00

     TS-vdW  stress (kbar)      0.00      0.00      0.00
                                0.00      0.00      0.00
                                0.00      0.00      0.00

[...]

                                0.00      0.00      0.00

     Writing all to output data dir new_calculations/myprefix.save/

     General routines

     Parallel routines

     PAW routines

   This run was terminated on:   3:13:13  21May2023

   JOB DONE.