     Program PWSCF v.7.0 starts on 20May2023 at  2:20:39

     Reading input from espresso_111.pwi
Warning: card &CELL ignored
Warning: card / ignored

     Current dimensions of program PWSCF are:
     Max number of different atomic species (ntypx) = 10
     Max number of k-points (npk) =  40000
     Max angular momentum in pseudopotentials (lmaxx) =  4
     file O.pbe-n-kjpaw_psl.0.1.UPF: wavefunction(s)  2P renormalized

     gamma-point specific algorithms are used
     Message from routine setup:
     using ibrav=0 with symmetry is DISCOURAGED, use correct ibrav instead

     Subspace diagonalization in iterative solution of the eigenvalue problem:
     a serial algorithm will be used

     Using Slab Decomposition

     bravais-lattice index     =            0
     lattice parameter (alat)  =      15.5707  a.u.
     unit-cell volume          =    1915.7964 (a.u.)^3
     number of atoms/cell      =           20
     number of atomic types    =            4
     number of electrons       =       172.00
     number of Kohn-Sham states=          103
     kinetic-energy cutoff     =      30.0000  Ry
     charge density cutoff     =     240.0000  Ry
     scf convergence threshold =      1.0E-06
     mixing beta               =       0.7000
     number of iterations used =            8  plain     mixing
     Exchange-correlation= SLA  PW   PBX  PBC
                           (   1   4   3   4   0   0   0)

     celldm(1)=  15.570663  celldm(2)=   0.000000  celldm(3)=   0.000000
     celldm(4)=   0.000000  celldm(5)=   0.000000  celldm(6)=   0.000000

     crystal axes: (cart. coord. in units of alat)
               a(1) = (   1.000000   0.000000   0.000000 )
               a(2) = (   0.000000   0.700136   0.000000 )
               a(3) = (   0.000000   0.005405   0.724846 )

     reciprocal axes: (cart. coord. in units 2 pi/alat)
               b(1) = (  1.000000  0.000000  0.000000 )
               b(2) = (  0.000000  1.428294 -0.010651 )
               b(3) = (  0.000000  0.000000  1.379604 )

     PseudoPot. # 1 for Ca read from file:
     /home/pragov/projects/rrg-bengioy-ad/pragov/crystal_structure_design/SSSP/Ca_pbe_v1.uspp.F.UPF
     MD5 check sum: 403a4c14b9e4d4dfdc3024c9a3812218
     Pseudo is Ultrasoft + core correction, Zval = 10.0
     Generated by new atomic code, or converted to UPF format
     Using radial grid of  845 points,  6 beta functions with:
                l(1) =   0
                l(2) =   0
                l(3) =   1
                l(4) =   1
                l(5) =   2
                l(6) =   2
     Q(r) pseudized with  8 coefficients,  rinner =    1.500   1.500   1.500
                                                       1.500   1.500

     PseudoPot. # 2 for Bi read from file:
     /home/pragov/projects/rrg-bengioy-ad/pragov/crystal_structure_design/SSSP/Bi_pbe_v1.uspp.F.UPF
     MD5 check sum: cceb9f28ec65b6d7ff33140f5b0b1758
     Pseudo is Ultrasoft + core correction, Zval = 15.0
     Generated by new atomic code, or converted to UPF format
     Using radial grid of  899 points,  6 beta functions with:
                l(1) =   0
                l(2) =   0
                l(3) =   1
                l(4) =   1
                l(5) =   2
                l(6) =   2
     Q(r) pseudized with  6 coefficients,  rinner =    1.000   1.000   1.000
                                                       1.000   1.000

     PseudoPot. # 3 for Sb read from file:
     /home/pragov/projects/rrg-bengioy-ad/pragov/crystal_structure_design/SSSP/sb_pbe_v1.4.uspp.F.UPF
     MD5 check sum: 9bc50dfb53373b713f5709b9110fe27f
     Pseudo is Ultrasoft + core correction, Zval = 15.0
     Generated by new atomic code, or converted to UPF format
     Using radial grid of  891 points,  6 beta functions with:
                l(1) =   0
                l(2) =   0
                l(3) =   1
                l(4) =   1
                l(5) =   2
                l(6) =   2
     Q(r) pseudized with  8 coefficients,  rinner =    1.350   1.350   1.350
                                                       1.350   1.350

     PseudoPot. # 4 for O  read from file:
     /home/pragov/projects/rrg-bengioy-ad/pragov/crystal_structure_design/SSSP/O.pbe-n-kjpaw_psl.0.1.UPF
     MD5 check sum: 0234752ac141de4415c5fc33072bef88
     Pseudo is Projector augmented-wave + core cor, Zval =  6.0
     Generated using "atomic" code by A. Dal Corso  v.5.0.99 svn rev. 10869
     Shape of augmentation charge: BESSEL
     Using radial grid of 1095 points,  4 beta functions with:
                l(1) =   0
                l(2) =   0
                l(3) =   1
                l(4) =   1
     Q(r) pseudized with 0 coefficients

     atomic species   valence    mass     pseudopotential
        Ca            10.00    40.07800     Ca( 1.00)
        Bi            15.00   208.98040     Bi( 1.00)
        Sb            15.00   121.76000     Sb( 1.00)
        O              6.00    15.99900     O ( 1.00)

      4 Sym. Ops., with inversion, found ( 2 have fractional translation)

                                    s                        frac. trans.

      isym =  1     identity

 cryst.   s( 1) = (     1          0          0      )
                  (     0          1          0      )
                  (     0          0          1      )

 cart.    s( 1) = (  1.0000000  0.0000000  0.0000000 )
                  (  0.0000000  1.0000000 -0.0000000 )
                  (  0.0000000  0.0000000  1.0000000 )

      isym =  2     180 deg rotation - cart. axis [1,0,0]

 cryst.   s( 2) = (     1          0          0      )    f =( -0.5000000 )
                  (     0         -1          0      )       (  0.0000000 )
                  (     0          0         -1      )       ( -0.0000000 )

 cart.    s( 2) = (  1.0000000  0.0000000  0.0000000 )    f =( -0.5000000 )
                  (  0.0000000 -1.0000000  0.0000000 )       (  0.0000000 )
                  (  0.0000000  0.0000000 -1.0000000 )       ( -0.0000000 )

      isym =  3     inversion

 cryst.   s( 3) = (    -1          0          0      )
                  (     0         -1          0      )
                  (     0          0         -1      )

 cart.    s( 3) = ( -1.0000000  0.0000000  0.0000000 )
                  (  0.0000000 -1.0000000  0.0000000 )
                  (  0.0000000  0.0000000 -1.0000000 )

      isym =  4     inv. 180 deg rotation - cart. axis [1,0,0]

 cryst.   s( 4) = (    -1          0          0      )    f =(  0.5000000 )
                  (     0          1          0      )       (  0.0000000 )
                  (     0          0          1      )       (  0.0000000 )

 cart.    s( 4) = ( -1.0000000  0.0000000  0.0000000 )    f =(  0.5000000 )
                  (  0.0000000  1.0000000 -0.0000000 )       (  0.0000000 )
                  (  0.0000000  0.0000000  1.0000000 )       (  0.0000000 )

   Cartesian axes

     site n.     atom                  positions (alat units)
         1           Ca  tau(   1) = (   0.2500000   0.3442352   0.3213850  )
         2           Ca  tau(   2) = (   0.7500000   0.3613060   0.4034607  )
         3           Ca  tau(   3) = (   0.2500000   0.0077573   0.6876263  )
         4           Ca  tau(   4) = (   0.7500000   0.6977840   0.0372194  )
         5           Bi  tau(   5) = (   0.5000000   0.3500681   0.0000000  )
         6           Bi  tau(   6) = (   0.0000000   0.3500681   0.0000000  )
         7           Sb  tau(   7) = (   0.5000000   0.0027025   0.3624228  )
         8           Sb  tau(   8) = (   0.0000000   0.0027025   0.3624228  )
         9           O   tau(   9) = (   0.5614230   0.5006438   0.2412424  )
        10           O   tau(  10) = (   0.9412330   0.5920030   0.5703912  )
        11           O   tau(  11) = (   0.0614230   0.2048974   0.4836032  )
        12           O   tau(  12) = (   0.4412330   0.1135383   0.1544545  )
        13           O   tau(  13) = (   0.5587670   0.5920030   0.5703912  )
        14           O   tau(  14) = (   0.0587670   0.1135383   0.1544545  )
        15           O   tau(  15) = (   0.7500000   0.0850691   0.3223939  )
        16           O   tau(  16) = (   0.9385770   0.5006438   0.2412424  )
        17           O   tau(  17) = (   0.2500000   0.4451706   0.0539278  )
        18           O   tau(  18) = (   0.4385770   0.2048974   0.4836032  )
        19           O   tau(  19) = (   0.2500000   0.6204721   0.4024517  )
        20           O   tau(  20) = (   0.7500000   0.2603706   0.6709178  )

   Crystallographic axes

     site n.     atom                  positions (cryst. coord.)
         1           Ca  tau(   1) = (  0.2500000  0.4882460  0.4433840  )
         2           Ca  tau(   2) = (  0.7500000  0.5117540  0.5566160  )
         3           Ca  tau(   3) = (  0.2500000  0.0037560  0.9486520  )
         4           Ca  tau(   4) = (  0.7500000  0.9962440  0.0513480  )
         5           Bi  tau(   5) = (  0.5000000  0.5000000  0.0000000  )
         6           Bi  tau(   6) = (  0.0000000  0.5000000  0.0000000  )
         7           Sb  tau(   7) = (  0.5000000 -0.0000000  0.5000000  )
         8           Sb  tau(   8) = (  0.0000000 -0.0000000  0.5000000  )
         9           O   tau(   9) = (  0.5614230  0.7124970  0.3328190  )
        10           O   tau(  10) = (  0.9412330  0.8394790  0.7869140  )
        11           O   tau(  11) = (  0.0614230  0.2875030  0.6671810  )
        12           O   tau(  12) = (  0.4412330  0.1605210  0.2130860  )
        13           O   tau(  13) = (  0.5587670  0.8394790  0.7869140  )
        14           O   tau(  14) = (  0.0587670  0.1605210  0.2130860  )
        15           O   tau(  15) = (  0.7500000  0.1180700  0.4447760  )
        16           O   tau(  16) = (  0.9385770  0.7124970  0.3328190  )
        17           O   tau(  17) = (  0.2500000  0.6352600  0.0743990  )
        18           O   tau(  18) = (  0.4385770  0.2875030  0.6671810  )
        19           O   tau(  19) = (  0.2500000  0.8819300  0.5552240  )
        20           O   tau(  20) = (  0.7500000  0.3647400  0.9256010  )

     number of k points=     1  Methfessel-Paxton smearing, width (Ry)=  0.0010
                       cart. coord. in units 2pi/alat
        k(    1) = (   0.0000000   0.0000000   0.0000000), wk =   2.0000000

                       cryst. coord.
        k(    1) = (   0.0000000   0.0000000   0.0000000), wk =   2.0000000

     Check: negative core charge=   -0.000012

     Initial potential from superposition of free atoms

     starting charge     167.9780, renormalised to     172.0000

     negative rho (up, down):  8.814E-02 0.000E+00
     Starting wfcs are  124 randomized atomic wfcs
     Checking if some PAW data can be deallocated...

     Self-consistent Calculation

     iteration #  1     ecut=    30.00 Ry     beta= 0.70
     Davidson diagonalization with overlap

     ethr =  1.00E-02,  avg # of iterations =  2.0

     negative rho (up, down):  8.037E-02 0.000E+00

     total energy              =   -1538.35369620 Ry
     estimated scf accuracy    <       4.41806859 Ry

[...]

     total energy              =   -1540.50205209 Ry
[...]

   -29.8073 -29.8045 -29.7330 -29.7302 -20.2203 -20.2186 -20.2149 -20.1868
   -20.0995 -20.0951 -20.0886 -20.0831 -20.0278 -20.0260 -13.5036 -13.4494
   -13.4454 -13.4017 -13.4006 -13.3120 -13.3073 -13.2976 -13.2928 -13.2861
   -11.1349 -11.1347 -11.0459 -11.0341 -10.9630 -10.9194 -10.9040 -10.8444
   -10.8329 -10.8182 -10.8004 -10.7915  -9.6523  -8.8282  -8.3515  -8.3324
    -8.2701  -8.1975  -7.7671  -7.6637  -7.5460  -7.3901  -7.3442  -7.0359
    -1.8824  -0.7073   1.2239   2.7941   3.2862   3.5547   3.6164   3.6843
     3.7866   4.7761   5.2929   5.4705   5.7976   5.8270   5.8987   6.0761
     6.3639   6.7495   6.7826   6.8209   6.8910   6.9429   7.0840   7.1031
     7.1370   7.2042   7.3036   7.3675   7.4087   7.4906   7.5675   7.6606
     7.6766   7.7528   7.7558   7.8067   8.5344   9.3561  11.7485  12.3013
    12.4712  12.6024  13.0642  13.2215  13.4273  14.3436  14.6948  14.9916
    15.3446  15.3841  15.4183  15.4716  15.5582  15.5592  15.5766

     occupation numbers
     1.0000   1.0000   1.0000   1.0000   1.0000   1.0000   1.0000   1.0000
     1.0000   1.0000   1.0000   1.0000   1.0000   1.0000   1.0000   1.0000
     1.0000   1.0000   1.0000   1.0000   1.0000   1.0000   1.0000   1.0000
     1.0000   1.0000   1.0000   1.0000   1.0000   1.0000   1.0000   1.0000
     1.0000   1.0000   1.0000   1.0000   1.0000   1.0000   1.0000   1.0000
     1.0000   1.0000   1.0000   1.0000   1.0000   1.0000   1.0000   1.0000
     1.0000   1.0000   1.0000   1.0000   1.0000   1.0000   1.0000   1.0000
     1.0000   1.0000   1.0000   1.0000   1.0000   1.0000   1.0000   1.0000
     1.0000   1.0000   1.0000   1.0000   1.0000   1.0000   1.0000   1.0000
     1.0000   1.0000   1.0000   1.0000   1.0000   1.0000   1.0000   1.0000
     1.0000   1.0000   1.0000   1.0000   1.0000   1.0000  -0.0000  -0.0000
    -0.0000  -0.0000  -0.0000  -0.0000  -0.0000  -0.0000  -0.0000  -0.0000
    -0.0000  -0.0000  -0.0000  -0.0000  -0.0000  -0.0000  -0.0000

     the Fermi energy is    10.0056 ev

!    total energy              =   -1540.50205238 Ry
     estimated scf accuracy    <       0.00000005 Ry
     smearing contrib. (-TS)   =       0.00000000 Ry
     internal energy E=F+TS    =   -1540.50205238 Ry

     The total energy is F=E-TS. E is the sum of the following terms:
     one-electron contribution =    -425.14751938 Ry
     hartree contribution      =     318.51510550 Ry
     xc contribution           =    -355.29481129 Ry
     ewald contribution        =    -964.27004199 Ry
     one-center paw contrib.   =    -114.30478522 Ry
      -> PAW hartree energy AE =     352.03743757 Ry
      -> PAW hartree energy PS =    -350.81063590 Ry
      -> PAW xc energy AE      =    -205.51596712 Ry
      -> PAW xc energy PS      =      89.98438023 Ry
      -> total E_H with PAW    =     319.74190718 Ry
      -> total E_XC with PAW   =    -470.82639818 Ry

     convergence has been achieved in  11 iterations

     negative rho (up, down):  8.464E-02 0.000E+00

     Forces acting on atoms (cartesian axes, Ry/au):

     atom    1 type  1   force =     0.00000000    0.00339014   -0.00062748
     atom    2 type  1   force =    -0.00000000   -0.00339014    0.00062748
     atom    3 type  1   force =     0.00000000    0.00017608   -0.00860271
     atom    4 type  1   force =     0.00000000   -0.00017608    0.00860271
     atom    5 type  2   force =     0.00000000    0.00000000    0.00000000
     atom    6 type  2   force =     0.00000000    0.00000000    0.00000000
     atom    7 type  3   force =     0.00000000    0.00000000   -0.00000000
     atom    8 type  3   force =     0.00000000    0.00000000    0.00000000
     atom    9 type  4   force =     0.00217159   -0.02850940   -0.01780946
     atom   10 type  4   force =    -0.00269575   -0.00444561    0.01938938
     atom   11 type  4   force =     0.00217159    0.02850940    0.01780946
     atom   12 type  4   force =    -0.00269575    0.00444561   -0.01938938
     atom   13 type  4   force =     0.00269575   -0.00444561    0.01938938
     atom   14 type  4   force =     0.00269575    0.00444561   -0.01938938
     atom   15 type  4   force =     0.00000000    0.00528294   -0.01194205
     atom   16 type  4   force =    -0.00217159   -0.02850940   -0.01780946
     atom   17 type  4   force =     0.00000000    0.01376728    0.01351006
     atom   18 type  4   force =    -0.00217159    0.02850940    0.01780946
     atom   19 type  4   force =     0.00000000   -0.00528294    0.01194205
     atom   20 type  4   force =     0.00000000   -0.01376728   -0.01351006
     The non-local contrib.  to forces
     atom    1 type  1   force =     0.00000000   -0.01034407   -0.01517066
     atom    2 type  1   force =     0.00000000    0.01034407    0.01517066
     atom    3 type  1   force =     0.00000000    0.06193134   -0.02508555
     atom    4 type  1   force =     0.00000000   -0.06193134    0.02508555
     atom    5 type  2   force =     0.00000000    0.00000000    0.00000000
     atom    6 type  2   force =     0.00000000    0.00000000    0.00000000
     atom    7 type  3   force =     0.00000000    0.00000000    0.00000000
     atom    8 type  3   force =     0.00000000    0.00000000    0.00000000
     atom    9 type  4   force =    -0.19594325    0.46001240    0.18535573
     atom   10 type  4   force =     0.20942898    0.11797399   -0.48669650
     atom   11 type  4   force =    -0.19594325   -0.46001240   -0.18535573
     atom   12 type  4   force =     0.20942898   -0.11797399    0.48669650
     atom   13 type  4   force =    -0.20942898    0.11797399   -0.48669650
     atom   14 type  4   force =    -0.20942898   -0.11797399    0.48669650
     atom   15 type  4   force =     0.00000000   -0.26611229    0.12334879
     atom   16 type  4   force =     0.19594325    0.46001240    0.18535573
     atom   17 type  4   force =     0.00000000   -0.30628379   -0.19045870
     atom   18 type  4   force =     0.19594325   -0.46001240   -0.18535573
     atom   19 type  4   force =     0.00000000    0.26611229   -0.12334879
     atom   20 type  4   force =     0.00000000    0.30628379    0.19045870
     The ionic contribution  to forces
     atom    1 type  1   force =    -0.00000000    0.57953957    1.36738668
     atom    2 type  1   force =     0.00000000   -0.57953957   -1.36738668
     atom    3 type  1   force =     0.00000000    1.11678239    1.10094934
     atom    4 type  1   force =     0.00000000   -1.11678239   -1.10094934
     atom    5 type  2   force =    -0.00000000   -0.00000000    0.00000000
     atom    6 type  2   force =     0.00000000   -0.00000000    0.00000000
     atom    7 type  3   force =     0.00000000    0.00000000   -0.00000000
     atom    8 type  3   force =    -0.00000000    0.00000000   -0.00000000
     atom    9 type  4   force =     1.64908253   -5.14498409   -2.51351886
     atom   10 type  4   force =    -1.78423840   -1.53447135    4.78241939
     atom   11 type  4   force =     1.64908253    5.14498409    2.51351886
     atom   12 type  4   force =    -1.78423840    1.53447135   -4.78241939
     atom   13 type  4   force =     1.78423840   -1.53447135    4.78241939
     atom   14 type  4   force =     1.78423840    1.53447135   -4.78241939
     atom   15 type  4   force =     0.00000000    3.35238403   -0.88462577
     atom   16 type  4   force =    -1.64908253   -5.14498409   -2.51351886
     atom   17 type  4   force =     0.00000000    1.19557895   -0.13559628
     atom   18 type  4   force =    -1.64908253    5.14498409    2.51351886
     atom   19 type  4   force =     0.00000000   -3.35238403    0.88462577
     atom   20 type  4   force =     0.00000000   -1.19557895    0.13559628
     The local contribution  to forces
     atom    1 type  1   force =     0.00000234   -0.56525475   -1.35288273
     atom    2 type  1   force =     0.00001420    0.56525689    1.35295472
     atom    3 type  1   force =    -0.00000438   -1.17889953   -1.08400272
     atom    4 type  1   force =     0.00000596    1.17899507    1.08392157
     atom    5 type  2   force =     0.00024886   -0.00005249   -0.00005579
     atom    6 type  2   force =    -0.00026611   -0.00006541   -0.00003709
     atom    7 type  3   force =     0.00002063   -0.00001772    0.00003175
     atom    8 type  3   force =    -0.00002496   -0.00002365    0.00001678
     atom    9 type  4   force =    -1.45315663    4.66095608    2.31194633
     atom   10 type  4   force =     1.57421169    1.41307801   -4.28121117
     atom   11 type  4   force =    -1.45319120   -4.66094990   -2.31194461
     atom   12 type  4   force =     1.57423449   -1.41310122    4.28122074
     atom   13 type  4   force =    -1.57421589    1.41307613   -4.28122242
     atom   14 type  4   force =    -1.57423982   -1.41309232    4.28121423
     atom   15 type  4   force =    -0.00000264   -3.08390377    0.75096537
     atom   16 type  4   force =     1.45315834    4.66094634    2.31193720
     atom   17 type  4   force =    -0.00000176   -0.87894421    0.33756829
     atom   18 type  4   force =     1.45318922   -4.66096101   -2.31195279
     atom   19 type  4   force =     0.00000637    3.08392615   -0.75097441
     atom   20 type  4   force =     0.00001682    0.87906145   -0.33748408
     The core correction contribution to forces
     atom    1 type  1   force =     0.00000022   -0.00044391   -0.00008812
     atom    2 type  1   force =     0.00000008    0.00044424    0.00008745
     atom    3 type  1   force =    -0.00000001    0.00034446   -0.00040575
     atom    4 type  1   force =     0.00000004   -0.00034398    0.00040487
     atom    5 type  2   force =    -0.00000041    0.00000081    0.00000002
     atom    6 type  2   force =    -0.00000023    0.00000034    0.00000014
     atom    7 type  3   force =    -0.00000094   -0.00000019   -0.00000009
     atom    8 type  3   force =     0.00000107    0.00000008    0.00000009
     atom    9 type  4   force =     0.00214150   -0.00452579   -0.00154790
     atom   10 type  4   force =    -0.00214099   -0.00105466    0.00484267
     atom   11 type  4   force =     0.00214185    0.00452579    0.00154765
     atom   12 type  4   force =    -0.00214129    0.00105447   -0.00484252
     atom   13 type  4   force =     0.00214094   -0.00105472    0.00484258
     atom   14 type  4   force =     0.00214129    0.00105454   -0.00484250
     atom   15 type  4   force =    -0.00000003    0.00297318   -0.00154826
     atom   16 type  4   force =    -0.00214152   -0.00452582   -0.00154792
     atom   17 type  4   force =     0.00000003    0.00348749    0.00215169
     atom   18 type  4   force =    -0.00214180    0.00452575    0.00154767
     atom   19 type  4   force =     0.00000006   -0.00297308    0.00154807
     atom   20 type  4   force =     0.00000001   -0.00348575   -0.00215024
     The Hubbard contrib.    to forces
     atom    1 type  1   force =     0.00000000    0.00000000    0.00000000
     atom    2 type  1   force =     0.00000000    0.00000000    0.00000000
     atom    3 type  1   force =     0.00000000    0.00000000    0.00000000
     atom    4 type  1   force =     0.00000000    0.00000000    0.00000000
     atom    5 type  2   force =     0.00000000    0.00000000    0.00000000
     atom    6 type  2   force =     0.00000000    0.00000000    0.00000000
     atom    7 type  3   force =     0.00000000    0.00000000    0.00000000
     atom    8 type  3   force =     0.00000000    0.00000000    0.00000000
     atom    9 type  4   force =     0.00000000    0.00000000    0.00000000
     atom   10 type  4   force =     0.00000000    0.00000000    0.00000000
     atom   11 type  4   force =     0.00000000    0.00000000    0.00000000
     atom   12 type  4   force =     0.00000000    0.00000000    0.00000000
     atom   13 type  4   force =     0.00000000    0.00000000    0.00000000
     atom   14 type  4   force =     0.00000000    0.00000000    0.00000000
     atom   15 type  4   force =     0.00000000    0.00000000    0.00000000
     atom   16 type  4   force =     0.00000000    0.00000000    0.00000000
     atom   17 type  4   force =     0.00000000    0.00000000    0.00000000
     atom   18 type  4   force =     0.00000000    0.00000000    0.00000000
     atom   19 type  4   force =     0.00000000    0.00000000    0.00000000
     atom   20 type  4   force =     0.00000000    0.00000000    0.00000000
     The SCF correction term to forces
     atom    1 type  1   force =     0.00000092   -0.00010542    0.00012016
     atom    2 type  1   force =    -0.00001363    0.00010551   -0.00020587
     atom    3 type  1   force =     0.00000449    0.00001486   -0.00006051
     atom    4 type  1   force =    -0.00000641   -0.00011599    0.00013757
     atom    5 type  2   force =    -0.00028447    0.00006202    0.00006697
     atom    6 type  2   force =     0.00030570    0.00007988    0.00005124
     atom    7 type  3   force =    -0.00003458    0.00002299   -0.00003481
     atom    8 type  3   force =     0.00004286    0.00002923   -0.00001727
     atom    9 type  4   force =     0.00003276    0.00003070   -0.00005425
     atom   10 type  4   force =     0.00005902    0.00002525    0.00003929
     atom   11 type  4   force =     0.00009745   -0.00003831    0.00003170
     atom   12 type  4   force =     0.00000371   -0.00001127   -0.00004397
     atom   13 type  4   force =    -0.00005609    0.00002391    0.00004681
     atom   14 type  4   force =     0.00000152   -0.00001730   -0.00003415
     atom   15 type  4   force =     0.00000065   -0.00005557   -0.00008892
     atom   16 type  4   force =    -0.00003438    0.00004206   -0.00004580
     atom   17 type  4   force =     0.00000411   -0.00002086   -0.00011379
     atom   18 type  4   force =    -0.00009335   -0.00002788    0.00004332
     atom   19 type  4   force =    -0.00000490    0.00003836    0.00008466
     atom   20 type  4   force =    -0.00001751    0.00000248    0.00011043

     Total force =     0.086068     Total SCF correction =     0.000638

     Computing stress (Cartesian axis) and pressure

     negative rho (up, down):  8.464E-02 0.000E+00
          total   stress  (Ry/bohr**3)                   (kbar)     P=     -331.01
  -0.00229603   0.00000000   0.00000000         -337.76        0.00        0.00
   0.00000000  -0.00220197   0.00000192            0.00     -323.92        0.28
   0.00000000   0.00000192  -0.00225238            0.00        0.28     -331.34

     kinetic stress (kbar)  19954.48      0.00      0.00
                                0.00  19844.04    -11.55
                                0.00    -11.55  19884.06

     local   stress (kbar)  -3713.05     -0.00      0.00
                               -0.00  -5100.61    545.20
                                0.00    545.20  -5376.88

     nonloc. stress (kbar)   7124.62      0.00      0.00
                                0.00   7122.91      5.51
                                0.00      5.51   7122.72

     hartree stress (kbar)   7929.83      0.00     -0.00
                                0.00   8198.34   -186.01
                               -0.00   -186.01   8329.11

     exc-cor stress (kbar)   5687.17     -0.00     -0.00
                               -0.00   5691.06     -1.02
                               -0.00     -1.02   5691.61

     corecor stress (kbar) -11780.45     -0.00      0.00
                               -0.00 -11779.76     -0.03
                                0.00     -0.03 -11780.42

     ewald   stress (kbar) -25540.37      0.00      0.00
                                0.00 -24299.90   -351.82
                                0.00   -351.82 -24201.54

     hubbard stress (kbar)      0.00      0.00      0.00
                                0.00      0.00      0.00
                                0.00      0.00      0.00

     DFT-D   stress (kbar)      0.00      0.00      0.00
                                0.00      0.00      0.00
                                0.00      0.00      0.00

     XDM     stress (kbar)      0.00      0.00      0.00
                                0.00      0.00      0.00
                                0.00      0.00      0.00

     dft-nl  stress (kbar)      0.00      0.00      0.00
                                0.00      0.00      0.00
                                0.00      0.00      0.00

     TS-vdW  stress (kbar)      0.00      0.00      0.00
                                0.00      0.00      0.00
                                0.00      0.00      0.00

[...]

                                0.00      0.00      0.00

     Writing all to output data dir new_calculations/myprefix.save/

     General routines

     Parallel routines

     PAW routines

   This run was terminated on:   2:21:17  20May2023

   JOB DONE.