     Program PWSCF v.7.0 starts on 20May2023 at  6:19:37

     Reading input from espresso_1190.pwi
Warning: card &CELL ignored
Warning: card / ignored

     Current dimensions of program PWSCF are:
     Max number of different atomic species (ntypx) = 10
     Max number of k-points (npk) =  40000
     Max angular momentum in pseudopotentials (lmaxx) =  4

     gamma-point specific algorithms are used
     Message from routine setup:
     using ibrav=0 with symmetry is DISCOURAGED, use correct ibrav instead

     Subspace diagonalization in iterative solution of the eigenvalue problem:
     a serial algorithm will be used

     Using Slab Decomposition

     bravais-lattice index     =            0
     lattice parameter (alat)  =       8.1766  a.u.
     unit-cell volume          =     744.0129 (a.u.)^3
     number of atoms/cell      =           12
     number of atomic types    =            3
     number of electrons       =        32.00
     number of Kohn-Sham states=           20
     kinetic-energy cutoff     =      30.0000  Ry
     charge density cutoff     =     240.0000  Ry
     scf convergence threshold =      1.0E-06
     mixing beta               =       0.7000
     number of iterations used =            8  plain     mixing
     Exchange-correlation= PBE
                           (   1   4   3   4   0   0   0)

     celldm(1)=   8.176626  celldm(2)=   0.000000  celldm(3)=   0.000000
     celldm(4)=   0.000000  celldm(5)=   0.000000  celldm(6)=   0.000000

     crystal axes: (cart. coord. in units of alat)
               a(1) = (   1.000000   0.000000   0.000000 )
               a(2) = (   0.000000   1.000000   0.000000 )
               a(3) = (   0.000000   0.000000   1.361000 )

     reciprocal axes: (cart. coord. in units 2 pi/alat)
               b(1) = (  1.000000  0.000000  0.000000 )
               b(2) = (  0.000000  1.000000  0.000000 )
               b(3) = (  0.000000  0.000000  0.734754 )

     PseudoPot. # 1 for Na read from file:
     /home/pragov/projects/rrg-bengioy-ad/pragov/crystal_structure_design/SSSP/na_pbe_v1.5.uspp.F.UPF
     MD5 check sum: 44600605ef58000f06b90626533354dc
     Pseudo is Ultrasoft, Zval =  9.0
     Generated by new atomic code, or converted to UPF format
     Using radial grid of  819 points,  5 beta functions with:
                l(1) =   0
                l(2) =   0
                l(3) =   1
                l(4) =   1
                l(5) =   2
     Q(r) pseudized with  8 coefficients,  rinner =    1.250   1.250   1.250
                                                       1.250   1.250

     PseudoPot. # 2 for B  read from file:
     /home/pragov/projects/rrg-bengioy-ad/pragov/crystal_structure_design/SSSP/b_pbe_v1.4.uspp.F.UPF
     MD5 check sum: cc6de2960df11db49a60e589f9ebb39b
     Pseudo is Ultrasoft + core correction, Zval =  3.0
     Generated by new atomic code, or converted to UPF format
     Using radial grid of  781 points,  4 beta functions with:
                l(1) =   0
                l(2) =   0
                l(3) =   1
                l(4) =   1
     Q(r) pseudized with  8 coefficients,  rinner =    1.100   1.100   1.100

     PseudoPot. # 3 for H  read from file:
     /home/pragov/projects/rrg-bengioy-ad/pragov/crystal_structure_design/SSSP/H.pbe-rrkjus_psl.1.0.0.UPF
     MD5 check sum: f52b6d4d1c606e5624b1dc7b2218f220
     Pseudo is Ultrasoft, Zval =  1.0
     Generated using "atomic" code by A. Dal Corso  v.5.1
     Using radial grid of  929 points,  2 beta functions with:
                l(1) =   0
                l(2) =   0
     Q(r) pseudized with 0 coefficients

     atomic species   valence    mass     pseudopotential
        Na             9.00    22.98977     Na( 1.00)
        B              3.00    10.81000     B ( 1.00)
        H              1.00     1.00800     H ( 1.00)

      8 Sym. Ops. (no inversion) found ( 4 have fractional translation)

                                    s                        frac. trans.

      isym =  1     identity

 cryst.   s( 1) = (     1          0          0      )
                  (     0          1          0      )
                  (     0          0          1      )

 cart.    s( 1) = (  1.0000000  0.0000000  0.0000000 )
                  (  0.0000000  1.0000000  0.0000000 )
                  (  0.0000000  0.0000000  1.0000000 )

      isym =  2     180 deg rotation - cart. axis [0,0,1]

[...]

 cryst.   s( 3) = (    -1          0          0      )    f =(  0.5000000 )
                  (     0          1          0      )       (  0.5000000 )
                  (     0          0         -1      )       (  0.5000000 )

 cart.    s( 3) = ( -1.0000000  0.0000000  0.0000000 )    f =(  0.5000000 )
                  (  0.0000000  1.0000000  0.0000000 )       (  0.5000000 )
                  (  0.0000000  0.0000000 -1.0000000 )       (  0.6805000 )

      isym =  4     180 deg rotation - cart. axis [1,0,0]

[...]

      isym =  5     inv. 180 deg rotation - cart. axis [1,1,0]

[...]

 cryst.   s( 6) = (     0          1          0      )    f =(  0.5000000 )
                  (     1          0          0      )       (  0.5000000 )
                  (     0          0          1      )       (  0.5000000 )

 cart.    s( 6) = (  0.0000000  1.0000000  0.0000000 )    f =(  0.5000000 )
                  (  1.0000000  0.0000000  0.0000000 )       (  0.5000000 )
                  (  0.0000000  0.0000000  1.0000000 )       (  0.6805000 )

[...]

      isym =  8     inv.  90 deg rotation - cart. axis [0,0,1]

 cryst.   s( 8) = (     0         -1          0      )
                  (     1          0          0      )
                  (     0          0         -1      )

 cart.    s( 8) = (  0.0000000  1.0000000  0.0000000 )
                  ( -1.0000000  0.0000000  0.0000000 )
                  (  0.0000000  0.0000000 -1.0000000 )

   Cartesian axes

     site n.     atom                  positions (alat units)
         1           Na  tau(   1) = (   0.5000000   0.5000000   0.6805000  )
         2           Na  tau(   2) = (   0.0000000   0.0000000   0.0000000  )
         3           B   tau(   3) = (   0.5000000   0.5000000   0.0000000  )
         4           B   tau(   4) = (   0.0000000   0.0000000   0.6805000  )
         5           H   tau(   5) = (   0.2718780   0.5385920   1.1967695  )
         6           H   tau(   6) = (   0.7718780   0.9614080   0.8447305  )
         7           H   tau(   7) = (   0.7281220   0.4614080   1.1967695  )
         8           H   tau(   8) = (   0.2281220   0.0385920   0.8447305  )
         9           H   tau(   9) = (   0.5385920   0.7281220   0.1642305  )
        10           H   tau(  10) = (   0.9614080   0.2281220   0.5162695  )
        11           H   tau(  11) = (   0.4614080   0.2718780   0.1642305  )
        12           H   tau(  12) = (   0.0385920   0.7718780   0.5162695  )

   Crystallographic axes

     site n.     atom                  positions (cryst. coord.)
         1           Na  tau(   1) = (  0.5000000  0.5000000  0.5000000  )
         2           Na  tau(   2) = (  0.0000000  0.0000000  0.0000000  )
         3           B   tau(   3) = (  0.5000000  0.5000000  0.0000000  )
         4           B   tau(   4) = (  0.0000000  0.0000000  0.5000000  )
         5           H   tau(   5) = (  0.2718780  0.5385920  0.8793310  )
         6           H   tau(   6) = (  0.7718780  0.9614080  0.6206690  )
         7           H   tau(   7) = (  0.7281220  0.4614080  0.8793310  )
         8           H   tau(   8) = (  0.2281220  0.0385920  0.6206690  )
         9           H   tau(   9) = (  0.5385920  0.7281220  0.1206690  )
        10           H   tau(  10) = (  0.9614080  0.2281220  0.3793310  )
        11           H   tau(  11) = (  0.4614080  0.2718780  0.1206690  )
        12           H   tau(  12) = (  0.0385920  0.7718780  0.3793310  )

     number of k points=     1  Methfessel-Paxton smearing, width (Ry)=  0.0010
                       cart. coord. in units 2pi/alat
        k(    1) = (   0.0000000   0.0000000   0.0000000), wk =   2.0000000

                       cryst. coord.
        k(    1) = (   0.0000000   0.0000000   0.0000000), wk =   2.0000000

     Initial potential from superposition of free atoms

     starting charge      31.9868, renormalised to      32.0000
     Starting wfcs are   26 randomized atomic wfcs

     Self-consistent Calculation

     iteration #  1     ecut=    30.00 Ry     beta= 0.70
     Davidson diagonalization with overlap

     ethr =  1.00E-02,  avg # of iterations =  3.0

     total energy              =    -212.56694098 Ry
     estimated scf accuracy    <       1.26570636 Ry

[...]

     total energy              =    -212.84641048 Ry
     estimated scf accuracy    <       0.00000165 Ry

     iteration #  8     ecut=    30.00 Ry     beta= 0.70
     Davidson diagonalization with overlap

     ethr =  5.17E-09,  avg # of iterations =  3.0

     End of self-consistent calculation

          k = 0.0000 0.0000 0.0000 (  1026 PWs)   bands (ev):

   -50.5415 -50.5412 -22.4473 -22.4473 -22.4429 -22.4400 -22.4400 -22.4313
    -7.8039  -6.4793  -3.1387  -1.7359  -1.7359  -1.2757  -0.7859  -0.7859
     5.7513   5.8277   6.0190   7.8717

     occupation numbers
     1.0000   1.0000   1.0000   1.0000   1.0000   1.0000   1.0000   1.0000
     1.0000   1.0000   1.0000   1.0000   1.0000   1.0000   1.0000   1.0000
    -0.0000  -0.0000  -0.0000  -0.0000

     the Fermi energy is     0.6721 ev

!    total energy              =    -212.84641092 Ry
     estimated scf accuracy    <       0.00000001 Ry
     smearing contrib. (-TS)   =       0.00000000 Ry
     internal energy E=F+TS    =    -212.84641092 Ry

     The total energy is F=E-TS. E is the sum of the following terms:
     one-electron contribution =    -167.27658335 Ry
     hartree contribution      =      89.98159270 Ry
     xc contribution           =     -40.65811920 Ry
     ewald contribution        =     -94.89330107 Ry

     convergence has been achieved in   8 iterations

     Forces acting on atoms (cartesian axes, Ry/au):

     atom    1 type  1   force =     0.00000000    0.00000000    0.00000000
     atom    2 type  1   force =     0.00000000    0.00000000    0.00000000
     atom    3 type  2   force =     0.00000000    0.00000000    0.00000000
     atom    4 type  2   force =     0.00000000    0.00000000   -0.00000000
     atom    5 type  3   force =     0.01436414    0.00255713    0.02378501
     atom    6 type  3   force =     0.01436414   -0.00255713   -0.02378501
     atom    7 type  3   force =    -0.01436414   -0.00255713    0.02378501
     atom    8 type  3   force =    -0.01436414    0.00255713   -0.02378501
     atom    9 type  3   force =     0.00255713   -0.01436414   -0.02378501
     atom   10 type  3   force =    -0.00255713   -0.01436414    0.02378501
     atom   11 type  3   force =    -0.00255713    0.01436414   -0.02378501
     atom   12 type  3   force =     0.00255713    0.01436414    0.02378501
     The non-local contrib.  to forces
     atom    1 type  1   force =     0.00000000    0.00000000   -0.00000000
     atom    2 type  1   force =     0.00000000    0.00000000    0.00000000
     atom    3 type  2   force =     0.00000000    0.00000000    0.00000000
     atom    4 type  2   force =     0.00000000    0.00000000   -0.00000000
     atom    5 type  3   force =     0.03606108   -0.00499672    0.02621219
     atom    6 type  3   force =     0.03606108    0.00499672   -0.02621219
     atom    7 type  3   force =    -0.03606108    0.00499672    0.02621219
     atom    8 type  3   force =    -0.03606108   -0.00499672   -0.02621219
     atom    9 type  3   force =    -0.00499672   -0.03606108   -0.02621219
     atom   10 type  3   force =     0.00499672   -0.03606108    0.02621219
     atom   11 type  3   force =     0.00499672    0.03606108   -0.02621219
     atom   12 type  3   force =    -0.00499672    0.03606108    0.02621219
     The ionic contribution  to forces
     atom    1 type  1   force =    -0.00000000   -0.00000000    0.00000000
     atom    2 type  1   force =    -0.00000000   -0.00000000   -0.00000000
     atom    3 type  2   force =    -0.00000000    0.00000000   -0.00000000
     atom    4 type  2   force =     0.00000000    0.00000000   -0.00000000
     atom    5 type  3   force =    -0.74685742    0.05691760   -0.47777431
     atom    6 type  3   force =    -0.74685742   -0.05691760    0.47777431
     atom    7 type  3   force =     0.74685742   -0.05691760   -0.47777431
     atom    8 type  3   force =     0.74685742    0.05691760    0.47777431
     atom    9 type  3   force =     0.05691760    0.74685742    0.47777431
     atom   10 type  3   force =    -0.05691760    0.74685742   -0.47777431
     atom   11 type  3   force =    -0.05691760   -0.74685742    0.47777431
     atom   12 type  3   force =     0.05691760   -0.74685742   -0.47777431
     The local contribution  to forces
     atom    1 type  1   force =    -0.00000101    0.00000093    0.00003284
     atom    2 type  1   force =    -0.00003402   -0.00003123   -0.00007151
     atom    3 type  2   force =    -0.00000136    0.00000486   -0.00001520
     atom    4 type  2   force =     0.00000177    0.00000207   -0.00000224
     atom    5 type  3   force =     0.72517205   -0.04936461    0.47535443
     atom    6 type  3   force =     0.72517542    0.04937009   -0.47535926
     atom    7 type  3   force =    -0.72517192    0.04936618    0.47535330
     atom    8 type  3   force =    -0.72517585   -0.04936974   -0.47535950
     atom    9 type  3   force =    -0.04936583   -0.72516977   -0.47535358
     atom   10 type  3   force =     0.04936468   -0.72517882    0.47535377
     atom   11 type  3   force =     0.04936553    0.72516957   -0.47535239
     atom   12 type  3   force =    -0.04936312    0.72517810    0.47535279
     The core correction contribution to forces
     atom    1 type  1   force =     0.00000000    0.00000000    0.00000000
     atom    2 type  1   force =     0.00000000    0.00000000    0.00000000
     atom    3 type  2   force =     0.00000008    0.00000045   -0.00000041
     atom    4 type  2   force =     0.00000022    0.00000018    0.00000015
     atom    5 type  3   force =     0.00000000    0.00000000    0.00000000
     atom    6 type  3   force =     0.00000000    0.00000000    0.00000000
     atom    7 type  3   force =     0.00000000    0.00000000    0.00000000
     atom    8 type  3   force =     0.00000000    0.00000000    0.00000000
     atom    9 type  3   force =     0.00000000    0.00000000    0.00000000
     atom   10 type  3   force =     0.00000000    0.00000000    0.00000000
     atom   11 type  3   force =     0.00000000    0.00000000    0.00000000
     atom   12 type  3   force =     0.00000000    0.00000000    0.00000000
     The Hubbard contrib.    to forces
     atom    1 type  1   force =     0.00000000    0.00000000    0.00000000
     atom    2 type  1   force =     0.00000000    0.00000000    0.00000000
     atom    3 type  2   force =     0.00000000    0.00000000    0.00000000
     atom    4 type  2   force =     0.00000000    0.00000000    0.00000000
     atom    5 type  3   force =     0.00000000    0.00000000    0.00000000
     atom    6 type  3   force =     0.00000000    0.00000000    0.00000000
     atom    7 type  3   force =     0.00000000    0.00000000    0.00000000
     atom    8 type  3   force =     0.00000000    0.00000000    0.00000000
     atom    9 type  3   force =     0.00000000    0.00000000    0.00000000
     atom   10 type  3   force =     0.00000000    0.00000000    0.00000000
     atom   11 type  3   force =     0.00000000    0.00000000    0.00000000
     atom   12 type  3   force =     0.00000000    0.00000000    0.00000000
     The SCF correction term to forces
     atom    1 type  1   force =     0.00001032   -0.00000266    0.00001109
     atom    2 type  1   force =     0.00000772    0.00001107   -0.00001578
     atom    3 type  2   force =    -0.00000007   -0.00000213   -0.00000146
     atom    4 type  2   force =    -0.00000094    0.00000112    0.00000509
     atom    5 type  3   force =    -0.00001260    0.00000149   -0.00000809
     atom    6 type  3   force =    -0.00001467   -0.00000302    0.00001033
     atom    7 type  3   force =     0.00001216   -0.00000237   -0.00000786
     atom    8 type  3   force =     0.00001484    0.00000347    0.00001066
     atom    9 type  3   force =     0.00000179    0.00001061    0.00000574
     atom   10 type  3   force =    -0.00000337    0.00001622   -0.00000695
     atom   11 type  3   force =    -0.00000174   -0.00001061    0.00000570
     atom   12 type  3   force =     0.00000252   -0.00001594   -0.00000664

     Total force =     0.078922     Total SCF correction =     0.000052

     Computing stress (Cartesian axis) and pressure

          total   stress  (Ry/bohr**3)                   (kbar)     P=        6.13
   0.00023743   0.00000000   0.00000000           34.93        0.00        0.00
   0.00000000   0.00023743   0.00000000            0.00       34.93        0.00
   0.00000000   0.00000000  -0.00034984            0.00        0.00      -51.46

     kinetic stress (kbar)   6818.51      0.00      0.00
                                0.00   6818.51      0.00
                                0.00      0.00   6655.58

     local   stress (kbar)  12189.31      0.01     -0.00
                                0.01  12189.31     -0.00
                               -0.00     -0.00  11088.45

     nonloc. stress (kbar) -15772.04      0.00      0.00
                                0.00 -15772.04      0.00
                                0.00      0.00 -15767.12

     hartree stress (kbar)   5772.23     -0.00     -0.00
                               -0.00   5772.24     -0.00
                               -0.00     -0.00   6246.55

     exc-cor stress (kbar)  -2177.41     -0.00     -0.00
                               -0.00  -2177.41     -0.00
                               -0.00     -0.00  -2176.58

     corecor stress (kbar)   -310.38      0.00     -0.00
                                0.00   -310.38      0.00
                               -0.00      0.00   -306.80

     ewald   stress (kbar)  -6485.31     -0.00     -0.00
                               -0.00  -6485.31      0.00
                               -0.00      0.00  -5791.54

     hubbard stress (kbar)      0.00      0.00      0.00
                                0.00      0.00      0.00
                                0.00      0.00      0.00

     DFT-D   stress (kbar)      0.00      0.00      0.00
                                0.00      0.00      0.00
                                0.00      0.00      0.00

     XDM     stress (kbar)      0.00      0.00      0.00
                                0.00      0.00      0.00
                                0.00      0.00      0.00

     dft-nl  stress (kbar)      0.00      0.00      0.00
                                0.00      0.00      0.00
                                0.00      0.00      0.00

     TS-vdW  stress (kbar)      0.00      0.00      0.00
                                0.00      0.00      0.00
                                0.00      0.00      0.00

[...]

                                0.00      0.00      0.00

     Writing all to output data dir new_calculations/myprefix.save/

     General routines

     Parallel routines

   This run was terminated on:   6:19:52  20May2023

   JOB DONE.