     Program PWSCF v.7.0 starts on 20May2023 at  3:26:47

     Reading input from espresso_11037.pwi
Warning: card &CELL ignored
Warning: card / ignored

     Current dimensions of program PWSCF are:
     Max number of different atomic species (ntypx) = 10
     Max number of k-points (npk) =  40000
     Max angular momentum in pseudopotentials (lmaxx) =  4
     file K.pbe-spn-kjpaw_psl.1.0.0.UPF: wavefunction(s)  3S renormalized

     gamma-point specific algorithms are used
     Message from routine setup:
     using ibrav=0 with symmetry is DISCOURAGED, use correct ibrav instead

     Subspace diagonalization in iterative solution of the eigenvalue problem:
     a serial algorithm will be used

     Using Slab Decomposition

     bravais-lattice index     =            0
     lattice parameter (alat)  =      13.9519  a.u.
     unit-cell volume          =    1920.3565 (a.u.)^3
     number of atoms/cell      =           10
     number of atomic types    =            4
     number of electrons       =        78.00
     number of Kohn-Sham states=           47
     kinetic-energy cutoff     =      30.0000  Ry
     charge density cutoff     =     240.0000  Ry
     scf convergence threshold =      1.0E-06
     mixing beta               =       0.7000
     number of iterations used =            8  plain     mixing
     Exchange-correlation=  SLA  PW   PBX  PBC
                           (   1   4   3   4   0   0   0)

     celldm(1)=  13.951866  celldm(2)=   0.000000  celldm(3)=   0.000000
     celldm(4)=   0.000000  celldm(5)=   0.000000  celldm(6)=   0.000000

     crystal axes: (cart. coord. in units of alat)
               a(1) = (   1.000000   0.000000   0.000000 )
               a(2) = (   0.500000   0.866025   0.000000 )
               a(3) = (   0.500000   0.288675   0.816497 )

     reciprocal axes: (cart. coord. in units 2 pi/alat)
               b(1) = (  1.000000 -0.577350 -0.408248 )
               b(2) = (  0.000000  1.154701 -0.408248 )
               b(3) = (  0.000000  0.000000  1.224745 )

     PseudoPot. # 1 for K  read from file:
     /home/pragov/projects/rrg-bengioy-ad/pragov/crystal_structure_design/SSSP/K.pbe-spn-kjpaw_psl.1.0.0.UPF
     MD5 check sum: 7d58810084cac21f60fbe77ea2b688fd
     Pseudo is Projector augmented-wave + core cor, Zval =  9.0
     Generated using "atomic" code by A. Dal Corso  v.5.1
     Shape of augmentation charge: PSQ
     Using radial grid of 1165 points,  6 beta functions with:
                l(1) =   0
                l(2) =   0
                l(3) =   1
                l(4) =   1
                l(5) =   2
                l(6) =   2
     Q(r) pseudized with 0 coefficients

     PseudoPot. # 2 for Li read from file:
     /home/pragov/projects/rrg-bengioy-ad/pragov/crystal_structure_design/SSSP/li_pbe_v1.4.uspp.F.UPF
     MD5 check sum: e912e257baa3777c20ea3d68f190483c
     Pseudo is Ultrasoft, Zval =  3.0
     Generated by new atomic code, or converted to UPF format
     Using radial grid of  751 points,  5 beta functions with:
                l(1) =   0
                l(2) =   0
                l(3) =   0
                l(4) =   1
                l(5) =   1
     Q(r) pseudized with 10 coefficients,  rinner =    1.150   1.150   1.150

     PseudoPot. # 3 for Sb read from file:
     /home/pragov/projects/rrg-bengioy-ad/pragov/crystal_structure_design/SSSP/sb_pbe_v1.4.uspp.F.UPF
     MD5 check sum: 9bc50dfb53373b713f5709b9110fe27f
     Pseudo is Ultrasoft + core correction, Zval = 15.0
     Generated by new atomic code, or converted to UPF format
     Using radial grid of  891 points,  6 beta functions with:
                l(1) =   0
                l(2) =   0
                l(3) =   1
                l(4) =   1
                l(5) =   2
                l(6) =   2
     Q(r) pseudized with  8 coefficients,  rinner =    1.350   1.350   1.350
                                                       1.350   1.350

     PseudoPot. # 4 for Cl read from file:
     /home/pragov/projects/rrg-bengioy-ad/pragov/crystal_structure_design/SSSP/cl_pbe_v1.4.uspp.F.UPF
     MD5 check sum: fc6f6913ecf08c9257cb748ef0700058
     Pseudo is Ultrasoft + core correction, Zval =  7.0
     Generated by new atomic code, or converted to UPF format
     Using radial grid of  909 points,  6 beta functions with:
                l(1) =   0
                l(2) =   0
                l(3) =   1
                l(4) =   1
                l(5) =   2
                l(6) =   2
     Q(r) pseudized with  8 coefficients,  rinner =    1.300   1.300   1.300
                                                       1.300   1.300

     atomic species   valence    mass     pseudopotential
        K              9.00    39.09830     K ( 1.00)
        Li             3.00     6.94000     Li( 1.00)
        Sb            15.00   121.76000     Sb( 1.00)
        Cl             7.00    35.45000     Cl( 1.00)

     12 Sym. Ops., with inversion, found

                                    s                        frac. trans.

      isym =  1     identity

 cryst.   s( 1) = (     1          0          0      )
                  (     0          1          0      )
                  (     0          0          1      )

 cart.    s( 1) = (  1.0000000  0.0000000  0.0000000 )
                  (  0.0000000  1.0000000 -0.0000000 )
                  (  0.0000000  0.0000000  1.0000000 )

      isym =  2     180 deg rotation - cart. axis [1,0,0]

[...]

      isym =  3     120 deg rotation - cryst. axis [0,0,1]

[...]

      isym =  6     180 deg rotation - cryst. axis [1,1,0]

[...]

      isym =  7     inversion

[...]

      isym =  8     inv. 180 deg rotation - cart. axis [1,0,0]

[...]

      isym =  9     inv. 120 deg rotation - cryst. axis [0,0,1]

 cryst.   s( 9) = (     1         -1          0      )
                  (     1          0          0      )
                  (     1          0         -1      )

 cart.    s( 9) = (  0.5000000  0.8660254 -0.0000000 )
                  ( -0.8660254  0.5000000 -0.0000000 )
                  (  0.0000000  0.0000000 -1.0000000 )

[...]

 cryst.   s(10) = (     0          1          0      )
                  (    -1          1          0      )
                  (     0          1         -1      )

 cart.    s(10) = (  0.5000000 -0.8660254  0.0000000 )
                  (  0.8660254  0.5000000 -0.0000000 )
                  (  0.0000000  0.0000000 -1.0000000 )

[...]

      isym = 12     inv. 180 deg rotation - cryst. axis [1,1,0]

 cryst.   s(12) = (     1         -1          0      )
                  (     0         -1          0      )
                  (     0         -1          1      )

 cart.    s(12) = (  0.5000000 -0.8660254  0.0000000 )
                  ( -0.8660254 -0.5000000  0.0000000 )
                  (  0.0000000  0.0000000  1.0000000 )

   Cartesian axes

     site n.     atom                  positions (alat units)
         1           K   tau(   1) = (   1.5000000   0.8660254   0.6123724  )
         2           K   tau(   2) = (   0.5000000   0.2886751   0.2041241  )
         3           Li  tau(   3) = (   1.0000000   0.5773503   0.4082483  )
         4           Sb  tau(   4) = (   0.0000000   0.0000000   0.0000000  )
         5           Cl  tau(   5) = (   1.0000000   0.2931715   0.2073036  )
         6           Cl  tau(   6) = (   0.7538940   0.4352609   0.6091930  )
         7           Cl  tau(   7) = (   1.0000000   0.8615290   0.6091930  )
         8           Cl  tau(   8) = (   0.7538940   0.7194396   0.2073036  )
         9           Cl  tau(   9) = (   1.2461060   0.4352609   0.6091930  )
        10           Cl  tau(  10) = (   1.2461060   0.7194396   0.2073036  )

   Crystallographic axes

     site n.     atom                  positions (cryst. coord.)
         1           K   tau(   1) = (  0.7500000  0.7500000  0.7500000  )
         2           K   tau(   2) = (  0.2500000  0.2500000  0.2500000  )
         3           Li  tau(   3) = (  0.5000000  0.5000000  0.5000000  )
         4           Sb  tau(   4) = (  0.0000000  0.0000000  0.0000000  )
         5           Cl  tau(   5) = (  0.7461060  0.2538940  0.2538940  )
         6           Cl  tau(   6) = (  0.2538940  0.2538940  0.7461060  )
         7           Cl  tau(   7) = (  0.2538940  0.7461060  0.7461060  )
         8           Cl  tau(   8) = (  0.2538940  0.7461060  0.2538940  )
         9           Cl  tau(   9) = (  0.7461060  0.2538940  0.7461060  )
        10           Cl  tau(  10) = (  0.7461060  0.7461060  0.2538940  )

     number of k points=     1  Methfessel-Paxton smearing, width (Ry)=  0.0010
                       cart. coord. in units 2pi/alat
        k(    1) = (   0.0000000   0.0000000   0.0000000), wk =   2.0000000

                       cryst. coord.
        k(    1) = (   0.0000000   0.0000000   0.0000000), wk =   2.0000000

     Check: negative core charge=   -0.000003

     Initial potential from superposition of free atoms

     starting charge      76.5115, renormalised to      78.0000

     negative rho (up, down):  9.295E-02 0.000E+00
     Starting wfcs are   54 randomized atomic wfcs
     Checking if some PAW data can be deallocated...

     Self-consistent Calculation

     iteration #  1     ecut=    30.00 Ry     beta= 0.70
     Davidson diagonalization with overlap

     ethr =  1.00E-02,  avg # of iterations =  7.0

     Threshold (ethr) on eigenvalues was too large:
     Diagonalizing with lowered threshold

     Davidson diagonalization with overlap

[...]

     negative rho (up, down):  9.317E-02 0.000E+00

     total energy              =    -625.85679617 Ry
     estimated scf accuracy    <       0.52800088 Ry

[...]

     total energy              =    -626.06693558 Ry
     estimated scf accuracy    <       0.00000143 Ry

     iteration #  8     ecut=    30.00 Ry     beta= 0.70
     Davidson diagonalization with overlap

     ethr =  1.84E-09,  avg # of iterations =  2.0

[...]

     End of self-consistent calculation

          k = 0.0000 0.0000 0.0000 (  2605 PWs)   bands (ev):

   -42.2960 -26.7193 -26.7185 -26.6404 -26.6404 -26.6404 -26.6393 -26.6393
   -11.7326 -11.0666 -11.0664 -11.0663 -10.7923 -10.7921 -10.1885 -10.1885
   -10.1885 -10.1786 -10.1786 -10.1786  -5.9434  -1.4492  -1.4491  -1.4491
     0.0205   0.0205   0.0206   0.8797   0.8799   1.1763   1.1763   1.1764
     1.2896   1.2896   1.2896   1.4571   1.7828   1.7828   1.7829   5.7444
     5.7444   5.7444   6.7532   8.1089   8.7424   8.7425   9.3359

     occupation numbers
     1.0000   1.0000   1.0000   1.0000   1.0000   1.0000   1.0000   1.0000
     1.0000   1.0000   1.0000   1.0000   1.0000   1.0000   1.0000   1.0000
     1.0000   1.0000   1.0000   1.0000   1.0000   1.0000   1.0000   1.0000
     1.0000   1.0000   1.0000   1.0000   1.0000   1.0000   1.0000   1.0000
     1.0000   1.0000   1.0000   1.0000   1.0000   1.0000   1.0000  -0.0000
    -0.0000  -0.0000  -0.0000  -0.0000  -0.0000  -0.0000  -0.0000

     the Fermi energy is     2.9839 ev

!    total energy              =    -626.06693577 Ry
     estimated scf accuracy    <       0.00000012 Ry
     smearing contrib. (-TS)   =       0.00000000 Ry
     internal energy E=F+TS    =    -626.06693577 Ry

     The total energy is F=E-TS. E is the sum of the following terms:
     one-electron contribution =    -219.83241234 Ry
     hartree contribution      =     137.39283078 Ry
     xc contribution           =    -126.94925372 Ry
     ewald contribution        =    -305.84470366 Ry
     one-center paw contrib.   =    -110.83339682 Ry
      -> PAW hartree energy AE =      75.11967887 Ry
      -> PAW hartree energy PS =     -74.69967306 Ry
      -> PAW xc energy AE      =    -132.40301046 Ry
      -> PAW xc energy PS      =      21.14960782 Ry
      -> total E_H with PAW    =     137.81283659 Ry
      -> total E_XC with PAW   =    -238.20265636 Ry

     convergence has been achieved in   8 iterations

     negative rho (up, down):  8.954E-02 0.000E+00

     Forces acting on atoms (cartesian axes, Ry/au):

     atom    1 type  1   force =     0.00000000    0.00000000    0.00001524
     atom    2 type  1   force =     0.00000000    0.00000000   -0.00001524
     atom    3 type  2   force =     0.00000000    0.00000000    0.00000000
     atom    4 type  3   force =     0.00000000    0.00000000    0.00000000
     atom    5 type  4   force =     0.00000000   -0.01269513   -0.00897923
     atom    6 type  4   force =    -0.01099431   -0.00634757    0.00897923
     atom    7 type  4   force =     0.00000000    0.01269513    0.00897923
     atom    8 type  4   force =    -0.01099431    0.00634757   -0.00897923
     atom    9 type  4   force =     0.01099431   -0.00634757    0.00897923
     atom   10 type  4   force =     0.01099431    0.00634757   -0.00897923
     The non-local contrib.  to forces
     atom    1 type  1   force =     0.00000000    0.00000000   -0.00000608
     atom    2 type  1   force =     0.00000000    0.00000000    0.00000608
     atom    3 type  2   force =    -0.00000000   -0.00000000   -0.00000000
     atom    4 type  3   force =     0.00000000    0.00000000    0.00000000
     atom    5 type  4   force =    -0.00000000   -0.10382407   -0.07342199
     atom    6 type  4   force =    -0.08991428   -0.05191203    0.07342199
     atom    7 type  4   force =    -0.00000000    0.10382407    0.07342199
     atom    8 type  4   force =    -0.08991428    0.05191203   -0.07342199
     atom    9 type  4   force =     0.08991428   -0.05191203    0.07342199
     atom   10 type  4   force =     0.08991428    0.05191203   -0.07342199
     The ionic contribution  to forces
     atom    1 type  1   force =     0.00000000   -0.00000000    0.00000000
     atom    2 type  1   force =    -0.00000000   -0.00000000   -0.00000000
     atom    3 type  2   force =     0.00000000   -0.00000000   -0.00000000
     atom    4 type  3   force =    -0.00000000   -0.00000000   -0.00000000
     atom    5 type  4   force =    -0.00000000    3.80608133    2.69130592
     atom    6 type  4   force =     3.29616312    1.90304067   -2.69130592
     atom    7 type  4   force =     0.00000000   -3.80608133   -2.69130592
     atom    8 type  4   force =     3.29616312   -1.90304067    2.69130592
     atom    9 type  4   force =    -3.29616312    1.90304067   -2.69130592
     atom   10 type  4   force =    -3.29616312   -1.90304067    2.69130592
     The local contribution  to forces
     atom    1 type  1   force =     0.00000709   -0.00002533    0.00002952
     atom    2 type  1   force =    -0.00004749   -0.00003561   -0.00000217
     atom    3 type  2   force =    -0.00000615   -0.00003661   -0.00000802
     atom    4 type  3   force =     0.00010343    0.00086595    0.00003533
     atom    5 type  4   force =     0.00007607   -3.71746528   -2.62865114
     atom    6 type  4   force =    -3.21938773   -1.85860781    2.62861771
     atom    7 type  4   force =    -0.00005542    3.71722616    2.62841373
     atom    8 type  4   force =    -3.21924608    1.85873292   -2.62845578
     atom    9 type  4   force =     3.21936815   -1.85866832    2.62854539
     atom   10 type  4   force =     3.21919986    1.85864412   -2.62845782
     The core correction contribution to forces
     atom    1 type  1   force =    -0.00000053    0.00000038    0.00000089
     atom    2 type  1   force =    -0.00000004   -0.00000006   -0.00000027
     atom    3 type  2   force =     0.00000000    0.00000000    0.00000000
     atom    4 type  3   force =     0.00000178    0.00001717    0.00000014
     atom    5 type  4   force =     0.00000116    0.00268059    0.00189585
     atom    6 type  4   force =     0.00232249    0.00134200   -0.00189642
     atom    7 type  4   force =    -0.00000061   -0.00268674   -0.00190035
     atom    8 type  4   force =     0.00232532   -0.00134162    0.00189940
     atom    9 type  4   force =    -0.00232370    0.00134180   -0.00189814
     atom   10 type  4   force =    -0.00232648   -0.00134285    0.00189949
     The Hubbard contrib.    to forces
     atom    1 type  1   force =     0.00000000    0.00000000    0.00000000
     atom    2 type  1   force =     0.00000000    0.00000000    0.00000000
     atom    3 type  2   force =     0.00000000    0.00000000    0.00000000
     atom    4 type  3   force =     0.00000000    0.00000000    0.00000000
     atom    5 type  4   force =     0.00000000    0.00000000    0.00000000
     atom    6 type  4   force =     0.00000000    0.00000000    0.00000000
     atom    7 type  4   force =     0.00000000    0.00000000    0.00000000
     atom    8 type  4   force =     0.00000000    0.00000000    0.00000000
     atom    9 type  4   force =     0.00000000    0.00000000    0.00000000
     atom   10 type  4   force =     0.00000000    0.00000000    0.00000000
     The SCF correction term to forces
     atom    1 type  1   force =    -0.00003219    0.00004062   -0.00000016
     atom    2 type  1   force =     0.00006150    0.00004363   -0.00000994
     atom    3 type  2   force =     0.00000318    0.00003378    0.00000486
     atom    4 type  3   force =    -0.00012776   -0.00100254   -0.00004809
     atom    5 type  4   force =    -0.00006209   -0.00022586   -0.00014718
     atom    6 type  4   force =    -0.00020845   -0.00021239    0.00016632
     atom    7 type  4   force =     0.00004898    0.00036780    0.00031846
     atom    8 type  4   force =    -0.00030911    0.00008764   -0.00029360
     atom    9 type  4   force =     0.00020866   -0.00015689    0.00022300
     atom   10 type  4   force =     0.00032833    0.00016156   -0.00027841

     Total force =     0.038089     Total SCF correction =     0.001409

     Computing stress (Cartesian axis) and pressure

     negative rho (up, down):  8.954E-02 0.000E+00
          total   stress  (Ry/bohr**3)                   (kbar)     P=       -2.31
  -0.00001569  -0.00000000  -0.00000000           -2.31       -0.00       -0.00
  -0.00000000  -0.00001569   0.00000000           -0.00       -2.31        0.00
   0.00000000   0.00000000  -0.00001569            0.00        0.00       -2.31

     kinetic stress (kbar)   7793.06     -0.00     -0.00
                               -0.00   7793.06     -0.00
                               -0.00     -0.00   7793.06

     local   stress (kbar)  -5009.03     -0.01      0.00
                               -0.01  -5009.03      0.00
                                0.00      0.00  -5009.04

     nonloc. stress (kbar)   3803.83      0.00     -0.00
                                0.00   3803.83     -0.00
                               -0.00     -0.00   3803.83

     hartree stress (kbar)   3508.24      0.01      0.00
                                0.01   3508.23     -0.00
                                0.00     -0.00   3508.24

     exc-cor stress (kbar)   1612.58      0.00      0.00
                                0.00   1612.58      0.00
                                0.00      0.00   1612.58

     corecor stress (kbar)  -3901.45     -0.00      0.00
                               -0.00  -3901.45     -0.00
                                0.00     -0.00  -3901.45

     ewald   stress (kbar)  -7809.54     -0.00     -0.00
                               -0.00  -7809.54     -0.00
                               -0.00     -0.00  -7809.54

     hubbard stress (kbar)      0.00      0.00      0.00
                                0.00      0.00      0.00
                                0.00      0.00      0.00

     DFT-D   stress (kbar)      0.00      0.00      0.00
                                0.00      0.00      0.00
                                0.00      0.00      0.00

     XDM     stress (kbar)      0.00      0.00      0.00
                                0.00      0.00      0.00
                                0.00      0.00      0.00

     dft-nl  stress (kbar)      0.00      0.00      0.00
                                0.00      0.00      0.00
                                0.00      0.00      0.00

     TS-vdW  stress (kbar)      0.00      0.00      0.00
                                0.00      0.00      0.00
                                0.00      0.00      0.00

[...]

                                0.00      0.00      0.00

     Writing all to output data dir new_calculations/myprefix.save/

     General routines

     Parallel routines

     PAW routines

   This run was terminated on:   3:27:17  20May2023

   JOB DONE.