     Program PWSCF v.7.0 starts on 20May2023 at 18:41:11

     Reading input from espresso_4579.pwi
Warning: card &CELL ignored
Warning: card / ignored

     Current dimensions of program PWSCF are:
     Max number of different atomic species (ntypx) = 10
     Max number of k-points (npk) =  40000
     Max angular momentum in pseudopotentials (lmaxx) =  4
     file In.pbe-dn-rrkjus_psl.0.2.2.UPF: wavefunction(s)  5S renormalized

     gamma-point specific algorithms are used

     Subspace diagonalization in iterative solution of the eigenvalue problem:
     a serial algorithm will be used

     Using Slab Decomposition

     bravais-lattice index     =            0
     lattice parameter (alat)  =      10.7139  a.u.
     unit-cell volume          =    1252.0541 (a.u.)^3
     number of atoms/cell      =            5
     number of atomic types    =            3
     number of electrons       =        48.00
     number of Kohn-Sham states=           29
     kinetic-energy cutoff     =      30.0000  Ry
     charge density cutoff     =     240.0000  Ry
     scf convergence threshold =      1.0E-06
     mixing beta               =       0.7000
     number of iterations used =            8  plain     mixing
     Exchange-correlation=  SLA  PW   PBX  PBC
                           (   1   4   3   4   0   0   0)

     celldm(1)=  10.713893  celldm(2)=   0.000000  celldm(3)=   0.000000
     celldm(4)=   0.000000  celldm(5)=   0.000000  celldm(6)=   0.000000

     crystal axes: (cart. coord. in units of alat)
               a(1) = (   1.000000   0.000000   0.000000 )
               a(2) = (   0.021017   0.999779   0.000000 )
               a(3) = (   0.024207   0.023703   1.018303 )

     reciprocal axes: (cart. coord. in units 2 pi/alat)
               b(1) = (  1.000000 -0.021022 -0.023282 )
               b(2) = (  0.000000  1.000221 -0.023282 )
               b(3) = (  0.000000  0.000000  0.982026 )

     PseudoPot. # 1 for In read from file:
     /home/pragov/projects/rrg-bengioy-ad/pragov/crystal_structure_design/SSSP/In.pbe-dn-rrkjus_psl.0.2.2.UPF
     MD5 check sum: 25e7c42c3b55b68f4bf926be2e7201a4
     Pseudo is Ultrasoft + core correction, Zval = 13.0
     Generated using "atomic" code by A. Dal Corso  v.5.0.99 svn rev. 10869
     Using radial grid of 1241 points,  6 beta functions with:
                l(1) =   0
                l(2) =   0
                l(3) =   1
                l(4) =   1
                l(5) =   2
                l(6) =   2
     Q(r) pseudized with 0 coefficients

     PseudoPot. # 2 for Sn read from file:
     /home/pragov/projects/rrg-bengioy-ad/pragov/crystal_structure_design/SSSP/Sn_pbe_v1.uspp.F.UPF
     MD5 check sum: 4cf58ce39ec5d5d420df3dd08604eb00
     Pseudo is Ultrasoft + core correction, Zval = 14.0
     Generated by new atomic code, or converted to UPF format
     Using radial grid of  891 points,  6 beta functions with:
                l(1) =   0
                l(2) =   0
                l(3) =   1
                l(4) =   1
                l(5) =   2
                l(6) =   2
     Q(r) pseudized with  6 coefficients,  rinner =    1.200   1.200   1.200
                                                       1.200   1.200

     PseudoPot. # 3 for Cl read from file:
     /home/pragov/projects/rrg-bengioy-ad/pragov/crystal_structure_design/SSSP/cl_pbe_v1.4.uspp.F.UPF
     MD5 check sum: fc6f6913ecf08c9257cb748ef0700058
     Pseudo is Ultrasoft + core correction, Zval =  7.0
     Generated by new atomic code, or converted to UPF format
     Using radial grid of  909 points,  6 beta functions with:
                l(1) =   0
                l(2) =   0
                l(3) =   1
                l(4) =   1
                l(5) =   2
                l(6) =   2
     Q(r) pseudized with  8 coefficients,  rinner =    1.300   1.300   1.300
                                                       1.300   1.300

     atomic species   valence    mass     pseudopotential
        In            13.00   114.81800     In( 1.00)
        Sn            14.00   118.71000     Sn( 1.00)
        Cl             7.00    35.45000     Cl( 1.00)

     No symmetry found

                                    s                        frac. trans.

      isym =  1     identity

 cryst.   s( 1) = (     1          0          0      )
                  (     0          1          0      )
                  (     0          0          1      )

 cart.    s( 1) = (  1.0000000 -0.0000000  0.0000000 )
                  (  0.0000000  1.0000000 -0.0000000 )
                  (  0.0000000  0.0000000  1.0000000 )

   Cartesian axes

     site n.     atom                  positions (alat units)
         1           In  tau(   1) = (   0.1130271   0.1106761   0.9363950  )
         2           Sn  tau(   2) = (   0.5116003   0.5009587   0.5405551  )
         3           Cl  tau(   3) = (   0.0310795   0.4790542   0.5694891  )
         4           Cl  tau(   4) = (   0.4887871   0.4786200   1.0062434  )
         5           Cl  tau(   5) = (   0.4796016   0.0210044   0.5694891  )

   Crystallographic axes

     site n.     atom                  positions (cryst. coord.)
         1           In  tau(   1) = (  0.0888990  0.0888990  0.9195640  )
         2           Sn  tau(   2) = (  0.4884840  0.4884840  0.5308390  )
         3           Cl  tau(   3) = (  0.0077500  0.4659010  0.5592530  )
         4           Cl  tau(   4) = (  0.4552980  0.4552980  0.9881570  )
         5           Cl  tau(   5) = (  0.4659010  0.0077500  0.5592530  )

     number of k points=     1  Methfessel-Paxton smearing, width (Ry)=  0.0010
                       cart. coord. in units 2pi/alat
        k(    1) = (   0.0000000   0.0000000   0.0000000), wk =   2.0000000

                       cryst. coord.
        k(    1) = (   0.0000000   0.0000000   0.0000000), wk =   2.0000000

     Initial potential from superposition of free atoms

     starting charge      46.9962, renormalised to      48.0000

     negative rho (up, down):  4.677E-02 0.000E+00
     Starting wfcs are   30 randomized atomic wfcs

     Self-consistent Calculation

     iteration #  1     ecut=    30.00 Ry     beta= 0.70
     Davidson diagonalization with overlap

     ethr =  1.00E-02,  avg # of iterations =  2.0

     Threshold (ethr) on eigenvalues was too large:
     Diagonalizing with lowered threshold

     Davidson diagonalization with overlap

[...]

     negative rho (up, down):  4.666E-02 0.000E+00

     total energy              =    -408.38923392 Ry
     estimated scf accuracy    <       0.38974384 Ry

[...]

     total energy              =    -408.53867552 Ry
     estimated scf accuracy    <       0.00000603 Ry

     iteration #  7     ecut=    30.00 Ry     beta= 0.70
     Davidson diagonalization with overlap

     ethr =  1.26E-08,  avg # of iterations =  2.0

[...]

     End of self-consistent calculation

          k = 0.0000 0.0000 0.0000 (  1748 PWs)   bands (ev):

   -18.5438 -18.5348 -18.5157 -18.5150 -18.5110 -12.5845 -12.0905 -12.0542
   -11.5530 -11.5526 -11.5133 -11.4580 -11.4504  -2.8245  -2.4234  -1.9351
    -1.8353  -1.0142  -0.2607  -0.2342   0.0811   0.1012   0.1617   0.7928
     5.9231   6.0235   6.5799   7.6528   7.9148

     occupation numbers
     1.0000   1.0000   1.0000   1.0000   1.0000   1.0000   1.0000   1.0000
     1.0000   1.0000   1.0000   1.0000   1.0000   1.0000   1.0000   1.0000
     1.0000   1.0000   1.0000   1.0000   1.0000   1.0000   1.0000   1.0000
    -0.0000  -0.0000  -0.0000  -0.0000  -0.0000

     the Fermi energy is     1.3682 ev

!    total energy              =    -408.53867680 Ry
     estimated scf accuracy    <       0.00000027 Ry
     smearing contrib. (-TS)   =       0.00000000 Ry
     internal energy E=F+TS    =    -408.53867680 Ry

     The total energy is F=E-TS. E is the sum of the following terms:
     one-electron contribution =    -214.64705697 Ry
     hartree contribution      =     130.60385175 Ry
     xc contribution           =    -123.27351314 Ry
     ewald contribution        =    -201.22195844 Ry

     convergence has been achieved in   7 iterations

     negative rho (up, down):  4.557E-02 0.000E+00

     Forces acting on atoms (cartesian axes, Ry/au):

     atom    1 type  1   force =     0.00137145    0.00138085   -0.00087281
     atom    2 type  2   force =    -0.00725189   -0.00710422    0.00122715
     atom    3 type  3   force =    -0.01591168    0.01047032   -0.01442132
     atom    4 type  3   force =     0.01164089    0.01138575    0.02848390
     atom    5 type  3   force =     0.01015123   -0.01613269   -0.01441691
     The non-local contrib.  to forces
     atom    1 type  1   force =     0.11282265    0.11052333   -0.11880901
     atom    2 type  2   force =    -0.04040996   -0.03956095    0.11913239
     atom    3 type  3   force =    -0.00110881   -0.04623170    0.05840380
     atom    4 type  3   force =    -0.04140836   -0.04052847   -0.00828060
     atom    5 type  3   force =    -0.04624708   -0.00016576    0.05840564
     The ionic contribution  to forces
     atom    1 type  1   force =    -4.88863541   -4.78694867    5.77714161
     atom    2 type  2   force =     3.61263781    3.53749263   -5.45362015
     atom    3 type  3   force =    -2.61903502    2.05821009   -2.28239121
     atom    4 type  3   force =     1.89232122    1.85295973    4.24126095
     atom    5 type  3   force =     2.00271141   -2.66171378   -2.28239121
     The local contribution  to forces
     atom    1 type  1   force =     4.77345275    4.67416022   -5.65493615
     atom    2 type  2   force =    -3.57666530   -3.50230198    5.33416100
     atom    3 type  3   force =     2.60326643   -2.00250216    2.21094933
     atom    4 type  3   force =    -1.84021148   -1.80198141   -4.20370958
     atom    5 type  3   force =    -1.94733411    2.64481736    2.21093364
     The core correction contribution to forces
     atom    1 type  1   force =     0.00351595    0.00344277   -0.00373504
     atom    2 type  2   force =    -0.00227246   -0.00222535    0.00181013
     atom    3 type  3   force =     0.00058761    0.00123990   -0.00164963
     atom    4 type  3   force =     0.00108733    0.00106368   -0.00079124
     atom    5 type  3   force =     0.00125261    0.00056368   -0.00164966
     The Hubbard contrib.    to forces
     atom    1 type  1   force =     0.00000000    0.00000000    0.00000000
     atom    2 type  2   force =     0.00000000    0.00000000    0.00000000
     atom    3 type  3   force =     0.00000000    0.00000000    0.00000000
     atom    4 type  3   force =     0.00000000    0.00000000    0.00000000
     atom    5 type  3   force =     0.00000000    0.00000000    0.00000000
     The SCF correction term to forces
     atom    1 type  1   force =     0.00024294    0.00024192   -0.00074222
     atom    2 type  2   force =    -0.00051455   -0.00046985   -0.00046422
     atom    3 type  3   force =     0.00040555   -0.00020708    0.00005838
     atom    4 type  3   force =    -0.00012039   -0.00008904   -0.00020364
     atom    5 type  3   force =    -0.00020417    0.00040455    0.00007667

     Total force =     0.048245     Total SCF correction =     0.001362

     Computing stress (Cartesian axis) and pressure

     negative rho (up, down):  4.557E-02 0.000E+00
          total   stress  (Ry/bohr**3)                   (kbar)     P=      -38.20
  -0.00026826  -0.00002064  -0.00000340          -39.46       -3.04       -0.50
  -0.00002064  -0.00026738  -0.00000335           -3.04      -39.33       -0.49
  -0.00000340  -0.00000335  -0.00024348           -0.50       -0.49      -35.82

     kinetic stress (kbar)   6462.94    -16.87     12.75
                              -16.87   6463.66     12.49
                               12.75     12.49   6466.88

     local   stress (kbar)  -5556.11   -867.11    905.43
                             -867.11  -5519.65    886.60
                              905.43    886.60  -3992.47

     nonloc. stress (kbar)   3972.39     -0.55     -0.83
                               -0.55   3972.41     -0.81
                               -0.83     -0.81   3974.42

     hartree stress (kbar)   5349.42    344.00   -355.62
                              344.00   5334.96   -348.22
                             -355.62   -348.22   4660.40

     exc-cor stress (kbar)   5457.81      0.73     -0.75
                                0.73   5457.78     -0.73
                               -0.75     -0.73   5457.30

     corecor stress (kbar)  -8144.94      0.17     -0.07
                                0.17  -8144.95     -0.07
                               -0.07     -0.07  -8145.11

     ewald   stress (kbar)  -7580.98    536.59   -561.41
                              536.59  -7603.54   -549.74
                             -561.41   -549.74  -8457.24

     hubbard stress (kbar)      0.00      0.00      0.00
                                0.00      0.00      0.00
                                0.00      0.00      0.00

     DFT-D   stress (kbar)      0.00      0.00      0.00
                                0.00      0.00      0.00
                                0.00      0.00      0.00

     XDM     stress (kbar)      0.00      0.00      0.00
                                0.00      0.00      0.00
                                0.00      0.00      0.00

     dft-nl  stress (kbar)      0.00      0.00      0.00
                                0.00      0.00      0.00
                                0.00      0.00      0.00

     TS-vdW  stress (kbar)      0.00      0.00      0.00
                                0.00      0.00      0.00
                                0.00      0.00      0.00

[...]

                                0.00      0.00      0.00

     Writing all to output data dir new_calculations/myprefix.save/

     General routines

     Parallel routines

   This run was terminated on:  18:41:34  20May2023

   JOB DONE.