     Program PWSCF v.7.0 starts on 20May2023 at  9:39: 7

     Reading input from espresso_16223.pwi
Warning: card &CELL ignored
Warning: card / ignored

     Current dimensions of program PWSCF are:
     Max number of different atomic species (ntypx) = 10
     Max number of k-points (npk) =  40000
     Max angular momentum in pseudopotentials (lmaxx) =  4

     gamma-point specific algorithms are used
     Message from routine setup:
     using ibrav=0 with symmetry is DISCOURAGED, use correct ibrav instead

     Subspace diagonalization in iterative solution of the eigenvalue problem:
     a serial algorithm will be used

     Using Slab Decomposition

     bravais-lattice index     =            0
     lattice parameter (alat)  =       6.7127  a.u.
     unit-cell volume          =    2402.1796 (a.u.)^3
     number of atoms/cell      =            9
     number of atomic types    =            3
     number of electrons       =        78.00
     number of Kohn-Sham states=           47
     kinetic-energy cutoff     =      30.0000  Ry
     charge density cutoff     =     240.0000  Ry
     scf convergence threshold =      1.0E-06
     mixing beta               =       0.7000
     number of iterations used =            8  plain     mixing
     Exchange-correlation= SLA  PW   PBE  PBE
                           (   1   4   3   4   0   0   0)

     celldm(1)=   6.712748  celldm(2)=   0.000000  celldm(3)=   0.000000
     celldm(4)=   0.000000  celldm(5)=   0.000000  celldm(6)=   0.000000

     crystal axes: (cart. coord. in units of alat)
               a(1) = (   1.000000   0.000000   0.000000 )
               a(2) = (  -0.500000   0.866026   0.000000 )
               a(3) = (   0.000000   0.000000   9.170093 )

     reciprocal axes: (cart. coord. in units 2 pi/alat)
               b(1) = (  1.000000  0.577350  0.000000 )
               b(2) = (  0.000000  1.154700  0.000000 )
               b(3) = (  0.000000  0.000000  0.109050 )

     PseudoPot. # 1 for Te read from file:
     /home/pragov/projects/rrg-bengioy-ad/pragov/crystal_structure_design/SSSP/Te_pbe_v1.uspp.F.UPF
     MD5 check sum: c319670d6894cc26e93307826a071b75
     Pseudo is Ultrasoft + core correction, Zval =  6.0
     Generated by new atomic code, or converted to UPF format
     Using radial grid of  891 points,  5 beta functions with:
                l(1) =   0
                l(2) =   0
                l(3) =   1
                l(4) =   1
                l(5) =   2
     Q(r) pseudized with  6 coefficients,  rinner =    1.800   1.800   1.800
                                                       1.800   1.800

     PseudoPot. # 2 for Mo read from file:
     /home/pragov/projects/rrg-bengioy-ad/pragov/crystal_structure_design/SSSP/Mo_ONCV_PBE-1.0.oncvpsp.upf
     MD5 check sum: 1b5d28e075c9ccadda658a603575cd1f
     Pseudo is Norm-conserving, Zval = 14.0
     Generated using ONCVPSP code by D. R. Hamann
     Using radial grid of 1526 points,  6 beta functions with:
                l(1) =   0
                l(2) =   0
                l(3) =   1
                l(4) =   1
                l(5) =   2
                l(6) =   2

     PseudoPot. # 3 for W  read from file:
     /home/pragov/projects/rrg-bengioy-ad/pragov/crystal_structure_design/SSSP/W_pbe_v1.2.uspp.F.UPF
     MD5 check sum: 9c083fa34c2a2ea0f02f1f893e16e1c8
     Pseudo is Ultrasoft + core correction, Zval = 14.0
     Generated by new atomic code, or converted to UPF format
     Using radial grid of  923 points,  8 beta functions with:
                l(1) =   0
                l(2) =   0
                l(3) =   0
                l(4) =   1
                l(5) =   1
                l(6) =   2
                l(7) =   2
                l(8) =   3
     Q(r) pseudized with  6 coefficients,  rinner =    1.350   1.350   1.350
                                                       1.350   1.350   1.350
                                                       1.350

     atomic species   valence    mass     pseudopotential
        Te             6.00   127.60000     Te( 1.00)
        Mo            14.00    95.95000     Mo( 1.00)
        W             14.00   183.84000     W ( 1.00)

      6 Sym. Ops. (no inversion) found

                                    s                        frac. trans.

      isym =  1     identity

 cryst.   s( 1) = (     1          0          0      )
                  (     0          1          0      )
                  (     0          0          1      )

 cart.    s( 1) = (  1.0000000 -0.0000000  0.0000000 )
                  (  0.0000000  1.0000000  0.0000000 )
                  (  0.0000000  0.0000000  1.0000000 )

      isym =  2     120 deg rotation - cryst. axis [0,0,1]

[...]

      isym =  3     120 deg rotation - cryst. axis [0,0,-1]

[...]

      isym =  4     inv. 180 deg rotation - cart. axis [1,0,0]

[...]

      isym =  5     inv. 180 deg rotation - cryst. axis [0,1,0]

[...]

      isym =  6     inv. 180 deg rotation - cryst. axis [1,1,0]

 cryst.   s( 6) = (     0         -1          0      )
                  (    -1          0          0      )
                  (     0          0          1      )

 cart.    s( 6) = (  0.4999998 -0.8660255  0.0000000 )
                  ( -0.8660255 -0.4999998  0.0000000 )
                  (  0.0000000  0.0000000  1.0000000 )

   Cartesian axes

     site n.     atom                  positions (alat units)
         1           Te  tau(   1) = (   0.0000000   0.0000000   3.6925948  )
         2           Te  tau(   2) = (  -0.0000004   0.5773506   0.5499397  )
         3           Te  tau(   3) = (  -0.0000004   0.5773506   4.7917589  )
         4           Te  tau(   4) = (  -0.0000004   0.5773506   1.5714239  )
         5           Te  tau(   5) = (  -0.0000004   0.5773506   5.8143802  )
         6           Te  tau(   6) = (   0.0000000   0.0000000   2.6711198  )
         7           Mo  tau(   7) = (   0.0000000   0.0000000   1.0605029  )
         8           Mo  tau(   8) = (  -0.0000004   0.5773506   3.1818298  )
         9           W   tau(   9) = (   0.0000000   0.0000000   5.3031933  )

   Crystallographic axes

     site n.     atom                  positions (cryst. coord.)
         1           Te  tau(   1) = (  0.0000000  0.0000000  0.4026780  )
         2           Te  tau(   2) = (  0.3333330  0.6666670  0.0599710  )
         3           Te  tau(   3) = (  0.3333330  0.6666670  0.5225420  )
         4           Te  tau(   4) = (  0.3333330  0.6666670  0.1713640  )
         5           Te  tau(   5) = (  0.3333330  0.6666670  0.6340590  )
         6           Te  tau(   6) = (  0.0000000  0.0000000  0.2912860  )
         7           Mo  tau(   7) = (  0.0000000  0.0000000  0.1156480  )
         8           Mo  tau(   8) = (  0.3333330  0.6666670  0.3469790  )
         9           W   tau(   9) = (  0.0000000  0.0000000  0.5783140  )

     number of k points=     1  Methfessel-Paxton smearing, width (Ry)=  0.0010
                       cart. coord. in units 2pi/alat
        k(    1) = (   0.0000000   0.0000000   0.0000000), wk =   2.0000000

                       cryst. coord.
        k(    1) = (   0.0000000   0.0000000   0.0000000), wk =   2.0000000

     Initial potential from superposition of free atoms

     starting charge      77.8964, renormalised to      78.0000

     negative rho (up, down):  6.148E-02 0.000E+00
     Starting wfcs are   57 randomized atomic wfcs

     Self-consistent Calculation

     iteration #  1     ecut=    30.00 Ry     beta= 0.70
     Davidson diagonalization with overlap

     ethr =  1.00E-02,  avg # of iterations =  3.0

     negative rho (up, down):  6.605E-02 0.000E+00

     total energy              =    -528.43794557 Ry
     estimated scf accuracy    <      71.10337689 Ry

[...]

     c_bands:  3 eigenvalues not converged
     ethr =  1.00E-02,  avg # of iterations = 20.0

[...]

     total energy              =    -590.54753765 Ry
     estimated scf accuracy    <       0.00000231 Ry

     iteration # 31     ecut=    30.00 Ry     beta= 0.70
     Davidson diagonalization with overlap

     ethr =  2.96E-09,  avg # of iterations =  4.0

[...]

     End of self-consistent calculation

          k = 0.0000 0.0000 0.0000 (  3309 PWs)   bands (ev):

   -67.1988 -54.2880 -54.2803 -31.5426 -31.5426 -31.4411 -28.4668 -28.4668
   -28.4563 -28.4563 -28.3312 -28.3290  -8.8798  -8.7259  -8.6455  -8.0531
    -7.9625  -7.9018  -1.0373  -0.6484  -0.2326   1.7305   2.3510   2.9714
     3.3828   3.3829   3.4272   3.4272   3.4397   3.4397   4.0893   4.0893
     4.1101   4.1101   4.1278   4.1279   4.5759   4.8923   5.1120   7.2787
     7.2787   7.2979   7.2979   7.4727   7.4727   7.5285   7.5286

     occupation numbers
     1.0000   1.0000   1.0000   1.0000   1.0000   1.0000   1.0000   1.0000
     1.0000   1.0000   1.0000   1.0000   1.0000   1.0000   1.0000   1.0000
     1.0000   1.0000   1.0000   1.0000   1.0000   1.0000   1.0000   1.0000
     1.0000   1.0000   1.0000   1.0000   1.0000   1.0000   1.0000   1.0000
     1.0000   1.0000   1.0000   1.0000   1.0000   1.0000   1.0000  -0.0000
    -0.0000  -0.0000  -0.0000  -0.0000  -0.0000  -0.0000  -0.0000

     the Fermi energy is     5.3209 ev

!    total energy              =    -590.54753754 Ry
     estimated scf accuracy    <       0.00000031 Ry
     smearing contrib. (-TS)   =       0.00000000 Ry
     internal energy E=F+TS    =    -590.54753754 Ry

     The total energy is F=E-TS. E is the sum of the following terms:
     one-electron contribution =   -2527.52788112 Ry
     hartree contribution      =    1280.91018619 Ry
     xc contribution           =    -159.86785436 Ry
     ewald contribution        =     815.93801175 Ry

     convergence has been achieved in  31 iterations

     negative rho (up, down):  5.986E-02 0.000E+00

     Forces acting on atoms (cartesian axes, Ry/au):

     atom    1 type  1   force =     0.00000000    0.00000000   -0.11917646
     atom    2 type  1   force =    -0.00000000   -0.00000000    0.09134124
     atom    3 type  1   force =     0.00000000    0.00000000    0.10385919
     atom    4 type  1   force =     0.00000000    0.00000000   -0.11996587
     atom    5 type  1   force =     0.00000000    0.00000000   -0.07572384
     atom    6 type  1   force =     0.00000000    0.00000000    0.11951315
     atom    7 type  2   force =     0.00000000    0.00000000   -0.00517696
     atom    8 type  2   force =     0.00000000    0.00000000    0.00021150
     atom    9 type  3   force =     0.00000000    0.00000000    0.00511804
     The non-local contrib.  to forces
     atom    1 type  1   force =     0.00000000    0.00000000   -0.20094646
     atom    2 type  1   force =     0.00000000   -0.00000000    0.24814272
     atom    3 type  1   force =     0.00000000    0.00000000    0.15975921
     atom    4 type  1   force =     0.00000000    0.00000000   -0.19728950
     atom    5 type  1   force =     0.00000000   -0.00000000   -0.21221380
     atom    6 type  1   force =     0.00000000    0.00000000    0.20029472
     atom    7 type  2   force =     0.00000000    0.00000000   -0.00256530
     atom    8 type  2   force =     0.00000000   -0.00000000   -0.00015422
     atom    9 type  3   force =     0.00000000    0.00000000    0.00733942
     The ionic contribution  to forces
     atom    1 type  1   force =    -0.00000400    0.00000231   20.12194254
     atom    2 type  1   force =     0.00000397   -0.00000229  -50.85826209
     atom    3 type  1   force =     0.00000398   -0.00000230   10.63713412
     atom    4 type  1   force =     0.00000400   -0.00000231  -10.62564802
     atom    5 type  1   force =     0.00000396   -0.00000228   50.84531225
     atom    6 type  1   force =    -0.00000400    0.00000231  -20.12140815
     atom    7 type  2   force =    -0.00000793    0.00000458  -71.74037238
     atom    8 type  2   force =     0.00000793   -0.00000458    0.00124780
     atom    9 type  3   force =    -0.00000791    0.00000456   71.74005393
     The local contribution  to forces
     atom    1 type  1   force =     0.00000267   -0.00000580  -20.02881366
     atom    2 type  1   force =     0.00000019    0.00002029   50.68529725
     atom    3 type  1   force =     0.00000217    0.00000188  -10.69964832
     atom    4 type  1   force =     0.00000220    0.00001549   10.71383278
     atom    5 type  1   force =    -0.00000719    0.00000766  -50.69732103
     atom    6 type  1   force =    -0.00000056   -0.00000103   20.02911161
     atom    7 type  2   force =     0.00000702    0.00000293   71.73860028
     atom    8 type  2   force =    -0.00000387    0.00000698   -0.00111764
     atom    9 type  3   force =     0.00000510   -0.00000871  -71.74438156
     The core correction contribution to forces
     atom    1 type  1   force =     0.00000004    0.00000032   -0.01152270
     atom    2 type  1   force =    -0.00000028   -0.00000149    0.01677543
     atom    3 type  1   force =    -0.00000054    0.00000009    0.00576561
     atom    4 type  1   force =    -0.00000052   -0.00000124   -0.01113670
     atom    5 type  1   force =     0.00000037   -0.00000093   -0.01155188
     atom    6 type  1   force =     0.00000039   -0.00000009    0.01147179
     atom    7 type  2   force =     0.00000000    0.00000000    0.00000000
     atom    8 type  2   force =     0.00000000    0.00000000    0.00000000
     atom    9 type  3   force =     0.00000025    0.00000024    0.00020510
     The Hubbard contrib.    to forces
     atom    1 type  1   force =     0.00000000    0.00000000    0.00000000
     atom    2 type  1   force =     0.00000000    0.00000000    0.00000000
     atom    3 type  1   force =     0.00000000    0.00000000    0.00000000
     atom    4 type  1   force =     0.00000000    0.00000000    0.00000000
     atom    5 type  1   force =     0.00000000    0.00000000    0.00000000
     atom    6 type  1   force =     0.00000000    0.00000000    0.00000000
     atom    7 type  2   force =     0.00000000    0.00000000    0.00000000
     atom    8 type  2   force =     0.00000000    0.00000000    0.00000000
     atom    9 type  3   force =     0.00000000    0.00000000    0.00000000
     The SCF correction term to forces
     atom    1 type  1   force =    -0.00000001    0.00000017    0.00011964
     atom    2 type  1   force =    -0.00000038   -0.00000187   -0.00065624
     atom    3 type  1   force =     0.00000044   -0.00000008    0.00080439
     atom    4 type  1   force =    -0.00000018   -0.00000077    0.00023139
     atom    5 type  1   force =    -0.00000040    0.00000253    0.00000645
     atom    6 type  1   force =    -0.00000007   -0.00000015   -0.00000099
     atom    7 type  2   force =    -0.00000131   -0.00000230   -0.00088375
     atom    8 type  2   force =    -0.00000187   -0.00000284    0.00019139
     atom    9 type  3   force =     0.00000105    0.00001209    0.00185699

     Total force =     0.260375     Total SCF correction =     0.002326

     Computing stress (Cartesian axis) and pressure

     negative rho (up, down):  5.986E-02 0.000E+00
          total   stress  (Ry/bohr**3)                   (kbar)     P=       76.21
   0.00103932  -0.00000000   0.00000000          152.89       -0.00        0.00
  -0.00000000   0.00103932   0.00000000           -0.00      152.89        0.00
   0.00000000   0.00000000  -0.00052436            0.00        0.00      -77.14

     kinetic stress (kbar)   6657.88     -0.00      0.00
                               -0.00   6657.88      0.00
                                0.00      0.00   6800.71

     local   stress (kbar)-143687.13      0.01      0.00
                                0.01-143687.12     -0.00
                                0.00     -0.00 152103.00

     nonloc. stress (kbar)  -2476.81      0.00      0.00
                                0.00  -2476.81     -0.00
                                0.00     -0.00  -2481.33

     hartree stress (kbar)  74688.99     -0.00     -0.00
                               -0.00  74688.99      0.00
                               -0.00      0.00 -70937.39

     exc-cor stress (kbar)   3764.55     -0.00     -0.00
                               -0.00   3764.55      0.00
                               -0.00      0.00   3772.44

     corecor stress (kbar)  -5628.26      0.00      0.00
                                0.00  -5628.26     -0.00
                                0.00     -0.00  -5633.80

     ewald   stress (kbar)  66833.66     -0.01     -0.00
                               -0.01  66833.66      0.00
                               -0.00      0.00 -83700.77

     hubbard stress (kbar)      0.00      0.00      0.00
                                0.00      0.00      0.00
                                0.00      0.00      0.00

     DFT-D   stress (kbar)      0.00      0.00      0.00
                                0.00      0.00      0.00
                                0.00      0.00      0.00

     XDM     stress (kbar)      0.00      0.00      0.00
                                0.00      0.00      0.00
                                0.00      0.00      0.00

     dft-nl  stress (kbar)      0.00      0.00      0.00
                                0.00      0.00      0.00
                                0.00      0.00      0.00

     TS-vdW  stress (kbar)      0.00      0.00      0.00
                                0.00      0.00      0.00
                                0.00      0.00      0.00

[...]

                                0.00      0.00      0.00

     Writing all to output data dir new_calculations/myprefix.save/

     General routines

     Parallel routines

   This run was terminated on:   9:40: 7  20May2023

   JOB DONE.