     Program PWSCF v.7.0 starts on 20May2023 at  9:43:26

     Reading input from espresso_8338.pwi
Warning: card &CELL ignored
Warning: card / ignored

     Current dimensions of program PWSCF are:
     Max number of different atomic species (ntypx) = 10
     Max number of k-points (npk) =  40000
     Max angular momentum in pseudopotentials (lmaxx) =  4

     gamma-point specific algorithms are used
     Message from routine setup:
     using ibrav=0 with symmetry is DISCOURAGED, use correct ibrav instead

     Subspace diagonalization in iterative solution of the eigenvalue problem:
     a serial algorithm will be used

     Using Slab Decomposition

     bravais-lattice index     =            0
     lattice parameter (alat)  =      10.7811  a.u.
     unit-cell volume          =    1901.1549 (a.u.)^3
     number of atoms/cell      =           18
     number of atomic types    =            3
     number of electrons       =       144.00
     number of Kohn-Sham states=           86
     kinetic-energy cutoff     =      30.0000  Ry
     charge density cutoff     =     240.0000  Ry
     scf convergence threshold =      1.0E-06
     mixing beta               =       0.7000
     number of iterations used =            8  plain     mixing
     Exchange-correlation=  SLA  PW   PBX  PBC
                           (   1   4   3   4   0   0   0)

     celldm(1)=  10.781137  celldm(2)=   0.000000  celldm(3)=   0.000000
     celldm(4)=   0.000000  celldm(5)=   0.000000  celldm(6)=   0.000000

     crystal axes: (cart. coord. in units of alat)
               a(1) = (   1.000000   0.000000   0.000000 )
               a(2) = (   0.000000   1.069956   0.000000 )
               a(3) = (   0.000000  -0.301986   1.417939 )

     reciprocal axes: (cart. coord. in units 2 pi/alat)
               b(1) = (  1.000000  0.000000  0.000000 )
               b(2) = (  0.000000  0.934617  0.199050 )
               b(3) = (  0.000000  0.000000  0.705249 )

     PseudoPot. # 1 for Y  read from file:
     /home/pragov/projects/rrg-bengioy-ad/pragov/crystal_structure_design/SSSP/Y_pbe_v1.uspp.F.UPF
     MD5 check sum: 2cf71db95cafeb975fc457bd7f14888e
     Pseudo is Ultrasoft + core correction, Zval = 11.0
     Generated by new atomic code, or converted to UPF format
     Using radial grid of  885 points,  6 beta functions with:
                l(1) =   0
                l(2) =   0
                l(3) =   1
                l(4) =   1
                l(5) =   2
                l(6) =   2
     Q(r) pseudized with  6 coefficients,  rinner =    1.200   1.200   1.200
                                                       1.200   1.200

     PseudoPot. # 2 for Hf read from file:
     /home/pragov/projects/rrg-bengioy-ad/pragov/crystal_structure_design/SSSP/Hf-sp.oncvpsp.upf
     MD5 check sum: 417ed15784afe83d2e06dacf143de3f8
     Pseudo is Norm-conserving + core correction, Zval = 12.0
     Generated using ONCVPSP code by D. R. Hamann
     Using radial grid of 1656 points,  8 beta functions with:
                l(1) =   0
                l(2) =   0
                l(3) =   1
                l(4) =   1
                l(5) =   2
                l(6) =   2
                l(7) =   3
                l(8) =   3

     PseudoPot. # 3 for F  read from file:
     /home/pragov/projects/rrg-bengioy-ad/pragov/crystal_structure_design/SSSP/f_pbe_v1.4.uspp.F.UPF
     MD5 check sum: 4c38b6a325caf53ec0e86aed9459de46
     Pseudo is Ultrasoft, Zval =  7.0
     Generated by new atomic code, or converted to UPF format
     Using radial grid of  799 points,  4 beta functions with:
                l(1) =   0
                l(2) =   0
                l(3) =   1
                l(4) =   1
     Q(r) pseudized with  8 coefficients,  rinner =    0.950   0.950   0.950

     atomic species   valence    mass     pseudopotential
        Y             11.00    88.90584     Y ( 1.00)
        Hf            12.00   178.49000     Hf( 1.00)
        F              7.00    18.99840     F ( 1.00)

      2 Sym. Ops. (no inversion) found ( 1 have fractional translation)

                                    s                        frac. trans.

      isym =  1     identity

 cryst.   s( 1) = (     1          0          0      )
                  (     0          1          0      )
                  (     0          0          1      )

 cart.    s( 1) = (  1.0000000  0.0000000  0.0000000 )
                  (  0.0000000  1.0000000 -0.0000000 )
                  (  0.0000000  0.0000000  1.0000000 )

      isym =  2     180 deg rotation - cart. axis [1,0,0]

 cryst.   s( 2) = (     1          0          0      )    f =(  0.5000000 )
                  (     0         -1          0      )       (  0.0000000 )
                  (     0          0         -1      )       (  0.0000000 )

 cart.    s( 2) = (  1.0000000  0.0000000  0.0000000 )    f =(  0.5000000 )
                  (  0.0000000 -1.0000000  0.0000000 )       ( -0.0000000 )
                  (  0.0000000  0.0000000 -1.0000000 )       (  0.0000000 )

   Cartesian axes

     site n.     atom                  positions (alat units)
         1           Y   tau(   1) = (   0.6971730   0.4951810   0.9719564  )
         2           Y   tau(   2) = (   0.1971730   0.2727896   0.4459831  )
         3           Hf  tau(   3) = (   0.7076000   0.8002162   0.3170456  )
         4           Hf  tau(   4) = (   0.2076000  -0.0322455   1.1008939  )
         5           F   tau(   5) = (   0.8885250   0.3406540   0.6768534  )
         6           F   tau(   6) = (   0.3885250   0.4273167   0.7410861  )
         7           F   tau(   7) = (   0.4260890   0.7605536   1.0911484  )
         8           F   tau(   8) = (   0.9260890   0.0074171   0.3267911  )
         9           F   tau(   9) = (   0.9464390   0.7991465   1.0774000  )
        10           F   tau(  10) = (   0.4464390  -0.0311758   0.3405394  )
        11           F   tau(  11) = (   0.9959470   0.2486867   1.1164770  )
        12           F   tau(  12) = (   0.4959470   0.5192839   0.3014624  )
        13           F   tau(  13) = (   0.7039090   0.5133522   1.3856955  )
        14           F   tau(  14) = (   0.2039090   0.2546184   0.0322439  )
        15           F   tau(  15) = (   0.7109530   0.7792768   0.6684308  )
        16           F   tau(  16) = (   0.2109530  -0.0113061   0.7495086  )
        17           F   tau(  17) = (   0.4997260   0.1681692   1.1097503  )
        18           F   tau(  18) = (   0.9997260   0.5998014   0.3081891  )

   Crystallographic axes

     site n.     atom                  positions (cryst. coord.)
         1           Y   tau(   1) = (  0.6971730  0.6562730  0.6854710  )
         2           Y   tau(   2) = (  0.1971730  0.3437270  0.3145290  )
         3           Hf  tau(   3) = (  0.7076000  0.8110040  0.2235960  )
         4           Hf  tau(   4) = (  0.2076000  0.1889960  0.7764040  )
         5           F   tau(   5) = (  0.8885250  0.4531090  0.4773500  )
         6           F   tau(   6) = (  0.3885250  0.5468910  0.5226500  )
         7           F   tau(   7) = (  0.4260890  0.9280200  0.7695310  )
         8           F   tau(   8) = (  0.9260890  0.0719800  0.2304690  )
         9           F   tau(   9) = (  0.9464390  0.9613530  0.7598350  )
        10           F   tau(  10) = (  0.4464390  0.0386470  0.2401650  )
        11           F   tau(  11) = (  0.9959470  0.4546620  0.7873940  )
        12           F   tau(  12) = (  0.4959470  0.5453380  0.2126060  )
        13           F   tau(  13) = (  0.7039090  0.7556110  0.9772600  )
        14           F   tau(  14) = (  0.2039090  0.2443890  0.0227400  )
        15           F   tau(  15) = (  0.7109530  0.8613770  0.4714100  )
        16           F   tau(  16) = (  0.2109530  0.1386230  0.5285900  )
        17           F   tau(  17) = (  0.4997260  0.3780700  0.7826500  )
        18           F   tau(  18) = (  0.9997260  0.6219300  0.2173500  )

     number of k points=     1  Methfessel-Paxton smearing, width (Ry)=  0.0010
                       cart. coord. in units 2pi/alat
        k(    1) = (   0.0000000   0.0000000   0.0000000), wk =   2.0000000

                       cryst. coord.
        k(    1) = (   0.0000000   0.0000000   0.0000000), wk =   2.0000000

     Check: negative core charge=   -0.000003

     Initial potential from superposition of free atoms

     starting charge     143.9874, renormalised to     144.0000

     negative rho (up, down):  8.698E-02 0.000E+00
     Starting wfcs are  102 randomized atomic wfcs

     Self-consistent Calculation

     iteration #  1     ecut=    30.00 Ry     beta= 0.70
     Davidson diagonalization with overlap

     ethr =  1.00E-02,  avg # of iterations =  2.0

     negative rho (up, down):  8.936E-02 0.000E+00

     total energy              =   -1082.44993116 Ry
     estimated scf accuracy    <       2.98468279 Ry

[...]

     total energy              =   -1083.86661619 Ry
     estimated scf accuracy    <       0.00000180 Ry

     iteration #  9     ecut=    30.00 Ry     beta= 0.70
     Davidson diagonalization with overlap

     ethr =  1.25E-09,  avg # of iterations =  2.0

[...]

     End of self-consistent calculation

          k = 0.0000 0.0000 0.0000 (  2642 PWs)   bands (ev):

   -57.8771 -57.8610 -37.3341 -37.3274 -26.8565 -26.8532 -26.8466 -26.8405
   -26.8349 -26.8320 -19.2190 -19.1137 -18.9785 -18.9193 -18.9075 -18.8736
   -18.7834 -18.7581 -18.6522 -18.6283 -18.5907 -18.3270 -17.9855 -17.9644
   -16.8992 -16.8298 -16.6348 -16.6324 -16.1078 -15.9793  -2.2399  -2.0525
    -1.9160  -1.9094  -1.5929  -1.5455  -1.2130  -1.1357  -1.0732  -1.0692
    -0.8414  -0.7194  -0.7008  -0.6644  -0.4862  -0.3479  -0.3245  -0.2423
    -0.0657  -0.0585  -0.0015   0.0909   0.1952   0.2648   0.2736   0.4009
     0.4136   0.4848   0.5075   0.6079   0.6409   0.6452   0.7583   0.9103
     0.9129   0.9673   1.0839   1.1033   1.1731   1.4790   1.5016   1.6261
     8.4415   8.4640   8.7908   8.8521   8.9589   8.9729   9.0114   9.7568
     9.9359  10.2739  10.4481  10.5178  10.5871  10.7213

     occupation numbers
     1.0000   1.0000   1.0000   1.0000   1.0000   1.0000   1.0000   1.0000
     1.0000   1.0000   1.0000   1.0000   1.0000   1.0000   1.0000   1.0000
     1.0000   1.0000   1.0000   1.0000   1.0000   1.0000   1.0000   1.0000
     1.0000   1.0000   1.0000   1.0000   1.0000   1.0000   1.0000   1.0000
     1.0000   1.0000   1.0000   1.0000   1.0000   1.0000   1.0000   1.0000
     1.0000   1.0000   1.0000   1.0000   1.0000   1.0000   1.0000   1.0000
     1.0000   1.0000   1.0000   1.0000   1.0000   1.0000   1.0000   1.0000
     1.0000   1.0000   1.0000   1.0000   1.0000   1.0000   1.0000   1.0000
     1.0000   1.0000   1.0000   1.0000   1.0000   1.0000   1.0000   1.0000
    -0.0000  -0.0000  -0.0000  -0.0000  -0.0000  -0.0000  -0.0000  -0.0000
    -0.0000  -0.0000  -0.0000  -0.0000  -0.0000  -0.0000

     the Fermi energy is     2.2485 ev

!    total energy              =   -1083.86661652 Ry
     estimated scf accuracy    <       0.00000014 Ry
     smearing contrib. (-TS)   =       0.00000000 Ry
     internal energy E=F+TS    =   -1083.86661652 Ry

     The total energy is F=E-TS. E is the sum of the following terms:
     one-electron contribution =    -583.84856548 Ry
     hartree contribution      =     357.09970868 Ry
     xc contribution           =    -232.47800024 Ry
     ewald contribution        =    -624.63975949 Ry

     convergence has been achieved in   9 iterations

     negative rho (up, down):  9.147E-02 0.000E+00

     Forces acting on atoms (cartesian axes, Ry/au):

     atom    1 type  1   force =    -0.00676541   -0.00210364   -0.01700450
     atom    2 type  1   force =    -0.00676541    0.00210364    0.01700450
     atom    3 type  2   force =    -0.00598665   -0.00672249    0.01117522
     atom    4 type  2   force =    -0.00598665    0.00672249   -0.01117522
     atom    5 type  3   force =     0.00372916   -0.00168960   -0.00087604
     atom    6 type  3   force =     0.00372916    0.00168960    0.00087604
     atom    7 type  3   force =     0.00518503   -0.00186062    0.00376763
     atom    8 type  3   force =     0.00518503    0.00186062   -0.00376763
     atom    9 type  3   force =     0.00409903   -0.00097035    0.00279054
     atom   10 type  3   force =     0.00409903    0.00097035   -0.00279054
     atom   11 type  3   force =     0.00026679   -0.00054902    0.00655083
     atom   12 type  3   force =     0.00026679    0.00054902   -0.00655083
     atom   13 type  3   force =    -0.00280206    0.00273887   -0.00512498
     atom   14 type  3   force =    -0.00280206   -0.00273887    0.00512498
     atom   15 type  3   force =    -0.00291527    0.00112483    0.00386364
     atom   16 type  3   force =    -0.00291527   -0.00112483   -0.00386364
     atom   17 type  3   force =     0.00518940   -0.00394894    0.00439118
     atom   18 type  3   force =     0.00518940    0.00394894   -0.00439118
     The non-local contrib.  to forces
     atom    1 type  1   force =     0.01003319    0.01035052    0.02665178
     atom    2 type  1   force =     0.01003319   -0.01035052   -0.02665178
     atom    3 type  2   force =    -0.00622799   -0.00268832   -0.00244581
     atom    4 type  2   force =    -0.00622799    0.00268832    0.00244581
     atom    5 type  3   force =     0.16334276    0.19773462    0.14922046
     atom    6 type  3   force =     0.16334276   -0.19773462   -0.14922046
     atom    7 type  3   force =    -0.24920433    0.42911826   -0.16914441
     atom    8 type  3   force =    -0.24920433   -0.42911826    0.16914441
     atom    9 type  3   force =     0.45005640    0.28372876   -0.09209742
     atom   10 type  3   force =     0.45005640   -0.28372876    0.09209742
     atom   11 type  3   force =     0.27761754   -0.55996508   -0.25511698
     atom   12 type  3   force =     0.27761754    0.55996508    0.25511698
     atom   13 type  3   force =    -0.01323781   -0.08046217    0.58534239
     atom   14 type  3   force =    -0.01323781    0.08046217   -0.58534239
     atom   15 type  3   force =    -0.02588936   -0.29140553   -0.71201622
     atom   16 type  3   force =    -0.02588936    0.29140553    0.71201622
     atom   17 type  3   force =    -0.62320242   -0.11003556   -0.24386158
     atom   18 type  3   force =    -0.62320242    0.11003556    0.24386158
     The ionic contribution  to forces
     atom    1 type  1   force =     0.98647827   -0.02297183    3.78151435
     atom    2 type  1   force =     0.98647826    0.02297183   -3.78151435
     atom    3 type  2   force =    -0.93392760    0.85850093   -4.10153751
     atom    4 type  2   force =    -0.93392760   -0.85850093    4.10153751
     atom    5 type  3   force =    -1.95165849   -2.21915959   -1.03729761
     atom    6 type  3   force =    -1.95165849    2.21915959    1.03729761
     atom    7 type  3   force =     1.53787038   -3.67337229    3.96447179
     atom    8 type  3   force =     1.53787038    3.67337229   -3.96447179
     atom    9 type  3   force =    -3.36537966   -2.17096783    3.10848909
     atom   10 type  3   force =    -3.36537966    2.17096783   -3.10848909
     atom   11 type  3   force =    -2.01705031    4.51833232    5.21211525
     atom   12 type  3   force =    -2.01705031   -4.51833231   -5.21211525
     atom   13 type  3   force =    -0.24281914    1.04818984   -3.66305484
     atom   14 type  3   force =    -0.24281914   -1.04818984    3.66305484
     atom   15 type  3   force =     0.30582779    4.38165452    5.62433705
     atom   16 type  3   force =     0.30582779   -4.38165452   -5.62433705
     atom   17 type  3   force =     5.68065876    0.43052620    4.66134919
     atom   18 type  3   force =     5.68065876   -0.43052620   -4.66134919
     The local contribution  to forces
     atom    1 type  1   force =    -1.00287344    0.01111641   -3.82409930
     atom    2 type  1   force =    -1.00288146   -0.01108404    3.82411062
     atom    3 type  2   force =     0.93704048   -0.86114153    4.11526932
     atom    4 type  2   force =     0.93707661    0.86114499   -4.11528716
     atom    5 type  3   force =     1.79210578    2.01980244    0.88725196
     atom    6 type  3   force =     1.79208181   -2.01979953   -0.88723214
     atom    7 type  3   force =    -1.28338042    3.24228717   -3.79157563
     atom    8 type  3   force =    -1.28334419   -3.24222654    3.79157121
     atom    9 type  3   force =     2.91931529    1.88612424   -3.01360954
     atom   10 type  3   force =     2.91928531   -1.88608486    3.01359994
     atom   11 type  3   force =     1.73959243   -3.95881595   -4.95047386
     atom   12 type  3   force =     1.73954199    3.95877374    4.95046535
     atom   13 type  3   force =     0.25325339   -0.96501355    3.07233077
     atom   14 type  3   force =     0.25327089    0.96501761   -3.07242597
     atom   15 type  3   force =    -0.28285769   -4.08923684   -4.90834921
     atom   16 type  3   force =    -0.28285661    4.08923493    4.90846267
     atom   17 type  3   force =    -5.05219001   -0.32433466   -4.41311768
     atom   18 type  3   force =    -5.05212429    0.32427557    4.41311200
     The core correction contribution to forces
     atom    1 type  1   force =    -0.00031709   -0.00058079   -0.00089835
     atom    2 type  1   force =    -0.00031702    0.00058055    0.00089751
     atom    3 type  2   force =    -0.00291497   -0.00145319   -0.00015732
     atom    4 type  2   force =    -0.00291350    0.00145369    0.00015668
     atom    5 type  3   force =     0.00000000    0.00000000    0.00000000
     atom    6 type  3   force =     0.00000000    0.00000000    0.00000000
     atom    7 type  3   force =     0.00000000    0.00000000    0.00000000
     atom    8 type  3   force =     0.00000000    0.00000000    0.00000000
     atom    9 type  3   force =     0.00000000    0.00000000    0.00000000
     atom   10 type  3   force =     0.00000000    0.00000000    0.00000000
     atom   11 type  3   force =     0.00000000    0.00000000    0.00000000
     atom   12 type  3   force =     0.00000000    0.00000000    0.00000000
     atom   13 type  3   force =     0.00000000    0.00000000    0.00000000
     atom   14 type  3   force =     0.00000000    0.00000000    0.00000000
     atom   15 type  3   force =     0.00000000    0.00000000    0.00000000
     atom   16 type  3   force =     0.00000000    0.00000000    0.00000000
     atom   17 type  3   force =     0.00000000    0.00000000    0.00000000
     atom   18 type  3   force =     0.00000000    0.00000000    0.00000000
     The Hubbard contrib.    to forces
     atom    1 type  1   force =     0.00000000    0.00000000    0.00000000
     atom    2 type  1   force =     0.00000000    0.00000000    0.00000000
     atom    3 type  2   force =     0.00000000    0.00000000    0.00000000
     atom    4 type  2   force =     0.00000000    0.00000000    0.00000000
     atom    5 type  3   force =     0.00000000    0.00000000    0.00000000
     atom    6 type  3   force =     0.00000000    0.00000000    0.00000000
     atom    7 type  3   force =     0.00000000    0.00000000    0.00000000
     atom    8 type  3   force =     0.00000000    0.00000000    0.00000000
     atom    9 type  3   force =     0.00000000    0.00000000    0.00000000
     atom   10 type  3   force =     0.00000000    0.00000000    0.00000000
     atom   11 type  3   force =     0.00000000    0.00000000    0.00000000
     atom   12 type  3   force =     0.00000000    0.00000000    0.00000000
     atom   13 type  3   force =     0.00000000    0.00000000    0.00000000
     atom   14 type  3   force =     0.00000000    0.00000000    0.00000000
     atom   15 type  3   force =     0.00000000    0.00000000    0.00000000
     atom   16 type  3   force =     0.00000000    0.00000000    0.00000000
     atom   17 type  3   force =     0.00000000    0.00000000    0.00000000
     atom   18 type  3   force =     0.00000000    0.00000000    0.00000000
     The SCF correction term to forces
     atom    1 type  1   force =    -0.00007722   -0.00002215   -0.00018274
     atom    2 type  1   force =    -0.00007613   -0.00001838    0.00015274
     atom    3 type  2   force =     0.00004998    0.00006445    0.00004717
     atom    4 type  2   force =     0.00001065   -0.00005874   -0.00002742
     atom    5 type  3   force =    -0.00006164   -0.00006422   -0.00005380
     atom    6 type  3   force =    -0.00002480    0.00006699    0.00002808
     atom    7 type  3   force =    -0.00008368    0.00008519    0.00001521
     atom    8 type  3   force =    -0.00014237   -0.00018791   -0.00001212
     atom    9 type  3   force =     0.00010035    0.00013221    0.00001083
     atom   10 type  3   force =     0.00015498   -0.00019612    0.00000361
     atom   11 type  3   force =     0.00009566   -0.00008760    0.00002776
     atom   12 type  3   force =     0.00018040    0.00015523   -0.00001657
     atom   13 type  3   force =     0.00001351    0.00002316    0.00028195
     atom   14 type  3   force =    -0.00001665   -0.00003040   -0.00013626
     atom   15 type  3   force =     0.00000950    0.00011257   -0.00013887
     atom   16 type  3   force =     0.00000876   -0.00011089   -0.00003636
     atom   17 type  3   force =    -0.00005025   -0.00008408    0.00002206
     atom   18 type  3   force =    -0.00015797    0.00018485   -0.00001477

     Total force =     0.040107     Total SCF correction =     0.000741

     Computing stress (Cartesian axis) and pressure

     negative rho (up, down):  9.147E-02 0.000E+00
          total   stress  (Ry/bohr**3)                   (kbar)     P=     -153.41
  -0.00098713   0.00000000   0.00000000         -145.21        0.00        0.00
   0.00000000  -0.00107854  -0.00002406            0.00     -158.66       -3.54
   0.00000000  -0.00002406  -0.00106293            0.00       -3.54     -156.36

     kinetic stress (kbar)  18167.56      0.00      0.00
                                0.00  18136.53      0.68
                                0.00      0.68  18161.19

     local   stress (kbar)  -9794.64      0.00      0.00
                                0.00 -10682.54   1914.26
                                0.00   1914.26 -12964.28

     nonloc. stress (kbar)   4640.00      0.00      0.00
                                0.00   4637.86     -4.88
                                0.00     -4.88   4638.74

     hartree stress (kbar)   8711.39     -0.00     -0.00
                               -0.00   9018.64   -834.76
                               -0.00   -834.76   9901.16

     exc-cor stress (kbar)   -520.53      0.00      0.00
                                0.00   -519.80     -0.05
                                0.00     -0.05   -516.92

     corecor stress (kbar)  -4380.55      0.00      0.00
                                0.00  -4380.65      0.13
                                0.00      0.13  -4380.83

     ewald   stress (kbar) -16968.44     -0.00     -0.00
                               -0.00 -16368.70  -1078.91
                               -0.00  -1078.91 -14995.42

     hubbard stress (kbar)      0.00      0.00      0.00
                                0.00      0.00      0.00
                                0.00      0.00      0.00

     DFT-D   stress (kbar)      0.00      0.00      0.00
                                0.00      0.00      0.00
                                0.00      0.00      0.00

     XDM     stress (kbar)      0.00      0.00      0.00
                                0.00      0.00      0.00
                                0.00      0.00      0.00

     dft-nl  stress (kbar)      0.00      0.00      0.00
                                0.00      0.00      0.00
                                0.00      0.00      0.00

     TS-vdW  stress (kbar)      0.00      0.00      0.00
                                0.00      0.00      0.00
                                0.00      0.00      0.00

[...]

                                0.00      0.00      0.00

     Writing all to output data dir new_calculations/myprefix.save/

     General routines

     Parallel routines

   This run was terminated on:   9:43:43  20May2023

   JOB DONE.