     Program PWSCF v.7.0 starts on 21May2023 at  7:45:40

     Reading input from espresso_13032.pwi
Warning: card &CELL ignored
Warning: card / ignored

     Current dimensions of program PWSCF are:
     Max number of different atomic species (ntypx) = 10
     Max number of k-points (npk) =  40000
     Max angular momentum in pseudopotentials (lmaxx) =  4
     file O.pbe-n-kjpaw_psl.0.1.UPF: wavefunction(s)  2P renormalized

     gamma-point specific algorithms are used

     Subspace diagonalization in iterative solution of the eigenvalue problem:
     a serial algorithm will be used

     Using Slab Decomposition

     bravais-lattice index     =            0
     lattice parameter (alat)  =      14.0421  a.u.
     unit-cell volume          =    1956.4886 (a.u.)^3
     number of atoms/cell      =           18
     number of atomic types    =            4
     number of electrons       =       152.00
     number of Kohn-Sham states=           91
     kinetic-energy cutoff     =      30.0000  Ry
     charge density cutoff     =     240.0000  Ry
     scf convergence threshold =      1.0E-06
     mixing beta               =       0.7000
     number of iterations used =            8  plain     mixing
     Exchange-correlation= SLA  PW   PBX  PBC
                           (   1   4   3   4   0   0   0)

     celldm(1)=  14.042069  celldm(2)=   0.000000  celldm(3)=   0.000000
     celldm(4)=   0.000000  celldm(5)=   0.000000  celldm(6)=   0.000000

     crystal axes: (cart. coord. in units of alat)
               a(1) = (   1.000000   0.000000   0.000000 )
               a(2) = (   0.001362   0.999999   0.000000 )
               a(3) = (  -0.498367  -0.502316   0.706617 )

     reciprocal axes: (cart. coord. in units 2 pi/alat)
               b(1) = (  1.000000 -0.001362  0.704318 )
               b(2) = (  0.000000  1.000001  0.710875 )
               b(3) = (  0.000000  0.000000  1.415193 )

     PseudoPot. # 1 for Ta read from file:
     /home/pragov/projects/rrg-bengioy-ad/pragov/crystal_structure_design/SSSP/Ta_pbe_v1.uspp.F.UPF
     MD5 check sum: f8bbe9446314a3b8ea5d9f3e3836c939
     Pseudo is Ultrasoft + core correction, Zval = 13.0
     Generated by new atomic code, or converted to UPF format
     Using radial grid of  921 points,  7 beta functions with:
                l(1) =   0
                l(2) =   0
                l(3) =   1
                l(4) =   1
                l(5) =   2
                l(6) =   2
                l(7) =   3
     Q(r) pseudized with  6 coefficients,  rinner =    1.300   1.300   1.300
                                                       1.300   1.300   1.300
                                                       1.300

     PseudoPot. # 2 for Tl read from file:
     /home/pragov/projects/rrg-bengioy-ad/pragov/crystal_structure_design/SSSP/Tl_pbe_v1.2.uspp.F.UPF
     MD5 check sum: b76cf1f7e72655a2b2c53cf6385d7059
     Pseudo is Ultrasoft + core correction, Zval = 13.0
     Generated by new atomic code, or converted to UPF format
     Using radial grid of  899 points,  6 beta functions with:
                l(1) =   0
                l(2) =   0
                l(3) =   1
                l(4) =   1
                l(5) =   2
                l(6) =   2
     Q(r) pseudized with  6 coefficients,  rinner =    1.100   1.100   1.100
                                                       1.100   1.100

     PseudoPot. # 3 for W  read from file:
     /home/pragov/projects/rrg-bengioy-ad/pragov/crystal_structure_design/SSSP/W_pbe_v1.2.uspp.F.UPF
     MD5 check sum: 9c083fa34c2a2ea0f02f1f893e16e1c8
     Pseudo is Ultrasoft + core correction, Zval = 14.0
     Generated by new atomic code, or converted to UPF format
     Using radial grid of  923 points,  8 beta functions with:
                l(1) =   0
                l(2) =   0
                l(3) =   0
                l(4) =   1
                l(5) =   1
                l(6) =   2
                l(7) =   2
                l(8) =   3
     Q(r) pseudized with  6 coefficients,  rinner =    1.350   1.350   1.350
                                                       1.350   1.350   1.350
                                                       1.350

     PseudoPot. # 4 for O  read from file:
     /home/pragov/projects/rrg-bengioy-ad/pragov/crystal_structure_design/SSSP/O.pbe-n-kjpaw_psl.0.1.UPF
     MD5 check sum: 0234752ac141de4415c5fc33072bef88
     Pseudo is Projector augmented-wave + core cor, Zval =  6.0
     Generated using "atomic" code by A. Dal Corso  v.5.0.99 svn rev. 10869
     Shape of augmentation charge: BESSEL
     Using radial grid of 1095 points,  4 beta functions with:
                l(1) =   0
                l(2) =   0
                l(3) =   1
                l(4) =   1
     Q(r) pseudized with 0 coefficients

     atomic species   valence    mass     pseudopotential
        Ta            13.00   180.94788     Ta( 1.00)
        Tl            13.00   204.38000     Tl( 1.00)
        W             14.00   183.84000     W ( 1.00)
        O              6.00    15.99900     O ( 1.00)

     No symmetry found

                                    s                        frac. trans.

      isym =  1     identity

 cryst.   s( 1) = (     1          0          0      )
                  (     0          1          0      )
                  (     0          0          1      )

 cart.    s( 1) = (  1.0000000 -0.0000000  0.0000000 )
                  (  0.0000000  1.0000000  0.0000000 )
                  (  0.0000000  0.0000000  1.0000000 )

   Cartesian axes

     site n.     atom                  positions (alat units)
         1           Ta  tau(   1) = (   0.2536489   0.7473683   0.3512179  )
         2           Ta  tau(   2) = (   0.5044652   0.4962102   0.7045266  )
         3           Tl  tau(   3) = (  -0.2472255  -0.0669316   0.4828805  )
         4           Tl  tau(   4) = (   0.8164520   0.4982922   0.1295717  )
         5           W   tau(   5) = (   0.2532811   0.2476199   0.3511740  )
         6           W   tau(   6) = (   0.0042136   0.4958974   0.7044828  )
         7           O   tau(   7) = (   0.4345572   0.1831681   0.1766678  )
         8           O   tau(   8) = (   0.0606162   0.8107834   0.1783799  )
         9           O   tau(   9) = (  -0.2427158   0.4991873   0.6206327  )
        10           O   tau(  10) = (   0.2505903   0.0031199   0.4407583  )
        11           O   tau(  11) = (   0.4404230   0.8164813   0.1742893  )
        12           O   tau(  12) = (   0.0658220   0.1881401   0.1804871  )
        13           O   tau(  13) = (   0.0684185   0.3145337   0.5299765  )
        14           O   tau(  14) = (   0.4399510  -0.3106699   0.5316887  )
        15           O   tau(  15) = (   0.7457225   0.0005723   0.0874496  )
        16           O   tau(  16) = (   0.2503265   0.4945536   0.2673240  )
        17           O   tau(  17) = (   0.0625867  -0.3167238   0.5337958  )
        18           O   tau(  18) = (   0.4350979   0.3095315   0.5275981  )

   Crystallographic axes

     site n.     atom                  positions (cryst. coord.)
         1           Ta  tau(   1) = (  0.5000000  0.9970410  0.4970410  )
         2           Ta  tau(   2) = (  1.0000000  0.9970410  0.9970410  )
         3           Tl  tau(   3) = (  0.0929670  0.2763360  0.6833690  )
         4           Tl  tau(   4) = (  0.9070330  0.5904020  0.1833690  )
         5           W   tau(   5) = (  0.5002820  0.4972610  0.4969790  )
         6           W   tau(   6) = (  0.4997180  0.9966970  0.9969790  )
         7           O   tau(   7) = (  0.5587380  0.3087570  0.2500190  )
         8           O   tau(   8) = (  0.1851480  0.9375900  0.2524420  )
         9           O   tau(   9) = (  0.1937270  0.9403800  0.8783150  )
        10           O   tau(  10) = (  0.5610200  0.3164440  0.6237580  )
        11           O   tau(  11) = (  0.5620660  0.9403800  0.2466530  )
        12           O   tau(  12) = (  0.1926860  0.3164440  0.2554240  )
        13           O   tau(  13) = (  0.4412620  0.6912810  0.7500190  )
        14           O   tau(  14) = (  0.8148520  0.0672940  0.7524420  )
        15           O   tau(  15) = (  0.8073140  0.0627380  0.1237580  )
        16           O   tau(  16) = (  0.4379340  0.6845880  0.3783150  )
        17           O   tau(  17) = (  0.4389800  0.0627380  0.7554240  )
        18           O   tau(  18) = (  0.8062730  0.6845880  0.7466530  )

     number of k points=     1  Methfessel-Paxton smearing, width (Ry)=  0.0010
                       cart. coord. in units 2pi/alat
        k(    1) = (   0.0000000   0.0000000   0.0000000), wk =   2.0000000

                       cryst. coord.
        k(    1) = (   0.0000000   0.0000000   0.0000000), wk =   2.0000000

     Check: negative core charge=   -0.000009

     Initial potential from superposition of free atoms

     starting charge     151.7873, renormalised to     152.0000

     negative rho (up, down):  4.187E-01 0.000E+00
     Starting wfcs are  118 randomized atomic wfcs
     Checking if some PAW data can be deallocated...

     Self-consistent Calculation

     iteration #  1     ecut=    30.00 Ry     beta= 0.70
     Davidson diagonalization with overlap

     ethr =  1.00E-02,  avg # of iterations =  2.0

     negative rho (up, down):  4.120E-01 0.000E+00

     total energy              =   -1388.62684790 Ry
     estimated scf accuracy    <       6.86832125 Ry

[...]

     total energy              =   -1392.31687870 Ry
     estimated scf accuracy    <       0.00000418 Ry

     iteration # 12     ecut=    30.00 Ry     beta= 0.70
     Davidson diagonalization with overlap

     ethr =  2.75E-09,  avg # of iterations =  2.0

[...]

     End of self-consistent calculation

          k = 0.0000 0.0000 0.0000 (  2743 PWs)   bands (ev):

   -68.5325 -68.5306 -61.4116 -61.4100 -32.7676 -32.7237 -32.7190 -32.7154
   -32.6523 -32.6160 -27.9786 -27.9626 -27.9560 -27.9268 -27.9013 -27.8046
   -11.7757 -11.2352 -11.2212 -11.1465 -10.9234 -10.7660 -10.1998  -9.9688
    -9.9451  -9.9223  -9.9144  -9.6313  -3.3445  -3.3427  -3.3164  -3.3082
    -3.3075  -3.3005  -3.2846  -3.2744  -3.2735  -3.2729   0.0333   0.4733
     0.5579   0.5641   0.6580   0.8381   1.1843   1.3739   1.4414   1.4563
     2.8614   3.0678   3.7272   3.7698   3.8066   3.9382   3.9517   3.9989
     4.1296   4.1974   4.2121   4.3364   4.5022   4.6219   4.6415   4.6532
     4.7087   4.7204   4.7486   4.8118   5.1396   5.1626   5.2636   5.3394
     5.3396   5.4329   5.4544   5.5003   8.7570   8.8052   8.8715   9.1944
     9.4024   9.7241  10.0300  10.1321  10.2006  10.7381  11.1072  11.2365
    11.8613  11.9475  12.0229

     occupation numbers
     1.0000   1.0000   1.0000   1.0000   1.0000   1.0000   1.0000   1.0000
     1.0000   1.0000   1.0000   1.0000   1.0000   1.0000   1.0000   1.0000
     1.0000   1.0000   1.0000   1.0000   1.0000   1.0000   1.0000   1.0000
     1.0000   1.0000   1.0000   1.0000   1.0000   1.0000   1.0000   1.0000
     1.0000   1.0000   1.0000   1.0000   1.0000   1.0000   1.0000   1.0000
     1.0000   1.0000   1.0000   1.0000   1.0000   1.0000   1.0000   1.0000
     1.0000   1.0000   1.0000   1.0000   1.0000   1.0000   1.0000   1.0000
     1.0000   1.0000   1.0000   1.0000   1.0000   1.0000   1.0000   1.0000
     1.0000   1.0000   1.0000   1.0000   1.0000   1.0000   1.0000   1.0000
     1.0000   1.0000   1.0000   1.0000  -0.0000  -0.0000  -0.0000  -0.0000
    -0.0000  -0.0000  -0.0000  -0.0000  -0.0000  -0.0000  -0.0000  -0.0000
    -0.0000  -0.0000  -0.0000

     the Fermi energy is     7.1072 ev

!    total energy              =   -1392.31687921 Ry
     estimated scf accuracy    <       0.00000061 Ry
     smearing contrib. (-TS)   =       0.00000000 Ry
     internal energy E=F+TS    =   -1392.31687921 Ry

     The total energy is F=E-TS. E is the sum of the following terms:
     one-electron contribution =    -577.59405551 Ry
     hartree contribution      =     362.22839717 Ry
     xc contribution           =    -379.49311500 Ry
     ewald contribution        =    -683.21739363 Ry
     one-center paw contrib.   =    -114.24071223 Ry
      -> PAW hartree energy AE =     359.56342170 Ry
      -> PAW hartree energy PS =    -358.27701079 Ry
      -> PAW xc energy AE      =    -206.66167902 Ry
      -> PAW xc energy PS      =      91.13455588 Ry
      -> total E_H with PAW    =     363.51480808 Ry
      -> total E_XC with PAW   =    -495.02023815 Ry

     convergence has been achieved in  12 iterations

     negative rho (up, down):  4.156E-01 0.000E+00

     Forces acting on atoms (cartesian axes, Ry/au):

     atom    1 type  1   force =     0.01492279   -0.01520482   -0.02176000
     atom    2 type  1   force =     0.01504922   -0.01500155   -0.02150940
     atom    3 type  2   force =     0.00376878   -0.00392247   -0.00505113
     atom    4 type  2   force =     0.00395459   -0.00379336   -0.00508227
     atom    5 type  3   force =     0.02189729   -0.01684126   -0.02754737
     atom    6 type  3   force =     0.01694358   -0.02175727   -0.02763663
     atom    7 type  4   force =    -0.02478201   -0.00753795    0.01161394
     atom    8 type  4   force =     0.00316920    0.01487587    0.00844076
     atom    9 type  4   force =     0.00940837    0.00741114    0.02678353
     atom   10 type  4   force =    -0.00411935    0.01991845   -0.00936812
     atom   11 type  4   force =    -0.01110136    0.02674034   -0.00134218
     atom   12 type  4   force =     0.01413592    0.00019955    0.01747871
     atom   13 type  4   force =     0.00747955    0.02483241    0.01278454
     atom   14 type  4   force =    -0.01552598   -0.00229613    0.00949421
     atom   15 type  4   force =    -0.01941375    0.00474073   -0.00947256
     atom   16 type  4   force =    -0.00805352   -0.00981880    0.02638928
     atom   17 type  4   force =    -0.00012649   -0.01348057    0.01730417
     atom   18 type  4   force =    -0.02760684    0.01093569   -0.00151948
     The non-local contrib.  to forces
     atom    1 type  1   force =     0.00553932   -0.00557616   -0.00828825
     atom    2 type  1   force =     0.00546206   -0.00572694   -0.00787480
     atom    3 type  2   force =     0.00074128   -0.05680749   -0.04053160
     atom    4 type  2   force =     0.05694097   -0.00062549   -0.04057613
     atom    5 type  3   force =     0.00130981    0.00528195    0.00318328
     atom    6 type  3   force =    -0.00518328   -0.00115524    0.00314926
     atom    7 type  4   force =    -0.40454261   -0.31958443    0.06028329
     atom    8 type  4   force =     0.27193230    0.23764311   -0.02396387
     atom    9 type  4   force =     0.13689080   -0.02078196    0.43726334
     atom   10 type  4   force =     0.02058367    0.19163735   -0.42602331
     atom   11 type  4   force =    -0.25304242    0.36711913   -0.10935414
     atom   12 type  4   force =     0.40962603   -0.19621363    0.11882825
     atom   13 type  4   force =     0.31886429    0.40522793    0.06166660
     atom   14 type  4   force =    -0.23972232   -0.27104203   -0.02235260
     atom   15 type  4   force =    -0.19360258   -0.02271935   -0.42674389
     atom   16 type  4   force =     0.02290194   -0.13506397    0.43654481
     atom   17 type  4   force =     0.19525348   -0.40971768    0.11872455
     atom   18 type  4   force =    -0.36678777    0.25406711   -0.10943816
     The ionic contribution  to forces
     atom    1 type  1   force =     0.94513097   -0.94633562   -1.34371076
     atom    2 type  1   force =     0.94507952   -0.94636023   -1.34365680
     atom    3 type  2   force =     0.50715859    5.45742608    3.51952174
     atom    4 type  2   force =    -5.45812000   -0.49972526    3.51950311
     atom    5 type  3   force =     1.00112433    0.86268009   -0.09742184
     atom    6 type  3   force =    -0.86408126   -0.99988140   -0.09742955
     atom    7 type  4   force =     8.07996428    7.94496163   -0.08815868
     atom    8 type  4   force =    -5.75671684   -6.43678297   -0.48900836
     atom    9 type  4   force =    -1.75567352   -1.29419314  -10.57118322
     atom   10 type  4   force =    -0.65502091   -1.65682845    9.45969725
     atom   11 type  4   force =     5.94468947   -9.00513188    0.27595986
     atom   12 type  4   force =    -7.84308140    5.54102481   -0.66565785
     atom   13 type  4   force =    -7.95595421   -8.06914685   -0.08816008
     atom   14 type  4   force =     6.44462158    5.74795558   -0.48901319
     atom   15 type  4   force =     1.65772309    0.65277422    9.45970105
     atom   16 type  4   force =     1.29652393    1.75391417  -10.57119005
     atom   17 type  4   force =    -5.53034654    7.85063123   -0.66565019
     atom   18 type  4   force =     8.99697891   -5.95698200    0.27585757
     The local contribution  to forces
     atom    1 type  1   force =    -0.93626846    0.93776820    1.33098734
     atom    2 type  1   force =    -0.93700972    0.93696426    1.33115353
     atom    3 type  2   force =    -0.50407413   -5.40456464   -3.48490430
     atom    4 type  2   force =     5.40558672    0.49674446   -3.48494649
     atom    5 type  3   force =    -0.98006586   -0.88476357    0.06773354
     atom    6 type  3   force =     0.88653584    0.97945696    0.06822109
     atom    7 type  4   force =    -7.70345072   -7.63539187    0.04052143
     atom    8 type  4   force =     5.48982382    6.21561153    0.52111222
     atom    9 type  4   force =     1.62937414    1.32188824   10.16422278
     atom   10 type  4   force =     0.63047018    1.48715931   -9.04642012
     atom   11 type  4   force =    -5.70457621    8.66758150   -0.16890665
     atom   12 type  4   force =     7.45105174   -5.34614776    0.56583150
     atom   13 type  4   force =     7.64769969    7.69174410    0.03965619
     atom   14 type  4   force =    -6.22222444   -5.48134242    0.52054519
     atom   15 type  4   force =    -1.48517946   -0.62560313   -9.04552963
     atom   16 type  4   force =    -1.32682988   -1.63024793   10.16441482
     atom   17 type  4   force =     5.33663638   -7.45754429    0.56539203
     atom   18 type  4   force =    -8.66083596    5.71549245   -0.16925064
     The core correction contribution to forces
     atom    1 type  1   force =     0.00072429   -0.00071861   -0.00104569
     atom    2 type  1   force =     0.00072593   -0.00072132   -0.00100428
     atom    3 type  2   force =    -0.00001128    0.00080704    0.00062590
     atom    4 type  2   force =    -0.00094752   -0.00007171    0.00064782
     atom    5 type  3   force =     0.00038539   -0.00037119   -0.00050094
     atom    6 type  3   force =     0.00038799   -0.00038316   -0.00053342
     atom    7 type  4   force =     0.00328211    0.00264956   -0.00045877
     atom    8 type  4   force =    -0.00184791   -0.00146065    0.00026139
     atom    9 type  4   force =    -0.00142784    0.00021842   -0.00319927
     atom   10 type  4   force =    -0.00013442   -0.00173810    0.00321959
     atom   11 type  4   force =     0.00172496   -0.00285589    0.00115022
     atom   12 type  4   force =    -0.00329439    0.00129531   -0.00110346
     atom   13 type  4   force =    -0.00263358   -0.00329590   -0.00046369
     atom   14 type  4   force =     0.00149220    0.00185646    0.00025686
     atom   15 type  4   force =     0.00183263    0.00025023    0.00321605
     atom   16 type  4   force =    -0.00034323    0.00133752   -0.00320172
     atom   17 type  4   force =    -0.00130225    0.00329959   -0.00109701
     atom   18 type  4   force =     0.00283047   -0.00172580    0.00115801
     The Hubbard contrib.    to forces
     atom    1 type  1   force =     0.00000000    0.00000000    0.00000000
     atom    2 type  1   force =     0.00000000    0.00000000    0.00000000
     atom    3 type  2   force =     0.00000000    0.00000000    0.00000000
     atom    4 type  2   force =     0.00000000    0.00000000    0.00000000
     atom    5 type  3   force =     0.00000000    0.00000000    0.00000000
     atom    6 type  3   force =     0.00000000    0.00000000    0.00000000
     atom    7 type  4   force =     0.00000000    0.00000000    0.00000000
     atom    8 type  4   force =     0.00000000    0.00000000    0.00000000
     atom    9 type  4   force =     0.00000000    0.00000000    0.00000000
     atom   10 type  4   force =     0.00000000    0.00000000    0.00000000
     atom   11 type  4   force =     0.00000000    0.00000000    0.00000000
     atom   12 type  4   force =     0.00000000    0.00000000    0.00000000
     atom   13 type  4   force =     0.00000000    0.00000000    0.00000000
     atom   14 type  4   force =     0.00000000    0.00000000    0.00000000
     atom   15 type  4   force =     0.00000000    0.00000000    0.00000000
     atom   16 type  4   force =     0.00000000    0.00000000    0.00000000
     atom   17 type  4   force =     0.00000000    0.00000000    0.00000000
     atom   18 type  4   force =     0.00000000    0.00000000    0.00000000
     The SCF correction term to forces
     atom    1 type  1   force =    -0.00018983   -0.00036489    0.00034572
     atom    2 type  1   force =     0.00080495    0.00082041   -0.00007869
     atom    3 type  2   force =    -0.00003218   -0.00080572    0.00028550
     atom    4 type  2   force =     0.00050792   -0.00013763    0.00033779
     atom    5 type  3   force =    -0.00084288    0.00030920   -0.00049305
     atom    6 type  3   force =    -0.00070221    0.00018331   -0.00099564
     atom    7 type  4   force =    -0.00002157   -0.00019510   -0.00052496
     atom    8 type  4   force =    -0.00000867   -0.00015742    0.00008775
     atom    9 type  4   force =     0.00025829    0.00025731   -0.00027172
     atom   10 type  4   force =    -0.00000437   -0.00033393    0.00020684
     atom   11 type  4   force =     0.00011635    0.00000522   -0.00014311
     atom   12 type  4   force =    -0.00015256    0.00021857   -0.00037136
     atom   13 type  4   force =    -0.00048312    0.00028086    0.00013389
     atom   14 type  4   force =     0.00032051    0.00025401    0.00010632
     atom   15 type  4   force =    -0.00017393    0.00001649   -0.00006777
     atom   16 type  4   force =    -0.00029277    0.00021915   -0.00013021
     atom   17 type  4   force =    -0.00035405   -0.00017169   -0.00001684
     atom   18 type  4   force =     0.00022103    0.00006166    0.00020211

     Total force =     0.112692     Total SCF correction =     0.002683

     Computing stress (Cartesian axis) and pressure

     negative rho (up, down):  4.156E-01 0.000E+00
          total   stress  (Ry/bohr**3)                   (kbar)     P=     -312.59
  -0.00211899   0.00002315   0.00006117         -311.71        3.41        9.00
   0.00002315  -0.00211752  -0.00006234            3.41     -311.50       -9.17
   0.00006117  -0.00006234  -0.00213836            9.00       -9.17     -314.56

     kinetic stress (kbar)  20206.48      4.48     20.65
                                4.48  20205.30    -22.05
                               20.65    -22.05  20200.37

     local   stress (kbar)  -5778.87    453.28  -1896.94
                              453.28  -5780.91   1897.80
                            -1896.94   1897.80  -6208.33

     nonloc. stress (kbar)   -821.51      1.12      5.41
                                1.12   -819.44     -2.57
                                5.41     -2.57   -820.30

     hartree stress (kbar)   9013.34   -204.77    801.56
                             -204.77   9014.04   -802.56
                              801.56   -802.56   9207.96

     exc-cor stress (kbar)  10196.05      0.07      0.99
                                0.07  10196.05     -1.01
                                0.99     -1.01  10195.97

     corecor stress (kbar) -15924.71     -0.09     -0.66
                               -0.09 -15924.71      0.64
                               -0.66      0.64 -15924.61

     ewald   stress (kbar) -17202.50   -250.68   1077.97
                             -250.68 -17201.83  -1079.43
                             1077.97  -1079.43 -16965.63

     hubbard stress (kbar)      0.00      0.00      0.00
                                0.00      0.00      0.00
                                0.00      0.00      0.00

     DFT-D   stress (kbar)      0.00      0.00      0.00
                                0.00      0.00      0.00
                                0.00      0.00      0.00

     XDM     stress (kbar)      0.00      0.00      0.00
                                0.00      0.00      0.00
                                0.00      0.00      0.00

     dft-nl  stress (kbar)      0.00      0.00      0.00
                                0.00      0.00      0.00
                                0.00      0.00      0.00

     TS-vdW  stress (kbar)      0.00      0.00      0.00
                                0.00      0.00      0.00
                                0.00      0.00      0.00

[...]

                                0.00      0.00      0.00

     Writing all to output data dir new_calculations/myprefix.save/

     General routines

     Parallel routines

     PAW routines

   This run was terminated on:   7:46:19  21May2023

   JOB DONE.