     Program PWSCF v.7.0 starts on 20May2023 at  5: 2:54

     Reading input from espresso_3150.pwi
Warning: card &CELL ignored
Warning: card / ignored

     Current dimensions of program PWSCF are:
     Max number of different atomic species (ntypx) = 10
     Max number of k-points (npk) =  40000
     Max angular momentum in pseudopotentials (lmaxx) =  4
     file O.pbe-n-kjpaw_psl.0.1.UPF: wavefunction(s)  2P renormalized

     gamma-point specific algorithms are used

     Subspace diagonalization in iterative solution of the eigenvalue problem:
     a serial algorithm will be used

     Using Slab Decomposition

     bravais-lattice index     =            0
     lattice parameter (alat)  =       8.6807  a.u.
     unit-cell volume          =     839.4265 (a.u.)^3
     number of atoms/cell      =           11
     number of atomic types    =            4
     number of electrons       =        88.00
     number of Kohn-Sham states=           53
     kinetic-energy cutoff     =      30.0000  Ry
     charge density cutoff     =     240.0000  Ry
     scf convergence threshold =      1.0E-06
     mixing beta               =       0.7000
     number of iterations used =            8  plain     mixing
     Exchange-correlation= SLA  PW   PBX  PBC
                           (   1   4   3   4   0   0   0)

     celldm(1)=   8.680669  celldm(2)=   0.000000  celldm(3)=   0.000000
     celldm(4)=   0.000000  celldm(5)=   0.000000  celldm(6)=   0.000000

     crystal axes: (cart. coord. in units of alat)
               a(1) = (   1.000000   0.000000   0.000000 )
               a(2) = (  -0.223922   1.151833   0.000000 )
               a(3) = (  -0.223779  -0.277481   1.114124 )

     reciprocal axes: (cart. coord. in units 2 pi/alat)
               b(1) = (  1.000000  0.194405  0.249274 )
               b(2) = (  0.000000  0.868181  0.216227 )
               b(3) = (  0.000000  0.000000  0.897566 )

     PseudoPot. # 1 for Co read from file:
     /home/pragov/projects/rrg-bengioy-ad/pragov/crystal_structure_design/SSSP/Co_pbe_v1.2.uspp.F.UPF
     MD5 check sum: 5f91765df6ddd3222702df6e7b74a16d
     Pseudo is Ultrasoft + core correction, Zval = 17.0
     Generated by new atomic code, or converted to UPF format
     Using radial grid of  863 points,  6 beta functions with:
                l(1) =   0
                l(2) =   0
                l(3) =   1
                l(4) =   1
                l(5) =   2
                l(6) =   2
     Q(r) pseudized with  8 coefficients,  rinner =    1.200   1.200   1.200
                                                       1.200   1.200

     PseudoPot. # 2 for Cu read from file:
     /home/pragov/projects/rrg-bengioy-ad/pragov/crystal_structure_design/SSSP/Cu_pbe_v1.2.uspp.F.UPF
     MD5 check sum: 6e991ff952a84172a2a52a1c1e996048
     Pseudo is Ultrasoft + core correction, Zval = 19.0
     Generated by new atomic code, or converted to UPF format
     Using radial grid of  867 points,  6 beta functions with:
                l(1) =   0
                l(2) =   0
                l(3) =   1
                l(4) =   1
                l(5) =   2
                l(6) =   2
     Q(r) pseudized with  8 coefficients,  rinner =    1.150   1.150   1.150
                                                       1.150   1.150

     PseudoPot. # 3 for P  read from file:
     /home/pragov/projects/rrg-bengioy-ad/pragov/crystal_structure_design/SSSP/P.pbe-n-rrkjus_psl.1.0.0.UPF
     MD5 check sum: 8b930f418f0a4573dca56cd030ffe088
     Pseudo is Ultrasoft + core correction, Zval =  5.0
     Generated using "atomic" code by A. Dal Corso  v.5.1
     Using radial grid of 1147 points,  6 beta functions with:
                l(1) =   0
                l(2) =   0
                l(3) =   1
                l(4) =   1
                l(5) =   2
                l(6) =   2
     Q(r) pseudized with 0 coefficients

     PseudoPot. # 4 for O  read from file:
     /home/pragov/projects/rrg-bengioy-ad/pragov/crystal_structure_design/SSSP/O.pbe-n-kjpaw_psl.0.1.UPF
     MD5 check sum: 0234752ac141de4415c5fc33072bef88
     Pseudo is Projector augmented-wave + core cor, Zval =  6.0
     Generated using "atomic" code by A. Dal Corso  v.5.0.99 svn rev. 10869
     Shape of augmentation charge: BESSEL
     Using radial grid of 1095 points,  4 beta functions with:
                l(1) =   0
                l(2) =   0
                l(3) =   1
                l(4) =   1
     Q(r) pseudized with 0 coefficients

     atomic species   valence    mass     pseudopotential
        Co            17.00    58.93319     Co( 1.00)
        Cu            19.00    63.54600     Cu( 1.00)
        P              5.00    30.97376     P ( 1.00)
        O              6.00    15.99900     O ( 1.00)

     No symmetry found

                                    s                        frac. trans.

      isym =  1     identity

 cryst.   s( 1) = (     1          0          0      )
                  (     0          1          0      )
                  (     0          0          1      )

 cart.    s( 1) = (  1.0000000 -0.0000000  0.0000000 )
                  (  0.0000000  1.0000000 -0.0000000 )
                  (  0.0000000  0.0000000  1.0000000 )

   Cartesian axes

     site n.     atom                  positions (alat units)
         1           Co  tau(   1) = (   0.6424274   0.0342511   0.3118053  )
         2           Cu  tau(   2) = (   0.4175914   0.3025796   1.0111541  )
         3           P   tau(   3) = (   0.0943949   0.5595637   0.4477251  )
         4           P   tau(   4) = (  -0.2727184   0.9204816   0.9017839  )
         5           O   tau(   5) = (   0.2898003   0.3335196   0.6003065  )
         6           O   tau(   6) = (   0.7799975  -0.0150567   0.7221103  )
         7           O   tau(   7) = (   0.2667673   0.7864448   0.2819234  )
         8           O   tau(   8) = (  -0.1342807   0.4162413   0.2436934  )
         9           O   tau(   9) = (   0.1867092  -0.0733394   1.0857368  )
        10           O   tau(  10) = (   0.5300181   0.7191843   1.0868877  )
        11           O   tau(  11) = (  -0.0946341   0.7022636   0.7004205  )

   Crystallographic axes

     site n.     atom                  positions (cryst. coord.)
         1           Co  tau(   1) = (  0.7268110  0.0971570  0.2798660  )
         2           Cu  tau(   2) = (  0.7284690  0.4813330  0.9075780  )
         3           P   tau(   3) = (  0.3147830  0.5826130  0.4018630  )
         4           P   tau(   4) = (  0.1310190  0.9941350  0.8094110  )
         5           O   tau(   5) = (  0.5042790  0.4193580  0.5388150  )
         6           O   tau(   6) = (  0.9570740  0.1430680  0.6481420  )
         7           O   tau(   7) = (  0.4899320  0.7437360  0.2530450  )
         8           O   tau(   8) = (  0.0073850  0.4140660  0.2187310  )
         9           O   tau(   9) = (  0.4430980  0.1710940  0.9745210  )
        10           O   tau(  10) = (  0.9407640  0.8593970  0.9755540  )
        11           O   tau(  11) = (  0.2164860  0.7611420  0.6286740  )

     number of k points=     1  Methfessel-Paxton smearing, width (Ry)=  0.0010
                       cart. coord. in units 2pi/alat
        k(    1) = (   0.0000000   0.0000000   0.0000000), wk =   2.0000000

                       cryst. coord.
        k(    1) = (   0.0000000   0.0000000   0.0000000), wk =   2.0000000

     Check: negative core charge=   -0.000016

     Initial potential from superposition of free atoms

     starting charge      85.9997, renormalised to      88.0000
     Starting wfcs are   62 randomized atomic wfcs
     Checking if some PAW data can be deallocated...

     Self-consistent Calculation

     iteration #  1     ecut=    30.00 Ry     beta= 0.70
     Davidson diagonalization with overlap

     ethr =  1.00E-02,  avg # of iterations =  3.0

     total energy              =   -1014.27436123 Ry
     estimated scf accuracy    <       9.79184890 Ry

[...]

     total energy              =   -1021.61592000 Ry
     estimated scf accuracy    <       0.00000641 Ry

     iteration # 33     ecut=    30.00 Ry     beta= 0.70
     Davidson diagonalization with overlap

     ethr =  7.29E-09,  avg # of iterations =  1.0

     End of self-consistent calculation

          k = 0.0000 0.0000 0.0000 (  1166 PWs)   bands (ev):

  -104.3760 -88.0838 -61.9194 -61.8867 -61.4968 -51.4691 -51.2975 -51.2173
   -15.7278 -14.1474 -13.2726 -12.3595 -12.3184 -12.2654 -12.1348  -4.7106
    -2.3119  -0.6837  -0.0493   0.0638   0.4863   0.6583   1.2500   1.8889
     2.2129   2.2942   2.6942   3.3058   3.4087   3.6830   3.7751   4.0210
     4.2047   4.8581   4.8762   4.9457   5.8838   6.0242   6.1160   6.1673
     6.3040   6.5472   6.6085   6.7598   6.7721   7.6598  10.4482  13.8997
    13.9923  14.5074  14.5720  14.7810  16.1148

     occupation numbers
     1.0000   1.0000   1.0000   1.0000   1.0000   1.0000   1.0000   1.0000
     1.0000   1.0000   1.0000   1.0000   1.0000   1.0000   1.0000   1.0000
     1.0000   1.0000   1.0000   1.0000   1.0000   1.0000   1.0000   1.0000
     1.0000   1.0000   1.0000   1.0000   1.0000   1.0000   1.0000   1.0000
     1.0000   1.0000   1.0000   1.0000   1.0000   1.0000   1.0000   1.0000
     1.0000   1.0000   1.0000   0.8418   0.1582  -0.0000  -0.0000  -0.0000
    -0.0000  -0.0000  -0.0000  -0.0000  -0.0000

     the Fermi energy is     6.7659 ev

!    total energy              =   -1021.61591986 Ry
     estimated scf accuracy    <       0.00000016 Ry
     smearing contrib. (-TS)   =      -0.00027343 Ry
     internal energy E=F+TS    =   -1021.61564643 Ry

     The total energy is F=E-TS. E is the sum of the following terms:
     one-electron contribution =    -709.57546633 Ry
     hartree contribution      =     398.71509270 Ry
     xc contribution           =    -132.81318228 Ry
     ewald contribution        =    -511.35394047 Ry
     one-center paw contrib.   =     -66.58815005 Ry
      -> PAW hartree energy AE =     218.83115738 Ry
      -> PAW hartree energy PS =    -218.03813327 Ry
      -> PAW xc energy AE      =    -121.91632095 Ry
      -> PAW xc energy PS      =      54.53514679 Ry
      -> total E_H with PAW    =     399.50811681 Ry
      -> total E_XC with PAW   =    -200.19435644 Ry

     convergence has been achieved in  33 iterations

     Forces acting on atoms (cartesian axes, Ry/au):

     atom    1 type  1   force =     0.00949673    0.02773148   -0.01932470
     atom    2 type  2   force =     0.00143428   -0.00087645    0.00202919
     atom    3 type  3   force =     0.01212568   -0.01292576    0.00503411
     atom    4 type  3   force =    -0.00351895   -0.01463771    0.01545483
     atom    5 type  4   force =     0.02584556   -0.00094167   -0.01789191
     atom    6 type  4   force =    -0.04343663    0.00683851   -0.02737874
     atom    7 type  4   force =     0.03980499    0.01841717    0.00502055
     atom    8 type  4   force =    -0.05818732   -0.02811653   -0.00615302
     atom    9 type  4   force =     0.05430500   -0.00476951    0.02591348
     atom   10 type  4   force =    -0.03457729    0.01363380    0.01336569
     atom   11 type  4   force =    -0.00329206   -0.00435333    0.00393052
     The non-local contrib.  to forces
     atom    1 type  1   force =    -0.00865386    0.04588698   -0.04108872
     atom    2 type  2   force =     0.03412058    0.00770918    0.03978781
     atom    3 type  3   force =    -0.14370507    0.04984933    0.13011503
     atom    4 type  3   force =     0.13024233   -0.13694175   -0.07125589
     atom    5 type  4   force =    -0.88969667    1.06248157   -0.49325261
     atom    6 type  4   force =     0.96703058   -1.23951510    0.38728536
     atom    7 type  4   force =    -0.95071754   -0.59211243    1.06236450
     atom    8 type  4   force =     0.84941925    0.40429296    0.94679755
     atom    9 type  4   force =    -0.87233376   -0.85934556   -0.60163924
     atom   10 type  4   force =     0.82273301    0.81381874   -0.82158180
     atom   11 type  4   force =     0.05795831    0.47777227   -0.31025928
     The ionic contribution  to forces
     atom    1 type  1   force =    -0.26829613   -5.14571072    5.09882296
     atom    2 type  2   force =     0.11658576    5.40409093   -4.05500084
     atom    3 type  3   force =    -0.17535498    1.18112951    1.12722682
     atom    4 type  3   force =     0.35585391   -0.73400129   -1.42116024
     atom    5 type  4   force =    -1.64318238   -1.42734610   -4.24590099
     atom    6 type  4   force =     1.63654493    0.75666027    1.66250791
     atom    7 type  4   force =    -1.87783975   -2.09503575   -0.91761636
     atom    8 type  4   force =     4.82577902    1.49040198    3.10105119
     atom    9 type  4   force =    -4.94314562   -2.12917637   -2.11129888
     atom   10 type  4   force =     1.95610308    2.92193820    1.75917438
     atom   11 type  4   force =     0.01695216   -0.22295067    0.00219405
     The local contribution  to forces
     atom    1 type  1   force =     0.28642792    5.12742409   -5.07831344
     atom    2 type  2   force =    -0.14922146   -5.41250253    4.01716705
     atom    3 type  3   force =     0.32177001   -1.24151464   -1.24368674
     atom    4 type  3   force =    -0.48121968    0.84721335    1.50436420
     atom    5 type  4   force =     2.55101613    0.37289250    4.71753045
     atom    6 type  4   force =    -2.63824716    0.47903581   -2.07519472
     atom    7 type  4   force =     2.85973998    2.70195905   -0.13036452
     atom    8 type  4   force =    -5.72604490   -1.91982870   -4.04565026
     atom    9 type  4   force =     5.86228882    2.97590558    2.73412720
     atom   10 type  4   force =    -2.80641189   -3.71531234   -0.93104366
     atom   11 type  4   force =    -0.07765699   -0.25465377    0.30908821
     The core correction contribution to forces
     atom    1 type  1   force =     0.00002651    0.00022064    0.00118473
     atom    2 type  2   force =    -0.00005240   -0.00013681    0.00003720
     atom    3 type  3   force =     0.00941525   -0.00241105   -0.00861771
     atom    4 type  3   force =    -0.00839125    0.00908664    0.00352118
     atom    5 type  4   force =     0.00768472   -0.00889055    0.00401015
     atom    6 type  4   force =    -0.00873889    0.01069654   -0.00174292
     atom    7 type  4   force =     0.00858430    0.00338347   -0.00943923
     atom    8 type  4   force =    -0.00735570   -0.00276843   -0.00853388
     atom    9 type  4   force =     0.00750668    0.00808361    0.00455981
     atom   10 type  4   force =    -0.00695582   -0.00707480    0.00666677
     atom   11 type  4   force =    -0.00054404   -0.00458578    0.00294686
     The Hubbard contrib.    to forces
     atom    1 type  1   force =     0.00000000    0.00000000    0.00000000
     atom    2 type  2   force =     0.00000000    0.00000000    0.00000000
     atom    3 type  3   force =     0.00000000    0.00000000    0.00000000
     atom    4 type  3   force =     0.00000000    0.00000000    0.00000000
     atom    5 type  4   force =     0.00000000    0.00000000    0.00000000
     atom    6 type  4   force =     0.00000000    0.00000000    0.00000000
     atom    7 type  4   force =     0.00000000    0.00000000    0.00000000
     atom    8 type  4   force =     0.00000000    0.00000000    0.00000000
     atom    9 type  4   force =     0.00000000    0.00000000    0.00000000
     atom   10 type  4   force =     0.00000000    0.00000000    0.00000000
     atom   11 type  4   force =     0.00000000    0.00000000    0.00000000
     The SCF correction term to forces
     atom    1 type  1   force =    -0.00000785   -0.00009557    0.00007468
     atom    2 type  2   force =     0.00000165   -0.00004327    0.00004289
     atom    3 type  3   force =     0.00000032    0.00001504    0.00000162
     atom    4 type  3   force =    -0.00000441   -0.00000071   -0.00000951
     atom    5 type  4   force =     0.00002362   -0.00008515   -0.00027400
     atom    6 type  4   force =    -0.00002624   -0.00004507   -0.00022944
     atom    7 type  4   force =     0.00003785    0.00021677    0.00008107
     atom    8 type  4   force =     0.00001486   -0.00022040    0.00018729
     atom    9 type  4   force =    -0.00001127   -0.00024282    0.00016950
     atom   10 type  4   force =    -0.00004581    0.00025795    0.00015491
     atom   11 type  4   force =    -0.00000163    0.00005857   -0.00003441

     Total force =     0.130875     Total SCF correction =     0.000694

     Computing stress (Cartesian axis) and pressure

          total   stress  (Ry/bohr**3)                   (kbar)     P=     -593.79
  -0.00403272   0.00007978   0.00008545         -593.23       11.74       12.57
   0.00007978  -0.00400108  -0.00002486           11.74     -588.58       -3.66
   0.00008545  -0.00002486  -0.00407569           12.57       -3.66     -599.55

     kinetic stress (kbar)  25548.76    -60.88    -77.39
                              -60.88  25170.93    118.72
                              -77.39    118.72  25202.52

     local   stress (kbar)  -7644.29  -3601.90  -4819.13
                            -3601.90 -29865.43   5796.41
                            -4819.13   5796.41 -26075.83

     nonloc. stress (kbar)   9151.91    -12.10    -14.11
                              -12.10   9151.20    -45.28
                              -14.11    -45.28   9112.56

     hartree stress (kbar)  17460.86   1220.35   1636.13
                             1220.35  26975.22  -2240.35
                             1636.13  -2240.35  25436.64

     exc-cor stress (kbar)  -5935.65      3.75      5.02
                                3.75  -5926.94     -4.71
                                5.02     -4.71  -5929.81

     corecor stress (kbar)  -1335.10     -1.29     -1.99
                               -1.29  -1334.26      3.06
                               -1.99      3.06  -1332.58

     ewald   stress (kbar) -37839.73   2463.80   3284.04
                             2463.80 -24759.29  -3631.51
                             3284.04  -3631.51 -27013.07

     hubbard stress (kbar)      0.00      0.00      0.00
                                0.00      0.00      0.00
                                0.00      0.00      0.00

     DFT-D   stress (kbar)      0.00      0.00      0.00
                                0.00      0.00      0.00
                                0.00      0.00      0.00

     XDM     stress (kbar)      0.00      0.00      0.00
                                0.00      0.00      0.00
                                0.00      0.00      0.00

     dft-nl  stress (kbar)      0.00      0.00      0.00
                                0.00      0.00      0.00
                                0.00      0.00      0.00

     TS-vdW  stress (kbar)      0.00      0.00      0.00
                                0.00      0.00      0.00
                                0.00      0.00      0.00

[...]

                                0.00      0.00      0.00

     Writing all to output data dir new_calculations/myprefix.save/

     General routines

     Parallel routines

     PAW routines

   This run was terminated on:   5: 3:23  20May2023

   JOB DONE.