     Program PWSCF v.7.0 starts on 20May2023 at 14:59:57

     Reading input from espresso_597.pwi
Warning: card &CELL ignored
Warning: card / ignored

     Current dimensions of program PWSCF are:
     Max number of different atomic species (ntypx) = 10
     Max number of k-points (npk) =  40000
     Max angular momentum in pseudopotentials (lmaxx) =  4
     file Ba.pbe-spn-kjpaw_psl.1.0.0.UPF: wavefunction(s)  5S 6S renormalized
     file Al.pbe-n-kjpaw_psl.1.0.0.UPF: wavefunction(s)  3S 3P renormalized
     file O.pbe-n-kjpaw_psl.0.1.UPF: wavefunction(s)  2P renormalized

     gamma-point specific algorithms are used
     Message from routine setup:
     using ibrav=0 with symmetry is DISCOURAGED, use correct ibrav instead

     Subspace diagonalization in iterative solution of the eigenvalue problem:
     a serial algorithm will be used

     Using Slab Decomposition

     bravais-lattice index     =            0
     lattice parameter (alat)  =      10.1006  a.u.
     unit-cell volume          =    1329.5869 (a.u.)^3
     number of atoms/cell      =           13
     number of atomic types    =            4
     number of electrons       =        72.00
     number of Kohn-Sham states=           43
     kinetic-energy cutoff     =      30.0000  Ry
     charge density cutoff     =     240.0000  Ry
     scf convergence threshold =      1.0E-06
     mixing beta               =       0.7000
     number of iterations used =            8  plain     mixing
     Exchange-correlation= SLA  PW   PBX  PBC
                           (   1   4   3   4   0   0   0)

     celldm(1)=  10.100604  celldm(2)=   0.000000  celldm(3)=   0.000000
     celldm(4)=   0.000000  celldm(5)=   0.000000  celldm(6)=   0.000000

     crystal axes: (cart. coord. in units of alat)
               a(1) = (   1.000000   0.000000   0.000000 )
               a(2) = (  -0.500000   0.866025   0.000000 )
               a(3) = (   0.000000   0.000000   1.489855 )

     reciprocal axes: (cart. coord. in units 2 pi/alat)
               b(1) = (  1.000000  0.577350  0.000000 )
               b(2) = (  0.000000  1.154700  0.000000 )
               b(3) = (  0.000000  0.000000  0.671206 )

     PseudoPot. # 1 for Ba read from file:
     /home/pragov/projects/rrg-bengioy-ad/pragov/crystal_structure_design/SSSP/Ba.pbe-spn-kjpaw_psl.1.0.0.UPF
     MD5 check sum: c432291d3e53af55f19d5e8866385beb
     Pseudo is Projector augmented-wave + core cor, Zval = 10.0
     Generated using "atomic" code by A. Dal Corso  v.5.1
     Shape of augmentation charge: PSQ
     Using radial grid of 1251 points,  7 beta functions with:
                l(1) =   0
                l(2) =   0
                l(3) =   0
                l(4) =   1
                l(5) =   1
                l(6) =   2
                l(7) =   2
     Q(r) pseudized with 0 coefficients

     PseudoPot. # 2 for Al read from file:
     /home/pragov/projects/rrg-bengioy-ad/pragov/crystal_structure_design/SSSP/Al.pbe-n-kjpaw_psl.1.0.0.UPF
     MD5 check sum: cfc449ca30b5f3223ec38ddd88ac046d
     Pseudo is Projector augmented-wave + core cor, Zval =  3.0
     Generated using "atomic" code by A. Dal Corso  v.5.1
     Shape of augmentation charge: PSQ
     Using radial grid of 1135 points,  6 beta functions with:
                l(1) =   0
                l(2) =   0
                l(3) =   1
                l(4) =   1
                l(5) =   2
                l(6) =   2
     Q(r) pseudized with 0 coefficients

     PseudoPot. # 3 for Si read from file:
     /home/pragov/projects/rrg-bengioy-ad/pragov/crystal_structure_design/SSSP/Si.pbe-n-rrkjus_psl.1.0.0.UPF
     MD5 check sum: 0b0bb1205258b0d07b9f9672cf965d36
     Pseudo is Ultrasoft + core correction, Zval =  4.0
     Generated using "atomic" code by A. Dal Corso  v.5.1
     Using radial grid of 1141 points,  6 beta functions with:
                l(1) =   0
                l(2) =   0
                l(3) =   1
                l(4) =   1
                l(5) =   2
                l(6) =   2
     Q(r) pseudized with 0 coefficients

     PseudoPot. # 4 for O  read from file:
     /home/pragov/projects/rrg-bengioy-ad/pragov/crystal_structure_design/SSSP/O.pbe-n-kjpaw_psl.0.1.UPF
     MD5 check sum: 0234752ac141de4415c5fc33072bef88
     Pseudo is Projector augmented-wave + core cor, Zval =  6.0
     Generated using "atomic" code by A. Dal Corso  v.5.0.99 svn rev. 10869
     Shape of augmentation charge: BESSEL
     Using radial grid of 1095 points,  4 beta functions with:
                l(1) =   0
                l(2) =   0
                l(3) =   1
                l(4) =   1
     Q(r) pseudized with 0 coefficients

     atomic species   valence    mass     pseudopotential
        Ba            10.00   137.32700     Ba( 1.00)
        Al             3.00    26.98154     Al( 1.00)
        Si             4.00    28.08500     Si( 1.00)
        O              6.00    15.99900     O ( 1.00)

      6 Sym. Ops., with inversion, found

                                    s                        frac. trans.

      isym =  1     identity

 cryst.   s( 1) = (     1          0          0      )
                  (     0          1          0      )
                  (     0          0          1      )

 cart.    s( 1) = (  1.0000000 -0.0000000  0.0000000 )
                  (  0.0000000  1.0000000  0.0000000 )
                  (  0.0000000  0.0000000  1.0000000 )

      isym =  2     120 deg rotation - cryst. axis [0,0,1]

[...]

      isym =  3     120 deg rotation - cryst. axis [0,0,-1]

[...]

      isym =  4     inversion

[...]

      isym =  5     inv. 120 deg rotation - cryst. axis [0,0,1]

[...]

      isym =  6     inv. 120 deg rotation - cryst. axis [0,0,-1]

 cryst.   s( 6) = (     1          1          0      )
                  (    -1          0          0      )
                  (     0          0         -1      )

 cart.    s( 6) = (  0.5000001 -0.8660254  0.0000000 )
                  (  0.8660254  0.4999999  0.0000000 )
                  (  0.0000000  0.0000000 -1.0000000 )

   Cartesian axes

     site n.     atom                  positions (alat units)
         1           Ba  tau(   1) = (   0.0000000   0.0000000   0.0000000  )
         2           Al  tau(   2) = (   0.5000005   0.2886749   1.0474678  )
         3           Al  tau(   3) = (  -0.0000005   0.5773506   0.4423871  )
         4           Si  tau(   4) = (   0.5000005   0.2886749   0.4268017  )
         5           Si  tau(   5) = (  -0.0000005   0.5773506   1.0630532  )
         6           O   tau(   6) = (   0.5000005   0.2886749   0.7261762  )
         7           O   tau(   7) = (  -0.0000005   0.5773506   0.7636788  )
         8           O   tau(   8) = (   0.0679866   0.8563008   1.1776246  )
         9           O   tau(   9) = (   0.2075860   0.3789970   1.1776246  )
        10           O   tau(  10) = (  -0.2755710   0.4967522   1.1776246  )
        11           O   tau(  11) = (   0.4320135   0.0097246   0.3122304  )
        12           O   tau(  12) = (   0.2924140   0.4870285   0.3122304  )
        13           O   tau(  13) = (   0.7755710   0.3692732   0.3122304  )

   Crystallographic axes

     site n.     atom                  positions (cryst. coord.)
         1           Ba  tau(   1) = (  0.0000000  0.0000000  0.0000000  )
         2           Al  tau(   2) = (  0.6666670  0.3333330  0.7030670  )
         3           Al  tau(   3) = (  0.3333330  0.6666670  0.2969330  )
         4           Si  tau(   4) = (  0.6666670  0.3333330  0.2864720  )
         5           Si  tau(   5) = (  0.3333330  0.6666670  0.7135280  )
         6           O   tau(   6) = (  0.6666670  0.3333330  0.4874140  )
         7           O   tau(   7) = (  0.3333330  0.6666670  0.5125860  )
         8           O   tau(   8) = (  0.5623720  0.9887710  0.7904290  )
         9           O   tau(   9) = (  0.4264000  0.4376280  0.7904290  )
        10           O   tau(  10) = (  0.0112290  0.5736000  0.7904290  )
        11           O   tau(  11) = (  0.4376280  0.0112290  0.2095710  )
        12           O   tau(  12) = (  0.5736000  0.5623720  0.2095710  )
        13           O   tau(  13) = (  0.9887710  0.4264000  0.2095710  )

     number of k points=     1  Methfessel-Paxton smearing, width (Ry)=  0.0010
                       cart. coord. in units 2pi/alat
        k(    1) = (   0.0000000   0.0000000   0.0000000), wk =   2.0000000

                       cryst. coord.
        k(    1) = (   0.0000000   0.0000000   0.0000000), wk =   2.0000000

     Check: negative core charge=   -0.000009

     Initial potential from superposition of free atoms

     starting charge      71.9773, renormalised to      72.0000
     Starting wfcs are   53 randomized atomic wfcs
     Checking if some PAW data can be deallocated...

     Self-consistent Calculation

     iteration #  1     ecut=    30.00 Ry     beta= 0.70
     Davidson diagonalization with overlap

     ethr =  1.00E-02,  avg # of iterations =  5.0

     total energy              =    -871.04262002 Ry
     estimated scf accuracy    <       3.24293512 Ry

[...]

     total energy              =    -872.44723094 Ry
     estimated scf accuracy    <       0.00000476 Ry

     iteration # 15     ecut=    30.00 Ry     beta= 0.70
     Davidson diagonalization with overlap

     ethr =  6.61E-09,  avg # of iterations =  2.0

     End of self-consistent calculation

          k = 0.0000 0.0000 0.0000 (  1841 PWs)   bands (ev):

   -21.7683 -15.0508 -14.8232 -13.4652 -13.4652 -13.4407 -13.4406 -13.4372
   -13.4365  -6.9337  -6.9337  -6.9185  -3.8396  -3.2925  -2.2186  -0.7636
    -0.7236  -0.7236  -0.5293  -0.5293   0.3981   0.6780   0.6781   1.8038
     1.8038   1.8707   1.8707   1.9707   2.1247   2.1247   2.8693   2.8720
     2.8720   3.0056   3.0056   3.0761   8.0143   9.8010  10.3744  10.3745
    10.7638  11.9615  12.0319

     occupation numbers
     1.0000   1.0000   1.0000   1.0000   1.0000   1.0000   1.0000   1.0000
     1.0000   1.0000   1.0000   1.0000   1.0000   1.0000   1.0000   1.0000
     1.0000   1.0000   1.0000   1.0000   1.0000   1.0000   1.0000   1.0000
     1.0000   1.0000   1.0000   1.0000   1.0000   1.0000   1.0000   1.0000
     1.0000   1.0000   1.0000   1.0000  -0.0000  -0.0000  -0.0000  -0.0000
    -0.0000  -0.0000  -0.0000

     the Fermi energy is     3.6499 ev

!    total energy              =    -872.44723085 Ry
     estimated scf accuracy    <       0.00000054 Ry
     smearing contrib. (-TS)   =       0.00000000 Ry
     internal energy E=F+TS    =    -872.44723085 Ry

     The total energy is F=E-TS. E is the sum of the following terms:
     one-electron contribution =    -152.65235527 Ry
     hartree contribution      =     117.04956021 Ry
     xc contribution           =     -98.75927950 Ry
     ewald contribution        =    -217.75266263 Ry
     one-center paw contrib.   =    -520.33249365 Ry
      -> PAW hartree energy AE =     288.64052564 Ry
      -> PAW hartree energy PS =    -287.56846667 Ry
      -> PAW xc energy AE      =    -608.57222963 Ry
      -> PAW xc energy PS      =      87.16767700 Ry
      -> total E_H with PAW    =     118.12161918 Ry
      -> total E_XC with PAW   =    -620.16383213 Ry

     convergence has been achieved in  15 iterations

     Forces acting on atoms (cartesian axes, Ry/au):

     atom    1 type  1   force =     0.00000000    0.00000000   -0.00000000
     atom    2 type  2   force =     0.00000000    0.00000000    0.00807084
     atom    3 type  2   force =    -0.00000000   -0.00000000   -0.00807084
     atom    4 type  3   force =    -0.00000000   -0.00000000   -0.01203797
     atom    5 type  3   force =     0.00000000    0.00000000    0.01203797
     atom    6 type  4   force =    -0.00000000   -0.00000000    0.00306442
     atom    7 type  4   force =     0.00000000    0.00000000   -0.00306442
     atom    8 type  4   force =     0.03363963    0.00217524   -0.00614036
     atom    9 type  4   force =    -0.01493600   -0.03022039   -0.00614036
     atom   10 type  4   force =    -0.01870363    0.02804515   -0.00614036
     atom   11 type  4   force =    -0.03363963   -0.00217524    0.00614036
     atom   12 type  4   force =     0.01493600    0.03022039    0.00614036
     atom   13 type  4   force =     0.01870363   -0.02804515    0.00614036
     The non-local contrib.  to forces
     atom    1 type  1   force =     0.00000000   -0.00000000    0.00000000
     atom    2 type  2   force =     0.00000000   -0.00000000    0.03448620
     atom    3 type  2   force =     0.00000000    0.00000000   -0.03448620
     atom    4 type  3   force =     0.00000000   -0.00000000   -0.06880016
     atom    5 type  3   force =     0.00000000    0.00000000    0.06880016
     atom    6 type  4   force =     0.00000000    0.00000000   -0.45946310
     atom    7 type  4   force =     0.00000000   -0.00000000    0.45946310
     atom    8 type  4   force =    -0.53797217   -0.40108650   -0.75504733
     atom    9 type  4   force =    -0.07836507    0.66644082   -0.75504733
     atom   10 type  4   force =     0.61633724   -0.26535432   -0.75504733
     atom   11 type  4   force =     0.53797217    0.40108650    0.75504733
     atom   12 type  4   force =     0.07836507   -0.66644082    0.75504733
     atom   13 type  4   force =    -0.61633724    0.26535432    0.75504733
     The ionic contribution  to forces
     atom    1 type  1   force =     0.00000000   -0.00000000    0.00000000
     atom    2 type  2   force =    -0.00000469    0.00000304   -0.42633538
     atom    3 type  2   force =     0.00000469   -0.00000304    0.42633538
     atom    4 type  3   force =    -0.00002803    0.00001560    0.53238694
     atom    5 type  3   force =     0.00002803   -0.00001560   -0.53238694
     atom    6 type  4   force =    -0.00001078    0.00000620    2.50361502
     atom    7 type  4   force =     0.00001077   -0.00000620   -2.50361502
     atom    8 type  4   force =     1.70920112    2.13578225    1.81533773
     atom    9 type  4   force =     0.99502564   -2.54806315    1.81530866
     atom   10 type  4   force =    -2.70425466    0.41229584    1.81535264
     atom   11 type  4   force =    -1.70920112   -2.13578225   -1.81533773
     atom   12 type  4   force =    -0.99502564    2.54806315   -1.81530866
     atom   13 type  4   force =     2.70425466   -0.41229584   -1.81535264
     The local contribution  to forces
     atom    1 type  1   force =     0.00033697    0.00117672    0.00040299
     atom    2 type  2   force =    -0.00000105   -0.00000472    0.40386510
     atom    3 type  2   force =    -0.00000497    0.00000239   -0.40386357
     atom    4 type  3   force =     0.00003041   -0.00001352   -0.48459222
     atom    5 type  3   force =    -0.00001966    0.00001537    0.48459319
     atom    6 type  4   force =     0.00000439   -0.00000602   -2.04493195
     atom    7 type  4   force =    -0.00001100    0.00000870    2.04494028
     atom    8 type  4   force =    -1.14302944   -1.73607634   -1.07315920
     atom    9 type  4   force =    -0.93195445    1.85790755   -1.07313123
     atom   10 type  4   force =     2.07501361   -0.12183991   -1.07318129
     atom   11 type  4   force =     1.14302887    1.73606661    1.07315573
     atom   12 type  4   force =     0.93195611   -1.85789455    1.07313191
     atom   13 type  4   force =    -2.07500835    0.12185083    1.07317008
     The core correction contribution to forces
     atom    1 type  1   force =     0.00000821    0.00003130    0.00001053
     atom    2 type  2   force =    -0.00000011    0.00000012   -0.00394696
     atom    3 type  2   force =     0.00000006    0.00000011    0.00394697
     atom    4 type  3   force =     0.00000101   -0.00000047    0.00897332
     atom    5 type  3   force =    -0.00000112    0.00000047   -0.00897335
     atom    6 type  4   force =    -0.00000006    0.00000003    0.00384515
     atom    7 type  4   force =    -0.00000009    0.00000012   -0.00384516
     atom    8 type  4   force =     0.00545187    0.00355230    0.00672874
     atom    9 type  4   force =     0.00035056   -0.00649754    0.00672882
     atom   10 type  4   force =    -0.00580225    0.00294517    0.00672869
     atom   11 type  4   force =    -0.00545186   -0.00355223   -0.00672870
     atom   12 type  4   force =    -0.00035048    0.00649756   -0.00672864
     atom   13 type  4   force =     0.00580219   -0.00294515   -0.00672868
     The Hubbard contrib.    to forces
     atom    1 type  1   force =     0.00000000    0.00000000    0.00000000
     atom    2 type  2   force =     0.00000000    0.00000000    0.00000000
     atom    3 type  2   force =     0.00000000    0.00000000    0.00000000
     atom    4 type  3   force =     0.00000000    0.00000000    0.00000000
     atom    5 type  3   force =     0.00000000    0.00000000    0.00000000
     atom    6 type  4   force =     0.00000000    0.00000000    0.00000000
     atom    7 type  4   force =     0.00000000    0.00000000    0.00000000
     atom    8 type  4   force =     0.00000000    0.00000000    0.00000000
     atom    9 type  4   force =     0.00000000    0.00000000    0.00000000
     atom   10 type  4   force =     0.00000000    0.00000000    0.00000000
     atom   11 type  4   force =     0.00000000    0.00000000    0.00000000
     atom   12 type  4   force =     0.00000000    0.00000000    0.00000000
     atom   13 type  4   force =     0.00000000    0.00000000    0.00000000
     The SCF correction term to forces
     atom    1 type  1   force =    -0.00003590   -0.00014579   -0.00004784
     atom    2 type  2   force =     0.00000401    0.00000291    0.00000109
     atom    3 type  2   force =     0.00000288    0.00000135   -0.00000420
     atom    4 type  3   force =    -0.00000587    0.00000018   -0.00000637
     atom    5 type  3   force =    -0.00000825   -0.00000145    0.00000439
     atom    6 type  4   force =     0.00000387    0.00000184   -0.00000178
     atom    7 type  4   force =     0.00000083    0.00000121   -0.00000870
     atom    8 type  4   force =    -0.00000573    0.00000517    0.00000156
     atom    9 type  4   force =     0.00000545    0.00000084    0.00000440
     atom   10 type  4   force =    -0.00000457   -0.00000678    0.00000862
     atom   11 type  4   force =     0.00000395    0.00000478    0.00000222
     atom   12 type  4   force =     0.00000111   -0.00000932    0.00000918
     atom   13 type  4   force =    -0.00000689    0.00000029    0.00000228

     Total force =     0.086506     Total SCF correction =     0.000160

     Computing stress (Cartesian axis) and pressure

          total   stress  (Ry/bohr**3)                   (kbar)     P=     -293.78
  -0.00194847   0.00000000   0.00000000         -286.63        0.00        0.00
   0.00000000  -0.00194847   0.00000000            0.00     -286.63        0.00
   0.00000000   0.00000000  -0.00209423            0.00        0.00     -308.07

     kinetic stress (kbar)  12409.73     -0.00      0.00
                               -0.00  12409.73      0.00
                                0.00     -0.00  12230.71

     local   stress (kbar)  -8765.97     -0.05     -0.00
                               -0.05  -8765.99      0.01
                               -0.00      0.01  -9231.90

     nonloc. stress (kbar)   2839.19     -0.00     -0.00
                               -0.00   2839.19     -0.00
                               -0.00     -0.00   2868.25

     hartree stress (kbar)   4262.82      0.01      0.00
                                0.01   4262.83     -0.00
                                0.00     -0.00   4424.68

     exc-cor stress (kbar)    -35.53      0.00     -0.00
                                0.00    -35.53      0.00
                               -0.00      0.00    -31.71

     corecor stress (kbar)  -2821.83     -0.00      0.00
                               -0.00  -2821.83     -0.00
                                0.00     -0.00  -2826.11

     ewald   stress (kbar)  -8175.04      0.04      0.00
                                0.04  -8175.04     -0.00
                                0.00     -0.00  -7742.01

     hubbard stress (kbar)      0.00      0.00      0.00
                                0.00      0.00      0.00
                                0.00      0.00      0.00

     DFT-D   stress (kbar)      0.00      0.00      0.00
                                0.00      0.00      0.00
                                0.00      0.00      0.00

     XDM     stress (kbar)      0.00      0.00      0.00
                                0.00      0.00      0.00
                                0.00      0.00      0.00

     dft-nl  stress (kbar)      0.00      0.00      0.00
                                0.00      0.00      0.00
                                0.00      0.00      0.00

     TS-vdW  stress (kbar)      0.00      0.00      0.00
                                0.00      0.00      0.00
                                0.00      0.00      0.00

[...]

                                0.00      0.00      0.00

     Writing all to output data dir new_calculations/myprefix.save/

     General routines

     Parallel routines

     PAW routines

   This run was terminated on:  15: 0:21  20May2023

   JOB DONE.