     Program PWSCF v.7.0 starts on 20May2023 at 14: 7:25

     Reading input from espresso_15219.pwi
Warning: card &CELL ignored
Warning: card / ignored

     Current dimensions of program PWSCF are:
     Max number of different atomic species (ntypx) = 10
     Max number of k-points (npk) =  40000
     Max angular momentum in pseudopotentials (lmaxx) =  4
     file O.pbe-n-kjpaw_psl.0.1.UPF: wavefunction(s)  2P renormalized

     gamma-point specific algorithms are used
     Message from routine setup:
     using ibrav=0 with symmetry is DISCOURAGED, use correct ibrav instead

     Subspace diagonalization in iterative solution of the eigenvalue problem:
     a serial algorithm will be used

     Using Slab Decomposition

     bravais-lattice index     =            0
     lattice parameter (alat)  =      12.6373  a.u.
     unit-cell volume          =    1099.5790 (a.u.)^3
     number of atoms/cell      =           12
     number of atomic types    =            3
     number of electrons       =       103.00
     number of Kohn-Sham states=           62
     kinetic-energy cutoff     =      30.0000  Ry
     charge density cutoff     =     240.0000  Ry
     scf convergence threshold =      1.0E-06
     mixing beta               =       0.7000
     number of iterations used =            8  plain     mixing
     Exchange-correlation= SLA  PW   PBX  PBC
                           (   1   4   3   4   0   0   0)

     celldm(1)=  12.637323  celldm(2)=   0.000000  celldm(3)=   0.000000
     celldm(4)=   0.000000  celldm(5)=   0.000000  celldm(6)=   0.000000

     crystal axes: (cart. coord. in units of alat)
               a(1) = (   1.000000   0.000000   0.000000 )
               a(2) = (   0.332518   0.943097   0.000000 )
               a(3) = (  -0.666259  -0.471548   0.577703 )

     reciprocal axes: (cart. coord. in units 2 pi/alat)
               b(1) = (  1.000000 -0.352581  0.865496 )
               b(2) = (  0.000000  1.060336  0.865496 )
               b(3) = (  0.000000  0.000000  1.730993 )

     PseudoPot. # 1 for Tb read from file:
     /home/pragov/projects/rrg-bengioy-ad/pragov/crystal_structure_design/SSSP/Tb.GGA-PBE-paw-v1.0.UPF
     MD5 check sum: f7bf3d58e9b293961564f5b9598c921e
     Pseudo is Projector augmented-wave + core cor, Zval = 19.0
     Generated using ATOMPAW code
     Shape of augmentation charge: BESSEL
     Using radial grid of 1111 points,  8 beta functions with:
                l(1) =   0
                l(2) =   0
                l(3) =   1
                l(4) =   1
                l(5) =   2
                l(6) =   2
                l(7) =   3
                l(8) =   3
     Q(r) pseudized with 0 coefficients

     PseudoPot. # 2 for Ce read from file:
     /home/pragov/projects/rrg-bengioy-ad/pragov/crystal_structure_design/SSSP/Ce.GGA-PBE-paw-v1.0.UPF
     MD5 check sum: f2b950f613061344c13339c8d844425d
     Pseudo is Projector augmented-wave + core cor, Zval = 12.0
     Generated using ATOMPAW code
     Shape of augmentation charge: BESSEL
     Using radial grid of 1102 points,  8 beta functions with:
                l(1) =   0
                l(2) =   0
                l(3) =   1
                l(4) =   1
                l(5) =   2
                l(6) =   2
                l(7) =   3
                l(8) =   3
     Q(r) pseudized with 0 coefficients

     PseudoPot. # 3 for O  read from file:
     /home/pragov/projects/rrg-bengioy-ad/pragov/crystal_structure_design/SSSP/O.pbe-n-kjpaw_psl.0.1.UPF
     MD5 check sum: 0234752ac141de4415c5fc33072bef88
     Pseudo is Projector augmented-wave + core cor, Zval =  6.0
     Generated using "atomic" code by A. Dal Corso  v.5.0.99 svn rev. 10869
     Shape of augmentation charge: BESSEL
     Using radial grid of 1095 points,  4 beta functions with:
                l(1) =   0
                l(2) =   0
                l(3) =   1
                l(4) =   1
     Q(r) pseudized with 0 coefficients

     atomic species   valence    mass     pseudopotential
        Tb            19.00   158.92535     Tb( 1.00)
        Ce            12.00   140.11600     Ce( 1.00)
        O              6.00    15.99900     O ( 1.00)

      4 Sym. Ops., with inversion, found

                                    s                        frac. trans.

      isym =  1     identity

 cryst.   s( 1) = (     1          0          0      )
                  (     0          1          0      )
                  (     0          0          1      )

 cart.    s( 1) = (  1.0000000  0.0000000 -0.0000000 )
                  (  0.0000000  1.0000000 -0.0000000 )
                  (  0.0000000  0.0000000  1.0000000 )

      isym =  2     180 deg rotation - cart. axis [0,0,1]

[...]

      isym =  3     inversion

[...]

      isym =  4     inv. 180 deg rotation - cart. axis [0,0,1]

 cryst.   s( 4) = (     1          0          0      )
                  (     0          1          0      )
                  (    -1         -1         -1      )

 cart.    s( 4) = (  1.0000000  0.0000000  0.0000000 )
                  (  0.0000000  1.0000000  0.0000000 )
                  (  0.0000000  0.0000000 -1.0000000 )

   Cartesian axes

     site n.     atom                  positions (alat units)
         1           Tb  tau(   1) = (   0.0000000   0.0000000   0.0000000  )
         2           Ce  tau(   2) = (   0.1662590   0.4715485   0.2888516  )
         3           Ce  tau(   3) = (   0.6662590   0.4715485   0.0000000  )
         4           Ce  tau(   4) = (   0.5000000   0.0000000   0.2888516  )
         5           O   tau(   5) = (   0.4986076   0.3528923   0.2867332  )
         6           O   tau(   6) = (   0.9995571   0.3561596   0.0000000  )
         7           O   tau(   7) = (  -0.1676514  -0.1186562   0.2909701  )
         8           O   tau(   8) = (   0.6682637   0.8242497   0.0000000  )
         9           O   tau(   9) = (   0.1676514   0.1186562   0.2909701  )
        10           O   tau(  10) = (   0.6642542   0.1188472   0.0000000  )
        11           O   tau(  11) = (   0.8339104   0.5902047   0.2867332  )
        12           O   tau(  12) = (   0.3329609   0.5869373   0.0000000  )

   Crystallographic axes

     site n.     atom                  positions (cryst. coord.)
         1           Tb  tau(   1) = (  0.0000000  0.0000000  0.0000000  )
         2           Ce  tau(   2) = (  0.2500000  0.7500000  0.5000000  )
         3           Ce  tau(   3) = (  0.5000000  0.5000000  0.0000000  )
         4           Ce  tau(   4) = (  0.7500000  0.2500000  0.5000000  )
         5           O   tau(   5) = (  0.6223510  0.6223510  0.4963330  )
         6           O   tau(   6) = (  0.8739820  0.3776490  0.0000000  )
         7           O   tau(   7) = (  0.1260180  0.1260180  0.5036670  )
         8           O   tau(   8) = (  0.3776490  0.8739820  0.0000000  )
         9           O   tau(   9) = (  0.3776490  0.3776490  0.5036670  )
        10           O   tau(  10) = (  0.6223510  0.1260180  0.0000000  )
        11           O   tau(  11) = (  0.8739820  0.8739820  0.4963330  )
        12           O   tau(  12) = (  0.1260180  0.6223510  0.0000000  )

     number of k points=     1  Methfessel-Paxton smearing, width (Ry)=  0.0010
                       cart. coord. in units 2pi/alat
        k(    1) = (   0.0000000   0.0000000   0.0000000), wk =   2.0000000

                       cryst. coord.
        k(    1) = (   0.0000000   0.0000000   0.0000000), wk =   2.0000000

     Check: negative core charge=   -0.000012

     Initial potential from superposition of free atoms

     starting charge     102.9746, renormalised to     103.0000
     Starting wfcs are  160 randomized atomic wfcs
     Checking if some PAW data can be deallocated...

     Self-consistent Calculation

     iteration #  1     ecut=    30.00 Ry     beta= 0.70
     Davidson diagonalization with overlap

     ethr =  1.00E-02,  avg # of iterations =  1.0

     total energy              =   -2503.82392146 Ry
     estimated scf accuracy    <       6.72532975 Ry

[...]

     total energy              =   -2508.92979878 Ry
     estimated scf accuracy    <       0.00000630 Ry

     iteration # 48     ecut=    30.00 Ry     beta= 0.70
     Davidson diagonalization with overlap

     ethr =  5.90E-09,  avg # of iterations =  1.0

     End of self-consistent calculation

          k = 0.0000 0.0000 0.0000 (  1497 PWs)   bands (ev):

   -31.7207 -21.8699 -21.6777 -21.6749  -9.2681  -9.0456  -9.0202  -7.4732
    -7.4642  -7.3601  -6.4070  -6.4039  -6.0884  -5.7282  -5.0199  -4.7304
    -4.4098  -4.4072  -4.3600  -3.0716  -3.0653  -2.4507  -2.4476  -1.6467
     6.5805   6.8448   6.8451   6.8552   7.4658   7.6935   7.8210   8.4053
     8.9300   8.9315   9.4396   9.4408   9.4529   9.4576   9.7205   9.7214
     9.7511   9.7684   9.7737   9.8389   9.8653   9.8883   9.8907   9.9297
    10.7003  10.8594  10.9483  10.9596  11.0018  11.2224  11.5831  12.5817
    12.6648  12.6963  12.6976  12.7152  12.7164  12.7180

     occupation numbers
     1.0000   1.0000   1.0000   1.0000   1.0000   1.0000   1.0000   1.0000
     1.0000   1.0000   1.0000   1.0000   1.0000   1.0000   1.0000   1.0000
     1.0000   1.0000   1.0000   1.0000   1.0000   1.0000   1.0000   1.0000
     1.0000   1.0000   1.0000   1.0000   1.0000   1.0000   1.0000   1.0000
     1.0000   1.0000   1.0000   1.0000   1.0000   1.0000   1.0000   1.0000
     1.0000   1.0000   1.0000   1.0000   1.0000   1.0000   1.0000   1.0000
     1.0000   1.0000   0.9978   0.5022  -0.0001  -0.0000  -0.0000  -0.0000
    -0.0000  -0.0000  -0.0000  -0.0000  -0.0000  -0.0000

     the Fermi energy is    10.9596 ev

!    total energy              =   -2508.92979872 Ry

     total all-electron energy =     -3379.704938 Ry
     estimated scf accuracy    <       0.00000059 Ry
     smearing contrib. (-TS)   =      -0.00022737 Ry
     internal energy E=F+TS    =   -2508.92957135 Ry

     The total energy is F=E-TS. E is the sum of the following terms:
     one-electron contribution =    -182.28188869 Ry
     hartree contribution      =     169.24123335 Ry
     xc contribution           =    -115.76162893 Ry
     ewald contribution        =    -605.71525633 Ry
     one-center paw contrib.   =   -1774.41203076 Ry
      -> PAW hartree energy AE =     577.58343099 Ry
      -> PAW hartree energy PS =    -563.13458681 Ry
      -> PAW xc energy AE      =   -1898.01038308 Ry
      -> PAW xc energy PS      =     109.14950815 Ry
      -> total E_H with PAW    =     183.69007753 Ry
      -> total E_XC with PAW   =   -1904.62250387 Ry

     convergence has been achieved in  48 iterations

     Forces acting on atoms (cartesian axes, Ry/au):

     atom    1 type  1   force =     0.00000000    0.00000000    0.00000000
     atom    2 type  2   force =     0.00000000    0.00000000   -0.00009847
     atom    3 type  2   force =     0.00000000    0.00000000    0.00000000
     atom    4 type  2   force =     0.00000000    0.00000000    0.00009847
     atom    5 type  3   force =     0.00992564    0.00697621    0.01139684
     atom    6 type  3   force =    -0.00291188   -0.01646905   -0.00000000
     atom    7 type  3   force =     0.00992564    0.00697621   -0.01139684
     atom    8 type  3   force =    -0.01653748    0.00282230   -0.00000000
     atom    9 type  3   force =    -0.00992564   -0.00697621   -0.01139684
     atom   10 type  3   force =     0.01653748   -0.00282230    0.00000000
     atom   11 type  3   force =    -0.00992564   -0.00697621    0.01139684
     atom   12 type  3   force =     0.00291188    0.01646905    0.00000000
     The non-local contrib.  to forces
     atom    1 type  1   force =     0.00000000    0.00000000    0.00000000
     atom    2 type  2   force =     0.00000000    0.00000000    0.00001835
     atom    3 type  2   force =     0.00000000    0.00000000    0.00000000
     atom    4 type  2   force =     0.00000000    0.00000000   -0.00001835
     atom    5 type  3   force =    -0.00188659   -0.00134554    0.02295209
     atom    6 type  3   force =     0.00386568   -0.02911239   -0.00000000
     atom    7 type  3   force =    -0.00188659   -0.00134554   -0.02295209
     atom    8 type  3   force =    -0.02614914    0.01330349   -0.00000000
     atom    9 type  3   force =     0.00188659    0.00134554   -0.02295209
     atom   10 type  3   force =     0.02614914   -0.01330349    0.00000000
     atom   11 type  3   force =     0.00188659    0.00134554    0.02295209
     atom   12 type  3   force =    -0.00386568    0.02911239    0.00000000
     The ionic contribution  to forces
     atom    1 type  1   force =     0.00000000   -0.00000000    0.00000000
     atom    2 type  2   force =    -0.00000000    0.00000000   -0.00000000
     atom    3 type  2   force =     0.00000000    0.00000000    0.00000000
     atom    4 type  2   force =    -0.00000000   -0.00000000   -0.00000000
     atom    5 type  3   force =    -1.35542623   -0.95931040   -2.12027648
     atom    6 type  3   force =     0.13053565    2.68997946    0.00000000
     atom    7 type  3   force =    -1.35542623   -0.95931040    2.12027648
     atom    8 type  3   force =     2.58031682   -0.77135866    0.00000000
     atom    9 type  3   force =     1.35542623    0.95931040    2.12027648
     atom   10 type  3   force =    -2.58031682    0.77135866    0.00000000
     atom   11 type  3   force =     1.35542623    0.95931040   -2.12027648
     atom   12 type  3   force =    -0.13053565   -2.68997946    0.00000000
     The local contribution  to forces
     atom    1 type  1   force =    -0.00000739    0.00002773    0.00016598
     atom    2 type  2   force =    -0.00001382    0.00010982   -0.00018715
     atom    3 type  2   force =    -0.00007316    0.00000288   -0.00010468
     atom    4 type  2   force =     0.00009639   -0.00002616    0.00019508
     atom    5 type  3   force =     1.36724025    0.96782957    2.10908049
     atom    6 type  3   force =    -0.13740814   -2.67789456    0.00016014
     atom    7 type  3   force =     1.36744022    0.96765266   -2.10909513
     atom    8 type  3   force =    -2.57142287    0.76102437   -0.00017203
     atom    9 type  3   force =    -1.36746489   -0.96762058   -2.10909036
     atom   10 type  3   force =     2.57138293   -0.76104088   -0.00014956
     atom   11 type  3   force =    -1.36721222   -0.96789161    2.10910453
     atom   12 type  3   force =     0.13737295    2.67795081    0.00014623
     The core correction contribution to forces
     atom    1 type  1   force =     0.00000000    0.00000000    0.00000000
     atom    2 type  2   force =     0.00000001    0.00000004   -0.00000001
     atom    3 type  2   force =    -0.00000005    0.00000003   -0.00000002
     atom    4 type  2   force =     0.00000002    0.00000001    0.00000001
     atom    5 type  3   force =    -0.00012420   -0.00008857   -0.00055013
     atom    6 type  3   force =    -0.00004975    0.00069888   -0.00000057
     atom    7 type  3   force =    -0.00012430   -0.00008737    0.00055005
     atom    8 type  3   force =     0.00064171   -0.00027849    0.00000037
     atom    9 type  3   force =     0.00012454    0.00008759    0.00055021
     atom   10 type  3   force =    -0.00064253    0.00027827    0.00000016
     atom   11 type  3   force =     0.00012411    0.00008782   -0.00055009
     atom   12 type  3   force =     0.00004907   -0.00069799   -0.00000029
     The Hubbard contrib.    to forces
     atom    1 type  1   force =     0.00000000    0.00000000    0.00000000
     atom    2 type  2   force =     0.00000000    0.00000000    0.00000000
     atom    3 type  2   force =     0.00000000    0.00000000    0.00000000
     atom    4 type  2   force =     0.00000000    0.00000000    0.00000000
     atom    5 type  3   force =     0.00000000    0.00000000    0.00000000
     atom    6 type  3   force =     0.00000000    0.00000000    0.00000000
     atom    7 type  3   force =     0.00000000    0.00000000    0.00000000
     atom    8 type  3   force =     0.00000000    0.00000000    0.00000000
     atom    9 type  3   force =     0.00000000    0.00000000    0.00000000
     atom   10 type  3   force =     0.00000000    0.00000000    0.00000000
     atom   11 type  3   force =     0.00000000    0.00000000    0.00000000
     atom   12 type  3   force =     0.00000000    0.00000000    0.00000000
     The SCF correction term to forces
     atom    1 type  1   force =    -0.00002584    0.00005827   -0.00018512
     atom    2 type  2   force =     0.00000134   -0.00009216    0.00007058
     atom    3 type  2   force =     0.00007989   -0.00001175    0.00010222
     atom    4 type  2   force =    -0.00009791    0.00001940   -0.00007803
     atom    5 type  3   force =     0.00012822   -0.00015179    0.00018378
     atom    6 type  3   force =     0.00011839   -0.00012289   -0.00018598
     atom    7 type  3   force =    -0.00007856    0.00009969   -0.00017819
     atom    8 type  3   force =     0.00006919    0.00012888    0.00020269
     atom    9 type  3   force =     0.00011979   -0.00011371   -0.00018282
     atom   10 type  3   force =    -0.00004205   -0.00011757    0.00016346
     atom   11 type  3   force =    -0.00016354    0.00017604    0.00017007
     atom   12 type  3   force =    -0.00013509    0.00010086   -0.00016060

     Total force =     0.047230     Total SCF correction =     0.000759

     Computing stress (Cartesian axis) and pressure

          total   stress  (Ry/bohr**3)                   (kbar)     P=     -370.98
  -0.00263798  -0.00017453  -0.00000000         -388.06      -25.67       -0.00
  -0.00017453  -0.00251648  -0.00000000          -25.67     -370.19       -0.00
  -0.00000000  -0.00000000  -0.00241111           -0.00       -0.00     -354.69

     kinetic stress (kbar)  20147.29    -34.64      0.00
                              -34.64  20171.37      0.00
                                0.00      0.00  20180.34

     local   stress (kbar)  -6413.60    187.09      0.18
                              187.09  -6543.12     -0.18
                                0.18     -0.18  -6694.19

     nonloc. stress (kbar)  10277.28    -35.09      0.00
                              -35.09  10300.41      0.00
                                0.00      0.00  10352.07

     hartree stress (kbar)   7496.23    -70.49     -0.07
                              -70.49   7545.26      0.05
                               -0.07      0.05   7600.13

     exc-cor stress (kbar)  -4343.24      0.21     -0.00
                                0.21  -4343.39      0.00
                               -0.00      0.00  -4343.81

     corecor stress (kbar)   -489.09      0.11      0.00
                                0.11   -489.17     -0.00
                                0.00     -0.00   -489.25

     ewald   stress (kbar) -27062.93    -72.86      0.00
                              -72.86 -27011.55      0.00
                                0.00      0.00 -26959.98

     hubbard stress (kbar)      0.00      0.00      0.00
                                0.00      0.00      0.00
                                0.00      0.00      0.00

     DFT-D   stress (kbar)      0.00      0.00      0.00
                                0.00      0.00      0.00
                                0.00      0.00      0.00

     XDM     stress (kbar)      0.00      0.00      0.00
                                0.00      0.00      0.00
                                0.00      0.00      0.00

     dft-nl  stress (kbar)      0.00      0.00      0.00
                                0.00      0.00      0.00
                                0.00      0.00      0.00

     TS-vdW  stress (kbar)      0.00      0.00      0.00
                                0.00      0.00      0.00
                                0.00      0.00      0.00

[...]

                                0.00      0.00      0.00

     Writing all to output data dir new_calculations/myprefix.save/

     General routines

     Parallel routines

     PAW routines

   This run was terminated on:  14:10:46  20May2023

   JOB DONE.