     Program PWSCF v.7.0 starts on 21May2023 at 19:42:10

     Reading input from espresso_23877.pwi
Warning: card &CELL ignored
Warning: card / ignored

     Current dimensions of program PWSCF are:
     Max number of different atomic species (ntypx) = 10
     Max number of k-points (npk) =  40000
     Max angular momentum in pseudopotentials (lmaxx) =  4
     file Ga.pbe-dn-kjpaw_psl.1.0.0.UPF: wavefunction(s)  4S renormalized

     gamma-point specific algorithms are used
     Message from routine setup:
     using ibrav=0 with symmetry is DISCOURAGED, use correct ibrav instead

     Subspace diagonalization in iterative solution of the eigenvalue problem:
     a serial algorithm will be used

     Using Slab Decomposition

     bravais-lattice index     =            0
     lattice parameter (alat)  =      11.4943  a.u.
     unit-cell volume          =    1703.3098 (a.u.)^3
     number of atoms/cell      =           12
     number of atomic types    =            3
     number of electrons       =       168.00
     number of Kohn-Sham states=          101
     kinetic-energy cutoff     =      30.0000  Ry
     charge density cutoff     =     240.0000  Ry
     scf convergence threshold =      1.0E-06
     mixing beta               =       0.7000
     number of iterations used =            8  plain     mixing
     Exchange-correlation=  SLA  PW   PBX  PBC
                           (   1   4   3   4   0   0   0)

     celldm(1)=  11.494310  celldm(2)=   0.000000  celldm(3)=   0.000000
     celldm(4)=   0.000000  celldm(5)=   0.000000  celldm(6)=   0.000000

     crystal axes: (cart. coord. in units of alat)
               a(1) = (   1.000000   0.000000   0.000000 )
               a(2) = (   0.000000   1.056395   0.000000 )
               a(3) = (  -0.714324   0.000000   1.061740 )

     reciprocal axes: (cart. coord. in units 2 pi/alat)
               b(1) = (  1.000000  0.000000  0.672785 )
               b(2) = (  0.000000  0.946615  0.000000 )
               b(3) = (  0.000000  0.000000  0.941850 )

     PseudoPot. # 1 for La read from file:
     /home/pragov/projects/rrg-bengioy-ad/pragov/crystal_structure_design/SSSP/La.GGA-PBE-paw-v1.0.UPF
     MD5 check sum: 436541e95c1ad8901025bd0b0ed42ae2
     Pseudo is Projector augmented-wave + core cor, Zval = 11.0
     Generated using ATOMPAW code
     Shape of augmentation charge: BESSEL
     Using radial grid of 1101 points,  8 beta functions with:
                l(1) =   0
                l(2) =   0
                l(3) =   1
                l(4) =   1
                l(5) =   2
                l(6) =   2
                l(7) =   3
                l(8) =   3
     Q(r) pseudized with 0 coefficients

     PseudoPot. # 2 for Ga read from file:
     /home/pragov/projects/rrg-bengioy-ad/pragov/crystal_structure_design/SSSP/Ga.pbe-dn-kjpaw_psl.1.0.0.UPF
     MD5 check sum: a27b4342b1af7e5f338de752e9ed7044
     Pseudo is Projector augmented-wave + core cor, Zval = 13.0
     Generated using "atomic" code by A. Dal Corso  v.5.1
     Shape of augmentation charge: PSQ
     Using radial grid of 1205 points,  6 beta functions with:
                l(1) =   0
                l(2) =   0
                l(3) =   1
                l(4) =   1
                l(5) =   2
                l(6) =   2
     Q(r) pseudized with 0 coefficients

     PseudoPot. # 3 for Ni read from file:
     /home/pragov/projects/rrg-bengioy-ad/pragov/crystal_structure_design/SSSP/ni_pbe_v1.4.uspp.F.UPF
     MD5 check sum: 1ee80287db30b12d2bc1f57a5b5d6409
     Pseudo is Ultrasoft + core correction, Zval = 18.0
     Generated by new atomic code, or converted to UPF format
     Using radial grid of  865 points,  6 beta functions with:
                l(1) =   0
                l(2) =   0
                l(3) =   1
                l(4) =   1
                l(5) =   2
                l(6) =   2
     Q(r) pseudized with 10 coefficients,  rinner =    0.980   0.980   0.980
                                                       0.980   0.980

     atomic species   valence    mass     pseudopotential
        La            11.00   138.90547     La( 1.00)
        Ga            13.00    69.72300     Ga( 1.00)
        Ni            18.00    58.69340     Ni( 1.00)

      4 Sym. Ops., with inversion, found ( 2 have fractional translation)

                                    s                        frac. trans.

      isym =  1     identity

 cryst.   s( 1) = (     1          0          0      )
                  (     0          1          0      )
                  (     0          0          1      )

 cart.    s( 1) = (  1.0000000  0.0000000  0.0000000 )
                  (  0.0000000  1.0000000  0.0000000 )
                  (  0.0000000  0.0000000  1.0000000 )

      isym =  2     180 deg rotation - cart. axis [0,1,0]

 cryst.   s( 2) = (    -1          0          0      )    f =( -0.0000000 )
                  (     0          1          0      )       (  0.5000000 )
                  (     0          0         -1      )       (  0.5000000 )

 cart.    s( 2) = ( -1.0000000  0.0000000 -0.0000000 )    f =( -0.3571618 )
                  (  0.0000000  1.0000000  0.0000000 )       (  0.5281977 )
                  (  0.0000000  0.0000000 -1.0000000 )       (  0.5308702 )

      isym =  3     inversion

 cryst.   s( 3) = (    -1          0          0      )
                  (     0         -1          0      )
                  (     0          0         -1      )

 cart.    s( 3) = ( -1.0000000  0.0000000 -0.0000000 )
                  (  0.0000000 -1.0000000  0.0000000 )
                  (  0.0000000  0.0000000 -1.0000000 )

      isym =  4     inv. 180 deg rotation - cart. axis [0,1,0]

 cryst.   s( 4) = (     1          0          0      )    f =( -0.0000000 )
                  (     0         -1          0      )       ( -0.5000000 )
                  (     0          0          1      )       (  0.5000000 )

 cart.    s( 4) = (  1.0000000  0.0000000  0.0000000 )    f =( -0.3571618 )
                  (  0.0000000 -1.0000000  0.0000000 )       ( -0.5281977 )
                  (  0.0000000  0.0000000  1.0000000 )       (  0.5308702 )

   Cartesian axes

     site n.     atom                  positions (alat units)
         1           La  tau(   1) = (   0.0604377   0.8996200   0.9729036  )
         2           La  tau(   2) = (  -0.1319229   0.3714223   0.6197071  )
         3           La  tau(   3) = (   0.2252388   0.1567754   0.0888369  )
         4           La  tau(   4) = (   0.4175994   0.6849732   0.4420333  )
         5           Ga  tau(   5) = (  -0.0620302   0.9113355   0.4474461  )
         6           Ga  tau(   6) = (   0.7048685   0.3831377   0.0834241  )
         7           Ga  tau(   7) = (   0.3477067   0.1450600   0.6142944  )
         8           Ga  tau(   8) = (  -0.4191920   0.6732577   0.9783163  )
         9           Ni  tau(   9) = (   0.6367215   0.0973247   0.3422584  )
        10           Ni  tau(  10) = (   0.0061167   0.6255224   0.1886118  )
        11           Ni  tau(  11) = (  -0.3510450   0.9590708   0.7194821  )
        12           Ni  tau(  12) = (   0.2795598   0.4308731   0.8731286  )

   Crystallographic axes

     site n.     atom                  positions (cryst. coord.)
         1           La  tau(   1) = (  0.7149930  0.8515940  0.9163290  )
         2           La  tau(   2) = (  0.2850070  0.3515940  0.5836710  )
         3           La  tau(   3) = (  0.2850070  0.1484060  0.0836710  )
         4           La  tau(   4) = (  0.7149930  0.6484060  0.4163290  )
         5           Ga  tau(   5) = (  0.2390050  0.8626840  0.4214270  )
         6           Ga  tau(   6) = (  0.7609950  0.3626840  0.0785730  )
         7           Ga  tau(   7) = (  0.7609950  0.1373160  0.5785730  )
         8           Ga  tau(   8) = (  0.2390050  0.6373160  0.9214270  )
         9           Ni  tau(   9) = (  0.8669880  0.0921290  0.3223560  )
        10           Ni  tau(  10) = (  0.1330120  0.5921290  0.1776440  )
        11           Ni  tau(  11) = (  0.1330120  0.9078710  0.6776440  )
        12           Ni  tau(  12) = (  0.8669880  0.4078710  0.8223560  )

     number of k points=     1  Methfessel-Paxton smearing, width (Ry)=  0.0010
                       cart. coord. in units 2pi/alat
        k(    1) = (   0.0000000   0.0000000   0.0000000), wk =   2.0000000

                       cryst. coord.
        k(    1) = (   0.0000000   0.0000000   0.0000000), wk =   2.0000000

     Check: negative core charge=   -0.000004

     Initial potential from superposition of free atoms

     starting charge     159.9541, renormalised to     168.0000
     Starting wfcs are  216 randomized atomic wfcs
     Checking if some PAW data can be deallocated...

     Self-consistent Calculation

     iteration #  1     ecut=    30.00 Ry     beta= 0.70
     Davidson diagonalization with overlap

     ethr =  1.00E-02,  avg # of iterations =  2.0

     total energy              =   -4193.89105575 Ry
     estimated scf accuracy    <     154.44075905 Ry

[...]

     negative rho (up, down):  9.066E-07 0.000E+00

[...]

     total energy              =   -4317.22636722 Ry
     estimated scf accuracy    <       0.00000422 Ry

     iteration # 35     ecut=    30.00 Ry     beta= 0.70
     Davidson diagonalization with overlap

     ethr =  7.41E-10,  avg # of iterations =  2.0

     End of self-consistent calculation

          k = 0.0000 0.0000 0.0000 (  2362 PWs)   bands (ev):

   -90.7746 -90.7724 -90.7719 -90.7692 -51.2188 -51.2163 -51.1923 -51.1826
   -51.1007 -51.0919 -51.0906 -51.0902 -51.0387 -51.0364 -51.0324 -51.0304
   -20.0558 -20.0010 -19.9443 -19.9397  -4.2233  -4.2078  -4.0386  -4.0112
    -3.9487  -3.8687  -3.7514  -3.7232  -3.6487  -3.5958  -3.5000  -3.4951
    -1.9339  -1.9221  -1.9212  -1.9185  -1.9165  -1.9100  -1.9094  -1.9029
    -1.9015  -1.8960  -1.8898  -1.8882  -1.8730  -1.8729  -1.8653  -1.8606
    -1.8568  -1.8568  -1.8341  -1.8313   4.3858   5.9454   6.3631   6.3757
     8.7966   9.5624   9.8293   9.8634  10.0184  10.0487  10.2345  10.3271
    10.4184  10.5150  10.5906  10.6538  10.7365  10.7510  10.7518  10.7718
    10.8723  10.9211  10.9424  11.0644  11.1064  11.2260  11.4622  11.4771
    12.1273  12.1576  12.5656  12.6076  12.6109  12.6812  12.9906  13.0972
    13.4016  13.6478  14.0550  14.1338  14.3616  14.5325  14.5553  14.6209
    14.6417  14.7181  14.7729  14.7797  14.7864

     occupation numbers
     1.0000   1.0000   1.0000   1.0000   1.0000   1.0000   1.0000   1.0000
     1.0000   1.0000   1.0000   1.0000   1.0000   1.0000   1.0000   1.0000
     1.0000   1.0000   1.0000   1.0000   1.0000   1.0000   1.0000   1.0000
     1.0000   1.0000   1.0000   1.0000   1.0000   1.0000   1.0000   1.0000
     1.0000   1.0000   1.0000   1.0000   1.0000   1.0000   1.0000   1.0000
     1.0000   1.0000   1.0000   1.0000   1.0000   1.0000   1.0000   1.0000
     1.0000   1.0000   1.0000   1.0000   1.0000   1.0000   1.0000   1.0000
     1.0000   1.0000   1.0000   1.0000   1.0000   1.0000   1.0000   1.0000
     1.0000   1.0000   1.0000   1.0000   1.0000   1.0000   1.0000   1.0000
     1.0000   1.0000   1.0000   1.0000   1.0000   1.0000   1.0000   1.0000
     1.0000   1.0000   1.0000   0.6009   0.3991  -0.0000  -0.0000  -0.0000
    -0.0000  -0.0000  -0.0000  -0.0000  -0.0000  -0.0000  -0.0000  -0.0000
    -0.0000  -0.0000  -0.0000  -0.0000  -0.0000

     the Fermi energy is    12.6093 ev

!    total energy              =   -4317.22636707 Ry
     estimated scf accuracy    <       0.00000046 Ry
     smearing contrib. (-TS)   =      -0.00053984 Ry
     internal energy E=F+TS    =   -4317.22582723 Ry

     The total energy is F=E-TS. E is the sum of the following terms:
     one-electron contribution =   -1664.20445254 Ry
     hartree contribution      =     951.62393561 Ry
     xc contribution           =    -329.78332226 Ry
     ewald contribution        =   -1238.84754433 Ry
     one-center paw contrib.   =   -2036.01444371 Ry
      -> PAW hartree energy AE =     709.37401142 Ry
      -> PAW hartree energy PS =    -700.52740687 Ry
      -> PAW xc energy AE      =   -2225.11940379 Ry
      -> PAW xc energy PS      =     180.25835553 Ry
      -> total E_H with PAW    =     960.47054016 Ry
      -> total E_XC with PAW   =   -2374.64437053 Ry

     convergence has been achieved in  35 iterations

     Forces acting on atoms (cartesian axes, Ry/au):

     atom    1 type  1   force =     0.01186041   -0.01763320   -0.01273445
     atom    2 type  1   force =    -0.01186041   -0.01763320    0.01273445
     atom    3 type  1   force =    -0.01186041    0.01763320    0.01273445
     atom    4 type  1   force =     0.01186041    0.01763320   -0.01273445
     atom    5 type  2   force =     0.02663129    0.02611738   -0.01534844
     atom    6 type  2   force =    -0.02663129    0.02611738    0.01534844
     atom    7 type  2   force =    -0.02663129   -0.02611738    0.01534844
     atom    8 type  2   force =     0.02663129   -0.02611738   -0.01534844
     atom    9 type  3   force =     0.00096467   -0.01635604   -0.01508273
     atom   10 type  3   force =    -0.00096467   -0.01635604    0.01508273
     atom   11 type  3   force =    -0.00096467    0.01635604    0.01508273
     atom   12 type  3   force =     0.00096467    0.01635604   -0.01508273
     The non-local contrib.  to forces
     atom    1 type  1   force =    -0.01944705   -0.05994200    0.00098638
     atom    2 type  1   force =     0.01944705   -0.05994200   -0.00098638
     atom    3 type  1   force =     0.01944705    0.05994200   -0.00098638
     atom    4 type  1   force =    -0.01944705    0.05994200    0.00098638
     atom    5 type  2   force =     0.03649714   -0.15828945    0.23903003
     atom    6 type  2   force =    -0.03649714   -0.15828945   -0.23903003
     atom    7 type  2   force =    -0.03649714    0.15828945   -0.23903003
     atom    8 type  2   force =     0.03649714    0.15828945    0.23903003
     atom    9 type  3   force =    -0.04147903    0.17129358   -0.03940528
     atom   10 type  3   force =     0.04147903    0.17129358    0.03940528
     atom   11 type  3   force =     0.04147903   -0.17129358    0.03940528
     atom   12 type  3   force =    -0.04147903   -0.17129358   -0.03940528
     The ionic contribution  to forces
     atom    1 type  1   force =    -2.13843006    4.51214094   -3.58797696
     atom    2 type  1   force =     2.13843006    4.51214094    3.58797696
     atom    3 type  1   force =     2.13843006   -4.51214094    3.58797696
     atom    4 type  1   force =    -2.13843006   -4.51214094   -3.58797696
     atom    5 type  2   force =    15.39405857   -0.60552914    3.54301031
     atom    6 type  2   force =   -15.39405857   -0.60552914   -3.54301032
     atom    7 type  2   force =   -15.39405856    0.60552914   -3.54301032
     atom    8 type  2   force =    15.39405857    0.60552914    3.54301032
     atom    9 type  3   force =    -4.78386702    2.30232264  -16.14014951
     atom   10 type  3   force =     4.78386702    2.30232264   16.14014951
     atom   11 type  3   force =     4.78386702   -2.30232264   16.14014951
     atom   12 type  3   force =    -4.78386702   -2.30232264  -16.14014951
     The local contribution  to forces
     atom    1 type  1   force =     2.16948870   -4.47004657    3.57440115
     atom    2 type  1   force =    -2.16950458   -4.46997019   -3.57426655
     atom    3 type  1   force =    -2.16935748    4.46988020   -3.57438364
     atom    4 type  1   force =     2.16976745    4.47012867    3.57433390
     atom    5 type  2   force =   -15.40307785    0.78834958   -3.79372511
     atom    6 type  2   force =    15.40250997    0.78844978    3.79384301
     atom    7 type  2   force =    15.40273106   -0.78856413    3.79386756
     atom    8 type  2   force =   -15.40260314   -0.78819153   -3.79389842
     atom    9 type  3   force =     4.82437618   -2.48896385   16.16304488
     atom   10 type  3   force =    -4.82466498   -2.48797547  -16.16335497
     atom   11 type  3   force =    -4.82385016    2.48830454  -16.16342286
     atom   12 type  3   force =     4.82400501    2.48868968   16.16308494
     The core correction contribution to forces
     atom    1 type  1   force =     0.00010319    0.00003552    0.00000340
     atom    2 type  1   force =    -0.00010308    0.00003558   -0.00000338
     atom    3 type  1   force =    -0.00010309   -0.00003556   -0.00000341
     atom    4 type  1   force =     0.00010319   -0.00003553    0.00000337
     atom    5 type  2   force =    -0.00130956    0.00153980   -0.00363309
     atom    6 type  2   force =     0.00130826    0.00154044    0.00363140
     atom    7 type  2   force =     0.00130827   -0.00154016    0.00363207
     atom    8 type  2   force =    -0.00130896   -0.00153991   -0.00363228
     atom    9 type  3   force =     0.00201856   -0.00184281    0.00127623
     atom   10 type  3   force =    -0.00202094   -0.00183581   -0.00127559
     atom   11 type  3   force =    -0.00201985    0.00183744   -0.00127514
     atom   12 type  3   force =     0.00201985    0.00184150    0.00127695
     The Hubbard contrib.    to forces
     atom    1 type  1   force =     0.00000000    0.00000000    0.00000000
     atom    2 type  1   force =     0.00000000    0.00000000    0.00000000
     atom    3 type  1   force =     0.00000000    0.00000000    0.00000000
     atom    4 type  1   force =     0.00000000    0.00000000    0.00000000
     atom    5 type  2   force =     0.00000000    0.00000000    0.00000000
     atom    6 type  2   force =     0.00000000    0.00000000    0.00000000
     atom    7 type  2   force =     0.00000000    0.00000000    0.00000000
     atom    8 type  2   force =     0.00000000    0.00000000    0.00000000
     atom    9 type  3   force =     0.00000000    0.00000000    0.00000000
     atom   10 type  3   force =     0.00000000    0.00000000    0.00000000
     atom   11 type  3   force =     0.00000000    0.00000000    0.00000000
     atom   12 type  3   force =     0.00000000    0.00000000    0.00000000
     The SCF correction term to forces
     atom    1 type  1   force =     0.00019480    0.00016819   -0.00010785
     atom    2 type  1   force =    -0.00008229    0.00011554    0.00003238
     atom    3 type  1   force =    -0.00021066   -0.00005165    0.00014336
     atom    4 type  1   force =    -0.00006842   -0.00021945   -0.00009067
     atom    5 type  2   force =     0.00046450    0.00005714   -0.00004106
     atom    6 type  2   force =     0.00008056   -0.00006559   -0.00007655
     atom    7 type  2   force =    -0.00011974    0.00016359   -0.00012539
     atom    8 type  2   force =    -0.00004425   -0.00020059    0.00014690
     atom    9 type  3   force =    -0.00011699    0.00073911    0.00015780
     atom   10 type  3   force =     0.00041413   -0.00007325    0.00013655
     atom   11 type  3   force =    -0.00046382   -0.00021854    0.00020659
     atom   12 type  3   force =     0.00033466   -0.00051764    0.00006201

     Total force =     0.104625     Total SCF correction =     0.001434

     Computing stress (Cartesian axis) and pressure

          total   stress  (Ry/bohr**3)                   (kbar)     P=     -344.74
  -0.00279302   0.00000000   0.00021867         -410.87        0.00       32.17
   0.00000000  -0.00212446   0.00000000            0.00     -312.52        0.00
   0.00021867   0.00000000  -0.00211292           32.17        0.00     -310.82

     kinetic stress (kbar)  18575.51      0.00     16.73
                                0.00  18603.35      0.00
                               16.73      0.00  18514.32

     local   stress (kbar)  -8392.87      0.05   9617.51
                                0.05  -9804.17      0.03
                             9617.51      0.03 -19563.12

     nonloc. stress (kbar)   9453.12      0.00    -54.62
                                0.00   9525.10      0.00
                              -54.62      0.00   9447.81

     hartree stress (kbar)  25403.68     -0.04  -4899.46
                               -0.04  26256.18     -0.02
                            -4899.46     -0.02  30526.43

     exc-cor stress (kbar)  -1870.00     -0.00     -0.04
                               -0.00  -1872.54     -0.00
                               -0.04     -0.00  -1872.64

     corecor stress (kbar)  -5657.64      0.00      0.76
                                0.00  -5657.81     -0.00
                                0.76     -0.00  -5656.79

     ewald   stress (kbar) -37922.66      0.00  -4648.72
                                0.00 -37362.65     -0.00
                            -4648.72     -0.00 -31706.83

     hubbard stress (kbar)      0.00      0.00      0.00
                                0.00      0.00      0.00
                                0.00      0.00      0.00

     DFT-D   stress (kbar)      0.00      0.00      0.00
                                0.00      0.00      0.00
                                0.00      0.00      0.00

     XDM     stress (kbar)      0.00      0.00      0.00
                                0.00      0.00      0.00
                                0.00      0.00      0.00

     dft-nl  stress (kbar)      0.00      0.00      0.00
                                0.00      0.00      0.00
                                0.00      0.00      0.00

     TS-vdW  stress (kbar)      0.00      0.00      0.00
                                0.00      0.00      0.00
                                0.00      0.00      0.00

[...]

                                0.00      0.00      0.00

     Writing all to output data dir new_calculations/myprefix.save/

     General routines

     Parallel routines

     PAW routines

   This run was terminated on:  19:44:45  21May2023

   JOB DONE.