     Program PWSCF v.7.0 starts on 20May2023 at 13:38:21

     Reading input from espresso_9411.pwi
Warning: card &CELL ignored
Warning: card / ignored

     Current dimensions of program PWSCF are:
     Max number of different atomic species (ntypx) = 10
     Max number of k-points (npk) =  40000
     Max angular momentum in pseudopotentials (lmaxx) =  4
     file Ba.pbe-spn-kjpaw_psl.1.0.0.UPF: wavefunction(s)  5S 6S renormalized
     file O.pbe-n-kjpaw_psl.0.1.UPF: wavefunction(s)  2P renormalized

     gamma-point specific algorithms are used
     Message from routine setup:
     using ibrav=0 with symmetry is DISCOURAGED, use correct ibrav instead

     Subspace diagonalization in iterative solution of the eigenvalue problem:
     a serial algorithm will be used

     Using Slab Decomposition

     bravais-lattice index     =            0
     lattice parameter (alat)  =      10.9697  a.u.
     unit-cell volume          =     933.4039 (a.u.)^3
     number of atoms/cell      =           10
     number of atomic types    =            4
     number of electrons       =        75.00
     number of Kohn-Sham states=           46
     kinetic-energy cutoff     =      30.0000  Ry
     charge density cutoff     =     240.0000  Ry
     scf convergence threshold =      1.0E-06
     mixing beta               =       0.7000
     number of iterations used =            8  plain     mixing
     Exchange-correlation= SLA  PW   PBX  PBC
                           (   1   4   3   4   0   0   0)

     celldm(1)=  10.969703  celldm(2)=   0.000000  celldm(3)=   0.000000
     celldm(4)=   0.000000  celldm(5)=   0.000000  celldm(6)=   0.000000

     crystal axes: (cart. coord. in units of alat)
               a(1) = (   1.000000   0.000000   0.000000 )
               a(2) = (   0.500000   0.866025   0.000000 )
               a(3) = (   0.500000   0.288675   0.816497 )

     reciprocal axes: (cart. coord. in units 2 pi/alat)
               b(1) = (  1.000000 -0.577350 -0.408248 )
               b(2) = (  0.000000  1.154701 -0.408248 )
               b(3) = (  0.000000  0.000000  1.224745 )

     PseudoPot. # 1 for Ba read from file:
     /home/pragov/projects/rrg-bengioy-ad/pragov/crystal_structure_design/SSSP/Ba.pbe-spn-kjpaw_psl.1.0.0.UPF
     MD5 check sum: c432291d3e53af55f19d5e8866385beb
     Pseudo is Projector augmented-wave + core cor, Zval = 10.0
     Generated using "atomic" code by A. Dal Corso  v.5.1
     Shape of augmentation charge: PSQ
     Using radial grid of 1251 points,  7 beta functions with:
                l(1) =   0
                l(2) =   0
                l(3) =   0
                l(4) =   1
                l(5) =   1
                l(6) =   2
                l(7) =   2
     Q(r) pseudized with 0 coefficients

     PseudoPot. # 2 for Li read from file:
     /home/pragov/projects/rrg-bengioy-ad/pragov/crystal_structure_design/SSSP/li_pbe_v1.4.uspp.F.UPF
     MD5 check sum: e912e257baa3777c20ea3d68f190483c
     Pseudo is Ultrasoft, Zval =  3.0
     Generated by new atomic code, or converted to UPF format
     Using radial grid of  751 points,  5 beta functions with:
                l(1) =   0
                l(2) =   0
                l(3) =   0
                l(4) =   1
                l(5) =   1
     Q(r) pseudized with 10 coefficients,  rinner =    1.150   1.150   1.150

     PseudoPot. # 3 for Os read from file:
     /home/pragov/projects/rrg-bengioy-ad/pragov/crystal_structure_design/SSSP/Os_pbe_v1.2.uspp.F.UPF
     MD5 check sum: a3fb40a04f0c37c25c34bbc47164c9a8
     Pseudo is Ultrasoft + core correction, Zval = 16.0
     Generated by new atomic code, or converted to UPF format
     Using radial grid of  983 points,  8 beta functions with:
                l(1) =   0
                l(2) =   0
                l(3) =   1
                l(4) =   1
                l(5) =   2
                l(6) =   2
                l(7) =   3
                l(8) =   3
     Q(r) pseudized with  8 coefficients,  rinner =    1.150   1.150   1.150
                                                       1.150   1.150   1.150
                                                       1.150

     PseudoPot. # 4 for O  read from file:
     /home/pragov/projects/rrg-bengioy-ad/pragov/crystal_structure_design/SSSP/O.pbe-n-kjpaw_psl.0.1.UPF
     MD5 check sum: 0234752ac141de4415c5fc33072bef88
     Pseudo is Projector augmented-wave + core cor, Zval =  6.0
     Generated using "atomic" code by A. Dal Corso  v.5.0.99 svn rev. 10869
     Shape of augmentation charge: BESSEL
     Using radial grid of 1095 points,  4 beta functions with:
                l(1) =   0
                l(2) =   0
                l(3) =   1
                l(4) =   1
     Q(r) pseudized with 0 coefficients

     atomic species   valence    mass     pseudopotential
        Ba            10.00   137.32700     Ba( 1.00)
        Li             3.00     6.94000     Li( 1.00)
        Os            16.00   190.23000     Os( 1.00)
        O              6.00    15.99900     O ( 1.00)

     12 Sym. Ops., with inversion, found

                                    s                        frac. trans.

      isym =  1     identity

 cryst.   s( 1) = (     1          0          0      )
                  (     0          1          0      )
                  (     0          0          1      )

 cart.    s( 1) = (  1.0000000  0.0000000  0.0000000 )
                  (  0.0000000  1.0000000  0.0000000 )
                  (  0.0000000  0.0000000  1.0000000 )

      isym =  2     180 deg rotation - cart. axis [1,0,0]

[...]

      isym =  3     120 deg rotation - cryst. axis [0,0,1]

[...]

      isym =  6     180 deg rotation - cryst. axis [1,1,0]

[...]

      isym =  7     inversion

[...]

      isym =  8     inv. 180 deg rotation - cart. axis [1,0,0]

[...]

      isym =  9     inv. 120 deg rotation - cryst. axis [0,0,1]

 cryst.   s( 9) = (     1         -1          0      )
                  (     1          0          0      )
                  (     1          0         -1      )

 cart.    s( 9) = (  0.5000000  0.8660254  0.0000000 )
                  ( -0.8660254  0.5000000  0.0000000 )
                  (  0.0000000  0.0000000 -1.0000000 )

[...]

 cryst.   s(10) = (     0          1          0      )
                  (    -1          1          0      )
                  (     0          1         -1      )

 cart.    s(10) = (  0.5000000 -0.8660254 -0.0000000 )
                  (  0.8660254  0.5000000  0.0000000 )
                  (  0.0000000  0.0000000 -1.0000000 )

[...]

      isym = 12     inv. 180 deg rotation - cryst. axis [1,1,0]

 cryst.   s(12) = (     1         -1          0      )
                  (     0         -1          0      )
                  (     0         -1          1      )

 cart.    s(12) = (  0.5000000 -0.8660254 -0.0000000 )
                  ( -0.8660254 -0.5000000 -0.0000000 )
                  (  0.0000000  0.0000000  1.0000000 )

   Cartesian axes

     site n.     atom                  positions (alat units)
         1           Ba  tau(   1) = (   1.5000000   0.8660254   0.6123724  )
         2           Ba  tau(   2) = (   0.5000000   0.2886751   0.2041241  )
         3           Li  tau(   3) = (   1.0000000   0.5773503   0.4082483  )
         4           Os  tau(   4) = (   0.0000000   0.0000000   0.0000000  )
         5           O   tau(   5) = (   0.7331830   0.7313971   0.1903931  )
         6           O   tau(   6) = (   1.2668170   0.7313971   0.1903931  )
         7           O   tau(   7) = (   1.2668170   0.4233034   0.6261035  )
         8           O   tau(   8) = (   0.7331830   0.4233034   0.6261035  )
         9           O   tau(   9) = (   1.0000000   0.8854440   0.6261035  )
        10           O   tau(  10) = (   1.0000000   0.2692565   0.1903931  )

   Crystallographic axes

     site n.     atom                  positions (cryst. coord.)
         1           Ba  tau(   1) = (  0.7500000  0.7500000  0.7500000  )
         2           Ba  tau(   2) = (  0.2500000  0.2500000  0.2500000  )
         3           Li  tau(   3) = (  0.5000000  0.5000000  0.5000000  )
         4           Os  tau(   4) = (  0.0000000  0.0000000  0.0000000  )
         5           O   tau(   5) = (  0.2331830  0.7668170  0.2331830  )
         6           O   tau(   6) = (  0.7668170  0.7668170  0.2331830  )
         7           O   tau(   7) = (  0.7668170  0.2331830  0.7668170  )
         8           O   tau(   8) = (  0.2331830  0.2331830  0.7668170  )
         9           O   tau(   9) = (  0.2331830  0.7668170  0.7668170  )
        10           O   tau(  10) = (  0.7668170  0.2331830  0.2331830  )

     number of k points=     1  Methfessel-Paxton smearing, width (Ry)=  0.0010
                       cart. coord. in units 2pi/alat
        k(    1) = (   0.0000000   0.0000000   0.0000000), wk =   2.0000000

                       cryst. coord.
        k(    1) = (   0.0000000   0.0000000   0.0000000), wk =   2.0000000

     Check: negative core charge=   -0.000010

     Initial potential from superposition of free atoms

     starting charge      74.0152, renormalised to      75.0000

     negative rho (up, down):  1.263E-01 0.000E+00
     Starting wfcs are   52 randomized atomic wfcs
     Checking if some PAW data can be deallocated...

     Self-consistent Calculation

     iteration #  1     ecut=    30.00 Ry     beta= 0.70
     Davidson diagonalization with overlap

     ethr =  1.00E-02,  avg # of iterations =  5.0
     Minimization algorithm failed to find Fermi energy: reverting to bisection
     Possible cause: smearing is larger than the electronic band-gap.

     negative rho (up, down):  1.492E-01 0.000E+00

     total energy              =   -1332.65501459 Ry
     estimated scf accuracy    <       4.13146461 Ry

[...]

     ethr =  5.51E-03,  avg # of iterations =  5.0

[...]

     ethr =  2.48E-06,  avg # of iterations =  1.0

[...]

     total energy              =   -1335.16627384 Ry
     estimated scf accuracy    <       0.00000102 Ry

     iteration # 33     ecut=    30.00 Ry     beta= 0.70
     Davidson diagonalization with overlap

     ethr =  1.36E-09,  avg # of iterations =  2.0
     Minimization algorithm failed to find Fermi energy: reverting to bisection
     Possible cause: smearing is larger than the electronic band-gap.

[...]

     End of self-consistent calculation

          k = 0.0000 0.0000 0.0000 (  1319 PWs)   bands (ev):

   -78.1599 -37.4123 -37.4122 -37.4121 -34.2587 -16.9471 -16.7890  -8.0268
    -7.2398  -7.2398  -6.7897  -6.7897  -6.7896  -2.4925  -2.4925  -2.4925
    -1.9872  -1.9872  -1.9872   4.4974   4.7985   4.7985   5.1320   5.1320
     5.1320   6.7874   6.7874   6.7874   8.2787   8.2788   8.2788   9.0172
     9.0172   9.0172   9.4044   9.4044   9.4045  10.9840  10.9840  10.9841
    13.5721  13.5721  15.1507  15.1507  15.1507  15.4877

     occupation numbers
     1.0000   1.0000   1.0000   1.0000   1.0000   1.0000   1.0000   1.0000
     1.0000   1.0000   1.0000   1.0000   1.0000   1.0000   1.0000   1.0000
     1.0000   1.0000   1.0000   1.0000   1.0000   1.0000   1.0000   1.0000
     1.0000   1.0000   1.0000   1.0000   1.0000   1.0000   1.0000   1.0000
     1.0000   1.0000   1.0000   1.0000   1.0000   0.1677   0.1672   0.1651
    -0.0000  -0.0000  -0.0000  -0.0000  -0.0000  -0.0000

     the Fermi energy is    10.9781 ev

!    total energy              =   -1335.16627354 Ry
     estimated scf accuracy    <       0.00000065 Ry
     smearing contrib. (-TS)   =      -0.00043272 Ry
     internal energy E=F+TS    =   -1335.16584082 Ry

     The total energy is F=E-TS. E is the sum of the following terms:
     one-electron contribution =    -179.45977028 Ry
     hartree contribution      =     133.42162634 Ry
     xc contribution           =    -126.36407549 Ry
     ewald contribution        =    -355.75944648 Ry
     one-center paw contrib.   =    -807.00417492 Ry
      -> PAW hartree energy AE =     235.71348915 Ry
      -> PAW hartree energy PS =    -234.78540560 Ry
      -> PAW xc energy AE      =    -891.58788626 Ry
      -> PAW xc energy PS      =      83.65562779 Ry
      -> total E_H with PAW    =     134.34970989 Ry
      -> total E_XC with PAW   =    -934.29633395 Ry

     convergence has been achieved in  33 iterations

     negative rho (up, down):  1.346E-01 0.000E+00

     Forces acting on atoms (cartesian axes, Ry/au):

     atom    1 type  1   force =    -0.00000000    0.00000000    0.00005165
     atom    2 type  1   force =     0.00000000    0.00000000   -0.00005165
     atom    3 type  2   force =     0.00000000    0.00000000   -0.00000000
     atom    4 type  3   force =    -0.00000000   -0.00000000   -0.00000000
     atom    5 type  4   force =    -0.04597232    0.02654213   -0.03750739
     atom    6 type  4   force =     0.04597232    0.02654213   -0.03750739
     atom    7 type  4   force =     0.04597232   -0.02654213    0.03750739
     atom    8 type  4   force =    -0.04597232   -0.02654213    0.03750739
     atom    9 type  4   force =     0.00000000    0.05308426    0.03750739
     atom   10 type  4   force =     0.00000000   -0.05308426   -0.03750739
     The non-local contrib.  to forces
     atom    1 type  1   force =    -0.00000000    0.00000000   -0.00009581
     atom    2 type  1   force =     0.00000000    0.00000000    0.00009581
     atom    3 type  2   force =     0.00000000    0.00000000   -0.00000000
     atom    4 type  3   force =     0.00000000   -0.00000000   -0.00000000
     atom    5 type  4   force =    -0.47317663    0.27318865   -0.38634206
     atom    6 type  4   force =     0.47317663    0.27318865   -0.38634206
     atom    7 type  4   force =     0.47317663   -0.27318865    0.38634206
     atom    8 type  4   force =    -0.47317663   -0.27318865    0.38634206
     atom    9 type  4   force =     0.00000000    0.54637731    0.38634206
     atom   10 type  4   force =     0.00000000   -0.54637731   -0.38634206
     The ionic contribution  to forces
     atom    1 type  1   force =    -0.00000000   -0.00000000    0.00000000
     atom    2 type  1   force =     0.00000000    0.00000000    0.00000000
     atom    3 type  2   force =     0.00000000    0.00000000   -0.00000000
     atom    4 type  3   force =    -0.00000000    0.00000000   -0.00000000
     atom    5 type  4   force =     8.57708736   -4.95198370    7.00316251
     atom    6 type  4   force =    -8.57708736   -4.95198370    7.00316251
     atom    7 type  4   force =    -8.57708736    4.95198370   -7.00316251
     atom    8 type  4   force =     8.57708736    4.95198370   -7.00316251
     atom    9 type  4   force =    -0.00000000   -9.90396739   -7.00316250
     atom   10 type  4   force =     0.00000000    9.90396739    7.00316250
     The local contribution  to forces
     atom    1 type  1   force =     0.00000904    0.00006281    0.00025040
     atom    2 type  1   force =     0.00017186   -0.00072639   -0.00008459
     atom    3 type  2   force =    -0.00000598   -0.00000075   -0.00000834
     atom    4 type  3   force =     0.00003637   -0.00002081    0.00004885
     atom    5 type  4   force =    -8.15372037    4.70754661   -6.65748206
     atom    6 type  4   force =     8.15364256    4.70745209   -6.65745233
     atom    7 type  4   force =     8.15371716   -4.70754968    6.65748501
     atom    8 type  4   force =    -8.15363558   -4.70745520    6.65745629
     atom    9 type  4   force =    -0.00004133    9.41496982    6.65745173
     atom   10 type  4   force =     0.00004554   -9.41497661   -6.65744815
     The core correction contribution to forces
     atom    1 type  1   force =     0.00000593   -0.00000293    0.00000936
     atom    2 type  1   force =     0.00000044   -0.00001809   -0.00000221
     atom    3 type  2   force =     0.00000000    0.00000000    0.00000000
     atom    4 type  3   force =     0.00000045    0.00000034    0.00000081
     atom    5 type  4   force =     0.00383226   -0.00221251    0.00312904
     atom    6 type  4   force =    -0.00383253   -0.00221250    0.00312932
     atom    7 type  4   force =    -0.00383236    0.00221262   -0.00312914
     atom    8 type  4   force =     0.00383248    0.00221257   -0.00312934
     atom    9 type  4   force =     0.00000010   -0.00442534   -0.00312944
     atom   10 type  4   force =    -0.00000012    0.00442522    0.00312922
     The Hubbard contrib.    to forces
     atom    1 type  1   force =     0.00000000    0.00000000    0.00000000
     atom    2 type  1   force =     0.00000000    0.00000000    0.00000000
     atom    3 type  2   force =     0.00000000    0.00000000    0.00000000
     atom    4 type  3   force =     0.00000000    0.00000000    0.00000000
     atom    5 type  4   force =     0.00000000    0.00000000    0.00000000
     atom    6 type  4   force =     0.00000000    0.00000000    0.00000000
     atom    7 type  4   force =     0.00000000    0.00000000    0.00000000
     atom    8 type  4   force =     0.00000000    0.00000000    0.00000000
     atom    9 type  4   force =     0.00000000    0.00000000    0.00000000
     atom   10 type  4   force =     0.00000000    0.00000000    0.00000000
     The SCF correction term to forces
     atom    1 type  1   force =    -0.00003163    0.00000681   -0.00003268
     atom    2 type  1   force =     0.00000753    0.00006265    0.00001896
     atom    3 type  2   force =     0.00000541    0.00000018    0.00000723
     atom    4 type  3   force =    -0.00004561    0.00002100   -0.00006478
     atom    5 type  4   force =    -0.00004733    0.00003872   -0.00004039
     atom    6 type  4   force =     0.00002607    0.00010558    0.00002912
     atom    7 type  4   force =     0.00005208   -0.00003248    0.00003730
     atom    8 type  4   force =    -0.00003716   -0.00009881   -0.00003304
     atom    9 type  4   force =     0.00006470    0.00010190   -0.00003076
     atom   10 type  4   force =    -0.00006916   -0.00009654    0.00001783

     Total force =     0.159212     Total SCF correction =     0.000280

     Computing stress (Cartesian axis) and pressure

     negative rho (up, down):  1.346E-01 0.000E+00
          total   stress  (Ry/bohr**3)                   (kbar)     P=     -219.48
  -0.00149273  -0.00000000   0.00000000         -219.59       -0.00        0.00
   0.00000000  -0.00149273  -0.00000000            0.00     -219.59       -0.00
   0.00000000  -0.00000000  -0.00149045            0.00       -0.00     -219.25

     kinetic stress (kbar)  21555.62      0.00      0.00
                                0.00  21555.62      0.00
                                0.00      0.00  21554.98

     local   stress (kbar)  -3145.87     -0.96      0.44
                               -0.96  -3146.98     -0.14
                                0.44     -0.14  -3145.57

     nonloc. stress (kbar)  -1926.15      0.00     -0.00
                                0.00  -1926.15     -0.00
                                0.00     -0.00  -1925.80

     hartree stress (kbar)   7008.95      0.44     -0.36
                                0.44   7009.43      0.16
                               -0.36      0.16   7008.95

     exc-cor stress (kbar)   2397.56      0.01     -0.00
                                0.01   2397.57      0.00
                               -0.00      0.00   2397.56

     corecor stress (kbar)  -7420.08     -0.02      0.00
                               -0.02  -7420.10      0.00
                                0.00      0.00  -7420.06

     ewald   stress (kbar) -18689.31     -0.00     -0.00
                               -0.00 -18689.31      0.00
                               -0.00      0.00 -18689.31

     hubbard stress (kbar)      0.00      0.00      0.00
                                0.00      0.00      0.00
                                0.00      0.00      0.00

     DFT-D   stress (kbar)      0.00      0.00      0.00
                                0.00      0.00      0.00
                                0.00      0.00      0.00

     XDM     stress (kbar)      0.00      0.00      0.00
                                0.00      0.00      0.00
                                0.00      0.00      0.00

     dft-nl  stress (kbar)      0.00      0.00      0.00
                                0.00      0.00      0.00
                                0.00      0.00      0.00

     TS-vdW  stress (kbar)      0.00      0.00      0.00
                                0.00      0.00      0.00
                                0.00      0.00      0.00

[...]

                                0.00      0.00      0.00

     Writing all to output data dir new_calculations/myprefix.save/

     General routines

     Parallel routines

     PAW routines

   This run was terminated on:  13:39:32  20May2023

   JOB DONE.