     Program PWSCF v.7.0 starts on 21May2023 at  7:44:25

     Reading input from espresso_10146.pwi
Warning: card &CELL ignored
Warning: card / ignored

     Current dimensions of program PWSCF are:
     Max number of different atomic species (ntypx) = 10
     Max number of k-points (npk) =  40000
     Max angular momentum in pseudopotentials (lmaxx) =  4

     gamma-point specific algorithms are used
     Message from routine setup:
     using ibrav=0 with symmetry is DISCOURAGED, use correct ibrav instead

     Subspace diagonalization in iterative solution of the eigenvalue problem:
     a serial algorithm will be used

     Using Slab Decomposition

     bravais-lattice index     =            0
     lattice parameter (alat)  =      11.3490  a.u.
     unit-cell volume          =     686.6173 (a.u.)^3
     number of atoms/cell      =            5
     number of atomic types    =            3
     number of electrons       =        56.00
     number of Kohn-Sham states=           34
     kinetic-energy cutoff     =      30.0000  Ry
     charge density cutoff     =     240.0000  Ry
     scf convergence threshold =      1.0E-06
     mixing beta               =       0.7000
     number of iterations used =            8  plain     mixing
     Exchange-correlation= PBE
                           (   1   4   3   4   0   0   0)

     celldm(1)=  11.348987  celldm(2)=   0.000000  celldm(3)=   0.000000
     celldm(4)=   0.000000  celldm(5)=   0.000000  celldm(6)=   0.000000

     crystal axes: (cart. coord. in units of alat)
               a(1) = (   1.000000   0.000000   0.000000 )
               a(2) = (   0.447945   0.894061   0.000000 )
               a(3) = (  -0.723973  -0.447031   0.525383 )

     reciprocal axes: (cart. coord. in units 2 pi/alat)
               b(1) = (  1.000000 -0.501023  0.951686 )
               b(2) = (  0.000000  1.118492  0.951686 )
               b(3) = (  0.000000  0.000000  1.903373 )

     PseudoPot. # 1 for Sr read from file:
     /home/pragov/projects/rrg-bengioy-ad/pragov/crystal_structure_design/SSSP/Sr_pbe_v1.uspp.F.UPF
     MD5 check sum: 6b418c05fbe9db5448babca5e47b7a5b
     Pseudo is Ultrasoft + core correction, Zval = 10.0
     Generated by new atomic code, or converted to UPF format
     Using radial grid of  883 points,  6 beta functions with:
                l(1) =   0
                l(2) =   0
                l(3) =   1
                l(4) =   1
                l(5) =   2
                l(6) =   2
     Q(r) pseudized with  6 coefficients,  rinner =    1.400   1.400   1.400
                                                       1.400   1.400

     PseudoPot. # 2 for Si read from file:
     /home/pragov/projects/rrg-bengioy-ad/pragov/crystal_structure_design/SSSP/Si.pbe-n-rrkjus_psl.1.0.0.UPF
     MD5 check sum: 0b0bb1205258b0d07b9f9672cf965d36
     Pseudo is Ultrasoft + core correction, Zval =  4.0
     Generated using "atomic" code by A. Dal Corso  v.5.1
     Using radial grid of 1141 points,  6 beta functions with:
                l(1) =   0
                l(2) =   0
                l(3) =   1
                l(4) =   1
                l(5) =   2
                l(6) =   2
     Q(r) pseudized with 0 coefficients

     PseudoPot. # 3 for Au read from file:
     /home/pragov/projects/rrg-bengioy-ad/pragov/crystal_structure_design/SSSP/Au_ONCV_PBE-1.0.oncvpsp.upf
     MD5 check sum: d14007822ba0e19f0206237467fc06c2
     Pseudo is Norm-conserving, Zval = 19.0
     Generated using ONCVPSP code by D. R. Hamann
     Using radial grid of 1278 points,  8 beta functions with:
                l(1) =   0
                l(2) =   0
                l(3) =   1
                l(4) =   1
                l(5) =   2
                l(6) =   2
                l(7) =   3
                l(8) =   3

     atomic species   valence    mass     pseudopotential
        Sr            10.00    87.62000     Sr( 1.00)
        Si             4.00    28.08500     Si( 1.00)
        Au            19.00   196.96657     Au( 1.00)

      4 Sym. Ops., with inversion, found

                                    s                        frac. trans.

      isym =  1     identity

 cryst.   s( 1) = (     1          0          0      )
                  (     0          1          0      )
                  (     0          0          1      )

 cart.    s( 1) = (  1.0000000 -0.0000000  0.0000000 )
                  (  0.0000000  1.0000000  0.0000000 )
                  (  0.0000000  0.0000000  1.0000000 )

      isym =  2     180 deg rotation - cart. axis [0,0,1]

[...]

      isym =  3     inversion

[...]

      isym =  4     inv. 180 deg rotation - cart. axis [0,0,1]

 cryst.   s( 4) = (     1          0          0      )
                  (     0          1          0      )
                  (    -1         -1         -1      )

 cart.    s( 4) = (  1.0000000 -0.0000000  0.0000000 )
                  (  0.0000000  1.0000000  0.0000000 )
                  (  0.0000000  0.0000000 -1.0000000 )

   Cartesian axes

     site n.     atom                  positions (alat units)
         1           Sr  tau(   1) = (   0.0000000   0.0000000   0.0000000  )
         2           Si  tau(   2) = (   0.8928521   0.5513085   0.0000000  )
         3           Si  tau(   3) = (   0.5550929   0.3427526   0.0000000  )
         4           Au  tau(   4) = (   0.5000000  -0.0000000   0.2626916  )
         5           Au  tau(   5) = (   0.2239725   0.4470306   0.2626916  )

   Crystallographic axes

     site n.     atom                  positions (cryst. coord.)
         1           Sr  tau(   1) = (  0.0000000  0.0000000  0.0000000  )
         2           Si  tau(   2) = (  0.6166340  0.6166340  0.0000000  )
         3           Si  tau(   3) = (  0.3833660  0.3833660  0.0000000  )
         4           Au  tau(   4) = (  0.7500000  0.2500000  0.5000000  )
         5           Au  tau(   5) = (  0.2500000  0.7500000  0.5000000  )

     number of k points=     1  Methfessel-Paxton smearing, width (Ry)=  0.0010
                       cart. coord. in units 2pi/alat
        k(    1) = (   0.0000000   0.0000000   0.0000000), wk =   2.0000000

                       cryst. coord.
        k(    1) = (   0.0000000   0.0000000   0.0000000), wk =   2.0000000

     Check: negative core charge=   -0.000002

     Initial potential from superposition of free atoms

     starting charge      55.9650, renormalised to      56.0000

     negative rho (up, down):  6.431E-02 0.000E+00
     Starting wfcs are   41 randomized atomic wfcs

     Self-consistent Calculation

     iteration #  1     ecut=    30.00 Ry     beta= 0.70
     Davidson diagonalization with overlap

     ethr =  1.00E-02,  avg # of iterations =  7.0

     Threshold (ethr) on eigenvalues was too large:
     Diagonalizing with lowered threshold

     Davidson diagonalization with overlap

[...]

     negative rho (up, down):  6.284E-02 0.000E+00

     total energy              =    -641.97557557 Ry
     estimated scf accuracy    <       0.17881432 Ry

[...]

     total energy              =    -642.00938936 Ry
     estimated scf accuracy    <       0.00000139 Ry

     iteration # 27     ecut=    30.00 Ry     beta= 0.70
     Davidson diagonalization with overlap

     ethr =  2.48E-09,  avg # of iterations =  1.0

[...]

     End of self-consistent calculation

          k = 0.0000 0.0000 0.0000 (   965 PWs)   bands (ev):

   -94.7719 -94.1033 -45.4180 -45.2781 -45.2488 -45.1796 -45.1615 -45.0871
   -22.1073  -5.8201  -4.6298  -4.2250   1.9369   4.8922   6.1030   7.1133
     7.1734   7.7731   8.2946   8.3674   8.6471   8.9598   8.9970   9.5093
    10.2061  11.3577  11.4715  12.9939  13.0089  13.1406  13.3874  15.8206
    16.4449  17.4456

     occupation numbers
     1.0000   1.0000   1.0000   1.0000   1.0000   1.0000   1.0000   1.0000
     1.0000   1.0000   1.0000   1.0000   1.0000   1.0000   1.0000   1.0000
     1.0000   1.0000   1.0000   1.0000   1.0000   1.0000   1.0000   1.0000
     1.0000   1.0000   1.0000   0.8985   0.1015  -0.0000  -0.0000  -0.0000
    -0.0000  -0.0000

     the Fermi energy is    13.0014 ev

!    total energy              =    -642.00938933 Ry
     estimated scf accuracy    <       0.00000009 Ry
     smearing contrib. (-TS)   =      -0.00015994 Ry
     internal energy E=F+TS    =    -642.00922939 Ry

     The total energy is F=E-TS. E is the sum of the following terms:
     one-electron contribution =    -344.96348009 Ry
     hartree contribution      =     188.31412372 Ry
     xc contribution           =     -81.29783799 Ry
     ewald contribution        =    -404.06203502 Ry

     convergence has been achieved in  27 iterations

     negative rho (up, down):  6.205E-02 0.000E+00

     Forces acting on atoms (cartesian axes, Ry/au):

     atom    1 type  1   force =     0.00000000    0.00000000    0.00000000
     atom    2 type  2   force =     0.16892423    0.04817941    0.00000000
     atom    3 type  2   force =    -0.16892423   -0.04817941   -0.00000000
     atom    4 type  3   force =     0.00000000    0.00000000   -0.00977029
     atom    5 type  3   force =     0.00000000    0.00000000    0.00977029
     The non-local contrib.  to forces
     atom    1 type  1   force =     0.00000000    0.00000000   -0.00000000
     atom    2 type  2   force =     0.16941137    0.13853643    0.00000000
     atom    3 type  2   force =    -0.16941137   -0.13853643   -0.00000000
     atom    4 type  3   force =     0.00000000    0.00000000   -0.12851433
     atom    5 type  3   force =     0.00000000    0.00000000    0.12851433
     The ionic contribution  to forces
     atom    1 type  1   force =     0.00000000   -0.00000000   -0.00000000
     atom    2 type  2   force =    -5.11467585   -3.15815363   -0.00000000
     atom    3 type  2   force =     5.11467585    3.15815363    0.00000000
     atom    4 type  3   force =    -0.00000000    0.00000000    0.00000000
     atom    5 type  3   force =     0.00000000   -0.00000000    0.00000000
     The local contribution  to forces
     atom    1 type  1   force =    -0.00037058   -0.00037173   -0.00000386
     atom    2 type  2   force =     5.13238319    3.08060450   -0.02838231
     atom    3 type  2   force =    -5.13258941   -3.08037822    0.02848948
     atom    4 type  3   force =    -0.05221106    0.00732130    0.11856541
     atom    5 type  3   force =     0.05568881   -0.00562800   -0.11871108
     The core correction contribution to forces
     atom    1 type  1   force =     0.00000339   -0.00000623   -0.00000227
     atom    2 type  2   force =    -0.01837240   -0.01272530   -0.00089190
     atom    3 type  2   force =     0.01836669    0.01273278    0.00089691
     atom    4 type  3   force =     0.00000000    0.00000000    0.00000000
     atom    5 type  3   force =     0.00000000    0.00000000    0.00000000
     The Hubbard contrib.    to forces
     atom    1 type  1   force =     0.00000000    0.00000000    0.00000000
     atom    2 type  2   force =     0.00000000    0.00000000    0.00000000
     atom    3 type  2   force =     0.00000000    0.00000000    0.00000000
     atom    4 type  3   force =     0.00000000    0.00000000    0.00000000
     atom    5 type  3   force =     0.00000000    0.00000000    0.00000000
     The SCF correction term to forces
     atom    1 type  1   force =     0.00032044    0.00026360   -0.00000350
     atom    2 type  2   force =     0.00011665   -0.00000019   -0.00002011
     atom    3 type  2   force =    -0.00002726   -0.00006877   -0.00001470
     atom    4 type  3   force =    -0.00140427   -0.00073260    0.00016011
     atom    5 type  3   force =    -0.00124903   -0.00066477   -0.00005147

     Total force =     0.248806     Total SCF correction =     0.002175

     Computing stress (Cartesian axis) and pressure

     negative rho (up, down):  6.205E-02 0.000E+00
          total   stress  (Ry/bohr**3)                   (kbar)     P=     -201.35
  -0.00242387  -0.00000532  -0.00000000         -356.56       -0.78       -0.00
  -0.00000532  -0.00028310  -0.00000000           -0.78      -41.64       -0.00
  -0.00000000  -0.00000000  -0.00139926           -0.00       -0.00     -205.84

     kinetic stress (kbar)  27319.74     -9.31      0.00
                               -9.31  27901.43      0.00
                                0.00      0.00  27778.75

     local   stress (kbar)   1778.08  17415.13    -17.29
                            17415.13 -15965.58   -121.42
                              -17.29   -121.42 -26687.86

     nonloc. stress (kbar)   5878.11    -20.95      0.00
                              -20.95   5856.90      0.00
                                0.00      0.00   5847.27

     hartree stress (kbar)   6422.27  -7997.30      8.49
                            -7997.30  14511.17     26.83
                                8.49     26.83  19412.13

     exc-cor stress (kbar)   -995.81      0.59      0.13
                                0.59   -992.48      1.14
                                0.13      1.14   -991.62

     corecor stress (kbar)  -3696.94      1.40      2.47
                                1.40  -3700.62     -4.50
                                2.47     -4.50  -3710.28

     ewald   stress (kbar) -37062.02  -9390.34     -0.00
                            -9390.34 -27652.47     -0.00
                               -0.00     -0.00 -21854.23

     hubbard stress (kbar)      0.00      0.00      0.00
                                0.00      0.00      0.00
                                0.00      0.00      0.00

     DFT-D   stress (kbar)      0.00      0.00      0.00
                                0.00      0.00      0.00
                                0.00      0.00      0.00

     XDM     stress (kbar)      0.00      0.00      0.00
                                0.00      0.00      0.00
                                0.00      0.00      0.00

     dft-nl  stress (kbar)      0.00      0.00      0.00
                                0.00      0.00      0.00
                                0.00      0.00      0.00

     TS-vdW  stress (kbar)      0.00      0.00      0.00
                                0.00      0.00      0.00
                                0.00      0.00      0.00

[...]

                                0.00      0.00      0.00

     Writing all to output data dir new_calculations/myprefix.save/

     General routines

     Parallel routines

   This run was terminated on:   7:44:41  21May2023

   JOB DONE.