     Program PWSCF v.7.0 starts on 21May2023 at 19:40:15

     Reading input from espresso_15639.pwi
Warning: card &CELL ignored
Warning: card / ignored

     Current dimensions of program PWSCF are:
     Max number of different atomic species (ntypx) = 10
     Max number of k-points (npk) =  40000
     Max angular momentum in pseudopotentials (lmaxx) =  4

     gamma-point specific algorithms are used
     Message from routine setup:
     using ibrav=0 with symmetry is DISCOURAGED, use correct ibrav instead

     Subspace diagonalization in iterative solution of the eigenvalue problem:
     a serial algorithm will be used

     Using Slab Decomposition

     bravais-lattice index     =            0
     lattice parameter (alat)  =       9.6722  a.u.
     unit-cell volume          =    1716.2074 (a.u.)^3
     number of atoms/cell      =           16
     number of atomic types    =            3
     number of electrons       =       148.00
     number of Kohn-Sham states=           89
     kinetic-energy cutoff     =      30.0000  Ry
     charge density cutoff     =     240.0000  Ry
     scf convergence threshold =      1.0E-06
     mixing beta               =       0.7000
     number of iterations used =            8  plain     mixing
     Exchange-correlation=  SLA  PW   PBX  PBC
                           (   1   4   3   4   0   0   0)

     celldm(1)=   9.672181  celldm(2)=   0.000000  celldm(3)=   0.000000
     celldm(4)=   0.000000  celldm(5)=   0.000000  celldm(6)=   0.000000

     crystal axes: (cart. coord. in units of alat)
               a(1) = (   1.000000   0.000000   0.000000 )
               a(2) = (   0.000000   1.000000   0.000000 )
               a(3) = (   0.000000   0.000000   1.896690 )

     reciprocal axes: (cart. coord. in units 2 pi/alat)
               b(1) = (  1.000000  0.000000  0.000000 )
               b(2) = (  0.000000  1.000000  0.000000 )
               b(3) = (  0.000000  0.000000  0.527234 )

     PseudoPot. # 1 for Ta read from file:
     /home/pragov/projects/rrg-bengioy-ad/pragov/crystal_structure_design/SSSP/Ta_pbe_v1.uspp.F.UPF
     MD5 check sum: f8bbe9446314a3b8ea5d9f3e3836c939
     Pseudo is Ultrasoft + core correction, Zval = 13.0
     Generated by new atomic code, or converted to UPF format
     Using radial grid of  921 points,  7 beta functions with:
                l(1) =   0
                l(2) =   0
                l(3) =   1
                l(4) =   1
                l(5) =   2
                l(6) =   2
                l(7) =   3
     Q(r) pseudized with  6 coefficients,  rinner =    1.300   1.300   1.300
                                                       1.300   1.300   1.300
                                                       1.300

     PseudoPot. # 2 for Ag read from file:
     /home/pragov/projects/rrg-bengioy-ad/pragov/crystal_structure_design/SSSP/Ag_ONCV_PBE-1.0.oncvpsp.upf
     MD5 check sum: 94f47bd0669c641108e45594df92fabc
     Pseudo is Norm-conserving, Zval = 19.0
     Generated using ONCVPSP code by D. R. Hamann
     Using radial grid of 1398 points,  6 beta functions with:
                l(1) =   0
                l(2) =   0
                l(3) =   1
                l(4) =   1
                l(5) =   2
                l(6) =   2

     PseudoPot. # 3 for F  read from file:
     /home/pragov/projects/rrg-bengioy-ad/pragov/crystal_structure_design/SSSP/f_pbe_v1.4.uspp.F.UPF
     MD5 check sum: 4c38b6a325caf53ec0e86aed9459de46
     Pseudo is Ultrasoft, Zval =  7.0
     Generated by new atomic code, or converted to UPF format
     Using radial grid of  799 points,  4 beta functions with:
                l(1) =   0
                l(2) =   0
                l(3) =   1
                l(4) =   1
     Q(r) pseudized with  8 coefficients,  rinner =    0.950   0.950   0.950

     atomic species   valence    mass     pseudopotential
        Ta            13.00   180.94788     Ta( 1.00)
        Ag            19.00   107.86820     Ag( 1.00)
        F              7.00    18.99840     F ( 1.00)

     16 Sym. Ops., with inversion, found ( 8 have fractional translation)

                                    s                        frac. trans.

      isym =  1     identity

 cryst.   s( 1) = (     1          0          0      )
                  (     0          1          0      )
                  (     0          0          1      )

 cart.    s( 1) = (  1.0000000  0.0000000  0.0000000 )
                  (  0.0000000  1.0000000  0.0000000 )
                  (  0.0000000  0.0000000  1.0000000 )

      isym =  2     180 deg rotation - cart. axis [0,0,1]

[...]

 cryst.   s( 3) = (    -1          0          0      )    f =(  0.0000000 )
                  (     0          1          0      )       (  0.0000000 )
                  (     0          0         -1      )       (  0.5000000 )

 cart.    s( 3) = ( -1.0000000  0.0000000  0.0000000 )    f =(  0.0000000 )
                  (  0.0000000  1.0000000  0.0000000 )       (  0.0000000 )
                  (  0.0000000  0.0000000 -1.0000000 )       (  0.9483452 )

[...]

      isym =  8      90 deg rotation - cart. axis [0,0,1]

 cryst.   s( 8) = (     0          1          0      )    f =(  0.0000000 )
                  (    -1          0          0      )       (  0.0000000 )
                  (     0          0          1      )       ( -0.5000000 )

 cart.    s( 8) = (  0.0000000 -1.0000000  0.0000000 )    f =(  0.0000000 )
                  (  1.0000000  0.0000000  0.0000000 )       (  0.0000000 )
                  (  0.0000000  0.0000000  1.0000000 )       ( -0.9483452 )

      isym =  9     inversion

 cryst.   s( 9) = (    -1          0          0      )
                  (     0         -1          0      )
                  (     0          0         -1      )

 cart.    s( 9) = ( -1.0000000  0.0000000  0.0000000 )
                  (  0.0000000 -1.0000000  0.0000000 )
                  (  0.0000000  0.0000000 -1.0000000 )

      isym = 10     inv. 180 deg rotation - cart. axis [0,0,1]

 cryst.   s(10) = (     1          0          0      )
                  (     0          1          0      )
                  (     0          0         -1      )

 cart.    s(10) = (  1.0000000  0.0000000  0.0000000 )
                  (  0.0000000  1.0000000  0.0000000 )
                  (  0.0000000  0.0000000 -1.0000000 )

[...]

 cryst.   s(11) = (     1          0          0      )    f =(  0.0000000 )
                  (     0         -1          0      )       (  0.0000000 )
                  (     0          0          1      )       ( -0.5000000 )

 cart.    s(11) = (  1.0000000  0.0000000  0.0000000 )    f =(  0.0000000 )
                  (  0.0000000 -1.0000000  0.0000000 )       (  0.0000000 )
                  (  0.0000000  0.0000000  1.0000000 )       ( -0.9483452 )

[...]

 cryst.   s(14) = (     0          1          0      )
                  (     1          0          0      )
                  (     0          0          1      )

 cart.    s(14) = (  0.0000000  1.0000000  0.0000000 )
                  (  1.0000000  0.0000000  0.0000000 )
                  (  0.0000000  0.0000000  1.0000000 )

[...]

      isym = 16     inv.  90 deg rotation - cart. axis [0,0,1]

 cryst.   s(16) = (     0         -1          0      )    f =(  0.0000000 )
                  (     1          0          0      )       (  0.0000000 )
                  (     0          0         -1      )       (  0.5000000 )

 cart.    s(16) = (  0.0000000  1.0000000  0.0000000 )    f =(  0.0000000 )
                  ( -1.0000000  0.0000000  0.0000000 )       (  0.0000000 )
                  (  0.0000000  0.0000000 -1.0000000 )       (  0.9483452 )

   Cartesian axes

     site n.     atom                  positions (alat units)
         1           Ta  tau(   1) = (   0.0000000   0.0000000   0.0000000  )
         2           Ta  tau(   2) = (   0.0000000   0.0000000   0.9483452  )
         3           Ag  tau(   3) = (   0.5000000   0.5000000   0.4741726  )
         4           Ag  tau(   4) = (   0.5000000   0.5000000   1.4225178  )
         5           F   tau(   5) = (   0.8098470   0.1901530   1.6323658  )
         6           F   tau(   6) = (   0.1901530   0.8098470   1.6323658  )
         7           F   tau(   7) = (   0.1901530   0.8098470   0.2643247  )
         8           F   tau(   8) = (   0.1901530   0.1901530   0.6840206  )
         9           F   tau(   9) = (   0.7336290   0.7336290   0.0000000  )
        10           F   tau(  10) = (   0.2663710   0.7336290   0.9483452  )
        11           F   tau(  11) = (   0.7336290   0.2663710   0.9483452  )
        12           F   tau(  12) = (   0.2663710   0.2663710   0.0000000  )
        13           F   tau(  13) = (   0.8098470   0.1901530   0.2643247  )
        14           F   tau(  14) = (   0.8098470   0.8098470   1.2126699  )
        15           F   tau(  15) = (   0.1901530   0.1901530   1.2126699  )
        16           F   tau(  16) = (   0.8098470   0.8098470   0.6840206  )

   Crystallographic axes

     site n.     atom                  positions (cryst. coord.)
         1           Ta  tau(   1) = (  0.0000000  0.0000000  0.0000000  )
         2           Ta  tau(   2) = (  0.0000000  0.0000000  0.5000000  )
         3           Ag  tau(   3) = (  0.5000000  0.5000000  0.2500000  )
         4           Ag  tau(   4) = (  0.5000000  0.5000000  0.7500000  )
         5           F   tau(   5) = (  0.8098470  0.1901530  0.8606390  )
         6           F   tau(   6) = (  0.1901530  0.8098470  0.8606390  )
         7           F   tau(   7) = (  0.1901530  0.8098470  0.1393610  )
         8           F   tau(   8) = (  0.1901530  0.1901530  0.3606390  )
         9           F   tau(   9) = (  0.7336290  0.7336290  0.0000000  )
        10           F   tau(  10) = (  0.2663710  0.7336290  0.5000000  )
        11           F   tau(  11) = (  0.7336290  0.2663710  0.5000000  )
        12           F   tau(  12) = (  0.2663710  0.2663710  0.0000000  )
        13           F   tau(  13) = (  0.8098470  0.1901530  0.1393610  )
        14           F   tau(  14) = (  0.8098470  0.8098470  0.6393610  )
        15           F   tau(  15) = (  0.1901530  0.1901530  0.6393610  )
        16           F   tau(  16) = (  0.8098470  0.8098470  0.3606390  )

     number of k points=     1  Methfessel-Paxton smearing, width (Ry)=  0.0010
                       cart. coord. in units 2pi/alat
        k(    1) = (   0.0000000   0.0000000   0.0000000), wk =   2.0000000

                       cryst. coord.
        k(    1) = (   0.0000000   0.0000000   0.0000000), wk =   2.0000000

     Check: negative core charge=   -0.000003

     Initial potential from superposition of free atoms

     starting charge     147.9972, renormalised to     148.0000

     negative rho (up, down):  1.866E-01 0.000E+00
     Starting wfcs are   94 randomized atomic wfcs

     Self-consistent Calculation

     iteration #  1     ecut=    30.00 Ry     beta= 0.70
     Davidson diagonalization with overlap

     ethr =  1.00E-02,  avg # of iterations =  4.0

     negative rho (up, down):  1.868E-01 0.000E+00

     total energy              =   -1441.00663273 Ry
     estimated scf accuracy    <       2.87999550 Ry

[...]

     total energy              =   -1442.39931472 Ry
     estimated scf accuracy    <       0.00041295 Ry

     iteration #  7     ecut=    30.00 Ry     beta= 0.70
     Davidson diagonalization with overlap

     ethr =  2.79E-07,  avg # of iterations =  2.0

[...]

     End of self-consistent calculation

          k = 0.0000 0.0000 0.0000 (  2374 PWs)   bands (ev):

   -86.1673 -86.1652 -65.1854 -65.1843 -49.2283 -49.2283 -49.2223 -49.2223
   -49.2057 -49.2032 -31.7942 -31.7934 -31.7811 -31.7779 -31.7713 -31.7704
   -19.0979 -18.9799 -18.8218 -18.8216 -18.7507 -18.7240 -18.2794 -18.1946
   -18.1944 -18.1301 -18.0818 -18.0817  -2.1308  -2.1308  -2.0430  -1.9797
    -1.8841  -1.7542  -1.5132  -1.3337  -1.3256  -0.9844  -0.9844  -0.6837
    -0.4818  -0.4618  -0.2899  -0.2898  -0.0524  -0.0524  -0.0260   0.1185
     0.2208   0.2209   0.2357   0.2639   0.6072   0.7668   0.7669   0.8055
     0.8056   0.8259   0.8259   0.9418   0.9419   1.0116   1.0472   1.2609
     2.6905   2.7721   2.7864   2.8361   2.9671   2.9814   2.9814   3.0109
     3.0110   3.2179   6.8568   7.4151   7.5707   7.5990   7.5995   7.6335
     7.6474   8.2026  10.4313  11.7348  11.7352  12.1116  12.4846  13.0385
    13.1455

     occupation numbers
     1.0000   1.0000   1.0000   1.0000   1.0000   1.0000   1.0000   1.0000
     1.0000   1.0000   1.0000   1.0000   1.0000   1.0000   1.0000   1.0000
     1.0000   1.0000   1.0000   1.0000   1.0000   1.0000   1.0000   1.0000
     1.0000   1.0000   1.0000   1.0000   1.0000   1.0000   1.0000   1.0000
     1.0000   1.0000   1.0000   1.0000   1.0000   1.0000   1.0000   1.0000
     1.0000   1.0000   1.0000   1.0000   1.0000   1.0000   1.0000   1.0000
     1.0000   1.0000   1.0000   1.0000   1.0000   1.0000   1.0000   1.0000
     1.0000   1.0000   1.0000   1.0000   1.0000   1.0000   1.0000   1.0000
     1.0000   1.0000   1.0000   1.0000   1.0000   1.0000   1.0000   1.0000
     1.0000   1.0000  -0.0000  -0.0000  -0.0000  -0.0000  -0.0000  -0.0000
    -0.0000  -0.0000  -0.0000  -0.0000  -0.0000  -0.0000  -0.0000  -0.0000
    -0.0000

     the Fermi energy is     3.9455 ev

!    total energy              =   -1442.39939122 Ry
     estimated scf accuracy    <       0.00000097 Ry
     smearing contrib. (-TS)   =       0.00000000 Ry
     internal energy E=F+TS    =   -1442.39939122 Ry

     The total energy is F=E-TS. E is the sum of the following terms:
     one-electron contribution =    -812.61471450 Ry
     hartree contribution      =     462.15541343 Ry
     xc contribution           =    -250.53854523 Ry
     ewald contribution        =    -841.40154492 Ry

     convergence has been achieved in   7 iterations

     negative rho (up, down):  1.896E-01 0.000E+00

     Forces acting on atoms (cartesian axes, Ry/au):

     atom    1 type  1   force =     0.00000000    0.00000000   -0.00000000
     atom    2 type  1   force =     0.00000000    0.00000000   -0.00000000
     atom    3 type  2   force =     0.00000000    0.00000000    0.00000000
     atom    4 type  2   force =     0.00000000    0.00000000    0.00000000
     atom    5 type  3   force =     0.00224331   -0.00224331    0.00334845
     atom    6 type  3   force =    -0.00224331    0.00224331    0.00334845
     atom    7 type  3   force =    -0.00224331    0.00224331   -0.00334845
     atom    8 type  3   force =    -0.00224331   -0.00224331    0.00334845
     atom    9 type  3   force =     0.00282146    0.00282146    0.00000000
     atom   10 type  3   force =    -0.00282146    0.00282146   -0.00000000
     atom   11 type  3   force =     0.00282146   -0.00282146    0.00000000
     atom   12 type  3   force =    -0.00282146   -0.00282146    0.00000000
     atom   13 type  3   force =     0.00224331   -0.00224331   -0.00334845
     atom   14 type  3   force =     0.00224331    0.00224331   -0.00334845
     atom   15 type  3   force =    -0.00224331   -0.00224331   -0.00334845
     atom   16 type  3   force =     0.00224331    0.00224331    0.00334845
     The non-local contrib.  to forces
     atom    1 type  1   force =     0.00000000    0.00000000   -0.00000000
     atom    2 type  1   force =     0.00000000    0.00000000    0.00000000
     atom    3 type  2   force =     0.00000000    0.00000000    0.00000000
     atom    4 type  2   force =     0.00000000    0.00000000    0.00000000
     atom    5 type  3   force =     0.53303840   -0.53303840    0.83812368
     atom    6 type  3   force =    -0.53303840    0.53303840    0.83812368
     atom    7 type  3   force =    -0.53303840    0.53303840   -0.83812368
     atom    8 type  3   force =    -0.53303840   -0.53303840    0.83812368
     atom    9 type  3   force =     0.92720115    0.92720115    0.00000000
     atom   10 type  3   force =    -0.92720115    0.92720115    0.00000000
     atom   11 type  3   force =     0.92720115   -0.92720115    0.00000000
     atom   12 type  3   force =    -0.92720115   -0.92720115    0.00000000
     atom   13 type  3   force =     0.53303840   -0.53303840   -0.83812368
     atom   14 type  3   force =     0.53303840    0.53303840   -0.83812368
     atom   15 type  3   force =    -0.53303840   -0.53303840   -0.83812368
     atom   16 type  3   force =     0.53303840    0.53303840    0.83812368
     The ionic contribution  to forces
     atom    1 type  1   force =     0.00000000   -0.00000000    0.00000000
     atom    2 type  1   force =    -0.00000000   -0.00000000    0.00000000
     atom    3 type  2   force =    -0.00000000   -0.00000000   -0.00000000
     atom    4 type  2   force =     0.00000000    0.00000000    0.00000000
     atom    5 type  3   force =    -3.35032185    3.35032185   -5.65605813
     atom    6 type  3   force =     3.35032185   -3.35032185   -5.65605813
     atom    7 type  3   force =     3.35032185   -3.35032185    5.65605813
     atom    8 type  3   force =     3.35032185    3.35032185   -5.65605813
     atom    9 type  3   force =    -6.53492380   -6.53492380   -0.00000000
     atom   10 type  3   force =     6.53492380   -6.53492380    0.00000000
     atom   11 type  3   force =    -6.53492380    6.53492380    0.00000000
     atom   12 type  3   force =     6.53492380    6.53492380   -0.00000000
     atom   13 type  3   force =    -3.35032185    3.35032185    5.65605813
     atom   14 type  3   force =    -3.35032185   -3.35032185    5.65605813
     atom   15 type  3   force =     3.35032185    3.35032185    5.65605813
     atom   16 type  3   force =    -3.35032185   -3.35032185   -5.65605813
     The local contribution  to forces
     atom    1 type  1   force =    -0.00000288   -0.00005221   -0.00081563
     atom    2 type  1   force =     0.00003855   -0.00003614    0.00074915
     atom    3 type  2   force =     0.00002115    0.00002997   -0.00018328
     atom    4 type  2   force =    -0.00000873    0.00004627    0.00022992
     atom    5 type  3   force =     2.81976711   -2.81976360    4.82110417
     atom    6 type  3   force =    -2.81975082    2.81973976    4.82109136
     atom    7 type  3   force =    -2.81977087    2.81976282   -4.82162326
     atom    8 type  3   force =    -2.81965716   -2.81966371    4.82138768
     atom    9 type  3   force =     5.61079356    5.61078757   -0.00033675
     atom   10 type  3   force =    -5.61067526    5.61067563    0.00031854
     atom   11 type  3   force =     5.61065500   -5.61065083    0.00032070
     atom   12 type  3   force =    -5.61081343   -5.61080554   -0.00032829
     atom   13 type  3   force =     2.81976948   -2.81976984   -4.82162252
     atom   14 type  3   force =     2.81965584    2.81962717   -4.82085177
     atom   15 type  3   force =    -2.81963991   -2.81965135   -4.82086517
     atom   16 type  3   force =     2.81965312    2.81965297    4.82137233
     The core correction contribution to forces
     atom    1 type  1   force =     0.00000039   -0.00000320   -0.00002500
     atom    2 type  1   force =     0.00000490   -0.00000377    0.00001710
     atom    3 type  2   force =     0.00000000    0.00000000    0.00000000
     atom    4 type  2   force =     0.00000000    0.00000000    0.00000000
     atom    5 type  3   force =     0.00000000    0.00000000    0.00000000
     atom    6 type  3   force =     0.00000000    0.00000000    0.00000000
     atom    7 type  3   force =     0.00000000    0.00000000    0.00000000
     atom    8 type  3   force =     0.00000000    0.00000000    0.00000000
     atom    9 type  3   force =     0.00000000    0.00000000    0.00000000
     atom   10 type  3   force =     0.00000000    0.00000000    0.00000000
     atom   11 type  3   force =     0.00000000    0.00000000    0.00000000
     atom   12 type  3   force =     0.00000000    0.00000000    0.00000000
     atom   13 type  3   force =     0.00000000    0.00000000    0.00000000
     atom   14 type  3   force =     0.00000000    0.00000000    0.00000000
     atom   15 type  3   force =     0.00000000    0.00000000    0.00000000
     atom   16 type  3   force =     0.00000000    0.00000000    0.00000000
     The Hubbard contrib.    to forces
     atom    1 type  1   force =     0.00000000    0.00000000    0.00000000
     atom    2 type  1   force =     0.00000000    0.00000000    0.00000000
     atom    3 type  2   force =     0.00000000    0.00000000    0.00000000
     atom    4 type  2   force =     0.00000000    0.00000000    0.00000000
     atom    5 type  3   force =     0.00000000    0.00000000    0.00000000
     atom    6 type  3   force =     0.00000000    0.00000000    0.00000000
     atom    7 type  3   force =     0.00000000    0.00000000    0.00000000
     atom    8 type  3   force =     0.00000000    0.00000000    0.00000000
     atom    9 type  3   force =     0.00000000    0.00000000    0.00000000
     atom   10 type  3   force =     0.00000000    0.00000000    0.00000000
     atom   11 type  3   force =     0.00000000    0.00000000    0.00000000
     atom   12 type  3   force =     0.00000000    0.00000000    0.00000000
     atom   13 type  3   force =     0.00000000    0.00000000    0.00000000
     atom   14 type  3   force =     0.00000000    0.00000000    0.00000000
     atom   15 type  3   force =     0.00000000    0.00000000    0.00000000
     atom   16 type  3   force =     0.00000000    0.00000000    0.00000000
     The SCF correction term to forces
     atom    1 type  1   force =    -0.00000226    0.00008894    0.00112951
     atom    2 type  1   force =    -0.00006856    0.00006670   -0.00100046
     atom    3 type  2   force =    -0.00001363   -0.00002424    0.00031106
     atom    4 type  2   force =     0.00001829   -0.00011012   -0.00031829
     atom    5 type  3   force =    -0.00025498    0.00025212    0.00023930
     atom    6 type  3   force =     0.00024163   -0.00021498    0.00024692
     atom    7 type  3   force =     0.00024810   -0.00022953    0.00044360
     atom    8 type  3   force =     0.00012557    0.00014735   -0.00017236
     atom    9 type  3   force =    -0.00026539   -0.00025596    0.00047512
     atom   10 type  3   force =     0.00012075   -0.00012804   -0.00043956
     atom   11 type  3   force =    -0.00009398    0.00008788   -0.00043954
     atom   12 type  3   force =     0.00028452    0.00026742    0.00044895
     atom   13 type  3   force =    -0.00023197    0.00023221    0.00045049
     atom   14 type  3   force =    -0.00013220   -0.00008441   -0.00054282
     atom   15 type  3   force =     0.00010583    0.00012052   -0.00052832
     atom   16 type  3   force =    -0.00012411   -0.00012190   -0.00014604

     Total force =     0.015294     Total SCF correction =     0.002317
     SCF correction compared to forces is large: reduce conv_thr to get better values

     Computing stress (Cartesian axis) and pressure

     negative rho (up, down):  1.896E-01 0.000E+00
          total   stress  (Ry/bohr**3)                   (kbar)     P=     -364.90
  -0.00241648   0.00000000   0.00000000         -355.48        0.00        0.00
   0.00000000  -0.00241648   0.00000000            0.00     -355.48        0.00
   0.00000000   0.00000000  -0.00260858            0.00        0.00     -383.74

     kinetic stress (kbar)  27827.20      0.00      0.00
                                0.00  27827.20      0.00
                                0.00      0.00  27798.86

     local   stress (kbar)  -7841.05     -0.04      0.00
                               -0.04  -7841.05     -0.00
                                0.00     -0.00 -10535.41

     nonloc. stress (kbar)  -2772.96      0.00      0.00
                                0.00  -2772.96      0.00
                                0.00      0.00  -2789.36

     hartree stress (kbar)  12775.24      0.03     -0.00
                                0.03  12775.24      0.00
                               -0.00      0.00  14063.26

     exc-cor stress (kbar)   -882.16     -0.00      0.00
                               -0.00   -882.16     -0.00
                                0.00     -0.00   -883.05

     corecor stress (kbar)  -4946.75      0.00     -0.00
                                0.00  -4946.75      0.00
                               -0.00      0.00  -4947.11

     ewald   stress (kbar) -24515.00     -0.00     -0.00
                               -0.00 -24515.00      0.00
                               -0.00      0.00 -23090.92

     hubbard stress (kbar)      0.00      0.00      0.00
                                0.00      0.00      0.00
                                0.00      0.00      0.00

     DFT-D   stress (kbar)      0.00      0.00      0.00
                                0.00      0.00      0.00
                                0.00      0.00      0.00

     XDM     stress (kbar)      0.00      0.00      0.00
                                0.00      0.00      0.00
                                0.00      0.00      0.00

     dft-nl  stress (kbar)      0.00      0.00      0.00
                                0.00      0.00      0.00
                                0.00      0.00      0.00

     TS-vdW  stress (kbar)      0.00      0.00      0.00
                                0.00      0.00      0.00
                                0.00      0.00      0.00

[...]

                                0.00      0.00      0.00

     Writing all to output data dir new_calculations/myprefix.save/

     General routines

     Parallel routines

   This run was terminated on:  19:40:37  21May2023

   JOB DONE.