     Program PWSCF v.7.0 starts on 21May2023 at  0:33:31

     Reading input from espresso_8926.pwi
Warning: card &CELL ignored
Warning: card / ignored

     Current dimensions of program PWSCF are:
     Max number of different atomic species (ntypx) = 10
     Max number of k-points (npk) =  40000
     Max angular momentum in pseudopotentials (lmaxx) =  4
     file Fe.pbe-spn-kjpaw_psl.0.2.1.UPF: wavefunction(s)  3D renormalized
     file O.pbe-n-kjpaw_psl.0.1.UPF: wavefunction(s)  2P renormalized

     gamma-point specific algorithms are used

     Subspace diagonalization in iterative solution of the eigenvalue problem:
     a serial algorithm will be used

     Using Slab Decomposition

     bravais-lattice index     =            0
     lattice parameter (alat)  =      11.1503  a.u.
     unit-cell volume          =    1938.3046 (a.u.)^3
     number of atoms/cell      =           16
     number of atomic types    =            3
     number of electrons       =       148.00
     number of Kohn-Sham states=           89
     kinetic-energy cutoff     =      30.0000  Ry
     charge density cutoff     =     240.0000  Ry
     scf convergence threshold =      1.0E-06
     mixing beta               =       0.7000
     number of iterations used =            8  plain     mixing
     Exchange-correlation= SLA  PW   PBX  PBC
                           (   1   4   3   4   0   0   0)

     celldm(1)=  11.150306  celldm(2)=   0.000000  celldm(3)=   0.000000
     celldm(4)=   0.000000  celldm(5)=   0.000000  celldm(6)=   0.000000

     crystal axes: (cart. coord. in units of alat)
               a(1) = (   1.000000   0.000000   0.000000 )
               a(2) = (  -0.000006   1.398172   0.000000 )
               a(3) = (   0.000002   0.000002   1.000002 )

     reciprocal axes: (cart. coord. in units 2 pi/alat)
               b(1) = (  1.000000  0.000004 -0.000002 )
               b(2) = (  0.000000  0.715220 -0.000001 )
               b(3) = (  0.000000  0.000000  0.999998 )

     PseudoPot. # 1 for Rb read from file:
     /home/pragov/projects/rrg-bengioy-ad/pragov/crystal_structure_design/SSSP/Rb_ONCV_PBE-1.0.oncvpsp.upf
     MD5 check sum: 55a5172d6bfbce6759a58e35d43f6aa9
     Pseudo is Norm-conserving, Zval =  9.0
     Generated using ONCVPSP code by D. R. Hamann
     Using radial grid of 2308 points,  6 beta functions with:
                l(1) =   0
                l(2) =   0
                l(3) =   1
                l(4) =   1
                l(5) =   2
                l(6) =   2

     PseudoPot. # 2 for Fe read from file:
     /home/pragov/projects/rrg-bengioy-ad/pragov/crystal_structure_design/SSSP/Fe.pbe-spn-kjpaw_psl.0.2.1.UPF
     MD5 check sum: e86618425769142926afa95317d90200
     Pseudo is Projector augmented-wave + core cor, Zval = 16.0
     Generated using "atomic" code by A. Dal Corso  v.5.0.99 svn rev. 10869
     Shape of augmentation charge: PSQ
     Using radial grid of 1191 points,  6 beta functions with:
                l(1) =   0
                l(2) =   0
                l(3) =   1
                l(4) =   1
                l(5) =   2
                l(6) =   2
     Q(r) pseudized with 0 coefficients

     PseudoPot. # 3 for O  read from file:
     /home/pragov/projects/rrg-bengioy-ad/pragov/crystal_structure_design/SSSP/O.pbe-n-kjpaw_psl.0.1.UPF
     MD5 check sum: 0234752ac141de4415c5fc33072bef88
     Pseudo is Projector augmented-wave + core cor, Zval =  6.0
     Generated using "atomic" code by A. Dal Corso  v.5.0.99 svn rev. 10869
     Shape of augmentation charge: BESSEL
     Using radial grid of 1095 points,  4 beta functions with:
                l(1) =   0
                l(2) =   0
                l(3) =   1
                l(4) =   1
     Q(r) pseudized with 0 coefficients

     atomic species   valence    mass     pseudopotential
        Rb             9.00    85.46780     Rb( 1.00)
        Fe            16.00    55.84500     Fe( 1.00)
        O              6.00    15.99900     O ( 1.00)

     No symmetry found

                                    s                        frac. trans.

      isym =  1     identity

 cryst.   s( 1) = (     1          0          0      )
                  (     0          1          0      )
                  (     0          0          1      )

 cart.    s( 1) = (  1.0000000 -0.0000000  0.0000000 )
                  (  0.0000000  1.0000000 -0.0000000 )
                  (  0.0000000  0.0000000  1.0000000 )

   Cartesian axes

     site n.     atom                  positions (alat units)
         1           Rb  tau(   1) = (   0.2227807   0.6990808   0.2227755  )
         2           Rb  tau(   2) = (   0.7228144   1.0486238   0.2772377  )
         3           Rb  tau(   3) = (   0.2771793   0.3495358   0.7227747  )
         4           Rb  tau(   4) = (   0.7771848   0.0000152   0.7772708  )
         5           Fe  tau(   5) = (   0.7109383   0.3495421   0.2890667  )
         6           Fe  tau(   6) = (   0.2890494   1.0486301   0.7109397  )
         7           Fe  tau(   7) = (   0.2109418   1.3981681   0.2109435  )
         8           Fe  tau(   8) = (   0.7890410   0.6990887   0.7890649  )
         9           O   tau(   9) = (   0.7562388   0.5981689   0.0924472  )
        10           O   tau(  10) = (   0.9075672   0.1009176   0.2437796  )
        11           O   tau(  11) = (   0.4075596   0.2486247   0.2562356  )
        12           O   tau(  12) = (   0.2562803   1.1495427   0.4075500  )
        13           O   tau(  13) = (   0.7437166   0.4504640   0.5924514  )
        14           O   tau(  14) = (   0.5924369   0.9477241   0.7437688  )
        15           O   tau(  15) = (   0.0924276   0.8000045   0.7562548  )
        16           O   tau(  16) = (   0.2437169   1.2972562   0.9075562  )

   Crystallographic axes

     site n.     atom                  positions (cryst. coord.)
         1           Rb  tau(   1) = (  0.2227830  0.4999960  0.2227750  )
         2           Rb  tau(   2) = (  0.7228180  0.7499960  0.2772370  )
         3           Rb  tau(   3) = (  0.2771790  0.2499940  0.7227730  )
         4           Rb  tau(   4) = (  0.7771830  0.0000100  0.7772690  )
         5           Fe  tau(   5) = (  0.7109390  0.2499990  0.2890660  )
         6           Fe  tau(   6) = (  0.2890520  0.7500000  0.7109380  )
         7           Fe  tau(   7) = (  0.2109470  0.9999970  0.2109430  )
         8           Fe  tau(   8) = (  0.7890420  0.5000010  0.7890630  )
         9           O   tau(   9) = (  0.7562410  0.4278220  0.0924470  )
        10           O   tau(  10) = (  0.9075670  0.0721780  0.2437790  )
        11           O   tau(  11) = (  0.4075600  0.1778210  0.2562350  )
        12           O   tau(  12) = (  0.2562840  0.8221750  0.4075490  )
        13           O   tau(  13) = (  0.7437170  0.3221800  0.5924500  )
        14           O   tau(  14) = (  0.5924390  0.6778300  0.7437670  )
        15           O   tau(  15) = (  0.0924290  0.5721780  0.7562530  )
        16           O   tau(  16) = (  0.2437200  0.9278220  0.9075540  )

     number of k points=     1  Methfessel-Paxton smearing, width (Ry)=  0.0010
                       cart. coord. in units 2pi/alat
        k(    1) = (   0.0000000   0.0000000   0.0000000), wk =   2.0000000

                       cryst. coord.
        k(    1) = (   0.0000000   0.0000000   0.0000000), wk =   2.0000000

     Check: negative core charge=   -0.000100

     Initial potential from superposition of free atoms

     starting charge     147.8992, renormalised to     148.0000
     Starting wfcs are  104 randomized atomic wfcs
     Checking if some PAW data can be deallocated...

     Self-consistent Calculation

     iteration #  1     ecut=    30.00 Ry     beta= 0.70
     Davidson diagonalization with overlap

     ethr =  1.00E-02,  avg # of iterations =  4.0

     total energy              =   -1842.58673004 Ry
     estimated scf accuracy    <       3.54563166 Ry

[...]

     total energy              =   -1844.66361639 Ry
     estimated scf accuracy    <       0.00000253 Ry

     iteration # 25     ecut=    30.00 Ry     beta= 0.70
     Davidson diagonalization with overlap

     ethr =  1.31E-09,  avg # of iterations =  1.0

     End of self-consistent calculation

          k = 0.0000 0.0000 0.0000 (  2712 PWs)   bands (ev):

   -80.4664 -80.4659 -80.4655 -80.4633 -46.1278 -46.1181 -46.1178 -46.1068
   -46.0704 -46.0670 -46.0666 -46.0637 -46.0380 -46.0368 -46.0364 -46.0307
   -20.2308 -20.1457 -20.1457 -20.0617 -11.4667 -11.2448 -11.2446 -10.9666
   -10.9617 -10.9526 -10.9403 -10.9401  -4.6804  -4.6379  -4.5492  -4.5492
    -4.4796  -4.2688  -4.2688  -4.0938  -4.0938  -4.0367  -3.9915  -3.9838
     1.3630   1.8073   1.8075   2.1157   2.1913   2.1914   2.2177   2.2928
     2.4187   2.5577   2.7193   2.7195   3.1904   3.2689   3.2690   3.3423
     3.3424   3.5160   3.6174   3.9914   4.1273   4.4573   4.4573   4.7310
     5.5632   5.6178   6.1147   6.1148   6.4860   6.5453   6.5453   6.5899
     6.7733   6.7736   7.2996   7.3594   7.7168   7.8687   7.8689   8.2666
     8.3250   8.8219   8.8537   8.9244   8.9245  11.5789  11.5790  12.2876
    12.2877

     occupation numbers
     1.0000   1.0000   1.0000   1.0000   1.0000   1.0000   1.0000   1.0000
     1.0000   1.0000   1.0000   1.0000   1.0000   1.0000   1.0000   1.0000
     1.0000   1.0000   1.0000   1.0000   1.0000   1.0000   1.0000   1.0000
     1.0000   1.0000   1.0000   1.0000   1.0000   1.0000   1.0000   1.0000
     1.0000   1.0000   1.0000   1.0000   1.0000   1.0000   1.0000   1.0000
     1.0000   1.0000   1.0000   1.0000   1.0000   1.0000   1.0000   1.0000
     1.0000   1.0000   1.0000   1.0000   1.0000   1.0000   1.0000   1.0000
     1.0000   1.0000   1.0000   1.0000   1.0000   1.0000   1.0000   1.0000
     1.0000   1.0000   1.0000   1.0000   1.0000   1.0000   1.0000   1.0000
     1.0000   1.0000  -0.0000  -0.0000  -0.0000  -0.0000  -0.0000  -0.0000
    -0.0000  -0.0000  -0.0000  -0.0000  -0.0000  -0.0000  -0.0000  -0.0000
    -0.0000

     the Fermi energy is     6.9730 ev

!    total energy              =   -1844.66361605 Ry
     estimated scf accuracy    <       0.00000093 Ry
     smearing contrib. (-TS)   =       0.00000000 Ry
     internal energy E=F+TS    =   -1844.66361605 Ry

     The total energy is F=E-TS. E is the sum of the following terms:
     one-electron contribution =   -1077.03363840 Ry
     hartree contribution      =     598.19767456 Ry
     xc contribution           =    -227.35399786 Ry
     ewald contribution        =    -757.93888455 Ry
     one-center paw contrib.   =    -380.53476980 Ry
      -> PAW hartree energy AE =    1065.98471317 Ry
      -> PAW hartree energy PS =   -1062.04980399 Ry
      -> PAW xc energy AE      =    -580.15062311 Ry
      -> PAW xc energy PS      =     195.68094414 Ry
      -> total E_H with PAW    =     602.13258374 Ry
      -> total E_XC with PAW   =    -611.82367684 Ry

     convergence has been achieved in  25 iterations

     Forces acting on atoms (cartesian axes, Ry/au):

     atom    1 type  1   force =     0.00662452    0.00001732    0.00661509
     atom    2 type  1   force =     0.00661475   -0.00000684   -0.00663759
     atom    3 type  1   force =    -0.00664873   -0.00000486    0.00661769
     atom    4 type  1   force =    -0.00665031   -0.00000197   -0.00664876
     atom    5 type  2   force =    -0.00724548   -0.00003127    0.00736448
     atom    6 type  2   force =     0.00733739    0.00003191   -0.00724064
     atom    7 type  2   force =    -0.00721137   -0.00002460   -0.00723155
     atom    8 type  2   force =     0.00730620    0.00004658    0.00734435
     atom    9 type  3   force =    -0.00787116   -0.00068035   -0.01827239
     atom   10 type  3   force =     0.01820550    0.00070231    0.00785414
     atom   11 type  3   force =     0.01831901   -0.00058986   -0.00786528
     atom   12 type  3   force =    -0.00788403    0.00059209    0.01827921
     atom   13 type  3   force =     0.00784141    0.00063271   -0.01835352
     atom   14 type  3   force =    -0.01831473   -0.00064694    0.00784132
     atom   15 type  3   force =    -0.01827785    0.00062041   -0.00788624
     atom   16 type  3   force =     0.00785487   -0.00065664    0.01821971
     The non-local contrib.  to forces
     atom    1 type  1   force =     0.01383684   -0.00000010    0.01386119
     atom    2 type  1   force =     0.01386466   -0.00000190   -0.01386011
     atom    3 type  1   force =    -0.01385370    0.00000094    0.01384599
     atom    4 type  1   force =    -0.01385331    0.00000649   -0.01385730
     atom    5 type  2   force =     0.00366365   -0.00007777   -0.00341922
     atom    6 type  2   force =    -0.00341232    0.00000804    0.00360988
     atom    7 type  2   force =     0.00362610   -0.00001517    0.00363847
     atom    8 type  2   force =    -0.00343663    0.00005447   -0.00345625
     atom    9 type  3   force =     0.02706414   -0.34620493   -0.23998140
     atom   10 type  3   force =     0.23990046    0.34621211   -0.02729968
     atom   11 type  3   force =     0.24003730   -0.34612486    0.02721577
     atom   12 type  3   force =     0.02687706    0.34609349    0.24002003
     atom   13 type  3   force =    -0.02699828    0.34613474   -0.24005169
     atom   14 type  3   force =    -0.24000227   -0.34624861   -0.02726370
     atom   15 type  3   force =    -0.23998275    0.34615175    0.02711376
     atom   16 type  3   force =    -0.02696479   -0.34615000    0.23995358
     The ionic contribution  to forces
     atom    1 type  1   force =     0.70755110    0.00017601    0.70796850
     atom    2 type  1   force =     0.70666985    0.00007852   -0.70755745
     atom    3 type  1   force =    -0.70705977    0.00050310    0.70750730
     atom    4 type  1   force =    -0.70684588   -0.00037779   -0.70937702
     atom    5 type  2   force =     0.41420817   -0.00027810   -0.41180859
     atom    6 type  2   force =    -0.41364827   -0.00062666    0.41196541
     atom    7 type  2   force =     0.41241560   -0.00052699    0.41258763
     atom    8 type  2   force =    -0.41247666   -0.00023548   -0.41284525
     atom    9 type  3   force =     0.11022571    4.99017839    3.47246908
     atom   10 type  3   force =    -3.47204900   -4.98961526   -0.10769654
     atom   11 type  3   force =    -3.47248300    4.99055299    0.10898535
     atom   12 type  3   force =     0.11273676   -4.99081895   -3.47264296
     atom   13 type  3   force =    -0.11190745   -4.99010840    3.47253492
     atom   14 type  3   force =     3.47245291    4.99117520   -0.10908093
     atom   15 type  3   force =     3.47259358   -4.98988931    0.11001996
     atom   16 type  3   force =    -0.11238366    4.98981272   -3.47302941
     The local contribution  to forces
     atom    1 type  1   force =    -0.71478058    0.00018130   -0.71526866
     atom    2 type  1   force =    -0.71389870    0.00009251    0.71476583
     atom    3 type  1   force =     0.71417610   -0.00067908   -0.71464858
     atom    4 type  1   force =     0.71413999    0.00001972    0.71664672
     atom    5 type  2   force =    -0.42624464   -0.00016282    0.42364967
     atom    6 type  2   force =     0.42539003    0.00096981   -0.42382082
     atom    7 type  2   force =    -0.42415252   -0.00008557   -0.42447665
     atom    8 type  2   force =     0.42463497    0.00099356    0.42485817
     atom    9 type  3   force =    -0.14464470   -4.64821629   -3.25405450
     atom   10 type  3   force =     3.25395623    4.64744655    0.14244041
     atom   11 type  3   force =     3.25279521   -4.64977976   -0.14378305
     atom   12 type  3   force =    -0.14715340    4.64972396    3.25354920
     atom   13 type  3   force =     0.14659181    4.64896959   -3.25305462
     atom   14 type  3   force =    -3.25359145   -4.64958718    0.14397825
     atom   15 type  3   force =    -3.25373395    4.64868457   -0.14462240
     atom   16 type  3   force =     0.14689737   -4.64842341    3.25445602
     The core correction contribution to forces
     atom    1 type  1   force =     0.00000000    0.00000000    0.00000000
     atom    2 type  1   force =     0.00000000    0.00000000    0.00000000
     atom    3 type  1   force =     0.00000000    0.00000000    0.00000000
     atom    4 type  1   force =     0.00000000    0.00000000    0.00000000
     atom    5 type  2   force =     0.00110961   -0.00000199   -0.00110564
     atom    6 type  2   force =    -0.00110810    0.00000366    0.00110589
     atom    7 type  2   force =     0.00110889   -0.00000443    0.00110769
     atom    8 type  2   force =    -0.00110791    0.00000043   -0.00110465
     atom    9 type  3   force =    -0.00033233    0.00407944    0.00281251
     atom   10 type  3   force =    -0.00281214   -0.00407940    0.00033564
     atom   11 type  3   force =    -0.00281258    0.00407885   -0.00033407
     atom   12 type  3   force =    -0.00032991   -0.00407892   -0.00281263
     atom   13 type  3   force =     0.00033213   -0.00407942    0.00281245
     atom   14 type  3   force =     0.00281255    0.00408008    0.00033532
     atom   15 type  3   force =     0.00281244   -0.00407966   -0.00033306
     atom   16 type  3   force =     0.00033176    0.00407988   -0.00281206
     The Hubbard contrib.    to forces
     atom    1 type  1   force =     0.00000000    0.00000000    0.00000000
     atom    2 type  1   force =     0.00000000    0.00000000    0.00000000
     atom    3 type  1   force =     0.00000000    0.00000000    0.00000000
     atom    4 type  1   force =     0.00000000    0.00000000    0.00000000
     atom    5 type  2   force =     0.00000000    0.00000000    0.00000000
     atom    6 type  2   force =     0.00000000    0.00000000    0.00000000
     atom    7 type  2   force =     0.00000000    0.00000000    0.00000000
     atom    8 type  2   force =     0.00000000    0.00000000    0.00000000
     atom    9 type  3   force =     0.00000000    0.00000000    0.00000000
     atom   10 type  3   force =     0.00000000    0.00000000    0.00000000
     atom   11 type  3   force =     0.00000000    0.00000000    0.00000000
     atom   12 type  3   force =     0.00000000    0.00000000    0.00000000
     atom   13 type  3   force =     0.00000000    0.00000000    0.00000000
     atom   14 type  3   force =     0.00000000    0.00000000    0.00000000
     atom   15 type  3   force =     0.00000000    0.00000000    0.00000000
     atom   16 type  3   force =     0.00000000    0.00000000    0.00000000
     The SCF correction term to forces
     atom    1 type  1   force =     0.00003039   -0.00034014    0.00006470
     atom    2 type  1   force =    -0.00000785   -0.00017622    0.00002478
     atom    3 type  1   force =     0.00010185    0.00016993   -0.00007640
     atom    4 type  1   force =    -0.00007789    0.00034936   -0.00005052
     atom    5 type  2   force =     0.00003096    0.00048915    0.00005890
     atom    6 type  2   force =     0.00012926   -0.00032320   -0.00009037
     atom    7 type  2   force =    -0.00019624    0.00060731   -0.00007806
     atom    8 type  2   force =    -0.00029435   -0.00076665   -0.00009702
     atom    9 type  3   force =    -0.00017076   -0.00051721    0.00049255
     atom   10 type  3   force =    -0.00077682    0.00073808    0.00008494
     atom   11 type  3   force =     0.00079530    0.00068268    0.00006135
     atom   12 type  3   force =    -0.00000132   -0.00032775    0.00017622
     atom   13 type  3   force =    -0.00016358   -0.00028404   -0.00058395
     atom   14 type  3   force =     0.00002676   -0.00006668   -0.00011700
     atom   15 type  3   force =     0.00004604   -0.00024721   -0.00005387
     atom   16 type  3   force =    -0.00001260    0.00002392   -0.00033779

     Total force =     0.062831     Total SCF correction =     0.002320

     Computing stress (Cartesian axis) and pressure

          total   stress  (Ry/bohr**3)                   (kbar)     P=     -424.67
  -0.00291592  -0.00000016  -0.00000000         -428.95       -0.02       -0.00
  -0.00000016  -0.00282879   0.00000019           -0.02     -416.13        0.03
  -0.00000000   0.00000019  -0.00291591           -0.00        0.03     -428.95

     kinetic stress (kbar)  19586.00      0.03     -0.00
                                0.03  19535.45      0.00
                               -0.00      0.00  19585.95

     local   stress (kbar)  -4375.26     -0.25     -0.32
                               -0.25  -5809.40     -0.00
                               -0.32     -0.00  -4375.57

     nonloc. stress (kbar)  -5964.40     -0.00     -0.00
                               -0.00  -5927.54      0.02
                               -0.00      0.02  -5964.40

     hartree stress (kbar)  14962.96      0.13      0.13
                                0.13  15473.38     -0.01
                                0.13     -0.01  14963.09

     exc-cor stress (kbar)  -2250.57      0.00      0.00
                                0.00  -2249.02     -0.00
                                0.00     -0.00  -2250.57

     corecor stress (kbar)  -2897.36     -0.00      0.00
                               -0.00  -2896.62      0.00
                                0.00      0.00  -2897.36

     ewald   stress (kbar) -19490.31      0.07      0.19
                                0.07 -18542.38      0.02
                                0.19      0.02 -19490.09

     hubbard stress (kbar)      0.00      0.00      0.00
                                0.00      0.00      0.00
                                0.00      0.00      0.00

     DFT-D   stress (kbar)      0.00      0.00      0.00
                                0.00      0.00      0.00
                                0.00      0.00      0.00

     XDM     stress (kbar)      0.00      0.00      0.00
                                0.00      0.00      0.00
                                0.00      0.00      0.00

     dft-nl  stress (kbar)      0.00      0.00      0.00
                                0.00      0.00      0.00
                                0.00      0.00      0.00

     TS-vdW  stress (kbar)      0.00      0.00      0.00
                                0.00      0.00      0.00
                                0.00      0.00      0.00

[...]

                                0.00      0.00      0.00

     Writing all to output data dir new_calculations/myprefix.save/

     General routines

     Parallel routines

     PAW routines

   This run was terminated on:   0:35:16  21May2023

   JOB DONE.