     Program PWSCF v.7.0 starts on 20May2023 at 23:43:43

     Reading input from espresso_25182.pwi
Warning: card &CELL ignored
Warning: card / ignored

     Current dimensions of program PWSCF are:
     Max number of different atomic species (ntypx) = 10
     Max number of k-points (npk) =  40000
     Max angular momentum in pseudopotentials (lmaxx) =  4

     gamma-point specific algorithms are used
     Message from routine setup:
     using ibrav=0 with symmetry is DISCOURAGED, use correct ibrav instead

     Subspace diagonalization in iterative solution of the eigenvalue problem:
     a serial algorithm will be used

     Using Slab Decomposition

     bravais-lattice index     =            0
     lattice parameter (alat)  =      10.8363  a.u.
     unit-cell volume          =    1566.5280 (a.u.)^3
     number of atoms/cell      =           10
     number of atomic types    =            3
     number of electrons       =        96.00
     number of Kohn-Sham states=           58
     kinetic-energy cutoff     =      30.0000  Ry
     charge density cutoff     =     240.0000  Ry
     scf convergence threshold =      1.0E-06
     mixing beta               =       0.7000
     number of iterations used =            8  plain     mixing
     Exchange-correlation= SLA  PW   PBE  PBE
                           (   1   4   3   4   0   0   0)

     celldm(1)=  10.836326  celldm(2)=   0.000000  celldm(3)=   0.000000
     celldm(4)=   0.000000  celldm(5)=   0.000000  celldm(6)=   0.000000

     crystal axes: (cart. coord. in units of alat)
               a(1) = (   1.000000   0.000000   0.000000 )
               a(2) = (  -0.785612   0.618719   0.000000 )
               a(3) = (   0.000000   0.000000   1.989750 )

     reciprocal axes: (cart. coord. in units 2 pi/alat)
               b(1) = (  1.000000  1.269740  0.000000 )
               b(2) = (  0.000000  1.616242  0.000000 )
               b(3) = (  0.000000  0.000000  0.502576 )

     PseudoPot. # 1 for Na read from file:
     /home/pragov/projects/rrg-bengioy-ad/pragov/crystal_structure_design/SSSP/na_pbe_v1.5.uspp.F.UPF
     MD5 check sum: 44600605ef58000f06b90626533354dc
     Pseudo is Ultrasoft, Zval =  9.0
     Generated by new atomic code, or converted to UPF format
     Using radial grid of  819 points,  5 beta functions with:
                l(1) =   0
                l(2) =   0
                l(3) =   1
                l(4) =   1
                l(5) =   2
     Q(r) pseudized with  8 coefficients,  rinner =    1.250   1.250   1.250
                                                       1.250   1.250

     PseudoPot. # 2 for Pd read from file:
     /home/pragov/projects/rrg-bengioy-ad/pragov/crystal_structure_design/SSSP/Pd_ONCV_PBE-1.0.oncvpsp.upf
     MD5 check sum: eb77f42b51d86fb18e25f68156a31cf1
     Pseudo is Norm-conserving, Zval = 18.0
     Generated using ONCVPSP code by D. R. Hamann
     Using radial grid of 1410 points,  6 beta functions with:
                l(1) =   0
                l(2) =   0
                l(3) =   1
                l(4) =   1
                l(5) =   2
                l(6) =   2

     PseudoPot. # 3 for Se read from file:
     /home/pragov/projects/rrg-bengioy-ad/pragov/crystal_structure_design/SSSP/Se_pbe_v1.uspp.F.UPF
     MD5 check sum: 1b3568f3a8ae88f9a2a0ad0698632c85
     Pseudo is Ultrasoft + core correction, Zval =  6.0
     Generated by new atomic code, or converted to UPF format
     Using radial grid of  877 points,  6 beta functions with:
                l(1) =   0
                l(2) =   0
                l(3) =   1
                l(4) =   1
                l(5) =   2
                l(6) =   2
     Q(r) pseudized with  8 coefficients,  rinner =    1.300   1.300   1.300
                                                       1.300   1.300

     atomic species   valence    mass     pseudopotential
        Na             9.00    22.98977     Na( 1.00)
        Pd            18.00   106.42000     Pd( 1.00)
        Se             6.00    78.97100     Se( 1.00)

      2 Sym. Ops. (no inversion) found ( 1 have fractional translation)

                                    s                        frac. trans.

      isym =  1     identity

 cryst.   s( 1) = (     1          0          0      )
                  (     0          1          0      )
                  (     0          0          1      )

 cart.    s( 1) = (  1.0000000 -0.0000000  0.0000000 )
                  (  0.0000000  1.0000000  0.0000000 )
                  (  0.0000000  0.0000000  1.0000000 )

      isym =  2     180 deg rotation - cart. axis [0,0,1]

 cryst.   s( 2) = (    -1          0          0      )    f =(  0.0000000 )
                  (     0         -1          0      )       (  0.0000000 )
                  (     0          0          1      )       (  0.5000000 )

 cart.    s( 2) = ( -1.0000000  0.0000000  0.0000000 )    f =( -0.0000000 )
                  (  0.0000000 -1.0000000  0.0000000 )       (  0.0000000 )
                  (  0.0000000  0.0000000  1.0000000 )       (  0.9948749 )

   Cartesian axes

     site n.     atom                  positions (alat units)
         1           Na  tau(   1) = (  -0.0071567   0.3489823   1.2507667  )
         2           Na  tau(   2) = (   0.2215445   0.2697368   0.2558918  )
         3           Na  tau(   3) = (   0.6867000   0.1085592   1.7965033  )
         4           Na  tau(   4) = (  -0.4723123   0.5101599   0.8016284  )
         5           Pd  tau(   5) = (  -0.5422065   0.5343784   1.4910807  )
         6           Pd  tau(   6) = (   0.7565943   0.0843407   0.4962058  )
         7           Se  tau(   7) = (   0.5027266   0.1723065   1.2486138  )
         8           Se  tau(   8) = (  -0.2883389   0.4464127   0.2537389  )
         9           Se  tau(   9) = (   0.1953995   0.2787961   1.7303083  )
        10           Se  tau(  10) = (   0.0189882   0.3399231   0.7354334  )

   Crystallographic axes

     site n.     atom                  positions (cryst. coord.)
         1           Na  tau(   1) = (  0.4359600  0.5640400  0.6286050  )
         2           Na  tau(   2) = (  0.5640400  0.4359600  0.1286050  )
         3           Na  tau(   3) = (  0.8245420  0.1754580  0.9028790  )
         4           Na  tau(   4) = (  0.1754580  0.8245420  0.4028790  )
         5           Pd  tau(   5) = (  0.1363150  0.8636850  0.7493810  )
         6           Pd  tau(   6) = (  0.8636850  0.1363150  0.2493810  )
         7           Se  tau(   7) = (  0.7215110  0.2784890  0.6275230  )
         8           Se  tau(   8) = (  0.2784890  0.7215110  0.1275230  )
         9           Se  tau(   9) = (  0.5493980  0.4506020  0.8696110  )
        10           Se  tau(  10) = (  0.4506020  0.5493980  0.3696110  )

     number of k points=     1  Methfessel-Paxton smearing, width (Ry)=  0.0010
                       cart. coord. in units 2pi/alat
        k(    1) = (   0.0000000   0.0000000   0.0000000), wk =   2.0000000

                       cryst. coord.
        k(    1) = (   0.0000000   0.0000000   0.0000000), wk =   2.0000000

     Initial potential from superposition of free atoms

     starting charge      95.9739, renormalised to      96.0000
     Starting wfcs are   56 randomized atomic wfcs +    2 random wfcs

     Self-consistent Calculation

     iteration #  1     ecut=    30.00 Ry     beta= 0.70
     Davidson diagonalization with overlap

     ethr =  1.00E-02,  avg # of iterations =  6.0

     Threshold (ethr) on eigenvalues was too large:
     Diagonalizing with lowered threshold

     Davidson diagonalization with overlap

[...]

     total energy              =   -1061.84901595 Ry
     estimated scf accuracy    <       0.54801976 Ry

[...]

     total energy              =   -1062.06939130 Ry
     estimated scf accuracy    <       0.00005494 Ry

     iteration #  9     ecut=    30.00 Ry     beta= 0.70
     Davidson diagonalization with overlap

     ethr =  2.64E-08,  avg # of iterations =  2.0

     End of self-consistent calculation

          k = 0.0000 0.0000 0.0000 (  2168 PWs)   bands (ev):

   -79.5807 -79.5801 -45.9966 -45.9965 -45.7765 -45.7762 -45.2948 -45.2942
   -45.0307 -45.0297 -44.5221 -44.5214 -17.9119 -17.9117 -17.9037 -17.9022
   -17.8920 -17.8919 -17.7029 -17.7017 -17.6866 -17.6855 -17.6770 -17.6761
    -7.0921  -6.9127  -6.3207  -6.1066   0.9142   1.1798   1.3773   1.3846
     2.4008   2.4907   3.2092   3.3708   3.4487   3.5629   3.5663   3.5705
     4.0123   4.2646   4.6399   4.7782   4.8296   5.0729   5.0818   5.4324
     7.6443   7.7058   7.7158   8.1599   9.4861   9.8348  11.0277  11.3841
    11.8483  12.3839

     occupation numbers
     1.0000   1.0000   1.0000   1.0000   1.0000   1.0000   1.0000   1.0000
     1.0000   1.0000   1.0000   1.0000   1.0000   1.0000   1.0000   1.0000
     1.0000   1.0000   1.0000   1.0000   1.0000   1.0000   1.0000   1.0000
     1.0000   1.0000   1.0000   1.0000   1.0000   1.0000   1.0000   1.0000
     1.0000   1.0000   1.0000   1.0000   1.0000   1.0000   1.0000   1.0000
     1.0000   1.0000   1.0000   1.0000   1.0000   1.0000   1.0000   1.0000
    -0.0000  -0.0000  -0.0000  -0.0000  -0.0000  -0.0000  -0.0000  -0.0000
    -0.0000  -0.0000

     the Fermi energy is     6.7551 ev

!    total energy              =   -1062.06939656 Ry
     estimated scf accuracy    <       0.00000016 Ry
     smearing contrib. (-TS)   =       0.00000000 Ry
     internal energy E=F+TS    =   -1062.06939656 Ry

     The total energy is F=E-TS. E is the sum of the following terms:
     one-electron contribution =    -693.33602504 Ry
     hartree contribution      =     371.38345488 Ry
     xc contribution           =    -226.05644080 Ry
     ewald contribution        =    -514.06038559 Ry

     convergence has been achieved in   9 iterations

     Forces acting on atoms (cartesian axes, Ry/au):

     atom    1 type  1   force =     0.00293803   -0.00101742   -0.00220913
     atom    2 type  1   force =    -0.00293803    0.00101742   -0.00220913
     atom    3 type  1   force =    -0.00139615    0.00048588    0.00118949
     atom    4 type  1   force =     0.00139615   -0.00048588    0.00118949
     atom    5 type  2   force =    -0.00326642    0.00113476   -0.00087080
     atom    6 type  2   force =     0.00326642   -0.00113476   -0.00087080
     atom    7 type  3   force =    -0.01000419    0.00346643    0.01406730
     atom    8 type  3   force =     0.01000419   -0.00346643    0.01406730
     atom    9 type  3   force =     0.00915799   -0.00317305   -0.01217686
     atom   10 type  3   force =    -0.00915799    0.00317305   -0.01217686
     The non-local contrib.  to forces
     atom    1 type  1   force =    -0.07488220    0.02594848   -0.02238949
     atom    2 type  1   force =     0.07488220   -0.02594848   -0.02238949
     atom    3 type  1   force =     0.09787394   -0.03390920    0.04152842
     atom    4 type  1   force =    -0.09787394    0.03390920    0.04152842
     atom    5 type  2   force =    -0.00794661    0.00275293    0.00894751
     atom    6 type  2   force =     0.00794661   -0.00275293    0.00894751
     atom    7 type  3   force =    -0.03652744    0.01265570    0.09139197
     atom    8 type  3   force =     0.03652744   -0.01265570    0.09139197
     atom    9 type  3   force =    -0.01049868    0.00363929   -0.08549436
     atom   10 type  3   force =     0.01049868   -0.00363929   -0.08549436
     The ionic contribution  to forces
     atom    1 type  1   force =    -2.19897225    0.76194940   -4.94383308
     atom    2 type  1   force =     2.19897225   -0.76194940   -4.94383308
     atom    3 type  1   force =     2.50660497   -0.86854491    3.99522562
     atom    4 type  1   force =    -2.50660497    0.86854491    3.99522562
     atom    5 type  2   force =     0.08217839   -0.02847502    0.77714534
     atom    6 type  2   force =    -0.08217839    0.02847502    0.77714534
     atom    7 type  3   force =     3.55380508   -1.23140238   -7.07177701
     atom    8 type  3   force =    -3.55380508    1.23140237   -7.07177701
     atom    9 type  3   force =    -3.74183690    1.29655587    7.24323913
     atom   10 type  3   force =     3.74183690   -1.29655587    7.24323913
     The local contribution  to forces
     atom    1 type  1   force =     2.27691874   -0.78895509    4.96368545
     atom    2 type  1   force =    -2.27703608    0.78900194    4.96375077
     atom    3 type  1   force =    -2.60610207    0.90301886   -4.03536598
     atom    4 type  1   force =     2.60599969   -0.90298504   -4.03523641
     atom    5 type  2   force =    -0.07821212    0.02707958   -0.78564274
     atom    6 type  2   force =     0.07855190   -0.02723872   -0.78612431
     atom    7 type  3   force =    -3.53180710    1.22378155    7.00535105
     atom    8 type  3   force =     3.53199702   -1.22385130    7.00510911
     atom    9 type  3   force =     3.76023401   -1.30292255   -7.18010598
     atom   10 type  3   force =    -3.76012256    1.30290290   -7.18002412
     The core correction contribution to forces
     atom    1 type  1   force =     0.00000000    0.00000000    0.00000000
     atom    2 type  1   force =     0.00000000    0.00000000    0.00000000
     atom    3 type  1   force =     0.00000000    0.00000000    0.00000000
     atom    4 type  1   force =     0.00000000    0.00000000    0.00000000
     atom    5 type  2   force =     0.00000000    0.00000000    0.00000000
     atom    6 type  2   force =     0.00000000    0.00000000    0.00000000
     atom    7 type  3   force =     0.00458228   -0.00158787   -0.01097289
     atom    8 type  3   force =    -0.00457571    0.00158518   -0.01099477
     atom    9 type  3   force =     0.00138770   -0.00048077    0.01028871
     atom   10 type  3   force =    -0.00138283    0.00047979    0.01026980
     The Hubbard contrib.    to forces
     atom    1 type  1   force =     0.00000000    0.00000000    0.00000000
     atom    2 type  1   force =     0.00000000    0.00000000    0.00000000
     atom    3 type  1   force =     0.00000000    0.00000000    0.00000000
     atom    4 type  1   force =     0.00000000    0.00000000    0.00000000
     atom    5 type  2   force =     0.00000000    0.00000000    0.00000000
     atom    6 type  2   force =     0.00000000    0.00000000    0.00000000
     atom    7 type  3   force =     0.00000000    0.00000000    0.00000000
     atom    8 type  3   force =     0.00000000    0.00000000    0.00000000
     atom    9 type  3   force =     0.00000000    0.00000000    0.00000000
     atom   10 type  3   force =     0.00000000    0.00000000    0.00000000
     The SCF correction term to forces
     atom    1 type  1   force =    -0.00007612    0.00002389    0.00037114
     atom    2 type  1   force =     0.00029375   -0.00010254    0.00020225
     atom    3 type  1   force =     0.00019126   -0.00006871   -0.00003862
     atom    4 type  1   force =    -0.00016038    0.00005521   -0.00050537
     atom    5 type  2   force =     0.00065486   -0.00020068   -0.00091560
     atom    6 type  2   force =    -0.00111276    0.00040392   -0.00126192
     atom    7 type  3   force =    -0.00000863    0.00000139    0.00016343
     atom    8 type  3   force =    -0.00009111    0.00003497    0.00023149
     atom    9 type  3   force =    -0.00008779    0.00002494   -0.00001818
     atom   10 type  3   force =     0.00005217   -0.00002463   -0.00027076

     Total force =     0.034149     Total SCF correction =     0.002255

     Computing stress (Cartesian axis) and pressure

          total   stress  (Ry/bohr**3)                   (kbar)     P=     -238.25
  -0.00128167  -0.00023676   0.00000000         -188.54      -34.83        0.00
  -0.00023676  -0.00188290   0.00000000          -34.83     -276.98        0.00
   0.00000000   0.00000000  -0.00169413            0.00        0.00     -249.22

     kinetic stress (kbar)  16754.22   -246.70      0.00
                             -246.70  16127.74      0.00
                                0.00      0.00  16571.12

     local   stress (kbar)   3074.47  -3302.53     -0.00
                            -3302.53  -5312.23      0.00
                               -0.00      0.00  11281.28

     nonloc. stress (kbar) -11306.28     27.99      0.00
                               27.99 -11235.20      0.00
                                0.00      0.00 -11321.28

     hartree stress (kbar)  11861.95   1278.80      0.01
                             1278.80  15109.44     -0.01
                                0.01     -0.01   7903.44

     exc-cor stress (kbar)   5446.20      0.83     -0.00
                                0.83   5448.32      0.00
                               -0.00      0.00   5447.94

     corecor stress (kbar)  -9433.25      1.36     -0.00
                                1.36  -9429.79      0.00
                               -0.00      0.00  -9429.90

     ewald   stress (kbar) -16585.86   2205.41      0.00
                             2205.41 -10985.26      0.00
                                0.00      0.00 -20701.81

     hubbard stress (kbar)      0.00      0.00      0.00
                                0.00      0.00      0.00
                                0.00      0.00      0.00

     DFT-D   stress (kbar)      0.00      0.00      0.00
                                0.00      0.00      0.00
                                0.00      0.00      0.00

     XDM     stress (kbar)      0.00      0.00      0.00
                                0.00      0.00      0.00
                                0.00      0.00      0.00

     dft-nl  stress (kbar)      0.00      0.00      0.00
                                0.00      0.00      0.00
                                0.00      0.00      0.00

     TS-vdW  stress (kbar)      0.00      0.00      0.00
                                0.00      0.00      0.00
                                0.00      0.00      0.00

[...]

                                0.00      0.00      0.00

     Writing all to output data dir new_calculations/myprefix.save/

     General routines

     Parallel routines

   This run was terminated on:  23:44: 4  20May2023

   JOB DONE.