     Program PWSCF v.7.0 starts on 21May2023 at 13: 8:49

     Reading input from espresso_21932.pwi
Warning: card &CELL ignored
Warning: card / ignored

     Current dimensions of program PWSCF are:
     Max number of different atomic species (ntypx) = 10
     Max number of k-points (npk) =  40000
     Max angular momentum in pseudopotentials (lmaxx) =  4
     file O.pbe-n-kjpaw_psl.0.1.UPF: wavefunction(s)  2P renormalized

     gamma-point specific algorithms are used
     Message from routine setup:
     using ibrav=0 with symmetry is DISCOURAGED, use correct ibrav instead

     Subspace diagonalization in iterative solution of the eigenvalue problem:
     a serial algorithm will be used

     Using Slab Decomposition

     bravais-lattice index     =            0
     lattice parameter (alat)  =      10.3339  a.u.
     unit-cell volume          =    1700.2579 (a.u.)^3
     number of atoms/cell      =           20
     number of atomic types    =            3
     number of electrons       =       160.00
     number of Kohn-Sham states=           96
     kinetic-energy cutoff     =      30.0000  Ry
     charge density cutoff     =     240.0000  Ry
     scf convergence threshold =      1.0E-06
     mixing beta               =       0.7000
     number of iterations used =            8  plain     mixing
     Exchange-correlation= SLA  PW   PBX  PBC
                           (   1   4   3   4   0   0   0)

     celldm(1)=  10.333869  celldm(2)=   0.000000  celldm(3)=   0.000000
     celldm(4)=   0.000000  celldm(5)=   0.000000  celldm(6)=   0.000000

     crystal axes: (cart. coord. in units of alat)
               a(1) = (   1.000000   0.000000   0.000000 )
               a(2) = (   0.000000   1.053714   0.000000 )
               a(3) = (   0.000000   0.000000   1.462188 )

     reciprocal axes: (cart. coord. in units 2 pi/alat)
               b(1) = (  1.000000  0.000000  0.000000 )
               b(2) = (  0.000000  0.949024  0.000000 )
               b(3) = (  0.000000  0.000000  0.683907 )

     PseudoPot. # 1 for Y  read from file:
     /home/pragov/projects/rrg-bengioy-ad/pragov/crystal_structure_design/SSSP/Y_pbe_v1.uspp.F.UPF
     MD5 check sum: 2cf71db95cafeb975fc457bd7f14888e
     Pseudo is Ultrasoft + core correction, Zval = 11.0
     Generated by new atomic code, or converted to UPF format
     Using radial grid of  885 points,  6 beta functions with:
                l(1) =   0
                l(2) =   0
                l(3) =   1
                l(4) =   1
                l(5) =   2
                l(6) =   2
     Q(r) pseudized with  6 coefficients,  rinner =    1.200   1.200   1.200
                                                       1.200   1.200

     PseudoPot. # 2 for Sc read from file:
     /home/pragov/projects/rrg-bengioy-ad/pragov/crystal_structure_design/SSSP/Sc_ONCV_PBE-1.0.oncvpsp.upf
     MD5 check sum: e21af8023abb52e52cb7cd3133e4a229
     Pseudo is Norm-conserving, Zval = 11.0
     Generated using ONCVPSP code by D. R. Hamann
     Using radial grid of 1662 points,  6 beta functions with:
                l(1) =   0
                l(2) =   0
                l(3) =   1
                l(4) =   1
                l(5) =   2
                l(6) =   2

     PseudoPot. # 3 for O  read from file:
     /home/pragov/projects/rrg-bengioy-ad/pragov/crystal_structure_design/SSSP/O.pbe-n-kjpaw_psl.0.1.UPF
     MD5 check sum: 0234752ac141de4415c5fc33072bef88
     Pseudo is Projector augmented-wave + core cor, Zval =  6.0
     Generated using "atomic" code by A. Dal Corso  v.5.0.99 svn rev. 10869
     Shape of augmentation charge: BESSEL
     Using radial grid of 1095 points,  4 beta functions with:
                l(1) =   0
                l(2) =   0
                l(3) =   1
                l(4) =   1
     Q(r) pseudized with 0 coefficients

     atomic species   valence    mass     pseudopotential
        Y             11.00    88.90584     Y ( 1.00)
        Sc            11.00    44.95591     Sc( 1.00)
        O              6.00    15.99900     O ( 1.00)

      8 Sym. Ops., with inversion, found ( 6 have fractional translation)

                                    s                        frac. trans.

      isym =  1     identity

 cryst.   s( 1) = (     1          0          0      )
                  (     0          1          0      )
                  (     0          0          1      )

 cart.    s( 1) = (  1.0000000  0.0000000  0.0000000 )
                  (  0.0000000  1.0000000  0.0000000 )
                  (  0.0000000  0.0000000  1.0000000 )

      isym =  2     180 deg rotation - cart. axis [0,0,1]

 cryst.   s( 2) = (    -1          0          0      )    f =(  0.0000000 )
                  (     0         -1          0      )       (  0.0000000 )
                  (     0          0          1      )       (  0.5000000 )

 cart.    s( 2) = ( -1.0000000  0.0000000  0.0000000 )    f =(  0.0000000 )
                  (  0.0000000 -1.0000000  0.0000000 )       (  0.0000000 )
                  (  0.0000000  0.0000000  1.0000000 )       (  0.7310940 )

[...]

      isym =  4     180 deg rotation - cart. axis [1,0,0]

[...]

      isym =  5     inversion

 cryst.   s( 5) = (    -1          0          0      )
                  (     0         -1          0      )
                  (     0          0         -1      )

 cart.    s( 5) = ( -1.0000000  0.0000000  0.0000000 )
                  (  0.0000000 -1.0000000  0.0000000 )
                  (  0.0000000  0.0000000 -1.0000000 )

      isym =  6     inv. 180 deg rotation - cart. axis [0,0,1]

[...]

      isym =  8     inv. 180 deg rotation - cart. axis [1,0,0]

 cryst.   s( 8) = (    -1          0          0      )    f =(  0.5000000 )
                  (     0          1          0      )       (  0.5000000 )
                  (     0          0          1      )       (  0.0000000 )

 cart.    s( 8) = ( -1.0000000  0.0000000  0.0000000 )    f =(  0.5000000 )
                  (  0.0000000  1.0000000  0.0000000 )       (  0.5268570 )
                  (  0.0000000  0.0000000  1.0000000 )       (  0.0000000 )

   Cartesian axes

     site n.     atom                  positions (alat units)
         1           Y   tau(   1) = (   0.9803480   0.9877768   1.0966410  )
         2           Y   tau(   2) = (   0.4803480   0.5927942   0.3655470  )
         3           Y   tau(   3) = (   0.5196520   0.4609198   1.0966410  )
         4           Y   tau(   4) = (   0.0196520   0.0659372   0.3655470  )
         5           Sc  tau(   5) = (   0.5000000   0.0000000   0.0000000  )
         6           Sc  tau(   6) = (   0.0000000   0.5268570   0.7310940  )
         7           Sc  tau(   7) = (   0.0000000   0.5268570   0.0000000  )
         8           Sc  tau(   8) = (   0.5000000   0.0000000   0.7310940  )
         9           O   tau(   9) = (   0.6289500   0.9944731   0.3655470  )
        10           O   tau(  10) = (   0.1900850   0.8515589   0.6345428  )
        11           O   tau(  11) = (   0.1900850   0.8515589   0.0965512  )
        12           O   tau(  12) = (   0.6900850   0.7290120   0.8276452  )
        13           O   tau(  13) = (   0.6900850   0.7290120   1.3656368  )
        14           O   tau(  14) = (   0.1289500   0.5860978   1.0966410  )
        15           O   tau(  15) = (   0.8710500   0.4676161   0.3655470  )
        16           O   tau(  16) = (   0.3099150   0.3247020   0.6345428  )
        17           O   tau(  17) = (   0.3099150   0.3247020   0.0965512  )
        18           O   tau(  18) = (   0.8099150   0.2021550   0.8276452  )
        19           O   tau(  19) = (   0.8099150   0.2021550   1.3656368  )
        20           O   tau(  20) = (   0.3710500   0.0592409   1.0966410  )

   Crystallographic axes

     site n.     atom                  positions (cryst. coord.)
         1           Y   tau(   1) = (  0.9803480  0.9374240  0.7500000  )
         2           Y   tau(   2) = (  0.4803480  0.5625760  0.2500000  )
         3           Y   tau(   3) = (  0.5196520  0.4374240  0.7500000  )
         4           Y   tau(   4) = (  0.0196520  0.0625760  0.2500000  )
         5           Sc  tau(   5) = (  0.5000000  0.0000000  0.0000000  )
         6           Sc  tau(   6) = (  0.0000000  0.5000000  0.5000000  )
         7           Sc  tau(   7) = (  0.0000000  0.5000000  0.0000000  )
         8           Sc  tau(   8) = (  0.5000000  0.0000000  0.5000000  )
         9           O   tau(   9) = (  0.6289500  0.9437790  0.2500000  )
        10           O   tau(  10) = (  0.1900850  0.8081500  0.4339680  )
        11           O   tau(  11) = (  0.1900850  0.8081500  0.0660320  )
        12           O   tau(  12) = (  0.6900850  0.6918500  0.5660320  )
        13           O   tau(  13) = (  0.6900850  0.6918500  0.9339680  )
        14           O   tau(  14) = (  0.1289500  0.5562210  0.7500000  )
        15           O   tau(  15) = (  0.8710500  0.4437790  0.2500000  )
        16           O   tau(  16) = (  0.3099150  0.3081500  0.4339680  )
        17           O   tau(  17) = (  0.3099150  0.3081500  0.0660320  )
        18           O   tau(  18) = (  0.8099150  0.1918500  0.5660320  )
        19           O   tau(  19) = (  0.8099150  0.1918500  0.9339680  )
        20           O   tau(  20) = (  0.3710500  0.0562210  0.7500000  )

     number of k points=     1  Methfessel-Paxton smearing, width (Ry)=  0.0010
                       cart. coord. in units 2pi/alat
        k(    1) = (   0.0000000   0.0000000   0.0000000), wk =   2.0000000

                       cryst. coord.
        k(    1) = (   0.0000000   0.0000000   0.0000000), wk =   2.0000000

     Check: negative core charge=   -0.000015

     Initial potential from superposition of free atoms

     starting charge     159.9715, renormalised to     160.0000

     negative rho (up, down):  1.696E-01 0.000E+00
     Starting wfcs are  140 randomized atomic wfcs
     Checking if some PAW data can be deallocated...

     Self-consistent Calculation

     iteration #  1     ecut=    30.00 Ry     beta= 0.70
     Davidson diagonalization with overlap

     ethr =  1.00E-02,  avg # of iterations =  2.0

     negative rho (up, down):  1.736E-01 0.000E+00

     total energy              =   -1217.00742625 Ry
     estimated scf accuracy    <       5.91277849 Ry

[...]

     total energy              =   -1220.00084218 Ry
     estimated scf accuracy    <       0.00000284 Ry

     iteration # 11     ecut=    30.00 Ry     beta= 0.70
     Davidson diagonalization with overlap

     ethr =  1.77E-09,  avg # of iterations =  2.0

[...]

     End of self-consistent calculation

          k = 0.0000 0.0000 0.0000 (  2356 PWs)   bands (ev):

   -37.8583 -37.8554 -37.8518 -37.8491 -30.6976 -30.6929 -30.6785 -30.6735
   -16.6918 -16.6780 -16.6735 -16.6421 -16.6085 -16.5810 -16.5445 -16.5442
   -16.5158 -16.4989 -16.4724 -16.4718 -11.1398 -11.1076 -11.1035 -11.0982
   -11.0627 -10.9049 -10.8460 -10.7683 -10.7518 -10.7386 -10.6743 -10.6737
    -7.2128  -6.6106  -6.3851  -6.3683  -6.2763  -6.1205  -6.0830  -6.0416
    -5.9991  -5.9514  -5.6423  -5.5989   5.5686   5.9723   6.1959   6.2429
     6.3667   6.5057   6.7455   6.8340   6.8749   6.8840   6.9891   7.1991
     7.2534   7.3385   7.5242   7.6056   7.6705   7.7625   7.7894   7.8142
     7.8222   8.0452   8.0822   8.2280   8.3114   8.3967   8.4260   8.5124
     8.7067   8.7477   8.8658   8.9403   9.0832   9.2555   9.2973   9.4085
    13.7954  13.8920  13.8984  14.0973  14.3453  14.5328  14.6669  14.8524
    14.9895  15.0342  15.1648  15.2464  15.3314  15.3492  15.5220  15.6290

     occupation numbers
     1.0000   1.0000   1.0000   1.0000   1.0000   1.0000   1.0000   1.0000
     1.0000   1.0000   1.0000   1.0000   1.0000   1.0000   1.0000   1.0000
     1.0000   1.0000   1.0000   1.0000   1.0000   1.0000   1.0000   1.0000
     1.0000   1.0000   1.0000   1.0000   1.0000   1.0000   1.0000   1.0000
     1.0000   1.0000   1.0000   1.0000   1.0000   1.0000   1.0000   1.0000
     1.0000   1.0000   1.0000   1.0000   1.0000   1.0000   1.0000   1.0000
     1.0000   1.0000   1.0000   1.0000   1.0000   1.0000   1.0000   1.0000
     1.0000   1.0000   1.0000   1.0000   1.0000   1.0000   1.0000   1.0000
     1.0000   1.0000   1.0000   1.0000   1.0000   1.0000   1.0000   1.0000
     1.0000   1.0000   1.0000   1.0000   1.0000   1.0000   1.0000   1.0000
    -0.0000  -0.0000  -0.0000  -0.0000  -0.0000  -0.0000  -0.0000  -0.0000
    -0.0000  -0.0000  -0.0000  -0.0000  -0.0000  -0.0000  -0.0000  -0.0000

     the Fermi energy is    12.4051 ev

!    total energy              =   -1220.00084220 Ry
     estimated scf accuracy    <       0.00000030 Ry
     smearing contrib. (-TS)   =       0.00000000 Ry
     internal energy E=F+TS    =   -1220.00084220 Ry

     The total energy is F=E-TS. E is the sum of the following terms:
     one-electron contribution =    -232.54041484 Ry
     hartree contribution      =     203.49055794 Ry
     xc contribution           =    -226.07014264 Ry
     ewald contribution        =    -850.67558810 Ry
     one-center paw contrib.   =    -114.20525456 Ry
      -> PAW hartree energy AE =     360.08026434 Ry
      -> PAW hartree energy PS =    -358.78809962 Ry
      -> PAW xc energy AE      =    -206.68251908 Ry
      -> PAW xc energy PS      =      91.18509980 Ry
      -> total E_H with PAW    =     204.78272267 Ry
      -> total E_XC with PAW   =    -341.56756193 Ry

     convergence has been achieved in  11 iterations

     negative rho (up, down):  1.764E-01 0.000E+00

     Forces acting on atoms (cartesian axes, Ry/au):

     atom    1 type  1   force =     0.00047379   -0.01388625    0.00000000
     atom    2 type  1   force =     0.00047379    0.01388625    0.00000000
     atom    3 type  1   force =    -0.00047379   -0.01388625    0.00000000
     atom    4 type  1   force =    -0.00047379    0.01388625   -0.00000000
     atom    5 type  2   force =     0.00000000   -0.00000000    0.00000000
     atom    6 type  2   force =     0.00000000    0.00000000    0.00000000
     atom    7 type  2   force =     0.00000000   -0.00000000    0.00000000
     atom    8 type  2   force =     0.00000000    0.00000000    0.00000000
     atom    9 type  3   force =    -0.00178381   -0.02235293   -0.00000000
     atom   10 type  3   force =    -0.00648501    0.00418759   -0.02458450
     atom   11 type  3   force =    -0.00648501    0.00418759    0.02458450
     atom   12 type  3   force =    -0.00648501   -0.00418759    0.02458450
     atom   13 type  3   force =    -0.00648501   -0.00418759   -0.02458450
     atom   14 type  3   force =    -0.00178381    0.02235293    0.00000000
     atom   15 type  3   force =     0.00178381   -0.02235293    0.00000000
     atom   16 type  3   force =     0.00648501    0.00418759   -0.02458450
     atom   17 type  3   force =     0.00648501    0.00418759    0.02458450
     atom   18 type  3   force =     0.00648501   -0.00418759    0.02458450
     atom   19 type  3   force =     0.00648501   -0.00418759   -0.02458450
     atom   20 type  3   force =     0.00178381    0.02235293    0.00000000
     The non-local contrib.  to forces
     atom    1 type  1   force =    -0.02119628   -0.02057255    0.00000000
     atom    2 type  1   force =    -0.02119628    0.02057255   -0.00000000
     atom    3 type  1   force =     0.02119628   -0.02057255    0.00000000
     atom    4 type  1   force =     0.02119628    0.02057255    0.00000000
     atom    5 type  2   force =     0.00000000    0.00000000    0.00000000
     atom    6 type  2   force =     0.00000000    0.00000000    0.00000000
     atom    7 type  2   force =     0.00000000   -0.00000000    0.00000000
     atom    8 type  2   force =     0.00000000    0.00000000   -0.00000000
     atom    9 type  3   force =    -0.03362559   -0.02366271    0.00000000
     atom   10 type  3   force =     0.06917883    0.02743190   -0.07914810
     atom   11 type  3   force =     0.06917883    0.02743190    0.07914810
     atom   12 type  3   force =     0.06917883   -0.02743190    0.07914810
     atom   13 type  3   force =     0.06917883   -0.02743190   -0.07914810
     atom   14 type  3   force =    -0.03362559    0.02366271    0.00000000
     atom   15 type  3   force =     0.03362559   -0.02366271    0.00000000
     atom   16 type  3   force =    -0.06917883    0.02743190   -0.07914810
     atom   17 type  3   force =    -0.06917883    0.02743190    0.07914810
     atom   18 type  3   force =    -0.06917883   -0.02743190    0.07914810
     atom   19 type  3   force =    -0.06917883   -0.02743190   -0.07914810
     atom   20 type  3   force =     0.03362559    0.02366271    0.00000000
     The ionic contribution  to forces
     atom    1 type  1   force =     0.99037836    0.99519736    0.00000000
     atom    2 type  1   force =     0.99037836   -0.99519736   -0.00000000
     atom    3 type  1   force =    -0.99037836    0.99519736    0.00000000
     atom    4 type  1   force =    -0.99037836   -0.99519736   -0.00000000
     atom    5 type  2   force =     0.00000000    0.00000000    0.00000000
     atom    6 type  2   force =     0.00000000    0.00000000   -0.00000000
     atom    7 type  2   force =     0.00000000    0.00000000    0.00000000
     atom    8 type  2   force =    -0.00000000    0.00000000   -0.00000000
     atom    9 type  3   force =     1.49573461    0.39931369   -0.00000000
     atom   10 type  3   force =    -1.39705989    0.05620321   -0.05418727
     atom   11 type  3   force =    -1.39705989    0.05620321    0.05418727
     atom   12 type  3   force =    -1.39705989   -0.05620321    0.05418727
     atom   13 type  3   force =    -1.39705989   -0.05620321   -0.05418727
     atom   14 type  3   force =     1.49573461   -0.39931369    0.00000000
     atom   15 type  3   force =    -1.49573461    0.39931369    0.00000000
     atom   16 type  3   force =     1.39705989    0.05620321   -0.05418727
     atom   17 type  3   force =     1.39705989    0.05620321    0.05418727
     atom   18 type  3   force =     1.39705989   -0.05620321    0.05418727
     atom   19 type  3   force =     1.39705989   -0.05620321   -0.05418727
     atom   20 type  3   force =    -1.49573461   -0.39931369   -0.00000000
     The local contribution  to forces
     atom    1 type  1   force =    -0.97020720   -0.98926003   -0.00002167
     atom    2 type  1   force =    -0.97010966    0.98925693    0.00001502
     atom    3 type  1   force =     0.97020504   -0.98922624   -0.00001121
     atom    4 type  1   force =     0.97010554    0.98926317    0.00002411
     atom    5 type  2   force =     0.00003705    0.00000306    0.00000452
     atom    6 type  2   force =    -0.00003402    0.00001654   -0.00001679
     atom    7 type  2   force =    -0.00003630   -0.00000390    0.00001310
     atom    8 type  2   force =     0.00002819   -0.00003032   -0.00001124
     atom    9 type  3   force =    -1.46438041   -0.39811267    0.00003326
     atom   10 type  3   force =     1.32197532   -0.07940542    0.10801342
     atom   11 type  3   force =     1.32195689   -0.07941931   -0.10799174
     atom   12 type  3   force =     1.32197836    0.07941984   -0.10797179
     atom   13 type  3   force =     1.32197977    0.07939408    0.10794595
     atom   14 type  3   force =    -1.46442203    0.39811669   -0.00001403
     atom   15 type  3   force =     1.46439472   -0.39811602    0.00001466
     atom   16 type  3   force =    -1.32198318   -0.07941995    0.10801126
     atom   17 type  3   force =    -1.32198497   -0.07940122   -0.10799031
     atom   18 type  3   force =    -1.32198307    0.07939926   -0.10798117
     atom   19 type  3   force =    -1.32196304    0.07941229    0.10796257
     atom   20 type  3   force =     1.46441664    0.39811326   -0.00003418
     The core correction contribution to forces
     atom    1 type  1   force =     0.00145821    0.00077301   -0.00000090
     atom    2 type  1   force =     0.00145897   -0.00077329    0.00000079
     atom    3 type  1   force =    -0.00145857    0.00077284   -0.00000075
     atom    4 type  1   force =    -0.00145908   -0.00077241    0.00000078
     atom    5 type  2   force =     0.00000000    0.00000000    0.00000000
     atom    6 type  2   force =     0.00000000    0.00000000    0.00000000
     atom    7 type  2   force =     0.00000000    0.00000000    0.00000000
     atom    8 type  2   force =     0.00000000    0.00000000    0.00000000
     atom    9 type  3   force =     0.00050824    0.00014072   -0.00000012
     atom   10 type  3   force =    -0.00059057   -0.00005893    0.00078238
     atom   11 type  3   force =    -0.00059050   -0.00005892   -0.00078239
     atom   12 type  3   force =    -0.00059066    0.00005872   -0.00078211
     atom   13 type  3   force =    -0.00059082    0.00005880    0.00078204
     atom   14 type  3   force =     0.00050793   -0.00014098    0.00000005
     atom   15 type  3   force =    -0.00050818    0.00014070    0.00000001
     atom   16 type  3   force =     0.00059048   -0.00005893    0.00078258
     atom   17 type  3   force =     0.00059054   -0.00005897   -0.00078245
     atom   18 type  3   force =     0.00059058    0.00005899   -0.00078227
     atom   19 type  3   force =     0.00059062    0.00005889    0.00078218
     atom   20 type  3   force =    -0.00050790   -0.00014075    0.00000007
     The Hubbard contrib.    to forces
     atom    1 type  1   force =     0.00000000    0.00000000    0.00000000
     atom    2 type  1   force =     0.00000000    0.00000000    0.00000000
     atom    3 type  1   force =     0.00000000    0.00000000    0.00000000
     atom    4 type  1   force =     0.00000000    0.00000000    0.00000000
     atom    5 type  2   force =     0.00000000    0.00000000    0.00000000
     atom    6 type  2   force =     0.00000000    0.00000000    0.00000000
     atom    7 type  2   force =     0.00000000    0.00000000    0.00000000
     atom    8 type  2   force =     0.00000000    0.00000000    0.00000000
     atom    9 type  3   force =     0.00000000    0.00000000    0.00000000
     atom   10 type  3   force =     0.00000000    0.00000000    0.00000000
     atom   11 type  3   force =     0.00000000    0.00000000    0.00000000
     atom   12 type  3   force =     0.00000000    0.00000000    0.00000000
     atom   13 type  3   force =     0.00000000    0.00000000    0.00000000
     atom   14 type  3   force =     0.00000000    0.00000000    0.00000000
     atom   15 type  3   force =     0.00000000    0.00000000    0.00000000
     atom   16 type  3   force =     0.00000000    0.00000000    0.00000000
     atom   17 type  3   force =     0.00000000    0.00000000    0.00000000
     atom   18 type  3   force =     0.00000000    0.00000000    0.00000000
     atom   19 type  3   force =     0.00000000    0.00000000    0.00000000
     atom   20 type  3   force =     0.00000000    0.00000000    0.00000000
     The SCF correction term to forces
     atom    1 type  1   force =     0.00003993   -0.00002341    0.00001878
     atom    2 type  1   force =    -0.00005769    0.00002248   -0.00001378
     atom    3 type  1   force =    -0.00004158   -0.00006075    0.00000727
     atom    4 type  1   force =     0.00006436    0.00002278   -0.00002241
     atom    5 type  2   force =    -0.00005856    0.00000843   -0.00001773
     atom    6 type  2   force =     0.00005235   -0.00002868    0.00003111
     atom    7 type  2   force =     0.00005928   -0.00000119   -0.00002522
     atom    8 type  2   force =    -0.00004312    0.00004699    0.00002593
     atom    9 type  3   force =    -0.00001241   -0.00003614   -0.00004442
     atom   10 type  3   force =     0.00001310    0.00001358   -0.00004342
     atom   11 type  3   force =     0.00003976    0.00002986    0.00001877
     atom   12 type  3   force =     0.00000269   -0.00004156    0.00001117
     atom   13 type  3   force =    -0.00000906   -0.00001054    0.00001312
     atom   14 type  3   force =     0.00001414    0.00001778    0.00001852
     atom   15 type  3   force =     0.00000095   -0.00003075   -0.00001637
     atom   16 type  3   force =    -0.00001085    0.00003170   -0.00003201
     atom   17 type  3   force =    -0.00000470    0.00000856    0.00001498
     atom   18 type  3   force =    -0.00000263   -0.00000251    0.00001560
     atom   19 type  3   force =    -0.00002385   -0.00002402    0.00000325
     atom   20 type  3   force =    -0.00000947    0.00003550    0.00004320

     Total force =     0.089975     Total SCF correction =     0.000233

     Computing stress (Cartesian axis) and pressure

     negative rho (up, down):  1.764E-01 0.000E+00
          total   stress  (Ry/bohr**3)                   (kbar)     P=     -342.06
  -0.00233427   0.00000000   0.00000000         -343.38        0.00        0.00
   0.00000000  -0.00218308   0.00000000            0.00     -321.14        0.00
   0.00000000   0.00000000  -0.00245851            0.00        0.00     -361.66

     kinetic stress (kbar)  24308.59      0.00      0.00
                                0.00  24372.19      0.00
                                0.00      0.00  24227.91

     local   stress (kbar)  -5554.30      0.00     -0.00
                                0.00  -6009.88     -0.01
                               -0.00     -0.01  -3963.97

     nonloc. stress (kbar)   4571.73      0.00      0.00
                                0.00   4572.39      0.00
                                0.00      0.00   4585.64

     hartree stress (kbar)   5921.96     -0.00      0.00
                               -0.00   6097.54      0.00
                                0.00      0.00   5586.35

     exc-cor stress (kbar)   -688.63     -0.00      0.00
                               -0.00   -687.35      0.00
                                0.00      0.00   -693.40

     corecor stress (kbar)  -4691.02     -0.00     -0.00
                               -0.00  -4691.21     -0.00
                               -0.00     -0.00  -4690.90

     ewald   stress (kbar) -24211.71     -0.00     -0.00
                               -0.00 -23974.82      0.00
                               -0.00      0.00 -25413.31

     hubbard stress (kbar)      0.00      0.00      0.00
                                0.00      0.00      0.00
                                0.00      0.00      0.00

     DFT-D   stress (kbar)      0.00      0.00      0.00
                                0.00      0.00      0.00
                                0.00      0.00      0.00

     XDM     stress (kbar)      0.00      0.00      0.00
                                0.00      0.00      0.00
                                0.00      0.00      0.00

     dft-nl  stress (kbar)      0.00      0.00      0.00
                                0.00      0.00      0.00
                                0.00      0.00      0.00

     TS-vdW  stress (kbar)      0.00      0.00      0.00
                                0.00      0.00      0.00
                                0.00      0.00      0.00

[...]

                                0.00      0.00      0.00

     Writing all to output data dir new_calculations/myprefix.save/

     General routines

     Parallel routines

     PAW routines

   This run was terminated on:  13: 9:13  21May2023

   JOB DONE.