     Program PWSCF v.7.0 starts on 20May2023 at 14:54:47

     Reading input from espresso_14463.pwi
Warning: card &CELL ignored
Warning: card / ignored

     Current dimensions of program PWSCF are:
     Max number of different atomic species (ntypx) = 10
     Max number of k-points (npk) =  40000
     Max angular momentum in pseudopotentials (lmaxx) =  4
     file O.pbe-n-kjpaw_psl.0.1.UPF: wavefunction(s)  2P renormalized

     gamma-point specific algorithms are used
     Message from routine setup:
     using ibrav=0 with symmetry is DISCOURAGED, use correct ibrav instead

     Subspace diagonalization in iterative solution of the eigenvalue problem:
     a serial algorithm will be used

     Using Slab Decomposition

     bravais-lattice index     =            0
     lattice parameter (alat)  =       5.7422  a.u.
     unit-cell volume          =     762.1401 (a.u.)^3
     number of atoms/cell      =           12
     number of atomic types    =            4
     number of electrons       =        92.00
     number of Kohn-Sham states=           55
     kinetic-energy cutoff     =      30.0000  Ry
     charge density cutoff     =     240.0000  Ry
     scf convergence threshold =      1.0E-06
     mixing beta               =       0.7000
     number of iterations used =            8  plain     mixing
     Exchange-correlation= SLA  PW   PBX  PBC
                           (   1   4   3   4   0   0   0)

     celldm(1)=   5.742237  celldm(2)=   0.000000  celldm(3)=   0.000000
     celldm(4)=   0.000000  celldm(5)=   0.000000  celldm(6)=   0.000000

     crystal axes: (cart. coord. in units of alat)
               a(1) = (   1.000000   0.000000   0.000000 )
               a(2) = (   0.551911   0.833903   0.000000 )
               a(3) = (   0.263512   0.141596   4.826983 )

     reciprocal axes: (cart. coord. in units 2 pi/alat)
               b(1) = (  1.000000 -0.661841 -0.035177 )
               b(2) = (  0.000000  1.199180 -0.035177 )
               b(3) = (  0.000000  0.000000  0.207169 )

     PseudoPot. # 1 for Li read from file:
     /home/pragov/projects/rrg-bengioy-ad/pragov/crystal_structure_design/SSSP/li_pbe_v1.4.uspp.F.UPF
     MD5 check sum: e912e257baa3777c20ea3d68f190483c
     Pseudo is Ultrasoft, Zval =  3.0
     Generated by new atomic code, or converted to UPF format
     Using radial grid of  751 points,  5 beta functions with:
                l(1) =   0
                l(2) =   0
                l(3) =   0
                l(4) =   1
                l(5) =   1
     Q(r) pseudized with 10 coefficients,  rinner =    1.150   1.150   1.150

     PseudoPot. # 2 for Mn read from file:
     /home/pragov/projects/rrg-bengioy-ad/pragov/crystal_structure_design/SSSP/mn_pbe_v1.5.uspp.F.UPF
     MD5 check sum: 82ef2b46521d7a7d9e736dc3972e4928
     Pseudo is Ultrasoft + core correction, Zval = 15.0
     Generated by new atomic code, or converted to UPF format
     Using radial grid of  859 points,  6 beta functions with:
                l(1) =   0
                l(2) =   0
                l(3) =   1
                l(4) =   1
                l(5) =   2
                l(6) =   2
     Q(r) pseudized with  8 coefficients,  rinner =    0.950   0.950   0.950
                                                       0.950   0.950

     PseudoPot. # 3 for Co read from file:
     /home/pragov/projects/rrg-bengioy-ad/pragov/crystal_structure_design/SSSP/Co_pbe_v1.2.uspp.F.UPF
     MD5 check sum: 5f91765df6ddd3222702df6e7b74a16d
     Pseudo is Ultrasoft + core correction, Zval = 17.0
     Generated by new atomic code, or converted to UPF format
     Using radial grid of  863 points,  6 beta functions with:
                l(1) =   0
                l(2) =   0
                l(3) =   1
                l(4) =   1
                l(5) =   2
                l(6) =   2
     Q(r) pseudized with  8 coefficients,  rinner =    1.200   1.200   1.200
                                                       1.200   1.200

     PseudoPot. # 4 for O  read from file:
     /home/pragov/projects/rrg-bengioy-ad/pragov/crystal_structure_design/SSSP/O.pbe-n-kjpaw_psl.0.1.UPF
     MD5 check sum: 0234752ac141de4415c5fc33072bef88
     Pseudo is Projector augmented-wave + core cor, Zval =  6.0
     Generated using "atomic" code by A. Dal Corso  v.5.0.99 svn rev. 10869
     Shape of augmentation charge: BESSEL
     Using radial grid of 1095 points,  4 beta functions with:
                l(1) =   0
                l(2) =   0
                l(3) =   1
                l(4) =   1
     Q(r) pseudized with 0 coefficients

     atomic species   valence    mass     pseudopotential
        Li             3.00     6.94000     Li( 1.00)
        Mn            15.00    54.93804     Mn( 1.00)
        Co            17.00    58.93319     Co( 1.00)
        O              6.00    15.99900     O ( 1.00)

      2 Sym. Ops., with inversion, found

                                    s                        frac. trans.

      isym =  1     identity

 cryst.   s( 1) = (     1          0          0      )
                  (     0          1          0      )
                  (     0          0          1      )

 cart.    s( 1) = (  1.0000000  0.0000000  0.0000000 )
                  (  0.0000000  1.0000000  0.0000000 )
                  (  0.0000000  0.0000000  1.0000000 )

      isym =  2     inversion

 cryst.   s( 2) = (    -1          0          0      )
                  (     0         -1          0      )
                  (     0          0         -1      )

 cart.    s( 2) = ( -1.0000000 -0.0000000 -0.0000000 )
                  (  0.0000000 -1.0000000 -0.0000000 )
                  (  0.0000000  0.0000000 -1.0000000 )

   Cartesian axes

     site n.     atom                  positions (alat units)
         1           Li  tau(   1) = (   0.7403070   0.3977962   4.0374527  )
         2           Li  tau(   2) = (   0.1317562   0.0707978   2.4134915  )
         3           Li  tau(   3) = (   1.0751162   0.5777025   0.7895303  )
         4           Mn  tau(   4) = (   1.2124414   0.6514927   3.2207755  )
         5           Mn  tau(   5) = (   0.6029818   0.3240060   1.6062076  )
         6           Co  tau(   6) = (   0.0000000   0.0000000   0.0000000  )
         7           O   tau(   7) = (   1.2908491   0.6936243   4.4606005  )
         8           O   tau(   8) = (   0.6403849   0.3441042   2.8466312  )
         9           O   tau(   9) = (   1.5881440   0.8533726   1.2349112  )
        10           O   tau(  10) = (   0.2272792   0.1221261   3.5920718  )
        11           O   tau(  11) = (   1.1750383   0.6313945   1.9803518  )
        12           O   tau(  12) = (   0.5245742   0.2818744   0.3663825  )

   Crystallographic axes

     site n.     atom                  positions (cryst. coord.)
         1           Li  tau(   1) = (  0.3350040  0.3350040  0.8364340  )
         2           Li  tau(   2) = (  0.0000000 -0.0000000  0.5000000  )
         3           Li  tau(   3) = (  0.6649960  0.6649960  0.1635660  )
         4           Mn  tau(   4) = (  0.6679600  0.6679600  0.6672440  )
         5           Mn  tau(   5) = (  0.3320400  0.3320400  0.3327560  )
         6           Co  tau(   6) = (  0.0000000  0.0000000  0.0000000  )
         7           O   tau(   7) = (  0.6748700  0.6748700  0.9240970  )
         8           O   tau(   8) = (  0.3125070  0.3125070  0.5897330  )
         9           O   tau(   9) = (  0.9799070  0.9799070  0.2558350  )
        10           O   tau(  10) = (  0.0200930  0.0200930  0.7441650  )
        11           O   tau(  11) = (  0.6874930  0.6874930  0.4102670  )
        12           O   tau(  12) = (  0.3251300  0.3251300  0.0759030  )

     number of k points=     1  Methfessel-Paxton smearing, width (Ry)=  0.0010
                       cart. coord. in units 2pi/alat
        k(    1) = (   0.0000000   0.0000000   0.0000000), wk =   2.0000000

                       cryst. coord.
        k(    1) = (   0.0000000   0.0000000   0.0000000), wk =   2.0000000

     Check: negative core charge=   -0.000028

     Initial potential from superposition of free atoms

     starting charge      88.6476, renormalised to      92.0000
     Starting wfcs are   78 randomized atomic wfcs
     Checking if some PAW data can be deallocated...

     Self-consistent Calculation

     iteration #  1     ecut=    30.00 Ry     beta= 0.70
     Davidson diagonalization with overlap

     ethr =  1.00E-02,  avg # of iterations =  5.0

     total energy              =    -902.81212922 Ry
     estimated scf accuracy    <     132.64263653 Ry

[...]

     negative rho (up, down):  1.616E-02 0.000E+00

[...]

     negative rho (up, down):  1.694E-05 0.000E+00

[...]

     total energy              =   -1013.06144713 Ry
     estimated scf accuracy    <       0.00000123 Ry

     iteration #100     ecut=    30.00 Ry     beta= 0.70
     Davidson diagonalization with overlap

     ethr =  1.33E-09,  avg # of iterations =  2.0

     End of self-consistent calculation

          k = 0.0000 0.0000 0.0000 (  1038 PWs)   bands (ev):

   -85.9275 -68.6753 -68.6743 -49.4950 -49.3366 -48.6337 -37.7139 -37.7095
   -37.3627 -37.3618 -37.1210 -37.1189 -36.6633 -36.6629 -36.4519 -10.0241
    -9.2910  -9.2303  -8.9878  -8.3907  -8.2378   3.1005   3.8667   4.1144
     4.7108   4.8444   5.6434   5.6796   5.9187   5.9437   6.2533   6.5492
     7.0517   7.1424   7.6402   7.7578   7.8215   7.8271   7.8809   7.8981
     8.1342   8.8706  10.1767  10.1784  10.1857  10.2131  10.3266  10.4776
    10.4900  10.6190  11.8198  11.8723  13.2000  13.2194  13.6205

     occupation numbers
     1.0000   1.0000   1.0000   1.0000   1.0000   1.0000   1.0000   1.0000
     1.0000   1.0000   1.0000   1.0000   1.0000   1.0000   1.0000   1.0000
     1.0000   1.0000   1.0000   1.0000   1.0000   1.0000   1.0000   1.0000
     1.0000   1.0000   1.0000   1.0000   1.0000   1.0000   1.0000   1.0000
     1.0000   1.0000   1.0000   1.0000   1.0000   1.0000   1.0000   1.0000
     1.0000   1.0000   1.0000   1.0000   1.0000   1.0000  -0.0000  -0.0000
    -0.0000  -0.0000  -0.0000  -0.0000  -0.0000  -0.0000  -0.0000

     the Fermi energy is    10.2698 ev

!    total energy              =   -1013.06144675 Ry
     estimated scf accuracy    <       0.00000051 Ry
     smearing contrib. (-TS)   =       0.00000000 Ry
     internal energy E=F+TS    =   -1013.06144675 Ry

     The total energy is F=E-TS. E is the sum of the following terms:
     one-electron contribution =    -618.80389498 Ry
     hartree contribution      =     352.44972394 Ry
     xc contribution           =    -141.02161588 Ry
     ewald contribution        =    -548.69826779 Ry
     one-center paw contrib.   =     -56.98739204 Ry
      -> PAW hartree energy AE =     180.77436894 Ry
      -> PAW hartree energy PS =    -180.04689210 Ry
      -> PAW xc energy AE      =    -103.41069973 Ry
      -> PAW xc energy PS      =      45.69583085 Ry
      -> total E_H with PAW    =     353.17720078 Ry
      -> total E_XC with PAW   =    -198.73648476 Ry

     convergence has been achieved in 100 iterations

     Forces acting on atoms (cartesian axes, Ry/au):

     atom    1 type  1   force =     0.00009956    0.00005430   -0.00996239
     atom    2 type  1   force =     0.00000000    0.00000000    0.00000000
     atom    3 type  1   force =    -0.00009956   -0.00005430    0.00996239
     atom    4 type  2   force =    -0.00527945   -0.00283624    0.00083752
     atom    5 type  2   force =     0.00527945    0.00283624   -0.00083752
     atom    6 type  3   force =     0.00000000    0.00000000    0.00000000
     atom    7 type  4   force =    -0.00442548   -0.00238058    0.16251451
     atom    8 type  4   force =     0.00091338    0.00049212    0.24578820
     atom    9 type  4   force =    -0.00453917   -0.00244105    0.24267695
     atom   10 type  4   force =     0.00453917    0.00244105   -0.24267695
     atom   11 type  4   force =    -0.00091338   -0.00049212   -0.24578820
     atom   12 type  4   force =     0.00442548    0.00238058   -0.16251451
     The non-local contrib.  to forces
     atom    1 type  1   force =     0.01434271    0.00770433    0.01488483
     atom    2 type  1   force =     0.00000000    0.00000000    0.00000000
     atom    3 type  1   force =    -0.01434271   -0.00770433   -0.01488483
     atom    4 type  2   force =     0.00507870    0.00272829    0.00557597
     atom    5 type  2   force =    -0.00507870   -0.00272829   -0.00557597
     atom    6 type  3   force =     0.00000000    0.00000000    0.00000000
     atom    7 type  4   force =    -0.02569924   -0.01381360    0.32649824
     atom    8 type  4   force =     0.07330090    0.03938963   -0.13922260
     atom    9 type  4   force =     0.08488903    0.04561343   -0.18341645
     atom   10 type  4   force =    -0.08488903   -0.04561343    0.18341645
     atom   11 type  4   force =    -0.07330090   -0.03938963    0.13922260
     atom   12 type  4   force =     0.02569924    0.01381360   -0.32649824
     The ionic contribution  to forces
     atom    1 type  1   force =     0.10599507    0.05695534   -2.47069320
     atom    2 type  1   force =    -0.00000000    0.00000000   -0.00000000
     atom    3 type  1   force =    -0.10599507   -0.05695534    2.47069320
     atom    4 type  2   force =    -0.03557772   -0.01911732   -5.14154977
     atom    5 type  2   force =     0.03557772    0.01911732    5.14154977
     atom    6 type  3   force =    -0.00000000   -0.00000000    0.00000000
     atom    7 type  4   force =     0.81703926    0.43902751  -18.05032965
     atom    8 type  4   force =     1.54867724    0.83216553  -15.46613860
     atom    9 type  4   force =     1.49571766    0.80370826  -11.29107828
     atom   10 type  4   force =    -1.49571766   -0.80370826   11.29107828
     atom   11 type  4   force =    -1.54867723   -0.83216553   15.46613860
     atom   12 type  4   force =    -0.81703926   -0.43902751   18.05032965
     The local contribution  to forces
     atom    1 type  1   force =    -0.12024462   -0.06461174    2.44604671
     atom    2 type  1   force =    -0.00000116   -0.00000001    0.00009004
     atom    3 type  1   force =     0.12024786    0.06461490   -2.44647363
     atom    4 type  2   force =     0.02575739    0.01384085    5.13918964
     atom    5 type  2   force =    -0.02592515   -0.01393357   -5.13648492
     atom    6 type  3   force =    -0.00002648   -0.00001115   -0.00110376
     atom    7 type  4   force =    -0.79588114   -0.42765902   17.88961177
     atom    8 type  4   force =    -1.61951718   -0.87023104   15.84831084
     atom    9 type  4   force =    -1.58339692   -0.85082489   11.71239710
     atom   10 type  4   force =     1.58333528    0.85079389  -11.71241145
     atom   11 type  4   force =     1.61937723    0.87015623  -15.84712215
     atom   12 type  4   force =     0.79588297    0.42765550  -17.89048374
     The core correction contribution to forces
     atom    1 type  1   force =     0.00000000    0.00000000    0.00000000
     atom    2 type  1   force =     0.00000000    0.00000000    0.00000000
     atom    3 type  1   force =     0.00000000    0.00000000    0.00000000
     atom    4 type  2   force =    -0.00060072   -0.00032277   -0.00018298
     atom    5 type  2   force =     0.00059703    0.00032064    0.00018707
     atom    6 type  3   force =    -0.00000007    0.00000001    0.00000062
     atom    7 type  4   force =     0.00014746    0.00007919   -0.00314162
     atom    8 type  4   force =    -0.00159142   -0.00085515    0.00331177
     atom    9 type  4   force =    -0.00177089   -0.00095161    0.00390882
     atom   10 type  4   force =     0.00176974    0.00095093   -0.00390879
     atom   11 type  4   force =     0.00159023    0.00085454   -0.00331332
     atom   12 type  4   force =    -0.00014741   -0.00007935    0.00314257
     The Hubbard contrib.    to forces
     atom    1 type  1   force =     0.00000000    0.00000000    0.00000000
     atom    2 type  1   force =     0.00000000    0.00000000    0.00000000
     atom    3 type  1   force =     0.00000000    0.00000000    0.00000000
     atom    4 type  2   force =     0.00000000    0.00000000    0.00000000
     atom    5 type  2   force =     0.00000000    0.00000000    0.00000000
     atom    6 type  3   force =     0.00000000    0.00000000    0.00000000
     atom    7 type  4   force =     0.00000000    0.00000000    0.00000000
     atom    8 type  4   force =     0.00000000    0.00000000    0.00000000
     atom    9 type  4   force =     0.00000000    0.00000000    0.00000000
     atom   10 type  4   force =     0.00000000    0.00000000    0.00000000
     atom   11 type  4   force =     0.00000000    0.00000000    0.00000000
     atom   12 type  4   force =     0.00000000    0.00000000    0.00000000
     The SCF correction term to forces
     atom    1 type  1   force =     0.00001473    0.00001529   -0.00022397
     atom    2 type  1   force =     0.00000254   -0.00000032   -0.00009777
     atom    3 type  1   force =    -0.00000132   -0.00000062    0.00060441
     atom    4 type  2   force =     0.00003588    0.00002105   -0.00223994
     atom    5 type  2   force =     0.00008152    0.00004647   -0.00055807
     atom    6 type  3   force =     0.00004135    0.00002005    0.00104195
     atom    7 type  4   force =    -0.00003348   -0.00001657   -0.00008703
     atom    8 type  4   force =     0.00000888    0.00000471   -0.00048993
     atom    9 type  4   force =    -0.00001779   -0.00000890    0.00088582
     atom   10 type  4   force =     0.00000111   -0.00000475   -0.00083139
     atom   11 type  4   force =     0.00006234    0.00003382   -0.00073066
     atom   12 type  4   force =     0.00002827    0.00001643    0.00103246

     Total force =     0.540192     Total SCF correction =     0.003191

     Computing stress (Cartesian axis) and pressure

          total   stress  (Ry/bohr**3)                   (kbar)     P=     -572.75
  -0.00318302  -0.00025364   0.00005130         -468.24      -37.31        7.55
  -0.00025364  -0.00284727   0.00002756          -37.31     -418.85        4.05
   0.00005130   0.00002756  -0.00565012            7.55        4.05     -831.16

     kinetic stress (kbar)  31578.85     30.44    -10.02
                               30.44  31538.56     -5.38
                              -10.02     -5.38  30516.46

     local   stress (kbar) -43137.54   5859.16   5895.53
                             5859.16 -50893.19   3167.90
                             5895.53   3167.90  30490.34

     nonloc. stress (kbar)  10487.76     14.56      7.04
                               14.56  10468.49      3.79
                                7.04      3.79  10620.51

     hartree stress (kbar)  33125.85  -2226.71  -2161.08
                            -2226.71  36073.30  -1161.23
                            -2161.08  -1161.23  -1170.78

     exc-cor stress (kbar)  -6197.57     -7.41     -8.76
                               -7.41  -6187.76     -4.71
                               -8.76     -4.71  -6195.26

     corecor stress (kbar)  -2310.51     -1.61      0.02
                               -1.61  -2308.38      0.01
                                0.02      0.01  -2309.95

     ewald   stress (kbar) -24015.09  -3705.74  -3715.19
                            -3705.74 -19109.87  -1996.32
                            -3715.19  -1996.32 -62782.48

     hubbard stress (kbar)      0.00      0.00      0.00
                                0.00      0.00      0.00
                                0.00      0.00      0.00

     DFT-D   stress (kbar)      0.00      0.00      0.00
                                0.00      0.00      0.00
                                0.00      0.00      0.00

     XDM     stress (kbar)      0.00      0.00      0.00
                                0.00      0.00      0.00
                                0.00      0.00      0.00

     dft-nl  stress (kbar)      0.00      0.00      0.00
                                0.00      0.00      0.00
                                0.00      0.00      0.00

     TS-vdW  stress (kbar)      0.00      0.00      0.00
                                0.00      0.00      0.00
                                0.00      0.00      0.00

[...]

                                0.00      0.00      0.00

     Writing all to output data dir new_calculations/myprefix.save/

     General routines

     Parallel routines

     PAW routines

   This run was terminated on:  14:55:32  20May2023

   JOB DONE.