     Program PWSCF v.7.0 starts on 21May2023 at  4:37:11

     Reading input from espresso_1048.pwi
Warning: card &CELL ignored
Warning: card / ignored

     Current dimensions of program PWSCF are:
     Max number of different atomic species (ntypx) = 10
     Max number of k-points (npk) =  40000
     Max angular momentum in pseudopotentials (lmaxx) =  4
     file Ba.pbe-spn-kjpaw_psl.1.0.0.UPF: wavefunction(s)  5S 6S renormalized
     file Cd.pbe-dn-rrkjus_psl.0.3.1.UPF: wavefunction(s)  4D renormalized

     gamma-point specific algorithms are used
     Message from routine setup:
     using ibrav=0 with symmetry is DISCOURAGED, use correct ibrav instead

     Subspace diagonalization in iterative solution of the eigenvalue problem:
     a serial algorithm will be used

     Using Slab Decomposition

     bravais-lattice index     =            0
     lattice parameter (alat)  =      18.4046  a.u.
     unit-cell volume          =    2272.2122 (a.u.)^3
     number of atoms/cell      =           10
     number of atomic types    =            4
     number of electrons       =       152.00
     number of Kohn-Sham states=           91
     kinetic-energy cutoff     =      30.0000  Ry
     charge density cutoff     =     240.0000  Ry
     scf convergence threshold =      1.0E-06
     mixing beta               =       0.7000
     number of iterations used =            8  plain     mixing
     Exchange-correlation=  SLA  PW   PBX  PBC
                           (   1   4   3   4   0   0   0)

     celldm(1)=  18.404574  celldm(2)=   0.000000  celldm(3)=   0.000000
     celldm(4)=   0.000000  celldm(5)=   0.000000  celldm(6)=   0.000000

     crystal axes: (cart. coord. in units of alat)
               a(1) = (   1.000000   0.000000   0.000000 )
               a(2) = (  -0.879691   0.475545   0.000000 )
               a(3) = (   0.000000   0.000000   0.766442 )

     reciprocal axes: (cart. coord. in units 2 pi/alat)
               b(1) = (  1.000000  1.849857  0.000000 )
               b(2) = (  0.000000  2.102848  0.000000 )
               b(3) = (  0.000000  0.000000  1.304730 )

     PseudoPot. # 1 for Ba read from file:
     /home/pragov/projects/rrg-bengioy-ad/pragov/crystal_structure_design/SSSP/Ba.pbe-spn-kjpaw_psl.1.0.0.UPF
     MD5 check sum: c432291d3e53af55f19d5e8866385beb
     Pseudo is Projector augmented-wave + core cor, Zval = 10.0
     Generated using "atomic" code by A. Dal Corso  v.5.1
     Shape of augmentation charge: PSQ
     Using radial grid of 1251 points,  7 beta functions with:
                l(1) =   0
                l(2) =   0
                l(3) =   0
                l(4) =   1
                l(5) =   1
                l(6) =   2
                l(7) =   2
     Q(r) pseudized with 0 coefficients

     PseudoPot. # 2 for Yb read from file:
     /home/pragov/projects/rrg-bengioy-ad/pragov/crystal_structure_design/SSSP/Yb.GGA-PBE-paw-v1.0.UPF
     MD5 check sum: 43b6465ad8021f06e3edb42ae292e187
     Pseudo is Projector augmented-wave + core cor, Zval = 24.0
     Generated using ATOMPAW code
     Shape of augmentation charge: BESSEL
     Using radial grid of 1117 points,  8 beta functions with:
                l(1) =   0
                l(2) =   0
                l(3) =   1
                l(4) =   1
                l(5) =   2
                l(6) =   2
                l(7) =   3
                l(8) =   3
     Q(r) pseudized with 0 coefficients

     PseudoPot. # 3 for Cd read from file:
     /home/pragov/projects/rrg-bengioy-ad/pragov/crystal_structure_design/SSSP/Cd.pbe-dn-rrkjus_psl.0.3.1.UPF
     MD5 check sum: 558e9f355611b531a870a69ef6ace9e2
     Pseudo is Ultrasoft + core correction, Zval = 12.0
     Generated using "atomic" code by A. Dal Corso  v.5.0.99 svn rev. 10869
     Using radial grid of 1239 points,  6 beta functions with:
                l(1) =   0
                l(2) =   0
                l(3) =   1
                l(4) =   1
                l(5) =   2
                l(6) =   2
     Q(r) pseudized with 0 coefficients

     PseudoPot. # 4 for Sb read from file:
     /home/pragov/projects/rrg-bengioy-ad/pragov/crystal_structure_design/SSSP/sb_pbe_v1.4.uspp.F.UPF
     MD5 check sum: 9bc50dfb53373b713f5709b9110fe27f
     Pseudo is Ultrasoft + core correction, Zval = 15.0
     Generated by new atomic code, or converted to UPF format
     Using radial grid of  891 points,  6 beta functions with:
                l(1) =   0
                l(2) =   0
                l(3) =   1
                l(4) =   1
                l(5) =   2
                l(6) =   2
     Q(r) pseudized with  8 coefficients,  rinner =    1.350   1.350   1.350
                                                       1.350   1.350

     atomic species   valence    mass     pseudopotential
        Ba            10.00   137.32700     Ba( 1.00)
        Yb            24.00   173.05400     Yb( 1.00)
        Cd            12.00   112.41400     Cd( 1.00)
        Sb            15.00   121.76000     Sb( 1.00)

      2 Sym. Ops. (no inversion) found ( 1 have fractional translation)

                                    s                        frac. trans.

      isym =  1     identity

 cryst.   s( 1) = (     1          0          0      )
                  (     0          1          0      )
                  (     0          0          1      )

 cart.    s( 1) = (  1.0000000 -0.0000000  0.0000000 )
                  (  0.0000000  1.0000000  0.0000000 )
                  (  0.0000000  0.0000000  1.0000000 )

      isym =  2     180 deg rotation - cart. axis [0,0,1]

 cryst.   s( 2) = (    -1          0          0      )    f =(  0.0000000 )
                  (     0         -1          0      )       ( -0.0000000 )
                  (     0          0          1      )       ( -0.5000000 )

 cart.    s( 2) = ( -1.0000000  0.0000000  0.0000000 )    f =(  0.0000000 )
                  (  0.0000000 -1.0000000  0.0000000 )       ( -0.0000000 )
                  (  0.0000000  0.0000000  1.0000000 )       ( -0.3832212 )

   Cartesian axes

     site n.     atom                  positions (alat units)
         1           Ba  tau(   1) = (   0.4315062   0.1438240   0.4021332  )
         2           Ba  tau(   2) = (  -0.3111974   0.3317215   0.0189120  )
         3           Yb  tau(   3) = (   0.0973103   0.2283726   0.1713006  )
         4           Yb  tau(   4) = (   0.0229986   0.2471728   0.5545218  )
         5           Cd  tau(   5) = (  -0.7044588   0.4312132   0.6849228  )
         6           Cd  tau(   6) = (   0.8247677   0.0443322   0.3017016  )
         7           Sb  tau(   7) = (  -0.7688194   0.4474959   0.3857504  )
         8           Sb  tau(   8) = (   0.3722565   0.1588136   0.0082362  )
         9           Sb  tau(   9) = (  -0.2519476   0.3167318   0.3914574  )
        10           Sb  tau(  10) = (   0.8891283   0.0280496   0.0025293  )

   Crystallographic axes

     site n.     atom                  positions (cryst. coord.)
         1           Ba  tau(   1) = (  0.6975600  0.3024400  0.5246750  )
         2           Ba  tau(   2) = (  0.3024400  0.6975600  0.0246750  )
         3           Yb  tau(   3) = (  0.5197670  0.4802330  0.2235010  )
         4           Yb  tau(   4) = (  0.4802330  0.5197670  0.7235010  )
         5           Cd  tau(   5) = (  0.0932240  0.9067760  0.8936390  )
         6           Cd  tau(   6) = (  0.9067760  0.0932240  0.3936390  )
         7           Sb  tau(   7) = (  0.0589840  0.9410160  0.5033000  )
         8           Sb  tau(   8) = (  0.6660390  0.3339610  0.0107460  )
         9           Sb  tau(   9) = (  0.3339610  0.6660390  0.5107460  )
        10           Sb  tau(  10) = (  0.9410160  0.0589840  0.0033000  )

     number of k points=     1  Methfessel-Paxton smearing, width (Ry)=  0.0010
                       cart. coord. in units 2pi/alat
        k(    1) = (   0.0000000   0.0000000   0.0000000), wk =   2.0000000

                       cryst. coord.
        k(    1) = (   0.0000000   0.0000000   0.0000000), wk =   2.0000000

     Check: negative core charge=   -0.000003

     Initial potential from superposition of free atoms

     starting charge     147.9482, renormalised to     152.0000
     Starting wfcs are  128 randomized atomic wfcs
     Checking if some PAW data can be deallocated...

     Self-consistent Calculation

     iteration #  1     ecut=    30.00 Ry     beta= 0.70
     Davidson diagonalization with overlap

     ethr =  1.00E-02,  avg # of iterations =  6.0

     negative rho (up, down):  1.022E-02 0.000E+00

     total energy              =   -3484.43595113 Ry
     estimated scf accuracy    <     331.66670886 Ry

[...]

     c_bands:  5 eigenvalues not converged
     ethr =  1.00E-02,  avg # of iterations = 20.0

[...]

     c_bands:  1 eigenvalues not converged
     ethr =  5.05E-04,  avg # of iterations = 20.0

     negative rho (up, down):  7.681E-06 0.000E+00

[...]

     ethr =  1.63E-04,  avg # of iterations =  1.0
     Minimization algorithm failed to find Fermi energy: reverting to bisection
     Possible cause: smearing is larger than the electronic band-gap.

[...]

     total energy              =   -3878.65850952 Ry
     estimated scf accuracy    <       0.00000185 Ry

     iteration # 92     ecut=    30.00 Ry     beta= 0.70
     Davidson diagonalization with overlap

     ethr =  1.22E-09,  avg # of iterations =  2.0

     End of self-consistent calculation

          k = 0.0000 0.0000 0.0000 (  3141 PWs)   bands (ev):

   -42.2889 -42.2850 -19.1376 -19.1304 -18.7711 -18.7655 -18.7600 -18.7526
   -18.6477 -18.6449 -18.5864 -18.5837 -18.5594 -18.5559 -18.2854 -18.2791
   -18.2696 -18.2662 -18.2493 -18.2465 -18.1848 -18.1844 -18.1690 -18.1667
   -14.6843 -14.6413 -14.6384 -14.5431 -14.5055 -14.4852  -4.4297  -4.4149
    -4.4051  -4.2986  -4.2710  -4.2309  -0.1415   0.2495   0.2814   0.3288
     0.7678   0.7752   0.7956   0.8234   0.8798   0.8978   0.9054   1.3797
     1.6403   1.6631   5.0222   5.8555   6.4142   6.8966   7.7391   7.8478
     8.1539   8.3564   8.4347   8.9721   9.0417   9.0523   9.2449   9.2920
     9.3039   9.3121   9.3133   9.3320   9.3383   9.3390   9.3879   9.3888
     9.4158   9.5809   9.6140   9.7463   9.8187  10.0453  10.3368  10.6942
    10.8644  11.0743  11.1194  11.3625  11.4459  12.3990  12.5126  12.6039
    12.6338  12.9589  13.2154

     occupation numbers
     1.0000   1.0000   1.0000   1.0000   1.0000   1.0000   1.0000   1.0000
     1.0000   1.0000   1.0000   1.0000   1.0000   1.0000   1.0000   1.0000
     1.0000   1.0000   1.0000   1.0000   1.0000   1.0000   1.0000   1.0000
     1.0000   1.0000   1.0000   1.0000   1.0000   1.0000   1.0000   1.0000
     1.0000   1.0000   1.0000   1.0000   1.0000   1.0000   1.0000   1.0000
     1.0000   1.0000   1.0000   1.0000   1.0000   1.0000   1.0000   1.0000
     1.0000   1.0000   1.0000   1.0000   1.0000   1.0000   1.0000   1.0000
     1.0000   1.0000   1.0000   1.0000   1.0000   1.0000   1.0000   1.0000
     1.0000   1.0000   1.0000   1.0000   1.0000   1.0000   1.0000   1.0000
     1.0000   1.0000   1.0000   1.0005  -0.0005  -0.0000  -0.0000  -0.0000
    -0.0000  -0.0000  -0.0000  -0.0000  -0.0000  -0.0000  -0.0000  -0.0000
    -0.0000  -0.0000  -0.0000

     the Fermi energy is     9.7825 ev

!    total energy              =   -3878.65850923 Ry
     estimated scf accuracy    <       0.00000068 Ry
     smearing contrib. (-TS)   =       0.00000627 Ry
     internal energy E=F+TS    =   -3878.65851549 Ry

     The total energy is F=E-TS. E is the sum of the following terms:
     one-electron contribution =   -1602.00894165 Ry
     hartree contribution      =     818.54834709 Ry
     xc contribution           =    -379.05974593 Ry
     ewald contribution        =    -997.78197187 Ry
     one-center paw contrib.   =   -1718.35620314 Ry
      -> PAW hartree energy AE =     958.58799042 Ry
      -> PAW hartree energy PS =    -831.50022009 Ry
      -> PAW xc energy AE      =   -1958.18558209 Ry
      -> PAW xc energy PS      =     112.74160863 Ry
      -> total E_H with PAW    =     945.63611742 Ry
      -> total E_XC with PAW   =   -2224.50371939 Ry

     convergence has been achieved in  92 iterations

     Forces acting on atoms (cartesian axes, Ry/au):

     atom    1 type  1   force =     0.04265929   -0.01078459    0.00473579
     atom    2 type  1   force =    -0.04265929    0.01078459    0.00473579
     atom    3 type  2   force =     0.00267698   -0.00067554   -0.03547056
     atom    4 type  2   force =    -0.00267698    0.00067554   -0.03547056
     atom    5 type  3   force =    -0.01496632    0.00377127   -0.01220053
     atom    6 type  3   force =     0.01496632   -0.00377127   -0.01220053
     atom    7 type  4   force =    -0.02973908    0.00752434    0.02189827
     atom    8 type  4   force =     0.02834761   -0.00716533    0.02103703
     atom    9 type  4   force =    -0.02834761    0.00716533    0.02103703
     atom   10 type  4   force =     0.02973908   -0.00752434    0.02189827
     The non-local contrib.  to forces
     atom    1 type  1   force =    -0.04245166    0.01074684    0.00566593
     atom    2 type  1   force =     0.04245166   -0.01074684    0.00566593
     atom    3 type  2   force =    -0.06843543    0.01731657   -0.15630101
     atom    4 type  2   force =     0.06843543   -0.01731657   -0.15630101
     atom    5 type  3   force =     0.13399326   -0.03391692    0.15168633
     atom    6 type  3   force =    -0.13399326    0.03391692    0.15168633
     atom    7 type  4   force =    -0.11088473    0.02805562    0.06974924
     atom    8 type  4   force =    -0.22229926    0.05624615   -0.05930602
     atom    9 type  4   force =     0.22229926   -0.05624615   -0.05930602
     atom   10 type  4   force =     0.11088473   -0.02805562    0.06974924
     The ionic contribution  to forces
     atom    1 type  1   force =     9.57262805   -2.42179133   -0.44059036
     atom    2 type  1   force =    -9.57262805    2.42179133   -0.44059036
     atom    3 type  2   force =    10.84764445   -2.74435935    1.80204230
     atom    4 type  2   force =   -10.84764445    2.74435935    1.80204230
     atom    5 type  3   force =    21.67010006   -5.48234614   -0.80502367
     atom    6 type  3   force =   -21.67010006    5.48234614   -0.80502367
     atom    7 type  4   force =    25.93471040   -6.56125533   -1.72487781
     atom    8 type  4   force =    29.18900686   -7.38456393    1.16844954
     atom    9 type  4   force =   -29.18900685    7.38456393    1.16844954
     atom   10 type  4   force =   -25.93471040    6.56125533   -1.72487781
     The local contribution  to forces
     atom    1 type  1   force =    -9.49278956    2.40116640    0.44021603
     atom    2 type  1   force =     9.49179044   -2.40174793    0.44080041
     atom    3 type  2   force =   -10.77526695    2.72598545   -1.68164286
     atom    4 type  2   force =    10.77731376   -2.72662612   -1.68110441
     atom    5 type  3   force =   -21.81488064    5.51901099    0.64432190
     atom    6 type  3   force =    21.81538078   -5.51908618    0.64396886
     atom    7 type  4   force =   -25.85430454    6.54095462    1.67695518
     atom    8 type  4   force =   -28.93821729    7.32109617   -1.08663049
     atom    9 type  4   force =    28.93681024   -7.32075342   -1.08693638
     atom   10 type  4   force =    25.85564799   -6.54120817    1.67804300
     The core correction contribution to forces
     atom    1 type  1   force =     0.00487256   -0.00124121   -0.00079331
     atom    2 type  1   force =    -0.00488446    0.00122915   -0.00079285
     atom    3 type  2   force =    -0.00000078    0.00000020    0.00000122
     atom    4 type  2   force =     0.00000078   -0.00000020    0.00000122
     atom    5 type  3   force =    -0.00375897    0.00095193   -0.00286852
     atom    6 type  3   force =     0.00375956   -0.00095076   -0.00286262
     atom    7 type  4   force =     0.00142666   -0.00036011   -0.00050398
     atom    8 type  4   force =    -0.00090311    0.00022828   -0.00131676
     atom    9 type  4   force =     0.00089387   -0.00022571   -0.00131345
     atom   10 type  4   force =    -0.00142226    0.00036062   -0.00051017
     The Hubbard contrib.    to forces
     atom    1 type  1   force =     0.00000000    0.00000000    0.00000000
     atom    2 type  1   force =     0.00000000    0.00000000    0.00000000
     atom    3 type  2   force =     0.00000000    0.00000000    0.00000000
     atom    4 type  2   force =     0.00000000    0.00000000    0.00000000
     atom    5 type  3   force =     0.00000000    0.00000000    0.00000000
     atom    6 type  3   force =     0.00000000    0.00000000    0.00000000
     atom    7 type  4   force =     0.00000000    0.00000000    0.00000000
     atom    8 type  4   force =     0.00000000    0.00000000    0.00000000
     atom    9 type  4   force =     0.00000000    0.00000000    0.00000000
     atom   10 type  4   force =     0.00000000    0.00000000    0.00000000
     The SCF correction term to forces
     atom    1 type  1   force =     0.00023619    0.00001588    0.00006842
     atom    2 type  1   force =     0.00044741   -0.00005993   -0.00010859
     atom    3 type  2   force =    -0.00134667    0.00041807    0.00039219
     atom    4 type  2   force =    -0.00086487    0.00029554   -0.00000139
     atom    5 type  3   force =    -0.00044374    0.00007708   -0.00029012
     atom    6 type  3   force =    -0.00010443    0.00000828    0.00007378
     atom    7 type  4   force =    -0.00069964    0.00013037    0.00060099
     atom    8 type  4   force =     0.00071331   -0.00016199   -0.00009929
     atom    9 type  4   force =     0.00060878   -0.00016331    0.00015305
     atom   10 type  4   force =    -0.00067374    0.00012434   -0.00046166

     Total force =     0.112512     Total SCF correction =     0.002464

     Computing stress (Cartesian axis) and pressure

          total   stress  (Ry/bohr**3)                   (kbar)     P=      -91.66
  -0.00071311   0.00011729   0.00000000         -104.90       17.25        0.00
   0.00011729  -0.00027917   0.00000000           17.25      -41.07        0.00
   0.00000000   0.00000000  -0.00087709            0.00        0.00     -129.02

     kinetic stress (kbar)  12860.55     32.20      0.00
                               32.20  12979.66      0.00
                                0.00      0.00  12832.93

     local   stress (kbar)  22402.40 -12103.75      0.06
                           -12103.75 -22378.03     -0.03
                                0.06     -0.03 -21295.77

     nonloc. stress (kbar)   3043.05     21.10      0.00
                               21.10   3121.11      0.00
                                0.00      0.00   3017.30

     hartree stress (kbar)   3204.60   5884.68     -0.06
                             5884.68  24976.22      0.02
                               -0.06      0.02  24812.75

     exc-cor stress (kbar)   5870.20      0.79     -0.00
                                0.79   5873.14      0.00
                               -0.00      0.00   5867.44

     corecor stress (kbar) -10955.16     -0.19      0.00
                               -0.19 -10955.88     -0.00
                                0.00     -0.00 -10954.20

     ewald   stress (kbar) -36530.54   6182.44     -0.00
                             6182.44 -13657.29     -0.00
                               -0.00     -0.00 -14409.48

     hubbard stress (kbar)      0.00      0.00      0.00
                                0.00      0.00      0.00
                                0.00      0.00      0.00

     DFT-D   stress (kbar)      0.00      0.00      0.00
                                0.00      0.00      0.00
                                0.00      0.00      0.00

     XDM     stress (kbar)      0.00      0.00      0.00
                                0.00      0.00      0.00
                                0.00      0.00      0.00

     dft-nl  stress (kbar)      0.00      0.00      0.00
                                0.00      0.00      0.00
                                0.00      0.00      0.00

     TS-vdW  stress (kbar)      0.00      0.00      0.00
                                0.00      0.00      0.00
                                0.00      0.00      0.00

[...]

                                0.00      0.00      0.00

     Writing all to output data dir new_calculations/myprefix.save/

     General routines

     Parallel routines

     PAW routines

   This run was terminated on:   4:41:53  21May2023

   JOB DONE.