     Program PWSCF v.7.0 starts on 20May2023 at 11:43:53

     Reading input from espresso_15178.pwi
Warning: card &CELL ignored
Warning: card / ignored

     Current dimensions of program PWSCF are:
     Max number of different atomic species (ntypx) = 10
     Max number of k-points (npk) =  40000
     Max angular momentum in pseudopotentials (lmaxx) =  4

     gamma-point specific algorithms are used
     Message from routine setup:
     using ibrav=0 with symmetry is DISCOURAGED, use correct ibrav instead

     Subspace diagonalization in iterative solution of the eigenvalue problem:
     a serial algorithm will be used

     Using Slab Decomposition

     bravais-lattice index     =            0
     lattice parameter (alat)  =      12.5064  a.u.
     unit-cell volume          =    1956.1391 (a.u.)^3
     number of atoms/cell      =           12
     number of atomic types    =            3
     number of electrons       =       144.00
     number of Kohn-Sham states=           86
     kinetic-energy cutoff     =      30.0000  Ry
     charge density cutoff     =     240.0000  Ry
     scf convergence threshold =      1.0E-06
     mixing beta               =       0.7000
     number of iterations used =            8  plain     mixing
     Exchange-correlation= SLA  PW   PBE  PBE
                           (   1   4   3   4   0   0   0)

     celldm(1)=  12.506427  celldm(2)=   0.000000  celldm(3)=   0.000000
     celldm(4)=   0.000000  celldm(5)=   0.000000  celldm(6)=   0.000000

     crystal axes: (cart. coord. in units of alat)
               a(1) = (   1.000000   0.000000   0.000000 )
               a(2) = (   0.000000   1.000000   0.000000 )
               a(3) = (   0.000000   0.000000   1.000000 )

     reciprocal axes: (cart. coord. in units 2 pi/alat)
               b(1) = (  1.000000  0.000000  0.000000 )
               b(2) = (  0.000000  1.000000  0.000000 )
               b(3) = (  0.000000  0.000000  1.000000 )

     PseudoPot. # 1 for Bi read from file:
     /home/pragov/projects/rrg-bengioy-ad/pragov/crystal_structure_design/SSSP/Bi_pbe_v1.uspp.F.UPF
     MD5 check sum: cceb9f28ec65b6d7ff33140f5b0b1758
     Pseudo is Ultrasoft + core correction, Zval = 15.0
     Generated by new atomic code, or converted to UPF format
     Using radial grid of  899 points,  6 beta functions with:
                l(1) =   0
                l(2) =   0
                l(3) =   1
                l(4) =   1
                l(5) =   2
                l(6) =   2
     Q(r) pseudized with  6 coefficients,  rinner =    1.000   1.000   1.000
                                                       1.000   1.000

     PseudoPot. # 2 for Te read from file:
     /home/pragov/projects/rrg-bengioy-ad/pragov/crystal_structure_design/SSSP/Te_pbe_v1.uspp.F.UPF
     MD5 check sum: c319670d6894cc26e93307826a071b75
     Pseudo is Ultrasoft + core correction, Zval =  6.0
     Generated by new atomic code, or converted to UPF format
     Using radial grid of  891 points,  5 beta functions with:
                l(1) =   0
                l(2) =   0
                l(3) =   1
                l(4) =   1
                l(5) =   2
     Q(r) pseudized with  6 coefficients,  rinner =    1.800   1.800   1.800
                                                       1.800   1.800

     PseudoPot. # 3 for Ir read from file:
     /home/pragov/projects/rrg-bengioy-ad/pragov/crystal_structure_design/SSSP/Ir_pbe_v1.2.uspp.F.UPF
     MD5 check sum: 8836f839c3459d2b385c504ce6d91f2c
     Pseudo is Ultrasoft + core correction, Zval = 15.0
     Generated by new atomic code, or converted to UPF format
     Using radial grid of  983 points,  7 beta functions with:
                l(1) =   0
                l(2) =   0
                l(3) =   1
                l(4) =   1
                l(5) =   1
                l(6) =   2
                l(7) =   2
     Q(r) pseudized with  8 coefficients,  rinner =    1.400   1.400   1.400
                                                       1.400   1.400

     atomic species   valence    mass     pseudopotential
        Bi            15.00   208.98040     Bi( 1.00)
        Te             6.00   127.60000     Te( 1.00)
        Ir            15.00   192.21700     Ir( 1.00)

     12 Sym. Ops. (no inversion) found ( 9 have fractional translation)

                                    s                        frac. trans.

      isym =  1     identity

 cryst.   s( 1) = (     1          0          0      )
                  (     0          1          0      )
                  (     0          0          1      )

 cart.    s( 1) = (  1.0000000  0.0000000  0.0000000 )
                  (  0.0000000  1.0000000  0.0000000 )
                  (  0.0000000  0.0000000  1.0000000 )

      isym =  2     180 deg rotation - cart. axis [0,0,1]

 cryst.   s( 2) = (    -1          0          0      )    f =( -0.5000000 )
                  (     0         -1          0      )       (  0.0000000 )
                  (     0          0          1      )       ( -0.5000000 )

 cart.    s( 2) = ( -1.0000000  0.0000000  0.0000000 )    f =( -0.5000000 )
                  (  0.0000000 -1.0000000  0.0000000 )       (  0.0000000 )
                  (  0.0000000  0.0000000  1.0000000 )       ( -0.5000000 )

[...]

 cryst.   s( 8) = (     0          0          1      )    f =( -0.5000000 )
                  (    -1          0          0      )       (  0.0000000 )
                  (     0         -1          0      )       ( -0.5000000 )

 cart.    s( 8) = (  0.0000000 -1.0000000  0.0000000 )    f =( -0.5000000 )
                  (  0.0000000  0.0000000 -1.0000000 )       (  0.0000000 )
                  (  1.0000000  0.0000000  0.0000000 )       ( -0.5000000 )

[...]

 cryst.   s( 9) = (     0          1          0      )
                  (     0          0          1      )
                  (     1          0          0      )

 cart.    s( 9) = (  0.0000000  0.0000000  1.0000000 )
                  (  1.0000000  0.0000000  0.0000000 )
                  (  0.0000000  1.0000000  0.0000000 )

[...]

 cryst.   s(10) = (     0         -1          0      )    f =( -0.5000000 )
                  (     0          0         -1      )       (  0.5000000 )
                  (     1          0          0      )       (  0.0000000 )

 cart.    s(10) = (  0.0000000  0.0000000  1.0000000 )    f =( -0.5000000 )
                  ( -1.0000000  0.0000000  0.0000000 )       (  0.5000000 )
                  (  0.0000000 -1.0000000  0.0000000 )       (  0.0000000 )

[...]

      isym = 12     120 deg rotation - cart. axis [-1,-1,1]

 cryst.   s(12) = (     0          1          0      )    f =(  0.0000000 )
                  (     0          0         -1      )       (  0.5000000 )
                  (    -1          0          0      )       ( -0.5000000 )

 cart.    s(12) = (  0.0000000  0.0000000 -1.0000000 )    f =(  0.0000000 )
                  (  1.0000000  0.0000000  0.0000000 )       (  0.5000000 )
                  (  0.0000000 -1.0000000  0.0000000 )       ( -0.5000000 )

   Cartesian axes

     site n.     atom                  positions (alat units)
         1           Bi  tau(   1) = (   0.1307510   0.8692490   0.3692490  )
         2           Bi  tau(   2) = (   0.8692490   0.3692490   0.1307510  )
         3           Bi  tau(   3) = (   0.3692490   0.1307510   0.8692490  )
         4           Bi  tau(   4) = (   0.6307510   0.6307510   0.6307510  )
         5           Te  tau(   5) = (   0.8734270   0.1265730   0.6265730  )
         6           Te  tau(   6) = (   0.1265730   0.6265730   0.8734270  )
         7           Te  tau(   7) = (   0.6265730   0.8734270   0.1265730  )
         8           Te  tau(   8) = (   0.3734270   0.3734270   0.3734270  )
         9           Ir  tau(   9) = (   0.4936210   0.5063790   0.0063790  )
        10           Ir  tau(  10) = (   0.5063790   0.0063790   0.4936210  )
        11           Ir  tau(  11) = (   0.0063790   0.4936210   0.5063790  )
        12           Ir  tau(  12) = (   0.9936210   0.9936210   0.9936210  )

   Crystallographic axes

     site n.     atom                  positions (cryst. coord.)
         1           Bi  tau(   1) = (  0.1307510  0.8692490  0.3692490  )
         2           Bi  tau(   2) = (  0.8692490  0.3692490  0.1307510  )
         3           Bi  tau(   3) = (  0.3692490  0.1307510  0.8692490  )
         4           Bi  tau(   4) = (  0.6307510  0.6307510  0.6307510  )
         5           Te  tau(   5) = (  0.8734270  0.1265730  0.6265730  )
         6           Te  tau(   6) = (  0.1265730  0.6265730  0.8734270  )
         7           Te  tau(   7) = (  0.6265730  0.8734270  0.1265730  )
         8           Te  tau(   8) = (  0.3734270  0.3734270  0.3734270  )
         9           Ir  tau(   9) = (  0.4936210  0.5063790  0.0063790  )
        10           Ir  tau(  10) = (  0.5063790  0.0063790  0.4936210  )
        11           Ir  tau(  11) = (  0.0063790  0.4936210  0.5063790  )
        12           Ir  tau(  12) = (  0.9936210  0.9936210  0.9936210  )

     number of k points=     1  Methfessel-Paxton smearing, width (Ry)=  0.0010
                       cart. coord. in units 2pi/alat
        k(    1) = (   0.0000000   0.0000000   0.0000000), wk =   2.0000000

                       cryst. coord.
        k(    1) = (   0.0000000   0.0000000   0.0000000), wk =   2.0000000

     Check: negative core charge=   -0.000001

     Initial potential from superposition of free atoms

     starting charge     137.9988, renormalised to     144.0000

     negative rho (up, down):  1.688E+00 0.000E+00
     Starting wfcs are  100 randomized atomic wfcs

     Self-consistent Calculation

     iteration #  1     ecut=    30.00 Ry     beta= 0.70
     Davidson diagonalization with overlap

     ethr =  1.00E-02,  avg # of iterations =  3.0

     negative rho (up, down):  1.327E+00 0.000E+00

     total energy              =   -1567.94949344 Ry
     estimated scf accuracy    <      11.89962242 Ry

[...]

     total energy              =   -1574.59387068 Ry
     estimated scf accuracy    <       0.00000298 Ry

     iteration # 13     ecut=    30.00 Ry     beta= 0.70
     Davidson diagonalization with overlap

     ethr =  2.07E-09,  avg # of iterations =  2.0

[...]

     End of self-consistent calculation

          k = 0.0000 0.0000 0.0000 (  2725 PWs)   bands (ev):

   -35.8896 -35.8896 -35.8895 -35.8887 -35.8887 -35.8886 -35.8886 -35.8886
   -35.6086 -35.6082 -35.6082 -35.6081  -9.9886  -9.9810  -9.9807  -9.9805
    -9.9101  -9.9100  -9.9099  -9.9024  -9.9024  -9.8941  -9.8939  -9.8938
    -9.7635  -9.7634  -9.7632  -9.7529  -9.7528  -9.7526  -9.7386  -9.7386
    -0.8340   0.9244   0.9245   0.9246   2.1910   2.1912   2.1913   3.2057
     7.0203   7.0204   7.0204   7.9026   7.9026   7.9026   8.4821   8.4821
     8.4821   8.5848   8.5848   9.3257   9.3257   9.3257   9.7486   9.7487
    10.4015  10.5522  10.5522  10.5522  10.6759  10.6759  10.8269  10.8269
    10.8269  11.3152  11.6622  11.6623  11.6623  12.0890  12.0890  12.0891
    13.0955  13.1272  13.1272  13.1272  15.8260  15.8261  15.8261  16.3689
    16.3689  16.3689  16.6906  17.3632  17.3632  18.4372

     occupation numbers
     1.0000   1.0000   1.0000   1.0000   1.0000   1.0000   1.0000   1.0000
     1.0000   1.0000   1.0000   1.0000   1.0000   1.0000   1.0000   1.0000
     1.0000   1.0000   1.0000   1.0000   1.0000   1.0000   1.0000   1.0000
     1.0000   1.0000   1.0000   1.0000   1.0000   1.0000   1.0000   1.0000
     1.0000   1.0000   1.0000   1.0000   1.0000   1.0000   1.0000   1.0000
     1.0000   1.0000   1.0000   1.0000   1.0000   1.0000   1.0000   1.0000
     1.0000   1.0000   1.0000   1.0000   1.0000   1.0000   1.0000   1.0000
     1.0000   1.0000   1.0000   1.0000   1.0000   1.0000   1.0000   1.0000
     1.0000   1.0000   1.0000   1.0000   1.0000   1.0000   1.0000   1.0000
    -0.0000  -0.0000  -0.0000  -0.0000  -0.0000  -0.0000  -0.0000  -0.0000
    -0.0000  -0.0000  -0.0000  -0.0000  -0.0000  -0.0000

     the Fermi energy is    12.6015 ev

!    total energy              =   -1574.59387109 Ry
     estimated scf accuracy    <       0.00000008 Ry
     smearing contrib. (-TS)   =       0.00000000 Ry
     internal energy E=F+TS    =   -1574.59387109 Ry

     The total energy is F=E-TS. E is the sum of the following terms:
     one-electron contribution =    -409.92256571 Ry
     hartree contribution      =     297.24324727 Ry
     xc contribution           =    -518.36593073 Ry
     ewald contribution        =    -943.54862192 Ry

     convergence has been achieved in  13 iterations

     negative rho (up, down):  1.464E+00 0.000E+00

     Forces acting on atoms (cartesian axes, Ry/au):

     atom    1 type  1   force =    -0.06051749    0.06051749    0.06051749
     atom    2 type  1   force =     0.06051749    0.06051749   -0.06051749
     atom    3 type  1   force =     0.06051749   -0.06051749    0.06051749
     atom    4 type  1   force =    -0.06051749   -0.06051749   -0.06051749
     atom    5 type  2   force =     0.06468411   -0.06468411   -0.06468411
     atom    6 type  2   force =    -0.06468411   -0.06468411    0.06468411
     atom    7 type  2   force =    -0.06468411    0.06468411   -0.06468411
     atom    8 type  2   force =     0.06468411    0.06468411    0.06468411
     atom    9 type  3   force =    -0.01167269    0.01167269    0.01167269
     atom   10 type  3   force =     0.01167269    0.01167269   -0.01167269
     atom   11 type  3   force =     0.01167269   -0.01167269    0.01167269
     atom   12 type  3   force =    -0.01167269   -0.01167269   -0.01167269
     The non-local contrib.  to forces
     atom    1 type  1   force =     0.13045188   -0.13045188   -0.13045188
     atom    2 type  1   force =    -0.13045188   -0.13045188    0.13045188
     atom    3 type  1   force =    -0.13045188    0.13045188   -0.13045188
     atom    4 type  1   force =     0.13045188    0.13045188    0.13045188
     atom    5 type  2   force =     0.19610393   -0.19610393   -0.19610393
     atom    6 type  2   force =    -0.19610393   -0.19610393    0.19610393
     atom    7 type  2   force =    -0.19610393    0.19610393   -0.19610393
     atom    8 type  2   force =     0.19610393    0.19610393    0.19610393
     atom    9 type  3   force =    -0.03046638    0.03046638    0.03046638
     atom   10 type  3   force =     0.03046638    0.03046638   -0.03046638
     atom   11 type  3   force =     0.03046638   -0.03046638    0.03046638
     atom   12 type  3   force =    -0.03046638   -0.03046638   -0.03046638
     The ionic contribution  to forces
     atom    1 type  1   force =    -1.11449639    1.11449639    1.11449639
     atom    2 type  1   force =     1.11449639    1.11449639   -1.11449639
     atom    3 type  1   force =     1.11449639   -1.11449639    1.11449639
     atom    4 type  1   force =    -1.11449639   -1.11449639   -1.11449639
     atom    5 type  2   force =     0.04504486   -0.04504486   -0.04504486
     atom    6 type  2   force =    -0.04504486   -0.04504486    0.04504486
     atom    7 type  2   force =    -0.04504486    0.04504486   -0.04504486
     atom    8 type  2   force =     0.04504486    0.04504486    0.04504486
     atom    9 type  3   force =    -4.11976884    4.11976884    4.11976884
     atom   10 type  3   force =     4.11976884    4.11976884   -4.11976884
     atom   11 type  3   force =     4.11976884   -4.11976884    4.11976884
     atom   12 type  3   force =    -4.11976884   -4.11976884   -4.11976884
     The local contribution  to forces
     atom    1 type  1   force =     0.93778968   -0.93755543   -0.93786187
     atom    2 type  1   force =    -0.93787113   -0.93794080    0.93788865
     atom    3 type  1   force =    -0.93774689    0.93773044   -0.93787225
     atom    4 type  1   force =     0.93778561    0.93770372    0.93792842
     atom    5 type  2   force =    -0.19715413    0.19718044    0.19714790
     atom    6 type  2   force =     0.19712192    0.19713926   -0.19714382
     atom    7 type  2   force =     0.19713111   -0.19709209    0.19710584
     atom    8 type  2   force =    -0.19712095   -0.19719308   -0.19709604
     atom    9 type  3   force =     4.14457463   -4.14440104   -4.14463672
     atom   10 type  3   force =    -4.14441218   -4.14406686    4.14455487
     atom   11 type  3   force =    -4.14449693    4.14392637   -4.14437512
     atom   12 type  3   force =     4.14445983    4.14450502    4.14435746
     The core correction contribution to forces
     atom    1 type  1   force =    -0.01426640    0.01426718    0.01426518
     atom    2 type  1   force =     0.01426552    0.01426690   -0.01426526
     atom    3 type  1   force =     0.01426733   -0.01426819    0.01426636
     atom    4 type  1   force =    -0.01426712   -0.01426575   -0.01426563
     atom    5 type  2   force =     0.02065982   -0.02065840   -0.02066009
     atom    6 type  2   force =    -0.02065785   -0.02065917    0.02065871
     atom    7 type  2   force =    -0.02065820    0.02065919   -0.02066024
     atom    8 type  2   force =     0.02065754    0.02065609    0.02066014
     atom    9 type  3   force =    -0.00593508    0.00593840    0.00593165
     atom   10 type  3   force =     0.00593401    0.00593848   -0.00593361
     atom   11 type  3   force =     0.00593642   -0.00594269    0.00593574
     atom   12 type  3   force =    -0.00593435   -0.00593484   -0.00593650
     The Hubbard contrib.    to forces
     atom    1 type  1   force =     0.00000000    0.00000000    0.00000000
     atom    2 type  1   force =     0.00000000    0.00000000    0.00000000
     atom    3 type  1   force =     0.00000000    0.00000000    0.00000000
     atom    4 type  1   force =     0.00000000    0.00000000    0.00000000
     atom    5 type  2   force =     0.00000000    0.00000000    0.00000000
     atom    6 type  2   force =     0.00000000    0.00000000    0.00000000
     atom    7 type  2   force =     0.00000000    0.00000000    0.00000000
     atom    8 type  2   force =     0.00000000    0.00000000    0.00000000
     atom    9 type  3   force =     0.00000000    0.00000000    0.00000000
     atom   10 type  3   force =     0.00000000    0.00000000    0.00000000
     atom   11 type  3   force =     0.00000000    0.00000000    0.00000000
     atom   12 type  3   force =     0.00000000    0.00000000    0.00000000
     The SCF correction term to forces
     atom    1 type  1   force =    -0.00001744   -0.00027141    0.00007054
     atom    2 type  1   force =     0.00009256    0.00016252   -0.00008923
     atom    3 type  1   force =    -0.00005089    0.00008083    0.00008364
     atom    4 type  1   force =     0.00001007    0.00012265   -0.00017365
     atom    5 type  2   force =     0.00002404   -0.00006934   -0.00001905
     atom    6 type  2   force =    -0.00001421   -0.00001442    0.00002800
     atom    7 type  2   force =    -0.00000647   -0.00004548    0.00005092
     atom    8 type  2   force =     0.00000602    0.00010881   -0.00004899
     atom    9 type  3   force =    -0.00008976   -0.00009387    0.00018371
     atom   10 type  3   force =    -0.00006264   -0.00051521   -0.00012062
     atom   11 type  3   force =    -0.00000883    0.00061264   -0.00014105
     atom   12 type  3   force =     0.00001796   -0.00001412    0.00017096

     Total force =     0.309503     Total SCF correction =     0.000984

     Computing stress (Cartesian axis) and pressure

     negative rho (up, down):  1.464E+00 0.000E+00
          total   stress  (Ry/bohr**3)                   (kbar)     P=      -25.13
  -0.00017080   0.00000000   0.00000000          -25.13        0.00        0.00
   0.00000000  -0.00017080   0.00000000            0.00      -25.13        0.00
   0.00000000   0.00000000  -0.00017080            0.00        0.00      -25.13

     kinetic stress (kbar)  13138.04      0.00      0.00
                                0.00  13138.04      0.00
                                0.00      0.00  13138.04

     local   stress (kbar)   2994.43      0.01      0.00
                                0.01   2994.42      0.00
                                0.00      0.00   2994.41

     nonloc. stress (kbar)   6537.46      0.00      0.00
                                0.00   6537.46      0.00
                                0.00      0.00   6537.46

     hartree stress (kbar)   7451.06     -0.01     -0.00
                               -0.01   7451.07     -0.00
                               -0.00     -0.00   7451.08

     exc-cor stress (kbar)  21442.58     -0.00      0.00
                               -0.00  21442.58     -0.00
                                0.00     -0.00  21442.58

     corecor stress (kbar) -27936.53      0.00     -0.00
                                0.00 -27936.53     -0.00
                               -0.00     -0.00 -27936.53

     ewald   stress (kbar) -23652.17     -0.00     -0.00
                               -0.00 -23652.17     -0.00
                               -0.00     -0.00 -23652.17

     hubbard stress (kbar)      0.00      0.00      0.00
                                0.00      0.00      0.00
                                0.00      0.00      0.00

     DFT-D   stress (kbar)      0.00      0.00      0.00
                                0.00      0.00      0.00
                                0.00      0.00      0.00

     XDM     stress (kbar)      0.00      0.00      0.00
                                0.00      0.00      0.00
                                0.00      0.00      0.00

     dft-nl  stress (kbar)      0.00      0.00      0.00
                                0.00      0.00      0.00
                                0.00      0.00      0.00

     TS-vdW  stress (kbar)      0.00      0.00      0.00
                                0.00      0.00      0.00
                                0.00      0.00      0.00

[...]

                                0.00      0.00      0.00

     Writing all to output data dir new_calculations/myprefix.save/

     General routines

     Parallel routines

   This run was terminated on:  11:45: 3  20May2023

   JOB DONE.