     Program PWSCF v.7.0 starts on 20May2023 at 10:35: 3

     Reading input from espresso_11275.pwi
Warning: card &CELL ignored
Warning: card / ignored

     Current dimensions of program PWSCF are:
     Max number of different atomic species (ntypx) = 10
     Max number of k-points (npk) =  40000
     Max angular momentum in pseudopotentials (lmaxx) =  4

     gamma-point specific algorithms are used
     Message from routine setup:
     using ibrav=0 with symmetry is DISCOURAGED, use correct ibrav instead

     Subspace diagonalization in iterative solution of the eigenvalue problem:
     a serial algorithm will be used

     Using Slab Decomposition

     bravais-lattice index     =            0
     lattice parameter (alat)  =       8.5876  a.u.
     unit-cell volume          =     447.8205 (a.u.)^3
     number of atoms/cell      =            3
     number of atomic types    =            3
     number of electrons       =        56.00
     number of Kohn-Sham states=           34
     kinetic-energy cutoff     =      30.0000  Ry
     charge density cutoff     =     240.0000  Ry
     scf convergence threshold =      1.0E-06
     mixing beta               =       0.7000
     number of iterations used =            8  plain     mixing
     Exchange-correlation= SLA  PW   PBE  PBE
                           (   1   4   3   4   0   0   0)

     celldm(1)=   8.587623  celldm(2)=   0.000000  celldm(3)=   0.000000
     celldm(4)=   0.000000  celldm(5)=   0.000000  celldm(6)=   0.000000

     crystal axes: (cart. coord. in units of alat)
               a(1) = (   1.000000   0.000000   0.000000 )
               a(2) = (   0.500000   0.866025   0.000000 )
               a(3) = (   0.500000   0.288675   0.816497 )

     reciprocal axes: (cart. coord. in units 2 pi/alat)
               b(1) = (  1.000000 -0.577350 -0.408248 )
               b(2) = (  0.000000  1.154701 -0.408248 )
               b(3) = (  0.000000  0.000000  1.224745 )

     PseudoPot. # 1 for Tm read from file:
     /home/pragov/projects/rrg-bengioy-ad/pragov/crystal_structure_design/SSSP/Tm.GGA-PBE-paw-v1.0.UPF
     MD5 check sum: e502ddec747d736c64e0ed72ddfd7d4c
     Pseudo is Projector augmented-wave + core cor, Zval = 23.0
     Generated using ATOMPAW code
     Shape of augmentation charge: BESSEL
     Using radial grid of 1116 points,  8 beta functions with:
                l(1) =   0
                l(2) =   0
                l(3) =   1
                l(4) =   1
                l(5) =   2
                l(6) =   2
                l(7) =   3
                l(8) =   3
     Q(r) pseudized with 0 coefficients

     PseudoPot. # 2 for Ni read from file:
     /home/pragov/projects/rrg-bengioy-ad/pragov/crystal_structure_design/SSSP/ni_pbe_v1.4.uspp.F.UPF
     MD5 check sum: 1ee80287db30b12d2bc1f57a5b5d6409
     Pseudo is Ultrasoft + core correction, Zval = 18.0
     Generated by new atomic code, or converted to UPF format
     Using radial grid of  865 points,  6 beta functions with:
                l(1) =   0
                l(2) =   0
                l(3) =   1
                l(4) =   1
                l(5) =   2
                l(6) =   2
     Q(r) pseudized with 10 coefficients,  rinner =    0.980   0.980   0.980
                                                       0.980   0.980

     PseudoPot. # 3 for Bi read from file:
     /home/pragov/projects/rrg-bengioy-ad/pragov/crystal_structure_design/SSSP/Bi_pbe_v1.uspp.F.UPF
     MD5 check sum: cceb9f28ec65b6d7ff33140f5b0b1758
     Pseudo is Ultrasoft + core correction, Zval = 15.0
     Generated by new atomic code, or converted to UPF format
     Using radial grid of  899 points,  6 beta functions with:
                l(1) =   0
                l(2) =   0
                l(3) =   1
                l(4) =   1
                l(5) =   2
                l(6) =   2
     Q(r) pseudized with  6 coefficients,  rinner =    1.000   1.000   1.000
                                                       1.000   1.000

     atomic species   valence    mass     pseudopotential
        Tm            23.00   168.93422     Tm( 1.00)
        Ni            18.00    58.69340     Ni( 1.00)
        Bi            15.00   208.98040     Bi( 1.00)

      6 Sym. Ops. (no inversion) found

                                    s                        frac. trans.

      isym =  1     identity

 cryst.   s( 1) = (     1          0          0      )
                  (     0          1          0      )
                  (     0          0          1      )

 cart.    s( 1) = (  1.0000000  0.0000000  0.0000000 )
                  (  0.0000000  1.0000000  0.0000000 )
                  (  0.0000000  0.0000000  1.0000000 )

      isym =  2     120 deg rotation - cryst. axis [0,0,1]

[...]

      isym =  3     120 deg rotation - cryst. axis [0,0,-1]

[...]

      isym =  4     inv. 180 deg rotation - cart. axis [1,0,0]

[...]

      isym =  5     inv. 180 deg rotation - cryst. axis [0,1,0]

[...]

      isym =  6     inv. 180 deg rotation - cryst. axis [1,1,0]

 cryst.   s( 6) = (     1         -1          0      )
                  (     0         -1          0      )
                  (     0         -1          1      )

 cart.    s( 6) = (  0.5000000 -0.8660254 -0.0000000 )
                  ( -0.8660254 -0.5000000 -0.0000000 )
                  (  0.0000000  0.0000000  1.0000000 )

   Cartesian axes

     site n.     atom                  positions (alat units)
         1           Tm  tau(   1) = (   1.0000000   0.5773503   0.4082483  )
         2           Ni  tau(   2) = (   1.5000000   0.8660254   0.6123724  )
         3           Bi  tau(   3) = (   0.0000000   0.0000000   0.0000000  )

   Crystallographic axes

     site n.     atom                  positions (cryst. coord.)
         1           Tm  tau(   1) = (  0.5000000  0.5000000  0.5000000  )
         2           Ni  tau(   2) = (  0.7500000  0.7500000  0.7500000  )
         3           Bi  tau(   3) = (  0.0000000  0.0000000  0.0000000  )

     number of k points=     1  Methfessel-Paxton smearing, width (Ry)=  0.0010
                       cart. coord. in units 2pi/alat
        k(    1) = (   0.0000000   0.0000000   0.0000000), wk =   2.0000000

                       cryst. coord.
        k(    1) = (   0.0000000   0.0000000   0.0000000), wk =   2.0000000

     Check: negative core charge=   -0.000006

     Initial potential from superposition of free atoms

     starting charge      52.9956, renormalised to      56.0000

     negative rho (up, down):  3.964E-02 0.000E+00
     Starting wfcs are   54 randomized atomic wfcs
     Checking if some PAW data can be deallocated...

     Self-consistent Calculation

     iteration #  1     ecut=    30.00 Ry     beta= 0.70
     Davidson diagonalization with overlap

     ethr =  1.00E-02,  avg # of iterations =  3.0

     negative rho (up, down):  4.618E-02 0.000E+00

     total energy              =   -1349.92015856 Ry
     estimated scf accuracy    <     105.80913681 Ry

[...]

     c_bands:  2 eigenvalues not converged
     ethr =  1.00E-02,  avg # of iterations = 20.0

[...]

     total energy              =   -1473.92411026 Ry
     estimated scf accuracy    <       0.00000554 Ry

     iteration # 69     ecut=    30.00 Ry     beta= 0.70
     Davidson diagonalization with overlap

     ethr =  4.60E-09,  avg # of iterations =  1.0

[...]

     End of self-consistent calculation

          k = 0.0000 0.0000 0.0000 (   622 PWs)   bands (ev):

   -89.3248 -49.6328 -49.6328 -49.6328 -34.5498  -7.9194  -7.9193  -7.9192
    -7.4664  -7.4664  -7.4459  -7.4459  -7.4459   2.7329  11.8670  11.8670
    11.8670  12.3499  12.3499  14.4899  14.4899  14.4900  14.9002  14.9704
    14.9705  14.9705  15.4073  15.5511  15.5511  15.5511  16.4323  16.4323
    16.4323  18.2921

     occupation numbers
     1.0000   1.0000   1.0000   1.0000   1.0000   1.0000   1.0000   1.0000
     1.0000   1.0000   1.0000   1.0000   1.0000   1.0000   1.0000   1.0000
     1.0000   1.0000   1.0000   1.0000   1.0000   1.0000   1.0000   1.0000
     1.0000   1.0000   1.0000   0.3340   0.3333   0.3327  -0.0000  -0.0000
    -0.0000  -0.0000

     the Fermi energy is    15.5484 ev

!    total energy              =   -1473.92411042 Ry
     estimated scf accuracy    <       0.00000015 Ry
     smearing contrib. (-TS)   =      -0.00074672 Ry
     internal energy E=F+TS    =   -1473.92336370 Ry

     The total energy is F=E-TS. E is the sum of the following terms:
     one-electron contribution =    -609.93914488 Ry
     hartree contribution      =     318.94122069 Ry
     xc contribution           =    -136.03970308 Ry
     ewald contribution        =    -559.20911169 Ry
     one-center paw contrib.   =    -487.67662474 Ry
      -> PAW hartree energy AE =     397.44564798 Ry
      -> PAW hartree energy PS =    -350.30290360 Ry
      -> PAW xc energy AE      =    -569.50927012 Ry
      -> PAW xc energy PS      =      34.68990100 Ry
      -> total E_H with PAW    =     366.08396506 Ry
      -> total E_XC with PAW   =    -670.85907219 Ry

     convergence has been achieved in  69 iterations

     negative rho (up, down):  3.824E-02 0.000E+00

     Forces acting on atoms (cartesian axes, Ry/au):

     atom    1 type  1   force =     0.00000000    0.00000000   -0.00040239
     atom    2 type  2   force =    -0.00000000   -0.00000000    0.00022399
     atom    3 type  3   force =     0.00000000    0.00000000    0.00017840
     The non-local contrib.  to forces
     atom    1 type  1   force =     0.00000000    0.00000000   -0.00111892
     atom    2 type  2   force =     0.00000000    0.00000000   -0.00025574
     atom    3 type  3   force =     0.00000000    0.00000000   -0.00053415
     The ionic contribution  to forces
     atom    1 type  1   force =    -0.00000000   -0.00000000    0.00000000
     atom    2 type  2   force =    -0.00000000   -0.00000000   -0.00000000
     atom    3 type  3   force =     0.00000000    0.00000000   -0.00000000
     The local contribution  to forces
     atom    1 type  1   force =    -0.00021786    0.00103267    0.00115299
     atom    2 type  2   force =    -0.00072275    0.00090773    0.00047153
     atom    3 type  3   force =    -0.00052625    0.00045841    0.00068455
     The core correction contribution to forces
     atom    1 type  1   force =    -0.00000000    0.00000001    0.00000001
     atom    2 type  2   force =     0.00000241   -0.00000097   -0.00000272
     atom    3 type  3   force =    -0.00002571    0.00002457    0.00003268
     The Hubbard contrib.    to forces
     atom    1 type  1   force =     0.00000000    0.00000000    0.00000000
     atom    2 type  2   force =     0.00000000    0.00000000    0.00000000
     atom    3 type  3   force =     0.00000000    0.00000000    0.00000000
     The SCF correction term to forces
     atom    1 type  1   force =     0.00009734   -0.00078156   -0.00088798
     atom    2 type  2   force =     0.00073090   -0.00094211   -0.00044059
     atom    3 type  3   force =     0.00033795   -0.00026981   -0.00045620

     Total force =     0.000494     Total SCF correction =     0.001849
     SCF correction compared to forces is large: reduce conv_thr to get better values

     Computing stress (Cartesian axis) and pressure

     negative rho (up, down):  3.824E-02 0.000E+00
          total   stress  (Ry/bohr**3)                   (kbar)     P=       68.51
   0.00046565  -0.00000000   0.00000000           68.50       -0.00        0.00
   0.00000000   0.00046565   0.00000000            0.00       68.50        0.00
   0.00000000   0.00000000   0.00046581            0.00        0.00       68.52

     kinetic stress (kbar)  18627.34      0.00     -0.00
                                0.00  18627.34     -0.00
                               -0.00     -0.00  18627.55

     local   stress (kbar)  -2454.86     -0.79     -0.49
                               -0.79  -2455.97      0.60
                               -0.49      0.60  -2457.25

     nonloc. stress (kbar)  20865.85      0.00      0.00
                                0.00  20865.85      0.00
                                0.00      0.00  20866.41

     hartree stress (kbar)  34922.41      0.51      0.32
                                0.51  34923.13     -0.37
                                0.32     -0.37  34923.85

     exc-cor stress (kbar)   5634.66      0.00      0.00
                                0.00   5634.67     -0.00
                                0.00     -0.00   5634.67

     corecor stress (kbar) -16294.95     -0.00     -0.00
                               -0.00 -16294.96      0.00
                               -0.00      0.00 -16294.96

     ewald   stress (kbar) -61231.76      0.00      0.00
                                0.00 -61231.76      0.00
                                0.00      0.00 -61231.76

     hubbard stress (kbar)      0.00      0.00      0.00
                                0.00      0.00      0.00
                                0.00      0.00      0.00

     DFT-D   stress (kbar)      0.00      0.00      0.00
                                0.00      0.00      0.00
                                0.00      0.00      0.00

     XDM     stress (kbar)      0.00      0.00      0.00
                                0.00      0.00      0.00
                                0.00      0.00      0.00

     dft-nl  stress (kbar)      0.00      0.00      0.00
                                0.00      0.00      0.00
                                0.00      0.00      0.00

     TS-vdW  stress (kbar)      0.00      0.00      0.00
                                0.00      0.00      0.00
                                0.00      0.00      0.00

[...]

                                0.00      0.00      0.00

     Writing all to output data dir new_calculations/myprefix.save/

     General routines

     Parallel routines

     PAW routines

   This run was terminated on:  10:36: 1  20May2023

   JOB DONE.