     Program PWSCF v.7.0 starts on 20May2023 at 19:51:38

     Reading input from espresso_1659.pwi
Warning: card &CELL ignored
Warning: card / ignored

     Current dimensions of program PWSCF are:
     Max number of different atomic species (ntypx) = 10
     Max number of k-points (npk) =  40000
     Max angular momentum in pseudopotentials (lmaxx) =  4

     gamma-point specific algorithms are used
     Message from routine setup:
     using ibrav=0 with symmetry is DISCOURAGED, use correct ibrav instead

     Subspace diagonalization in iterative solution of the eigenvalue problem:
     a serial algorithm will be used

     Using Slab Decomposition

     bravais-lattice index     =            0
     lattice parameter (alat)  =      12.1217  a.u.
     unit-cell volume          =    1259.4488 (a.u.)^3
     number of atoms/cell      =            9
     number of atomic types    =            3
     number of electrons       =        64.00
     number of Kohn-Sham states=           38
     kinetic-energy cutoff     =      30.0000  Ry
     charge density cutoff     =     240.0000  Ry
     scf convergence threshold =      1.0E-06
     mixing beta               =       0.7000
     number of iterations used =            8  plain     mixing
     Exchange-correlation=  SLA  PW   PBX  PBC
                           (   1   4   3   4   0   0   0)

     celldm(1)=  12.121746  celldm(2)=   0.000000  celldm(3)=   0.000000
     celldm(4)=   0.000000  celldm(5)=   0.000000  celldm(6)=   0.000000

     crystal axes: (cart. coord. in units of alat)
               a(1) = (   1.000000   0.000000   0.000000 )
               a(2) = (   0.500000   0.866025   0.000000 )
               a(3) = (   0.500000   0.288675   0.816497 )

     reciprocal axes: (cart. coord. in units 2 pi/alat)
               b(1) = (  1.000000 -0.577350 -0.408248 )
               b(2) = (  0.000000  1.154701 -0.408248 )
               b(3) = (  0.000000  0.000000  1.224745 )

     PseudoPot. # 1 for Cs read from file:
     /home/pragov/projects/rrg-bengioy-ad/pragov/crystal_structure_design/SSSP/Cs_pbe_v1.uspp.F.UPF
     MD5 check sum: 3476d69cb178dfad3ffaa59df4e07ca4
     Pseudo is Ultrasoft + core correction, Zval =  9.0
     Generated by new atomic code, or converted to UPF format
     Using radial grid of  905 points,  6 beta functions with:
                l(1) =   0
                l(2) =   0
                l(3) =   1
                l(4) =   1
                l(5) =   2
                l(6) =   2
     Q(r) pseudized with  6 coefficients,  rinner =    1.500   1.500   1.500
                                                       1.500   1.500

     PseudoPot. # 2 for Si read from file:
     /home/pragov/projects/rrg-bengioy-ad/pragov/crystal_structure_design/SSSP/Si.pbe-n-rrkjus_psl.1.0.0.UPF
     MD5 check sum: 0b0bb1205258b0d07b9f9672cf965d36
     Pseudo is Ultrasoft + core correction, Zval =  4.0
     Generated using "atomic" code by A. Dal Corso  v.5.1
     Using radial grid of 1141 points,  6 beta functions with:
                l(1) =   0
                l(2) =   0
                l(3) =   1
                l(4) =   1
                l(5) =   2
                l(6) =   2
     Q(r) pseudized with 0 coefficients

     PseudoPot. # 3 for F  read from file:
     /home/pragov/projects/rrg-bengioy-ad/pragov/crystal_structure_design/SSSP/f_pbe_v1.4.uspp.F.UPF
     MD5 check sum: 4c38b6a325caf53ec0e86aed9459de46
     Pseudo is Ultrasoft, Zval =  7.0
     Generated by new atomic code, or converted to UPF format
     Using radial grid of  799 points,  4 beta functions with:
                l(1) =   0
                l(2) =   0
                l(3) =   1
                l(4) =   1
     Q(r) pseudized with  8 coefficients,  rinner =    0.950   0.950   0.950

     atomic species   valence    mass     pseudopotential
        Cs             9.00   132.90545     Cs( 1.00)
        Si             4.00    28.08500     Si( 1.00)
        F              7.00    18.99840     F ( 1.00)

     12 Sym. Ops., with inversion, found

                                    s                        frac. trans.

      isym =  1     identity

 cryst.   s( 1) = (     1          0          0      )
                  (     0          1          0      )
                  (     0          0          1      )

 cart.    s( 1) = (  1.0000000  0.0000000  0.0000000 )
                  (  0.0000000  1.0000000  0.0000000 )
                  (  0.0000000  0.0000000  1.0000000 )

      isym =  2     180 deg rotation - cart. axis [1,0,0]

[...]

      isym =  3     120 deg rotation - cryst. axis [0,0,1]

[...]

      isym =  6     180 deg rotation - cryst. axis [1,1,0]

[...]

      isym =  7     inversion

[...]

      isym =  8     inv. 180 deg rotation - cart. axis [1,0,0]

[...]

      isym =  9     inv. 120 deg rotation - cryst. axis [0,0,1]

 cryst.   s( 9) = (     1         -1          0      )
                  (     1          0          0      )
                  (     1          0         -1      )

 cart.    s( 9) = (  0.5000000  0.8660254  0.0000000 )
                  ( -0.8660254  0.5000000  0.0000000 )
                  (  0.0000000  0.0000000 -1.0000000 )

[...]

 cryst.   s(10) = (     0          1          0      )
                  (    -1          1          0      )
                  (     0          1         -1      )

 cart.    s(10) = (  0.5000000 -0.8660254 -0.0000000 )
                  (  0.8660254  0.5000000  0.0000000 )
                  (  0.0000000  0.0000000 -1.0000000 )

[...]

      isym = 12     inv. 180 deg rotation - cryst. axis [1,1,0]

 cryst.   s(12) = (     1         -1          0      )
                  (     0         -1          0      )
                  (     0         -1          1      )

 cart.    s(12) = (  0.5000000 -0.8660254 -0.0000000 )
                  ( -0.8660254 -0.5000000 -0.0000000 )
                  (  0.0000000  0.0000000  1.0000000 )

   Cartesian axes

     site n.     atom                  positions (alat units)
         1           Cs  tau(   1) = (   1.5000000   0.8660254   0.6123724  )
         2           Cs  tau(   2) = (   0.5000000   0.2886751   0.2041241  )
         3           Si  tau(   3) = (   0.0000000   0.0000000   0.0000000  )
         4           F   tau(   4) = (   1.3097230   0.3985316   0.6611361  )
         5           F   tau(   5) = (   0.6902770   0.3985316   0.6611361  )
         6           F   tau(   6) = (   1.3097230   0.7561689   0.1553605  )
         7           F   tau(   7) = (   0.6902770   0.7561689   0.1553605  )
         8           F   tau(   8) = (   1.0000000   0.9349876   0.6611361  )
         9           F   tau(   9) = (   1.0000000   0.2197130   0.1553605  )

   Crystallographic axes

     site n.     atom                  positions (cryst. coord.)
         1           Cs  tau(   1) = (  0.7500000  0.7500000  0.7500000  )
         2           Cs  tau(   2) = (  0.2500000  0.2500000  0.2500000  )
         3           Si  tau(   3) = (  0.0000000  0.0000000  0.0000000  )
         4           F   tau(   4) = (  0.8097230  0.1902770  0.8097230  )
         5           F   tau(   5) = (  0.1902770  0.1902770  0.8097230  )
         6           F   tau(   6) = (  0.8097230  0.8097230  0.1902770  )
         7           F   tau(   7) = (  0.1902770  0.8097230  0.1902770  )
         8           F   tau(   8) = (  0.1902770  0.8097230  0.8097230  )
         9           F   tau(   9) = (  0.8097230  0.1902770  0.1902770  )

     number of k points=     1  Methfessel-Paxton smearing, width (Ry)=  0.0010
                       cart. coord. in units 2pi/alat
        k(    1) = (   0.0000000   0.0000000   0.0000000), wk =   2.0000000

                       cryst. coord.
        k(    1) = (   0.0000000   0.0000000   0.0000000), wk =   2.0000000

     Initial potential from superposition of free atoms

     starting charge      63.9207, renormalised to      64.0000
     Starting wfcs are   54 randomized atomic wfcs

     Self-consistent Calculation

     iteration #  1     ecut=    30.00 Ry     beta= 0.70
     Davidson diagonalization with overlap

     ethr =  1.00E-02,  avg # of iterations =  2.0

     total energy              =    -429.79490346 Ry
     estimated scf accuracy    <       0.92025085 Ry

[...]

     total energy              =    -430.18175558 Ry
     estimated scf accuracy    <       0.00000520 Ry

     iteration #  8     ecut=    30.00 Ry     beta= 0.70
     Davidson diagonalization with overlap

     ethr =  8.13E-09,  avg # of iterations =  3.0

     End of self-consistent calculation

          k = 0.0000 0.0000 0.0000 (  1740 PWs)   bands (ev):

   -20.8741 -19.7151 -19.7149 -19.7144 -19.2356 -19.2352 -16.8934 -16.8595
    -5.0819  -4.2266  -4.2266  -4.2266  -3.8940  -3.8940  -3.8940  -2.6940
    -2.6939  -2.6936  -1.2106  -1.2104  -1.2103  -1.0572  -1.0568  -0.1717
    -0.1715  -0.1713  -0.0151  -0.0150  -0.0150   0.6229   0.6231   0.6233
     7.3029   9.0251   9.0251   9.6735   9.6735   9.6735

     occupation numbers
     1.0000   1.0000   1.0000   1.0000   1.0000   1.0000   1.0000   1.0000
     1.0000   1.0000   1.0000   1.0000   1.0000   1.0000   1.0000   1.0000
     1.0000   1.0000   1.0000   1.0000   1.0000   1.0000   1.0000   1.0000
     1.0000   1.0000   1.0000   1.0000   1.0000   1.0000   1.0000   1.0000
    -0.0000  -0.0000  -0.0000  -0.0000  -0.0000  -0.0000

     the Fermi energy is     2.1047 ev

!    total energy              =    -430.18175677 Ry
     estimated scf accuracy    <       0.00000014 Ry
     smearing contrib. (-TS)   =       0.00000000 Ry
     internal energy E=F+TS    =    -430.18175677 Ry

     The total energy is F=E-TS. E is the sum of the following terms:
     one-electron contribution =    -259.37533279 Ry
     hartree contribution      =     163.56289252 Ry
     xc contribution           =    -123.57557443 Ry
     ewald contribution        =    -210.79374207 Ry

     convergence has been achieved in   8 iterations

     Forces acting on atoms (cartesian axes, Ry/au):

     atom    1 type  1   force =     0.00000000    0.00000000    0.00000410
     atom    2 type  1   force =     0.00000000    0.00000000   -0.00000410
     atom    3 type  2   force =     0.00000000    0.00000000    0.00000000
     atom    4 type  3   force =     0.01501518   -0.00866902    0.01225724
     atom    5 type  3   force =    -0.01501518   -0.00866902    0.01225724
     atom    6 type  3   force =     0.01501518    0.00866902   -0.01225724
     atom    7 type  3   force =    -0.01501518    0.00866902   -0.01225724
     atom    8 type  3   force =     0.00000000    0.01733804    0.01225724
     atom    9 type  3   force =    -0.00000000   -0.01733804   -0.01225724
     The non-local contrib.  to forces
     atom    1 type  1   force =     0.00000000    0.00000000   -0.00000572
     atom    2 type  1   force =     0.00000000   -0.00000000    0.00000572
     atom    3 type  2   force =     0.00000000    0.00000000   -0.00000000
     atom    4 type  3   force =     0.95442525   -0.55103767    0.77929059
     atom    5 type  3   force =    -0.95442525   -0.55103767    0.77929059
     atom    6 type  3   force =     0.95442525    0.55103767   -0.77929059
     atom    7 type  3   force =    -0.95442525    0.55103767   -0.77929059
     atom    8 type  3   force =     0.00000000    1.10207535    0.77929059
     atom    9 type  3   force =     0.00000000   -1.10207535   -0.77929059
     The ionic contribution  to forces
     atom    1 type  1   force =    -0.00000000    0.00000000    0.00000000
     atom    2 type  1   force =    -0.00000000   -0.00000000   -0.00000000
     atom    3 type  2   force =     0.00000000   -0.00000000    0.00000000
     atom    4 type  3   force =    -9.22364099    5.32527161   -7.53107133
     atom    5 type  3   force =     9.22364099    5.32527161   -7.53107133
     atom    6 type  3   force =    -9.22364099   -5.32527161    7.53107133
     atom    7 type  3   force =     9.22364099   -5.32527161    7.53107133
     atom    8 type  3   force =    -0.00000000  -10.65054322   -7.53107134
     atom    9 type  3   force =     0.00000000   10.65054322    7.53107134
     The local contribution  to forces
     atom    1 type  1   force =    -0.00000549   -0.00001193    0.00002436
     atom    2 type  1   force =     0.00001235    0.00000233   -0.00003637
     atom    3 type  2   force =    -0.00000066    0.00000098   -0.00000002
     atom    4 type  3   force =     8.28382938   -4.78268264    6.76372645
     atom    5 type  3   force =    -8.28381581   -4.78267189    6.76372586
     atom    6 type  3   force =     8.28382184    4.78266975   -6.76372759
     atom    7 type  3   force =    -8.28384512    4.78269045   -6.76373555
     atom    8 type  3   force =    -0.00001289    9.56537254    6.76375517
     atom    9 type  3   force =    -0.00000209   -9.56536623   -6.76375665
     The core correction contribution to forces
     atom    1 type  1   force =    -0.00000026   -0.00000120   -0.00000011
     atom    2 type  1   force =     0.00000165    0.00000271   -0.00000257
     atom    3 type  2   force =    -0.00000055    0.00000001   -0.00000052
     atom    4 type  3   force =     0.00000000    0.00000000    0.00000000
     atom    5 type  3   force =     0.00000000    0.00000000    0.00000000
     atom    6 type  3   force =     0.00000000    0.00000000    0.00000000
     atom    7 type  3   force =     0.00000000    0.00000000    0.00000000
     atom    8 type  3   force =     0.00000000    0.00000000    0.00000000
     atom    9 type  3   force =     0.00000000    0.00000000    0.00000000
     The Hubbard contrib.    to forces
     atom    1 type  1   force =     0.00000000    0.00000000    0.00000000
     atom    2 type  1   force =     0.00000000    0.00000000    0.00000000
     atom    3 type  2   force =     0.00000000    0.00000000    0.00000000
     atom    4 type  3   force =     0.00000000    0.00000000    0.00000000
     atom    5 type  3   force =     0.00000000    0.00000000    0.00000000
     atom    6 type  3   force =     0.00000000    0.00000000    0.00000000
     atom    7 type  3   force =     0.00000000    0.00000000    0.00000000
     atom    8 type  3   force =     0.00000000    0.00000000    0.00000000
     atom    9 type  3   force =     0.00000000    0.00000000    0.00000000
     The SCF correction term to forces
     atom    1 type  1   force =     0.00000027    0.00000914   -0.00002345
     atom    2 type  1   force =     0.00000000    0.00000016    0.00002012
     atom    3 type  2   force =    -0.00000337   -0.00000175   -0.00000045
     atom    4 type  3   force =     0.00040206   -0.00021704    0.00031579
     atom    5 type  3   force =    -0.00044313   -0.00024538    0.00033478
     atom    6 type  3   force =     0.00042071    0.00024146   -0.00031510
     atom    7 type  3   force =    -0.00037257    0.00020049   -0.00029598
     atom    8 type  3   force =     0.00001789    0.00041966    0.00026844
     atom    9 type  3   force =     0.00000016   -0.00042646   -0.00027054

     Total force =     0.052010     Total SCF correction =     0.001335

     Computing stress (Cartesian axis) and pressure

          total   stress  (Ry/bohr**3)                   (kbar)     P=      -54.83
  -0.00037271  -0.00000000  -0.00000000          -54.83       -0.00       -0.00
   0.00000000  -0.00037271  -0.00000000            0.00      -54.83       -0.00
  -0.00000000  -0.00000000  -0.00037269           -0.00       -0.00      -54.82

     kinetic stress (kbar)  10526.28      0.00      0.00
                                0.00  10526.28      0.00
                                0.00      0.00  10526.28

     local   stress (kbar)  -9844.04     -0.00      0.00
                               -0.00  -9844.02      0.01
                                0.00      0.01  -9844.02

     nonloc. stress (kbar)   4140.33      0.00      0.00
                                0.00   4140.33      0.00
                                0.00      0.00   4140.33

     hartree stress (kbar)   6368.12      0.00     -0.00
                                0.00   6368.11     -0.01
                               -0.00     -0.01   6368.11

     exc-cor stress (kbar)   2979.35     -0.00      0.00
                               -0.00   2979.35      0.00
                                0.00      0.00   2979.35

     corecor stress (kbar)  -6017.88     -0.00      0.00
                               -0.00  -6017.88     -0.00
                                0.00     -0.00  -6017.88

     ewald   stress (kbar)  -8206.98      0.00     -0.00
                                0.00  -8206.98     -0.00
                               -0.00     -0.00  -8206.98

     hubbard stress (kbar)      0.00      0.00      0.00
                                0.00      0.00      0.00
                                0.00      0.00      0.00

     DFT-D   stress (kbar)      0.00      0.00      0.00
                                0.00      0.00      0.00
                                0.00      0.00      0.00

     XDM     stress (kbar)      0.00      0.00      0.00
                                0.00      0.00      0.00
                                0.00      0.00      0.00

     dft-nl  stress (kbar)      0.00      0.00      0.00
                                0.00      0.00      0.00
                                0.00      0.00      0.00

     TS-vdW  stress (kbar)      0.00      0.00      0.00
                                0.00      0.00      0.00
                                0.00      0.00      0.00

[...]

                                0.00      0.00      0.00

     Writing all to output data dir new_calculations/myprefix.save/

     General routines

     Parallel routines

   This run was terminated on:  19:51:47  20May2023

   JOB DONE.