     Program PWSCF v.7.0 starts on 21May2023 at 17:39:17

     Reading input from espresso_23816.pwi
Warning: card &CELL ignored
Warning: card / ignored

     Current dimensions of program PWSCF are:
     Max number of different atomic species (ntypx) = 10
     Max number of k-points (npk) =  40000
     Max angular momentum in pseudopotentials (lmaxx) =  4
     file Nb.pbe-spn-kjpaw_psl.0.3.0.UPF: wavefunction(s)  4S 4P renormalized
     file O.pbe-n-kjpaw_psl.0.1.UPF: wavefunction(s)  2P renormalized

     gamma-point specific algorithms are used
     Message from routine setup:
     using ibrav=0 with symmetry is DISCOURAGED, use correct ibrav instead

     Subspace diagonalization in iterative solution of the eigenvalue problem:
     a serial algorithm will be used

     Using Slab Decomposition

     bravais-lattice index     =            0
     lattice parameter (alat)  =       7.4684  a.u.
     unit-cell volume          =    1212.5401 (a.u.)^3
     number of atoms/cell      =           11
     number of atomic types    =            4
     number of electrons       =        88.00
     number of Kohn-Sham states=           53
     kinetic-energy cutoff     =      30.0000  Ry
     charge density cutoff     =     240.0000  Ry
     scf convergence threshold =      1.0E-06
     mixing beta               =       0.7000
     number of iterations used =            8  plain     mixing
     Exchange-correlation= SLA  PW   PBX  PBC
                           (   1   4   3   4   0   0   0)

     celldm(1)=   7.468396  celldm(2)=   0.000000  celldm(3)=   0.000000
     celldm(4)=   0.000000  celldm(5)=   0.000000  celldm(6)=   0.000000

     crystal axes: (cart. coord. in units of alat)
               a(1) = (   1.000000   0.000000   0.000000 )
               a(2) = (   0.000000   1.000000   0.000000 )
               a(3) = (   0.000000   0.000000   2.910812 )

     reciprocal axes: (cart. coord. in units 2 pi/alat)
               b(1) = (  1.000000  0.000000  0.000000 )
               b(2) = (  0.000000  1.000000  0.000000 )
               b(3) = (  0.000000  0.000000  0.343547 )

     PseudoPot. # 1 for Cs read from file:
     /home/pragov/projects/rrg-bengioy-ad/pragov/crystal_structure_design/SSSP/Cs_pbe_v1.uspp.F.UPF
     MD5 check sum: 3476d69cb178dfad3ffaa59df4e07ca4
     Pseudo is Ultrasoft + core correction, Zval =  9.0
     Generated by new atomic code, or converted to UPF format
     Using radial grid of  905 points,  6 beta functions with:
                l(1) =   0
                l(2) =   0
                l(3) =   1
                l(4) =   1
                l(5) =   2
                l(6) =   2
     Q(r) pseudized with  6 coefficients,  rinner =    1.500   1.500   1.500
                                                       1.500   1.500

     PseudoPot. # 2 for La read from file:
     /home/pragov/projects/rrg-bengioy-ad/pragov/crystal_structure_design/SSSP/La.GGA-PBE-paw-v1.0.UPF
     MD5 check sum: 436541e95c1ad8901025bd0b0ed42ae2
     Pseudo is Projector augmented-wave + core cor, Zval = 11.0
     Generated using ATOMPAW code
     Shape of augmentation charge: BESSEL
     Using radial grid of 1101 points,  8 beta functions with:
                l(1) =   0
                l(2) =   0
                l(3) =   1
                l(4) =   1
                l(5) =   2
                l(6) =   2
                l(7) =   3
                l(8) =   3
     Q(r) pseudized with 0 coefficients

     PseudoPot. # 3 for Nb read from file:
     /home/pragov/projects/rrg-bengioy-ad/pragov/crystal_structure_design/SSSP/Nb.pbe-spn-kjpaw_psl.0.3.0.UPF
     MD5 check sum: 411d72ad547312f8017e2943ceca08cc
     Pseudo is Projector augmented-wave + core cor, Zval = 13.0
     Generated using "atomic" code by A. Dal Corso  v.5.0.99 svn rev. 10869
     Shape of augmentation charge: PSQ
     Using radial grid of 1227 points,  6 beta functions with:
                l(1) =   0
                l(2) =   0
                l(3) =   1
                l(4) =   1
                l(5) =   2
                l(6) =   2
     Q(r) pseudized with 0 coefficients

     PseudoPot. # 4 for O  read from file:
     /home/pragov/projects/rrg-bengioy-ad/pragov/crystal_structure_design/SSSP/O.pbe-n-kjpaw_psl.0.1.UPF
     MD5 check sum: 0234752ac141de4415c5fc33072bef88
     Pseudo is Projector augmented-wave + core cor, Zval =  6.0
     Generated using "atomic" code by A. Dal Corso  v.5.0.99 svn rev. 10869
     Shape of augmentation charge: BESSEL
     Using radial grid of 1095 points,  4 beta functions with:
                l(1) =   0
                l(2) =   0
                l(3) =   1
                l(4) =   1
     Q(r) pseudized with 0 coefficients

     atomic species   valence    mass     pseudopotential
        Cs             9.00   132.90545     Cs( 1.00)
        La            11.00   138.90547     La( 1.00)
        Nb            13.00    92.90637     Nb( 1.00)
        O              6.00    15.99900     O ( 1.00)

     16 Sym. Ops., with inversion, found

                                    s                        frac. trans.

      isym =  1     identity

 cryst.   s( 1) = (     1          0          0      )
                  (     0          1          0      )
                  (     0          0          1      )

 cart.    s( 1) = (  1.0000000  0.0000000  0.0000000 )
                  (  0.0000000  1.0000000  0.0000000 )
                  (  0.0000000  0.0000000  1.0000000 )

      isym =  2     180 deg rotation - cart. axis [0,0,1]

[...]

      isym =  8      90 deg rotation - cart. axis [0,0,1]

[...]

      isym =  9     inversion

 cryst.   s( 9) = (    -1          0          0      )
                  (     0         -1          0      )
                  (     0          0         -1      )

 cart.    s( 9) = ( -1.0000000  0.0000000  0.0000000 )
                  (  0.0000000 -1.0000000  0.0000000 )
                  (  0.0000000  0.0000000 -1.0000000 )

      isym = 10     inv. 180 deg rotation - cart. axis [0,0,1]

 cryst.   s(10) = (     1          0          0      )
                  (     0          1          0      )
                  (     0          0         -1      )

 cart.    s(10) = (  1.0000000  0.0000000  0.0000000 )
                  (  0.0000000  1.0000000  0.0000000 )
                  (  0.0000000  0.0000000 -1.0000000 )

[...]

      isym = 16     inv.  90 deg rotation - cart. axis [0,0,1]

 cryst.   s(16) = (     0         -1          0      )
                  (     1          0          0      )
                  (     0          0         -1      )

 cart.    s(16) = (  0.0000000  1.0000000  0.0000000 )
                  ( -1.0000000  0.0000000  0.0000000 )
                  (  0.0000000  0.0000000 -1.0000000 )

   Cartesian axes

     site n.     atom                  positions (alat units)
         1           Cs  tau(   1) = (   0.0000000   0.0000000   1.4554058  )
         2           La  tau(   2) = (   0.0000000   0.0000000   0.0000000  )
         3           Nb  tau(   3) = (   0.5000000   0.5000000   0.5768559  )
         4           Nb  tau(   4) = (   0.5000000   0.5000000   2.3339557  )
         5           O   tau(   5) = (   0.5000000   0.5000000   1.8762160  )
         6           O   tau(   6) = (   0.0000000   0.5000000   0.4685533  )
         7           O   tau(   7) = (   0.5000000   0.0000000   0.4685533  )
         8           O   tau(   8) = (   0.0000000   0.5000000   2.4422582  )
         9           O   tau(   9) = (   0.5000000   0.0000000   2.4422582  )
        10           O   tau(  10) = (   0.5000000   0.5000000   1.0345956  )
        11           O   tau(  11) = (   0.5000000   0.5000000   0.0000000  )

   Crystallographic axes

     site n.     atom                  positions (cryst. coord.)
         1           Cs  tau(   1) = (  0.0000000  0.0000000  0.5000000  )
         2           La  tau(   2) = (  0.0000000  0.0000000  0.0000000  )
         3           Nb  tau(   3) = (  0.5000000  0.5000000  0.1981770  )
         4           Nb  tau(   4) = (  0.5000000  0.5000000  0.8018230  )
         5           O   tau(   5) = (  0.5000000  0.5000000  0.6445680  )
         6           O   tau(   6) = (  0.0000000  0.5000000  0.1609700  )
         7           O   tau(   7) = (  0.5000000  0.0000000  0.1609700  )
         8           O   tau(   8) = (  0.0000000  0.5000000  0.8390300  )
         9           O   tau(   9) = (  0.5000000  0.0000000  0.8390300  )
        10           O   tau(  10) = (  0.5000000  0.5000000  0.3554320  )
        11           O   tau(  11) = (  0.5000000  0.5000000  0.0000000  )

     number of k points=     1  Methfessel-Paxton smearing, width (Ry)=  0.0010
                       cart. coord. in units 2pi/alat
        k(    1) = (   0.0000000   0.0000000   0.0000000), wk =   2.0000000

                       cryst. coord.
        k(    1) = (   0.0000000   0.0000000   0.0000000), wk =   2.0000000

     Check: negative core charge=   -0.000015

     Initial potential from superposition of free atoms

     starting charge      87.9478, renormalised to      88.0000
     Starting wfcs are   93 randomized atomic wfcs
     Checking if some PAW data can be deallocated...

     Self-consistent Calculation

     iteration #  1     ecut=    30.00 Ry     beta= 0.70
     Davidson diagonalization with overlap

     ethr =  1.00E-02,  avg # of iterations =  2.0

     negative rho (up, down):  3.501E-06 0.000E+00

     total energy              =   -1477.95642705 Ry
     estimated scf accuracy    <       6.24049869 Ry

[...]

     total energy              =   -1481.28069027 Ry
     estimated scf accuracy    <       0.00000271 Ry

     iteration # 24     ecut=    30.00 Ry     beta= 0.70
     Davidson diagonalization with overlap

     ethr =  3.08E-09,  avg # of iterations =  2.0

     End of self-consistent calculation

          k = 0.0000 0.0000 0.0000 (  1691 PWs)   bands (ev):

   -48.0767 -48.0766 -24.2502 -24.2501 -24.2498 -24.2498 -23.9309 -23.9174
   -22.1131 -12.2465  -9.8545  -9.5242  -9.1415  -9.1162  -8.4628  -8.4385
    -6.6562  -5.6268  -5.6268  -5.4193   0.8846   1.3975   1.3975   4.1218
     4.2924   4.2924   4.3898   4.3899   4.6284   5.3758   5.4702   5.7115
     5.7116   5.9613   5.9632   5.9766   5.9767   6.7832   6.7832   6.8337
     6.8338   8.1613   8.4606   8.4607   8.6161   8.6525  11.6105  11.6105
    11.8511  11.8512  12.4856  12.9100  12.9752

     occupation numbers
     1.0000   1.0000   1.0000   1.0000   1.0000   1.0000   1.0000   1.0000
     1.0000   1.0000   1.0000   1.0000   1.0000   1.0000   1.0000   1.0000
     1.0000   1.0000   1.0000   1.0000   1.0000   1.0000   1.0000   1.0000
     1.0000   1.0000   1.0000   1.0000   1.0000   1.0000   1.0000   1.0000
     1.0000   1.0000   1.0000   1.0000   1.0000   1.0000   1.0000   1.0000
     1.0000   1.0000   1.0000   1.0000  -0.0000  -0.0000  -0.0000  -0.0000
    -0.0000  -0.0000  -0.0000  -0.0000  -0.0000

     the Fermi energy is     8.5299 ev

!    total energy              =   -1481.28069038 Ry
     estimated scf accuracy    <       0.00000061 Ry
     smearing contrib. (-TS)   =       0.00000000 Ry
     internal energy E=F+TS    =   -1481.28069038 Ry

     The total energy is F=E-TS. E is the sum of the following terms:
     one-electron contribution =    -382.88015510 Ry
     hartree contribution      =     241.60897115 Ry
     xc contribution           =    -149.15602128 Ry
     ewald contribution        =    -309.16153675 Ry
     one-center paw contrib.   =    -881.69194841 Ry
      -> PAW hartree energy AE =     374.32299845 Ry
      -> PAW hartree energy PS =    -372.84795842 Ry
      -> PAW xc energy AE      =    -997.02550968 Ry
      -> PAW xc energy PS      =     113.85852124 Ry
      -> total E_H with PAW    =     243.08401118 Ry
      -> total E_XC with PAW   =   -1032.32300971 Ry

     convergence has been achieved in  24 iterations

     Forces acting on atoms (cartesian axes, Ry/au):

     atom    1 type  1   force =     0.00000000    0.00000000    0.00000000
     atom    2 type  2   force =     0.00000000    0.00000000    0.00000000
     atom    3 type  3   force =     0.00000000    0.00000000    0.45444841
     atom    4 type  3   force =     0.00000000    0.00000000   -0.45444841
     atom    5 type  4   force =     0.00000000    0.00000000    0.04807326
     atom    6 type  4   force =     0.00000000    0.00000000   -0.25851968
     atom    7 type  4   force =     0.00000000    0.00000000   -0.25851968
     atom    8 type  4   force =     0.00000000    0.00000000    0.25851968
     atom    9 type  4   force =     0.00000000    0.00000000    0.25851968
     atom   10 type  4   force =     0.00000000    0.00000000   -0.04807326
     atom   11 type  4   force =     0.00000000    0.00000000    0.00000000
     The non-local contrib.  to forces
     atom    1 type  1   force =     0.00000000    0.00000000    0.00000000
     atom    2 type  2   force =     0.00000000    0.00000000    0.00000000
     atom    3 type  3   force =     0.00000000    0.00000000   -0.50656799
     atom    4 type  3   force =     0.00000000    0.00000000    0.50656799
     atom    5 type  4   force =     0.00000000    0.00000000    0.86783066
     atom    6 type  4   force =     0.00000000    0.00000000    0.96167390
     atom    7 type  4   force =     0.00000000    0.00000000    0.96167390
     atom    8 type  4   force =     0.00000000    0.00000000   -0.96167390
     atom    9 type  4   force =     0.00000000    0.00000000   -0.96167390
     atom   10 type  4   force =     0.00000000    0.00000000   -0.86783066
     atom   11 type  4   force =     0.00000000    0.00000000    0.00000000
     The ionic contribution  to forces
     atom    1 type  1   force =    -0.00000000   -0.00000000    0.00000000
     atom    2 type  2   force =    -0.00000000   -0.00000000    0.00000000
     atom    3 type  3   force =     0.00000000    0.00000000   28.85682915
     atom    4 type  3   force =     0.00000000    0.00000000  -28.85682915
     atom    5 type  4   force =     0.00000000    0.00000000  -21.47923712
     atom    6 type  4   force =    -0.00000000   -0.00000000   10.77435299
     atom    7 type  4   force =    -0.00000000   -0.00000000   10.77435299
     atom    8 type  4   force =    -0.00000000   -0.00000000  -10.77435299
     atom    9 type  4   force =    -0.00000000   -0.00000000  -10.77435299
     atom   10 type  4   force =    -0.00000000   -0.00000000   21.47923712
     atom   11 type  4   force =    -0.00000000   -0.00000000    0.00000000
     The local contribution  to forces
     atom    1 type  1   force =     0.00000088   -0.00000435   -0.00016077
     atom    2 type  2   force =    -0.00009235   -0.00001929   -0.00014344
     atom    3 type  3   force =     0.00012916    0.00001532  -27.93523882
     atom    4 type  3   force =     0.00012703    0.00009223   27.93619750
     atom    5 type  4   force =     0.00001064    0.00002076   20.66599470
     atom    6 type  4   force =    -0.00004974    0.00003074  -11.98259565
     atom    7 type  4   force =     0.00002041   -0.00000441  -11.98269203
     atom    8 type  4   force =    -0.00002098   -0.00001670   11.98279579
     atom    9 type  4   force =    -0.00002654   -0.00003916   11.98271546
     atom   10 type  4   force =    -0.00002039    0.00000830  -20.66593062
     atom   11 type  4   force =     0.00006353    0.00003903   -0.00016865
     The core correction contribution to forces
     atom    1 type  1   force =    -0.00000083   -0.00000079   -0.00000322
     atom    2 type  2   force =    -0.00000005   -0.00000001    0.00000002
     atom    3 type  3   force =     0.00000375    0.00000066    0.03806445
     atom    4 type  3   force =     0.00000382    0.00000167   -0.03803777
     atom    5 type  4   force =     0.00000002   -0.00000001   -0.00604903
     atom    6 type  4   force =    -0.00000006    0.00000016   -0.01211210
     atom    7 type  4   force =     0.00000004   -0.00000011   -0.01211225
     atom    8 type  4   force =     0.00000010   -0.00000023    0.01211242
     atom    9 type  4   force =    -0.00000030   -0.00000005    0.01211236
     atom   10 type  4   force =    -0.00000004   -0.00000004    0.00604812
     atom   11 type  4   force =    -0.00000016    0.00000034   -0.00000099
     The Hubbard contrib.    to forces
     atom    1 type  1   force =     0.00000000    0.00000000    0.00000000
     atom    2 type  2   force =     0.00000000    0.00000000    0.00000000
     atom    3 type  3   force =     0.00000000    0.00000000    0.00000000
     atom    4 type  3   force =     0.00000000    0.00000000    0.00000000
     atom    5 type  4   force =     0.00000000    0.00000000    0.00000000
     atom    6 type  4   force =     0.00000000    0.00000000    0.00000000
     atom    7 type  4   force =     0.00000000    0.00000000    0.00000000
     atom    8 type  4   force =     0.00000000    0.00000000    0.00000000
     atom    9 type  4   force =     0.00000000    0.00000000    0.00000000
     atom   10 type  4   force =     0.00000000    0.00000000    0.00000000
     atom   11 type  4   force =     0.00000000    0.00000000    0.00000000
     The SCF correction term to forces
     atom    1 type  1   force =    -0.00000256    0.00000301    0.00012094
     atom    2 type  2   force =     0.00007706    0.00001257    0.00016413
     atom    3 type  3   force =    -0.00009417   -0.00001343    0.00154671
     atom    4 type  3   force =    -0.00007800   -0.00007359   -0.00216190
     atom    5 type  4   force =    -0.00001044   -0.00001531   -0.00046556
     atom    6 type  4   force =     0.00006006   -0.00001017    0.00016570
     atom    7 type  4   force =    -0.00003235   -0.00000073    0.00023905
     atom    8 type  4   force =     0.00002986    0.00000185   -0.00034124
     atom    9 type  4   force =    -0.00000445    0.00004230   -0.00031574
     atom   10 type  4   force =     0.00001441   -0.00001056    0.00040318
     atom   11 type  4   force =    -0.00010125   -0.00001700    0.00012155

     Total force =     0.827646     Total SCF correction =     0.002801

     Computing stress (Cartesian axis) and pressure

          total   stress  (Ry/bohr**3)                   (kbar)     P=     -181.36
  -0.00057641   0.00000000   0.00000000          -84.79        0.00        0.00
   0.00000000  -0.00057641   0.00000000            0.00      -84.79        0.00
   0.00000000   0.00000000  -0.00254578            0.00        0.00     -374.50

     kinetic stress (kbar)  19136.29      0.00      0.00
                                0.00  19136.29      0.00
                                0.00      0.00  19247.25

     local   stress (kbar) -37213.90     -0.00      0.00
                               -0.00 -37213.89      0.00
                                0.00      0.00  15040.17

     nonloc. stress (kbar)   7443.35      0.00      0.00
                                0.00   7443.35      0.00
                                0.00      0.00   7229.83

     hartree stress (kbar)  18308.76      0.00     -0.00
                                0.00  18308.76      0.00
                               -0.00      0.00  -7305.57

     exc-cor stress (kbar)   2764.44     -0.00     -0.00
                               -0.00   2764.44      0.00
                               -0.00      0.00   2777.31

     corecor stress (kbar)  -6969.96      0.00      0.00
                                0.00  -6969.96     -0.00
                                0.00     -0.00  -6963.64

     ewald   stress (kbar)  -3553.78     -0.00      0.00
                               -0.00  -3553.78      0.00
                                0.00      0.00 -30399.85

     hubbard stress (kbar)      0.00      0.00      0.00
                                0.00      0.00      0.00
                                0.00      0.00      0.00

     DFT-D   stress (kbar)      0.00      0.00      0.00
                                0.00      0.00      0.00
                                0.00      0.00      0.00

     XDM     stress (kbar)      0.00      0.00      0.00
                                0.00      0.00      0.00
                                0.00      0.00      0.00

     dft-nl  stress (kbar)      0.00      0.00      0.00
                                0.00      0.00      0.00
                                0.00      0.00      0.00

     TS-vdW  stress (kbar)      0.00      0.00      0.00
                                0.00      0.00      0.00
                                0.00      0.00      0.00

[...]

                                0.00      0.00      0.00

     Writing all to output data dir new_calculations/myprefix.save/

     General routines

     Parallel routines

     PAW routines

   This run was terminated on:  17:40:11  21May2023

   JOB DONE.