     Program PWSCF v.7.0 starts on 20May2023 at 10:44: 4

     Reading input from espresso_2355.pwi
Warning: card &CELL ignored
Warning: card / ignored

     Current dimensions of program PWSCF are:
     Max number of different atomic species (ntypx) = 10
     Max number of k-points (npk) =  40000
     Max angular momentum in pseudopotentials (lmaxx) =  4
     file Ga.pbe-dn-kjpaw_psl.1.0.0.UPF: wavefunction(s)  4S renormalized

     gamma-point specific algorithms are used
     Message from routine setup:
     using ibrav=0 with symmetry is DISCOURAGED, use correct ibrav instead

     Subspace diagonalization in iterative solution of the eigenvalue problem:
     a serial algorithm will be used

     Using Slab Decomposition

     bravais-lattice index     =            0
     lattice parameter (alat)  =      15.9680  a.u.
     unit-cell volume          =    2638.3278 (a.u.)^3
     number of atoms/cell      =           16
     number of atomic types    =            2
     number of electrons       =       328.00
     number of Kohn-Sham states=          197
     kinetic-energy cutoff     =      30.0000  Ry
     charge density cutoff     =     240.0000  Ry
     scf convergence threshold =      1.0E-06
     mixing beta               =       0.7000
     number of iterations used =            8  plain     mixing
     Exchange-correlation= SLA  PW   PBX  PBC
                           (   1   4   3   4   0   0   0)

     celldm(1)=  15.968044  celldm(2)=   0.000000  celldm(3)=   0.000000
     celldm(4)=   0.000000  celldm(5)=   0.000000  celldm(6)=   0.000000

     crystal axes: (cart. coord. in units of alat)
               a(1) = (   1.000000   0.000000   0.000000 )
               a(2) = (  -0.500000   0.866025   0.000000 )
               a(3) = (   0.000000   0.000000   0.748244 )

     reciprocal axes: (cart. coord. in units 2 pi/alat)
               b(1) = (  1.000000  0.577350  0.000000 )
               b(2) = (  0.000000  1.154701  0.000000 )
               b(3) = (  0.000000  0.000000  1.336463 )

     PseudoPot. # 1 for Lu read from file:
     /home/pragov/projects/rrg-bengioy-ad/pragov/crystal_structure_design/SSSP/Lu.GGA-PBE-paw-v1.0.UPF
     MD5 check sum: 9ceca61ee0c17e9380a83635bfffa61d
     Pseudo is Projector augmented-wave + core cor, Zval = 25.0
     Generated using ATOMPAW code
     Shape of augmentation charge: BESSEL
     Using radial grid of 1118 points,  8 beta functions with:
                l(1) =   0
                l(2) =   0
                l(3) =   1
                l(4) =   1
                l(5) =   2
                l(6) =   2
                l(7) =   3
                l(8) =   3
     Q(r) pseudized with 0 coefficients

     PseudoPot. # 2 for Ga read from file:
     /home/pragov/projects/rrg-bengioy-ad/pragov/crystal_structure_design/SSSP/Ga.pbe-dn-kjpaw_psl.1.0.0.UPF
     MD5 check sum: a27b4342b1af7e5f338de752e9ed7044
     Pseudo is Projector augmented-wave + core cor, Zval = 13.0
     Generated using "atomic" code by A. Dal Corso  v.5.1
     Shape of augmentation charge: PSQ
     Using radial grid of 1205 points,  6 beta functions with:
                l(1) =   0
                l(2) =   0
                l(3) =   1
                l(4) =   1
                l(5) =   2
                l(6) =   2
     Q(r) pseudized with 0 coefficients

     atomic species   valence    mass     pseudopotential
        Lu            25.00   174.96680     Lu( 1.00)
        Ga            13.00    69.72300     Ga( 1.00)

     24 Sym. Ops., with inversion, found (12 have fractional translation)

                                    s                        frac. trans.

      isym =  1     identity

 cryst.   s( 1) = (     1          0          0      )
                  (     0          1          0      )
                  (     0          0          1      )

 cart.    s( 1) = (  1.0000000 -0.0000000  0.0000000 )
                  (  0.0000000  1.0000000  0.0000000 )
                  (  0.0000000  0.0000000  1.0000000 )

      isym =  2     180 deg rotation - cart. axis [0,0,1]

 cryst.   s( 2) = (    -1          0          0      )    f =( -0.0000000 )
                  (     0         -1          0      )       ( -0.0000000 )
                  (     0          0          1      )       ( -0.5000000 )

 cart.    s( 2) = ( -1.0000000  0.0000000  0.0000000 )    f =( -0.0000000 )
                  (  0.0000000 -1.0000000  0.0000000 )       ( -0.0000000 )
                  (  0.0000000  0.0000000  1.0000000 )       ( -0.3741218 )

[...]

      isym =  4     180 deg rotation - cart. axis [1,0,0]

[...]

      isym =  5      60 deg rotation - cryst. axis [0,0,1]

[...]

 cryst.   s( 6) = (     0         -1          0      )    f =(  0.0000000 )
                  (     1          1          0      )       (  0.0000010 )
                  (     0          0          1      )       ( -0.5000000 )

 cart.    s( 6) = (  0.5000001  0.8660255  0.0000000 )    f =( -0.0000005 )
                  ( -0.8660253  0.4999999  0.0000000 )       (  0.0000009 )
                  (  0.0000000  0.0000000  1.0000000 )       ( -0.3741218 )

[...]

 cryst.   s( 9) = (     0         -1          0      )
                  (    -1          0          0      )
                  (     0          0         -1      )

 cart.    s( 9) = (  0.5000001 -0.8660253  0.0000000 )
                  ( -0.8660253 -0.5000001  0.0000000 )
                  (  0.0000000  0.0000000 -1.0000000 )

[...]

 cryst.   s(10) = (     1          1          0      )
                  (     0         -1          0      )
                  (     0          0         -1      )

 cart.    s(10) = (  0.4999999  0.8660256  0.0000000 )
                  (  0.8660253 -0.4999999  0.0000000 )
                  (  0.0000000  0.0000000 -1.0000000 )

[...]

 cryst.   s(11) = (    -1         -1          0      )    f =( -0.0000000 )
                  (     0          1          0      )       (  0.0000010 )
                  (     0          0         -1      )       (  0.5000000 )

 cart.    s(11) = ( -0.4999999 -0.8660256  0.0000000 )    f =( -0.0000005 )
                  ( -0.8660253  0.4999999  0.0000000 )       (  0.0000009 )
                  (  0.0000000  0.0000000 -1.0000000 )       (  0.3741218 )

      isym = 12     180 deg rotation - cryst. axis [1,1,0]

[...]

      isym = 13     inversion

[...]

      isym = 14     inv. 180 deg rotation - cart. axis [0,0,1]

[...]

      isym = 16     inv. 180 deg rotation - cart. axis [1,0,0]

[...]

      isym = 17     inv.  60 deg rotation - cryst. axis [0,0,1]

[...]

 cryst.   s(22) = (    -1         -1          0      )
                  (     0          1          0      )
                  (     0          0          1      )

 cart.    s(22) = ( -0.4999999 -0.8660256  0.0000000 )
                  ( -0.8660253  0.4999999  0.0000000 )
                  (  0.0000000  0.0000000  1.0000000 )

[...]

      isym = 24     inv. 180 deg rotation - cryst. axis [1,1,0]

 cryst.   s(24) = (     0         -1          0      )    f =( -0.0000000 )
                  (    -1          0          0      )       ( -0.0000000 )
                  (     0          0          1      )       ( -0.5000000 )

 cart.    s(24) = (  0.5000001 -0.8660253  0.0000000 )    f =( -0.0000000 )
                  ( -0.8660253 -0.5000001  0.0000000 )       ( -0.0000000 )
                  (  0.0000000  0.0000000  1.0000000 )       ( -0.3741218 )

   Cartesian axes

     site n.     atom                  positions (alat units)
         1           Lu  tau(   1) = (   0.5000005   0.2886748   0.0000000  )
         2           Lu  tau(   2) = (  -0.0000006   0.5773505   0.0000000  )
         3           Lu  tau(   3) = (  -0.0000006   0.5773505   0.3741218  )
         4           Lu  tau(   4) = (   0.5000005   0.2886748   0.3741218  )
         5           Lu  tau(   5) = (   0.3793059   0.6569772   0.5611827  )
         6           Lu  tau(   6) = (   0.2413880   0.0000000   0.5611827  )
         7           Lu  tau(   7) = (  -0.1206940   0.2090481   0.5611827  )
         8           Lu  tau(   8) = (   0.1206940   0.2090481   0.1870609  )
         9           Lu  tau(   9) = (   0.7586120   0.0000000   0.1870609  )
        10           Lu  tau(  10) = (  -0.3793061   0.6569772   0.1870609  )
        11           Ga  tau(  11) = (   0.2005810   0.3474165   0.5611827  )
        12           Ga  tau(  12) = (   0.5988380   0.0000000   0.5611827  )
        13           Ga  tau(  13) = (   0.7005809   0.5186089   0.5611827  )
        14           Ga  tau(  14) = (   0.2994189   0.5186089   0.1870609  )
        15           Ga  tau(  15) = (   0.4011620   0.0000000   0.1870609  )
        16           Ga  tau(  16) = (  -0.2005810   0.3474165   0.1870609  )

   Crystallographic axes

     site n.     atom                  positions (cryst. coord.)
         1           Lu  tau(   1) = (  0.6666670  0.3333330  0.0000000  )
         2           Lu  tau(   2) = (  0.3333330  0.6666670  0.0000000  )
         3           Lu  tau(   3) = (  0.3333330  0.6666670  0.5000000  )
         4           Lu  tau(   4) = (  0.6666670  0.3333330  0.5000000  )
         5           Lu  tau(   5) = (  0.7586120  0.7586120  0.7500000  )
         6           Lu  tau(   6) = (  0.2413880  0.0000000  0.7500000  )
         7           Lu  tau(   7) = ( -0.0000000  0.2413880  0.7500000  )
         8           Lu  tau(   8) = (  0.2413880  0.2413880  0.2500000  )
         9           Lu  tau(   9) = (  0.7586120  0.0000000  0.2500000  )
        10           Lu  tau(  10) = ( -0.0000000  0.7586120  0.2500000  )
        11           Ga  tau(  11) = (  0.4011620  0.4011620  0.7500000  )
        12           Ga  tau(  12) = (  0.5988380  0.0000000  0.7500000  )
        13           Ga  tau(  13) = (  1.0000000  0.5988380  0.7500000  )
        14           Ga  tau(  14) = (  0.5988380  0.5988380  0.2500000  )
        15           Ga  tau(  15) = (  0.4011620  0.0000000  0.2500000  )
        16           Ga  tau(  16) = (  0.0000000  0.4011620  0.2500000  )

     number of k points=     1  Methfessel-Paxton smearing, width (Ry)=  0.0010
                       cart. coord. in units 2pi/alat
        k(    1) = (   0.0000000   0.0000000   0.0000000), wk =   2.0000000

                       cryst. coord.
        k(    1) = (   0.0000000   0.0000000   0.0000000), wk =   2.0000000

     Check: negative core charge=   -0.000002

     Initial potential from superposition of free atoms

     starting charge     327.9446, renormalised to     328.0000
     Starting wfcs are  374 randomized atomic wfcs
     Checking if some PAW data can be deallocated...

     Self-consistent Calculation

     iteration #  1     ecut=    30.00 Ry     beta= 0.70
     Davidson diagonalization with overlap

     ethr =  1.00E-02,  avg # of iterations =  2.0

     Threshold (ethr) on eigenvalues was too large:
     Diagonalizing with lowered threshold

     Davidson diagonalization with overlap

[...]

     total energy              =  -12468.83294939 Ry
     estimated scf accuracy    <       1.08502604 Ry

[...]

     c_bands:  1 eigenvalues not converged
     ethr =  4.57E-06,  avg # of iterations = 20.0

[...]

     total energy              =  -12469.46735564 Ry
     estimated scf accuracy    <       0.00000742 Ry

     iteration # 17     ecut=    30.00 Ry     beta= 0.70
     Davidson diagonalization with overlap

     ethr =  2.26E-09,  avg # of iterations =  2.0

     End of self-consistent calculation

          k = 0.0000 0.0000 0.0000 (  3659 PWs)   bands (ev):

   -43.0302 -43.0293 -42.9977 -42.9975 -42.9863 -42.9815 -42.9805 -42.9802
   -42.9778 -42.9775 -14.0442 -14.0415 -13.7749 -13.7748 -13.7306 -13.7306
   -13.7303 -13.6921 -13.6632 -13.6632 -13.6499 -13.6486 -13.6485 -13.6402
   -13.6402 -13.6271 -13.6227 -13.6225 -13.5756 -13.5686 -13.5684 -13.5640
   -13.5638 -13.5518 -13.5517 -13.5114 -13.5110 -13.5107 -13.4307 -13.4255
    -0.9126  -0.9088  -0.9088  -0.9046  -0.9045  -0.9004  -0.9004  -0.9002
    -0.8998  -0.8997  -0.8985  -0.8945  -0.8887  -0.8803  -0.8801  -0.8759
    -0.8757  -0.8649  -0.8449  -0.8399  -0.8391  -0.8374  -0.8371  -0.8366
    -0.8365  -0.8320  -0.8319  -0.8154  -0.8152  -0.8120   5.0955   7.0397
     7.0399   7.6851   7.6938   7.6939   8.3358   8.3431   8.3431   8.3464
     8.3465   8.3487   8.3663   8.3776   8.3787   8.3788   8.3795   8.3803
     8.3804   8.3808   8.3854   8.3857   8.3875   8.3988   8.3988   8.3997
     8.3997   8.4130   8.4202   8.4204   8.4204   8.4236   8.4249   8.4251
     8.4254   8.4254   8.4326   8.4328   8.4329   8.4423   8.4425   8.4427
     8.4428   8.4486   8.4540   8.4542   8.4554   8.4561   8.4577   8.4588
     8.4652   8.4654   8.4699   8.4700   8.4759   8.4767   8.4769   8.4802
     8.4805   8.4809   8.4809   8.4837   8.4875   8.4910   8.4911   8.4916
     8.4920   8.4921   8.4958   8.4958   8.4974   8.4979   8.4982   8.5051
     8.5141   8.5142   8.8835  10.2379  10.3691  10.3692  10.5276  11.1898
    11.1899  11.8552  11.8553  12.5840  12.5840  12.6653  12.7201  12.9365
    12.9847  12.9848  13.0655  13.2734  13.2872  13.2903  13.2903  13.4541
    13.4542  14.0508  14.1656  14.2654  14.2655  15.0697  15.0697  15.3367
    15.3368  15.7021  15.7396  15.7396  15.8196  16.8408  16.8410  17.1488
    17.1489  17.5453  17.5453  17.6128  17.6129  17.6764  17.8563  17.8921
    17.8922  17.8998  17.8998  18.2949  18.3019

     occupation numbers
     1.0000   1.0000   1.0000   1.0000   1.0000   1.0000   1.0000   1.0000
     1.0000   1.0000   1.0000   1.0000   1.0000   1.0000   1.0000   1.0000
     1.0000   1.0000   1.0000   1.0000   1.0000   1.0000   1.0000   1.0000
     1.0000   1.0000   1.0000   1.0000   1.0000   1.0000   1.0000   1.0000
     1.0000   1.0000   1.0000   1.0000   1.0000   1.0000   1.0000   1.0000
     1.0000   1.0000   1.0000   1.0000   1.0000   1.0000   1.0000   1.0000
     1.0000   1.0000   1.0000   1.0000   1.0000   1.0000   1.0000   1.0000
     1.0000   1.0000   1.0000   1.0000   1.0000   1.0000   1.0000   1.0000
     1.0000   1.0000   1.0000   1.0000   1.0000   1.0000   1.0000   1.0000
     1.0000   1.0000   1.0000   1.0000   1.0000   1.0000   1.0000   1.0000
     1.0000   1.0000   1.0000   1.0000   1.0000   1.0000   1.0000   1.0000
     1.0000   1.0000   1.0000   1.0000   1.0000   1.0000   1.0000   1.0000
     1.0000   1.0000   1.0000   1.0000   1.0000   1.0000   1.0000   1.0000
     1.0000   1.0000   1.0000   1.0000   1.0000   1.0000   1.0000   1.0000
     1.0000   1.0000   1.0000   1.0000   1.0000   1.0000   1.0000   1.0000
     1.0000   1.0000   1.0000   1.0000   1.0000   1.0000   1.0000   1.0000
     1.0000   1.0000   1.0000   1.0000   1.0000   1.0000   1.0000   1.0000
     1.0000   1.0000   1.0000   1.0000   1.0000   1.0000   1.0000   1.0000
     1.0000   1.0000   1.0000   1.0000   1.0000   1.0000   1.0000   1.0000
     1.0000   1.0000   1.0000   1.0000   1.0000   1.0000   1.0000   1.0000
     1.0000   1.0000   1.0000   0.8542   0.1077   0.0196   0.0186  -0.0000
    -0.0000  -0.0000  -0.0000  -0.0000  -0.0000  -0.0000  -0.0000  -0.0000
    -0.0000  -0.0000  -0.0000  -0.0000  -0.0000  -0.0000  -0.0000  -0.0000
    -0.0000  -0.0000  -0.0000  -0.0000  -0.0000  -0.0000  -0.0000  -0.0000
    -0.0000  -0.0000  -0.0000  -0.0000  -0.0000

     the Fermi energy is    13.2799 ev

!    total energy              =  -12469.46735583 Ry

     total all-electron energy =    -34130.455317 Ry
     estimated scf accuracy    <       0.00000059 Ry
     smearing contrib. (-TS)   =      -0.00015723 Ry
     internal energy E=F+TS    =  -12469.46719860 Ry

     The total energy is F=E-TS. E is the sum of the following terms:
     one-electron contribution =   -4790.24999260 Ry
     hartree contribution      =    2218.76068907 Ry
     xc contribution           =    -642.15399840 Ry
     ewald contribution        =   -3681.36577404 Ry
     one-center paw contrib.   =   -5574.45812263 Ry
      -> PAW hartree energy AE =    5757.28389550 Ry
      -> PAW hartree energy PS =   -5059.58039900 Ry
      -> PAW xc energy AE      =   -6898.28162838 Ry
      -> PAW xc energy PS      =     626.12000926 Ry
      -> total E_H with PAW    =    2916.46418557 Ry
      -> total E_XC with PAW   =   -6914.31561752 Ry

     convergence has been achieved in  17 iterations

     Forces acting on atoms (cartesian axes, Ry/au):

     atom    1 type  1   force =     0.00000000   -0.00000000    0.00000000
     atom    2 type  1   force =     0.00000000    0.00000000    0.00000000
     atom    3 type  1   force =     0.00000000    0.00000000    0.00000000
     atom    4 type  1   force =     0.00000000    0.00000000    0.00000000
     atom    5 type  1   force =     0.00824907    0.01428781    0.00000000
     atom    6 type  1   force =    -0.01649814   -0.00000000   -0.00000000
     atom    7 type  1   force =     0.00824907   -0.01428781   -0.00000000
     atom    8 type  1   force =    -0.00824907   -0.01428781   -0.00000000
     atom    9 type  1   force =     0.01649814    0.00000000    0.00000000
     atom   10 type  1   force =    -0.00824907    0.01428781    0.00000000
     atom   11 type  2   force =    -0.00691977   -0.01198540    0.00000000
     atom   12 type  2   force =     0.01383955    0.00000000   -0.00000000
     atom   13 type  2   force =    -0.00691977    0.01198540    0.00000000
     atom   14 type  2   force =     0.00691977    0.01198540   -0.00000000
     atom   15 type  2   force =    -0.01383955   -0.00000000   -0.00000000
     atom   16 type  2   force =     0.00691977   -0.01198540   -0.00000000
     The non-local contrib.  to forces
     atom    1 type  1   force =     0.00000000    0.00000000    0.00000000
     atom    2 type  1   force =     0.00000000    0.00000000    0.00000000
     atom    3 type  1   force =     0.00000000    0.00000000    0.00000000
     atom    4 type  1   force =    -0.00000000   -0.00000000    0.00000000
     atom    5 type  1   force =     0.02881375    0.04990689   -0.00000000
     atom    6 type  1   force =    -0.05762751   -0.00000001    0.00000000
     atom    7 type  1   force =     0.02881375   -0.04990689   -0.00000000
     atom    8 type  1   force =    -0.02881375   -0.04990689    0.00000000
     atom    9 type  1   force =     0.05762751    0.00000001    0.00000000
     atom   10 type  1   force =    -0.02881375    0.04990689   -0.00000000
     atom   11 type  2   force =     0.05951654    0.10308569   -0.00000000
     atom   12 type  2   force =    -0.11903308   -0.00000002    0.00000000
     atom   13 type  2   force =     0.05951654   -0.10308567    0.00000000
     atom   14 type  2   force =    -0.05951654   -0.10308569    0.00000000
     atom   15 type  2   force =     0.11903308    0.00000002    0.00000000
     atom   16 type  2   force =    -0.05951654    0.10308567    0.00000000
     The ionic contribution  to forces
     atom    1 type  1   force =    -0.00028734    0.00016589    0.00000000
     atom    2 type  1   force =     0.00028733   -0.00016589   -0.00000000
     atom    3 type  1   force =     0.00028733   -0.00016589    0.00000000
     atom    4 type  1   force =    -0.00028734    0.00016589   -0.00000000
     atom    5 type  1   force =     6.00079728   10.39368741    0.00000000
     atom    6 type  1   force =   -12.00189075    0.00016923    0.00000000
     atom    7 type  1   force =     6.00109336  -10.39385685    0.00000000
     atom    8 type  1   force =    -6.00079728  -10.39368742   -0.00000000
     atom    9 type  1   force =    12.00189075   -0.00016923   -0.00000000
     atom   10 type  1   force =    -6.00109335   10.39385685   -0.00000000
     atom   11 type  2   force =    -1.51105783   -2.61722936    0.00000000
     atom   12 type  2   force =     3.02225973   -0.00008172    0.00000000
     atom   13 type  2   force =    -1.51120099    2.61731264    0.00000000
     atom   14 type  2   force =     1.51105784    2.61722935   -0.00000000
     atom   15 type  2   force =    -3.02225973    0.00008172   -0.00000000
     atom   16 type  2   force =     1.51120099   -2.61731264   -0.00000000
     The local contribution  to forces
     atom    1 type  1   force =    -0.00092768   -0.00120101    0.00032857
     atom    2 type  1   force =     0.00144115    0.00027953    0.00027826
     atom    3 type  1   force =    -0.00022896    0.00082188   -0.00028157
     atom    4 type  1   force =     0.00087290   -0.00223599   -0.00029296
     atom    5 type  1   force =    -6.02203252  -10.42892936    0.00036448
     atom    6 type  1   force =    12.04202548    0.00145449   -0.00024721
     atom    7 type  1   force =    -6.01962472   10.42883032   -0.00054275
     atom    8 type  1   force =     6.02086089   10.42754454   -0.00010094
     atom    9 type  1   force =   -12.04346598    0.00124949    0.00030913
     atom   10 type  1   force =     6.02274085  -10.42705045    0.00014248
     atom   11 type  2   force =     1.44527569    2.50381299    0.00064102
     atom   12 type  2   force =    -2.89112784   -0.00011522   -0.00035200
     atom   13 type  2   force =     1.44570067   -2.50383665   -0.00044974
     atom   14 type  2   force =    -1.44589318   -2.50338369   -0.00066568
     atom   15 type  2   force =     2.89180953    0.00009823    0.00037207
     atom   16 type  2   force =    -1.44524687    2.50333529    0.00047143
     The core correction contribution to forces
     atom    1 type  1   force =    -0.00000000   -0.00000000    0.00000000
     atom    2 type  1   force =     0.00000000   -0.00000000    0.00000000
     atom    3 type  1   force =     0.00000000   -0.00000000   -0.00000000
     atom    4 type  1   force =    -0.00000000   -0.00000001   -0.00000000
     atom    5 type  1   force =     0.00000055    0.00000095    0.00000000
     atom    6 type  1   force =    -0.00000110    0.00000001   -0.00000000
     atom    7 type  1   force =     0.00000056   -0.00000095   -0.00000000
     atom    8 type  1   force =    -0.00000055   -0.00000095    0.00000000
     atom    9 type  1   force =     0.00000109    0.00000000    0.00000000
     atom   10 type  1   force =    -0.00000054    0.00000096   -0.00000000
     atom   11 type  2   force =    -0.00096853   -0.00167576    0.00000339
     atom   12 type  2   force =     0.00193991    0.00000035   -0.00000054
     atom   13 type  2   force =    -0.00096932    0.00167947   -0.00000211
     atom   14 type  2   force =     0.00097241    0.00168086   -0.00000232
     atom   15 type  2   force =    -0.00193465    0.00000247    0.00000130
     atom   16 type  2   force =     0.00097342   -0.00167586    0.00000135
     The Hubbard contrib.    to forces
     atom    1 type  1   force =     0.00000000    0.00000000    0.00000000
     atom    2 type  1   force =     0.00000000    0.00000000    0.00000000
     atom    3 type  1   force =     0.00000000    0.00000000    0.00000000
     atom    4 type  1   force =     0.00000000    0.00000000    0.00000000
     atom    5 type  1   force =     0.00000000    0.00000000    0.00000000
     atom    6 type  1   force =     0.00000000    0.00000000    0.00000000
     atom    7 type  1   force =     0.00000000    0.00000000    0.00000000
     atom    8 type  1   force =     0.00000000    0.00000000    0.00000000
     atom    9 type  1   force =     0.00000000    0.00000000    0.00000000
     atom   10 type  1   force =     0.00000000    0.00000000    0.00000000
     atom   11 type  2   force =     0.00000000    0.00000000    0.00000000
     atom   12 type  2   force =     0.00000000    0.00000000    0.00000000
     atom   13 type  2   force =     0.00000000    0.00000000    0.00000000
     atom   14 type  2   force =     0.00000000    0.00000000    0.00000000
     atom   15 type  2   force =     0.00000000    0.00000000    0.00000000
     atom   16 type  2   force =     0.00000000    0.00000000    0.00000000
     The SCF correction term to forces
     atom    1 type  1   force =     0.00130241    0.00123057   -0.00035972
     atom    2 type  1   force =    -0.00159058   -0.00008039   -0.00029982
     atom    3 type  1   force =     0.00002623   -0.00061535    0.00028771
     atom    4 type  1   force =    -0.00044248    0.00226328    0.00030562
     atom    5 type  1   force =     0.00070349   -0.00040165   -0.00039144
     atom    6 type  1   force =     0.00095979   -0.00173194    0.00026456
     atom    7 type  1   force =    -0.00217567    0.00056148    0.00058445
     atom    8 type  1   force =     0.00045613    0.00179376    0.00004093
     atom    9 type  1   force =     0.00051277   -0.00116898   -0.00035834
     atom   10 type  1   force =    -0.00124067   -0.00263228   -0.00011580
     atom   11 type  2   force =     0.00036356    0.00006223   -0.00056747
     atom   12 type  2   force =    -0.00018349    0.00027160    0.00031232
     atom   13 type  2   force =     0.00003146   -0.00004092    0.00044823
     atom   14 type  2   force =     0.00042404   -0.00049016    0.00062560
     atom   15 type  2   force =    -0.00048390   -0.00017485   -0.00035286
     atom   16 type  2   force =    -0.00045039    0.00063158   -0.00045702

     Total force =     0.052748     Total SCF correction =     0.006211
     SCF correction compared to forces is large: reduce conv_thr to get better values

     Computing stress (Cartesian axis) and pressure

          total   stress  (Ry/bohr**3)                   (kbar)     P=      -26.77
  -0.00034453  -0.00000000  -0.00000000          -50.68       -0.00       -0.00
  -0.00000000  -0.00034453   0.00000000           -0.00      -50.68        0.00
   0.00000000   0.00000000   0.00014317            0.00        0.00       21.06

     kinetic stress (kbar)  12819.63      0.00      0.00
                                0.00  12819.63      0.00
                               -0.00      0.00  12960.30

     local   stress (kbar)   4277.60     -0.00      0.04
                               -0.00   4277.23      0.06
                                0.04      0.06   9594.18

     nonloc. stress (kbar)  18171.62      0.00      0.00
                                0.00  18171.62      0.00
                                0.00      0.00  18192.13

     hartree stress (kbar)  41901.56     -0.01     -0.02
                               -0.01  41901.81     -0.04
                               -0.02     -0.04  39907.93

     exc-cor stress (kbar)  -5078.82     -0.00     -0.00
                               -0.00  -5078.82     -0.00
                               -0.00     -0.00  -5081.99

     corecor stress (kbar)  -4857.87      0.00     -0.00
                                0.00  -4857.87     -0.00
                               -0.00     -0.00  -4858.48

     ewald   stress (kbar) -67284.35      0.02      0.00
                                0.02 -67284.33      0.00
                                0.00      0.00 -70693.00

     hubbard stress (kbar)      0.00      0.00      0.00
                                0.00      0.00      0.00
                                0.00      0.00      0.00

     DFT-D   stress (kbar)      0.00      0.00      0.00
                                0.00      0.00      0.00
                                0.00      0.00      0.00

     XDM     stress (kbar)      0.00      0.00      0.00
                                0.00      0.00      0.00
                                0.00      0.00      0.00

     dft-nl  stress (kbar)      0.00      0.00      0.00
                                0.00      0.00      0.00
                                0.00      0.00      0.00

     TS-vdW  stress (kbar)      0.00      0.00      0.00
                                0.00      0.00      0.00
                                0.00      0.00      0.00

[...]

                                0.00      0.00      0.00

     Writing all to output data dir new_calculations/myprefix.save/

     General routines

     Parallel routines

     PAW routines

   This run was terminated on:  10:46:58  20May2023

   JOB DONE.