     Program PWSCF v.7.0 starts on 20May2023 at 17: 8:29

     Reading input from espresso_17520.pwi
Warning: card &CELL ignored
Warning: card / ignored

     Current dimensions of program PWSCF are:
     Max number of different atomic species (ntypx) = 10
     Max number of k-points (npk) =  40000
     Max angular momentum in pseudopotentials (lmaxx) =  4
     file Mg.pbe-n-kjpaw_psl.0.3.0.UPF: wavefunction(s)  3S renormalized
     file Cd.pbe-dn-rrkjus_psl.0.3.1.UPF: wavefunction(s)  4D renormalized

     gamma-point specific algorithms are used
     Message from routine setup:
     using ibrav=0 with symmetry is DISCOURAGED, use correct ibrav instead

     Subspace diagonalization in iterative solution of the eigenvalue problem:
     a serial algorithm will be used

     Using Slab Decomposition

     bravais-lattice index     =            0
     lattice parameter (alat)  =      11.2261  a.u.
     unit-cell volume          =     593.1975 (a.u.)^3
     number of atoms/cell      =            4
     number of atomic types    =            2
     number of electrons       =        28.00
     number of Kohn-Sham states=           18
     kinetic-energy cutoff     =      30.0000  Ry
     charge density cutoff     =     240.0000  Ry
     scf convergence threshold =      1.0E-06
     mixing beta               =       0.7000
     number of iterations used =            8  plain     mixing
     Exchange-correlation= PBE
                           (   1   4   3   4   0   0   0)

     celldm(1)=  11.226075  celldm(2)=   0.000000  celldm(3)=   0.000000
     celldm(4)=   0.000000  celldm(5)=   0.000000  celldm(6)=   0.000000

     crystal axes: (cart. coord. in units of alat)
               a(1) = (   1.000000   0.000000   0.000000 )
               a(2) = (   0.853509   0.521078   0.000000 )
               a(3) = (   0.373834   0.105096   0.804661 )

     reciprocal axes: (cart. coord. in units 2 pi/alat)
               b(1) = (  1.000000 -1.637969 -0.250652 )
               b(2) = (  0.000000  1.919099 -0.250652 )
               b(3) = (  0.000000  0.000000  1.242759 )

     PseudoPot. # 1 for Mg read from file:
     /home/pragov/projects/rrg-bengioy-ad/pragov/crystal_structure_design/SSSP/Mg.pbe-n-kjpaw_psl.0.3.0.UPF
     MD5 check sum: 24ecedc7f3e3cbe212e682f4413594e4
     Pseudo is Projector augmented-wave + core cor, Zval =  2.0
     Generated using "atomic" code by A. Dal Corso  v.5.0.99 svn rev. 10869
     Shape of augmentation charge: PSQ
     Using radial grid of 1129 points,  4 beta functions with:
                l(1) =   0
                l(2) =   0
                l(3) =   1
                l(4) =   1
     Q(r) pseudized with 0 coefficients

     PseudoPot. # 2 for Cd read from file:
     /home/pragov/projects/rrg-bengioy-ad/pragov/crystal_structure_design/SSSP/Cd.pbe-dn-rrkjus_psl.0.3.1.UPF
     MD5 check sum: 558e9f355611b531a870a69ef6ace9e2
     Pseudo is Ultrasoft + core correction, Zval = 12.0
     Generated using "atomic" code by A. Dal Corso  v.5.0.99 svn rev. 10869
     Using radial grid of 1239 points,  6 beta functions with:
                l(1) =   0
                l(2) =   0
                l(3) =   1
                l(4) =   1
                l(5) =   2
                l(6) =   2
     Q(r) pseudized with 0 coefficients

     atomic species   valence    mass     pseudopotential
        Mg             2.00    24.30500     Mg( 1.00)
        Cd            12.00   112.41400     Cd( 1.00)

      2 Sym. Ops., with inversion, found

                                    s                        frac. trans.

      isym =  1     identity

 cryst.   s( 1) = (     1          0          0      )
                  (     0          1          0      )
                  (     0          0          1      )

 cart.    s( 1) = (  1.0000000  0.0000000 -0.0000000 )
                  (  0.0000000  1.0000000  0.0000000 )
                  (  0.0000000  0.0000000  1.0000000 )

      isym =  2     inversion

 cryst.   s( 2) = (    -1          0          0      )
                  (     0         -1          0      )
                  (     0          0         -1      )

 cart.    s( 2) = ( -1.0000000 -0.0000000  0.0000000 )
                  (  0.0000000 -1.0000000 -0.0000000 )
                  (  0.0000000  0.0000000 -1.0000000 )

   Cartesian axes

     site n.     atom                  positions (alat units)
         1           Mg  tau(   1) = (   1.9201363   0.5398088   0.6381291  )
         2           Mg  tau(   2) = (   0.3072072   0.0863653   0.1665318  )
         3           Cd  tau(   3) = (   1.4233723   0.4001533   0.5724615  )
         4           Cd  tau(   4) = (   0.8039713   0.2260208   0.2321994  )

   Crystallographic axes

     site n.     atom                  positions (cryst. coord.)
         1           Mg  tau(   1) = (  0.8759980  0.8759980  0.7930410  )
         2           Mg  tau(   2) = (  0.1240020  0.1240020  0.2069590  )
         3           Cd  tau(   3) = (  0.6244450  0.6244450  0.7114320  )
         4           Cd  tau(   4) = (  0.3755550  0.3755550  0.2885680  )

     number of k points=     1  Methfessel-Paxton smearing, width (Ry)=  0.0010
                       cart. coord. in units 2pi/alat
        k(    1) = (   0.0000000   0.0000000   0.0000000), wk =   2.0000000

                       cryst. coord.
        k(    1) = (   0.0000000   0.0000000   0.0000000), wk =   2.0000000

     Initial potential from superposition of free atoms

     starting charge      27.9884, renormalised to      28.0000
     Starting wfcs are   26 randomized atomic wfcs
     Checking if some PAW data can be deallocated...

     Self-consistent Calculation

     iteration #  1     ecut=    30.00 Ry     beta= 0.70
     Davidson diagonalization with overlap

     ethr =  1.00E-02,  avg # of iterations =  2.0

     Threshold (ethr) on eigenvalues was too large:
     Diagonalizing with lowered threshold

     Davidson diagonalization with overlap

[...]

     total energy              =    -311.66030522 Ry
     estimated scf accuracy    <       0.23444842 Ry

[...]

     total energy              =    -311.75466095 Ry
     estimated scf accuracy    <       0.00000758 Ry

     iteration # 10     ecut=    30.00 Ry     beta= 0.70
     Davidson diagonalization with overlap

     ethr =  2.71E-08,  avg # of iterations =  2.0

     End of self-consistent calculation

          k = 0.0000 0.0000 0.0000 (   822 PWs)   bands (ev):

    -1.3681  -1.3539  -1.2907  -1.1165  -0.8262  -0.7959  -0.7911  -0.7671
    -0.6891  -0.5366  -0.5212   5.3264   5.8120   6.1291   6.3894   7.5208
     7.6725  15.2270

     occupation numbers
     1.0000   1.0000   1.0000   1.0000   1.0000   1.0000   1.0000   1.0000
     1.0000   1.0000   1.0000   1.0000   1.0000   1.0000  -0.0000  -0.0000
    -0.0000  -0.0000

     the Fermi energy is     6.2705 ev

!    total energy              =    -311.75466201 Ry
     estimated scf accuracy    <       0.00000086 Ry
     smearing contrib. (-TS)   =       0.00000000 Ry
     internal energy E=F+TS    =    -311.75466201 Ry

     The total energy is F=E-TS. E is the sum of the following terms:
     one-electron contribution =    -105.99968131 Ry
     hartree contribution      =      78.11874596 Ry
     xc contribution           =     -88.94109825 Ry
     ewald contribution        =    -132.37452913 Ry
     one-center paw contrib.   =     -62.55809928 Ry
      -> PAW hartree energy AE =       1.29838065 Ry
      -> PAW hartree energy PS =      -1.29513069 Ry
      -> PAW xc energy AE      =     -65.04817414 Ry
      -> PAW xc energy PS      =       2.48682491 Ry
      -> total E_H with PAW    =      78.12199592 Ry
      -> total E_XC with PAW   =    -151.50244749 Ry

     convergence has been achieved in  10 iterations

     Forces acting on atoms (cartesian axes, Ry/au):

     atom    1 type  1   force =     0.01364346    0.00383466   -0.01612952
     atom    2 type  1   force =    -0.01364346   -0.00383466    0.01612952
     atom    3 type  2   force =    -0.00500989   -0.00132009    0.00334351
     atom    4 type  2   force =     0.00500989    0.00132009   -0.00334351
     The non-local contrib.  to forces
     atom    1 type  1   force =     0.01517023    0.00426738   -0.05941202
     atom    2 type  1   force =    -0.01517023   -0.00426738    0.05941202
     atom    3 type  2   force =     0.09499384    0.02671868    0.09472045
     atom    4 type  2   force =    -0.09499384   -0.02671868   -0.09472045
     The ionic contribution  to forces
     atom    1 type  1   force =    -0.27769814   -0.07806940    0.11357802
     atom    2 type  1   force =     0.27769814    0.07806940   -0.11357802
     atom    3 type  2   force =    -1.23214161   -0.34639253    0.63383385
     atom    4 type  2   force =     1.23214161    0.34639253   -0.63383385
     The local contribution  to forces
     atom    1 type  1   force =     0.27760839    0.07803963   -0.07579154
     atom    2 type  1   force =    -0.27751257   -0.07801473    0.07604902
     atom    3 type  2   force =     1.13547172    0.31918070   -0.72855472
     atom    4 type  2   force =    -1.13601579   -0.31941588    0.72762888
     The core correction contribution to forces
     atom    1 type  1   force =    -0.00147466   -0.00041523    0.00574133
     atom    2 type  1   force =     0.00148039    0.00041623   -0.00572632
     atom    3 type  2   force =    -0.00191022   -0.00053690    0.00327816
     atom    4 type  2   force =     0.00190640    0.00052996   -0.00330006
     The Hubbard contrib.    to forces
     atom    1 type  1   force =     0.00000000    0.00000000    0.00000000
     atom    2 type  1   force =     0.00000000    0.00000000    0.00000000
     atom    3 type  2   force =     0.00000000    0.00000000    0.00000000
     atom    4 type  2   force =     0.00000000    0.00000000    0.00000000
     The SCF correction term to forces
     atom    1 type  1   force =     0.00007188    0.00002016   -0.00015678
     atom    2 type  1   force =    -0.00010496   -0.00003030    0.00006133
     atom    3 type  2   force =    -0.00145336   -0.00024682    0.00018972
     atom    4 type  2   force =     0.00194177    0.00057537    0.00100592

     Total force =     0.031592     Total SCF correction =     0.002714

     Computing stress (Cartesian axis) and pressure

          total   stress  (Ry/bohr**3)                   (kbar)     P=     -191.83
  -0.00022468   0.00110932  -0.00201410          -33.05      163.19     -296.28
   0.00110932  -0.00385855  -0.00056618          163.19     -567.61      -83.29
  -0.00201410  -0.00056618   0.00017111         -296.28      -83.29       25.17

     kinetic stress (kbar)  13378.22    143.72   -379.36
                              143.72  12907.31   -106.66
                             -379.36   -106.66  13485.36

     local   stress (kbar)   2314.52   3082.46   8725.84
                             3082.46  -7783.44   2453.10
                             8725.84   2453.10  -1940.26

     nonloc. stress (kbar)  -3085.24     16.03    -54.67
                               16.03  -3137.61    -15.35
                              -54.67    -15.35  -2997.79

     hartree stress (kbar)   4195.26  -1478.80  -4090.19
                            -1478.80   9039.71  -1149.88
                            -4090.19  -1149.88   6137.44

     exc-cor stress (kbar)   9695.06      0.36     -2.09
                                0.36   9693.88     -0.59
                               -2.09     -0.59   9698.48

     corecor stress (kbar) -13114.83     -0.62      9.94
                               -0.62 -13112.80      2.79
                                9.94      2.79 -13121.65

     ewald   stress (kbar) -13416.04  -1599.96  -4505.76
                            -1599.96  -8174.68  -1266.71
                            -4505.76  -1266.71 -11236.40

     hubbard stress (kbar)      0.00      0.00      0.00
                                0.00      0.00      0.00
                                0.00      0.00      0.00

     DFT-D   stress (kbar)      0.00      0.00      0.00
                                0.00      0.00      0.00
                                0.00      0.00      0.00

     XDM     stress (kbar)      0.00      0.00      0.00
                                0.00      0.00      0.00
                                0.00      0.00      0.00

     dft-nl  stress (kbar)      0.00      0.00      0.00
                                0.00      0.00      0.00
                                0.00      0.00      0.00

     TS-vdW  stress (kbar)      0.00      0.00      0.00
                                0.00      0.00      0.00
                                0.00      0.00      0.00

[...]

                                0.00      0.00      0.00

     Writing all to output data dir new_calculations/myprefix.save/

     General routines

     Parallel routines

     PAW routines

   This run was terminated on:  17: 8:35  20May2023

   JOB DONE.