     Program PWSCF v.7.0 starts on 20May2023 at  3:41:49

     Reading input from espresso_179.pwi
Warning: card &CELL ignored
Warning: card / ignored

     Current dimensions of program PWSCF are:
     Max number of different atomic species (ntypx) = 10
     Max number of k-points (npk) =  40000
     Max angular momentum in pseudopotentials (lmaxx) =  4

     gamma-point specific algorithms are used
     Message from routine setup:
     using ibrav=0 with symmetry is DISCOURAGED, use correct ibrav instead

     Subspace diagonalization in iterative solution of the eigenvalue problem:
     a serial algorithm will be used

     Using Slab Decomposition

     bravais-lattice index     =            0
     lattice parameter (alat)  =      10.9896  a.u.
     unit-cell volume          =    1021.7025 (a.u.)^3
     number of atoms/cell      =           14
     number of atomic types    =            2
     number of electrons       =       112.00
     number of Kohn-Sham states=           67
     kinetic-energy cutoff     =      30.0000  Ry
     charge density cutoff     =     240.0000  Ry
     scf convergence threshold =      1.0E-06
     mixing beta               =       0.7000
     number of iterations used =            8  plain     mixing
     Exchange-correlation= PBE
                           (   1   4   3   4   0   0   0)

     celldm(1)=  10.989606  celldm(2)=   0.000000  celldm(3)=   0.000000
     celldm(4)=   0.000000  celldm(5)=   0.000000  celldm(6)=   0.000000

     crystal axes: (cart. coord. in units of alat)
               a(1) = (   1.000000   0.000000   0.000000 )
               a(2) = (  -0.333333   0.942809   0.000000 )
               a(3) = (  -0.333333  -0.471405   0.816497 )

     reciprocal axes: (cart. coord. in units 2 pi/alat)
               b(1) = (  1.000000  0.353553  0.612372 )
               b(2) = (  0.000000  1.060660  0.612372 )
               b(3) = (  0.000000  0.000000  1.224745 )

     PseudoPot. # 1 for Hf read from file:
     /home/pragov/projects/rrg-bengioy-ad/pragov/crystal_structure_design/SSSP/Hf-sp.oncvpsp.upf
     MD5 check sum: 417ed15784afe83d2e06dacf143de3f8
     Pseudo is Norm-conserving + core correction, Zval = 12.0
     Generated using ONCVPSP code by D. R. Hamann
     Using radial grid of 1656 points,  8 beta functions with:
                l(1) =   0
                l(2) =   0
                l(3) =   1
                l(4) =   1
                l(5) =   2
                l(6) =   2
                l(7) =   3
                l(8) =   3

     PseudoPot. # 2 for N  read from file:
     /home/pragov/projects/rrg-bengioy-ad/pragov/crystal_structure_design/SSSP/N.pbe-n-radius_5.UPF
     MD5 check sum: 16739722b17309cd8fe442a2ace49922
     Pseudo is Ultrasoft + core correction, Zval =  5.0
     Generated using "atomic" code by A. Dal Corso  v.5.1
     Using radial grid of 1085 points,  4 beta functions with:
                l(1) =   0
                l(2) =   0
                l(3) =   1
                l(4) =   1
     Q(r) pseudized with 0 coefficients

     atomic species   valence    mass     pseudopotential
        Hf            12.00   178.49000     Hf( 1.00)
        N              5.00    14.00700     N ( 1.00)

      2 Sym. Ops. (no inversion) found ( 1 have fractional translation)

                                    s                        frac. trans.

      isym =  1     identity

 cryst.   s( 1) = (     1          0          0      )
                  (     0          1          0      )
                  (     0          0          1      )

 cart.    s( 1) = (  1.0000000 -0.0000000 -0.0000000 )
                  (  0.0000000  1.0000000  0.0000000 )
                  (  0.0000000  0.0000000  1.0000000 )

      isym =  2     inv. 180 deg rotation - cart. axis [0,0,1]

 cryst.   s( 2) = (     1          0          0      )    f =( -0.5000000 )
                  (     0          1          0      )       (  0.0000000 )
                  (    -1         -1         -1      )       (  0.0000000 )

 cart.    s( 2) = (  1.0000000 -0.0000000 -0.0000000 )    f =( -0.5000000 )
                  (  0.0000000  1.0000000 -0.0000000 )       (  0.0000000 )
                  (  0.0000000  0.0000000 -1.0000000 )       (  0.0000000 )

   Cartesian axes

     site n.     atom                  positions (alat units)
         1           Hf  tau(   1) = (   0.7500000   0.1767767   0.1020621  )
         2           Hf  tau(   2) = (  -0.2500000   0.7071068   0.2041241  )
         3           Hf  tau(   3) = (  -0.0833333   0.2357023   0.6123724  )
         4           Hf  tau(   4) = (  -0.0833333  -0.2946278   0.7144345  )
         5           Hf  tau(   5) = (   0.4166667   0.0589256   0.5103104  )
         6           Hf  tau(   6) = (   0.2500000   0.5303301   0.3061862  )
         7           N   tau(   7) = (  -0.0445553   0.6440960   0.5173861  )
         8           N   tau(   8) = (  -0.0330007   0.4714045   0.0000000  )
         9           N   tau(   9) = (   0.1221113   0.1726915   0.2991105  )
        10           N   tau(  10) = (  -0.2112220  -0.1096807   0.4082483  )
        11           N   tau(  11) = (   0.2887780   0.4083938   0.7073587  )
        12           N   tau(  12) = (  -0.3778887   0.3617238   0.4082483  )
        13           N   tau(  13) = (   0.4554447  -0.0630108   0.1091378  )
        14           N   tau(  14) = (   0.4669993   0.4714045   0.0000000  )

   Crystallographic axes

     site n.     atom                  positions (cryst. coord.)
         1           Hf  tau(   1) = (  0.8750000  0.2500000  0.1250000  )
         2           Hf  tau(   2) = (  0.1250000  0.8750000  0.2500000  )
         3           Hf  tau(   3) = (  0.3750000  0.6250000  0.7500000  )
         4           Hf  tau(   4) = (  0.2500000  0.1250000  0.8750000  )
         5           Hf  tau(   5) = (  0.7500000  0.3750000  0.6250000  )
         6           Hf  tau(   6) = (  0.6250000  0.7500000  0.3750000  )
         7           N   tau(   7) = (  0.5000000  1.0000000  0.6336660  )
         8           N   tau(   8) = (  0.1336660  0.5000000  0.0000000  )
         9           N   tau(   9) = (  0.3663340  0.3663340  0.3663340  )
        10           N   tau(  10) = (  0.0000000  0.1336660  0.5000000  )
        11           N   tau(  11) = (  0.8663340  0.8663340  0.8663340  )
        12           N   tau(  12) = ( -0.0000000  0.6336660  0.5000000  )
        13           N   tau(  13) = (  0.5000000  0.0000000  0.1336660  )
        14           N   tau(  14) = (  0.6336660  0.5000000  0.0000000  )

     number of k points=     1  Methfessel-Paxton smearing, width (Ry)=  0.0010
                       cart. coord. in units 2pi/alat
        k(    1) = (   0.0000000   0.0000000   0.0000000), wk =   2.0000000

                       cryst. coord.
        k(    1) = (   0.0000000   0.0000000   0.0000000), wk =   2.0000000

     Check: negative core charge=   -0.000002

     Initial potential from superposition of free atoms

     starting charge     111.9888, renormalised to     112.0000
     Starting wfcs are   92 randomized atomic wfcs

     Self-consistent Calculation

     iteration #  1     ecut=    30.00 Ry     beta= 0.70
     Davidson diagonalization with overlap

     ethr =  1.00E-02,  avg # of iterations =  3.0

     total energy              =    -840.81829592 Ry
     estimated scf accuracy    <       6.21181007 Ry

[...]

     total energy              =    -843.82596726 Ry
     estimated scf accuracy    <       0.00000834 Ry

     iteration # 13     ecut=    30.00 Ry     beta= 0.70
     Davidson diagonalization with overlap

     ethr =  7.45E-09,  avg # of iterations =  3.0

     End of self-consistent calculation

          k = 0.0000 0.0000 0.0000 (  1450 PWs)   bands (ev):

   -44.9524 -44.6607 -44.6014 -44.3899 -44.3597 -44.3368 -15.4835 -15.2823
   -15.0468 -14.8641 -14.7489 -14.6147 -14.4452 -14.3481 -14.1351 -13.9937
   -13.9503 -13.8739 -13.8187 -13.7696 -13.6573 -13.5223 -13.4374 -13.2792
    -0.1395   0.5759   0.7694   1.6966   2.1449   2.5651   2.6171   2.7340
    10.1813  10.2619  10.3135  10.3706  10.4469  11.7413  11.7936  11.8865
    13.2660  13.3041  13.3271  13.8049  13.8615  13.8964  14.1519  14.9761
    15.0052  15.0557  15.3686  15.3862  15.4788  16.8473  16.9237  16.9284
    17.3678  17.3919  18.0392  18.0943  18.1627  19.8970  20.1311  20.2398
    20.5336  21.0159  21.0624

     occupation numbers
     1.0000   1.0000   1.0000   1.0000   1.0000   1.0000   1.0000   1.0000
     1.0000   1.0000   1.0000   1.0000   1.0000   1.0000   1.0000   1.0000
     1.0000   1.0000   1.0000   1.0000   1.0000   1.0000   1.0000   1.0000
     1.0000   1.0000   1.0000   1.0000   1.0000   1.0000   1.0000   1.0000
     1.0000   1.0000   1.0000   1.0000   1.0000   1.0000   1.0000   1.0000
     1.0000   1.0000   1.0000   1.0000   1.0000   1.0000   1.0000   1.0000
     1.0000   1.0000   1.0000   1.0000   1.0000   1.0000   1.0000   1.0000
    -0.0000  -0.0000  -0.0000  -0.0000  -0.0000  -0.0000  -0.0000  -0.0000
    -0.0000  -0.0000  -0.0000

     the Fermi energy is    17.0555 ev

!    total energy              =    -843.82596819 Ry
     estimated scf accuracy    <       0.00000045 Ry
     smearing contrib. (-TS)   =       0.00000000 Ry
     internal energy E=F+TS    =    -843.82596819 Ry

     The total energy is F=E-TS. E is the sum of the following terms:
     one-electron contribution =     -36.84705144 Ry
     hartree contribution      =      87.64396704 Ry
     xc contribution           =    -217.09574335 Ry
     ewald contribution        =    -677.52714045 Ry

     convergence has been achieved in  13 iterations

     Forces acting on atoms (cartesian axes, Ry/au):

     atom    1 type  1   force =     0.01707761    0.00213238   -0.01737883
     atom    2 type  1   force =     0.01811344   -0.04229272    0.08544058
     atom    3 type  1   force =     0.01811344   -0.04229272   -0.08544058
     atom    4 type  1   force =     0.01707761    0.00213238    0.01737883
     atom    5 type  1   force =     0.00338162    0.02280580   -0.01344558
     atom    6 type  1   force =     0.00338162    0.02280580    0.01344558
     atom    7 type  2   force =    -0.02836746    0.10237422    0.00665593
     atom    8 type  2   force =     0.03956469   -0.06490336   -0.08891711
     atom    9 type  2   force =    -0.02836746    0.10237422   -0.00665593
     atom   10 type  2   force =    -0.03018648   -0.00483589    0.11456978
     atom   11 type  2   force =    -0.01958342   -0.01528043   -0.12879197
     atom   12 type  2   force =    -0.03018648   -0.00483589   -0.11456978
     atom   13 type  2   force =    -0.01958342   -0.01528043    0.12879197
     atom   14 type  2   force =     0.03956469   -0.06490336    0.08891711
     The non-local contrib.  to forces
     atom    1 type  1   force =     0.02285188    0.00195070    0.00487264
     atom    2 type  1   force =    -0.00548808   -0.04110713    0.06172113
     atom    3 type  1   force =    -0.00548808   -0.04110713   -0.06172113
     atom    4 type  1   force =     0.02285188    0.00195070   -0.00487264
     atom    5 type  1   force =    -0.01861770    0.00692331   -0.02760056
     atom    6 type  1   force =    -0.01861770    0.00692331    0.02760056
     atom    7 type  2   force =     0.04365002    0.08970891   -0.09435536
     atom    8 type  2   force =    -0.14003654   -0.00119530   -0.05093652
     atom    9 type  2   force =     0.04365002    0.08970891    0.09435536
     atom   10 type  2   force =     0.09316655   -0.10747657   -0.00758950
     atom   11 type  2   force =     0.02409264    0.03330121    0.11073326
     atom   12 type  2   force =     0.09316655   -0.10747657    0.00758950
     atom   13 type  2   force =     0.02409264    0.03330121   -0.11073326
     atom   14 type  2   force =    -0.14003654   -0.00119530    0.05093652
     The ionic contribution  to forces
     atom    1 type  1   force =    -0.00000000   -0.00000000    0.00000000
     atom    2 type  1   force =     0.00000000   -0.00000000   -0.00000000
     atom    3 type  1   force =    -0.00000000    0.00000000   -0.00000000
     atom    4 type  1   force =    -0.00000000    0.00000000   -0.00000000
     atom    5 type  1   force =     0.00000000   -0.00000000    0.00000000
     atom    6 type  1   force =     0.00000000   -0.00000000   -0.00000000
     atom    7 type  2   force =    -0.37378706   -0.52861474    0.91558758
     atom    8 type  2   force =     1.12136119    0.00000000   -0.00000000
     atom    9 type  2   force =    -0.37378707   -0.52861474   -0.91558758
     atom   10 type  2   force =    -0.37378706    1.05722947    0.00000000
     atom   11 type  2   force =    -0.37378706   -0.52861474   -0.91558758
     atom   12 type  2   force =    -0.37378706    1.05722947    0.00000000
     atom   13 type  2   force =    -0.37378706   -0.52861474    0.91558758
     atom   14 type  2   force =     1.12136119   -0.00000000    0.00000000
     The local contribution  to forces
     atom    1 type  1   force =    -0.02188377   -0.01277237    0.00462657
     atom    2 type  1   force =     0.00652499   -0.02367296    0.05946037
     atom    3 type  1   force =     0.02995885    0.02575292    0.02320997
     atom    4 type  1   force =     0.01193982    0.03908728    0.04323010
     atom    5 type  1   force =     0.01882760   -0.00557356    0.04278205
     atom    6 type  1   force =     0.01923456    0.05275477    0.02477133
     atom    7 type  2   force =     0.30160149    0.51125315   -0.90157636
     atom    8 type  2   force =    -0.93795449   -0.00294978   -0.00627305
     atom    9 type  2   force =     0.29882000    0.58921716    0.72838856
     atom   10 type  2   force =     0.33015935   -0.90019184    0.05508514
     atom   11 type  2   force =     0.36048830    0.39605092    0.74352886
     atom   12 type  2   force =     0.16987518   -0.98986585   -0.18578426
     atom   13 type  2   force =     0.29501813    0.58509888   -0.61501981
     atom   14 type  2   force =    -0.95251943   -0.10181396    0.06816888
     The core correction contribution to forces
     atom    1 type  1   force =    -0.00519704   -0.00343155   -0.00005499
     atom    2 type  1   force =     0.00307759    0.00179840    0.01148717
     atom    3 type  1   force =     0.00386754    0.01407156   -0.00024648
     atom    4 type  1   force =    -0.00021391   -0.00253337    0.00553010
     atom    5 type  1   force =     0.00184582   -0.00201813    0.00974740
     atom    6 type  1   force =    -0.00003015    0.00680778   -0.00021115
     atom    7 type  2   force =    -0.00036642    0.00053791   -0.00119810
     atom    8 type  2   force =     0.00160033   -0.00046347    0.00046556
     atom    9 type  2   force =    -0.00049317    0.00171204   -0.00186244
     atom   10 type  2   force =     0.00018328    0.00209296    0.00079869
     atom   11 type  2   force =     0.00104263   -0.00213391   -0.00126584
     atom   12 type  2   force =    -0.00322719   -0.00086014   -0.00254791
     atom   13 type  2   force =    -0.00027325    0.00113843    0.00538207
     atom   14 type  2   force =     0.00161888   -0.00184093    0.00193025
     The Hubbard contrib.    to forces
     atom    1 type  1   force =     0.00000000    0.00000000    0.00000000
     atom    2 type  1   force =     0.00000000    0.00000000    0.00000000
     atom    3 type  1   force =     0.00000000    0.00000000    0.00000000
     atom    4 type  1   force =     0.00000000    0.00000000    0.00000000
     atom    5 type  1   force =     0.00000000    0.00000000    0.00000000
     atom    6 type  1   force =     0.00000000    0.00000000    0.00000000
     atom    7 type  2   force =     0.00000000    0.00000000    0.00000000
     atom    8 type  2   force =     0.00000000    0.00000000    0.00000000
     atom    9 type  2   force =     0.00000000    0.00000000    0.00000000
     atom   10 type  2   force =     0.00000000    0.00000000    0.00000000
     atom   11 type  2   force =     0.00000000    0.00000000    0.00000000
     atom   12 type  2   force =     0.00000000    0.00000000    0.00000000
     atom   13 type  2   force =     0.00000000    0.00000000    0.00000000
     atom   14 type  2   force =     0.00000000    0.00000000    0.00000000
     The SCF correction term to forces
     atom    1 type  1   force =    -0.00007542    0.00032927   -0.00002993
     atom    2 type  1   force =     0.00003305   -0.00009199   -0.00038870
     atom    3 type  1   force =    -0.00015064   -0.00002232    0.00015644
     atom    4 type  1   force =    -0.00000986   -0.00010912    0.00028440
     atom    5 type  1   force =     0.00005615    0.00014746    0.00015598
     atom    6 type  1   force =     0.00017301   -0.00014654   -0.00018470
     atom    7 type  2   force =    -0.00004565    0.00009059   -0.00002142
     atom    8 type  2   force =    -0.00022684   -0.00002630    0.00003754
     atom    9 type  2   force =     0.00013127   -0.00004397   -0.00016941
     atom   10 type  2   force =     0.00003079   -0.00009580   -0.00000659
     atom   11 type  2   force =     0.00021211   -0.00001351    0.00017630
     atom   12 type  2   force =    -0.00004500   -0.00005012   -0.00010916
     atom   13 type  2   force =    -0.00015757    0.00013217   -0.00004767
     atom   14 type  2   force =     0.00006997   -0.00011490    0.00009210

     Total force =     0.366077     Total SCF correction =     0.000915

     Computing stress (Cartesian axis) and pressure

          total   stress  (Ry/bohr**3)                   (kbar)     P=      781.10
   0.00078486   0.00080585  -0.00000000          115.46      118.55       -0.00
   0.00080585   0.00771461  -0.00000000          118.55     1134.86       -0.00
  -0.00000000  -0.00000000   0.00742995           -0.00       -0.00     1092.98

     kinetic stress (kbar)  25959.75     58.07     -0.00
                               58.07  26502.76     -0.00
                               -0.00     -0.00  26486.48

     local   stress (kbar)  -1297.77     74.86    182.75
                               74.86   -734.04    -35.55
                              182.75    -35.55   -725.30

     nonloc. stress (kbar)  10957.91    -10.08     -0.00
                              -10.08  10901.70     -0.00
                               -0.00     -0.00  10865.68

     hartree stress (kbar)   4249.67     -8.60    -18.76
                               -8.60   4184.22      6.95
                              -18.76      6.95   4185.11

     exc-cor stress (kbar)   7074.26     -0.22     -0.30
                               -0.22   7071.89      0.25
                               -0.30      0.25   7071.73

     corecor stress (kbar) -14311.51      4.51     13.81
                                4.51 -14274.81     -0.25
                               13.81     -0.25 -14273.86

     ewald   stress (kbar) -32516.86     -0.00     -0.00
                               -0.00 -32516.86     -0.00
                               -0.00     -0.00 -32516.86

     hubbard stress (kbar)      0.00      0.00      0.00
                                0.00      0.00      0.00
                                0.00      0.00      0.00

     DFT-D   stress (kbar)      0.00      0.00      0.00
                                0.00      0.00      0.00
                                0.00      0.00      0.00

     XDM     stress (kbar)      0.00      0.00      0.00
                                0.00      0.00      0.00
                                0.00      0.00      0.00

     dft-nl  stress (kbar)      0.00      0.00      0.00
                                0.00      0.00      0.00
                                0.00      0.00      0.00

     TS-vdW  stress (kbar)      0.00      0.00      0.00
                                0.00      0.00      0.00
                                0.00      0.00      0.00

[...]

                                0.00      0.00      0.00

     Writing all to output data dir new_calculations/myprefix.save/

     General routines

     Parallel routines

   This run was terminated on:   3:42: 2  20May2023

   JOB DONE.