     Program PWSCF v.7.0 starts on 20May2023 at 18:35:14

     Reading input from espresso_6488.pwi
Warning: card &CELL ignored
Warning: card / ignored

     Current dimensions of program PWSCF are:
     Max number of different atomic species (ntypx) = 10
     Max number of k-points (npk) =  40000
     Max angular momentum in pseudopotentials (lmaxx) =  4
     file K.pbe-spn-kjpaw_psl.1.0.0.UPF: wavefunction(s)  3S renormalized

     gamma-point specific algorithms are used
     Message from routine setup:
     using ibrav=0 with symmetry is DISCOURAGED, use correct ibrav instead

     Subspace diagonalization in iterative solution of the eigenvalue problem:
     a serial algorithm will be used

     Using Slab Decomposition

     bravais-lattice index     =            0
     lattice parameter (alat)  =      14.0403  a.u.
     unit-cell volume          =    1957.1010 (a.u.)^3
     number of atoms/cell      =           10
     number of atomic types    =            4
     number of electrons       =        79.00
     number of Kohn-Sham states=           48
     kinetic-energy cutoff     =      30.0000  Ry
     charge density cutoff     =     240.0000  Ry
     scf convergence threshold =      1.0E-06
     mixing beta               =       0.7000
     number of iterations used =            8  plain     mixing
     Exchange-correlation=  SLA  PW   PBX  PBC
                           (   1   4   3   4   0   0   0)

     celldm(1)=  14.040290  celldm(2)=   0.000000  celldm(3)=   0.000000
     celldm(4)=   0.000000  celldm(5)=   0.000000  celldm(6)=   0.000000

     crystal axes: (cart. coord. in units of alat)
               a(1) = (   1.000000   0.000000   0.000000 )
               a(2) = (   0.500000   0.866025   0.000000 )
               a(3) = (   0.500000   0.288675   0.816497 )

     reciprocal axes: (cart. coord. in units 2 pi/alat)
               b(1) = (  1.000000 -0.577350 -0.408248 )
               b(2) = (  0.000000  1.154701 -0.408248 )
               b(3) = (  0.000000  0.000000  1.224745 )

     PseudoPot. # 1 for K  read from file:
     /home/pragov/projects/rrg-bengioy-ad/pragov/crystal_structure_design/SSSP/K.pbe-spn-kjpaw_psl.1.0.0.UPF
     MD5 check sum: 7d58810084cac21f60fbe77ea2b688fd
     Pseudo is Projector augmented-wave + core cor, Zval =  9.0
     Generated using "atomic" code by A. Dal Corso  v.5.1
     Shape of augmentation charge: PSQ
     Using radial grid of 1165 points,  6 beta functions with:
                l(1) =   0
                l(2) =   0
                l(3) =   1
                l(4) =   1
                l(5) =   2
                l(6) =   2
     Q(r) pseudized with 0 coefficients

     PseudoPot. # 2 for Li read from file:
     /home/pragov/projects/rrg-bengioy-ad/pragov/crystal_structure_design/SSSP/li_pbe_v1.4.uspp.F.UPF
     MD5 check sum: e912e257baa3777c20ea3d68f190483c
     Pseudo is Ultrasoft, Zval =  3.0
     Generated by new atomic code, or converted to UPF format
     Using radial grid of  751 points,  5 beta functions with:
                l(1) =   0
                l(2) =   0
                l(3) =   0
                l(4) =   1
                l(5) =   1
     Q(r) pseudized with 10 coefficients,  rinner =    1.150   1.150   1.150

     PseudoPot. # 3 for Sm read from file:
     /home/pragov/projects/rrg-bengioy-ad/pragov/crystal_structure_design/SSSP/Sm.GGA-PBE-paw-v1.0.UPF
     MD5 check sum: 886f70968969f895acf876f5617e0641
     Pseudo is Projector augmented-wave + core cor, Zval = 16.0
     Generated using ATOMPAW code
     Shape of augmentation charge: BESSEL
     Using radial grid of 1107 points,  8 beta functions with:
                l(1) =   0
                l(2) =   0
                l(3) =   1
                l(4) =   1
                l(5) =   2
                l(6) =   2
                l(7) =   3
                l(8) =   3
     Q(r) pseudized with 0 coefficients

     PseudoPot. # 4 for Cl read from file:
     /home/pragov/projects/rrg-bengioy-ad/pragov/crystal_structure_design/SSSP/cl_pbe_v1.4.uspp.F.UPF
     MD5 check sum: fc6f6913ecf08c9257cb748ef0700058
     Pseudo is Ultrasoft + core correction, Zval =  7.0
     Generated by new atomic code, or converted to UPF format
     Using radial grid of  909 points,  6 beta functions with:
                l(1) =   0
                l(2) =   0
                l(3) =   1
                l(4) =   1
                l(5) =   2
                l(6) =   2
     Q(r) pseudized with  8 coefficients,  rinner =    1.300   1.300   1.300
                                                       1.300   1.300

     atomic species   valence    mass     pseudopotential
        K              9.00    39.09830     K ( 1.00)
        Li             3.00     6.94000     Li( 1.00)
        Sm            16.00   150.36000     Sm( 1.00)
        Cl             7.00    35.45000     Cl( 1.00)

     12 Sym. Ops., with inversion, found

                                    s                        frac. trans.

      isym =  1     identity

 cryst.   s( 1) = (     1          0          0      )
                  (     0          1          0      )
                  (     0          0          1      )

 cart.    s( 1) = (  1.0000000  0.0000000  0.0000000 )
                  (  0.0000000  1.0000000  0.0000000 )
                  (  0.0000000  0.0000000  1.0000000 )

      isym =  2     180 deg rotation - cart. axis [1,0,0]

[...]

      isym =  3     120 deg rotation - cryst. axis [0,0,1]

[...]

      isym =  6     180 deg rotation - cryst. axis [1,1,0]

[...]

      isym =  7     inversion

[...]

      isym =  8     inv. 180 deg rotation - cart. axis [1,0,0]

[...]

      isym =  9     inv. 120 deg rotation - cryst. axis [0,0,1]

 cryst.   s( 9) = (     1         -1          0      )
                  (     1          0          0      )
                  (     1          0         -1      )

 cart.    s( 9) = (  0.5000000  0.8660254 -0.0000000 )
                  ( -0.8660254  0.5000000 -0.0000000 )
                  (  0.0000000  0.0000000 -1.0000000 )

[...]

 cryst.   s(10) = (     0          1          0      )
                  (    -1          1          0      )
                  (     0          1         -1      )

 cart.    s(10) = (  0.5000000 -0.8660254  0.0000000 )
                  (  0.8660254  0.5000000 -0.0000000 )
                  (  0.0000000  0.0000000 -1.0000000 )

[...]

      isym = 12     inv. 180 deg rotation - cryst. axis [1,1,0]

 cryst.   s(12) = (     1         -1          0      )
                  (     0         -1          0      )
                  (     0         -1          1      )

 cart.    s(12) = (  0.5000000 -0.8660254  0.0000000 )
                  ( -0.8660254 -0.5000000  0.0000000 )
                  (  0.0000000  0.0000000  1.0000000 )

   Cartesian axes

     site n.     atom                  positions (alat units)
         1           K   tau(   1) = (   1.5000000   0.8660254   0.6123724  )
         2           K   tau(   2) = (   0.5000000   0.2886751   0.2041241  )
         3           Li  tau(   3) = (   1.0000000   0.5773503   0.4082483  )
         4           Sm  tau(   4) = (   0.0000000   0.0000000   0.0000000  )
         5           Cl  tau(   5) = (   1.0000000   0.2950641   0.2086418  )
         6           Cl  tau(   6) = (   0.7555330   0.4362072   0.6078548  )
         7           Cl  tau(   7) = (   1.0000000   0.8596364   0.6078548  )
         8           Cl  tau(   8) = (   0.7555330   0.7184934   0.2086418  )
         9           Cl  tau(   9) = (   1.2444670   0.4362072   0.6078548  )
        10           Cl  tau(  10) = (   1.2444670   0.7184934   0.2086418  )

   Crystallographic axes

     site n.     atom                  positions (cryst. coord.)
         1           K   tau(   1) = (  0.7500000  0.7500000  0.7500000  )
         2           K   tau(   2) = (  0.2500000  0.2500000  0.2500000  )
         3           Li  tau(   3) = (  0.5000000  0.5000000  0.5000000  )
         4           Sm  tau(   4) = (  0.0000000  0.0000000  0.0000000  )
         5           Cl  tau(   5) = (  0.7444670  0.2555330  0.2555330  )
         6           Cl  tau(   6) = (  0.2555330  0.2555330  0.7444670  )
         7           Cl  tau(   7) = (  0.2555330  0.7444670  0.7444670  )
         8           Cl  tau(   8) = (  0.2555330  0.7444670  0.2555330  )
         9           Cl  tau(   9) = (  0.7444670  0.2555330  0.7444670  )
        10           Cl  tau(  10) = (  0.7444670  0.7444670  0.2555330  )

     number of k points=     1  Methfessel-Paxton smearing, width (Ry)=  0.0010
                       cart. coord. in units 2pi/alat
        k(    1) = (   0.0000000   0.0000000   0.0000000), wk =   2.0000000

                       cryst. coord.
        k(    1) = (   0.0000000   0.0000000   0.0000000), wk =   2.0000000

     Check: negative core charge=   -0.000002

     Initial potential from superposition of free atoms

     starting charge      78.5060, renormalised to      79.0000

     negative rho (up, down):  9.268E-02 0.000E+00
     Starting wfcs are   77 randomized atomic wfcs
     Checking if some PAW data can be deallocated...

     Self-consistent Calculation

     iteration #  1     ecut=    30.00 Ry     beta= 0.70
     Davidson diagonalization with overlap

     ethr =  1.00E-02,  avg # of iterations =  3.0

     Threshold (ethr) on eigenvalues was too large:
     Diagonalizing with lowered threshold

     Davidson diagonalization with overlap

[...]

     negative rho (up, down):  9.534E-02 0.000E+00

     total energy              =   -1045.19141876 Ry
     estimated scf accuracy    <       0.46769699 Ry

[...]

     ethr =  3.18E-06,  avg # of iterations =  1.0
     Minimization algorithm failed to find Fermi energy: reverting to bisection
     Possible cause: smearing is larger than the electronic band-gap.

[...]

     ethr =  4.54E-08,  avg # of iterations =  1.0

[...]

     total energy              =   -1045.51352974 Ry
     estimated scf accuracy    <       0.00000732 Ry

     iteration # 45     ecut=    30.00 Ry     beta= 0.70
     Davidson diagonalization with overlap

     ethr =  8.90E-09,  avg # of iterations =  1.0
     Minimization algorithm failed to find Fermi energy: reverting to bisection
     Possible cause: smearing is larger than the electronic band-gap.

[...]

     End of self-consistent calculation

          k = 0.0000 0.0000 0.0000 (  2761 PWs)   bands (ev):

   -41.8961 -35.7696 -26.6992 -26.6986 -15.6287 -15.5772 -15.5669 -11.1272
   -10.7077 -10.7001 -10.5659 -10.5570 -10.5543 -10.1690 -10.1686 -10.1685
   -10.1585 -10.1581 -10.1581  -0.9076   0.0298   0.0334   0.0354   0.1277
     0.1380   0.1386   0.4636   0.4761   1.2446   1.2471   1.2506   1.4588
     1.4650   1.4689   1.8717   1.8761   1.8773   3.7110   3.7115   3.7156
     3.7494   3.9502   3.9510   4.0650   6.6577   7.2429   7.2510   7.2686

     occupation numbers
     1.0000   1.0000   1.0000   1.0000   1.0000   1.0000   1.0000   1.0000
     1.0000   1.0000   1.0000   1.0000   1.0000   1.0000   1.0000   1.0000
     1.0000   1.0000   1.0000   1.0000   1.0000   1.0000   1.0000   1.0000
     1.0000   1.0000   1.0000   1.0000   1.0000   1.0000   1.0000   1.0000
     1.0000   1.0000   1.0000   1.0000   1.0000   0.9123   0.8917   0.6993
    -0.0034  -0.0000  -0.0000  -0.0000  -0.0000  -0.0000  -0.0000  -0.0000

     the Fermi energy is     3.7189 ev

!    total energy              =   -1045.51353192 Ry
     estimated scf accuracy    <       0.00000072 Ry
     smearing contrib. (-TS)   =      -0.00036920 Ry
     internal energy E=F+TS    =   -1045.51316271 Ry

     The total energy is F=E-TS. E is the sum of the following terms:
     one-electron contribution =    -203.54080135 Ry
     hartree contribution      =     134.01901383 Ry
     xc contribution           =    -101.04052856 Ry
     ewald contribution        =    -314.41828119 Ry
     one-center paw contrib.   =    -560.53256544 Ry
      -> PAW hartree energy AE =     202.88802304 Ry
      -> PAW hartree energy PS =    -199.52501181 Ry
      -> PAW xc energy AE      =    -601.91972771 Ry
      -> PAW xc energy PS      =      38.02415103 Ry
      -> total E_H with PAW    =     137.38202507 Ry
      -> total E_XC with PAW   =    -664.93610524 Ry

     convergence has been achieved in  45 iterations

     negative rho (up, down):  9.122E-02 0.000E+00

     Forces acting on atoms (cartesian axes, Ry/au):

     atom    1 type  1   force =     0.00000000    0.00000000   -0.00009113
     atom    2 type  1   force =     0.00000000   -0.00000000    0.00009113
     atom    3 type  2   force =     0.00000000    0.00000000    0.00000000
     atom    4 type  3   force =    -0.00000000    0.00000000   -0.00000000
     atom    5 type  4   force =     0.00000000   -0.00597331   -0.00407379
     atom    6 type  4   force =    -0.00517304   -0.00298666    0.00407379
     atom    7 type  4   force =     0.00000000    0.00597331    0.00407379
     atom    8 type  4   force =    -0.00517304    0.00298666   -0.00407379
     atom    9 type  4   force =     0.00517304   -0.00298666    0.00407379
     atom   10 type  4   force =     0.00517304    0.00298666   -0.00407379
     The non-local contrib.  to forces
     atom    1 type  1   force =     0.00000000   -0.00000000   -0.00019754
     atom    2 type  1   force =     0.00000000    0.00000000    0.00019754
     atom    3 type  2   force =    -0.00000000    0.00000000    0.00000000
     atom    4 type  3   force =     0.00000000    0.00000000   -0.00000000
     atom    5 type  4   force =     0.00000000   -0.01781163   -0.01030218
     atom    6 type  4   force =    -0.01542532   -0.00890581    0.01030218
     atom    7 type  4   force =     0.00000000    0.01781163    0.01030218
     atom    8 type  4   force =    -0.01542532    0.00890581   -0.01030218
     atom    9 type  4   force =     0.01542532   -0.00890581    0.01030218
     atom   10 type  4   force =     0.01542532    0.00890581   -0.01030218
     The ionic contribution  to forces
     atom    1 type  1   force =    -0.00000000    0.00000000    0.00000000
     atom    2 type  1   force =    -0.00000000   -0.00000000   -0.00000000
     atom    3 type  2   force =     0.00000000    0.00000000    0.00000000
     atom    4 type  3   force =    -0.00000000    0.00000000    0.00000000
     atom    5 type  4   force =     0.00000000    3.86477357    2.73280760
     atom    6 type  4   force =     3.34699209    1.93238678   -2.73280760
     atom    7 type  4   force =     0.00000000   -3.86477357   -2.73280760
     atom    8 type  4   force =     3.34699209   -1.93238678    2.73280760
     atom    9 type  4   force =    -3.34699209    1.93238678   -2.73280760
     atom   10 type  4   force =    -3.34699209   -1.93238678    2.73280760
     The local contribution  to forces
     atom    1 type  1   force =    -0.00000456    0.00002184    0.00012197
     atom    2 type  1   force =     0.00000911   -0.00002816   -0.00012125
     atom    3 type  2   force =    -0.00000084    0.00000111    0.00000061
     atom    4 type  3   force =    -0.00002243    0.00002364   -0.00001125
     atom    5 type  4   force =    -0.00020287   -3.85158036   -2.72672733
     atom    6 type  4   force =    -3.33773473   -1.92479696    2.72588094
     atom    7 type  4   force =     0.00019846    3.85157697    2.72672062
     atom    8 type  4   force =    -3.33769168    1.92453374   -2.72592860
     atom    9 type  4   force =     3.33769929   -1.92453394    2.72593819
     atom   10 type  4   force =     3.33773331    1.92480076   -2.72588227
     The core correction contribution to forces
     atom    1 type  1   force =     0.00000003    0.00000062    0.00000509
     atom    2 type  1   force =    -0.00000003   -0.00000063   -0.00000508
     atom    3 type  2   force =     0.00000000    0.00000000    0.00000000
     atom    4 type  3   force =    -0.00000000    0.00000000   -0.00000000
     atom    5 type  4   force =    -0.00000873   -0.00040614   -0.00036711
     atom    6 type  4   force =    -0.00046586   -0.00015694    0.00042694
     atom    7 type  4   force =     0.00000873    0.00040612    0.00036707
     atom    8 type  4   force =    -0.00046650    0.00014681   -0.00042252
     atom    9 type  4   force =     0.00046665   -0.00014693    0.00042262
     atom   10 type  4   force =     0.00046584    0.00015682   -0.00042692
     The Hubbard contrib.    to forces
     atom    1 type  1   force =     0.00000000    0.00000000    0.00000000
     atom    2 type  1   force =     0.00000000    0.00000000    0.00000000
     atom    3 type  2   force =     0.00000000    0.00000000    0.00000000
     atom    4 type  3   force =     0.00000000    0.00000000    0.00000000
     atom    5 type  4   force =     0.00000000    0.00000000    0.00000000
     atom    6 type  4   force =     0.00000000    0.00000000    0.00000000
     atom    7 type  4   force =     0.00000000    0.00000000    0.00000000
     atom    8 type  4   force =     0.00000000    0.00000000    0.00000000
     atom    9 type  4   force =     0.00000000    0.00000000    0.00000000
     atom   10 type  4   force =     0.00000000    0.00000000    0.00000000
     The SCF correction term to forces
     atom    1 type  1   force =     0.00000398    0.00002711   -0.00002018
     atom    2 type  1   force =    -0.00000884   -0.00002071    0.00002038
     atom    3 type  2   force =     0.00000098   -0.00000146   -0.00000083
     atom    4 type  3   force =     0.00002625   -0.00002840    0.00001318
     atom    5 type  4   force =     0.00002802    0.00002414    0.00006983
     atom    6 type  4   force =    -0.00001104   -0.00002352    0.00001120
     atom    7 type  4   force =    -0.00002244   -0.00001847   -0.00006209
     atom    8 type  4   force =    -0.00007712    0.00008155   -0.00004310
     atom    9 type  4   force =     0.00006917   -0.00008214    0.00003195
     atom   10 type  4   force =     0.00001348    0.00001696   -0.00000979

     Total force =     0.017711     Total SCF correction =     0.000208

     Computing stress (Cartesian axis) and pressure

     negative rho (up, down):  9.122E-02 0.000E+00
          total   stress  (Ry/bohr**3)                   (kbar)     P=       16.20
   0.00010696   0.00000000   0.00000000           15.74        0.00        0.00
   0.00000000   0.00010696  -0.00000000            0.00       15.74       -0.00
   0.00000000  -0.00000000   0.00011639            0.00       -0.00       17.12

     kinetic stress (kbar)   6818.22      0.00     -0.00
                                0.00   6818.22     -0.00
                                0.00     -0.00   6826.27

     local   stress (kbar)  -5096.58     -0.52     -0.05
                               -0.52  -5078.90     -5.05
                               -0.05     -5.05  -5075.92

     nonloc. stress (kbar)   4845.13      0.00     -0.00
                                0.00   4845.13     -0.00
                                0.00     -0.00   4828.85

     hartree stress (kbar)   3360.19      0.10     -0.01
                                0.10   3357.01      1.36
                               -0.01      1.36   3356.32

     exc-cor stress (kbar)     60.23      0.00      0.00
                                0.00     60.20      0.03
                                0.00      0.03     60.37

     corecor stress (kbar)  -2101.09     -0.01     -0.00
                               -0.01  -2100.83     -0.04
                               -0.00     -0.04  -2101.04

     ewald   stress (kbar)  -7877.73      0.00      0.00
                                0.00  -7877.73     -0.00
                                0.00     -0.00  -7877.73

     hubbard stress (kbar)      0.00      0.00      0.00
                                0.00      0.00      0.00
                                0.00      0.00      0.00

     DFT-D   stress (kbar)      0.00      0.00      0.00
                                0.00      0.00      0.00
                                0.00      0.00      0.00

     XDM     stress (kbar)      0.00      0.00      0.00
                                0.00      0.00      0.00
                                0.00      0.00      0.00

     dft-nl  stress (kbar)      0.00      0.00      0.00
                                0.00      0.00      0.00
                                0.00      0.00      0.00

     TS-vdW  stress (kbar)      0.00      0.00      0.00
                                0.00      0.00      0.00
                                0.00      0.00      0.00

[...]

                                0.00      0.00      0.00

     Writing all to output data dir new_calculations/myprefix.save/

     General routines

     Parallel routines

     PAW routines

   This run was terminated on:  18:36:57  20May2023

   JOB DONE.