     Program PWSCF v.7.0 starts on 20May2023 at  5:28:11

     Reading input from espresso_16072.pwi
Warning: card &CELL ignored
Warning: card / ignored

     Current dimensions of program PWSCF are:
     Max number of different atomic species (ntypx) = 10
     Max number of k-points (npk) =  40000
     Max angular momentum in pseudopotentials (lmaxx) =  4

     gamma-point specific algorithms are used

     Subspace diagonalization in iterative solution of the eigenvalue problem:
     a serial algorithm will be used

     Using Slab Decomposition

     bravais-lattice index     =            0
     lattice parameter (alat)  =      13.6019  a.u.
     unit-cell volume          =    1791.9302 (a.u.)^3
     number of atoms/cell      =           14
     number of atomic types    =            4
     number of electrons       =       138.00
     number of Kohn-Sham states=           83
     kinetic-energy cutoff     =      30.0000  Ry
     charge density cutoff     =     240.0000  Ry
     scf convergence threshold =      1.0E-06
     mixing beta               =       0.7000
     number of iterations used =            8  plain     mixing
     Exchange-correlation=  SLA  PW   PBX  PBC
                           (   1   4   3   4   0   0   0)

     celldm(1)=  13.601928  celldm(2)=   0.000000  celldm(3)=   0.000000
     celldm(4)=   0.000000  celldm(5)=   0.000000  celldm(6)=   0.000000

     crystal axes: (cart. coord. in units of alat)
               a(1) = (   1.000000   0.000000   0.000000 )
               a(2) = (  -0.014281   0.999898   0.000000 )
               a(3) = (  -0.492398  -0.500404   0.712138 )

     reciprocal axes: (cart. coord. in units 2 pi/alat)
               b(1) = (  1.000000  0.014282  0.701473 )
               b(2) = (  0.000000  1.000102  0.702750 )
               b(3) = (  0.000000  0.000000  1.404223 )

     PseudoPot. # 1 for Zr read from file:
     /home/pragov/projects/rrg-bengioy-ad/pragov/crystal_structure_design/SSSP/Zr_pbe_v1.uspp.F.UPF
     MD5 check sum: 5db81b1e868ab7776c4564c113de050b
     Pseudo is Ultrasoft + core correction, Zval = 12.0
     Generated by new atomic code, or converted to UPF format
     Using radial grid of  887 points,  6 beta functions with:
                l(1) =   0
                l(2) =   0
                l(3) =   1
                l(4) =   1
                l(5) =   2
                l(6) =   2
     Q(r) pseudized with  6 coefficients,  rinner =    1.200   1.200   1.200
                                                       1.200   1.200

     PseudoPot. # 2 for Cr read from file:
     /home/pragov/projects/rrg-bengioy-ad/pragov/crystal_structure_design/SSSP/cr_pbe_v1.5.uspp.F.UPF
     MD5 check sum: 0d52af634a40206e4dee301ad30da4bf
     Pseudo is Ultrasoft + core correction, Zval = 14.0
     Generated by new atomic code, or converted to UPF format
     Using radial grid of  857 points,  6 beta functions with:
                l(1) =   0
                l(2) =   0
                l(3) =   1
                l(4) =   1
                l(5) =   2
                l(6) =   2
     Q(r) pseudized with  8 coefficients,  rinner =    0.950   0.950   0.950
                                                       0.950   0.950

     PseudoPot. # 3 for Cu read from file:
     /home/pragov/projects/rrg-bengioy-ad/pragov/crystal_structure_design/SSSP/Cu_pbe_v1.2.uspp.F.UPF
     MD5 check sum: 6e991ff952a84172a2a52a1c1e996048
     Pseudo is Ultrasoft + core correction, Zval = 19.0
     Generated by new atomic code, or converted to UPF format
     Using radial grid of  867 points,  6 beta functions with:
                l(1) =   0
                l(2) =   0
                l(3) =   1
                l(4) =   1
                l(5) =   2
                l(6) =   2
     Q(r) pseudized with  8 coefficients,  rinner =    1.150   1.150   1.150
                                                       1.150   1.150

     PseudoPot. # 4 for S  read from file:
     /home/pragov/projects/rrg-bengioy-ad/pragov/crystal_structure_design/SSSP/s_pbe_v1.4.uspp.F.UPF
     MD5 check sum: 88d86576ff6df21479756cfb9bdac1df
     Pseudo is Ultrasoft + core correction, Zval =  6.0
     Generated by new atomic code, or converted to UPF format
     Using radial grid of  907 points,  6 beta functions with:
                l(1) =   0
                l(2) =   0
                l(3) =   1
                l(4) =   1
                l(5) =   2
                l(6) =   2
     Q(r) pseudized with  8 coefficients,  rinner =    1.300   1.300   1.300
                                                       1.300   1.300

     atomic species   valence    mass     pseudopotential
        Zr            12.00    91.22400     Zr( 1.00)
        Cr            14.00    51.99610     Cr( 1.00)
        Cu            19.00    63.54600     Cu( 1.00)
        S              6.00    32.06000     S ( 1.00)

     No symmetry found

                                    s                        frac. trans.

      isym =  1     identity

 cryst.   s( 1) = (     1          0          0      )
                  (     0          1          0      )
                  (     0          0          1      )

 cart.    s( 1) = (  1.0000000 -0.0000000 -0.0000000 )
                  (  0.0000000  1.0000000  0.0000000 )
                  (  0.0000000  0.0000000  1.0000000 )

   Cartesian axes

     site n.     atom                  positions (alat units)
         1           Zr  tau(   1) = (   0.0075919  -0.0074842   0.3663962  )
         2           Zr  tau(   2) = (  -0.2604701   0.2567766   0.7018102  )
         3           Cr  tau(   3) = (   0.2474784   0.2489408   0.7113123  )
         4           Cr  tau(   4) = (  -0.0074970   0.5003005   0.3568942  )
         5           Cu  tau(   5) = (   0.5090715  -0.2450861   0.5341032  )
         6           Cu  tau(   6) = (   0.4913898   0.2446313   0.1780344  )
         7           S   tau(   7) = (   0.4980412   0.5115968   0.0054699  )
         8           S   tau(   8) = (   0.2375037   0.2652213   0.3713321  )
         9           S   tau(   9) = (  -0.2417669   0.2550946   0.3505989  )
        10           S   tau(  10) = (   0.0089233   0.4905594   0.6968744  )
        11           S   tau(  11) = (   0.9734496   0.9952376   0.0044922  )
        12           S   tau(  12) = (   0.9787780   0.5073836   0.0173982  )
        13           S   tau(  13) = (   0.2350353   0.7373613   0.3515766  )
        14           S   tau(  14) = (   0.7471560   0.7357222   0.3386706  )

   Crystallographic axes

     site n.     atom                  positions (cryst. coord.)
         1           Zr  tau(   1) = (  0.2645020  0.2500000  0.5145020  )
         2           Zr  tau(   2) = (  0.2354980  0.7500000  0.9854980  )
         3           Cr  tau(   3) = (  0.7500000  0.7488410  0.9988410  )
         4           Cr  tau(   4) = (  0.2500000  0.7511590  0.5011590  )
         5           Cu  tau(   5) = (  0.8802300  0.1302300  0.7500000  )
         6           Cu  tau(   6) = (  0.6197700  0.3697700  0.2500000  )
         7           S   tau(   7) = (  0.5091850  0.5154930  0.0076810  )
         8           S   tau(   8) = (  0.5017710  0.5262020  0.5214330  )
         9           S   tau(   9) = (  0.0078120  0.5015040  0.4923190  )
        10           S   tau(  10) = (  0.5047680  0.9803380  0.9785670  )
        11           S   tau(  11) = (  0.9908150  0.9984960  0.0063080  )
        12           S   tau(  12) = (  0.9982290  0.5196620  0.0244310  )
        13           S   tau(  13) = (  0.4921880  0.9845070  0.4936920  )
        14           S   tau(  14) = (  0.9952320  0.9737980  0.4755690  )

     number of k points=     1  Methfessel-Paxton smearing, width (Ry)=  0.0010
                       cart. coord. in units 2pi/alat
        k(    1) = (   0.0000000   0.0000000   0.0000000), wk =   2.0000000

                       cryst. coord.
        k(    1) = (   0.0000000   0.0000000   0.0000000), wk =   2.0000000

     Check: negative core charge=   -0.000004

     Initial potential from superposition of free atoms

     starting charge     133.9954, renormalised to     138.0000

     negative rho (up, down):  1.302E-01 0.000E+00
     Starting wfcs are  104 randomized atomic wfcs

     Self-consistent Calculation

     iteration #  1     ecut=    30.00 Ry     beta= 0.70
     Davidson diagonalization with overlap

     ethr =  1.00E-02,  avg # of iterations =  3.0

     negative rho (up, down):  1.295E-01 0.000E+00

     total energy              =   -1548.18215774 Ry
     estimated scf accuracy    <       3.12012856 Ry

[...]

     total energy              =   -1549.97824211 Ry
     estimated scf accuracy    <       0.00000107 Ry

     iteration # 33     ecut=    30.00 Ry     beta= 0.70
     Davidson diagonalization with overlap

     ethr =  7.77E-10,  avg # of iterations =  1.0

[...]

     End of self-consistent calculation

          k = 0.0000 0.0000 0.0000 (  2499 PWs)   bands (ev):

  -103.3037-103.3029 -63.0884 -63.0880 -60.7588 -60.7579 -60.6783 -60.6777
   -60.6207 -60.6184 -40.3220 -40.3109 -34.4759 -34.4605 -34.4477 -34.4457
   -34.2883 -34.2870 -18.5273 -18.4080 -18.3951 -18.3646 -18.3540 -18.2666
    -4.8436  -3.5099  -3.5097  -3.4151  -3.3612  -3.3239  -3.3163  -3.2796
     2.5286   3.3398   3.5178   3.5301   3.6872   4.4508   4.4779   5.0892
     5.1023   5.2077   5.4399   5.4632   5.5073   5.5109   5.6602   5.9651
     6.0480   6.0625   6.6963   6.6993   6.8310   6.9315   6.9456   6.9711
     6.9862   7.1097   7.1126   7.1530   7.5034   7.5199   7.5411   8.1719
     8.3858   8.3859   8.8277   8.8397   8.8724   8.8811   8.9470   8.9808
     9.5485  10.2022  10.3851  10.4548  10.9162  11.4890  11.6006  11.6142
    11.6817  12.1747  12.3934

     occupation numbers
     1.0000   1.0000   1.0000   1.0000   1.0000   1.0000   1.0000   1.0000
     1.0000   1.0000   1.0000   1.0000   1.0000   1.0000   1.0000   1.0000
     1.0000   1.0000   1.0000   1.0000   1.0000   1.0000   1.0000   1.0000
     1.0000   1.0000   1.0000   1.0000   1.0000   1.0000   1.0000   1.0000
     1.0000   1.0000   1.0000   1.0000   1.0000   1.0000   1.0000   1.0000
     1.0000   1.0000   1.0000   1.0000   1.0000   1.0000   1.0000   1.0000
     1.0000   1.0000   1.0000   1.0000   1.0000   1.0000   1.0000   1.0000
     1.0000   1.0000   1.0000   1.0000   1.0000   1.0000   1.0000   1.0000
     1.0000   1.0000   1.0000   1.0004   0.7557   0.2439  -0.0000  -0.0000
    -0.0000  -0.0000  -0.0000  -0.0000  -0.0000  -0.0000  -0.0000  -0.0000
    -0.0000  -0.0000  -0.0000

     the Fermi energy is     8.8767 ev

!    total energy              =   -1549.97824141 Ry
     estimated scf accuracy    <       0.00000078 Ry
     smearing contrib. (-TS)   =      -0.00040275 Ry
     internal energy E=F+TS    =   -1549.97783867 Ry

     The total energy is F=E-TS. E is the sum of the following terms:
     one-electron contribution =   -1069.62865434 Ry
     hartree contribution      =     587.11856771 Ry
     xc contribution           =    -225.67753659 Ry
     ewald contribution        =    -841.79021544 Ry

     convergence has been achieved in  33 iterations

     negative rho (up, down):  1.307E-01 0.000E+00

     Forces acting on atoms (cartesian axes, Ry/au):

     atom    1 type  1   force =     0.01471531   -0.01450272    0.02065603
     atom    2 type  1   force =    -0.01471373    0.01451414   -0.02066674
     atom    3 type  2   force =     0.01423603   -0.01402045   -0.02001389
     atom    4 type  2   force =    -0.01422403    0.01405754    0.01998390
     atom    5 type  3   force =     0.00049064    0.00047138   -0.00004927
     atom    6 type  3   force =    -0.00059256   -0.00055642    0.00007144
     atom    7 type  4   force =     0.01170896    0.00463480   -0.00994740
     atom    8 type  4   force =     0.00212059    0.00461788    0.02203376
     atom    9 type  4   force =     0.00448231    0.01176775    0.00994552
     atom   10 type  4   force =     0.00459608    0.00218709   -0.02203356
     atom   11 type  4   force =    -0.00099130   -0.01517911   -0.00507867
     atom   12 type  4   force =    -0.01902090    0.01207575    0.00176018
     atom   13 type  4   force =    -0.01516158   -0.00121127    0.00508535
     atom   14 type  4   force =     0.01235417   -0.01885637   -0.00174665
     The non-local contrib.  to forces
     atom    1 type  1   force =    -0.01067778    0.01052130   -0.01496534
     atom    2 type  1   force =     0.01066867   -0.01051825    0.01495236
     atom    3 type  2   force =    -0.00567135    0.00558362    0.00795856
     atom    4 type  2   force =     0.00567642   -0.00558419   -0.00795755
     atom    5 type  3   force =     0.12989501    0.13171943   -0.00003610
     atom    6 type  3   force =    -0.12994838   -0.13179148    0.00007657
     atom    7 type  4   force =     0.04383116   -0.00664982    0.02220703
     atom    8 type  4   force =     0.01893817    0.02516006    0.02015779
     atom    9 type  4   force =    -0.00726950    0.04372217   -0.02221849
     atom   10 type  4   force =     0.02490067    0.01931702   -0.02016991
     atom   11 type  4   force =    -0.03412525   -0.00291089   -0.03585646
     atom   12 type  4   force =    -0.03628765   -0.00808868    0.00419188
     atom   13 type  4   force =    -0.00243385   -0.03416213    0.03587003
     atom   14 type  4   force =    -0.00756317   -0.03638185   -0.00418983
     The ionic contribution  to forces
     atom    1 type  1   force =    -0.18287163    0.18031073   -0.25656814
     atom    2 type  1   force =     0.18286838   -0.18031053    0.25657024
     atom    3 type  2   force =    -0.03727124    0.03674366    0.05233843
     atom    4 type  2   force =     0.03727281   -0.03674335   -0.05233973
     atom    5 type  3   force =     1.50850349    1.53016888   -0.00005375
     atom    6 type  3   force =    -1.50844554   -1.53016771    0.00001278
     atom    7 type  4   force =    -1.49807044    0.99383241   -0.94100295
     atom    8 type  4   force =    -0.49562576   -0.76551810   -0.40761663
     atom    9 type  4   force =     1.01511664   -1.48373323    0.94100312
     atom   10 type  4   force =    -0.75834611   -0.50652724    0.40762723
     atom   11 type  4   force =     0.91273577   -0.41679802    1.76368052
     atom   12 type  4   force =     0.91715913    0.34996225   -0.18484855
     atom   13 type  4   force =    -0.42978206    0.90669882   -1.76368061
     atom   14 type  4   force =     0.33675656    0.92208143    0.18487803
     The local contribution  to forces
     atom    1 type  1   force =     0.20782906   -0.20497439    0.29173908
     atom    2 type  1   force =    -0.20789899    0.20497387   -0.29179423
     atom    3 type  2   force =     0.05689263   -0.05614049   -0.07996877
     atom    4 type  2   force =    -0.05704979    0.05612259    0.07991405
     atom    5 type  3   force =    -1.63746935   -1.66096348    0.00010423
     atom    6 type  3   force =     1.63753297    1.66107320   -0.00010906
     atom    7 type  4   force =     1.46837415   -0.98348317    0.91062124
     atom    8 type  4   force =     0.48039194    0.74646446    0.41017604
     atom    9 type  4   force =    -1.00418221    1.45416619   -0.91072707
     atom   10 type  4   force =     0.73953751    0.49114994   -0.41025702
     atom   11 type  4   force =    -0.88169164    0.40516278   -1.73519589
     atom   12 type  4   force =    -0.90200350   -0.33104134    0.18229485
     atom   13 type  4   force =     0.41756894   -0.87580496    1.73532496
     atom   14 type  4   force =    -0.31789897   -0.90665854   -0.18219821
     The core correction contribution to forces
     atom    1 type  1   force =     0.00035790   -0.00035292    0.00050351
     atom    2 type  1   force =    -0.00035796    0.00035313   -0.00050350
     atom    3 type  2   force =     0.00026506   -0.00026131   -0.00037301
     atom    4 type  2   force =    -0.00026661    0.00026191    0.00037170
     atom    5 type  3   force =    -0.00024343   -0.00024671    0.00000006
     atom    6 type  3   force =     0.00024337    0.00024683   -0.00000019
     atom    7 type  4   force =    -0.00262912    0.00060876   -0.00180132
     atom    8 type  4   force =    -0.00140753   -0.00171343   -0.00104222
     atom    9 type  4   force =     0.00064627   -0.00261956    0.00180178
     atom   10 type  4   force =    -0.00169395   -0.00143271    0.00104264
     atom   11 type  4   force =     0.00227611   -0.00026126    0.00229790
     atom   12 type  4   force =     0.00229360    0.00084135   -0.00020136
     atom   13 type  4   force =    -0.00029348    0.00227200   -0.00229840
     atom   14 type  4   force =     0.00080862    0.00230430    0.00020158
     The Hubbard contrib.    to forces
     atom    1 type  1   force =     0.00000000    0.00000000    0.00000000
     atom    2 type  1   force =     0.00000000    0.00000000    0.00000000
     atom    3 type  2   force =     0.00000000    0.00000000    0.00000000
     atom    4 type  2   force =     0.00000000    0.00000000    0.00000000
     atom    5 type  3   force =     0.00000000    0.00000000    0.00000000
     atom    6 type  3   force =     0.00000000    0.00000000    0.00000000
     atom    7 type  4   force =     0.00000000    0.00000000    0.00000000
     atom    8 type  4   force =     0.00000000    0.00000000    0.00000000
     atom    9 type  4   force =     0.00000000    0.00000000    0.00000000
     atom   10 type  4   force =     0.00000000    0.00000000    0.00000000
     atom   11 type  4   force =     0.00000000    0.00000000    0.00000000
     atom   12 type  4   force =     0.00000000    0.00000000    0.00000000
     atom   13 type  4   force =     0.00000000    0.00000000    0.00000000
     atom   14 type  4   force =     0.00000000    0.00000000    0.00000000
     The SCF correction term to forces
     atom    1 type  1   force =     0.00006930   -0.00001410   -0.00005183
     atom    2 type  1   force =    -0.00000228    0.00000925    0.00010964
     atom    3 type  2   force =     0.00001247    0.00004741    0.00003214
     atom    4 type  2   force =     0.00013468   -0.00000607   -0.00000333
     atom    5 type  3   force =    -0.00020355   -0.00021340   -0.00006246
     atom    6 type  3   force =     0.00001655    0.00007607    0.00009258
     atom    7 type  4   force =     0.00019475    0.00031997    0.00002984
     atom    8 type  4   force =    -0.00018470    0.00021823    0.00036002
     atom    9 type  4   force =     0.00016265    0.00022552    0.00008744
     atom   10 type  4   force =     0.00018950   -0.00032657   -0.00027526
     atom   11 type  4   force =    -0.00019475   -0.00037838   -0.00000349
     atom   12 type  4   force =    -0.00019094    0.00039552    0.00032461
     atom   13 type  4   force =    -0.00022959   -0.00022166   -0.00012939
     atom   14 type  4   force =     0.00024266   -0.00020837   -0.00043698

     Total force =     0.079888     Total SCF correction =     0.001302

     Computing stress (Cartesian axis) and pressure

     negative rho (up, down):  1.307E-01 0.000E+00
          total   stress  (Ry/bohr**3)                   (kbar)     P=     -130.40
  -0.00085984   0.00008338  -0.00000441         -126.49       12.27       -0.65
   0.00008338  -0.00085758   0.00000432           12.27     -126.15        0.64
  -0.00000441   0.00000432  -0.00094195           -0.65        0.64     -138.57

     kinetic stress (kbar)  15280.70     31.32     15.18
                               31.32  15281.63    -14.94
                               15.18    -14.94  15249.79

     local   stress (kbar) -13016.83    173.04   -335.03
                              173.04 -13012.04    330.17
                             -335.03    330.17 -13186.57

     nonloc. stress (kbar)   9792.25     14.45     12.02
                               14.45   9792.70    -11.83
                               12.02    -11.83   9777.99

     hartree stress (kbar)  16038.73    -86.15    134.02
                              -86.15  16036.32   -132.08
                              134.02   -132.08  16123.32

     exc-cor stress (kbar)  -1071.77      0.03      0.03
                                0.03  -1071.77     -0.03
                                0.03     -0.03  -1071.80

     corecor stress (kbar)  -4076.34     -0.33     -0.50
                               -0.33  -4076.35      0.49
                               -0.50      0.49  -4076.01

     ewald   stress (kbar) -23073.23   -120.09    173.63
                             -120.09 -23076.65   -171.15
                              173.63   -171.15 -22955.28

     hubbard stress (kbar)      0.00      0.00      0.00
                                0.00      0.00      0.00
                                0.00      0.00      0.00

     DFT-D   stress (kbar)      0.00      0.00      0.00
                                0.00      0.00      0.00
                                0.00      0.00      0.00

     XDM     stress (kbar)      0.00      0.00      0.00
                                0.00      0.00      0.00
                                0.00      0.00      0.00

     dft-nl  stress (kbar)      0.00      0.00      0.00
                                0.00      0.00      0.00
                                0.00      0.00      0.00

     TS-vdW  stress (kbar)      0.00      0.00      0.00
                                0.00      0.00      0.00
                                0.00      0.00      0.00

[...]

                                0.00      0.00      0.00

     Writing all to output data dir new_calculations/myprefix.save/

     General routines

     Parallel routines

   This run was terminated on:   5:29:36  20May2023

   JOB DONE.