     Program PWSCF v.7.0 starts on 20May2023 at 23:59:41

     Reading input from espresso_945.pwi
Warning: card &CELL ignored
Warning: card / ignored

     Current dimensions of program PWSCF are:
     Max number of different atomic species (ntypx) = 10
     Max number of k-points (npk) =  40000
     Max angular momentum in pseudopotentials (lmaxx) =  4
     file O.pbe-n-kjpaw_psl.0.1.UPF: wavefunction(s)  2P renormalized

     gamma-point specific algorithms are used
     Message from routine setup:
     using ibrav=0 with symmetry is DISCOURAGED, use correct ibrav instead

     Subspace diagonalization in iterative solution of the eigenvalue problem:
     a serial algorithm will be used

     Using Slab Decomposition

     bravais-lattice index     =            0
     lattice parameter (alat)  =       9.1976  a.u.
     unit-cell volume          =    1396.6118 (a.u.)^3
     number of atoms/cell      =           18
     number of atomic types    =            3
     number of electrons       =       154.00
     number of Kohn-Sham states=           92
     kinetic-energy cutoff     =      30.0000  Ry
     charge density cutoff     =     240.0000  Ry
     scf convergence threshold =      1.0E-06
     mixing beta               =       0.7000
     number of iterations used =            8  plain     mixing
     Exchange-correlation= SLA  PW   PBX  PBC
                           (   1   4   3   4   0   0   0)

     celldm(1)=   9.197558  celldm(2)=   0.000000  celldm(3)=   0.000000
     celldm(4)=   0.000000  celldm(5)=   0.000000  celldm(6)=   0.000000

     crystal axes: (cart. coord. in units of alat)
               a(1) = (   1.000000   0.000000   0.000000 )
               a(2) = (   0.000000   1.164026   0.000000 )
               a(3) = (   0.000000   0.211359   1.542040 )

     reciprocal axes: (cart. coord. in units 2 pi/alat)
               b(1) = (  1.000000  0.000000  0.000000 )
               b(2) = (  0.000000  0.859088 -0.117750 )
               b(3) = (  0.000000  0.000000  0.648492 )

     PseudoPot. # 1 for Sc read from file:
     /home/pragov/projects/rrg-bengioy-ad/pragov/crystal_structure_design/SSSP/Sc_ONCV_PBE-1.0.oncvpsp.upf
     MD5 check sum: e21af8023abb52e52cb7cd3133e4a229
     Pseudo is Norm-conserving, Zval = 11.0
     Generated using ONCVPSP code by D. R. Hamann
     Using radial grid of 1662 points,  6 beta functions with:
                l(1) =   0
                l(2) =   0
                l(3) =   1
                l(4) =   1
                l(5) =   2
                l(6) =   2

     PseudoPot. # 2 for Re read from file:
     /home/pragov/projects/rrg-bengioy-ad/pragov/crystal_structure_design/SSSP/Re_pbe_v1.2.uspp.F.UPF
     MD5 check sum: 85f993410f3e006da9d71c142b4ad953
     Pseudo is Ultrasoft + core correction, Zval = 15.0
     Generated by new atomic code, or converted to UPF format
     Using radial grid of  981 points,  8 beta functions with:
                l(1) =   0
                l(2) =   0
                l(3) =   1
                l(4) =   1
                l(5) =   2
                l(6) =   2
                l(7) =   3
                l(8) =   3
     Q(r) pseudized with  8 coefficients,  rinner =    1.150   1.150   1.150
                                                       1.150   1.150   1.150
                                                       1.150

     PseudoPot. # 3 for O  read from file:
     /home/pragov/projects/rrg-bengioy-ad/pragov/crystal_structure_design/SSSP/O.pbe-n-kjpaw_psl.0.1.UPF
     MD5 check sum: 0234752ac141de4415c5fc33072bef88
     Pseudo is Projector augmented-wave + core cor, Zval =  6.0
     Generated using "atomic" code by A. Dal Corso  v.5.0.99 svn rev. 10869
     Shape of augmentation charge: BESSEL
     Using radial grid of 1095 points,  4 beta functions with:
                l(1) =   0
                l(2) =   0
                l(3) =   1
                l(4) =   1
     Q(r) pseudized with 0 coefficients

     atomic species   valence    mass     pseudopotential
        Sc            11.00    44.95591     Sc( 1.00)
        Re            15.00   186.20700     Re( 1.00)
        O              6.00    15.99900     O ( 1.00)

      4 Sym. Ops., with inversion, found ( 2 have fractional translation)

                                    s                        frac. trans.

      isym =  1     identity

 cryst.   s( 1) = (     1          0          0      )
                  (     0          1          0      )
                  (     0          0          1      )

 cart.    s( 1) = (  1.0000000  0.0000000  0.0000000 )
                  (  0.0000000  1.0000000 -0.0000000 )
                  (  0.0000000  0.0000000  1.0000000 )

      isym =  2     180 deg rotation - cart. axis [1,0,0]

 cryst.   s( 2) = (     1          0          0      )    f =(  0.5000000 )
                  (     0         -1          0      )       ( -0.5000000 )
                  (     0          0         -1      )       ( -0.0000000 )

 cart.    s( 2) = (  1.0000000  0.0000000  0.0000000 )    f =(  0.5000000 )
                  (  0.0000000 -1.0000000  0.0000000 )       ( -0.5820128 )
                  (  0.0000000  0.0000000 -1.0000000 )       ( -0.0000000 )

      isym =  3     inversion

 cryst.   s( 3) = (    -1          0          0      )
                  (     0         -1          0      )
                  (     0          0         -1      )

 cart.    s( 3) = ( -1.0000000  0.0000000  0.0000000 )
                  (  0.0000000 -1.0000000  0.0000000 )
                  (  0.0000000  0.0000000 -1.0000000 )

      isym =  4     inv. 180 deg rotation - cart. axis [1,0,0]

 cryst.   s( 4) = (    -1          0          0      )    f =(  0.5000000 )
                  (     0          1          0      )       (  0.5000000 )
                  (     0          0          1      )       (  0.0000000 )

 cart.    s( 4) = ( -1.0000000  0.0000000  0.0000000 )    f =(  0.5000000 )
                  (  0.0000000  1.0000000 -0.0000000 )       (  0.5820128 )
                  (  0.0000000  0.0000000  1.0000000 )       (  0.0000000 )

   Cartesian axes

     site n.     atom                  positions (alat units)
         1           Sc  tau(   1) = (   0.5000000   0.1056794   0.7710200  )
         2           Sc  tau(   2) = (   0.0000000   0.6876921   0.7710200  )
         3           Re  tau(   3) = (   0.9912750   0.3299779   1.3102636  )
         4           Re  tau(   4) = (   0.0087250   1.0454064   0.2317763  )
         5           Re  tau(   5) = (   0.5087250   0.9119907   1.3102636  )
         6           Re  tau(   6) = (   0.4912750   0.4633936   0.2317763  )
         7           O   tau(   7) = (   0.3246240   0.9153007   0.9515774  )
         8           O   tau(   8) = (   0.2306660   1.1764086   1.4339506  )
         9           O   tau(   9) = (   0.2164320   0.7249196   0.3811414  )
        10           O   tau(  10) = (   0.8246240   1.0420964   0.5904625  )
        11           O   tau(  11) = (   0.7164320   1.2324774   1.1608985  )
        12           O   tau(  12) = (   0.7835680   0.6504646   1.1608985  )
        13           O   tau(  13) = (   0.6753760   0.4600836   0.5904625  )
        14           O   tau(  14) = (   0.2835680   0.1429068   0.3811414  )
        15           O   tau(  15) = (   0.2693340   0.5943958   1.4339506  )
        16           O   tau(  16) = (   0.1753760   0.3332879   0.9515774  )
        17           O   tau(  17) = (   0.7693340   0.1989757   0.1080893  )
        18           O   tau(  18) = (   0.7306660   0.7809884   0.1080893  )

   Crystallographic axes

     site n.     atom                  positions (cryst. coord.)
         1           Sc  tau(   1) = (  0.5000000 -0.0000000  0.5000000  )
         2           Sc  tau(   2) = (  0.0000000  0.5000000  0.5000000  )
         3           Re  tau(   3) = (  0.9912750  0.1291960  0.8496950  )
         4           Re  tau(   4) = (  0.0087250  0.8708040  0.1503050  )
         5           Re  tau(   5) = (  0.5087250  0.6291960  0.8496950  )
         6           Re  tau(   6) = (  0.4912750  0.3708040  0.1503050  )
         7           O   tau(   7) = (  0.3246240  0.6742750  0.6170900  )
         8           O   tau(   8) = (  0.2306660  0.8417900  0.9299050  )
         9           O   tau(   9) = (  0.2164320  0.5778900  0.2471670  )
        10           O   tau(  10) = (  0.8246240  0.8257250  0.3829100  )
        11           O   tau(  11) = (  0.7164320  0.9221100  0.7528330  )
        12           O   tau(  12) = (  0.7835680  0.4221100  0.7528330  )
        13           O   tau(  13) = (  0.6753760  0.3257250  0.3829100  )
        14           O   tau(  14) = (  0.2835680  0.0778900  0.2471670  )
        15           O   tau(  15) = (  0.2693340  0.3417900  0.9299050  )
        16           O   tau(  16) = (  0.1753760  0.1742750  0.6170900  )
        17           O   tau(  17) = (  0.7693340  0.1582100  0.0700950  )
        18           O   tau(  18) = (  0.7306660  0.6582100  0.0700950  )

     number of k points=     1  Methfessel-Paxton smearing, width (Ry)=  0.0010
                       cart. coord. in units 2pi/alat
        k(    1) = (   0.0000000   0.0000000   0.0000000), wk =   2.0000000

                       cryst. coord.
        k(    1) = (   0.0000000   0.0000000   0.0000000), wk =   2.0000000

     Check: negative core charge=   -0.000012

     Initial potential from superposition of free atoms

     starting charge     151.9945, renormalised to     154.0000

     negative rho (up, down):  5.195E-01 0.000E+00
     Starting wfcs are  120 randomized atomic wfcs
     Checking if some PAW data can be deallocated...

     Self-consistent Calculation

     iteration #  1     ecut=    30.00 Ry     beta= 0.70
     Davidson diagonalization with overlap

     ethr =  1.00E-02,  avg # of iterations =  2.0

     negative rho (up, down):  5.498E-01 0.000E+00

     total energy              =   -1444.29462912 Ry
     estimated scf accuracy    <       4.40048352 Ry

[...]

     c_bands:  3 eigenvalues not converged
     ethr =  2.81E-05,  avg # of iterations = 20.0

[...]

     total energy              =   -1446.64768495 Ry
     estimated scf accuracy    <       0.00000600 Ry

     iteration # 15     ecut=    30.00 Ry     beta= 0.70
     Davidson diagonalization with overlap

     ethr =  3.89E-09,  avg # of iterations =  5.0

[...]

     End of self-consistent calculation

          k = 0.0000 0.0000 0.0000 (  1946 PWs)   bands (ev):

   -69.6786 -69.6769 -69.6238 -69.6230 -37.6633 -37.6529 -31.9033 -31.8999
   -31.5699 -31.5434 -31.4725 -31.4722 -31.4663 -31.4568 -31.3230 -31.3176
   -31.1611 -31.1600 -16.3816 -16.3685 -16.3410 -16.3321 -16.2120 -16.1925
    -8.6333  -7.8723  -7.7955  -7.7281  -6.8230  -6.7499  -6.7148  -6.6762
    -6.4233  -6.1635  -5.8800  -5.7892   3.2148   3.4402   3.5375   3.6311
     4.4136   4.4785   4.6350   5.6554   5.7282   6.1841   6.2344   6.3803
     6.4461   6.5935   6.6050   6.6293   7.0198   7.1957   7.2261   7.5035
     7.5830   7.7330   7.8552   7.9315   8.1697   8.4693   8.5273   8.6034
     8.6899   8.9328   9.2110   9.2250   9.4762   9.5235   9.9638   9.9949
    10.0601  10.1388  10.6255  11.2224  11.7291  12.5217  12.8042  12.8918
    13.5812  14.1918  14.2039  14.3678  14.7779  14.7787  15.1501  15.1523
    15.3870  15.5263  15.5597  15.6848

     occupation numbers
     1.0000   1.0000   1.0000   1.0000   1.0000   1.0000   1.0000   1.0000
     1.0000   1.0000   1.0000   1.0000   1.0000   1.0000   1.0000   1.0000
     1.0000   1.0000   1.0000   1.0000   1.0000   1.0000   1.0000   1.0000
     1.0000   1.0000   1.0000   1.0000   1.0000   1.0000   1.0000   1.0000
     1.0000   1.0000   1.0000   1.0000   1.0000   1.0000   1.0000   1.0000
     1.0000   1.0000   1.0000   1.0000   1.0000   1.0000   1.0000   1.0000
     1.0000   1.0000   1.0000   1.0000   1.0000   1.0000   1.0000   1.0000
     1.0000   1.0000   1.0000   1.0000   1.0000   1.0000   1.0000   1.0000
     1.0000   1.0000   1.0000   1.0000   1.0000   1.0000   1.0000   1.0000
     1.0000   1.0000   1.0000   1.0000   1.0000  -0.0000  -0.0000  -0.0000
    -0.0000  -0.0000  -0.0000  -0.0000  -0.0000  -0.0000  -0.0000  -0.0000
    -0.0000  -0.0000  -0.0000  -0.0000

     the Fermi energy is    11.8067 ev

!    total energy              =   -1446.64768623 Ry
     estimated scf accuracy    <       0.00000026 Ry
     smearing contrib. (-TS)   =       0.00000000 Ry
     internal energy E=F+TS    =   -1446.64768623 Ry

     The total energy is F=E-TS. E is the sum of the following terms:
     one-electron contribution =    -408.96629643 Ry
     hartree contribution      =     282.65954370 Ry
     xc contribution           =    -323.01138740 Ry
     ewald contribution        =    -883.12956229 Ry
     one-center paw contrib.   =    -114.19998380 Ry
      -> PAW hartree energy AE =     359.77598612 Ry
      -> PAW hartree energy PS =    -358.46669608 Ry
      -> PAW xc energy AE      =    -206.66141391 Ry
      -> PAW xc energy PS      =      91.15214007 Ry
      -> total E_H with PAW    =     283.96883374 Ry
      -> total E_XC with PAW   =    -438.52066124 Ry

     convergence has been achieved in  15 iterations

     negative rho (up, down):  5.273E-01 0.000E+00

     Forces acting on atoms (cartesian axes, Ry/au):

     atom    1 type  1   force =     0.00000000    0.00000000    0.00000000
     atom    2 type  1   force =     0.00000000    0.00000000    0.00000000
     atom    3 type  2   force =    -0.00682334    0.05342774    0.00689804
     atom    4 type  2   force =     0.00682334   -0.05342774   -0.00689804
     atom    5 type  2   force =     0.00682334    0.05342774    0.00689804
     atom    6 type  2   force =    -0.00682334   -0.05342774   -0.00689804
     atom    7 type  3   force =     0.01509100    0.00089418    0.01808707
     atom    8 type  3   force =     0.00371089   -0.01259210    0.01414803
     atom    9 type  3   force =    -0.00518212    0.01867834    0.00664438
     atom   10 type  3   force =     0.01509100   -0.00089418   -0.01808707
     atom   11 type  3   force =    -0.00518212   -0.01867834   -0.00664438
     atom   12 type  3   force =     0.00518212   -0.01867834   -0.00664438
     atom   13 type  3   force =    -0.01509100   -0.00089418   -0.01808707
     atom   14 type  3   force =     0.00518212    0.01867834    0.00664438
     atom   15 type  3   force =    -0.00371089   -0.01259210    0.01414803
     atom   16 type  3   force =    -0.01509100    0.00089418    0.01808707
     atom   17 type  3   force =    -0.00371089    0.01259210   -0.01414803
     atom   18 type  3   force =     0.00371089    0.01259210   -0.01414803
     The non-local contrib.  to forces
     atom    1 type  1   force =    -0.00000000    0.00000000    0.00000000
     atom    2 type  1   force =    -0.00000000    0.00000000    0.00000000
     atom    3 type  2   force =    -0.02018188    0.01131995    0.06647766
     atom    4 type  2   force =     0.02018188   -0.01131995   -0.06647766
     atom    5 type  2   force =     0.02018188    0.01131995    0.06647766
     atom    6 type  2   force =    -0.02018188   -0.01131995   -0.06647766
     atom    7 type  3   force =     0.27410827    0.10657549    0.52643705
     atom    8 type  3   force =    -0.20722374    0.18280581    0.14477930
     atom    9 type  3   force =    -0.01312388    0.11705201   -0.50450136
     atom   10 type  3   force =     0.27410827   -0.10657549   -0.52643705
     atom   11 type  3   force =    -0.01312388   -0.11705201    0.50450136
     atom   12 type  3   force =     0.01312388   -0.11705201    0.50450136
     atom   13 type  3   force =    -0.27410827   -0.10657549   -0.52643705
     atom   14 type  3   force =     0.01312388    0.11705201   -0.50450136
     atom   15 type  3   force =     0.20722374    0.18280581    0.14477930
     atom   16 type  3   force =    -0.27410827    0.10657549    0.52643705
     atom   17 type  3   force =     0.20722374   -0.18280581   -0.14477930
     atom   18 type  3   force =    -0.20722374   -0.18280581   -0.14477930
     The ionic contribution  to forces
     atom    1 type  1   force =    -0.00000000    0.00000000   -0.00000000
     atom    2 type  1   force =     0.00000000    0.00000000   -0.00000000
     atom    3 type  2   force =    -0.40047606    0.70593609  -12.51939198
     atom    4 type  2   force =     0.40047606   -0.70593609   12.51939198
     atom    5 type  2   force =     0.40047606    0.70593609  -12.51939198
     atom    6 type  2   force =    -0.40047606   -0.70593609   12.51939198
     atom    7 type  3   force =    -2.70514095   -1.36921912   -7.25388681
     atom    8 type  3   force =     2.20369388   -1.03458206   -3.41339519
     atom    9 type  3   force =     0.45219915   -1.05885963    7.26715548
     atom   10 type  3   force =    -2.70514094    1.36921912    7.25388681
     atom   11 type  3   force =     0.45219915    1.05885963   -7.26715548
     atom   12 type  3   force =    -0.45219915    1.05885963   -7.26715548
     atom   13 type  3   force =     2.70514094    1.36921912    7.25388681
     atom   14 type  3   force =    -0.45219915   -1.05885963    7.26715548
     atom   15 type  3   force =    -2.20369388   -1.03458206   -3.41339520
     atom   16 type  3   force =     2.70514095   -1.36921912   -7.25388681
     atom   17 type  3   force =    -2.20369389    1.03458206    3.41339519
     atom   18 type  3   force =     2.20369388    1.03458206    3.41339519
     The local contribution  to forces
     atom    1 type  1   force =    -0.00008827   -0.00009995    0.00027956
     atom    2 type  1   force =     0.00012864   -0.00001561    0.00025486
     atom    3 type  2   force =     0.41699058   -0.67305572   12.46715256
     atom    4 type  2   force =    -0.41685907    0.67302598  -12.46753539
     atom    5 type  2   force =    -0.41689283   -0.67341023   12.46719852
     atom    6 type  2   force =     0.41678372    0.67358890  -12.46752452
     atom    7 type  3   force =     2.44856400    1.26431427    6.75112003
     atom    8 type  3   force =    -1.99492171    0.84138570    3.28418745
     atom    9 type  3   force =    -0.44428012    0.96186769   -6.76206641
     atom   10 type  3   force =     2.44876538   -1.26441454   -6.75104667
     atom   11 type  3   force =    -0.44412866   -0.96175402    6.76215316
     atom   12 type  3   force =     0.44432820   -0.96191846    6.76210355
     atom   13 type  3   force =    -2.44858417   -1.26416155   -6.75097667
     atom   14 type  3   force =     0.44414048    0.96176373   -6.76213083
     atom   15 type  3   force =     1.99468344    0.84132934    3.28403697
     atom   16 type  3   force =    -2.44880513    1.26447188    6.75131412
     atom   17 type  3   force =     1.99500467   -0.84140635   -3.28440445
     atom   18 type  3   force =    -1.99475832   -0.84129530   -3.28423699
     The core correction contribution to forces
     atom    1 type  1   force =     0.00000000    0.00000000    0.00000000
     atom    2 type  1   force =     0.00000000    0.00000000    0.00000000
     atom    3 type  2   force =    -0.00296423    0.00942233   -0.00709879
     atom    4 type  2   force =     0.00296690   -0.00941495    0.00709913
     atom    5 type  2   force =     0.00296941    0.00942071   -0.00709983
     atom    6 type  2   force =    -0.00296795   -0.00942089    0.00709563
     atom    7 type  3   force =    -0.00257849   -0.00078240   -0.00542517
     atom    8 type  3   force =     0.00209884   -0.00220465   -0.00137798
     atom    9 type  3   force =    -0.00003662   -0.00133796    0.00585635
     atom   10 type  3   force =    -0.00257904    0.00078449    0.00542549
     atom   11 type  3   force =    -0.00003713    0.00133765   -0.00585653
     atom   12 type  3   force =     0.00003686    0.00133728   -0.00585594
     atom   13 type  3   force =     0.00257821    0.00078411    0.00542478
     atom   14 type  3   force =     0.00003790   -0.00133709    0.00585650
     atom   15 type  3   force =    -0.00209865   -0.00220407   -0.00137758
     atom   16 type  3   force =     0.00257903   -0.00078400   -0.00542522
     atom   17 type  3   force =    -0.00209924    0.00220482    0.00137866
     atom   18 type  3   force =     0.00209849    0.00220445    0.00137865
     The Hubbard contrib.    to forces
     atom    1 type  1   force =     0.00000000    0.00000000    0.00000000
     atom    2 type  1   force =     0.00000000    0.00000000    0.00000000
     atom    3 type  2   force =     0.00000000    0.00000000    0.00000000
     atom    4 type  2   force =     0.00000000    0.00000000    0.00000000
     atom    5 type  2   force =     0.00000000    0.00000000    0.00000000
     atom    6 type  2   force =     0.00000000    0.00000000    0.00000000
     atom    7 type  3   force =     0.00000000    0.00000000    0.00000000
     atom    8 type  3   force =     0.00000000    0.00000000    0.00000000
     atom    9 type  3   force =     0.00000000    0.00000000    0.00000000
     atom   10 type  3   force =     0.00000000    0.00000000    0.00000000
     atom   11 type  3   force =     0.00000000    0.00000000    0.00000000
     atom   12 type  3   force =     0.00000000    0.00000000    0.00000000
     atom   13 type  3   force =     0.00000000    0.00000000    0.00000000
     atom   14 type  3   force =     0.00000000    0.00000000    0.00000000
     atom   15 type  3   force =     0.00000000    0.00000000    0.00000000
     atom   16 type  3   force =     0.00000000    0.00000000    0.00000000
     atom   17 type  3   force =     0.00000000    0.00000000    0.00000000
     atom   18 type  3   force =     0.00000000    0.00000000    0.00000000
     The SCF correction term to forces
     atom    1 type  1   force =     0.00005507    0.00008411   -0.00028712
     atom    2 type  1   force =    -0.00011005   -0.00000239   -0.00027197
     atom    3 type  2   force =    -0.00021082   -0.00028949   -0.00019658
     atom    4 type  2   force =     0.00008187    0.00028224    0.00060661
     atom    5 type  2   force =     0.00006356    0.00023194   -0.00032802
     atom    6 type  2   force =     0.00003695   -0.00042849    0.00063697
     atom    7 type  3   force =     0.00016441    0.00008274   -0.00017156
     atom    8 type  3   force =     0.00007354   -0.00000217   -0.00003132
     atom    9 type  3   force =     0.00010240   -0.00008144    0.00018398
     atom   10 type  3   force =    -0.00010270    0.00014584    0.00008890
     atom   11 type  3   force =    -0.00010438   -0.00007667   -0.00031912
     atom   12 type  3   force =    -0.00014151    0.00008332   -0.00019012
     atom   13 type  3   force =    -0.00015988   -0.00015890    0.00000318
     atom   14 type  3   force =     0.00014313    0.00007800    0.00029646
     atom   15 type  3   force =     0.00019896    0.00009147    0.00014970
     atom   16 type  3   force =     0.00013080   -0.00017180   -0.00034585
     atom   17 type  3   force =    -0.00018371    0.00004468    0.00028311
     atom   18 type  3   force =    -0.00012235   -0.00009330    0.00013257

     Total force =     0.131099     Total SCF correction =     0.001568

     Computing stress (Cartesian axis) and pressure

     negative rho (up, down):  5.273E-01 0.000E+00
          total   stress  (Ry/bohr**3)                   (kbar)     P=     -445.54
  -0.00347548   0.00000000   0.00000000         -511.26        0.00        0.00
   0.00000000  -0.00264314  -0.00004083            0.00     -388.82       -6.01
   0.00000000  -0.00004083  -0.00296763            0.00       -6.01     -436.55

     kinetic stress (kbar)  33087.06      0.00      0.00
                                0.00  33041.30    -14.44
                                0.00    -14.44  32811.66

     local   stress (kbar)   6671.08     -0.06     -0.09
                               -0.06    430.91   9599.74
                               -0.09   9599.74     67.70

     nonloc. stress (kbar)  -7028.35      0.00      0.00
                                0.00  -7008.57     39.66
                                0.00     39.66  -7024.91

     hartree stress (kbar)   8647.42      0.04      0.05
                                0.04  10956.59  -3516.93
                                0.05  -3516.93  10168.51

     exc-cor stress (kbar)   8042.11      0.00      0.00
                                0.00   8046.06     -7.05
                                0.00     -7.05   8050.50

     corecor stress (kbar) -15757.76      0.00     -0.00
                                0.00 -15760.89      0.04
                               -0.00      0.04 -15757.04

     ewald   stress (kbar) -34172.83      0.00     -0.00
                                0.00 -30094.22  -6107.02
                               -0.00  -6107.02 -28752.96

     hubbard stress (kbar)      0.00      0.00      0.00
                                0.00      0.00      0.00
                                0.00      0.00      0.00

     DFT-D   stress (kbar)      0.00      0.00      0.00
                                0.00      0.00      0.00
                                0.00      0.00      0.00

     XDM     stress (kbar)      0.00      0.00      0.00
                                0.00      0.00      0.00
                                0.00      0.00      0.00

     dft-nl  stress (kbar)      0.00      0.00      0.00
                                0.00      0.00      0.00
                                0.00      0.00      0.00

     TS-vdW  stress (kbar)      0.00      0.00      0.00
                                0.00      0.00      0.00
                                0.00      0.00      0.00

[...]

                                0.00      0.00      0.00

     Writing all to output data dir new_calculations/myprefix.save/

     General routines

     Parallel routines

     PAW routines

   This run was terminated on:   0: 0: 9  21May2023

   JOB DONE.