     Program PWSCF v.7.0 starts on 20May2023 at 18: 6:49

     Reading input from espresso_22118.pwi
Warning: card &CELL ignored
Warning: card / ignored

     Current dimensions of program PWSCF are:
     Max number of different atomic species (ntypx) = 10
     Max number of k-points (npk) =  40000
     Max angular momentum in pseudopotentials (lmaxx) =  4
     file O.pbe-n-kjpaw_psl.0.1.UPF: wavefunction(s)  2P renormalized

     gamma-point specific algorithms are used
     Message from routine setup:
     using ibrav=0 with symmetry is DISCOURAGED, use correct ibrav instead

     Subspace diagonalization in iterative solution of the eigenvalue problem:
     a serial algorithm will be used

     Using Slab Decomposition

     bravais-lattice index     =            0
     lattice parameter (alat)  =      10.9672  a.u.
     unit-cell volume          =    1653.4938 (a.u.)^3
     number of atoms/cell      =           18
     number of atomic types    =            3
     number of electrons       =       154.00
     number of Kohn-Sham states=           92
     kinetic-energy cutoff     =      30.0000  Ry
     charge density cutoff     =     240.0000  Ry
     scf convergence threshold =      1.0E-06
     mixing beta               =       0.7000
     number of iterations used =            8  plain     mixing
     Exchange-correlation= SLA  PW   PBX  PBC
                           (   1   4   3   4   0   0   0)

     celldm(1)=  10.967211  celldm(2)=   0.000000  celldm(3)=   0.000000
     celldm(4)=   0.000000  celldm(5)=   0.000000  celldm(6)=   0.000000

     crystal axes: (cart. coord. in units of alat)
               a(1) = (   1.000000   0.000000   0.000000 )
               a(2) = (  -0.341242   0.942316   0.000000 )
               a(3) = (  -0.406856  -0.118983   1.330202 )

     reciprocal axes: (cart. coord. in units 2 pi/alat)
               b(1) = (  1.000000  0.362131  0.338252 )
               b(2) = (  0.000000  1.061215  0.094923 )
               b(3) = (  0.000000  0.000000  0.751766 )

     PseudoPot. # 1 for Na read from file:
     /home/pragov/projects/rrg-bengioy-ad/pragov/crystal_structure_design/SSSP/na_pbe_v1.5.uspp.F.UPF
     MD5 check sum: 44600605ef58000f06b90626533354dc
     Pseudo is Ultrasoft, Zval =  9.0
     Generated by new atomic code, or converted to UPF format
     Using radial grid of  819 points,  5 beta functions with:
                l(1) =   0
                l(2) =   0
                l(3) =   1
                l(4) =   1
                l(5) =   2
     Q(r) pseudized with  8 coefficients,  rinner =    1.250   1.250   1.250
                                                       1.250   1.250

     PseudoPot. # 2 for Co read from file:
     /home/pragov/projects/rrg-bengioy-ad/pragov/crystal_structure_design/SSSP/Co_pbe_v1.2.uspp.F.UPF
     MD5 check sum: 5f91765df6ddd3222702df6e7b74a16d
     Pseudo is Ultrasoft + core correction, Zval = 17.0
     Generated by new atomic code, or converted to UPF format
     Using radial grid of  863 points,  6 beta functions with:
                l(1) =   0
                l(2) =   0
                l(3) =   1
                l(4) =   1
                l(5) =   2
                l(6) =   2
     Q(r) pseudized with  8 coefficients,  rinner =    1.200   1.200   1.200
                                                       1.200   1.200

     PseudoPot. # 3 for O  read from file:
     /home/pragov/projects/rrg-bengioy-ad/pragov/crystal_structure_design/SSSP/O.pbe-n-kjpaw_psl.0.1.UPF
     MD5 check sum: 0234752ac141de4415c5fc33072bef88
     Pseudo is Projector augmented-wave + core cor, Zval =  6.0
     Generated using "atomic" code by A. Dal Corso  v.5.0.99 svn rev. 10869
     Shape of augmentation charge: BESSEL
     Using radial grid of 1095 points,  4 beta functions with:
                l(1) =   0
                l(2) =   0
                l(3) =   1
                l(4) =   1
     Q(r) pseudized with 0 coefficients

     atomic species   valence    mass     pseudopotential
        Na             9.00    22.98977     Na( 1.00)
        Co            17.00    58.93319     Co( 1.00)
        O              6.00    15.99900     O ( 1.00)

      2 Sym. Ops., with inversion, found

                                    s                        frac. trans.

      isym =  1     identity

 cryst.   s( 1) = (     1          0          0      )
                  (     0          1          0      )
                  (     0          0          1      )

 cart.    s( 1) = (  1.0000000  0.0000000 -0.0000000 )
                  (  0.0000000  1.0000000 -0.0000000 )
                  (  0.0000000  0.0000000  1.0000000 )

      isym =  2     inversion

 cryst.   s( 2) = (    -1          0          0      )
                  (     0         -1          0      )
                  (     0          0         -1      )

 cart.    s( 2) = ( -1.0000000 -0.0000000  0.0000000 )
                  (  0.0000000 -1.0000000  0.0000000 )
                  (  0.0000000  0.0000000 -1.0000000 )

   Cartesian axes

     site n.     atom                  positions (alat units)
         1           Na  tau(   1) = (   0.2042255   0.1649621   0.5704410  )
         2           Na  tau(   2) = (  -0.0523870   0.6790390   0.2152120  )
         3           Na  tau(   3) = (   0.5222344   0.6306478   0.5016190  )
         4           Na  tau(   4) = (   0.1990501   0.2271884   0.0201446  )
         5           Na  tau(   5) = (   0.3042895   0.1442944   1.1149896  )
         6           Na  tau(   6) = (   0.0476770   0.6583713   0.7597606  )
         7           Na  tau(   7) = (  -0.2703318   0.1926856   0.8285825  )
         8           Na  tau(   8) = (   0.0528525   0.5961449   1.3100570  )
         9           Co  tau(   9) = (  -0.4807377   0.6449321   0.9977948  )
        10           Co  tau(  10) = (   0.7326402   0.1784012   0.3324067  )
        11           O   tau(  11) = (   0.1984085   0.9018827   0.4348322  )
        12           O   tau(  12) = (   0.5508045   0.3592921   0.1573256  )
        13           O   tau(  13) = (  -0.2989020   0.4640413   1.1728759  )
        14           O   tau(  14) = (   0.2736258   0.8238983   1.0568997  )
        15           O   tau(  15) = (   0.0534940  -0.0785493   0.8953693  )
        16           O   tau(  16) = (   0.3718433   0.4221511   0.8366808  )
        17           O   tau(  17) = (  -0.0217232  -0.0005649   0.2733019  )
        18           O   tau(  18) = (  -0.1199408   0.4011823   0.4935207  )

   Crystallographic axes

     site n.     atom                  positions (cryst. coord.)
         1           Na  tau(   1) = (  0.4569160  0.2292080  0.4288380  )
         2           Na  tau(   2) = (  0.2663100  0.7410350  0.1617890  )
         3           Na  tau(   3) = (  0.9202850  0.7168680  0.3771000  )
         4           Na  tau(   4) = (  0.2881360  0.2430080  0.0151440  )
         5           Na  tau(   5) = (  0.7336900  0.2589650  0.8382110  )
         6           Na  tau(   6) = (  0.5430840  0.7707920  0.5711620  )
         7           Na  tau(   7) = (  0.0797150  0.2831320  0.6229000  )
         8           Na  tau(   8) = (  0.7118640  0.7569920  0.9848560  )
         9           Co  tau(   9) = (  0.0903180  0.7791250  0.7501080  )
        10           Co  tau(  10) = (  0.9096820  0.2208750  0.2498920  )
        11           O   tau(  11) = (  0.6720910  0.9983670  0.3268920  )
        12           O   tau(  12) = (  0.7341310  0.3962200  0.1182720  )
        13           O   tau(  13) = (  0.2658690  0.6037800  0.8817280  )
        14           O   tau(  14) = (  0.9294830  0.9746570  0.7945410  )
        15           O   tau(  15) = (  0.3279090  0.0016330  0.6731080  )
        16           O   tau(  16) = (  0.8077260  0.5274130  0.6289880  )
        17           O   tau(  17) = (  0.0705170  0.0253430  0.2054590  )
        18           O   tau(  18) = (  0.1922740  0.4725870  0.3710120  )

     number of k points=     1  Methfessel-Paxton smearing, width (Ry)=  0.0010
                       cart. coord. in units 2pi/alat
        k(    1) = (   0.0000000   0.0000000   0.0000000), wk =   2.0000000

                       cryst. coord.
        k(    1) = (   0.0000000   0.0000000   0.0000000), wk =   2.0000000

     Check: negative core charge=   -0.000015

     Initial potential from superposition of free atoms

     starting charge     151.9496, renormalised to     154.0000
     Starting wfcs are   98 randomized atomic wfcs
     Checking if some PAW data can be deallocated...

     Self-consistent Calculation

     iteration #  1     ecut=    30.00 Ry     beta= 0.70
     Davidson diagonalization with overlap

     ethr =  1.00E-02,  avg # of iterations =  5.0

     total energy              =   -1686.99442645 Ry
     estimated scf accuracy    <       8.99985001 Ry

[...]

     total energy              =   -1692.88171795 Ry
     estimated scf accuracy    <       0.00000154 Ry

     iteration # 35     ecut=    30.00 Ry     beta= 0.70
     Davidson diagonalization with overlap

     ethr =  9.98E-10,  avg # of iterations =  1.0

     End of self-consistent calculation

          k = 0.0000 0.0000 0.0000 (  2293 PWs)   bands (ev):

   -90.9385 -90.9383 -54.3453 -54.3450 -54.0802 -54.0784 -54.0575 -54.0558
   -46.0611 -46.0604 -45.9055 -45.9021 -45.7913 -45.7828 -45.7706 -45.7694
   -18.0340 -18.0338 -18.0035 -17.9990 -17.9886 -17.9812 -17.8921 -17.8784
   -17.8427 -17.8400 -17.8126 -17.7947 -17.7784 -17.7502 -17.7340 -17.7233
   -17.7225 -17.7088 -17.7036 -17.6746 -17.6718 -17.6575 -17.6537 -17.6439
   -12.7853 -12.5765 -12.1486 -12.1476 -12.0939 -12.0525 -12.0441 -12.0405
     0.2394   0.3282   0.4104   0.5790   0.6366   0.7054   0.9735   1.0327
     1.0664   1.1711   1.4245   1.4716   1.5723   1.7438   1.8666   1.9391
     2.1522   2.3489   3.0004   3.2196   3.3018   3.3346   3.4228   3.5004
     4.3705   4.6044   4.6973   4.7437   5.4244   5.4364   5.4734   5.5735
     6.3762   6.5195   7.0829  10.1555  10.3078  10.9246  11.8608  11.9434
    12.0886  12.7005  12.9816  13.2464

     occupation numbers
     1.0000   1.0000   1.0000   1.0000   1.0000   1.0000   1.0000   1.0000
     1.0000   1.0000   1.0000   1.0000   1.0000   1.0000   1.0000   1.0000
     1.0000   1.0000   1.0000   1.0000   1.0000   1.0000   1.0000   1.0000
     1.0000   1.0000   1.0000   1.0000   1.0000   1.0000   1.0000   1.0000
     1.0000   1.0000   1.0000   1.0000   1.0000   1.0000   1.0000   1.0000
     1.0000   1.0000   1.0000   1.0000   1.0000   1.0000   1.0000   1.0000
     1.0000   1.0000   1.0000   1.0000   1.0000   1.0000   1.0000   1.0000
     1.0000   1.0000   1.0000   1.0000   1.0000   1.0000   1.0000   1.0000
     1.0000   1.0000   1.0000   1.0000   1.0000   1.0000   1.0000   1.0000
     1.0000   1.0000   1.0000   1.0000   0.8364   0.1637  -0.0000  -0.0000
    -0.0000  -0.0000  -0.0000  -0.0000  -0.0000  -0.0000  -0.0000  -0.0000
    -0.0000  -0.0000  -0.0000  -0.0000

     the Fermi energy is     5.4304 ev

!    total energy              =   -1692.88171784 Ry
     estimated scf accuracy    <       0.00000028 Ry
     smearing contrib. (-TS)   =      -0.00028295 Ry
     internal energy E=F+TS    =   -1692.88143490 Ry

     The total energy is F=E-TS. E is the sum of the following terms:
     one-electron contribution =   -1199.91222214 Ry
     hartree contribution      =     654.33210244 Ry
     xc contribution           =    -239.50101843 Ry
     ewald contribution        =    -831.59237331 Ry
     one-center paw contrib.   =     -76.20792346 Ry
      -> PAW hartree energy AE =     229.08102165 Ry
      -> PAW hartree energy PS =    -228.28620970 Ry
      -> PAW xc energy AE      =    -136.11506210 Ry
      -> PAW xc energy PS      =      59.11232669 Ry
      -> total E_H with PAW    =     655.12691439 Ry
      -> total E_XC with PAW   =    -316.50375383 Ry

     convergence has been achieved in  35 iterations

     Forces acting on atoms (cartesian axes, Ry/au):

     atom    1 type  1   force =     0.00089962    0.00092051   -0.00261278
     atom    2 type  1   force =    -0.00125502   -0.00052164   -0.00696465
     atom    3 type  1   force =    -0.00213244   -0.00144576   -0.00012389
     atom    4 type  1   force =     0.00014793   -0.00115516   -0.00050684
     atom    5 type  1   force =     0.00125502    0.00052164    0.00696465
     atom    6 type  1   force =    -0.00089962   -0.00092051    0.00261278
     atom    7 type  1   force =     0.00213244    0.00144576    0.00012389
     atom    8 type  1   force =    -0.00014793    0.00115516    0.00050684
     atom    9 type  2   force =     0.00022359   -0.00002950    0.00972564
     atom   10 type  2   force =    -0.00022359    0.00002950   -0.00972564
     atom   11 type  3   force =     0.01531199    0.02198092    0.01499871
     atom   12 type  3   force =     0.00186050   -0.00342675   -0.00635467
     atom   13 type  3   force =    -0.00186050    0.00342675    0.00635467
     atom   14 type  3   force =     0.00241282   -0.00615079    0.00738126
     atom   15 type  3   force =    -0.01531199   -0.02198092   -0.01499871
     atom   16 type  3   force =     0.01531170    0.02405369   -0.00972587
     atom   17 type  3   force =    -0.00241282    0.00615079   -0.00738126
     atom   18 type  3   force =    -0.01531170   -0.02405369    0.00972587
     The non-local contrib.  to forces
     atom    1 type  1   force =     0.15085153   -0.01030361    0.12955861
     atom    2 type  1   force =    -0.03055010    0.01568610   -0.17462757
     atom    3 type  1   force =    -0.07218488   -0.06025849    0.12769094
     atom    4 type  1   force =     0.05188631   -0.00448776    0.02970348
     atom    5 type  1   force =     0.03055010   -0.01568610    0.17462757
     atom    6 type  1   force =    -0.15085153    0.01030361   -0.12955861
     atom    7 type  1   force =     0.07218488    0.06025849   -0.12769094
     atom    8 type  1   force =    -0.05188631    0.00448776   -0.02970348
     atom    9 type  2   force =    -0.03841030    0.08588088   -0.21246057
     atom   10 type  2   force =     0.03841030   -0.08588088    0.21246057
     atom   11 type  3   force =     0.49236580    0.52354583   -0.24869726
     atom   12 type  3   force =     0.37513189   -0.34293466    0.38140063
     atom   13 type  3   force =    -0.37513189    0.34293466   -0.38140063
     atom   14 type  3   force =     0.56069647   -0.36758021   -0.19786386
     atom   15 type  3   force =    -0.49236580   -0.52354583    0.24869726
     atom   16 type  3   force =     0.34402270    0.57410547    0.38283414
     atom   17 type  3   force =    -0.56069647    0.36758021    0.19786386
     atom   18 type  3   force =    -0.34402270   -0.57410547   -0.38283414
     The ionic contribution  to forces
     atom    1 type  1   force =     2.14081726    0.91139425    1.07922222
     atom    2 type  1   force =     3.02271339    0.02389213   -0.88555481
     atom    3 type  1   force =    -2.22142723   -1.11180891   -2.10665047
     atom    4 type  1   force =     2.49938679    2.59213723    1.00885142
     atom    5 type  1   force =    -3.02271339   -0.02389213    0.88555481
     atom    6 type  1   force =    -2.14081726   -0.91139425   -1.07922222
     atom    7 type  1   force =     2.22142723    1.11180891    2.10665047
     atom    8 type  1   force =    -2.49938679   -2.59213723   -1.00885142
     atom    9 type  2   force =     3.12153232   -0.20346455    5.25392149
     atom   10 type  2   force =    -3.12153232    0.20346455   -5.25392149
     atom   11 type  3   force =    -7.97476757   -8.62628536    2.77235277
     atom   12 type  3   force =    -7.71774172    6.21349504   -7.09473586
     atom   13 type  3   force =     7.71774172   -6.21349504    7.09473586
     atom   14 type  3   force =    -9.28718260    5.98319622    3.11853124
     atom   15 type  3   force =     7.97476757    8.62628536   -2.77235277
     atom   16 type  3   force =    -6.88442590   -8.63187598   -5.43044030
     atom   17 type  3   force =     9.28718260   -5.98319622   -3.11853124
     atom   18 type  3   force =     6.88442590    8.63187598    5.43044030
     The local contribution  to forces
     atom    1 type  1   force =    -2.29077453   -0.90006654   -1.21153021
     atom    2 type  1   force =    -2.99339749   -0.04017618    1.05364140
     atom    3 type  1   force =     2.29152316    1.17053153    1.97866254
     atom    4 type  1   force =    -2.55106792   -2.58878952   -1.03868051
     atom    5 type  1   force =     2.99330371    0.04019018   -1.05318377
     atom    6 type  1   force =     2.29069762    0.90002544    1.21093962
     atom    7 type  1   force =    -2.29146344   -1.17046954   -1.97927827
     atom    8 type  1   force =     2.55110282    2.58879283    1.03938800
     atom    9 type  2   force =    -3.08341705    0.11929096   -5.03863433
     atom   10 type  2   force =     3.08350731   -0.11943440    5.03857405
     atom   11 type  3   force =     7.50319737    8.13039446   -2.51136159
     atom   12 type  3   force =     7.34832804   -5.87736905    6.71136234
     atom   13 type  3   force =    -7.34812533    5.87717346   -6.71101107
     atom   14 type  3   force =     8.73464308   -5.62545689   -2.91551502
     atom   15 type  3   force =    -7.50296554   -8.13008445    2.51109513
     atom   16 type  3   force =     6.55924883    8.08791694    5.04173844
     atom   17 type  3   force =    -8.73488144    5.62564956    2.91565823
     atom   18 type  3   force =    -6.55944856   -8.08826252   -5.04213026
     The core correction contribution to forces
     atom    1 type  1   force =     0.00000000    0.00000000    0.00000000
     atom    2 type  1   force =     0.00000000    0.00000000    0.00000000
     atom    3 type  1   force =     0.00000000    0.00000000    0.00000000
     atom    4 type  1   force =     0.00000000    0.00000000    0.00000000
     atom    5 type  1   force =     0.00000000    0.00000000    0.00000000
     atom    6 type  1   force =     0.00000000    0.00000000    0.00000000
     atom    7 type  1   force =     0.00000000    0.00000000    0.00000000
     atom    8 type  1   force =     0.00000000    0.00000000    0.00000000
     atom    9 type  2   force =     0.00061122   -0.00200285    0.00606851
     atom   10 type  2   force =    -0.00061198    0.00200288   -0.00606568
     atom   11 type  3   force =    -0.00542339   -0.00558155    0.00263021
     atom   12 type  3   force =    -0.00379460    0.00336468   -0.00420317
     atom   13 type  3   force =     0.00379510   -0.00336522    0.00420306
     atom   14 type  3   force =    -0.00593627    0.00382568    0.00225579
     atom   15 type  3   force =     0.00542406    0.00558290   -0.00262999
     atom   16 type  3   force =    -0.00367635   -0.00631400   -0.00414384
     atom   17 type  3   force =     0.00593575   -0.00382502   -0.00225597
     atom   18 type  3   force =     0.00367542    0.00631259    0.00414390
     The Hubbard contrib.    to forces
     atom    1 type  1   force =     0.00000000    0.00000000    0.00000000
     atom    2 type  1   force =     0.00000000    0.00000000    0.00000000
     atom    3 type  1   force =     0.00000000    0.00000000    0.00000000
     atom    4 type  1   force =     0.00000000    0.00000000    0.00000000
     atom    5 type  1   force =     0.00000000    0.00000000    0.00000000
     atom    6 type  1   force =     0.00000000    0.00000000    0.00000000
     atom    7 type  1   force =     0.00000000    0.00000000    0.00000000
     atom    8 type  1   force =     0.00000000    0.00000000    0.00000000
     atom    9 type  2   force =     0.00000000    0.00000000    0.00000000
     atom   10 type  2   force =     0.00000000    0.00000000    0.00000000
     atom   11 type  3   force =     0.00000000    0.00000000    0.00000000
     atom   12 type  3   force =     0.00000000    0.00000000    0.00000000
     atom   13 type  3   force =     0.00000000    0.00000000    0.00000000
     atom   14 type  3   force =     0.00000000    0.00000000    0.00000000
     atom   15 type  3   force =     0.00000000    0.00000000    0.00000000
     atom   16 type  3   force =     0.00000000    0.00000000    0.00000000
     atom   17 type  3   force =     0.00000000    0.00000000    0.00000000
     atom   18 type  3   force =     0.00000000    0.00000000    0.00000000
     The SCF correction term to forces
     atom    1 type  1   force =     0.00000868   -0.00010092    0.00015142
     atom    2 type  1   force =    -0.00001654    0.00007262   -0.00043016
     atom    3 type  1   force =    -0.00004523    0.00008472    0.00018088
     atom    4 type  1   force =    -0.00006088   -0.00001383   -0.00040592
     atom    5 type  1   force =     0.00011889   -0.00009402   -0.00004042
     atom    6 type  1   force =     0.00007486    0.00014736    0.00046882
     atom    7 type  1   force =    -0.00001797   -0.00015750    0.00045042
     atom    8 type  1   force =     0.00001873    0.00001308   -0.00035096
     atom    9 type  2   force =    -0.00010642    0.00027277    0.00084426
     atom   10 type  2   force =    -0.00001072   -0.00011594   -0.00075938
     atom   11 type  3   force =    -0.00004946   -0.00006409    0.00008530
     atom   12 type  3   force =    -0.00005127    0.00000430   -0.00018399
     atom   13 type  3   force =    -0.00012825    0.00016595   -0.00017794
     atom   14 type  3   force =     0.00018552   -0.00012383   -0.00003151
     atom   15 type  3   force =    -0.00016152   -0.00019052    0.00020238
     atom   16 type  3   force =     0.00011864    0.00018718    0.00029218
     atom   17 type  3   force =     0.00004012   -0.00004598   -0.00012076
     atom   18 type  3   force =     0.00003446    0.00009164    0.00011256

     Total force =     0.065813     Total SCF correction =     0.001703

     Computing stress (Cartesian axis) and pressure

          total   stress  (Ry/bohr**3)                   (kbar)     P=     -377.02
  -0.00257829  -0.00012942  -0.00005253         -379.28      -19.04       -7.73
  -0.00012942  -0.00268640  -0.00002656          -19.04     -395.18       -3.91
  -0.00005253  -0.00002656  -0.00242410           -7.73       -3.91     -356.60

     kinetic stress (kbar)  21171.63    -96.51    -34.24
                              -96.51  21095.93      8.18
                              -34.24      8.18  21425.61

     local   stress (kbar)  14860.65   2548.86  -1674.09
                             2548.86  10062.26   1051.20
                            -1674.09   1051.20  19484.00

     nonloc. stress (kbar) -24416.38    -34.79     10.24
                              -34.79 -24422.86     -0.02
                               10.24     -0.02 -24430.10

     hartree stress (kbar)  19241.88  -1143.64    615.64
                            -1143.64  21372.44   -414.89
                              615.64   -414.89  17599.13

     exc-cor stress (kbar)  -6029.47     -1.20      2.26
                               -1.20  -6028.58     -1.18
                                2.26     -1.18  -6034.98

     corecor stress (kbar)   -699.44      0.74     -0.12
                                0.74   -699.27      0.01
                               -0.12      0.01   -699.88

     ewald   stress (kbar) -24508.15  -1292.49   1072.59
                            -1292.49 -21775.10   -647.21
                             1072.59   -647.21 -27700.37

     hubbard stress (kbar)      0.00      0.00      0.00
                                0.00      0.00      0.00
                                0.00      0.00      0.00

     DFT-D   stress (kbar)      0.00      0.00      0.00
                                0.00      0.00      0.00
                                0.00      0.00      0.00

     XDM     stress (kbar)      0.00      0.00      0.00
                                0.00      0.00      0.00
                                0.00      0.00      0.00

     dft-nl  stress (kbar)      0.00      0.00      0.00
                                0.00      0.00      0.00
                                0.00      0.00      0.00

     TS-vdW  stress (kbar)      0.00      0.00      0.00
                                0.00      0.00      0.00
                                0.00      0.00      0.00

[...]

                                0.00      0.00      0.00

     Writing all to output data dir new_calculations/myprefix.save/

     General routines

     Parallel routines

     PAW routines

   This run was terminated on:  18: 7:36  20May2023

   JOB DONE.