     Program PWSCF v.7.0 starts on 20May2023 at  9:22:22

     Reading input from espresso_11238.pwi
Warning: card &CELL ignored
Warning: card / ignored

     Current dimensions of program PWSCF are:
     Max number of different atomic species (ntypx) = 10
     Max number of k-points (npk) =  40000
     Max angular momentum in pseudopotentials (lmaxx) =  4
     file In.pbe-dn-rrkjus_psl.0.2.2.UPF: wavefunction(s)  5S renormalized

     gamma-point specific algorithms are used
     Message from routine setup:
     using ibrav=0 with symmetry is DISCOURAGED, use correct ibrav instead

     Subspace diagonalization in iterative solution of the eigenvalue problem:
     a serial algorithm will be used

     Using Slab Decomposition

     bravais-lattice index     =            0
     lattice parameter (alat)  =       8.1627  a.u.
     unit-cell volume          =    1935.7868 (a.u.)^3
     number of atoms/cell      =           10
     number of atomic types    =            3
     number of electrons       =       106.00
     number of Kohn-Sham states=           64
     kinetic-energy cutoff     =      30.0000  Ry
     charge density cutoff     =     240.0000  Ry
     scf convergence threshold =      1.0E-06
     mixing beta               =       0.7000
     number of iterations used =            8  plain     mixing
     Exchange-correlation= PBE
                           (   1   4   3   4   0   0   0)

     celldm(1)=   8.162699  celldm(2)=   0.000000  celldm(3)=   0.000000
     celldm(4)=   0.000000  celldm(5)=   0.000000  celldm(6)=   0.000000

     crystal axes: (cart. coord. in units of alat)
               a(1) = (   1.000000   0.000000   0.000000 )
               a(2) = (  -0.500000   0.866025   0.000000 )
               a(3) = (   0.000000   0.000000   4.109847 )

     reciprocal axes: (cart. coord. in units 2 pi/alat)
               b(1) = (  1.000000  0.577350  0.000000 )
               b(2) = (  0.000000  1.154701  0.000000 )
               b(3) = (  0.000000  0.000000  0.243318 )

     PseudoPot. # 1 for Eu read from file:
     /home/pragov/projects/rrg-bengioy-ad/pragov/crystal_structure_design/SSSP/Eu.GGA-PBE-paw-v1.0.UPF
     MD5 check sum: acec5fd9176fb57ec8e299eae1ecaf48
     Pseudo is Projector augmented-wave + core cor, Zval = 17.0
     Generated using ATOMPAW code
     Shape of augmentation charge: BESSEL
     Using radial grid of 1109 points,  8 beta functions with:
                l(1) =   0
                l(2) =   0
                l(3) =   1
                l(4) =   1
                l(5) =   2
                l(6) =   2
                l(7) =   3
                l(8) =   3
     Q(r) pseudized with 0 coefficients

     PseudoPot. # 2 for In read from file:
     /home/pragov/projects/rrg-bengioy-ad/pragov/crystal_structure_design/SSSP/In.pbe-dn-rrkjus_psl.0.2.2.UPF
     MD5 check sum: 25e7c42c3b55b68f4bf926be2e7201a4
     Pseudo is Ultrasoft + core correction, Zval = 13.0
     Generated using "atomic" code by A. Dal Corso  v.5.0.99 svn rev. 10869
     Using radial grid of 1241 points,  6 beta functions with:
                l(1) =   0
                l(2) =   0
                l(3) =   1
                l(4) =   1
                l(5) =   2
                l(6) =   2
     Q(r) pseudized with 0 coefficients

     PseudoPot. # 3 for As read from file:
     /home/pragov/projects/rrg-bengioy-ad/pragov/crystal_structure_design/SSSP/As.pbe-n-rrkjus_psl.0.2.UPF
     MD5 check sum: 767315de957beeeb34f87d97bf945c8f
     Pseudo is Ultrasoft + core correction, Zval =  5.0
     Generated using "atomic" code by A. Dal Corso  v.5.0.99 svn rev. 10869
     Using radial grid of 1209 points,  4 beta functions with:
                l(1) =   0
                l(2) =   0
                l(3) =   1
                l(4) =   1
     Q(r) pseudized with 0 coefficients

     atomic species   valence    mass     pseudopotential
        Eu            17.00   151.96400     Eu( 1.00)
        In            13.00   114.81800     In( 1.00)
        As             5.00    74.92159     As( 1.00)

     24 Sym. Ops., with inversion, found (12 have fractional translation)

                                    s                        frac. trans.

      isym =  1     identity

 cryst.   s( 1) = (     1          0          0      )
                  (     0          1          0      )
                  (     0          0          1      )

 cart.    s( 1) = (  1.0000000  0.0000000  0.0000000 )
                  (  0.0000000  1.0000000  0.0000000 )
                  (  0.0000000  0.0000000  1.0000000 )

      isym =  2     180 deg rotation - cart. axis [0,0,1]

 cryst.   s( 2) = (    -1          0          0      )    f =(  0.0000000 )
                  (     0         -1          0      )       (  0.0000000 )
                  (     0          0          1      )       (  0.5000000 )

 cart.    s( 2) = ( -1.0000000 -0.0000000  0.0000000 )    f =(  0.0000000 )
                  (  0.0000000 -1.0000000  0.0000000 )       (  0.0000000 )
                  (  0.0000000  0.0000000  1.0000000 )       (  2.0549233 )

[...]

      isym =  4     180 deg rotation - cart. axis [1,0,0]

[...]

      isym =  5      60 deg rotation - cryst. axis [0,0,1]

[...]

 cryst.   s( 8) = (    -1         -1          0      )
                  (     1          0          0      )
                  (     0          0          1      )

 cart.    s( 8) = ( -0.5000000  0.8660254  0.0000000 )
                  ( -0.8660254 -0.5000000  0.0000000 )
                  (  0.0000000  0.0000000  1.0000000 )

[...]

 cryst.   s( 9) = (     0         -1          0      )    f =(  0.0000000 )
                  (    -1          0          0      )       (  0.0000000 )
                  (     0          0         -1      )       (  0.5000000 )

 cart.    s( 9) = (  0.5000000 -0.8660254  0.0000000 )    f =(  0.0000000 )
                  ( -0.8660254 -0.5000000  0.0000000 )       (  0.0000000 )
                  (  0.0000000  0.0000000 -1.0000000 )       (  2.0549233 )

[...]

 cryst.   s(10) = (     1          1          0      )    f =(  0.0000000 )
                  (     0         -1          0      )       (  0.0000000 )
                  (     0          0         -1      )       (  0.5000000 )

 cart.    s(10) = (  0.5000000  0.8660255  0.0000000 )    f =(  0.0000000 )
                  (  0.8660254 -0.5000000  0.0000000 )       (  0.0000000 )
                  (  0.0000000  0.0000000 -1.0000000 )       (  2.0549233 )

[...]

 cryst.   s(11) = (    -1         -1          0      )
                  (     0          1          0      )
                  (     0          0         -1      )

 cart.    s(11) = ( -0.5000000 -0.8660255  0.0000000 )
                  ( -0.8660254  0.5000000  0.0000000 )
                  (  0.0000000  0.0000000 -1.0000000 )

      isym = 12     180 deg rotation - cryst. axis [1,1,0]

[...]

      isym = 13     inversion

[...]

      isym = 14     inv. 180 deg rotation - cart. axis [0,0,1]

[...]

      isym = 16     inv. 180 deg rotation - cart. axis [1,0,0]

[...]

      isym = 17     inv.  60 deg rotation - cryst. axis [0,0,1]

[...]

 cryst.   s(22) = (    -1         -1          0      )    f =(  0.0000000 )
                  (     0          1          0      )       (  0.0000000 )
                  (     0          0          1      )       (  0.5000000 )

 cart.    s(22) = ( -0.5000000 -0.8660255  0.0000000 )    f =(  0.0000000 )
                  ( -0.8660254  0.5000000  0.0000000 )       (  0.0000000 )
                  (  0.0000000  0.0000000  1.0000000 )       (  2.0549233 )

[...]

      isym = 24     inv. 180 deg rotation - cryst. axis [1,1,0]

 cryst.   s(24) = (     0         -1          0      )
                  (    -1          0          0      )
                  (     0          0          1      )

 cart.    s(24) = (  0.5000000 -0.8660254  0.0000000 )
                  ( -0.8660254 -0.5000000  0.0000000 )
                  (  0.0000000  0.0000000  1.0000000 )

   Cartesian axes

     site n.     atom                  positions (alat units)
         1           Eu  tau(   1) = (   0.0000000   0.0000000   2.0549233  )
         2           Eu  tau(   2) = (   0.0000000   0.0000000   0.0000000  )
         3           In  tau(   3) = (  -0.0000005   0.5773505   3.4094506  )
         4           In  tau(   4) = (   0.5000005   0.2886748   1.3545273  )
         5           In  tau(   5) = (   0.5000005   0.2886748   0.7003959  )
         6           In  tau(   6) = (  -0.0000005   0.5773505   2.7553192  )
         7           As  tau(   7) = (   0.5000005   0.2886748   2.4823350  )
         8           As  tau(   8) = (   0.5000005   0.2886748   3.6824348  )
         9           As  tau(   9) = (  -0.0000005   0.5773505   0.4274117  )
        10           As  tau(  10) = (  -0.0000005   0.5773505   1.6275115  )

   Crystallographic axes

     site n.     atom                  positions (cryst. coord.)
         1           Eu  tau(   1) = (  0.0000000  0.0000000  0.5000000  )
         2           Eu  tau(   2) = (  0.0000000  0.0000000  0.0000000  )
         3           In  tau(   3) = (  0.3333330  0.6666670  0.8295810  )
         4           In  tau(   4) = (  0.6666670  0.3333330  0.3295810  )
         5           In  tau(   5) = (  0.6666670  0.3333330  0.1704190  )
         6           In  tau(   6) = (  0.3333330  0.6666670  0.6704190  )
         7           As  tau(   7) = (  0.6666670  0.3333330  0.6039970  )
         8           As  tau(   8) = (  0.6666670  0.3333330  0.8960030  )
         9           As  tau(   9) = (  0.3333330  0.6666670  0.1039970  )
        10           As  tau(  10) = (  0.3333330  0.6666670  0.3960030  )

     number of k points=     1  Methfessel-Paxton smearing, width (Ry)=  0.0010
                       cart. coord. in units 2pi/alat
        k(    1) = (   0.0000000   0.0000000   0.0000000), wk =   2.0000000

                       cryst. coord.
        k(    1) = (   0.0000000   0.0000000   0.0000000), wk =   2.0000000

     Initial potential from superposition of free atoms

     starting charge     105.9747, renormalised to     106.0000
     Starting wfcs are  116 randomized atomic wfcs
     Checking if some PAW data can be deallocated...

     Self-consistent Calculation

     iteration #  1     ecut=    30.00 Ry     beta= 0.70
     Davidson diagonalization with overlap

     ethr =  1.00E-02,  avg # of iterations =  2.0

     total energy              =   -1848.03112867 Ry
     estimated scf accuracy    <      76.05740208 Ry

[...]

     negative rho (up, down):  6.807E-01 0.000E+00

[...]

     ethr =  1.00E-02,  avg # of iterations =  1.0
     Minimization algorithm failed to find Fermi energy: reverting to bisection
     Possible cause: smearing is larger than the electronic band-gap.

[...]

     negative rho (up, down):  7.778E-02 0.000E+00

[...]

     total energy              =   -1935.02546403 Ry
     estimated scf accuracy    <       0.00000271 Ry

     iteration # 91     ecut=    30.00 Ry     beta= 0.70
     Davidson diagonalization with overlap

     ethr =  1.06E-09,  avg # of iterations =  1.0

     End of self-consistent calculation

          k = 0.0000 0.0000 0.0000 (  2667 PWs)   bands (ev):

   -32.0378 -32.0378 -11.1753 -11.1752 -10.8028 -10.8028 -10.8027 -10.8027
    -7.2369  -7.2369  -7.0336  -7.0336  -7.0332  -7.0332  -6.9588  -6.9588
    -6.9584  -6.9584  -6.9326  -6.9326  -6.9322  -6.9322  -6.8142  -6.8142
    -6.8138  -6.8138  -6.7346  -6.7345  -2.7500  -2.5070  -2.4352  -2.1313
     2.2103   2.6031   4.5536   5.4876   6.9016   7.1514   7.1514   7.2657
     7.2657   7.6684   7.6685   7.8467   7.8467   8.1926   8.3992   8.9266
     9.0561   9.0561   9.0578   9.0578   9.1735   9.1780   9.1784   9.2661
     9.2829   9.3346   9.3346   9.4174   9.4174   9.5675   9.7306   9.7877

     occupation numbers
     1.0000   1.0000   1.0000   1.0000   1.0000   1.0000   1.0000   1.0000
     1.0000   1.0000   1.0000   1.0000   1.0000   1.0000   1.0000   1.0000
     1.0000   1.0000   1.0000   1.0000   1.0000   1.0000   1.0000   1.0000
     1.0000   1.0000   1.0000   1.0000   1.0000   1.0000   1.0000   1.0000
     1.0000   1.0000   1.0000   1.0000   1.0000   1.0000   1.0000   1.0000
     1.0000   1.0000   1.0000   1.0000   1.0000   1.0000   1.0000   1.0000
     1.0000   1.0000   1.0000   1.0000   0.5198   0.2487   0.2316  -0.0000
    -0.0000  -0.0000  -0.0000  -0.0000  -0.0000  -0.0000  -0.0000  -0.0000

     the Fermi energy is     9.1738 ev

!    total energy              =   -1935.02546322 Ry
     estimated scf accuracy    <       0.00000058 Ry
     smearing contrib. (-TS)   =      -0.00068145 Ry
     internal energy E=F+TS    =   -1935.02478178 Ry

     The total energy is F=E-TS. E is the sum of the following terms:
     one-electron contribution =    -442.23918249 Ry
     hartree contribution      =     296.85580000 Ry
     xc contribution           =    -268.33761312 Ry
     ewald contribution        =    -607.10282163 Ry
     one-center paw contrib.   =    -914.20096454 Ry
      -> PAW hartree energy AE =     314.94743143 Ry
      -> PAW hartree energy PS =    -300.80400253 Ry
      -> PAW xc energy AE      =    -966.62999220 Ry
      -> PAW xc energy PS      =      38.28559876 Ry
      -> total E_H with PAW    =     310.99922890 Ry
      -> total E_XC with PAW   =   -1196.68200656 Ry

     convergence has been achieved in  91 iterations

     Forces acting on atoms (cartesian axes, Ry/au):

     atom    1 type  1   force =    -0.00000000    0.00000000   -0.00000000
     atom    2 type  1   force =    -0.00000000    0.00000000    0.00000000
     atom    3 type  2   force =    -0.00000000   -0.00000000   -0.00383328
     atom    4 type  2   force =     0.00000000    0.00000000   -0.00383328
     atom    5 type  2   force =     0.00000000    0.00000000    0.00383328
     atom    6 type  2   force =     0.00000000   -0.00000000    0.00383328
     atom    7 type  3   force =     0.00000000    0.00000000   -0.16552147
     atom    8 type  3   force =     0.00000000    0.00000000    0.16552147
     atom    9 type  3   force =     0.00000000    0.00000000   -0.16552147
     atom   10 type  3   force =     0.00000000    0.00000000    0.16552147
     The non-local contrib.  to forces
     atom    1 type  1   force =     0.00000000    0.00000000    0.00000000
     atom    2 type  1   force =     0.00000000    0.00000000   -0.00000000
     atom    3 type  2   force =     0.00000000    0.00000000    0.14646552
     atom    4 type  2   force =     0.00000000    0.00000000    0.14646552
     atom    5 type  2   force =    -0.00000000    0.00000000   -0.14646552
     atom    6 type  2   force =    -0.00000000   -0.00000000   -0.14646552
     atom    7 type  3   force =     0.00000000    0.00000000   -0.07395731
     atom    8 type  3   force =     0.00000000    0.00000000    0.07395731
     atom    9 type  3   force =    -0.00000000   -0.00000000   -0.07395731
     atom   10 type  3   force =    -0.00000000   -0.00000000    0.07395731
     The ionic contribution  to forces
     atom    1 type  1   force =     0.00000000   -0.00000000   -0.00000000
     atom    2 type  1   force =     0.00000000   -0.00000000   -0.00000000
     atom    3 type  2   force =     0.00001355   -0.00000782   -4.04367064
     atom    4 type  2   force =    -0.00001355    0.00000782   -4.04367064
     atom    5 type  2   force =    -0.00001355    0.00000782    4.04367064
     atom    6 type  2   force =     0.00001355   -0.00000782    4.04367064
     atom    7 type  3   force =    -0.00001547    0.00000893    2.00805736
     atom    8 type  3   force =    -0.00001547    0.00000893   -2.00805736
     atom    9 type  3   force =     0.00001547   -0.00000893    2.00805736
     atom   10 type  3   force =     0.00001547   -0.00000893   -2.00805736
     The local contribution  to forces
     atom    1 type  1   force =    -0.00002008    0.00000882    0.00008465
     atom    2 type  1   force =    -0.00002106    0.00001251    0.00004570
     atom    3 type  2   force =    -0.00000988    0.00000063    3.89645930
     atom    4 type  2   force =     0.00003563   -0.00002247    3.89511397
     atom    5 type  2   force =     0.00002202   -0.00001629   -3.89652064
     atom    6 type  2   force =     0.00000588   -0.00000497   -3.89519934
     atom    7 type  3   force =     0.00001055   -0.00000683   -2.11027257
     atom    8 type  3   force =     0.00001333   -0.00000598    2.11071708
     atom    9 type  3   force =    -0.00001580    0.00001036   -2.11070395
     atom   10 type  3   force =    -0.00001745    0.00001113    2.11031028
     The core correction contribution to forces
     atom    1 type  1   force =    -0.00000000    0.00000000    0.00000000
     atom    2 type  1   force =    -0.00000000    0.00000000    0.00000000
     atom    3 type  2   force =    -0.00000040   -0.00000015   -0.00276651
     atom    4 type  2   force =     0.00000074   -0.00000032   -0.00276767
     atom    5 type  2   force =     0.00000050   -0.00000042    0.00276643
     atom    6 type  2   force =     0.00000006   -0.00000011    0.00276676
     atom    7 type  3   force =    -0.00000040    0.00000018    0.01119512
     atom    8 type  3   force =     0.00000002    0.00000019   -0.01119547
     atom    9 type  3   force =    -0.00000011    0.00000014    0.01119667
     atom   10 type  3   force =    -0.00000031    0.00000034   -0.01119166
     The Hubbard contrib.    to forces
     atom    1 type  1   force =     0.00000000    0.00000000    0.00000000
     atom    2 type  1   force =     0.00000000    0.00000000    0.00000000
     atom    3 type  2   force =     0.00000000    0.00000000    0.00000000
     atom    4 type  2   force =     0.00000000    0.00000000    0.00000000
     atom    5 type  2   force =     0.00000000    0.00000000    0.00000000
     atom    6 type  2   force =     0.00000000    0.00000000    0.00000000
     atom    7 type  3   force =     0.00000000    0.00000000    0.00000000
     atom    8 type  3   force =     0.00000000    0.00000000    0.00000000
     atom    9 type  3   force =     0.00000000    0.00000000    0.00000000
     atom   10 type  3   force =     0.00000000    0.00000000    0.00000000
     The SCF correction term to forces
     atom    1 type  1   force =    -0.00000313    0.00000763   -0.00014080
     atom    2 type  1   force =    -0.00000345   -0.00000531    0.00002240
     atom    3 type  2   force =     0.00000222   -0.00000106   -0.00031245
     atom    4 type  2   force =     0.00000425   -0.00000337    0.00101263
     atom    5 type  2   force =    -0.00000208    0.00000270    0.00038214
     atom    6 type  2   force =     0.00000782   -0.00000298   -0.00094339
     atom    7 type  3   force =     0.00000034    0.00000059   -0.00054112
     atom    8 type  3   force =    -0.00000084   -0.00000042    0.00009645
     atom    9 type  3   force =     0.00000085    0.00000046   -0.00010253
     atom   10 type  3   force =    -0.00000040   -0.00000082    0.00052102

     Total force =     0.331132     Total SCF correction =     0.001662

     Computing stress (Cartesian axis) and pressure

          total   stress  (Ry/bohr**3)                   (kbar)     P=      142.88
   0.00134049   0.00000000   0.00000000          197.19        0.00        0.00
   0.00000000   0.00134049   0.00000000            0.00      197.19        0.00
   0.00000000   0.00000000   0.00023288            0.00        0.00       34.26

     kinetic stress (kbar)   8876.36      0.00      0.00
                                0.00   8876.36      0.00
                               -0.00     -0.00   8517.21

     local   stress (kbar)   -302.71     -0.02     -0.00
                               -0.02   -302.72      0.00
                               -0.00      0.00  -2342.09

     nonloc. stress (kbar)   3992.45      0.00      0.00
                                0.00   3992.45      0.00
                                0.00      0.00   4016.91

     hartree stress (kbar)   7280.74      0.00      0.00
                                0.00   7280.74     -0.00
                                0.00     -0.00   7997.31

     exc-cor stress (kbar)   6979.77      0.00      0.00
                                0.00   6979.77     -0.00
                                0.00     -0.00   6976.12

     corecor stress (kbar) -10757.49     -0.00      0.00
                               -0.00 -10757.49      0.00
                                0.00      0.00 -10739.84

     ewald   stress (kbar) -15871.92      0.01      0.00
                                0.01 -15871.91      0.00
                                0.00      0.00 -14391.36

     hubbard stress (kbar)      0.00      0.00      0.00
                                0.00      0.00      0.00
                                0.00      0.00      0.00

     DFT-D   stress (kbar)      0.00      0.00      0.00
                                0.00      0.00      0.00
                                0.00      0.00      0.00

     XDM     stress (kbar)      0.00      0.00      0.00
                                0.00      0.00      0.00
                                0.00      0.00      0.00

     dft-nl  stress (kbar)      0.00      0.00      0.00
                                0.00      0.00      0.00
                                0.00      0.00      0.00

     TS-vdW  stress (kbar)      0.00      0.00      0.00
                                0.00      0.00      0.00
                                0.00      0.00      0.00

[...]

                                0.00      0.00      0.00

     Writing all to output data dir new_calculations/myprefix.save/

     General routines

     Parallel routines

     PAW routines

   This run was terminated on:   9:25:42  20May2023

   JOB DONE.