     Program PWSCF v.7.0 starts on 21May2023 at 16: 7:22

     Reading input from espresso_26859.pwi
Warning: card &CELL ignored
Warning: card / ignored

     Current dimensions of program PWSCF are:
     Max number of different atomic species (ntypx) = 10
     Max number of k-points (npk) =  40000
     Max angular momentum in pseudopotentials (lmaxx) =  4
     file O.pbe-n-kjpaw_psl.0.1.UPF: wavefunction(s)  2P renormalized

     gamma-point specific algorithms are used
     Message from routine setup:
     using ibrav=0 with symmetry is DISCOURAGED, use correct ibrav instead

     Subspace diagonalization in iterative solution of the eigenvalue problem:
     a serial algorithm will be used

     Using Slab Decomposition

     bravais-lattice index     =            0
     lattice parameter (alat)  =       9.2054  a.u.
     unit-cell volume          =    1081.0094 (a.u.)^3
     number of atoms/cell      =           12
     number of atomic types    =            4
     number of electrons       =        92.00
     number of Kohn-Sham states=           55
     kinetic-energy cutoff     =      30.0000  Ry
     charge density cutoff     =     240.0000  Ry
     scf convergence threshold =      1.0E-06
     mixing beta               =       0.7000
     number of iterations used =            8  plain     mixing
     Exchange-correlation= SLA  PW   PBX  PBC
                           (   1   4   3   4   0   0   0)

     celldm(1)=   9.205382  celldm(2)=   0.000000  celldm(3)=   0.000000
     celldm(4)=   0.000000  celldm(5)=   0.000000  celldm(6)=   0.000000

     crystal axes: (cart. coord. in units of alat)
               a(1) = (   1.000000   0.000000   0.000000 )
               a(2) = (   0.419178   0.907904   0.000000 )
               a(3) = (   0.032722   0.020933   1.526385 )

     reciprocal axes: (cart. coord. in units 2 pi/alat)
               b(1) = (  1.000000 -0.461698 -0.015106 )
               b(2) = (  0.000000  1.101438 -0.015106 )
               b(3) = (  0.000000  0.000000  0.655143 )

     PseudoPot. # 1 for V  read from file:
     /home/pragov/projects/rrg-bengioy-ad/pragov/crystal_structure_design/SSSP/v_pbe_v1.4.uspp.F.UPF
     MD5 check sum: 22b79981416ebb76fdaf5b1b8640f6fb
     Pseudo is Ultrasoft + core correction, Zval = 13.0
     Generated by new atomic code, or converted to UPF format
     Using radial grid of  853 points,  6 beta functions with:
                l(1) =   0
                l(2) =   0
                l(3) =   1
                l(4) =   1
                l(5) =   2
                l(6) =   2
     Q(r) pseudized with  8 coefficients,  rinner =    1.100   1.100   1.100
                                                       1.100   1.100

     PseudoPot. # 2 for Ag read from file:
     /home/pragov/projects/rrg-bengioy-ad/pragov/crystal_structure_design/SSSP/Ag_ONCV_PBE-1.0.oncvpsp.upf
     MD5 check sum: 94f47bd0669c641108e45594df92fabc
     Pseudo is Norm-conserving, Zval = 19.0
     Generated using ONCVPSP code by D. R. Hamann
     Using radial grid of 1398 points,  6 beta functions with:
                l(1) =   0
                l(2) =   0
                l(3) =   1
                l(4) =   1
                l(5) =   2
                l(6) =   2

     PseudoPot. # 3 for S  read from file:
     /home/pragov/projects/rrg-bengioy-ad/pragov/crystal_structure_design/SSSP/s_pbe_v1.4.uspp.F.UPF
     MD5 check sum: 88d86576ff6df21479756cfb9bdac1df
     Pseudo is Ultrasoft + core correction, Zval =  6.0
     Generated by new atomic code, or converted to UPF format
     Using radial grid of  907 points,  6 beta functions with:
                l(1) =   0
                l(2) =   0
                l(3) =   1
                l(4) =   1
                l(5) =   2
                l(6) =   2
     Q(r) pseudized with  8 coefficients,  rinner =    1.300   1.300   1.300
                                                       1.300   1.300

     PseudoPot. # 4 for O  read from file:
     /home/pragov/projects/rrg-bengioy-ad/pragov/crystal_structure_design/SSSP/O.pbe-n-kjpaw_psl.0.1.UPF
     MD5 check sum: 0234752ac141de4415c5fc33072bef88
     Pseudo is Projector augmented-wave + core cor, Zval =  6.0
     Generated using "atomic" code by A. Dal Corso  v.5.0.99 svn rev. 10869
     Shape of augmentation charge: BESSEL
     Using radial grid of 1095 points,  4 beta functions with:
                l(1) =   0
                l(2) =   0
                l(3) =   1
                l(4) =   1
     Q(r) pseudized with 0 coefficients

     atomic species   valence    mass     pseudopotential
        V             13.00    50.94150     V ( 1.00)
        Ag            19.00   107.86820     Ag( 1.00)
        S              6.00    32.06000     S ( 1.00)
        O              6.00    15.99900     O ( 1.00)

      2 Sym. Ops., with inversion, found

                                    s                        frac. trans.

      isym =  1     identity

 cryst.   s( 1) = (     1          0          0      )
                  (     0          1          0      )
                  (     0          0          1      )

 cart.    s( 1) = (  1.0000000  0.0000000  0.0000000 )
                  (  0.0000000  1.0000000  0.0000000 )
                  (  0.0000000  0.0000000  1.0000000 )

      isym =  2     inversion

 cryst.   s( 2) = (    -1          0          0      )
                  (     0         -1          0      )
                  (     0          0         -1      )

 cart.    s( 2) = ( -1.0000000 -0.0000000 -0.0000000 )
                  (  0.0000000 -1.0000000 -0.0000000 )
                  (  0.0000000  0.0000000 -1.0000000 )

   Cartesian axes

     site n.     atom                  positions (alat units)
         1           V   tau(   1) = (   0.0000000   0.0000000   0.0000000  )
         2           Ag  tau(   2) = (   0.0163609   0.0104667   0.7631923  )
         3           S   tau(   3) = (   0.5398391   0.3453565   1.1980180  )
         4           S   tau(   4) = (   0.9120602   0.5834812   0.3283665  )
         5           O   tau(   5) = (   0.4349780   0.2782727   0.9276754  )
         6           O   tau(   6) = (   1.0169214   0.6505650   0.5987091  )
         7           O   tau(   7) = (   0.8292046   0.2337818   1.2274986  )
         8           O   tau(   8) = (   0.6226947   0.6950560   0.2988859  )
         9           O   tau(   9) = (   0.8920639   0.2739954   0.2988859  )
        10           O   tau(  10) = (   0.5598354   0.6548423   1.2274986  )
        11           O   tau(  11) = (   0.3746062   0.2396505   1.4306039  )
        12           O   tau(  12) = (   1.0772931   0.6891873   0.0957806  )

   Crystallographic axes

     site n.     atom                  positions (cryst. coord.)
         1           V   tau(   1) = (  0.0000000  0.0000000  0.0000000  )
         2           Ag  tau(   2) = (  0.0000000 -0.0000000  0.5000000  )
         3           S   tau(   3) = (  0.3622920  0.3622920  0.7848730  )
         4           S   tau(   4) = (  0.6377080  0.6377080  0.2151270  )
         5           O   tau(   5) = (  0.2924870  0.2924870  0.6077600  )
         6           O   tau(   6) = (  0.7075130  0.7075130  0.3922400  )
         7           O   tau(   7) = (  0.7027260  0.2389540  0.8041870  )
         8           O   tau(   8) = (  0.2972740  0.7610460  0.1958130  )
         9           O   tau(   9) = (  0.7610460  0.2972740  0.1958130  )
        10           O   tau(  10) = (  0.2389540  0.7027260  0.8041870  )
        11           O   tau(  11) = (  0.2423500  0.2423500  0.9372500  )
        12           O   tau(  12) = (  0.7576500  0.7576500  0.0627500  )

     number of k points=     1  Methfessel-Paxton smearing, width (Ry)=  0.0010
                       cart. coord. in units 2pi/alat
        k(    1) = (   0.0000000   0.0000000   0.0000000), wk =   2.0000000

                       cryst. coord.
        k(    1) = (   0.0000000   0.0000000   0.0000000), wk =   2.0000000

     Check: negative core charge=   -0.000014

     Initial potential from superposition of free atoms

     starting charge      91.9984, renormalised to      92.0000

     negative rho (up, down):  1.667E-03 0.000E+00
     Starting wfcs are   60 randomized atomic wfcs
     Checking if some PAW data can be deallocated...

     Self-consistent Calculation

     iteration #  1     ecut=    30.00 Ry     beta= 0.70
     Davidson diagonalization with overlap

     ethr =  1.00E-02,  avg # of iterations =  6.0

     negative rho (up, down):  2.121E-03 0.000E+00

     total energy              =    -811.67577840 Ry
     estimated scf accuracy    <       2.75279534 Ry

[...]

     total energy              =    -812.95487849 Ry
     estimated scf accuracy    <       0.00000123 Ry

     iteration # 27     ecut=    30.00 Ry     beta= 0.70
     Davidson diagonalization with overlap

     ethr =  1.22E-09,  avg # of iterations =  1.0

[...]

     End of self-consistent calculation

          k = 0.0000 0.0000 0.0000 (  1491 PWs)   bands (ev):

   -84.9807 -58.8442 -48.0429 -48.0241 -48.0217 -33.0314 -32.5100 -32.4581
   -18.6330 -18.4727 -14.6984 -14.4797 -14.3099 -14.2632 -14.2418 -14.2126
    -5.2710  -4.5378  -2.3765  -2.2924  -2.1559  -1.7468  -1.6000  -1.1518
     0.5141   0.6926   1.0737   1.3272   1.6547   1.7162   1.8753   2.3185
     2.5278   2.6245   2.9019   3.2489   3.6209   3.8710   3.9478   4.0749
     4.1581   4.3051   4.3101   4.5232   4.8213   6.8537   6.8577   6.8602
     8.3149   8.6007   9.2027  12.1154  12.3266  12.9631  13.0745

     occupation numbers
     1.0000   1.0000   1.0000   1.0000   1.0000   1.0000   1.0000   1.0000
     1.0000   1.0000   1.0000   1.0000   1.0000   1.0000   1.0000   1.0000
     1.0000   1.0000   1.0000   1.0000   1.0000   1.0000   1.0000   1.0000
     1.0000   1.0000   1.0000   1.0000   1.0000   1.0000   1.0000   1.0000
     1.0000   1.0000   1.0000   1.0000   1.0000   1.0000   1.0000   1.0000
     1.0000   1.0000   1.0000   1.0000   1.0000   0.5350   0.2949   0.1701
    -0.0000  -0.0000  -0.0000  -0.0000  -0.0000  -0.0000  -0.0000

     the Fermi energy is     6.8543 ev

!    total energy              =    -812.95487852 Ry
     estimated scf accuracy    <       0.00000004 Ry
     smearing contrib. (-TS)   =      -0.00065943 Ry
     internal energy E=F+TS    =    -812.95421909 Ry

     The total energy is F=E-TS. E is the sum of the following terms:
     one-electron contribution =    -416.48909889 Ry
     hartree contribution      =     247.60325799 Ry
     xc contribution           =    -123.83354996 Ry
     ewald contribution        =    -444.09106570 Ry
     one-center paw contrib.   =     -76.14376252 Ry
      -> PAW hartree energy AE =     251.58590516 Ry
      -> PAW hartree energy PS =    -250.70676829 Ry
      -> PAW xc energy AE      =    -139.59037307 Ry
      -> PAW xc energy PS      =      62.56747368 Ry
      -> total E_H with PAW    =     248.48239486 Ry
      -> total E_XC with PAW   =    -200.85644936 Ry

     convergence has been achieved in  27 iterations

     negative rho (up, down):  1.924E-03 0.000E+00

     Forces acting on atoms (cartesian axes, Ry/au):

     atom    1 type  1   force =     0.00000000    0.00000000    0.00000000
     atom    2 type  2   force =     0.00000000    0.00000000    0.00000000
     atom    3 type  3   force =     0.03192058    0.02041647   -0.02135059
     atom    4 type  3   force =    -0.03192058   -0.02041647    0.02135059
     atom    5 type  4   force =    -0.00520040   -0.00332711   -0.00259205
     atom    6 type  4   force =     0.00520040    0.00332711    0.00259205
     atom    7 type  4   force =    -0.01590748   -0.00317802    0.00206309
     atom    8 type  4   force =     0.01590748    0.00317802   -0.00206309
     atom    9 type  4   force =     0.00955451    0.01310708   -0.00206363
     atom   10 type  4   force =    -0.00955451   -0.01310708    0.00206363
     atom   11 type  4   force =    -0.02716362   -0.01737929    0.06761219
     atom   12 type  4   force =     0.02716362    0.01737929   -0.06761219
     The non-local contrib.  to forces
     atom    1 type  1   force =     0.00000000    0.00000000    0.00000000
     atom    2 type  2   force =     0.00000000    0.00000000    0.00000000
     atom    3 type  3   force =     0.13988410    0.08948735    0.16466169
     atom    4 type  3   force =    -0.13988410   -0.08948735   -0.16466169
     atom    5 type  4   force =     0.62891319    0.40234525    2.12879261
     atom    6 type  4   force =    -0.62891319   -0.40234525   -2.12879261
     atom    7 type  4   force =    -1.77233966    0.45692745    0.21274952
     atom    8 type  4   force =     1.77233966   -0.45692745   -0.21274952
     atom    9 type  4   force =     0.32807245    1.80064870   -0.21275406
     atom   10 type  4   force =    -0.32807245   -1.80064870    0.21275406
     atom   11 type  4   force =     0.62466347    0.39962240   -1.69322958
     atom   12 type  4   force =    -0.62466347   -0.39962240    1.69322958
     The ionic contribution  to forces
     atom    1 type  1   force =     0.00000000   -0.00000000   -0.00000000
     atom    2 type  2   force =    -0.00000000   -0.00000000    0.00000000
     atom    3 type  3   force =     0.16226465    0.10380715   -2.27585367
     atom    4 type  3   force =    -0.16226465   -0.10380715    2.27585367
     atom    5 type  4   force =    -1.24838614   -0.79864225   -9.93434819
     atom    6 type  4   force =     1.24838614    0.79864225    9.93434819
     atom    7 type  4   force =     3.82587662    1.98971002   -4.01098059
     atom    8 type  4   force =    -3.82587662   -1.98971002    4.01098059
     atom    9 type  4   force =    -3.41018777   -2.63948806    4.01098059
     atom   10 type  4   force =     3.41018777    2.63948807   -4.01098059
     atom   11 type  4   force =     0.44090149    0.28206221    5.06951016
     atom   12 type  4   force =    -0.44090149   -0.28206221   -5.06951016
     The local contribution  to forces
     atom    1 type  1   force =    -0.00000143   -0.00000104   -0.00000140
     atom    2 type  2   force =    -0.00000241   -0.00000115    0.00000082
     atom    3 type  3   force =    -0.26040355   -0.16660387    2.10175454
     atom    4 type  3   force =     0.26040422    0.16660502   -2.10175379
     atom    5 type  4   force =     0.61900066    0.39599219    7.82118912
     atom    6 type  4   force =    -0.61899967   -0.39599136   -7.82118537
     atom    7 type  4   force =    -2.08569278   -2.44563402    3.80244740
     atom    8 type  4   force =     2.08569149    2.44563319   -3.80244768
     atom    9 type  4   force =     3.09468920    0.86846376   -3.80243627
     atom   10 type  4   force =    -3.09469007   -0.86846499    3.80243595
     atom   11 type  4   force =    -1.08791662   -0.69597827   -3.32403438
     atom   12 type  4   force =     1.08791715    0.69597806    3.32403423
     The core correction contribution to forces
     atom    1 type  1   force =    -0.00000004   -0.00000001    0.00000000
     atom    2 type  2   force =     0.00000000    0.00000000    0.00000000
     atom    3 type  3   force =    -0.00980357   -0.00627165   -0.01193491
     atom    4 type  3   force =     0.00980352    0.00627162    0.01193478
     atom    5 type  4   force =    -0.00472567   -0.00302326   -0.01824179
     atom    6 type  4   force =     0.00472566    0.00302326    0.01824180
     atom    7 type  4   force =     0.01627626   -0.00421674   -0.00216837
     atom    8 type  4   force =    -0.01627629    0.00421673    0.00216836
     atom    9 type  4   force =    -0.00299415   -0.01654490    0.00216840
     atom   10 type  4   force =     0.00299414    0.01654487   -0.00216841
     atom   11 type  4   force =    -0.00479241   -0.00306592    0.01536180
     atom   12 type  4   force =     0.00479242    0.00306592   -0.01536181
     The Hubbard contrib.    to forces
     atom    1 type  1   force =     0.00000000    0.00000000    0.00000000
     atom    2 type  2   force =     0.00000000    0.00000000    0.00000000
     atom    3 type  3   force =     0.00000000    0.00000000    0.00000000
     atom    4 type  3   force =     0.00000000    0.00000000    0.00000000
     atom    5 type  4   force =     0.00000000    0.00000000    0.00000000
     atom    6 type  4   force =     0.00000000    0.00000000    0.00000000
     atom    7 type  4   force =     0.00000000    0.00000000    0.00000000
     atom    8 type  4   force =     0.00000000    0.00000000    0.00000000
     atom    9 type  4   force =     0.00000000    0.00000000    0.00000000
     atom   10 type  4   force =     0.00000000    0.00000000    0.00000000
     atom   11 type  4   force =     0.00000000    0.00000000    0.00000000
     atom   12 type  4   force =     0.00000000    0.00000000    0.00000000
     The SCF correction term to forces
     atom    1 type  1   force =     0.00000181    0.00000123    0.00000131
     atom    2 type  2   force =     0.00000311    0.00000166   -0.00000093
     atom    3 type  3   force =    -0.00002174   -0.00000285    0.00002081
     atom    4 type  3   force =     0.00001974    0.00000105   -0.00002334
     atom    5 type  4   force =    -0.00000250    0.00000107    0.00001705
     atom    6 type  4   force =     0.00000139   -0.00000166   -0.00001912
     atom    7 type  4   force =    -0.00002818    0.00003493    0.00001492
     atom    8 type  4   force =     0.00002898   -0.00003478   -0.00001504
     atom    9 type  4   force =    -0.00002555    0.00002749   -0.00002243
     atom   10 type  4   force =     0.00002576   -0.00002643    0.00002249
     atom   11 type  4   force =    -0.00001945   -0.00001981    0.00000433
     atom   12 type  4   force =     0.00001909    0.00001982   -0.00000389

     Total force =     0.127142     Total SCF correction =     0.000111

     Computing stress (Cartesian axis) and pressure

     negative rho (up, down):  1.924E-03 0.000E+00
          total   stress  (Ry/bohr**3)                   (kbar)     P=     -565.67
  -0.00407469  -0.00029125   0.00000827         -599.41      -42.84        1.22
  -0.00029125  -0.00380579   0.00000536          -42.84     -559.85        0.79
   0.00000827   0.00000536  -0.00365560            1.22        0.79     -537.76

     kinetic stress (kbar)  26132.80   -151.70    -29.29
                             -151.70  26272.93    -18.77
                              -29.29    -18.77  25998.94

     local   stress (kbar) -11964.63   1093.44  -1369.68
                             1093.44 -12974.38   -876.16
                            -1369.68   -876.16 -20421.61

     nonloc. stress (kbar)   2354.98     -8.42     16.88
                               -8.42   2362.76     10.79
                               16.88     10.79   2382.58

     hartree stress (kbar)   9972.79   -477.27    586.72
                             -477.27  10413.50    375.32
                              586.72    375.32  13307.85

     exc-cor stress (kbar)  -3162.15     -0.20      0.66
                               -0.20  -3161.96      0.42
                                0.66      0.42  -3154.25

     corecor stress (kbar)  -1873.07      1.14     -0.76
                                1.14  -1874.13     -0.48
                               -0.76     -0.48  -1877.51

     ewald   stress (kbar) -22060.13   -499.84    796.68
                             -499.84 -21598.57    509.67
                              796.68    509.67 -16773.75

     hubbard stress (kbar)      0.00      0.00      0.00
                                0.00      0.00      0.00
                                0.00      0.00      0.00

     DFT-D   stress (kbar)      0.00      0.00      0.00
                                0.00      0.00      0.00
                                0.00      0.00      0.00

     XDM     stress (kbar)      0.00      0.00      0.00
                                0.00      0.00      0.00
                                0.00      0.00      0.00

     dft-nl  stress (kbar)      0.00      0.00      0.00
                                0.00      0.00      0.00
                                0.00      0.00      0.00

     TS-vdW  stress (kbar)      0.00      0.00      0.00
                                0.00      0.00      0.00
                                0.00      0.00      0.00

[...]

                                0.00      0.00      0.00

     Writing all to output data dir new_calculations/myprefix.save/

     General routines

     Parallel routines

     PAW routines

   This run was terminated on:  16: 7:43  21May2023

   JOB DONE.