     Program PWSCF v.7.0 starts on 20May2023 at  6:21:53

     Reading input from espresso_19097.pwi
Warning: card &CELL ignored
Warning: card / ignored

     Current dimensions of program PWSCF are:
     Max number of different atomic species (ntypx) = 10
     Max number of k-points (npk) =  40000
     Max angular momentum in pseudopotentials (lmaxx) =  4
     file O.pbe-n-kjpaw_psl.0.1.UPF: wavefunction(s)  2P renormalized

     gamma-point specific algorithms are used

     Subspace diagonalization in iterative solution of the eigenvalue problem:
     a serial algorithm will be used

     Using Slab Decomposition

     bravais-lattice index     =            0
     lattice parameter (alat)  =      11.9502  a.u.
     unit-cell volume          =    1436.8271 (a.u.)^3
     number of atoms/cell      =           20
     number of atomic types    =            5
     number of electrons       =       104.00
     number of Kohn-Sham states=           62
     kinetic-energy cutoff     =      30.0000  Ry
     charge density cutoff     =     240.0000  Ry
     scf convergence threshold =      1.0E-06
     mixing beta               =       0.7000
     number of iterations used =            8  plain     mixing
     Exchange-correlation= SLA  PW   PBX  PBC
                           (   1   4   3   4   0   0   0)

     celldm(1)=  11.950235  celldm(2)=   0.000000  celldm(3)=   0.000000
     celldm(4)=   0.000000  celldm(5)=   0.000000  celldm(6)=   0.000000

     crystal axes: (cart. coord. in units of alat)
               a(1) = (   1.000000   0.000000   0.000000 )
               a(2) = (   0.493861   0.910174   0.000000 )
               a(3) = (   0.494738   0.063773   0.925019 )

     reciprocal axes: (cart. coord. in units 2 pi/alat)
               b(1) = (  1.000000 -0.542600 -0.497433 )
               b(2) = (  0.000000  1.098691 -0.075746 )
               b(3) = (  0.000000  0.000000  1.081059 )

     PseudoPot. # 1 for Ca read from file:
     /home/pragov/projects/rrg-bengioy-ad/pragov/crystal_structure_design/SSSP/Ca_pbe_v1.uspp.F.UPF
     MD5 check sum: 403a4c14b9e4d4dfdc3024c9a3812218
     Pseudo is Ultrasoft + core correction, Zval = 10.0
     Generated by new atomic code, or converted to UPF format
     Using radial grid of  845 points,  6 beta functions with:
                l(1) =   0
                l(2) =   0
                l(3) =   1
                l(4) =   1
                l(5) =   2
                l(6) =   2
     Q(r) pseudized with  8 coefficients,  rinner =    1.500   1.500   1.500
                                                       1.500   1.500

     PseudoPot. # 2 for B  read from file:
     /home/pragov/projects/rrg-bengioy-ad/pragov/crystal_structure_design/SSSP/b_pbe_v1.4.uspp.F.UPF
     MD5 check sum: cc6de2960df11db49a60e589f9ebb39b
     Pseudo is Ultrasoft + core correction, Zval =  3.0
     Generated by new atomic code, or converted to UPF format
     Using radial grid of  781 points,  4 beta functions with:
                l(1) =   0
                l(2) =   0
                l(3) =   1
                l(4) =   1
     Q(r) pseudized with  8 coefficients,  rinner =    1.100   1.100   1.100

     PseudoPot. # 3 for H  read from file:
     /home/pragov/projects/rrg-bengioy-ad/pragov/crystal_structure_design/SSSP/H.pbe-rrkjus_psl.1.0.0.UPF
     MD5 check sum: f52b6d4d1c606e5624b1dc7b2218f220
     Pseudo is Ultrasoft, Zval =  1.0
     Generated using "atomic" code by A. Dal Corso  v.5.1
     Using radial grid of  929 points,  2 beta functions with:
                l(1) =   0
                l(2) =   0
     Q(r) pseudized with 0 coefficients

     PseudoPot. # 4 for Cl read from file:
     /home/pragov/projects/rrg-bengioy-ad/pragov/crystal_structure_design/SSSP/cl_pbe_v1.4.uspp.F.UPF
     MD5 check sum: fc6f6913ecf08c9257cb748ef0700058
     Pseudo is Ultrasoft + core correction, Zval =  7.0
     Generated by new atomic code, or converted to UPF format
     Using radial grid of  909 points,  6 beta functions with:
                l(1) =   0
                l(2) =   0
                l(3) =   1
                l(4) =   1
                l(5) =   2
                l(6) =   2
     Q(r) pseudized with  8 coefficients,  rinner =    1.300   1.300   1.300
                                                       1.300   1.300

     PseudoPot. # 5 for O  read from file:
     /home/pragov/projects/rrg-bengioy-ad/pragov/crystal_structure_design/SSSP/O.pbe-n-kjpaw_psl.0.1.UPF
     MD5 check sum: 0234752ac141de4415c5fc33072bef88
     Pseudo is Projector augmented-wave + core cor, Zval =  6.0
     Generated using "atomic" code by A. Dal Corso  v.5.0.99 svn rev. 10869
     Shape of augmentation charge: BESSEL
     Using radial grid of 1095 points,  4 beta functions with:
                l(1) =   0
                l(2) =   0
                l(3) =   1
                l(4) =   1
     Q(r) pseudized with 0 coefficients

     atomic species   valence    mass     pseudopotential
        Ca            10.00    40.07800     Ca( 1.00)
        B              3.00    10.81000     B ( 1.00)
        H              1.00     1.00800     H ( 1.00)
        Cl             7.00    35.45000     Cl( 1.00)
        O              6.00    15.99900     O ( 1.00)

     No symmetry found

                                    s                        frac. trans.

      isym =  1     identity

 cryst.   s( 1) = (     1          0          0      )
                  (     0          1          0      )
                  (     0          0          1      )

 cart.    s( 1) = (  1.0000000  0.0000000 -0.0000000 )
                  (  0.0000000  1.0000000  0.0000000 )
                  (  0.0000000  0.0000000  1.0000000 )

   Cartesian axes

     site n.     atom                  positions (alat units)
         1           Ca  tau(   1) = (   1.3405635   0.4395256   0.4094440  )
         2           Ca  tau(   2) = (   1.4931796   0.0685278   0.9244696  )
         3           B   tau(   3) = (   0.8270239   0.4410416   0.1209361  )
         4           B   tau(   4) = (   1.0115672   0.3575676   0.8426886  )
         5           B   tau(   5) = (   1.6841335   0.5624772   0.8995671  )
         6           B   tau(   6) = (   1.4459513   0.8650589   0.9207658  )
         7           B   tau(   7) = (   0.7963997   0.4458328   0.5362326  )
         8           H   tau(   8) = (   1.2878934   0.9128693   0.4282755  )
         9           H   tau(   9) = (   1.5339623   0.8780283   0.4712815  )
        10           Cl  tau(  10) = (   0.9350728   0.9335425   0.4910963  )
        11           O   tau(  11) = (   1.4148735   0.8335703   0.3819089  )
        12           O   tau(  12) = (   0.7262168   0.4325380   0.3323677  )
        13           O   tau(  13) = (   0.7901831   0.6605585   0.0371182  )
        14           O   tau(  14) = (   1.0548074   0.3922630   0.1333776  )
        15           O   tau(  15) = (   1.2295962   0.3437786   0.9056778  )
        16           O   tau(  16) = (   0.8875293   0.1567417   0.8776266  )
        17           O   tau(  17) = (   0.9994105   0.4014155   0.6044481  )
        18           O   tau(  18) = (   0.4067737   0.4625475   0.0317596  )
        19           O   tau(  19) = (   1.6523405   0.7977153   0.9113954  )
        20           O   tau(  20) = (   0.6347646   0.4905105   0.6798575  )

   Crystallographic axes

     site n.     atom                  positions (cryst. coord.)
         1           Ca  tau(   1) = (  0.8984060  0.4518890  0.4426330  )
         2           Ca  tau(   2) = (  0.9961350  0.0052660  0.9994060  )
         3           B   tau(   3) = (  0.5275570  0.4754080  0.1307390  )
         4           B   tau(   4) = (  0.3983700  0.3290260  0.9109960  )
         5           B   tau(   5) = (  0.9314590  0.5498500  0.9724850  )
         6           B   tau(   6) = (  0.5185510  0.8806880  0.9954020  )
         7           B   tau(   7) = (  0.2877510  0.4492150  0.5796990  )
         8           H   tau(   8) = (  0.5795320  0.9705210  0.4629910  )
         9           H   tau(   9) = (  0.8231130  0.9289840  0.5094830  )
        10           Cl  tau(  10) = (  0.1842450  0.9884760  0.5309040  )
        11           O   tau(  11) = (  0.7726040  0.8869080  0.4128660  )
        12           O   tau(  12) = (  0.3261910  0.4500500  0.3593090  )
        13           O   tau(  13) = (  0.4133000  0.7229380  0.0401270  )
        14           O   tau(  14) = (  0.7756190  0.4208730  0.1441890  )
        15           O   tau(  15) = (  0.5925480  0.3091050  0.9790910  )
        16           O   tau(  16) = (  0.3659210  0.1057340  0.9487660  )
        17           O   tau(  17) = (  0.4809300  0.3952470  0.6534440  )
        18           O   tau(  18) = (  0.1399970  0.5057910  0.0343340  )
        19           O   tau(  19) = (  0.7661420  0.8074080  0.9852720  )
        20           O   tau(  20) = (  0.0304300  0.4874230  0.7349660  )

     number of k points=     1  Methfessel-Paxton smearing, width (Ry)=  0.0010
                       cart. coord. in units 2pi/alat
        k(    1) = (   0.0000000   0.0000000   0.0000000), wk =   2.0000000

                       cryst. coord.
        k(    1) = (   0.0000000   0.0000000   0.0000000), wk =   2.0000000

     Check: negative core charge=   -0.000013

     Initial potential from superposition of free atoms

     starting charge     103.9876, renormalised to     104.0000

     negative rho (up, down):  1.471E-02 0.000E+00
     Starting wfcs are   86 randomized atomic wfcs
     Checking if some PAW data can be deallocated...

     Self-consistent Calculation

     iteration #  1     ecut=    30.00 Ry     beta= 0.70
     Davidson diagonalization with overlap

     ethr =  1.00E-02,  avg # of iterations =  2.0

     negative rho (up, down):  1.513E-02 0.000E+00

     total energy              =    -634.51176327 Ry
     estimated scf accuracy    <       2.49988206 Ry

[...]

     total energy              =    -635.48780487 Ry
     estimated scf accuracy    <       0.00000293 Ry

     iteration #  9     ecut=    30.00 Ry     beta= 0.70
     Davidson diagonalization with overlap

     ethr =  2.82E-09,  avg # of iterations =  2.0

[...]

     End of self-consistent calculation

          k = 0.0000 0.0000 0.0000 (  1985 PWs)   bands (ev):

   -34.2554 -34.0721 -16.3008 -16.1336 -15.4597 -15.3641 -15.2940 -15.2799
   -15.2366 -15.0765 -14.7917 -14.5566 -14.4337 -13.8674 -13.5405 -13.4690
   -13.1968 -13.1198  -8.6405  -3.9778  -3.9213  -3.5460  -3.2291  -2.5532
    -1.9729  -1.5809  -1.3738  -1.1502  -0.7752  -0.5964  -0.4448  -0.3212
     0.5241   0.6881   1.3420   1.4055   1.6548   2.0989   2.2453   2.3738
     2.5076   2.6087   2.8903   3.0600   3.1605   3.2352   3.3612   3.4430
     3.5250   3.6990   3.8680   4.0694   9.2153  10.4014  10.6822  10.9926
    11.1982  11.4300  11.5459  11.6821  11.7631  12.0159

     occupation numbers
     1.0000   1.0000   1.0000   1.0000   1.0000   1.0000   1.0000   1.0000
     1.0000   1.0000   1.0000   1.0000   1.0000   1.0000   1.0000   1.0000
     1.0000   1.0000   1.0000   1.0000   1.0000   1.0000   1.0000   1.0000
     1.0000   1.0000   1.0000   1.0000   1.0000   1.0000   1.0000   1.0000
     1.0000   1.0000   1.0000   1.0000   1.0000   1.0000   1.0000   1.0000
     1.0000   1.0000   1.0000   1.0000   1.0000   1.0000   1.0000   1.0000
     1.0000   1.0000   1.0000   1.0000  -0.0000  -0.0000  -0.0000  -0.0000
    -0.0000  -0.0000  -0.0000  -0.0000  -0.0000  -0.0000

     the Fermi energy is     6.3341 ev

!    total energy              =    -635.48780570 Ry
     estimated scf accuracy    <       0.00000009 Ry
     smearing contrib. (-TS)   =       0.00000000 Ry
     internal energy E=F+TS    =    -635.48780570 Ry

     The total energy is F=E-TS. E is the sum of the following terms:
     one-electron contribution =    -237.44280145 Ry
     hartree contribution      =     171.23215776 Ry
     xc contribution           =    -125.01016069 Ry
     ewald contribution        =    -349.19925392 Ry
     one-center paw contrib.   =     -95.06774740 Ry
      -> PAW hartree energy AE =     321.94491845 Ry
      -> PAW hartree energy PS =    -320.76937099 Ry
      -> PAW xc energy AE      =    -175.53903544 Ry
      -> PAW xc energy PS      =      79.29574058 Ry
      -> total E_H with PAW    =     172.40770522 Ry
      -> total E_XC with PAW   =    -221.25345555 Ry

     convergence has been achieved in   9 iterations

     negative rho (up, down):  1.452E-02 0.000E+00

     Forces acting on atoms (cartesian axes, Ry/au):

     atom    1 type  1   force =     0.00466621   -0.00404478    0.00123758
     atom    2 type  1   force =    -0.00106267   -0.00203553   -0.00582010
     atom    3 type  2   force =    -0.00392174    0.00341165   -0.00348695
     atom    4 type  2   force =     0.00225447    0.00865243    0.00312151
     atom    5 type  2   force =    -0.00509402   -0.00258741   -0.00242995
     atom    6 type  2   force =     0.00229541   -0.00604267   -0.00286406
     atom    7 type  2   force =    -0.00240295   -0.00309639    0.00148051
     atom    8 type  3   force =    -0.00067311    0.00136055    0.00015442
     atom    9 type  3   force =     0.00062050    0.00147498    0.00475580
     atom   10 type  4   force =    -0.00122677    0.01448804    0.01182511
     atom   11 type  5   force =    -0.00379219   -0.00942674   -0.01332676
     atom   12 type  5   force =    -0.00347293   -0.00307898    0.00066083
     atom   13 type  5   force =     0.01120565    0.00553485    0.00416507
     atom   14 type  5   force =     0.00046413    0.00621556    0.00101731
     atom   15 type  5   force =     0.00335762   -0.00621795    0.00042227
     atom   16 type  5   force =    -0.00641403   -0.00245135   -0.00034797
     atom   17 type  5   force =    -0.00581579    0.00028473    0.00140885
     atom   18 type  5   force =     0.00220017   -0.00180289   -0.00529979
     atom   19 type  5   force =    -0.00696298   -0.00475094    0.00852001
     atom   20 type  5   force =     0.01377500    0.00411286   -0.00519370
     The non-local contrib.  to forces
     atom    1 type  1   force =    -0.01513920    0.01497857    0.02674676
     atom    2 type  1   force =     0.03301779   -0.00859927    0.01095077
     atom    3 type  2   force =    -0.04886094    0.04011460    0.02113292
     atom    4 type  2   force =    -0.04922972   -0.04404130   -0.06389960
     atom    5 type  2   force =    -0.06227203    0.02545871   -0.03754039
     atom    6 type  2   force =    -0.00931900    0.02546073   -0.00365690
     atom    7 type  2   force =    -0.01857369    0.01500899   -0.00896816
     atom    8 type  3   force =     0.08794865   -0.05220334   -0.02903411
     atom    9 type  3   force =    -0.08695172   -0.02964527   -0.06208168
     atom   10 type  4   force =     0.01835363    0.03500396    0.01568425
     atom   11 type  5   force =    -0.02397169    1.30309187    1.45143890
     atom   12 type  5   force =     1.02791234    0.10242684    0.39728435
     atom   13 type  5   force =     1.24645305   -0.06675689    0.05249429
     atom   14 type  5   force =    -0.43730953    0.69703622   -0.82293313
     atom   15 type  5   force =    -0.71610651    0.81449150    0.34964763
     atom   16 type  5   force =     1.02654888   -0.49119864    0.12204019
     atom   17 type  5   force =    -1.18830383    0.19289510    0.46224441
     atom   18 type  5   force =    -0.69834640   -0.71372919   -0.77942636
     atom   19 type  5   force =    -1.15720179   -0.53572298    0.04974614
     atom   20 type  5   force =     1.21876151   -0.00794732    0.14251658
     The ionic contribution  to forces
     atom    1 type  1   force =    -2.10287702   -0.86839711    3.92761022
     atom    2 type  1   force =     1.13530996   -1.24433926   -1.48625268
     atom    3 type  2   force =    -0.17019504    0.27623545    0.84533324
     atom    4 type  2   force =     0.62977182   -1.05954552   -0.88482340
     atom    5 type  2   force =    -0.42102433    0.67305914   -0.65855902
     atom    6 type  2   force =     0.05700432    0.86828375    0.11731589
     atom    7 type  2   force =     0.67807472    0.41202922   -0.88568574
     atom    8 type  3   force =    -2.52119419    1.40934504    1.08322316
     atom    9 type  3   force =     2.46409683    1.02146736    1.77606346
     atom   10 type  4   force =     0.10910256   -1.93096662   -1.23485924
     atom   11 type  5   force =    -0.19264112   -0.06713402    0.59475249
     atom   12 type  5   force =    -2.14165963   -0.86477966    1.10118162
     atom   13 type  5   force =    -4.27070085    2.73123464   -0.88810332
     atom   14 type  5   force =     1.40591553   -3.81638108    5.71034715
     atom   15 type  5   force =     2.09373887   -4.39928494   -2.51827581
     atom   16 type  5   force =    -2.95740518   -1.34647532   -0.71513305
     atom   17 type  5   force =     5.10424427   -0.49270058   -4.79920248
     atom   18 type  5   force =     3.10827488    3.36256907    2.85245360
     atom   19 type  5   force =     3.00151664    4.88205263   -0.72408617
     atom   20 type  5   force =    -5.00935306    0.45372782   -3.21329993
     The local contribution  to forces
     atom    1 type  1   force =     2.12310660    0.84913783   -3.95355621
     atom    2 type  1   force =    -1.16965283    1.25069754    1.46960005
     atom    3 type  2   force =     0.21286596   -0.31053861   -0.86874404
     atom    4 type  2   force =    -0.58119618    1.10942667    0.94777838
     atom    5 type  2   force =     0.47439684   -0.69938504    0.69127980
     atom    6 type  2   force =    -0.04506098   -0.89870256   -0.11585785
     atom    7 type  2   force =    -0.66174095   -0.42862229    0.89620206
     atom    8 type  3   force =     2.43254441   -1.35577428   -1.05402605
     atom    9 type  3   force =    -2.37649660   -0.99034367   -1.70921125
     atom   10 type  4   force =    -0.12798856    1.91064988    1.23103606
     atom   11 type  5   force =     0.21265268   -1.23259974   -2.04519403
     atom   12 type  5   force =     1.12012887    0.76012640   -1.49509539
     atom   13 type  5   force =     3.04650979   -2.66055435    0.84028266
     atom   14 type  5   force =    -0.97234110    3.13185665   -4.89393037
     atom   15 type  5   force =    -1.38085106    3.58618311    2.17223760
     atom   16 type  5   force =     1.93416321    1.83150721    0.59370872
     atom   17 type  5   force =    -3.93200964    0.30204858    4.34269511
     atom   18 type  5   force =    -2.41390813   -2.65721057   -2.08536570
     atom   19 type  5   force =    -1.86136789   -4.35605056    0.68333128
     atom   20 type  5   force =     3.81520057   -0.44169648    3.06762564
     The core correction contribution to forces
     atom    1 type  1   force =    -0.00053131    0.00030819    0.00042657
     atom    2 type  1   force =     0.00026315    0.00016592   -0.00011718
     atom    3 type  2   force =     0.00227719   -0.00236463   -0.00119348
     atom    4 type  2   force =     0.00294958    0.00281621    0.00405263
     atom    5 type  2   force =     0.00376547   -0.00167385    0.00245739
     atom    6 type  2   force =    -0.00034615   -0.00114425   -0.00064921
     atom    7 type  2   force =    -0.00014177   -0.00150581   -0.00015714
     atom    8 type  3   force =     0.00000000    0.00000000    0.00000000
     atom    9 type  3   force =     0.00000000    0.00000000    0.00000000
     atom   10 type  4   force =    -0.00068809   -0.00022499    0.00008012
     atom   11 type  5   force =     0.00015502   -0.01284202   -0.01435803
     atom   12 type  5   force =    -0.00989995   -0.00081025   -0.00272720
     atom   13 type  5   force =    -0.01115683    0.00161176   -0.00051890
     atom   14 type  5   force =     0.00417371   -0.00634176    0.00762752
     atom   15 type  5   force =     0.00674687   -0.00759070   -0.00317619
     atom   16 type  5   force =    -0.00981256    0.00357151   -0.00093360
     atom   17 type  5   force =     0.01037852   -0.00188159   -0.00449059
     atom   18 type  5   force =     0.00622850    0.00670921    0.00717399
     atom   19 type  5   force =     0.01014660    0.00502447   -0.00045370
     atom   20 type  5   force =    -0.01090229    0.00002708   -0.00213118
     The Hubbard contrib.    to forces
     atom    1 type  1   force =     0.00000000    0.00000000    0.00000000
     atom    2 type  1   force =     0.00000000    0.00000000    0.00000000
     atom    3 type  2   force =     0.00000000    0.00000000    0.00000000
     atom    4 type  2   force =     0.00000000    0.00000000    0.00000000
     atom    5 type  2   force =     0.00000000    0.00000000    0.00000000
     atom    6 type  2   force =     0.00000000    0.00000000    0.00000000
     atom    7 type  2   force =     0.00000000    0.00000000    0.00000000
     atom    8 type  3   force =     0.00000000    0.00000000    0.00000000
     atom    9 type  3   force =     0.00000000    0.00000000    0.00000000
     atom   10 type  4   force =     0.00000000    0.00000000    0.00000000
     atom   11 type  5   force =     0.00000000    0.00000000    0.00000000
     atom   12 type  5   force =     0.00000000    0.00000000    0.00000000
     atom   13 type  5   force =     0.00000000    0.00000000    0.00000000
     atom   14 type  5   force =     0.00000000    0.00000000    0.00000000
     atom   15 type  5   force =     0.00000000    0.00000000    0.00000000
     atom   16 type  5   force =     0.00000000    0.00000000    0.00000000
     atom   17 type  5   force =     0.00000000    0.00000000    0.00000000
     atom   18 type  5   force =     0.00000000    0.00000000    0.00000000
     atom   19 type  5   force =     0.00000000    0.00000000    0.00000000
     atom   20 type  5   force =     0.00000000    0.00000000    0.00000000
     The SCF correction term to forces
     atom    1 type  1   force =     0.00010769   -0.00007472    0.00001087
     atom    2 type  1   force =    -0.00000021    0.00003707   -0.00000044
     atom    3 type  2   force =    -0.00000839   -0.00003762   -0.00001498
     atom    4 type  2   force =    -0.00004050   -0.00000609    0.00001412
     atom    5 type  2   force =     0.00004057   -0.00004883   -0.00006712
     atom    6 type  2   force =     0.00001775    0.00005720   -0.00001538
     atom    7 type  2   force =    -0.00002073   -0.00000895    0.00009011
     atom    8 type  3   force =     0.00002856   -0.00000934   -0.00000796
     atom    9 type  3   force =    -0.00002748   -0.00000589   -0.00001410
     atom   10 type  4   force =    -0.00000577    0.00002335   -0.00011547
     atom   11 type  5   force =     0.00001345    0.00005471    0.00003452
     atom   12 type  5   force =     0.00004598   -0.00004477    0.00001805
     atom   13 type  5   force =     0.00010103   -0.00000277    0.00001097
     atom   14 type  5   force =     0.00002605    0.00004309   -0.00009324
     atom   15 type  5   force =    -0.00017002   -0.00001938   -0.00001033
     atom   16 type  5   force =     0.00009214    0.00014143   -0.00002961
     atom   17 type  5   force =    -0.00012457   -0.00007924    0.00016302
     atom   18 type  5   force =    -0.00004814   -0.00014387   -0.00013471
     atom   19 type  5   force =    -0.00005601   -0.00005696   -0.00001692
     atom   20 type  5   force =     0.00006880   -0.00000071    0.00009580

     Total force =     0.041899     Total SCF correction =     0.000508

     Computing stress (Cartesian axis) and pressure

     negative rho (up, down):  1.452E-02 0.000E+00
          total   stress  (Ry/bohr**3)                   (kbar)     P=     -355.06
  -0.00229067   0.00002211   0.00000435         -336.97        3.25        0.64
   0.00002211  -0.00243720  -0.00000885            3.25     -358.52       -1.30
   0.00000435  -0.00000885  -0.00251312            0.64       -1.30     -369.69

     kinetic stress (kbar)  16619.67     99.89    -64.50
                               99.89  17008.75    -56.55
                              -64.50    -56.55  16976.00

     local   stress (kbar) -19726.19   1470.08   -279.92
                             1470.08  -7509.33    369.44
                             -279.92    369.44  -6067.09

     nonloc. stress (kbar)   3778.27      2.02     -2.72
                                2.02   3778.97     -4.76
                               -2.72     -4.76   3774.23

     hartree stress (kbar)   9192.87   -490.43     90.92
                             -490.43   4511.37   -116.04
                               90.92   -116.04   3826.83

     exc-cor stress (kbar)  -2252.96     -3.58      0.70
                               -3.58  -2271.15     -0.18
                                0.70     -0.18  -2270.82

     corecor stress (kbar)  -1563.70      1.06      0.03
                                1.06  -1559.64      0.40
                                0.03      0.40  -1559.59

     ewald   stress (kbar)  -6384.93  -1075.79    256.14
                            -1075.79 -14317.50   -193.61
                              256.14   -193.61 -15049.26

     hubbard stress (kbar)      0.00      0.00      0.00
                                0.00      0.00      0.00
                                0.00      0.00      0.00

     DFT-D   stress (kbar)      0.00      0.00      0.00
                                0.00      0.00      0.00
                                0.00      0.00      0.00

     XDM     stress (kbar)      0.00      0.00      0.00
                                0.00      0.00      0.00
                                0.00      0.00      0.00

     dft-nl  stress (kbar)      0.00      0.00      0.00
                                0.00      0.00      0.00
                                0.00      0.00      0.00

     TS-vdW  stress (kbar)      0.00      0.00      0.00
                                0.00      0.00      0.00
                                0.00      0.00      0.00

[...]

                                0.00      0.00      0.00

     Writing all to output data dir new_calculations/myprefix.save/

     General routines

     Parallel routines

     PAW routines

   This run was terminated on:   6:22:47  20May2023

   JOB DONE.