     Program PWSCF v.7.0 starts on 21May2023 at 14:37:12

     Reading input from espresso_22818.pwi
Warning: card &CELL ignored
Warning: card / ignored

     Current dimensions of program PWSCF are:
     Max number of different atomic species (ntypx) = 10
     Max number of k-points (npk) =  40000
     Max angular momentum in pseudopotentials (lmaxx) =  4
     file Pb.pbe-dn-kjpaw_psl.0.2.2.UPF: wavefunction(s)  6S renormalized
     file O.pbe-n-kjpaw_psl.0.1.UPF: wavefunction(s)  2P renormalized

     gamma-point specific algorithms are used
     Message from routine setup:
     using ibrav=0 with symmetry is DISCOURAGED, use correct ibrav instead

     Subspace diagonalization in iterative solution of the eigenvalue problem:
     a serial algorithm will be used

     Using Slab Decomposition

     bravais-lattice index     =            0
     lattice parameter (alat)  =      10.8533  a.u.
     unit-cell volume          =    1318.4490 (a.u.)^3
     number of atoms/cell      =           14
     number of atomic types    =            3
     number of electrons       =       140.00
     number of Kohn-Sham states=           84
     kinetic-energy cutoff     =      30.0000  Ry
     charge density cutoff     =     240.0000  Ry
     scf convergence threshold =      1.0E-06
     mixing beta               =       0.7000
     number of iterations used =            8  plain     mixing
     Exchange-correlation= SLA  PW   PBX  PBC
                           (   1   4   3   4   0   0   0)

     celldm(1)=  10.853295  celldm(2)=   0.000000  celldm(3)=   0.000000
     celldm(4)=   0.000000  celldm(5)=   0.000000  celldm(6)=   0.000000

     crystal axes: (cart. coord. in units of alat)
               a(1) = (   1.000000   0.000000   0.000000 )
               a(2) = (  -0.363473   1.021655   0.000000 )
               a(3) = (  -0.136161  -0.593643   1.009426 )

     reciprocal axes: (cart. coord. in units 2 pi/alat)
               b(1) = (  1.000000  0.355769  0.344118 )
               b(2) = (  0.000000  0.978804  0.575635 )
               b(3) = (  0.000000  0.000000  0.990662 )

     PseudoPot. # 1 for Pt read from file:
     /home/pragov/projects/rrg-bengioy-ad/pragov/crystal_structure_design/SSSP/pt_pbe_v1.4.uspp.F.UPF
     MD5 check sum: f09d6de1a584b5a045c4fc126da2d0c4
     Pseudo is Ultrasoft + core correction, Zval = 16.0
     Generated by new atomic code, or converted to UPF format
     Using radial grid of  985 points,  6 beta functions with:
                l(1) =   0
                l(2) =   0
                l(3) =   1
                l(4) =   1
                l(5) =   2
                l(6) =   2
     Q(r) pseudized with  8 coefficients,  rinner =    1.300   1.300   1.300
                                                       1.300   1.300

     PseudoPot. # 2 for Pb read from file:
     /home/pragov/projects/rrg-bengioy-ad/pragov/crystal_structure_design/SSSP/Pb.pbe-dn-kjpaw_psl.0.2.2.UPF
     MD5 check sum: 9d431e6316058b74ade52399a6cf67da
     Pseudo is Projector augmented-wave + core cor, Zval = 14.0
     Generated using "atomic" code by A. Dal Corso  v.5.0.99 svn rev. 10869
     Shape of augmentation charge: PSQ
     Using radial grid of 1281 points,  6 beta functions with:
                l(1) =   0
                l(2) =   0
                l(3) =   1
                l(4) =   1
                l(5) =   2
                l(6) =   2
     Q(r) pseudized with 0 coefficients

     PseudoPot. # 3 for O  read from file:
     /home/pragov/projects/rrg-bengioy-ad/pragov/crystal_structure_design/SSSP/O.pbe-n-kjpaw_psl.0.1.UPF
     MD5 check sum: 0234752ac141de4415c5fc33072bef88
     Pseudo is Projector augmented-wave + core cor, Zval =  6.0
     Generated using "atomic" code by A. Dal Corso  v.5.0.99 svn rev. 10869
     Shape of augmentation charge: BESSEL
     Using radial grid of 1095 points,  4 beta functions with:
                l(1) =   0
                l(2) =   0
                l(3) =   1
                l(4) =   1
     Q(r) pseudized with 0 coefficients

     atomic species   valence    mass     pseudopotential
        Pt            16.00   195.08400     Pt( 1.00)
        Pb            14.00   207.20000     Pb( 1.00)
        O              6.00    15.99900     O ( 1.00)

      2 Sym. Ops., with inversion, found

                                    s                        frac. trans.

      isym =  1     identity

 cryst.   s( 1) = (     1          0          0      )
                  (     0          1          0      )
                  (     0          0          1      )

 cart.    s( 1) = (  1.0000000  0.0000000  0.0000000 )
                  (  0.0000000  1.0000000 -0.0000000 )
                  (  0.0000000  0.0000000  1.0000000 )

      isym =  2     inversion

 cryst.   s( 2) = (    -1          0          0      )
                  (     0         -1          0      )
                  (     0          0         -1      )

 cart.    s( 2) = ( -1.0000000 -0.0000000 -0.0000000 )
                  (  0.0000000 -1.0000000  0.0000000 )
                  (  0.0000000  0.0000000 -1.0000000 )

   Cartesian axes

     site n.     atom                  positions (alat units)
         1           Pt  tau(   1) = (   0.2501829   0.2140058   0.5047128  )
         2           Pt  tau(   2) = (  -0.0680807  -0.2968217   0.5047128  )
         3           Pt  tau(   3) = (   0.3182636   0.5108274   0.0000000  )
         4           Pt  tau(   4) = (   0.4319193  -0.2968217   0.5047128  )
         5           Pb  tau(   5) = (   0.7474054   0.1679139   0.1454623  )
         6           Pb  tau(   6) = (  -0.2470396   0.2600976   0.8639633  )
         7           O   tau(   7) = (   0.1066853   0.4513058   0.7301347  )
         8           O   tau(   8) = (   0.3936805  -0.0232943   0.2792909  )
         9           O   tau(   9) = (   0.5106173   0.7557134   0.1600747  )
        10           O   tau(  10) = (  -0.0102516  -0.3277019   0.8493509  )
        11           O   tau(  11) = (   0.5646416   0.3754792   0.4998019  )
        12           O   tau(  12) = (  -0.0642758   0.0525323   0.5096237  )
        13           O   tau(  13) = (   0.1108822   0.4534799   0.2776778  )
        14           O   tau(  14) = (   0.3894835  -0.0254683   0.7317478  )

   Crystallographic axes

     site n.     atom                  positions (cryst. coord.)
         1           Pt  tau(   1) = (  0.5000000  0.5000000  0.5000000  )
         2           Pt  tau(   2) = ( -0.0000000  0.0000000  0.5000000  )
         3           Pt  tau(   3) = (  0.5000000  0.5000000  0.0000000  )
         4           Pt  tau(   4) = (  0.5000000  0.0000000  0.5000000  )
         5           Pb  tau(   5) = (  0.8572000  0.2480880  0.1441040  )
         6           Pb  tau(   6) = (  0.1428000  0.7519120  0.8558960  )
         7           O   tau(   7) = (  0.5184980  0.8620310  0.7233170  )
         8           O   tau(   8) = (  0.4815020  0.1379690  0.2766830  )
         9           O   tau(   9) = (  0.8345610  0.8318400  0.1585800  )
        10           O   tau(  10) = (  0.1654390  0.1681600  0.8414200  )
        11           O   tau(  11) = (  0.8702160  0.6552240  0.4951350  )
        12           O   tau(  12) = (  0.1297840  0.3447760  0.5048650  )
        13           O   tau(  13) = (  0.3677700  0.6037090  0.2750850  )
        14           O   tau(  14) = (  0.6322300  0.3962910  0.7249150  )

     number of k points=     1  Methfessel-Paxton smearing, width (Ry)=  0.0010
                       cart. coord. in units 2pi/alat
        k(    1) = (   0.0000000   0.0000000   0.0000000), wk =   2.0000000

                       cryst. coord.
        k(    1) = (   0.0000000   0.0000000   0.0000000), wk =   2.0000000

     Check: negative core charge=   -0.000008

     Initial potential from superposition of free atoms

     starting charge     137.9952, renormalised to     140.0000

     negative rho (up, down):  7.511E-01 0.000E+00
     Starting wfcs are   98 randomized atomic wfcs
     Checking if some PAW data can be deallocated...

     Self-consistent Calculation

     iteration #  1     ecut=    30.00 Ry     beta= 0.70
     Davidson diagonalization with overlap

     ethr =  1.00E-02,  avg # of iterations =  2.0

     negative rho (up, down):  6.866E-01 0.000E+00

     total energy              =   -2911.98299775 Ry
     estimated scf accuracy    <       7.73830471 Ry

[...]

     total energy              =   -2916.34569182 Ry
     estimated scf accuracy    <       0.00000827 Ry

     iteration # 16     ecut=    30.00 Ry     beta= 0.70
     Davidson diagonalization with overlap

     ethr =  5.90E-09,  avg # of iterations =  1.0

[...]

     End of self-consistent calculation

          k = 0.0000 0.0000 0.0000 (  1842 PWs)   bands (ev):

   -42.0247 -41.9413 -41.8632 -41.7802 -41.7326 -41.7190 -41.6981 -41.6794
   -41.4709 -40.9275 -40.7691 -40.0737  -8.2680  -7.3148  -7.1163  -6.7280
    -6.5947  -6.3122  -6.1699  -6.0229  -4.1065  -4.0730  -4.0666  -4.0579
    -4.0276  -3.9854  -3.9652  -3.9602  -3.8954  -3.7908   3.1375   3.8139
     4.2613   4.3233   4.6299   4.8395   5.1240   5.1672   5.5028   6.0031
     6.2178   6.6832   6.7277   6.8405   7.1088   7.4011   7.6777   8.0414
     8.1364   8.1861   8.4438   8.8269   8.8412   8.9886   9.1196   9.2000
     9.2059   9.2667   9.3357   9.5143   9.6557   9.7457   9.7962  10.2168
    10.4136  10.6661  10.8666  11.0739  11.5332  11.9720  12.0484  12.9178
    13.6649  14.4506  14.5082  15.5837  15.7017  16.0175  16.3055  16.6675
    17.0728  17.2476  17.5232  17.7465

     occupation numbers
     1.0000   1.0000   1.0000   1.0000   1.0000   1.0000   1.0000   1.0000
     1.0000   1.0000   1.0000   1.0000   1.0000   1.0000   1.0000   1.0000
     1.0000   1.0000   1.0000   1.0000   1.0000   1.0000   1.0000   1.0000
     1.0000   1.0000   1.0000   1.0000   1.0000   1.0000   1.0000   1.0000
     1.0000   1.0000   1.0000   1.0000   1.0000   1.0000   1.0000   1.0000
     1.0000   1.0000   1.0000   1.0000   1.0000   1.0000   1.0000   1.0000
     1.0000   1.0000   1.0000   1.0000   1.0000   1.0000   1.0000   1.0000
     1.0000   1.0000   1.0000   1.0000   1.0000   1.0000   1.0000   1.0000
     1.0000   1.0000   1.0000   1.0000   1.0000   1.0003  -0.0003  -0.0000
    -0.0000  -0.0000  -0.0000  -0.0000  -0.0000  -0.0000  -0.0000  -0.0000
    -0.0000  -0.0000  -0.0000  -0.0000

     the Fermi energy is    12.0102 ev

!    total energy              =   -2916.34569200 Ry
     estimated scf accuracy    <       0.00000014 Ry
     smearing contrib. (-TS)   =       0.00000311 Ry
     internal energy E=F+TS    =   -2916.34569511 Ry

     The total energy is F=E-TS. E is the sum of the following terms:
     one-electron contribution =    -377.07469828 Ry
     hartree contribution      =     289.71440509 Ry
     xc contribution           =    -375.01701366 Ry
     ewald contribution        =    -920.74832491 Ry
     one-center paw contrib.   =   -1533.22006335 Ry
      -> PAW hartree energy AE =     420.13514153 Ry
      -> PAW hartree energy PS =    -418.94828718 Ry
      -> PAW xc energy AE      =   -1680.55677916 Ry
      -> PAW xc energy PS      =     146.14986146 Ry
      -> total E_H with PAW    =     290.90125944 Ry
      -> total E_XC with PAW   =   -1909.42393137 Ry

     convergence has been achieved in  16 iterations

     negative rho (up, down):  7.084E-01 0.000E+00

     Forces acting on atoms (cartesian axes, Ry/au):

     atom    1 type  1   force =     0.00000000    0.00000000    0.00000000
     atom    2 type  1   force =     0.00000000    0.00000000    0.00000000
     atom    3 type  1   force =     0.00000000    0.00000000    0.00000000
     atom    4 type  1   force =     0.00000000    0.00000000    0.00000000
     atom    5 type  2   force =     0.00051610   -0.00538338   -0.01107287
     atom    6 type  2   force =    -0.00051610    0.00538338    0.01107287
     atom    7 type  3   force =     0.00286714   -0.00299479   -0.03072084
     atom    8 type  3   force =    -0.00286714    0.00299479    0.03072084
     atom    9 type  3   force =    -0.00455496   -0.00120887   -0.00680684
     atom   10 type  3   force =     0.00455496    0.00120887    0.00680684
     atom   11 type  3   force =    -0.01410227    0.00526323    0.00587264
     atom   12 type  3   force =     0.01410227   -0.00526323   -0.00587264
     atom   13 type  3   force =     0.02925863    0.00374567   -0.00860812
     atom   14 type  3   force =    -0.02925863   -0.00374567    0.00860812
     The non-local contrib.  to forces
     atom    1 type  1   force =     0.00000000    0.00000000    0.00000000
     atom    2 type  1   force =     0.00000000    0.00000000    0.00000000
     atom    3 type  1   force =     0.00000000    0.00000000    0.00000000
     atom    4 type  1   force =     0.00000000    0.00000000    0.00000000
     atom    5 type  2   force =    -0.03634326   -0.13858957    0.21589348
     atom    6 type  2   force =     0.03634326    0.13858957   -0.21589348
     atom    7 type  3   force =     0.09080504    0.06010398   -1.06486958
     atom    8 type  3   force =    -0.09080504   -0.06010398    1.06486958
     atom    9 type  3   force =    -0.49821072   -0.73277652    0.64772378
     atom   10 type  3   force =     0.49821072    0.73277652   -0.64772378
     atom   11 type  3   force =    -0.89173552    0.62712877    0.13565837
     atom   12 type  3   force =     0.89173552   -0.62712877   -0.13565837
     atom   13 type  3   force =     1.19674903    0.42712860    0.50603811
     atom   14 type  3   force =    -1.19674903   -0.42712860   -0.50603811
     The ionic contribution  to forces
     atom    1 type  1   force =    -0.00000000    0.00000000    0.00000000
     atom    2 type  1   force =     0.00000000   -0.00000000    0.00000000
     atom    3 type  1   force =     0.00000000    0.00000000   -0.00000000
     atom    4 type  1   force =    -0.00000000   -0.00000000   -0.00000000
     atom    5 type  2   force =     2.53395784    3.00151935   -8.61393109
     atom    6 type  2   force =    -2.53395784   -3.00151935    8.61393108
     atom    7 type  3   force =    -0.55086840    0.53999359   10.96407660
     atom    8 type  3   force =     0.55086840   -0.53999359  -10.96407660
     atom    9 type  3   force =     4.84685543    5.00126202   -6.10998792
     atom   10 type  3   force =    -4.84685543   -5.00126202    6.10998792
     atom   11 type  3   force =     6.63223474   -3.02652997   -0.35083206
     atom   12 type  3   force =    -6.63223474    3.02652997    0.35083207
     atom   13 type  3   force =    -8.01039485   -1.27025840   -6.25011730
     atom   14 type  3   force =     8.01039485    1.27025840    6.25011731
     The local contribution  to forces
     atom    1 type  1   force =    -0.00011104   -0.00029488   -0.00039510
     atom    2 type  1   force =    -0.00000604    0.00032838   -0.00047719
     atom    3 type  1   force =    -0.00002883    0.00024460    0.00032637
     atom    4 type  1   force =    -0.00001923    0.00023961   -0.00054340
     atom    5 type  2   force =    -2.49720925   -2.87320221    8.39564714
     atom    6 type  2   force =     2.49722669    2.87287352   -8.39514775
     atom    7 type  3   force =     0.46441646   -0.60232062   -9.94218843
     atom    8 type  3   force =    -0.46447097    0.60223945    9.94225526
     atom    9 type  3   force =    -4.35890202   -4.27826012    5.46325719
     atom   10 type  3   force =     4.35885227    4.27828789   -5.46311063
     atom   11 type  3   force =    -5.76531878    2.41207105    0.22237273
     atom   12 type  3   force =     5.76541907   -2.41218675   -0.22258253
     atom   13 type  3   force =     6.85738691    0.85206658    5.74166886
     atom   14 type  3   force =    -6.85733407   -0.85197982   -5.74173351
     The core correction contribution to forces
     atom    1 type  1   force =    -0.00000094   -0.00000250   -0.00000446
     atom    2 type  1   force =    -0.00000101    0.00000257   -0.00000279
     atom    3 type  1   force =     0.00000001    0.00000177    0.00000116
     atom    4 type  1   force =    -0.00000068    0.00000140   -0.00000402
     atom    5 type  2   force =     0.00011126    0.00463220   -0.00838931
     atom    6 type  2   force =    -0.00011095   -0.00463393    0.00839416
     atom    7 type  3   force =    -0.00142593   -0.00096376    0.01226738
     atom    8 type  3   force =     0.00142584    0.00096394   -0.01226605
     atom    9 type  3   force =     0.00577575    0.00873446   -0.00766288
     atom   10 type  3   force =    -0.00577657   -0.00873550    0.00766340
     atom   11 type  3   force =     0.01065475   -0.00754614   -0.00138658
     atom   12 type  3   force =    -0.01065380    0.00754564    0.00138630
     atom   13 type  3   force =    -0.01447780   -0.00534082   -0.00604536
     atom   14 type  3   force =     0.01447870    0.00534123    0.00604560
     The Hubbard contrib.    to forces
     atom    1 type  1   force =     0.00000000    0.00000000    0.00000000
     atom    2 type  1   force =     0.00000000    0.00000000    0.00000000
     atom    3 type  1   force =     0.00000000    0.00000000    0.00000000
     atom    4 type  1   force =     0.00000000    0.00000000    0.00000000
     atom    5 type  2   force =     0.00000000    0.00000000    0.00000000
     atom    6 type  2   force =     0.00000000    0.00000000    0.00000000
     atom    7 type  3   force =     0.00000000    0.00000000    0.00000000
     atom    8 type  3   force =     0.00000000    0.00000000    0.00000000
     atom    9 type  3   force =     0.00000000    0.00000000    0.00000000
     atom   10 type  3   force =     0.00000000    0.00000000    0.00000000
     atom   11 type  3   force =     0.00000000    0.00000000    0.00000000
     atom   12 type  3   force =     0.00000000    0.00000000    0.00000000
     atom   13 type  3   force =     0.00000000    0.00000000    0.00000000
     atom   14 type  3   force =     0.00000000    0.00000000    0.00000000
     The SCF correction term to forces
     atom    1 type  1   force =     0.00012081    0.00032424    0.00042892
     atom    2 type  1   force =     0.00000901   -0.00034954    0.00050625
     atom    3 type  1   force =     0.00002428   -0.00026261   -0.00035133
     atom    4 type  1   force =     0.00002101   -0.00025707    0.00057445
     atom    5 type  2   force =    -0.00000815    0.00026081   -0.00029253
     atom    6 type  2   force =    -0.00002490    0.00007754   -0.00021057
     atom    7 type  3   force =    -0.00006344    0.00020174    0.00002617
     atom    8 type  3   force =     0.00011122   -0.00010131   -0.00002838
     atom    9 type  3   force =    -0.00009178   -0.00018921   -0.00012546
     atom   10 type  3   force =     0.00010558    0.00012147    0.00000149
     atom   11 type  3   force =     0.00008858    0.00012703    0.00005746
     atom   12 type  3   force =    -0.00013775   -0.00003579    0.00014717
     atom   13 type  3   force =     0.00001572    0.00015964   -0.00014488
     atom   14 type  3   force =    -0.00002871   -0.00022693    0.00022438

     Total force =     0.069089     Total SCF correction =     0.001360

     Computing stress (Cartesian axis) and pressure

     negative rho (up, down):  7.084E-01 0.000E+00
          total   stress  (Ry/bohr**3)                   (kbar)     P=     -297.05
  -0.00210483   0.00018322   0.00009111         -309.63       26.95       13.40
   0.00018322  -0.00212040   0.00004605           26.95     -311.92        6.77
   0.00009111   0.00004605  -0.00183264           13.40        6.77     -269.59

     kinetic stress (kbar)  31961.33      5.29     37.19
                                5.29  31516.74    -13.60
                               37.19    -13.60  31786.91

     local   stress (kbar)   4844.55  -2060.35   1363.33
                            -2060.35 -11029.03    128.36
                             1363.33    128.36    321.25

     nonloc. stress (kbar)   1917.24    -29.04      1.87
                              -29.04   1954.30    -17.67
                                1.87    -17.67   1959.05

     hartree stress (kbar)   8299.64    811.67   -569.28
                              811.67  14509.94    -78.49
                             -569.28    -78.49   9515.10

     exc-cor stress (kbar)  15382.63      1.69     -0.62
                                1.69  15398.08      0.20
                               -0.62      0.20  15396.21

     corecor stress (kbar) -23968.65      0.24     -0.92
                                0.24 -23961.87      2.19
                               -0.92      2.19 -23962.68

     ewald   stress (kbar) -38746.37   1297.46   -818.16
                             1297.46 -28700.09    -14.21
                             -818.16    -14.21 -35285.43

     hubbard stress (kbar)      0.00      0.00      0.00
                                0.00      0.00      0.00
                                0.00      0.00      0.00

     DFT-D   stress (kbar)      0.00      0.00      0.00
                                0.00      0.00      0.00
                                0.00      0.00      0.00

     XDM     stress (kbar)      0.00      0.00      0.00
                                0.00      0.00      0.00
                                0.00      0.00      0.00

     dft-nl  stress (kbar)      0.00      0.00      0.00
                                0.00      0.00      0.00
                                0.00      0.00      0.00

     TS-vdW  stress (kbar)      0.00      0.00      0.00
                                0.00      0.00      0.00
                                0.00      0.00      0.00

[...]

                                0.00      0.00      0.00

     Writing all to output data dir new_calculations/myprefix.save/

     General routines

     Parallel routines

     PAW routines

   This run was terminated on:  14:37:51  21May2023

   JOB DONE.