     Program PWSCF v.7.0 starts on 21May2023 at 14:22:59

     Reading input from espresso_25628.pwi
Warning: card &CELL ignored
Warning: card / ignored

     Current dimensions of program PWSCF are:
     Max number of different atomic species (ntypx) = 10
     Max number of k-points (npk) =  40000
     Max angular momentum in pseudopotentials (lmaxx) =  4

     gamma-point specific algorithms are used
     Message from routine setup:
     using ibrav=0 with symmetry is DISCOURAGED, use correct ibrav instead

     Subspace diagonalization in iterative solution of the eigenvalue problem:
     a serial algorithm will be used

     Using Slab Decomposition

     bravais-lattice index     =            0
     lattice parameter (alat)  =      13.5496  a.u.
     unit-cell volume          =    4376.3181 (a.u.)^3
     number of atoms/cell      =           16
     number of atomic types    =            2
     number of electrons       =       144.00
     number of Kohn-Sham states=           86
     kinetic-energy cutoff     =      30.0000  Ry
     charge density cutoff     =     240.0000  Ry
     scf convergence threshold =      1.0E-06
     mixing beta               =       0.7000
     number of iterations used =            8  plain     mixing
     Exchange-correlation=  SLA  PW   PBX  PBC
                           (   1   4   3   4   0   0   0)

     celldm(1)=  13.549597  celldm(2)=   0.000000  celldm(3)=   0.000000
     celldm(4)=   0.000000  celldm(5)=   0.000000  celldm(6)=   0.000000

     crystal axes: (cart. coord. in units of alat)
               a(1) = (   1.000000   0.000000   0.000000 )
               a(2) = (   0.000000   1.219732   0.000000 )
               a(3) = (   0.000000   0.000000   1.442332 )

     reciprocal axes: (cart. coord. in units 2 pi/alat)
               b(1) = (  1.000000  0.000000  0.000000 )
               b(2) = (  0.000000  0.819852  0.000000 )
               b(3) = (  0.000000  0.000000  0.693322 )

     PseudoPot. # 1 for Sb read from file:
     /home/pragov/projects/rrg-bengioy-ad/pragov/crystal_structure_design/SSSP/sb_pbe_v1.4.uspp.F.UPF
     MD5 check sum: 9bc50dfb53373b713f5709b9110fe27f
     Pseudo is Ultrasoft + core correction, Zval = 15.0
     Generated by new atomic code, or converted to UPF format
     Using radial grid of  891 points,  6 beta functions with:
                l(1) =   0
                l(2) =   0
                l(3) =   1
                l(4) =   1
                l(5) =   2
                l(6) =   2
     Q(r) pseudized with  8 coefficients,  rinner =    1.350   1.350   1.350
                                                       1.350   1.350

     PseudoPot. # 2 for Br read from file:
     /home/pragov/projects/rrg-bengioy-ad/pragov/crystal_structure_design/SSSP/br_pbe_v1.4.uspp.F.UPF
     MD5 check sum: d3ffb7b29f6225aa16fe06858fb2a80b
     Pseudo is Ultrasoft + core correction, Zval =  7.0
     Generated by new atomic code, or converted to UPF format
     Using radial grid of  879 points,  6 beta functions with:
                l(1) =   0
                l(2) =   0
                l(3) =   1
                l(4) =   1
                l(5) =   2
                l(6) =   2
     Q(r) pseudized with  8 coefficients,  rinner =    1.100   1.100   1.100
                                                       1.100   1.100

     atomic species   valence    mass     pseudopotential
        Sb            15.00   121.76000     Sb( 1.00)
        Br             7.00    79.90400     Br( 1.00)

      8 Sym. Ops., with inversion, found ( 6 have fractional translation)

                                    s                        frac. trans.

      isym =  1     identity

 cryst.   s( 1) = (     1          0          0      )
                  (     0          1          0      )
                  (     0          0          1      )

 cart.    s( 1) = (  1.0000000  0.0000000  0.0000000 )
                  (  0.0000000  1.0000000  0.0000000 )
                  (  0.0000000  0.0000000  1.0000000 )

      isym =  2     180 deg rotation - cart. axis [0,0,1]

 cryst.   s( 2) = (    -1          0          0      )    f =(  0.0000000 )
                  (     0         -1          0      )       (  0.0000000 )
                  (     0          0          1      )       ( -0.5000000 )

 cart.    s( 2) = ( -1.0000000  0.0000000  0.0000000 )    f =(  0.0000000 )
                  (  0.0000000 -1.0000000  0.0000000 )       (  0.0000000 )
                  (  0.0000000  0.0000000  1.0000000 )       ( -0.7211660 )

[...]

      isym =  4     180 deg rotation - cart. axis [1,0,0]

[...]

      isym =  5     inversion

 cryst.   s( 5) = (    -1          0          0      )
                  (     0         -1          0      )
                  (     0          0         -1      )

 cart.    s( 5) = ( -1.0000000  0.0000000  0.0000000 )
                  (  0.0000000 -1.0000000  0.0000000 )
                  (  0.0000000  0.0000000 -1.0000000 )

      isym =  6     inv. 180 deg rotation - cart. axis [0,0,1]

[...]

      isym =  8     inv. 180 deg rotation - cart. axis [1,0,0]

 cryst.   s( 8) = (    -1          0          0      )    f =(  0.5000000 )
                  (     0          1          0      )       (  0.5000000 )
                  (     0          0          1      )       (  0.0000000 )

 cart.    s( 8) = ( -1.0000000  0.0000000  0.0000000 )    f =(  0.5000000 )
                  (  0.0000000  1.0000000  0.0000000 )       (  0.6098661 )
                  (  0.0000000  0.0000000  1.0000000 )       (  0.0000000 )

   Cartesian axes

     site n.     atom                  positions (alat units)
         1           Sb  tau(   1) = (   0.4781240   0.6112090   0.3605830  )
         2           Sb  tau(   2) = (   0.9781240   1.2183892   1.0817491  )
         3           Sb  tau(   3) = (   0.5218760   0.6085232   1.0817491  )
         4           Sb  tau(   4) = (   0.0218760   0.0013429   0.3605830  )
         5           Br  tau(   5) = (   0.6386710   0.3911181   1.3403578  )
         6           Br  tau(   6) = (   0.6788320   0.0944487   0.3605830  )
         7           Br  tau(   7) = (   0.1386710   0.2187480   0.1019743  )
         8           Br  tau(   8) = (   0.1386710   0.2187480   0.6191917  )
         9           Br  tau(   9) = (   0.1788320   0.5154173   1.0817491  )
        10           Br  tau(  10) = (   0.3211680   1.1252834   1.0817491  )
        11           Br  tau(  11) = (   0.3613290   0.8286141   0.1019743  )
        12           Br  tau(  12) = (   0.8613290   1.0009842   1.3403578  )
        13           Br  tau(  13) = (   0.3613290   0.8286141   0.6191917  )
        14           Br  tau(  14) = (   0.8613290   1.0009842   0.8231404  )
        15           Br  tau(  15) = (   0.6386710   0.3911181   0.8231404  )
        16           Br  tau(  16) = (   0.8211680   0.7043148   0.3605830  )

   Crystallographic axes

     site n.     atom                  positions (cryst. coord.)
         1           Sb  tau(   1) = (  0.4781240  0.5011010  0.2500000  )
         2           Sb  tau(   2) = (  0.9781240  0.9988990  0.7500000  )
         3           Sb  tau(   3) = (  0.5218760  0.4988990  0.7500000  )
         4           Sb  tau(   4) = (  0.0218760  0.0011010  0.2500000  )
         5           Br  tau(   5) = (  0.6386710  0.3206590  0.9292990  )
         6           Br  tau(   6) = (  0.6788320  0.0774340  0.2500000  )
         7           Br  tau(   7) = (  0.1386710  0.1793410  0.0707010  )
         8           Br  tau(   8) = (  0.1386710  0.1793410  0.4292990  )
         9           Br  tau(   9) = (  0.1788320  0.4225660  0.7500000  )
        10           Br  tau(  10) = (  0.3211680  0.9225660  0.7500000  )
        11           Br  tau(  11) = (  0.3613290  0.6793410  0.0707010  )
        12           Br  tau(  12) = (  0.8613290  0.8206590  0.9292990  )
        13           Br  tau(  13) = (  0.3613290  0.6793410  0.4292990  )
        14           Br  tau(  14) = (  0.8613290  0.8206590  0.5707010  )
        15           Br  tau(  15) = (  0.6386710  0.3206590  0.5707010  )
        16           Br  tau(  16) = (  0.8211680  0.5774340  0.2500000  )

     number of k points=     1  Methfessel-Paxton smearing, width (Ry)=  0.0010
                       cart. coord. in units 2pi/alat
        k(    1) = (   0.0000000   0.0000000   0.0000000), wk =   2.0000000

                       cryst. coord.
        k(    1) = (   0.0000000   0.0000000   0.0000000), wk =   2.0000000

     Check: negative core charge=   -0.000003

     Initial potential from superposition of free atoms

     starting charge     139.9997, renormalised to     144.0000
     Starting wfcs are   84 randomized atomic wfcs +    2 random wfcs

     Self-consistent Calculation

     iteration #  1     ecut=    30.00 Ry     beta= 0.70
     Davidson diagonalization with overlap

     ethr =  1.00E-02,  avg # of iterations =  5.0

     Threshold (ethr) on eigenvalues was too large:
     Diagonalizing with lowered threshold

     Davidson diagonalization with overlap

[...]

     total energy              =   -1302.03931486 Ry
     estimated scf accuracy    <       1.26075400 Ry

[...]

     c_bands:  1 eigenvalues not converged
     ethr =  3.53E-05,  avg # of iterations = 20.0

[...]

     total energy              =   -1302.53931398 Ry
     estimated scf accuracy    <       0.00000136 Ry

     iteration #  8     ecut=    30.00 Ry     beta= 0.70
     Davidson diagonalization with overlap

     ethr =  9.45E-10,  avg # of iterations =  2.0

     End of self-consistent calculation

          k = 0.0000 0.0000 0.0000 (  6061 PWs)   bands (ev):

   -27.6971 -27.6965 -27.6919 -27.6909 -27.6908 -27.6887 -27.6877 -27.6871
   -27.6363 -27.6359 -27.6358 -27.6356 -27.6353 -27.6347 -27.6341 -27.6320
   -27.6075 -27.6073 -27.6067 -27.6043 -12.9289 -12.7579 -12.7382 -12.7155
   -12.2664 -12.2654 -12.2147 -12.2002 -12.1953 -12.1526 -12.1462 -12.0893
    -7.0006  -6.7608  -6.7464  -6.6343  -2.3644  -2.0868  -2.0467  -2.0331
    -2.0177  -1.8876  -1.8663  -1.6229  -1.5297  -1.0815  -1.0031  -0.9278
    -0.5013  -0.3538  -0.1663  -0.1277  -0.1242  -0.1180  -0.1071   0.0723
     0.0839   0.2687   0.2993   0.3591   0.4204   0.4259   0.5178   0.6129
     0.6479   0.6566   0.6930   0.7202   0.7945   0.8182   0.8462   0.8483
     4.0766   4.4302   4.4829   4.5235   4.5826   4.8534   4.9034   4.9517
     4.9949   5.0255   5.1100   5.3398   7.2710   8.5691

     occupation numbers
     1.0000   1.0000   1.0000   1.0000   1.0000   1.0000   1.0000   1.0000
     1.0000   1.0000   1.0000   1.0000   1.0000   1.0000   1.0000   1.0000
     1.0000   1.0000   1.0000   1.0000   1.0000   1.0000   1.0000   1.0000
     1.0000   1.0000   1.0000   1.0000   1.0000   1.0000   1.0000   1.0000
     1.0000   1.0000   1.0000   1.0000   1.0000   1.0000   1.0000   1.0000
     1.0000   1.0000   1.0000   1.0000   1.0000   1.0000   1.0000   1.0000
     1.0000   1.0000   1.0000   1.0000   1.0000   1.0000   1.0000   1.0000
     1.0000   1.0000   1.0000   1.0000   1.0000   1.0000   1.0000   1.0000
     1.0000   1.0000   1.0000   1.0000   1.0000   1.0000   1.0000   1.0000
    -0.0000  -0.0000  -0.0000  -0.0000  -0.0000  -0.0000  -0.0000  -0.0000
    -0.0000  -0.0000  -0.0000  -0.0000  -0.0000  -0.0000

     the Fermi energy is     1.8542 ev

!    total energy              =   -1302.53931391 Ry
     estimated scf accuracy    <       0.00000076 Ry
     smearing contrib. (-TS)   =       0.00000000 Ry
     internal energy E=F+TS    =   -1302.53931391 Ry

     The total energy is F=E-TS. E is the sum of the following terms:
     one-electron contribution =    -620.94369519 Ry
     hartree contribution      =     360.08347225 Ry
     xc contribution           =    -489.13479905 Ry
     ewald contribution        =    -552.54429192 Ry

     convergence has been achieved in   8 iterations

     Forces acting on atoms (cartesian axes, Ry/au):

     atom    1 type  1   force =    -0.00278384    0.00071608    0.00000000
     atom    2 type  1   force =    -0.00278384   -0.00071608    0.00000000
     atom    3 type  1   force =     0.00278384   -0.00071608    0.00000000
     atom    4 type  1   force =     0.00278384    0.00071608    0.00000000
     atom    5 type  2   force =    -0.00372272   -0.00005033    0.00376737
     atom    6 type  2   force =     0.00012781   -0.00217655    0.00000000
     atom    7 type  2   force =    -0.00372272    0.00005033   -0.00376737
     atom    8 type  2   force =    -0.00372272    0.00005033    0.00376737
     atom    9 type  2   force =     0.00012781    0.00217655    0.00000000
     atom   10 type  2   force =    -0.00012781    0.00217655    0.00000000
     atom   11 type  2   force =     0.00372272    0.00005033   -0.00376737
     atom   12 type  2   force =     0.00372272   -0.00005033    0.00376737
     atom   13 type  2   force =     0.00372272    0.00005033    0.00376737
     atom   14 type  2   force =     0.00372272   -0.00005033   -0.00376737
     atom   15 type  2   force =    -0.00372272   -0.00005033   -0.00376737
     atom   16 type  2   force =    -0.00012781   -0.00217655    0.00000000
     The non-local contrib.  to forces
     atom    1 type  1   force =     0.20401913    0.76092594    0.00000000
     atom    2 type  1   force =     0.20401913   -0.76092594    0.00000000
     atom    3 type  1   force =    -0.20401913   -0.76092594    0.00000000
     atom    4 type  1   force =    -0.20401913    0.76092594    0.00000000
     atom    5 type  2   force =     0.00780924   -0.00737284    0.00797278
     atom    6 type  2   force =    -0.01656608   -0.00540282    0.00000000
     atom    7 type  2   force =     0.00780924    0.00737284   -0.00797278
     atom    8 type  2   force =     0.00780924    0.00737284    0.00797278
     atom    9 type  2   force =    -0.01656608    0.00540282    0.00000000
     atom   10 type  2   force =     0.01656608    0.00540282    0.00000000
     atom   11 type  2   force =    -0.00780924    0.00737284   -0.00797278
     atom   12 type  2   force =    -0.00780924   -0.00737284    0.00797278
     atom   13 type  2   force =    -0.00780924    0.00737284    0.00797278
     atom   14 type  2   force =    -0.00780924   -0.00737284   -0.00797278
     atom   15 type  2   force =     0.00780924   -0.00737284   -0.00797278
     atom   16 type  2   force =     0.01656608   -0.00540282    0.00000000
     The ionic contribution  to forces
     atom    1 type  1   force =    -2.12865535   -6.36571178    0.00000000
     atom    2 type  1   force =    -2.12865535    6.36571178   -0.00000000
     atom    3 type  1   force =     2.12865535    6.36571178   -0.00000000
     atom    4 type  1   force =     2.12865535   -6.36571178    0.00000000
     atom    5 type  2   force =     2.36674807   -3.93814640    3.77540406
     atom    6 type  2   force =    -6.32809841    0.52501911    0.00000000
     atom    7 type  2   force =     2.36674807    3.93814640   -3.77540406
     atom    8 type  2   force =     2.36674807    3.93814640    3.77540406
     atom    9 type  2   force =    -6.32809841   -0.52501911   -0.00000000
     atom   10 type  2   force =     6.32809841   -0.52501911   -0.00000000
     atom   11 type  2   force =    -2.36674807    3.93814640   -3.77540406
     atom   12 type  2   force =    -2.36674807   -3.93814640    3.77540406
     atom   13 type  2   force =    -2.36674807    3.93814640    3.77540406
     atom   14 type  2   force =    -2.36674807   -3.93814640   -3.77540406
     atom   15 type  2   force =     2.36674807   -3.93814640   -3.77540406
     atom   16 type  2   force =     6.32809841    0.52501911    0.00000000
     The local contribution  to forces
     atom    1 type  1   force =     1.92336187    5.61043140   -0.00175430
     atom    2 type  1   force =     1.92325517   -5.61041718    0.00173682
     atom    3 type  1   force =    -1.92325124   -5.61042333    0.00174404
     atom    4 type  1   force =    -1.92336487    5.61042563   -0.00175324
     atom    5 type  2   force =    -2.38720249    3.96000765   -3.79540244
     atom    6 type  2   force =     6.36919948   -0.52395209   -0.00057590
     atom    7 type  2   force =    -2.38723608   -3.96003343    3.79548884
     atom    8 type  2   force =    -2.38723376   -3.96005593   -3.79609911
     atom    9 type  2   force =     6.36916395    0.52394984    0.00057704
     atom   10 type  2   force =    -6.36916953    0.52395565    0.00057594
     atom   11 type  2   force =     2.38722685   -3.96002686    3.79548745
     atom   12 type  2   force =     2.38720731    3.96001541   -3.79540052
     atom   13 type  2   force =     2.38722919   -3.96005068   -3.79610313
     atom   14 type  2   force =     2.38720700    3.96004282    3.79601470
     atom   15 type  2   force =    -2.38719932    3.96003258    3.79601528
     atom   16 type  2   force =    -6.36919219   -0.52394989   -0.00057861
     The core correction contribution to forces
     atom    1 type  1   force =    -0.00149515   -0.00501300   -0.00001869
     atom    2 type  1   force =    -0.00149643    0.00501368    0.00001805
     atom    3 type  1   force =     0.00149649    0.00501391    0.00001824
     atom    4 type  1   force =     0.00149506   -0.00501284   -0.00001873
     atom    5 type  2   force =     0.00904186   -0.01470829    0.01635078
     atom    6 type  2   force =    -0.02465495    0.00220890   -0.00000526
     atom    7 type  2   force =     0.00904087    0.01470755   -0.01634895
     atom    8 type  2   force =     0.00904507    0.01471502    0.01634904
     atom    9 type  2   force =    -0.02465669   -0.00220865    0.00000514
     atom   10 type  2   force =     0.02465668   -0.00220871    0.00000512
     atom   11 type  2   force =    -0.00904184    0.01470761   -0.01634922
     atom   12 type  2   force =    -0.00904202   -0.01470792    0.01635091
     atom   13 type  2   force =    -0.00904500    0.01471461    0.01634831
     atom   14 type  2   force =    -0.00904547   -0.01471484   -0.01635026
     atom   15 type  2   force =     0.00904595   -0.01471518   -0.01635009
     atom   16 type  2   force =     0.02465494    0.00220880   -0.00000507
     The Hubbard contrib.    to forces
     atom    1 type  1   force =     0.00000000    0.00000000    0.00000000
     atom    2 type  1   force =     0.00000000    0.00000000    0.00000000
     atom    3 type  1   force =     0.00000000    0.00000000    0.00000000
     atom    4 type  1   force =     0.00000000    0.00000000    0.00000000
     atom    5 type  2   force =     0.00000000    0.00000000    0.00000000
     atom    6 type  2   force =     0.00000000    0.00000000    0.00000000
     atom    7 type  2   force =     0.00000000    0.00000000    0.00000000
     atom    8 type  2   force =     0.00000000    0.00000000    0.00000000
     atom    9 type  2   force =     0.00000000    0.00000000    0.00000000
     atom   10 type  2   force =     0.00000000    0.00000000    0.00000000
     atom   11 type  2   force =     0.00000000    0.00000000    0.00000000
     atom   12 type  2   force =     0.00000000    0.00000000    0.00000000
     atom   13 type  2   force =     0.00000000    0.00000000    0.00000000
     atom   14 type  2   force =     0.00000000    0.00000000    0.00000000
     atom   15 type  2   force =     0.00000000    0.00000000    0.00000000
     atom   16 type  2   force =     0.00000000    0.00000000    0.00000000
     The SCF correction term to forces
     atom    1 type  1   force =    -0.00001878    0.00008817    0.00184038
     atom    2 type  1   force =     0.00009703   -0.00009297   -0.00182159
     atom    3 type  1   force =    -0.00010376   -0.00008814   -0.00183034
     atom    4 type  1   force =     0.00002251    0.00009426    0.00183614
     atom    5 type  2   force =    -0.00010524    0.00014075   -0.00056376
     atom    6 type  2   force =     0.00024275   -0.00004992    0.00063826
     atom    7 type  2   force =    -0.00006583   -0.00011294    0.00046551
     atom    8 type  2   force =    -0.00010494   -0.00015820    0.00014487
     atom    9 type  2   force =     0.00029010    0.00005157   -0.00063892
     atom   10 type  2   force =    -0.00028454    0.00004562   -0.00063792
     atom   11 type  2   force =     0.00008067   -0.00012000    0.00046806
     atom   12 type  2   force =     0.00010144    0.00013088   -0.00056690
     atom   13 type  2   force =     0.00010943   -0.00016244    0.00015254
     atom   14 type  2   force =     0.00013422    0.00016945   -0.00005155
     atom   15 type  2   force =    -0.00014464    0.00018232   -0.00005339
     atom   16 type  2   force =    -0.00024993   -0.00005183    0.00063999

     Total force =     0.016628     Total SCF correction =     0.004099
     SCF correction compared to forces is large: reduce conv_thr to get better values

     Computing stress (Cartesian axis) and pressure

          total   stress  (Ry/bohr**3)                   (kbar)     P=      -40.00
  -0.00030149   0.00000000   0.00000000          -44.35        0.00        0.00
   0.00000000  -0.00024240   0.00000000            0.00      -35.66        0.00
   0.00000000   0.00000000  -0.00027178            0.00        0.00      -39.98

     kinetic stress (kbar)   5526.58      0.00      0.00
                                0.00   5598.12      0.00
                                0.00      0.00   5539.23

     local   stress (kbar)   1085.53      0.00      0.00
                                0.00   1563.70     -0.04
                                0.00     -0.04  -2040.92

     nonloc. stress (kbar)  -1488.23      0.00      0.00
                                0.00  -1483.39      0.00
                                0.00      0.00  -1492.11

     hartree stress (kbar)   3585.18     -0.00     -0.00
                               -0.00   3535.86      0.01
                               -0.00      0.01   4982.77

     exc-cor stress (kbar)   9225.81     -0.00     -0.00
                               -0.00   9225.11      0.00
                               -0.00      0.00   9226.55

     corecor stress (kbar) -11378.11      0.00     -0.00
                                0.00 -11380.51      0.00
                               -0.00      0.00 -11378.00

     ewald   stress (kbar)  -6601.11      0.00      0.00
                                0.00  -7094.55      0.00
                                0.00      0.00  -4877.50

     hubbard stress (kbar)      0.00      0.00      0.00
                                0.00      0.00      0.00
                                0.00      0.00      0.00

     DFT-D   stress (kbar)      0.00      0.00      0.00
                                0.00      0.00      0.00
                                0.00      0.00      0.00

     XDM     stress (kbar)      0.00      0.00      0.00
                                0.00      0.00      0.00
                                0.00      0.00      0.00

     dft-nl  stress (kbar)      0.00      0.00      0.00
                                0.00      0.00      0.00
                                0.00      0.00      0.00

     TS-vdW  stress (kbar)      0.00      0.00      0.00
                                0.00      0.00      0.00
                                0.00      0.00      0.00

[...]

                                0.00      0.00      0.00

     Writing all to output data dir new_calculations/myprefix.save/

     General routines

     Parallel routines

   This run was terminated on:  14:23:56  21May2023

   JOB DONE.