     Program PWSCF v.7.0 starts on 20May2023 at 19:32: 4

     Reading input from espresso_6516.pwi
Warning: card &CELL ignored
Warning: card / ignored

     Current dimensions of program PWSCF are:
     Max number of different atomic species (ntypx) = 10
     Max number of k-points (npk) =  40000
     Max angular momentum in pseudopotentials (lmaxx) =  4
     file K.pbe-spn-kjpaw_psl.1.0.0.UPF: wavefunction(s)  3S renormalized
     file O.pbe-n-kjpaw_psl.0.1.UPF: wavefunction(s)  2P renormalized

     gamma-point specific algorithms are used
     Message from routine setup:
     using ibrav=0 with symmetry is DISCOURAGED, use correct ibrav instead

     Subspace diagonalization in iterative solution of the eigenvalue problem:
     a serial algorithm will be used

     Using Slab Decomposition

     bravais-lattice index     =            0
     lattice parameter (alat)  =      21.5503  a.u.
     unit-cell volume          =    1203.1761 (a.u.)^3
     number of atoms/cell      =           12
     number of atomic types    =            4
     number of electrons       =        96.00
     number of Kohn-Sham states=           58
     kinetic-energy cutoff     =      30.0000  Ry
     charge density cutoff     =     240.0000  Ry
     scf convergence threshold =      1.0E-06
     mixing beta               =       0.7000
     number of iterations used =            8  plain     mixing
     Exchange-correlation= SLA  PW   PBX  PBC
                           (   1   4   3   4   0   0   0)

     celldm(1)=  21.550290  celldm(2)=   0.000000  celldm(3)=   0.000000
     celldm(4)=   0.000000  celldm(5)=   0.000000  celldm(6)=   0.000000

     crystal axes: (cart. coord. in units of alat)
               a(1) = (   1.000000   0.000000   0.000000 )
               a(2) = (   0.875868   0.482551   0.000000 )
               a(3) = (  -0.937934  -0.241275   0.249130 )

     reciprocal axes: (cart. coord. in units 2 pi/alat)
               b(1) = (  1.000000 -1.815080  2.006981 )
               b(2) = (  0.000000  2.072321  2.006981 )
               b(3) = (  0.000000  0.000000  4.013961 )

     PseudoPot. # 1 for K  read from file:
     /home/pragov/projects/rrg-bengioy-ad/pragov/crystal_structure_design/SSSP/K.pbe-spn-kjpaw_psl.1.0.0.UPF
     MD5 check sum: 7d58810084cac21f60fbe77ea2b688fd
     Pseudo is Projector augmented-wave + core cor, Zval =  9.0
     Generated using "atomic" code by A. Dal Corso  v.5.1
     Shape of augmentation charge: PSQ
     Using radial grid of 1165 points,  6 beta functions with:
                l(1) =   0
                l(2) =   0
                l(3) =   1
                l(4) =   1
                l(5) =   2
                l(6) =   2
     Q(r) pseudized with 0 coefficients

     PseudoPot. # 2 for Sr read from file:
     /home/pragov/projects/rrg-bengioy-ad/pragov/crystal_structure_design/SSSP/Sr_pbe_v1.uspp.F.UPF
     MD5 check sum: 6b418c05fbe9db5448babca5e47b7a5b
     Pseudo is Ultrasoft + core correction, Zval = 10.0
     Generated by new atomic code, or converted to UPF format
     Using radial grid of  883 points,  6 beta functions with:
                l(1) =   0
                l(2) =   0
                l(3) =   1
                l(4) =   1
                l(5) =   2
                l(6) =   2
     Q(r) pseudized with  6 coefficients,  rinner =    1.400   1.400   1.400
                                                       1.400   1.400

     PseudoPot. # 3 for Ta read from file:
     /home/pragov/projects/rrg-bengioy-ad/pragov/crystal_structure_design/SSSP/Ta_pbe_v1.uspp.F.UPF
     MD5 check sum: f8bbe9446314a3b8ea5d9f3e3836c939
     Pseudo is Ultrasoft + core correction, Zval = 13.0
     Generated by new atomic code, or converted to UPF format
     Using radial grid of  921 points,  7 beta functions with:
                l(1) =   0
                l(2) =   0
                l(3) =   1
                l(4) =   1
                l(5) =   2
                l(6) =   2
                l(7) =   3
     Q(r) pseudized with  6 coefficients,  rinner =    1.300   1.300   1.300
                                                       1.300   1.300   1.300
                                                       1.300

     PseudoPot. # 4 for O  read from file:
     /home/pragov/projects/rrg-bengioy-ad/pragov/crystal_structure_design/SSSP/O.pbe-n-kjpaw_psl.0.1.UPF
     MD5 check sum: 0234752ac141de4415c5fc33072bef88
     Pseudo is Projector augmented-wave + core cor, Zval =  6.0
     Generated using "atomic" code by A. Dal Corso  v.5.0.99 svn rev. 10869
     Shape of augmentation charge: BESSEL
     Using radial grid of 1095 points,  4 beta functions with:
                l(1) =   0
                l(2) =   0
                l(3) =   1
                l(4) =   1
     Q(r) pseudized with 0 coefficients

     atomic species   valence    mass     pseudopotential
        K              9.00    39.09830     K ( 1.00)
        Sr            10.00    87.62000     Sr( 1.00)
        Ta            13.00   180.94788     Ta( 1.00)
        O              6.00    15.99900     O ( 1.00)

      4 Sym. Ops., with inversion, found

                                    s                        frac. trans.

      isym =  1     identity

 cryst.   s( 1) = (     1          0          0      )
                  (     0          1          0      )
                  (     0          0          1      )

 cart.    s( 1) = (  1.0000000  0.0000000  0.0000000 )
                  (  0.0000000  1.0000000  0.0000000 )
                  (  0.0000000  0.0000000  1.0000000 )

      isym =  2     180 deg rotation - cart. axis [0,0,1]

[...]

      isym =  3     inversion

[...]

      isym =  4     inv. 180 deg rotation - cart. axis [0,0,1]

 cryst.   s( 4) = (     1          0          0      )
                  (     0          1          0      )
                  (    -1         -1         -1      )

 cart.    s( 4) = (  1.0000000  0.0000000 -0.0000000 )
                  (  0.0000000  1.0000000 -0.0000000 )
                  (  0.0000000  0.0000000 -1.0000000 )

   Cartesian axes

     site n.     atom                  positions (alat units)
         1           K   tau(   1) = (   1.5135066   0.3893364   0.0000000  )
         2           K   tau(   2) = (   0.3623614   0.0932143   0.0000000  )
         3           Sr  tau(   3) = (   0.0000000   0.0000000   0.0000000  )
         4           Ta  tau(   4) = (   1.1181411   0.2876321   0.0000000  )
         5           Ta  tau(   5) = (   0.7577269   0.1949186   0.0000000  )
         6           O   tau(   6) = (   0.9379340   0.2412754   0.0000000  )
         7           O   tau(   7) = (   0.5985689   0.1539766   0.0000000  )
         8           O   tau(   8) = (   1.2772992   0.3285741   0.0000000  )
         9           O   tau(   9) = (   0.8050480   0.0784710   0.1245652  )
        10           O   tau(  10) = (   0.7429820   0.3197463   0.1245652  )
        11           O   tau(  11) = (   0.1949520  -0.0784710   0.1245652  )
        12           O   tau(  12) = (   0.1328860   0.1628044   0.1245652  )

   Crystallographic axes

     site n.     atom                  positions (cryst. coord.)
         1           K   tau(   1) = (  0.8068300  0.8068300  0.0000000  )
         2           K   tau(   2) = (  0.1931700  0.1931700  0.0000000  )
         3           Sr  tau(   3) = (  0.0000000  0.0000000  0.0000000  )
         4           Ta  tau(   4) = (  0.5960660  0.5960660  0.0000000  )
         5           Ta  tau(   5) = (  0.4039340  0.4039340  0.0000000  )
         6           O   tau(   6) = (  0.5000000  0.5000000  0.0000000  )
         7           O   tau(   7) = (  0.3190890  0.3190890  0.0000000  )
         8           O   tau(   8) = (  0.6809110  0.6809110  0.0000000  )
         9           O   tau(   9) = (  0.9126170  0.4126170  0.5000000  )
        10           O   tau(  10) = (  0.4126170  0.9126170  0.5000000  )
        11           O   tau(  11) = (  0.5873830  0.0873830  0.5000000  )
        12           O   tau(  12) = (  0.0873830  0.5873830  0.5000000  )

     number of k points=     1  Methfessel-Paxton smearing, width (Ry)=  0.0010
                       cart. coord. in units 2pi/alat
        k(    1) = (   0.0000000   0.0000000   0.0000000), wk =   2.0000000

                       cryst. coord.
        k(    1) = (   0.0000000   0.0000000   0.0000000), wk =   2.0000000

     Check: negative core charge=   -0.000009

     Initial potential from superposition of free atoms

     starting charge      95.9265, renormalised to      96.0000

     negative rho (up, down):  2.522E-01 0.000E+00
     Starting wfcs are   83 randomized atomic wfcs
     Checking if some PAW data can be deallocated...

     Self-consistent Calculation

     iteration #  1     ecut=    30.00 Ry     beta= 0.70
     Davidson diagonalization with overlap

     ethr =  1.00E-02,  avg # of iterations =  2.0

     negative rho (up, down):  2.558E-01 0.000E+00

     total energy              =    -868.74749189 Ry
     estimated scf accuracy    <       4.89187409 Ry

[...]

     total energy              =    -871.11117266 Ry
     estimated scf accuracy    <       0.00000193 Ry

     iteration # 14     ecut=    30.00 Ry     beta= 0.70
     Davidson diagonalization with overlap

     ethr =  2.01E-09,  avg # of iterations =  2.0

[...]

     End of self-consistent calculation

          k = 0.0000 0.0000 0.0000 (  1673 PWs)   bands (ev):

   -60.9972 -60.9960 -27.5028 -27.5015 -27.4982 -27.4915 -27.1621 -27.1452
   -24.1015 -21.0366 -20.9890  -9.2351  -9.1599  -8.7671  -8.6684  -8.3011
    -8.2817  -7.7506  -6.1348  -6.0880  -5.8977  -4.6334  -4.5734  -4.5644
    -4.5110  -4.4510  -4.3745   3.6082   4.7324   5.1832   5.2230   5.4373
     5.4633   5.7984   5.8021   5.8126   5.9128   5.9338   6.2470   6.9500
     7.3656   7.3867   7.3901   7.6110   7.7252   7.7270   8.0305   8.0343
     9.2887   9.3553  10.9467  10.9475  11.8166  11.8416  12.0212  13.6152
    13.6336  13.7689

     occupation numbers
     1.0000   1.0000   1.0000   1.0000   1.0000   1.0000   1.0000   1.0000
     1.0000   1.0000   1.0000   1.0000   1.0000   1.0000   1.0000   1.0000
     1.0000   1.0000   1.0000   1.0000   1.0000   1.0000   1.0000   1.0000
     1.0000   1.0000   1.0000   1.0000   1.0000   1.0000   1.0000   1.0000
     1.0000   1.0000   1.0000   1.0000   1.0000   1.0000   1.0000   1.0000
     1.0000   1.0000   1.0000   1.0000   1.0000   1.0000   1.0000   1.0000
    -0.0000  -0.0000  -0.0000  -0.0000  -0.0000  -0.0000  -0.0000  -0.0000
    -0.0000  -0.0000

     the Fermi energy is     9.2151 ev

!    total energy              =    -871.11117296 Ry
     estimated scf accuracy    <       0.00000015 Ry
     smearing contrib. (-TS)   =       0.00000000 Ry
     internal energy E=F+TS    =    -871.11117296 Ry

     The total energy is F=E-TS. E is the sum of the following terms:
     one-electron contribution =    -283.97234102 Ry
     hartree contribution      =     191.01098302 Ry
     xc contribution           =    -178.01382318 Ry
     ewald contribution        =    -422.78163844 Ry
     one-center paw contrib.   =    -177.35435334 Ry
      -> PAW hartree energy AE =     293.34545611 Ry
      -> PAW hartree energy PS =    -292.09163586 Ry
      -> PAW xc energy AE      =    -254.15068729 Ry
      -> PAW xc energy PS      =      75.54251370 Ry
      -> total E_H with PAW    =     192.26480326 Ry
      -> total E_XC with PAW   =    -356.62199676 Ry

     convergence has been achieved in  14 iterations

     negative rho (up, down):  2.636E-01 0.000E+00

     Forces acting on atoms (cartesian axes, Ry/au):

     atom    1 type  1   force =     0.00907143    0.00164797   -0.00000000
     atom    2 type  1   force =    -0.00907143   -0.00164797    0.00000000
     atom    3 type  2   force =     0.00000000    0.00000000    0.00000000
     atom    4 type  3   force =     0.36069298    0.09572144   -0.00000000
     atom    5 type  3   force =    -0.36069298   -0.09572144    0.00000000
     atom    6 type  4   force =     0.00000000    0.00000000    0.00000000
     atom    7 type  4   force =     0.10679692    0.02987760   -0.00000000
     atom    8 type  4   force =    -0.10679692   -0.02987760    0.00000000
     atom    9 type  4   force =     0.17884917    0.04511646    0.00101935
     atom   10 type  4   force =     0.17884917    0.04511646   -0.00101935
     atom   11 type  4   force =    -0.17884917   -0.04511646    0.00101935
     atom   12 type  4   force =    -0.17884917   -0.04511646   -0.00101935
     The non-local contrib.  to forces
     atom    1 type  1   force =    -0.02499004   -0.00810147    0.00000000
     atom    2 type  1   force =     0.02499004    0.00810147   -0.00000000
     atom    3 type  2   force =     0.00000000    0.00000000    0.00000000
     atom    4 type  3   force =     0.31586640    0.08494711   -0.00000000
     atom    5 type  3   force =    -0.31586640   -0.08494711    0.00000000
     atom    6 type  4   force =     0.00000000    0.00000000    0.00000000
     atom    7 type  4   force =     0.57828876    0.14869379   -0.00000000
     atom    8 type  4   force =    -0.57828876   -0.14869379    0.00000000
     atom    9 type  4   force =    -0.63335309   -0.16143468    0.00062897
     atom   10 type  4   force =    -0.63335309   -0.16143468   -0.00062897
     atom   11 type  4   force =     0.63335309    0.16143468    0.00062897
     atom   12 type  4   force =     0.63335309    0.16143468   -0.00062897
     The ionic contribution  to forces
     atom    1 type  1   force =   -12.28558964   -3.16036110    0.00000000
     atom    2 type  1   force =    12.28558964    3.16036110   -0.00000000
     atom    3 type  2   force =    -0.00000000    0.00000000   -0.00000000
     atom    4 type  3   force =    15.02681633    3.86551782    0.00000000
     atom    5 type  3   force =   -15.02681633   -3.86551783   -0.00000000
     atom    6 type  4   force =    -0.00000000   -0.00000000    0.00000000
     atom    7 type  4   force =   -16.57669918   -4.26421171    0.00000000
     atom    8 type  4   force =    16.57669918    4.26421171   -0.00000000
     atom    9 type  4   force =    -6.10021805   -1.56922804   -0.00000000
     atom   10 type  4   force =    -6.10021805   -1.56922804    0.00000000
     atom   11 type  4   force =     6.10021805    1.56922805    0.00000000
     atom   12 type  4   force =     6.10021805    1.56922805   -0.00000000
     The local contribution  to forces
     atom    1 type  1   force =    12.31812391    3.16962634   -0.00014849
     atom    2 type  1   force =   -12.31768567   -3.16951417    0.00013190
     atom    3 type  2   force =    -0.00038743   -0.00009057    0.00000206
     atom    4 type  3   force =   -15.03081484   -3.86759829   -0.00114678
     atom    5 type  3   force =    15.03058652    3.86754670    0.00114582
     atom    6 type  4   force =    -0.00018732   -0.00004486   -0.00000069
     atom    7 type  4   force =    16.10822857    4.14616356   -0.00044600
     atom    8 type  4   force =   -16.10801323   -4.14610619    0.00044554
     atom    9 type  4   force =     6.90394521    1.77446144    0.00053620
     atom   10 type  4   force =     6.90445775    1.77283892   -0.00028013
     atom   11 type  4   force =    -6.90430959   -1.77280244    0.00027441
     atom   12 type  4   force =    -6.90398669   -1.77447077   -0.00053029
     The core correction contribution to forces
     atom    1 type  1   force =     0.00159318    0.00050267   -0.00000746
     atom    2 type  1   force =    -0.00159035   -0.00050183    0.00000714
     atom    3 type  2   force =    -0.00000655   -0.00000147    0.00000011
     atom    4 type  3   force =     0.04937812    0.01299893    0.00020037
     atom    5 type  3   force =    -0.04939669   -0.01300364   -0.00020045
     atom    6 type  4   force =     0.00000079    0.00000027    0.00000001
     atom    7 type  4   force =    -0.00311823   -0.00078971   -0.00000098
     atom    8 type  4   force =     0.00311695    0.00078932    0.00000096
     atom    9 type  4   force =     0.00798093    0.00206082    0.00000220
     atom   10 type  4   force =     0.00797754    0.00207376    0.00003326
     atom   11 type  4   force =    -0.00797519   -0.00207315   -0.00003328
     atom   12 type  4   force =    -0.00797941   -0.00206038   -0.00000215
     The Hubbard contrib.    to forces
     atom    1 type  1   force =     0.00000000    0.00000000    0.00000000
     atom    2 type  1   force =     0.00000000    0.00000000    0.00000000
     atom    3 type  2   force =     0.00000000    0.00000000    0.00000000
     atom    4 type  3   force =     0.00000000    0.00000000    0.00000000
     atom    5 type  3   force =     0.00000000    0.00000000    0.00000000
     atom    6 type  4   force =     0.00000000    0.00000000    0.00000000
     atom    7 type  4   force =     0.00000000    0.00000000    0.00000000
     atom    8 type  4   force =     0.00000000    0.00000000    0.00000000
     atom    9 type  4   force =     0.00000000    0.00000000    0.00000000
     atom   10 type  4   force =     0.00000000    0.00000000    0.00000000
     atom   11 type  4   force =     0.00000000    0.00000000    0.00000000
     atom   12 type  4   force =     0.00000000    0.00000000    0.00000000
     The SCF correction term to forces
     atom    1 type  1   force =    -0.00002400   -0.00000839    0.00000596
     atom    2 type  1   force =    -0.00033312   -0.00008446    0.00000163
     atom    3 type  2   force =     0.00026923    0.00006542   -0.00000066
     atom    4 type  3   force =    -0.00049857   -0.00013165    0.00000522
     atom    5 type  3   force =     0.00085438    0.00021292   -0.00000367
     atom    6 type  4   force =     0.00023820    0.00005909    0.00000092
     atom    7 type  4   force =     0.00004721    0.00000935   -0.00000108
     atom    8 type  4   force =    -0.00036084   -0.00009097    0.00000117
     atom    9 type  4   force =     0.00036329    0.00009059   -0.00000101
     atom   10 type  4   force =     0.00024994    0.00006762    0.00000234
     atom   11 type  4   force =    -0.00022093   -0.00005889    0.00000134
     atom   12 type  4   force =    -0.00023477   -0.00005795   -0.00000469

     Total force =     0.662861     Total SCF correction =     0.001325

     Computing stress (Cartesian axis) and pressure

     negative rho (up, down):  2.636E-01 0.000E+00
          total   stress  (Ry/bohr**3)                   (kbar)     P=     -138.77
  -0.00299149  -0.00080730   0.00000000         -440.06     -118.76        0.00
  -0.00080730  -0.00002838   0.00000000         -118.76       -4.18        0.00
   0.00000000   0.00000000   0.00018984            0.00        0.00       27.93

     kinetic stress (kbar)  21801.04    -39.12     -0.00
                              -39.12  21947.70     -0.00
                               -0.00     -0.00  21964.82

     local   stress (kbar)   7929.79   6113.27     -3.78
                             6113.27 -14248.25     -2.35
                               -3.78     -2.35 -15816.58

     nonloc. stress (kbar)   -185.34    -65.62      0.00
                              -65.62     38.70      0.00
                                0.00      0.00     46.46

     hartree stress (kbar)    293.75  -2989.44      0.32
                            -2989.44  11145.64      0.27
                                0.32      0.27  11914.37

     exc-cor stress (kbar)   4124.76      4.06     -0.02
                                4.06   4110.09     -0.01
                               -0.02     -0.01   4109.14

     corecor stress (kbar)  -9305.88     -2.11     -0.02
                               -2.11  -9297.83     -0.07
                               -0.02     -0.07  -9297.76

     ewald   stress (kbar) -25098.20  -3139.80      0.00
                            -3139.80 -13700.22      0.00
                                0.00      0.00 -12892.54

     hubbard stress (kbar)      0.00      0.00      0.00
                                0.00      0.00      0.00
                                0.00      0.00      0.00

     DFT-D   stress (kbar)      0.00      0.00      0.00
                                0.00      0.00      0.00
                                0.00      0.00      0.00

     XDM     stress (kbar)      0.00      0.00      0.00
                                0.00      0.00      0.00
                                0.00      0.00      0.00

     dft-nl  stress (kbar)      0.00      0.00      0.00
                                0.00      0.00      0.00
                                0.00      0.00      0.00

     TS-vdW  stress (kbar)      0.00      0.00      0.00
                                0.00      0.00      0.00
                                0.00      0.00      0.00

[...]

                                0.00      0.00      0.00

     Writing all to output data dir new_calculations/myprefix.save/

     General routines

     Parallel routines

     PAW routines

   This run was terminated on:  19:32:53  20May2023

   JOB DONE.