     Program PWSCF v.7.0 starts on 21May2023 at 14:56:18

     Reading input from espresso_25649.pwi
Warning: card &CELL ignored
Warning: card / ignored

     Current dimensions of program PWSCF are:
     Max number of different atomic species (ntypx) = 10
     Max number of k-points (npk) =  40000
     Max angular momentum in pseudopotentials (lmaxx) =  4
     file O.pbe-n-kjpaw_psl.0.1.UPF: wavefunction(s)  2P renormalized

     gamma-point specific algorithms are used
     Message from routine setup:
     using ibrav=0 with symmetry is DISCOURAGED, use correct ibrav instead

     Subspace diagonalization in iterative solution of the eigenvalue problem:
     a serial algorithm will be used

     Using Slab Decomposition

     bravais-lattice index     =            0
     lattice parameter (alat)  =      20.2275  a.u.
     unit-cell volume          =     618.0440 (a.u.)^3
     number of atoms/cell      =           10
     number of atomic types    =            4
     number of electrons       =        92.00
     number of Kohn-Sham states=           55
     kinetic-energy cutoff     =      30.0000  Ry
     charge density cutoff     =     240.0000  Ry
     scf convergence threshold =      1.0E-06
     mixing beta               =       0.7000
     number of iterations used =            8  plain     mixing
     Exchange-correlation=  SLA  PW   PBX  PBC
                           (   1   4   3   4   0   0   0)

     celldm(1)=  20.227517  celldm(2)=   0.000000  celldm(3)=   0.000000
     celldm(4)=   0.000000  celldm(5)=   0.000000  celldm(6)=   0.000000

     crystal axes: (cart. coord. in units of alat)
               a(1) = (   1.000000   0.000000   0.000000 )
               a(2) = (   0.923859   0.382734   0.000000 )
               a(3) = (  -0.961929  -0.191367   0.195117 )

     reciprocal axes: (cart. coord. in units 2 pi/alat)
               b(1) = (  1.000000 -2.413843  2.562565 )
               b(2) = (  0.000000  2.612783  2.562565 )
               b(3) = (  0.000000  0.000000  5.125131 )

     PseudoPot. # 1 for Li read from file:
     /home/pragov/projects/rrg-bengioy-ad/pragov/crystal_structure_design/SSSP/li_pbe_v1.4.uspp.F.UPF
     MD5 check sum: e912e257baa3777c20ea3d68f190483c
     Pseudo is Ultrasoft, Zval =  3.0
     Generated by new atomic code, or converted to UPF format
     Using radial grid of  751 points,  5 beta functions with:
                l(1) =   0
                l(2) =   0
                l(3) =   0
                l(4) =   1
                l(5) =   1
     Q(r) pseudized with 10 coefficients,  rinner =    1.150   1.150   1.150

     PseudoPot. # 2 for Ni read from file:
     /home/pragov/projects/rrg-bengioy-ad/pragov/crystal_structure_design/SSSP/ni_pbe_v1.4.uspp.F.UPF
     MD5 check sum: 1ee80287db30b12d2bc1f57a5b5d6409
     Pseudo is Ultrasoft + core correction, Zval = 18.0
     Generated by new atomic code, or converted to UPF format
     Using radial grid of  865 points,  6 beta functions with:
                l(1) =   0
                l(2) =   0
                l(3) =   1
                l(4) =   1
                l(5) =   2
                l(6) =   2
     Q(r) pseudized with 10 coefficients,  rinner =    0.980   0.980   0.980
                                                       0.980   0.980

     PseudoPot. # 3 for O  read from file:
     /home/pragov/projects/rrg-bengioy-ad/pragov/crystal_structure_design/SSSP/O.pbe-n-kjpaw_psl.0.1.UPF
     MD5 check sum: 0234752ac141de4415c5fc33072bef88
     Pseudo is Projector augmented-wave + core cor, Zval =  6.0
     Generated using "atomic" code by A. Dal Corso  v.5.0.99 svn rev. 10869
     Shape of augmentation charge: BESSEL
     Using radial grid of 1095 points,  4 beta functions with:
                l(1) =   0
                l(2) =   0
                l(3) =   1
                l(4) =   1
     Q(r) pseudized with 0 coefficients

     PseudoPot. # 4 for F  read from file:
     /home/pragov/projects/rrg-bengioy-ad/pragov/crystal_structure_design/SSSP/f_pbe_v1.4.uspp.F.UPF
     MD5 check sum: 4c38b6a325caf53ec0e86aed9459de46
     Pseudo is Ultrasoft, Zval =  7.0
     Generated by new atomic code, or converted to UPF format
     Using radial grid of  799 points,  4 beta functions with:
                l(1) =   0
                l(2) =   0
                l(3) =   1
                l(4) =   1
     Q(r) pseudized with  8 coefficients,  rinner =    0.950   0.950   0.950

     atomic species   valence    mass     pseudopotential
        Li             3.00     6.94000     Li( 1.00)
        Ni            18.00    58.69340     Ni( 1.00)
        O              6.00    15.99900     O ( 1.00)
        F              7.00    18.99840     F ( 1.00)

      4 Sym. Ops., with inversion, found

                                    s                        frac. trans.

      isym =  1     identity

 cryst.   s( 1) = (     1          0          0      )
                  (     0          1          0      )
                  (     0          0          1      )

 cart.    s( 1) = (  1.0000000  0.0000000  0.0000000 )
                  (  0.0000000  1.0000000  0.0000000 )
                  (  0.0000000  0.0000000  1.0000000 )

      isym =  2     180 deg rotation - cart. axis [0,0,1]

[...]

      isym =  3     inversion

[...]

      isym =  4     inv. 180 deg rotation - cart. axis [0,0,1]

 cryst.   s( 4) = (     1          0          0      )
                  (     0          1          0      )
                  (    -1         -1         -1      )

 cart.    s( 4) = (  1.0000000  0.0000000 -0.0000000 )
                  (  0.0000000  1.0000000 -0.0000000 )
                  (  0.0000000  0.0000000 -1.0000000 )

   Cartesian axes

     site n.     atom                  positions (alat units)
         1           Li  tau(   1) = (   1.3457276   0.2677199   0.0000000  )
         2           Li  tau(   2) = (   0.5781311   0.1150138   0.0000000  )
         3           Ni  tau(   3) = (   1.7311824   0.3444025   0.0000000  )
         4           Ni  tau(   4) = (   0.9619294   0.1913668   0.0000000  )
         5           Ni  tau(   5) = (   0.1926764   0.0383312   0.0000000  )
         6           O   tau(   6) = (   0.7666077   0.1525094   0.0000000  )
         7           O   tau(   7) = (   0.0000000   0.0000000   0.0000000  )
         8           O   tau(   8) = (   1.1572511   0.2302242   0.0000000  )
         9           F   tau(   9) = (   0.3909127   0.0777684   0.0000000  )
        10           F   tau(  10) = (   1.5329460   0.3049652   0.0000000  )

   Crystallographic axes

     site n.     atom                  positions (cryst. coord.)
         1           Li  tau(   1) = (  0.6994940  0.6994940  0.0000000  )
         2           Li  tau(   2) = (  0.3005060  0.3005060  0.0000000  )
         3           Ni  tau(   3) = (  0.8998490  0.8998490  0.0000000  )
         4           Ni  tau(   4) = (  0.5000000  0.5000000  0.0000000  )
         5           Ni  tau(   5) = (  0.1001510  0.1001510  0.0000000  )
         6           O   tau(   6) = (  0.3984740  0.3984740  0.0000000  )
         7           O   tau(   7) = (  0.0000000  0.0000000  0.0000000  )
         8           O   tau(   8) = (  0.6015260  0.6015260  0.0000000  )
         9           F   tau(   9) = (  0.2031920  0.2031920  0.0000000  )
        10           F   tau(  10) = (  0.7968080  0.7968080  0.0000000  )

     number of k points=     1  Methfessel-Paxton smearing, width (Ry)=  0.0010
                       cart. coord. in units 2pi/alat
        k(    1) = (   0.0000000   0.0000000   0.0000000), wk =   2.0000000

                       cryst. coord.
        k(    1) = (   0.0000000   0.0000000   0.0000000), wk =   2.0000000

     Check: negative core charge=   -0.000014

     Initial potential from superposition of free atoms

     starting charge      85.0985, renormalised to      92.0000
     Starting wfcs are   69 randomized atomic wfcs
     Checking if some PAW data can be deallocated...

     Self-consistent Calculation

     iteration #  1     ecut=    30.00 Ry     beta= 0.70
     Davidson diagonalization with overlap

     ethr =  1.00E-02,  avg # of iterations =  8.0

     total energy              =   -1206.94871080 Ry
     estimated scf accuracy    <     103.72932563 Ry

[...]

     total energy              =   -1278.23295345 Ry
     estimated scf accuracy    <       0.00000194 Ry

     iteration # 25     ecut=    30.00 Ry     beta= 0.70
     Davidson diagonalization with overlap

     ethr =  2.11E-09,  avg # of iterations =  1.0

     End of self-consistent calculation

          k = 0.0000 0.0000 0.0000 (   848 PWs)   bands (ev):

   -93.6210 -93.5280 -93.5240 -54.1184 -54.0950 -53.9837 -53.9459 -53.5022
   -53.3088 -53.0319 -52.5608 -51.6444 -35.7123 -35.6880 -14.6212 -14.2729
    -8.8653  -8.0623  -7.7527   2.6185   3.8159   4.3854   4.6563   4.9238
     4.9564   5.0841   5.6515   7.1389   7.3550   7.4187   7.5140   7.5483
     7.7555   7.7743   7.9664   8.4572   8.4771   8.4948   8.8009   8.9527
     9.0115   9.1686   9.4537   9.6237   9.7860   9.9751  10.1788  11.1196
    11.5427  12.5438  14.5447  15.3691  17.1242  19.5033  20.4708

     occupation numbers
     1.0000   1.0000   1.0000   1.0000   1.0000   1.0000   1.0000   1.0000
     1.0000   1.0000   1.0000   1.0000   1.0000   1.0000   1.0000   1.0000
     1.0000   1.0000   1.0000   1.0000   1.0000   1.0000   1.0000   1.0000
     1.0000   1.0000   1.0000   1.0000   1.0000   1.0000   1.0000   1.0000
     1.0000   1.0000   1.0000   1.0000   1.0000   1.0000   1.0000   1.0000
     1.0000   1.0000   1.0000   1.0000   1.0000   1.0000  -0.0000  -0.0000
    -0.0000  -0.0000  -0.0000  -0.0000  -0.0000  -0.0000  -0.0000

     the Fermi energy is    10.1086 ev

!    total energy              =   -1278.23295353 Ry
     estimated scf accuracy    <       0.00000011 Ry
     smearing contrib. (-TS)   =       0.00000000 Ry
     internal energy E=F+TS    =   -1278.23295353 Ry

     The total energy is F=E-TS. E is the sum of the following terms:
     one-electron contribution =   -1121.42934667 Ry
     hartree contribution      =     607.58447360 Ry
     xc contribution           =    -154.56450417 Ry
     ewald contribution        =    -581.28424386 Ry
     one-center paw contrib.   =     -28.53933243 Ry
      -> PAW hartree energy AE =      87.06448648 Ry
      -> PAW hartree energy PS =     -86.73412253 Ry
      -> PAW xc energy AE      =     -51.21998023 Ry
      -> PAW xc energy PS      =      22.35028384 Ry
      -> total E_H with PAW    =     607.91483756 Ry
      -> total E_XC with PAW   =    -183.43420056 Ry

     convergence has been achieved in  25 iterations

     Forces acting on atoms (cartesian axes, Ry/au):

     atom    1 type  1   force =    -0.00134602   -0.00051197    0.00000000
     atom    2 type  1   force =     0.00134602    0.00051197   -0.00000000
     atom    3 type  2   force =     0.13616666    0.06522030   -0.00000000
     atom    4 type  2   force =     0.00000000    0.00000000    0.00000000
     atom    5 type  2   force =    -0.13616666   -0.06522030    0.00000000
     atom    6 type  3   force =    -0.06635814    0.01274942    0.00000000
     atom    7 type  3   force =     0.00000000    0.00000000    0.00000000
     atom    8 type  3   force =     0.06635814   -0.01274942   -0.00000000
     atom    9 type  4   force =     0.03985928    0.01229956   -0.00000000
     atom   10 type  4   force =    -0.03985928   -0.01229956    0.00000000
     The non-local contrib.  to forces
     atom    1 type  1   force =     0.06591571    0.01463643   -0.00000000
     atom    2 type  1   force =    -0.06591571   -0.01463643    0.00000000
     atom    3 type  2   force =    -0.35025006   -0.21166975    0.00000000
     atom    4 type  2   force =     0.00000000    0.00000000    0.00000000
     atom    5 type  2   force =     0.35025006    0.21166975   -0.00000000
     atom    6 type  3   force =    -0.18297973   -0.00075982    0.00000000
     atom    7 type  3   force =     0.00000000    0.00000000    0.00000000
     atom    8 type  3   force =     0.18297973    0.00075982   -0.00000000
     atom    9 type  4   force =     0.07231307    0.00879950   -0.00000000
     atom   10 type  4   force =    -0.07231307   -0.00879950    0.00000000
     The ionic contribution  to forces
     atom    1 type  1   force =     8.81672809    1.75400525   -0.00000000
     atom    2 type  1   force =    -8.81672809   -1.75400525    0.00000000
     atom    3 type  2   force =   -74.22877509  -14.76711771    0.00000000
     atom    4 type  2   force =    -0.00000000   -0.00000000    0.00000000
     atom    5 type  2   force =    74.22877509   14.76711771   -0.00000000
     atom    6 type  3   force =   -28.13495188   -5.59718446    0.00000000
     atom    7 type  3   force =    -0.00000000   -0.00000000    0.00000000
     atom    8 type  3   force =    28.13495188    5.59718446   -0.00000000
     atom    9 type  4   force =    22.77817566    4.53150414   -0.00000000
     atom   10 type  4   force =   -22.77817566   -4.53150414    0.00000000
     The local contribution  to forces
     atom    1 type  1   force =    -8.88378307   -1.76911235   -0.00158259
     atom    2 type  1   force =     8.88410953    1.76917699    0.00158256
     atom    3 type  2   force =    74.71243637   15.03908996    0.07244360
     atom    4 type  2   force =    -0.00139574   -0.00025593   -0.00001339
     atom    5 type  2   force =   -74.71304717  -15.03919982   -0.07242858
     atom    6 type  3   force =    28.24883134    5.61065217   -0.02648583
     atom    7 type  3   force =    -0.00050817   -0.00011281   -0.00000730
     atom    8 type  3   force =   -28.24901381   -5.61066345    0.02649668
     atom    9 type  4   force =   -22.81010263   -4.52789614    0.01210706
     atom   10 type  4   force =    22.81092059    4.52806696   -0.01211103
     The core correction contribution to forces
     atom    1 type  1   force =     0.00000000    0.00000000    0.00000000
     atom    2 type  1   force =     0.00000000    0.00000000    0.00000000
     atom    3 type  2   force =     0.00224128    0.00484855   -0.00242415
     atom    4 type  2   force =    -0.00000040    0.00000038   -0.00000017
     atom    5 type  2   force =    -0.00224067   -0.00484962    0.00242464
     atom    6 type  3   force =     0.00253466    0.00000946   -0.00005524
     atom    7 type  3   force =    -0.00000013   -0.00000019   -0.00000007
     atom    8 type  3   force =    -0.00253479   -0.00000893    0.00005528
     atom    9 type  4   force =     0.00000000    0.00000000    0.00000000
     atom   10 type  4   force =     0.00000000    0.00000000    0.00000000
     The Hubbard contrib.    to forces
     atom    1 type  1   force =     0.00000000    0.00000000    0.00000000
     atom    2 type  1   force =     0.00000000    0.00000000    0.00000000
     atom    3 type  2   force =     0.00000000    0.00000000    0.00000000
     atom    4 type  2   force =     0.00000000    0.00000000    0.00000000
     atom    5 type  2   force =     0.00000000    0.00000000    0.00000000
     atom    6 type  3   force =     0.00000000    0.00000000    0.00000000
     atom    7 type  3   force =     0.00000000    0.00000000    0.00000000
     atom    8 type  3   force =     0.00000000    0.00000000    0.00000000
     atom    9 type  4   force =     0.00000000    0.00000000    0.00000000
     atom   10 type  4   force =     0.00000000    0.00000000    0.00000000
     The SCF correction term to forces
     atom    1 type  1   force =    -0.00018213   -0.00003684   -0.00000069
     atom    2 type  1   force =    -0.00009510   -0.00001886   -0.00000016
     atom    3 type  2   force =     0.00052355    0.00007284    0.00003181
     atom    4 type  2   force =     0.00125943    0.00022367   -0.00001129
     atom    5 type  2   force =     0.00010542    0.00004526   -0.00005881
     atom    6 type  3   force =     0.00021602    0.00004634    0.00000998
     atom    7 type  3   force =     0.00051182    0.00010216    0.00000460
     atom    8 type  3   force =    -0.00001633   -0.00000704   -0.00002092
     atom    9 type  4   force =    -0.00052787   -0.00010333    0.00001022
     atom   10 type  4   force =    -0.00029218   -0.00005829   -0.00000080

     Total force =     0.241260     Total SCF correction =     0.001636

     Computing stress (Cartesian axis) and pressure

          total   stress  (Ry/bohr**3)                   (kbar)     P=     -779.28
  -0.00796004  -0.00149544   0.00000000        -1170.96     -219.99        0.00
  -0.00149544  -0.00529647   0.00000000         -219.99     -779.14        0.00
   0.00000000   0.00000000  -0.00263582            0.00        0.00     -387.74

     kinetic stress (kbar)  36976.29   -692.18     -0.00
                             -692.18  38426.24     -0.00
                               -0.00     -0.00  37445.64

     local   stress (kbar)  78958.89  37377.11     -0.20
                            37377.11 -97124.45    -31.68
                               -0.20    -31.68-101166.59

     nonloc. stress (kbar)  11047.12   -328.90     -0.00
                             -328.90  11125.81     -0.00
                               -0.00     -0.00  10612.43

     hartree stress (kbar)  -9753.83 -18111.86      8.42
                           -18111.86  76053.70     18.52
                                8.42     18.52  78315.67

     exc-cor stress (kbar) -10048.83     -5.36      0.75
                               -5.36 -10038.44     -0.05
                                0.75     -0.05 -10054.77

     corecor stress (kbar)  -1586.62      3.82      0.25
                                3.82  -1589.71     -0.15
                                0.25     -0.15  -1580.78

     ewald   stress (kbar)-106763.99 -18462.61      0.00
                           -18462.61 -17632.30      0.00
                                0.00      0.00 -13959.34

     hubbard stress (kbar)      0.00      0.00      0.00
                                0.00      0.00      0.00
                                0.00      0.00      0.00

     DFT-D   stress (kbar)      0.00      0.00      0.00
                                0.00      0.00      0.00
                                0.00      0.00      0.00

     XDM     stress (kbar)      0.00      0.00      0.00
                                0.00      0.00      0.00
                                0.00      0.00      0.00

     dft-nl  stress (kbar)      0.00      0.00      0.00
                                0.00      0.00      0.00
                                0.00      0.00      0.00

     TS-vdW  stress (kbar)      0.00      0.00      0.00
                                0.00      0.00      0.00
                                0.00      0.00      0.00

[...]

                                0.00      0.00      0.00

     Writing all to output data dir new_calculations/myprefix.save/

     General routines

     Parallel routines

     PAW routines

   This run was terminated on:  14:57:41  21May2023

   JOB DONE.