     Program PWSCF v.7.0 starts on 21May2023 at  4:41:54

     Reading input from espresso_1049.pwi
Warning: card &CELL ignored
Warning: card / ignored

     Current dimensions of program PWSCF are:
     Max number of different atomic species (ntypx) = 10
     Max number of k-points (npk) =  40000
     Max angular momentum in pseudopotentials (lmaxx) =  4
     file Ba.pbe-spn-kjpaw_psl.1.0.0.UPF: wavefunction(s)  5S 6S renormalized
     file In.pbe-dn-rrkjus_psl.0.2.2.UPF: wavefunction(s)  5S renormalized
     file O.pbe-n-kjpaw_psl.0.1.UPF: wavefunction(s)  2P renormalized

     gamma-point specific algorithms are used
     Message from routine setup:
     using ibrav=0 with symmetry is DISCOURAGED, use correct ibrav instead

     Subspace diagonalization in iterative solution of the eigenvalue problem:
     a serial algorithm will be used

     Using Slab Decomposition

     bravais-lattice index     =            0
     lattice parameter (alat)  =       7.8915  a.u.
     unit-cell volume          =    1061.9359 (a.u.)^3
     number of atoms/cell      =            9
     number of atomic types    =            3
     number of electrons       =        76.00
     number of Kohn-Sham states=           46
     kinetic-energy cutoff     =      30.0000  Ry
     charge density cutoff     =     240.0000  Ry
     scf convergence threshold =      1.0E-06
     mixing beta               =       0.7000
     number of iterations used =            8  plain     mixing
     Exchange-correlation= SLA  PW   PBX  PBC
                           (   1   4   3   4   0   0   0)

     celldm(1)=   7.891527  celldm(2)=   0.000000  celldm(3)=   0.000000
     celldm(4)=   0.000000  celldm(5)=   0.000000  celldm(6)=   0.000000

     crystal axes: (cart. coord. in units of alat)
               a(1) = (   1.000000   0.000000   0.000000 )
               a(2) = (   0.000000   1.033906   0.000000 )
               a(3) = (   0.000000   0.000000   2.089941 )

     reciprocal axes: (cart. coord. in units 2 pi/alat)
               b(1) = (  1.000000  0.000000  0.000000 )
               b(2) = (  0.000000  0.967205  0.000000 )
               b(3) = (  0.000000  0.000000  0.478482 )

     PseudoPot. # 1 for Ba read from file:
     /home/pragov/projects/rrg-bengioy-ad/pragov/crystal_structure_design/SSSP/Ba.pbe-spn-kjpaw_psl.1.0.0.UPF
     MD5 check sum: c432291d3e53af55f19d5e8866385beb
     Pseudo is Projector augmented-wave + core cor, Zval = 10.0
     Generated using "atomic" code by A. Dal Corso  v.5.1
     Shape of augmentation charge: PSQ
     Using radial grid of 1251 points,  7 beta functions with:
                l(1) =   0
                l(2) =   0
                l(3) =   0
                l(4) =   1
                l(5) =   1
                l(6) =   2
                l(7) =   2
     Q(r) pseudized with 0 coefficients

     PseudoPot. # 2 for In read from file:
     /home/pragov/projects/rrg-bengioy-ad/pragov/crystal_structure_design/SSSP/In.pbe-dn-rrkjus_psl.0.2.2.UPF
     MD5 check sum: 25e7c42c3b55b68f4bf926be2e7201a4
     Pseudo is Ultrasoft + core correction, Zval = 13.0
     Generated using "atomic" code by A. Dal Corso  v.5.0.99 svn rev. 10869
     Using radial grid of 1241 points,  6 beta functions with:
                l(1) =   0
                l(2) =   0
                l(3) =   1
                l(4) =   1
                l(5) =   2
                l(6) =   2
     Q(r) pseudized with 0 coefficients

     PseudoPot. # 3 for O  read from file:
     /home/pragov/projects/rrg-bengioy-ad/pragov/crystal_structure_design/SSSP/O.pbe-n-kjpaw_psl.0.1.UPF
     MD5 check sum: 0234752ac141de4415c5fc33072bef88
     Pseudo is Projector augmented-wave + core cor, Zval =  6.0
     Generated using "atomic" code by A. Dal Corso  v.5.0.99 svn rev. 10869
     Shape of augmentation charge: BESSEL
     Using radial grid of 1095 points,  4 beta functions with:
                l(1) =   0
                l(2) =   0
                l(3) =   1
                l(4) =   1
     Q(r) pseudized with 0 coefficients

     atomic species   valence    mass     pseudopotential
        Ba            10.00   137.32700     Ba( 1.00)
        In            13.00   114.81800     In( 1.00)
        O              6.00    15.99900     O ( 1.00)

      4 Sym. Ops. (no inversion) found

                                    s                        frac. trans.

      isym =  1     identity

 cryst.   s( 1) = (     1          0          0      )
                  (     0          1          0      )
                  (     0          0          1      )

 cart.    s( 1) = (  1.0000000  0.0000000  0.0000000 )
                  (  0.0000000  1.0000000  0.0000000 )
                  (  0.0000000  0.0000000  1.0000000 )

      isym =  2     180 deg rotation - cart. axis [0,1,0]

[...]

      isym =  3     inv. 180 deg rotation - cart. axis [0,0,1]

[...]

      isym =  4     inv. 180 deg rotation - cart. axis [1,0,0]

 cryst.   s( 4) = (    -1          0          0      )
                  (     0          1          0      )
                  (     0          0          1      )

 cart.    s( 4) = ( -1.0000000  0.0000000  0.0000000 )
                  (  0.0000000  1.0000000  0.0000000 )
                  (  0.0000000  0.0000000  1.0000000 )

   Cartesian axes

     site n.     atom                  positions (alat units)
         1           Ba  tau(   1) = (   0.0000000   1.0277392   1.5018816  )
         2           Ba  tau(   2) = (   0.0000000   1.0277392   0.5880592  )
         3           In  tau(   3) = (   0.5000000   0.5005172   1.0449704  )
         4           In  tau(   4) = (   0.5000000   0.5797455   0.0000000  )
         5           O   tau(   5) = (   0.5000000   0.4495270   1.6146527  )
         6           O   tau(   6) = (   0.5000000   0.4495270   0.4752881  )
         7           O   tau(   7) = (   0.5000000   1.0191113   1.0449704  )
         8           O   tau(   8) = (   0.0000000   0.5208480   1.0449704  )
         9           O   tau(   9) = (   0.0000000   0.7777727   0.0000000  )

   Crystallographic axes

     site n.     atom                  positions (cryst. coord.)
         1           Ba  tau(   1) = (  0.0000000  0.9940350  0.7186240  )
         2           Ba  tau(   2) = (  0.0000000  0.9940350  0.2813760  )
         3           In  tau(   3) = (  0.5000000  0.4841030  0.5000000  )
         4           In  tau(   4) = (  0.5000000  0.5607330  0.0000000  )
         5           O   tau(   5) = (  0.5000000  0.4347850  0.7725830  )
         6           O   tau(   6) = (  0.5000000  0.4347850  0.2274170  )
         7           O   tau(   7) = (  0.5000000  0.9856900  0.5000000  )
         8           O   tau(   8) = (  0.0000000  0.5037670  0.5000000  )
         9           O   tau(   9) = (  0.0000000  0.7522660  0.0000000  )

     number of k points=     1  Methfessel-Paxton smearing, width (Ry)=  0.0010
                       cart. coord. in units 2pi/alat
        k(    1) = (   0.0000000   0.0000000   0.0000000), wk =   2.0000000

                       cryst. coord.
        k(    1) = (   0.0000000   0.0000000   0.0000000), wk =   2.0000000

     Check: negative core charge=   -0.000007

     Initial potential from superposition of free atoms

     starting charge      75.9585, renormalised to      76.0000
     Starting wfcs are   48 randomized atomic wfcs
     Checking if some PAW data can be deallocated...

     Self-consistent Calculation

     iteration #  1     ecut=    30.00 Ry     beta= 0.70
     Davidson diagonalization with overlap

     ethr =  1.00E-02,  avg # of iterations =  8.0

     negative rho (up, down):  1.440E-02 0.000E+00

     total energy              =   -1368.92396038 Ry
     estimated scf accuracy    <       2.92130830 Ry

[...]

     negative rho (up, down):  2.662E-05 0.000E+00

[...]

     total energy              =   -1370.38316452 Ry
     estimated scf accuracy    <       0.00000266 Ry

     iteration # 21     ecut=    30.00 Ry     beta= 0.70
     Davidson diagonalization with overlap

     ethr =  2.99E-09,  avg # of iterations =  2.0

     End of self-consistent calculation

          k = 0.0000 0.0000 0.0000 (  1470 PWs)   bands (ev):

   -17.2860 -17.2142  -8.8887  -8.5589  -8.4842  -8.0836  -7.9498  -5.2839
    -5.2547  -5.1903  -5.0159  -4.9502  -4.9135  -4.8496  -4.7671  -4.0873
    -3.3615  -2.4839  -2.4236  -2.3854  -2.3129  -2.2909  -2.0837   4.0249
     4.8071   4.8688   4.9216   5.8389   6.4896   6.7153   6.7596   7.3069
     7.3572   7.4778   7.4940   7.6844   7.7660   7.7924   8.7242  11.4451
    12.4356  13.2884  13.5606  14.0127  14.2124  15.2985

     occupation numbers
     1.0000   1.0000   1.0000   1.0000   1.0000   1.0000   1.0000   1.0000
     1.0000   1.0000   1.0000   1.0000   1.0000   1.0000   1.0000   1.0000
     1.0000   1.0000   1.0000   1.0000   1.0000   1.0000   1.0000   1.0000
     1.0000   1.0000   1.0000   1.0000   1.0000   1.0000   1.0000   1.0000
     1.0000   1.0000   1.0000   1.0000   1.0000   1.0000  -0.0000  -0.0000
    -0.0000  -0.0000  -0.0000  -0.0000  -0.0000  -0.0000

     the Fermi energy is     8.2471 ev

!    total energy              =   -1370.38316430 Ry
     estimated scf accuracy    <       0.00000078 Ry
     smearing contrib. (-TS)   =       0.00000000 Ry
     internal energy E=F+TS    =   -1370.38316430 Ry

     The total energy is F=E-TS. E is the sum of the following terms:
     one-electron contribution =    -176.69545767 Ry
     hartree contribution      =     147.15282885 Ry
     xc contribution           =    -173.53273115 Ry
     ewald contribution        =    -369.77441107 Ry
     one-center paw contrib.   =    -797.53339325 Ry
      -> PAW hartree energy AE =     203.37834799 Ry
      -> PAW hartree energy PS =    -202.64650924 Ry
      -> PAW xc energy AE      =    -873.96246764 Ry
      -> PAW xc energy PS      =      75.69723563 Ry
      -> total E_H with PAW    =     147.88466760 Ry
      -> total E_XC with PAW   =    -971.79796315 Ry

     convergence has been achieved in  21 iterations

     Forces acting on atoms (cartesian axes, Ry/au):

     atom    1 type  1   force =     0.00000000    0.03547386   -0.08451783
     atom    2 type  1   force =     0.00000000    0.03547386    0.08451783
     atom    3 type  2   force =     0.00000000    0.02207616    0.00000000
     atom    4 type  2   force =     0.00000000    0.00266943    0.00000000
     atom    5 type  3   force =     0.00000000   -0.02669166   -0.01219914
     atom    6 type  3   force =     0.00000000   -0.02669166    0.01219914
     atom    7 type  3   force =     0.00000000   -0.01688660    0.00000000
     atom    8 type  3   force =     0.00000000   -0.00252400    0.00000000
     atom    9 type  3   force =     0.00000000   -0.02289939    0.00000000
     The non-local contrib.  to forces
     atom    1 type  1   force =     0.00000000    0.01237988    0.05670828
     atom    2 type  1   force =     0.00000000    0.01237988   -0.05670828
     atom    3 type  2   force =     0.00000000   -0.01081269    0.00000000
     atom    4 type  2   force =     0.00000000    0.09705150    0.00000000
     atom    5 type  3   force =     0.00000000    0.49631400    0.45177287
     atom    6 type  3   force =    -0.00000000    0.49631400   -0.45177287
     atom    7 type  3   force =     0.00000000    0.00553493    0.00000000
     atom    8 type  3   force =     0.00000000   -0.10552870    0.00000000
     atom    9 type  3   force =     0.00000000   -0.25831434    0.00000000
     The ionic contribution  to forces
     atom    1 type  1   force =     0.00000000    0.38670554    7.90405713
     atom    2 type  1   force =     0.00000000    0.38670554   -7.90405713
     atom    3 type  2   force =    -0.00000000    0.42288698   -0.00000000
     atom    4 type  2   force =    -0.00000000   -0.74747520   -0.00000000
     atom    5 type  3   force =    -0.00000000   -1.80339884    2.00284011
     atom    6 type  3   force =    -0.00000000   -1.80339884   -2.00284011
     atom    7 type  3   force =    -0.00000000   -0.28520067   -0.00000000
     atom    8 type  3   force =     0.00000000    0.34120885   -0.00000000
     atom    9 type  3   force =     0.00000000    3.10196663   -0.00000000
     The local contribution  to forces
     atom    1 type  1   force =    -0.00048572   -0.36280072   -8.03909181
     atom    2 type  1   force =    -0.00094096   -0.36350243    8.04039990
     atom    3 type  2   force =     0.00000481   -0.39486928    0.00021207
     atom    4 type  2   force =     0.00000255    0.64767293   -0.00022575
     atom    5 type  3   force =     0.00000200    1.28681981   -2.46173901
     atom    6 type  3   force =    -0.00000078    1.28665548    2.46175068
     atom    7 type  3   force =    -0.00000065    0.26283259    0.00008051
     atom    8 type  3   force =    -0.00000107   -0.23946651    0.00005738
     atom    9 type  3   force =    -0.00000480   -2.86953106    0.00004496
     The core correction contribution to forces
     atom    1 type  1   force =    -0.00001141   -0.00045154   -0.00544331
     atom    2 type  1   force =    -0.00001546   -0.00045938    0.00546390
     atom    3 type  2   force =     0.00000020    0.00486626    0.00000073
     atom    4 type  2   force =    -0.00000012    0.00543855   -0.00000074
     atom    5 type  3   force =     0.00000001   -0.00632662   -0.00505348
     atom    6 type  3   force =    -0.00000004   -0.00632868    0.00505406
     atom    7 type  3   force =    -0.00000003   -0.00004927   -0.00000014
     atom    8 type  3   force =     0.00000003    0.00126412   -0.00000034
     atom    9 type  3   force =     0.00000001    0.00300795    0.00000132
     The Hubbard contrib.    to forces
     atom    1 type  1   force =     0.00000000    0.00000000    0.00000000
     atom    2 type  1   force =     0.00000000    0.00000000    0.00000000
     atom    3 type  2   force =     0.00000000    0.00000000    0.00000000
     atom    4 type  2   force =     0.00000000    0.00000000    0.00000000
     atom    5 type  3   force =     0.00000000    0.00000000    0.00000000
     atom    6 type  3   force =     0.00000000    0.00000000    0.00000000
     atom    7 type  3   force =     0.00000000    0.00000000    0.00000000
     atom    8 type  3   force =     0.00000000    0.00000000    0.00000000
     atom    9 type  3   force =     0.00000000    0.00000000    0.00000000
     The SCF correction term to forces
     atom    1 type  1   force =     0.00005541   -0.00006368   -0.00018578
     atom    2 type  1   force =     0.00012317    0.00005444   -0.00001822
     atom    3 type  2   force =    -0.00000695    0.00000480   -0.00023948
     atom    4 type  2   force =    -0.00000416   -0.00001842    0.00027632
     atom    5 type  3   force =    -0.00000281   -0.00003557   -0.00000426
     atom    6 type  3   force =    -0.00000324    0.00000177    0.00002274
     atom    7 type  3   force =    -0.00000146   -0.00000428   -0.00009204
     atom    8 type  3   force =     0.00000305   -0.00000185   -0.00008361
     atom    9 type  3   force =     0.00000450   -0.00002865    0.00004271

     Total force =     0.140841     Total SCF correction =     0.000463

     Computing stress (Cartesian axis) and pressure

          total   stress  (Ry/bohr**3)                   (kbar)     P=     -227.19
  -0.00095902   0.00000000   0.00000000         -141.08        0.00        0.00
   0.00000000  -0.00127547   0.00000000            0.00     -187.63        0.00
   0.00000000   0.00000000  -0.00239864            0.00        0.00     -352.85

     kinetic stress (kbar)  16814.99      0.00      0.00
                                0.00  16680.14      0.00
                                0.00      0.00  16216.08

     local   stress (kbar) -11325.99     -0.00      0.00
                               -0.00  -2636.60     -0.02
                                0.00     -0.02  -4567.99

     nonloc. stress (kbar)   4464.66      0.00      0.00
                                0.00   4411.13      0.00
                                0.00      0.00   4401.36

     hartree stress (kbar)   9077.65     -0.00     -0.00
                               -0.00   5419.08      0.01
                               -0.00      0.01   5887.67

     exc-cor stress (kbar)   7211.89      0.00      0.00
                                0.00   7202.17      0.00
                                0.00      0.00   7210.91

     corecor stress (kbar) -11980.18      0.00      0.00
                                0.00 -11975.48     -0.00
                                0.00     -0.00 -11969.91

     ewald   stress (kbar) -14404.11     -0.00      0.00
                               -0.00 -19288.07     -0.00
                                0.00     -0.00 -17530.97

     hubbard stress (kbar)      0.00      0.00      0.00
                                0.00      0.00      0.00
                                0.00      0.00      0.00

     DFT-D   stress (kbar)      0.00      0.00      0.00
                                0.00      0.00      0.00
                                0.00      0.00      0.00

     XDM     stress (kbar)      0.00      0.00      0.00
                                0.00      0.00      0.00
                                0.00      0.00      0.00

     dft-nl  stress (kbar)      0.00      0.00      0.00
                                0.00      0.00      0.00
                                0.00      0.00      0.00

     TS-vdW  stress (kbar)      0.00      0.00      0.00
                                0.00      0.00      0.00
                                0.00      0.00      0.00

[...]

                                0.00      0.00      0.00

     Writing all to output data dir new_calculations/myprefix.save/

     General routines

     Parallel routines

     PAW routines

   This run was terminated on:   4:42:14  21May2023

   JOB DONE.