     Program PWSCF v.7.0 starts on 21May2023 at  3:48: 9

     Reading input from espresso_26396.pwi
Warning: card &CELL ignored
Warning: card / ignored

     Current dimensions of program PWSCF are:
     Max number of different atomic species (ntypx) = 10
     Max number of k-points (npk) =  40000
     Max angular momentum in pseudopotentials (lmaxx) =  4
     file Cd.pbe-dn-rrkjus_psl.0.3.1.UPF: wavefunction(s)  4D renormalized

     gamma-point specific algorithms are used
     Message from routine setup:
     using ibrav=0 with symmetry is DISCOURAGED, use correct ibrav instead

     Subspace diagonalization in iterative solution of the eigenvalue problem:
     a serial algorithm will be used

     Using Slab Decomposition

     bravais-lattice index     =            0
     lattice parameter (alat)  =       7.8287  a.u.
     unit-cell volume          =    1383.2334 (a.u.)^3
     number of atoms/cell      =            8
     number of atomic types    =            4
     number of electrons       =        88.00
     number of Kohn-Sham states=           53
     kinetic-energy cutoff     =      30.0000  Ry
     charge density cutoff     =     240.0000  Ry
     scf convergence threshold =      1.0E-06
     mixing beta               =       0.7000
     number of iterations used =            8  plain     mixing
     Exchange-correlation=  SLA  PW   PBX  PBC
                           (   1   4   3   4   0   0   0)

     celldm(1)=   7.828727  celldm(2)=   0.000000  celldm(3)=   0.000000
     celldm(4)=   0.000000  celldm(5)=   0.000000  celldm(6)=   0.000000

     crystal axes: (cart. coord. in units of alat)
               a(1) = (   1.000000   0.000000   0.000000 )
               a(2) = (   0.000000   1.648404   0.000000 )
               a(3) = (   0.000000   0.003644   1.748873 )

     reciprocal axes: (cart. coord. in units 2 pi/alat)
               b(1) = (  1.000000  0.000000  0.000000 )
               b(2) = (  0.000000  0.606647 -0.001264 )
               b(3) = (  0.000000  0.000000  0.571797 )

     PseudoPot. # 1 for Cd read from file:
     /home/pragov/projects/rrg-bengioy-ad/pragov/crystal_structure_design/SSSP/Cd.pbe-dn-rrkjus_psl.0.3.1.UPF
     MD5 check sum: 558e9f355611b531a870a69ef6ace9e2
     Pseudo is Ultrasoft + core correction, Zval = 12.0
     Generated using "atomic" code by A. Dal Corso  v.5.0.99 svn rev. 10869
     Using radial grid of 1239 points,  6 beta functions with:
                l(1) =   0
                l(2) =   0
                l(3) =   1
                l(4) =   1
                l(5) =   2
                l(6) =   2
     Q(r) pseudized with 0 coefficients

     PseudoPot. # 2 for Ag read from file:
     /home/pragov/projects/rrg-bengioy-ad/pragov/crystal_structure_design/SSSP/Ag_ONCV_PBE-1.0.oncvpsp.upf
     MD5 check sum: 94f47bd0669c641108e45594df92fabc
     Pseudo is Norm-conserving, Zval = 19.0
     Generated using ONCVPSP code by D. R. Hamann
     Using radial grid of 1398 points,  6 beta functions with:
                l(1) =   0
                l(2) =   0
                l(3) =   1
                l(4) =   1
                l(5) =   2
                l(6) =   2

     PseudoPot. # 3 for Sn read from file:
     /home/pragov/projects/rrg-bengioy-ad/pragov/crystal_structure_design/SSSP/Sn_pbe_v1.uspp.F.UPF
     MD5 check sum: 4cf58ce39ec5d5d420df3dd08604eb00
     Pseudo is Ultrasoft + core correction, Zval = 14.0
     Generated by new atomic code, or converted to UPF format
     Using radial grid of  891 points,  6 beta functions with:
                l(1) =   0
                l(2) =   0
                l(3) =   1
                l(4) =   1
                l(5) =   2
                l(6) =   2
     Q(r) pseudized with  6 coefficients,  rinner =    1.200   1.200   1.200
                                                       1.200   1.200

     PseudoPot. # 4 for S  read from file:
     /home/pragov/projects/rrg-bengioy-ad/pragov/crystal_structure_design/SSSP/s_pbe_v1.4.uspp.F.UPF
     MD5 check sum: 88d86576ff6df21479756cfb9bdac1df
     Pseudo is Ultrasoft + core correction, Zval =  6.0
     Generated by new atomic code, or converted to UPF format
     Using radial grid of  907 points,  6 beta functions with:
                l(1) =   0
                l(2) =   0
                l(3) =   1
                l(4) =   1
                l(5) =   2
                l(6) =   2
     Q(r) pseudized with  8 coefficients,  rinner =    1.300   1.300   1.300
                                                       1.300   1.300

     atomic species   valence    mass     pseudopotential
        Cd            12.00   112.41400     Cd( 1.00)
        Ag            19.00   107.86820     Ag( 1.00)
        Sn            14.00   118.71000     Sn( 1.00)
        S              6.00    32.06000     S ( 1.00)

      2 Sym. Ops. (no inversion) found

                                    s                        frac. trans.

      isym =  1     identity

 cryst.   s( 1) = (     1          0          0      )
                  (     0          1          0      )
                  (     0          0          1      )

 cart.    s( 1) = (  1.0000000  0.0000000  0.0000000 )
                  (  0.0000000  1.0000000  0.0000000 )
                  (  0.0000000  0.0000000  1.0000000 )

      isym =  2     inv. 180 deg rotation - cart. axis [1,0,0]

 cryst.   s( 2) = (    -1          0          0      )
                  (     0          1          0      )
                  (     0          0          1      )

 cart.    s( 2) = ( -1.0000000  0.0000000  0.0000000 )
                  (  0.0000000  1.0000000  0.0000000 )
                  (  0.0000000  0.0000000  1.0000000 )

   Cartesian axes

     site n.     atom                  positions (alat units)
         1           Cd  tau(   1) = (   0.0000000   0.1962775   0.2960212  )
         2           Ag  tau(   2) = (   0.5000000   0.2064030   1.1508161  )
         3           Ag  tau(   3) = (   0.5000000   1.0605286   0.5749350  )
         4           Sn  tau(   4) = (   0.0000000   1.0539225   1.4841723  )
         5           S   tau(   5) = (   0.5000000   0.8377319   1.1847862  )
         6           S   tau(   6) = (   0.0000000   0.8310004   0.2754055  )
         7           S   tau(   7) = (   0.5000000   0.0200222   0.5793439  )
         8           S   tau(   8) = (   0.0000000   1.6361287   1.4500098  )

   Crystallographic axes

     site n.     atom                  positions (cryst. coord.)
         1           Cd  tau(   1) = (  0.0000000  0.1186970  0.1692640  )
         2           Ag  tau(   2) = (  0.5000000  0.1237590  0.6580330  )
         3           Ag  tau(   3) = (  0.5000000  0.6426400  0.3287460  )
         4           Sn  tau(   4) = (  0.0000000  0.6374830  0.8486450  )
         5           S   tau(   5) = (  0.5000000  0.5067100  0.6774570  )
         6           S   tau(   6) = (  0.0000000  0.5037760  0.1574760  )
         7           S   tau(   7) = (  0.5000000  0.0114140  0.3312670  )
         8           S   tau(   8) = (  0.0000000  0.9907200  0.8291110  )

     number of k points=     1  Methfessel-Paxton smearing, width (Ry)=  0.0010
                       cart. coord. in units 2pi/alat
        k(    1) = (   0.0000000   0.0000000   0.0000000), wk =   2.0000000

                       cryst. coord.
        k(    1) = (   0.0000000   0.0000000   0.0000000), wk =   2.0000000

     Check: negative core charge=   -0.000001

     Initial potential from superposition of free atoms

     starting charge      86.9943, renormalised to      88.0000
     Starting wfcs are   54 randomized atomic wfcs

     Self-consistent Calculation

     iteration #  1     ecut=    30.00 Ry     beta= 0.70
     Davidson diagonalization with overlap

     ethr =  1.00E-02,  avg # of iterations =  7.0

     total energy              =    -954.71678357 Ry
     estimated scf accuracy    <       1.60310286 Ry

[...]

     total energy              =    -955.66105337 Ry
     estimated scf accuracy    <       0.00000763 Ry

     iteration # 24     ecut=    30.00 Ry     beta= 0.70
     Davidson diagonalization with overlap

     ethr =  3.64E-09,  avg # of iterations =  1.0

     End of self-consistent calculation

          k = 0.0000 0.0000 0.0000 (  1927 PWs)   bands (ev):

   -85.7302 -85.6000 -48.8431 -48.8064 -48.7184 -48.6863 -48.6626 -48.5582
   -14.8884 -14.8824 -14.8576 -14.8354 -14.7948  -6.4318  -5.6144  -5.6032
    -5.2958  -1.7071  -1.5067  -1.4268  -1.3462  -1.3462  -0.0380   1.9554
     2.1118   2.2620   2.3666   2.4020   2.5864   2.7978   2.9521   3.0022
     3.1833   3.2473   3.3393   3.5830   3.9000   5.0034   5.2161   5.6801
     6.1664   6.4471   6.4865   6.5578   6.5605   8.2609   9.7233   9.9796
    10.6430  10.7848  11.8010  12.3903  12.7184

     occupation numbers
     1.0000   1.0000   1.0000   1.0000   1.0000   1.0000   1.0000   1.0000
     1.0000   1.0000   1.0000   1.0000   1.0000   1.0000   1.0000   1.0000
     1.0000   1.0000   1.0000   1.0000   1.0000   1.0000   1.0000   1.0000
     1.0000   1.0000   1.0000   1.0000   1.0000   1.0000   1.0000   1.0000
     1.0000   1.0000   1.0000   1.0000   1.0000   1.0000   1.0000   1.0000
     1.0000   1.0000   1.0000   0.5806   0.4194  -0.0000  -0.0000  -0.0000
    -0.0000  -0.0000  -0.0000  -0.0000  -0.0000

     the Fermi energy is     6.5592 ev

!    total energy              =    -955.66105318 Ry
     estimated scf accuracy    <       0.00000031 Ry
     smearing contrib. (-TS)   =      -0.00054881 Ry
     internal energy E=F+TS    =    -955.66050438 Ry

     The total energy is F=E-TS. E is the sum of the following terms:
     one-electron contribution =    -542.66032444 Ry
     hartree contribution      =     308.24943569 Ry
     xc contribution           =    -178.50476037 Ry
     ewald contribution        =    -542.74485526 Ry

     convergence has been achieved in  24 iterations

     Forces acting on atoms (cartesian axes, Ry/au):

     atom    1 type  1   force =     0.00000000    0.03786765   -0.05349681
     atom    2 type  2   force =     0.00000000    0.03298956   -0.04841545
     atom    3 type  2   force =     0.00000000    0.03608185    0.03731354
     atom    4 type  3   force =     0.00000000   -0.01437758   -0.01700245
     atom    5 type  4   force =     0.00000000   -0.00494028   -0.01969972
     atom    6 type  4   force =     0.00000000   -0.04283278   -0.01865651
     atom    7 type  4   force =     0.00000000   -0.03462571    0.06090804
     atom    8 type  4   force =     0.00000000   -0.01016270    0.05904937
     The non-local contrib.  to forces
     atom    1 type  1   force =     0.00000000   -0.06500738    0.08961012
     atom    2 type  2   force =     0.00000000   -0.09953658    0.24264275
     atom    3 type  2   force =     0.00000000   -0.19274565   -0.10324023
     atom    4 type  3   force =     0.00000000    0.00307101   -0.01867053
     atom    5 type  4   force =     0.00000000    0.06823766    0.07933775
     atom    6 type  4   force =     0.00000000    0.09985531    0.10837168
     atom    7 type  4   force =     0.00000000    0.11611262   -0.01627204
     atom    8 type  4   force =     0.00000000    0.07122638    0.13927944
     The ionic contribution  to forces
     atom    1 type  1   force =     0.00000000    2.20952054   -2.17078254
     atom    2 type  2   force =    -0.00000000    3.05999423    2.69655386
     atom    3 type  2   force =    -0.00000000   -2.84002325   -0.37317794
     atom    4 type  3   force =     0.00000000   -1.95623419   -0.14077974
     atom    5 type  4   force =     0.00000000    0.13668001    1.20581644
     atom    6 type  4   force =     0.00000000   -3.38060514   -0.94866118
     atom    7 type  4   force =     0.00000000    2.20642269   -2.92514977
     atom    8 type  4   force =     0.00000000    0.56424511    2.65618086
     The local contribution  to forces
     atom    1 type  1   force =     0.00005085   -2.10602370    2.02847856
     atom    2 type  2   force =     0.00006875   -2.92848908   -2.98777001
     atom    3 type  2   force =     0.00010791    3.06909730    0.51249235
     atom    4 type  3   force =    -0.00003009    1.93567943    0.13854052
     atom    5 type  4   force =     0.00017081   -0.20689908   -1.30149354
     atom    6 type  4   force =     0.00029411    3.24338436    0.82852434
     atom    7 type  4   force =     0.00017430   -2.35088283    3.00146257
     atom    8 type  4   force =     0.00021981   -0.64077075   -2.72873799
     The core correction contribution to forces
     atom    1 type  1   force =     0.00000335   -0.00093313   -0.00073090
     atom    2 type  2   force =     0.00000000    0.00000000    0.00000000
     atom    3 type  2   force =     0.00000000    0.00000000    0.00000000
     atom    4 type  3   force =     0.00000022    0.00393374    0.00512865
     atom    5 type  4   force =     0.00001057   -0.00324234   -0.00370659
     atom    6 type  4   force =     0.00001389   -0.00553818   -0.00687733
     atom    7 type  4   force =     0.00000727   -0.00634853    0.00062155
     atom    8 type  4   force =     0.00001004   -0.00483238   -0.00772745
     The Hubbard contrib.    to forces
     atom    1 type  1   force =     0.00000000    0.00000000    0.00000000
     atom    2 type  2   force =     0.00000000    0.00000000    0.00000000
     atom    3 type  2   force =     0.00000000    0.00000000    0.00000000
     atom    4 type  3   force =     0.00000000    0.00000000    0.00000000
     atom    5 type  4   force =     0.00000000    0.00000000    0.00000000
     atom    6 type  4   force =     0.00000000    0.00000000    0.00000000
     atom    7 type  4   force =     0.00000000    0.00000000    0.00000000
     atom    8 type  4   force =     0.00000000    0.00000000    0.00000000
     The SCF correction term to forces
     atom    1 type  1   force =    -0.00001340    0.00024194   -0.00017480
     atom    2 type  2   force =    -0.00004069    0.00095161    0.00005520
     atom    3 type  2   force =    -0.00007062   -0.00031593    0.00113661
     atom    4 type  3   force =     0.00001778   -0.00089696   -0.00132411
     atom    5 type  4   force =    -0.00002563    0.00021408    0.00024347
     atom    6 type  4   force =    -0.00005882    0.00000149   -0.00011677
     atom    7 type  4   force =    -0.00003491    0.00000097    0.00014297
     atom    8 type  4   force =    -0.00004625   -0.00010043   -0.00004824

     Total force =     0.148365     Total SCF correction =     0.002261

     Computing stress (Cartesian axis) and pressure

          total   stress  (Ry/bohr**3)                   (kbar)     P=     -245.30
  -0.00124248   0.00000000   0.00000000         -182.78        0.00        0.00
   0.00000000  -0.00205834  -0.00010998            0.00     -302.79      -16.18
   0.00000000  -0.00010998  -0.00170179            0.00      -16.18     -250.34

     kinetic stress (kbar)  20134.89      0.00      0.00
                                0.00  20082.62    -26.43
                                0.00    -26.43  20092.45

     local   stress (kbar)  -8900.36     -0.03     -0.03
                               -0.03  -9757.71    -52.27
                               -0.03    -52.27  -8328.03

     nonloc. stress (kbar)   1163.68      0.00      0.00
                                0.00   1097.97     -3.17
                                0.00     -3.17   1105.63

     hartree stress (kbar)  10916.96      0.02      0.01
                                0.02  11264.33     50.75
                                0.01     50.75  10600.64

     exc-cor stress (kbar)   3294.03      0.00      0.00
                                0.00   3297.74     -0.57
                                0.00     -0.57   3295.89

     corecor stress (kbar)  -7461.67     -0.00     -0.00
                               -0.00  -7456.90      0.21
                               -0.00      0.21  -7457.86

     ewald   stress (kbar) -19330.30     -0.00      0.00
                               -0.00 -18830.84     15.29
                                0.00     15.29 -19559.07

     hubbard stress (kbar)      0.00      0.00      0.00
                                0.00      0.00      0.00
                                0.00      0.00      0.00

     DFT-D   stress (kbar)      0.00      0.00      0.00
                                0.00      0.00      0.00
                                0.00      0.00      0.00

     XDM     stress (kbar)      0.00      0.00      0.00
                                0.00      0.00      0.00
                                0.00      0.00      0.00

     dft-nl  stress (kbar)      0.00      0.00      0.00
                                0.00      0.00      0.00
                                0.00      0.00      0.00

     TS-vdW  stress (kbar)      0.00      0.00      0.00
                                0.00      0.00      0.00
                                0.00      0.00      0.00

[...]

                                0.00      0.00      0.00

     Writing all to output data dir new_calculations/myprefix.save/

     General routines

     Parallel routines

   This run was terminated on:   3:48:30  21May2023

   JOB DONE.