     Program PWSCF v.7.0 starts on 20May2023 at  2:15:52

     Reading input from espresso_5065.pwi
Warning: card &CELL ignored
Warning: card / ignored

     Current dimensions of program PWSCF are:
     Max number of different atomic species (ntypx) = 10
     Max number of k-points (npk) =  40000
     Max angular momentum in pseudopotentials (lmaxx) =  4
     file O.pbe-n-kjpaw_psl.0.1.UPF: wavefunction(s)  2P renormalized

     gamma-point specific algorithms are used
     Message from routine setup:
     using ibrav=0 with symmetry is DISCOURAGED, use correct ibrav instead

     Subspace diagonalization in iterative solution of the eigenvalue problem:
     a serial algorithm will be used

     Using Slab Decomposition

     bravais-lattice index     =            0
     lattice parameter (alat)  =      11.1103  a.u.
     unit-cell volume          =    1128.1497 (a.u.)^3
     number of atoms/cell      =           12
     number of atomic types    =            3
     number of electrons       =       102.00
     number of Kohn-Sham states=           61
     kinetic-energy cutoff     =      30.0000  Ry
     charge density cutoff     =     240.0000  Ry
     scf convergence threshold =      1.0E-06
     mixing beta               =       0.7000
     number of iterations used =            8  plain     mixing
     Exchange-correlation= SLA  PW   PBX  PBC
                           (   1   4   3   4   0   0   0)

     celldm(1)=  11.110299  celldm(2)=   0.000000  celldm(3)=   0.000000
     celldm(4)=   0.000000  celldm(5)=   0.000000  celldm(6)=   0.000000

     crystal axes: (cart. coord. in units of alat)
               a(1) = (   1.000000   0.000000   0.000000 )
               a(2) = (  -0.468243   0.883600   0.000000 )
               a(3) = (   0.188663   0.313494   0.930966 )

     reciprocal axes: (cart. coord. in units 2 pi/alat)
               b(1) = (  1.000000  0.529926 -0.381101 )
               b(2) = (  0.000000  1.131734 -0.381101 )
               b(3) = (  0.000000  0.000000  1.074153 )

     PseudoPot. # 1 for Na read from file:
     /home/pragov/projects/rrg-bengioy-ad/pragov/crystal_structure_design/SSSP/na_pbe_v1.5.uspp.F.UPF
     MD5 check sum: 44600605ef58000f06b90626533354dc
     Pseudo is Ultrasoft, Zval =  9.0
     Generated by new atomic code, or converted to UPF format
     Using radial grid of  819 points,  5 beta functions with:
                l(1) =   0
                l(2) =   0
                l(3) =   1
                l(4) =   1
                l(5) =   2
     Q(r) pseudized with  8 coefficients,  rinner =    1.250   1.250   1.250
                                                       1.250   1.250

     PseudoPot. # 2 for Bi read from file:
     /home/pragov/projects/rrg-bengioy-ad/pragov/crystal_structure_design/SSSP/Bi_pbe_v1.uspp.F.UPF
     MD5 check sum: cceb9f28ec65b6d7ff33140f5b0b1758
     Pseudo is Ultrasoft + core correction, Zval = 15.0
     Generated by new atomic code, or converted to UPF format
     Using radial grid of  899 points,  6 beta functions with:
                l(1) =   0
                l(2) =   0
                l(3) =   1
                l(4) =   1
                l(5) =   2
                l(6) =   2
     Q(r) pseudized with  6 coefficients,  rinner =    1.000   1.000   1.000
                                                       1.000   1.000

     PseudoPot. # 3 for O  read from file:
     /home/pragov/projects/rrg-bengioy-ad/pragov/crystal_structure_design/SSSP/O.pbe-n-kjpaw_psl.0.1.UPF
     MD5 check sum: 0234752ac141de4415c5fc33072bef88
     Pseudo is Projector augmented-wave + core cor, Zval =  6.0
     Generated using "atomic" code by A. Dal Corso  v.5.0.99 svn rev. 10869
     Shape of augmentation charge: BESSEL
     Using radial grid of 1095 points,  4 beta functions with:
                l(1) =   0
                l(2) =   0
                l(3) =   1
                l(4) =   1
     Q(r) pseudized with 0 coefficients

     atomic species   valence    mass     pseudopotential
        Na             9.00    22.98977     Na( 1.00)
        Bi            15.00   208.98040     Bi( 1.00)
        O              6.00    15.99900     O ( 1.00)

      2 Sym. Ops., with inversion, found

                                    s                        frac. trans.

      isym =  1     identity

 cryst.   s( 1) = (     1          0          0      )
                  (     0          1          0      )
                  (     0          0          1      )

 cart.    s( 1) = (  1.0000000  0.0000000  0.0000000 )
                  (  0.0000000  1.0000000  0.0000000 )
                  (  0.0000000  0.0000000  1.0000000 )

      isym =  2     inversion

 cryst.   s( 2) = (    -1          0          0      )
                  (     0         -1          0      )
                  (     0          0         -1      )

 cart.    s( 2) = ( -1.0000000 -0.0000000 -0.0000000 )
                  (  0.0000000 -1.0000000 -0.0000000 )
                  (  0.0000000  0.0000000 -1.0000000 )

   Cartesian axes

     site n.     atom                  positions (alat units)
         1           Na  tau(   1) = (   0.9265760   0.1509453   0.2327415  )
         2           Na  tau(   2) = (  -0.0620491   0.7459075   0.2327415  )
         3           Na  tau(   3) = (   0.7824693   0.4511861   0.6982244  )
         4           Na  tau(   4) = (  -0.2061558   1.0461484   0.6982244  )
         5           Bi  tau(   5) = (   0.4465546   0.4398259   0.2327415  )
         6           Bi  tau(   6) = (   0.2738656   0.7572678   0.6982244  )
         7           O   tau(   7) = (   0.1471210   0.4711073   0.4669139  )
         8           O   tau(   8) = (   0.2530505   0.1938418   0.0014309  )
         9           O   tau(   9) = (   0.5943315   0.1567469   0.4654830  )
        10           O   tau(  10) = (   0.5732992   0.7259864   0.4640521  )
        11           O   tau(  11) = (  -0.2341214   0.4417999   0.0000000  )
        12           O   tau(  12) = (   0.4673698   1.0032519   0.9295350  )

   Crystallographic axes

     site n.     atom                  positions (cryst. coord.)
         1           Na  tau(   1) = (  0.9178680  0.0821320  0.2500000  )
         2           Na  tau(   2) = (  0.2445290  0.7554710  0.2500000  )
         3           Na  tau(   3) = (  0.7554710  0.2445290  0.7500000  )
         4           Na  tau(   4) = (  0.0821320  0.9178680  0.7500000  )
         5           Bi  tau(   5) = (  0.5909320  0.4090680  0.2500000  )
         6           Bi  tau(   6) = (  0.4090680  0.5909320  0.7500000  )
         7           O   tau(   7) = (  0.2188320  0.3552270  0.5015370  )
         8           O   tau(   8) = (  0.3552270  0.2188320  0.0015370  )
         9           O   tau(   9) = (  0.5000000 -0.0000000  0.5000000  )
        10           O   tau(  10) = (  0.7811680  0.6447730  0.4984630  )
        11           O   tau(  11) = (  0.0000000  0.5000000  0.0000000  )
        12           O   tau(  12) = (  0.6447730  0.7811680  0.9984630  )

     number of k points=     1  Methfessel-Paxton smearing, width (Ry)=  0.0010
                       cart. coord. in units 2pi/alat
        k(    1) = (   0.0000000   0.0000000   0.0000000), wk =   2.0000000

                       cryst. coord.
        k(    1) = (   0.0000000   0.0000000   0.0000000), wk =   2.0000000

     Check: negative core charge=   -0.000011

     Initial potential from superposition of free atoms

     starting charge      99.9747, renormalised to     102.0000

     negative rho (up, down):  8.704E-02 0.000E+00
     Starting wfcs are   62 randomized atomic wfcs
     Checking if some PAW data can be deallocated...

     Self-consistent Calculation

     iteration #  1     ecut=    30.00 Ry     beta= 0.70
     Davidson diagonalization with overlap

     ethr =  1.00E-02,  avg # of iterations =  5.0

     negative rho (up, down):  8.190E-02 0.000E+00

     total energy              =   -1000.75195651 Ry
     estimated scf accuracy    <       2.42788734 Ry

[...]

     total energy              =   -1001.94773837 Ry
     estimated scf accuracy    <       0.00000717 Ry

     iteration #  9     ecut=    30.00 Ry     beta= 0.70
     Davidson diagonalization with overlap

     ethr =  6.84E-09,  avg # of iterations =  2.0

[...]

     End of self-consistent calculation

          k = 0.0000 0.0000 0.0000 (  1564 PWs)   bands (ev):

   -43.0396 -43.0360 -42.8787 -42.8760 -15.5685 -15.5443 -15.4440 -15.4000
   -15.3670 -15.3659 -15.3378 -15.3094 -15.2989 -15.2981 -15.0125 -14.9692
   -14.9571 -14.9538 -14.9531 -14.9393 -14.8524 -14.8181 -14.8175 -14.7930
   -14.7891 -14.7883 -11.1112  -9.8730  -9.6580  -9.5332  -9.3174  -9.1632
    -3.6101  -1.1334   2.4984   2.7906   2.7923   3.7205   3.8980   4.0201
     4.3640   4.7119   5.1144   5.4500   5.4978   5.6414   5.6899   5.7401
     5.7710   5.7773   5.9074   8.4496  11.1263  11.7773  11.9334  12.7289
    12.8705  13.3891  14.3929  15.5652  15.6442

     occupation numbers
     1.0000   1.0000   1.0000   1.0000   1.0000   1.0000   1.0000   1.0000
     1.0000   1.0000   1.0000   1.0000   1.0000   1.0000   1.0000   1.0000
     1.0000   1.0000   1.0000   1.0000   1.0000   1.0000   1.0000   1.0000
     1.0000   1.0000   1.0000   1.0000   1.0000   1.0000   1.0000   1.0000
     1.0000   1.0000   1.0000   1.0000   1.0000   1.0000   1.0000   1.0000
     1.0000   1.0000   1.0000   1.0000   1.0000   1.0000   1.0000   1.0000
     1.0000   1.0000   1.0000  -0.0000  -0.0000  -0.0000  -0.0000  -0.0000
    -0.0000  -0.0000  -0.0000  -0.0000  -0.0000

     the Fermi energy is     6.5684 ev

!    total energy              =   -1001.94773958 Ry
     estimated scf accuracy    <       0.00000029 Ry
     smearing contrib. (-TS)   =       0.00000000 Ry
     internal energy E=F+TS    =   -1001.94773958 Ry

     The total energy is F=E-TS. E is the sum of the following terms:
     one-electron contribution =    -392.34709941 Ry
     hartree contribution      =     252.23204127 Ry
     xc contribution           =    -231.63588833 Ry
     ewald contribution        =    -573.00091916 Ry
     one-center paw contrib.   =     -57.19587395 Ry
      -> PAW hartree energy AE =     171.41992986 Ry
      -> PAW hartree energy PS =    -170.84620485 Ry
      -> PAW xc energy AE      =    -102.05814942 Ry
      -> PAW xc energy PS      =      44.28855046 Ry
      -> total E_H with PAW    =     252.80576628 Ry
      -> total E_XC with PAW   =    -289.40548729 Ry

     convergence has been achieved in   9 iterations

     negative rho (up, down):  8.673E-02 0.000E+00

     Forces acting on atoms (cartesian axes, Ry/au):

     atom    1 type  1   force =    -0.00105578    0.00059859   -0.00001135
     atom    2 type  1   force =    -0.00086470    0.00060945   -0.00003523
     atom    3 type  1   force =     0.00086470   -0.00060945    0.00003523
     atom    4 type  1   force =     0.00105578   -0.00059859    0.00001135
     atom    5 type  2   force =     0.01210725   -0.00747868   -0.00008504
     atom    6 type  2   force =    -0.01210725    0.00747868    0.00008504
     atom    7 type  3   force =     0.01600638    0.02601430    0.00700746
     atom    8 type  3   force =     0.01550064    0.02638724    0.00699927
     atom    9 type  3   force =     0.00000000    0.00000000    0.00000000
     atom   10 type  3   force =    -0.01600638   -0.02601430   -0.00700746
     atom   11 type  3   force =     0.00000000    0.00000000    0.00000000
     atom   12 type  3   force =    -0.01550064   -0.02638724   -0.00699927
     The non-local contrib.  to forces
     atom    1 type  1   force =     0.04805844   -0.02891275    0.00001139
     atom    2 type  1   force =    -0.14919106    0.08976743    0.00001682
     atom    3 type  1   force =     0.14919106   -0.08976743   -0.00001682
     atom    4 type  1   force =    -0.04805844    0.02891275   -0.00001139
     atom    5 type  2   force =    -0.15947116    0.09583611   -0.00005124
     atom    6 type  2   force =     0.15947116   -0.09583611    0.00005124
     atom    7 type  3   force =     0.43378604    0.13622917   -0.10574791
     atom    8 type  3   force =    -0.08278265    0.44719626   -0.10577591
     atom    9 type  3   force =     0.00000000    0.00000000    0.00000000
     atom   10 type  3   force =    -0.43378604   -0.13622917    0.10574791
     atom   11 type  3   force =     0.00000000    0.00000000    0.00000000
     atom   12 type  3   force =     0.08278265   -0.44719626    0.10577591
     The ionic contribution  to forces
     atom    1 type  1   force =     0.41508031   -0.24979855    0.00000000
     atom    2 type  1   force =    -1.63960693    0.98672814   -0.00000000
     atom    3 type  1   force =     1.63960693   -0.98672814   -0.00000000
     atom    4 type  1   force =    -0.41508031    0.24979854    0.00000000
     atom    5 type  2   force =     3.17767706   -1.91235065   -0.00000000
     atom    6 type  2   force =    -3.17767706    1.91235065    0.00000000
     atom    7 type  3   force =    -5.04018854   -2.57230306    0.44202660
     atom    8 type  3   force =     0.08714520   -5.65797219    0.44202660
     atom    9 type  3   force =    -0.00000000    0.00000000    0.00000000
     atom   10 type  3   force =     5.04018854    2.57230306   -0.44202660
     atom   11 type  3   force =    -0.00000000    0.00000000    0.00000000
     atom   12 type  3   force =    -0.08714520    5.65797219   -0.44202660
     The local contribution  to forces
     atom    1 type  1   force =    -0.46418520    0.27947076    0.00001797
     atom    2 type  1   force =     1.78764312   -1.07606940    0.00008497
     atom    3 type  1   force =    -1.78769011    1.07611324   -0.00008291
     atom    4 type  1   force =     0.46420596   -0.27944312   -0.00003299
     atom    5 type  2   force =    -3.01224841    1.81305497    0.00007878
     atom    6 type  2   force =     3.01235830   -1.81319555   -0.00011529
     atom    7 type  3   force =     4.62616585    2.46294001   -0.33063424
     atom    8 type  3   force =     0.01016417    5.24094708   -0.33047698
     atom    9 type  3   force =    -0.00005419    0.00009746   -0.00010301
     atom   10 type  3   force =    -4.62609191   -2.46301385    0.33049049
     atom   11 type  3   force =    -0.00013333   -0.00001457    0.00011376
     atom   12 type  3   force =    -0.01004755   -5.24093757    0.33063569
     The core correction contribution to forces
     atom    1 type  1   force =     0.00000000    0.00000000    0.00000000
     atom    2 type  1   force =     0.00000000    0.00000000    0.00000000
     atom    3 type  1   force =     0.00000000    0.00000000    0.00000000
     atom    4 type  1   force =     0.00000000    0.00000000    0.00000000
     atom    5 type  2   force =     0.00696309   -0.00419545   -0.00000305
     atom    6 type  2   force =    -0.00696175    0.00419745    0.00000250
     atom    7 type  3   force =    -0.00404923   -0.00094032    0.00141506
     atom    8 type  3   force =     0.00106587   -0.00401947    0.00141561
     atom    9 type  3   force =    -0.00000013    0.00000032   -0.00000009
     atom   10 type  3   force =     0.00404963    0.00094053   -0.00141517
     atom   11 type  3   force =    -0.00000045   -0.00000001    0.00000021
     atom   12 type  3   force =    -0.00106565    0.00401972   -0.00141556
     The Hubbard contrib.    to forces
     atom    1 type  1   force =     0.00000000    0.00000000    0.00000000
     atom    2 type  1   force =     0.00000000    0.00000000    0.00000000
     atom    3 type  1   force =     0.00000000    0.00000000    0.00000000
     atom    4 type  1   force =     0.00000000    0.00000000    0.00000000
     atom    5 type  2   force =     0.00000000    0.00000000    0.00000000
     atom    6 type  2   force =     0.00000000    0.00000000    0.00000000
     atom    7 type  3   force =     0.00000000    0.00000000    0.00000000
     atom    8 type  3   force =     0.00000000    0.00000000    0.00000000
     atom    9 type  3   force =     0.00000000    0.00000000    0.00000000
     atom   10 type  3   force =     0.00000000    0.00000000    0.00000000
     atom   11 type  3   force =     0.00000000    0.00000000    0.00000000
     atom   12 type  3   force =     0.00000000    0.00000000    0.00000000
     The SCF correction term to forces
     atom    1 type  1   force =    -0.00000959   -0.00015886   -0.00004604
     atom    2 type  1   force =     0.00032111    0.00016537   -0.00014183
     atom    3 type  1   force =    -0.00021224   -0.00024502    0.00013015
     atom    4 type  1   force =    -0.00001169    0.00013525    0.00005040
     atom    5 type  2   force =    -0.00082546    0.00019262   -0.00010849
     atom    6 type  2   force =     0.00068997   -0.00002149    0.00014763
     atom    7 type  3   force =     0.00029871    0.00009713   -0.00004706
     atom    8 type  3   force =    -0.00009676    0.00024765   -0.00019656
     atom    9 type  3   force =     0.00004920   -0.00008929    0.00010872
     atom   10 type  3   force =    -0.00036016   -0.00000625    0.00020089
     atom   11 type  3   force =     0.00011953    0.00000832   -0.00011430
     atom   12 type  3   force =    -0.00002972   -0.00023323    0.00002476

     Total force =     0.065920     Total SCF correction =     0.001427

     Computing stress (Cartesian axis) and pressure

     negative rho (up, down):  8.673E-02 0.000E+00
          total   stress  (Ry/bohr**3)                   (kbar)     P=     -314.02
  -0.00210320  -0.00011870  -0.00003567         -309.39      -17.46       -5.25
  -0.00011870  -0.00222849  -0.00006015          -17.46     -327.82       -8.85
  -0.00003567  -0.00006015  -0.00207231           -5.25       -8.85     -304.85

     kinetic stress (kbar)  17278.74     65.70    -29.29
                               65.70  17348.31    -48.52
                              -29.29    -48.52  17225.11

     local   stress (kbar)  15856.37   1503.29    319.83
                             1503.29  17450.04    530.92
                              319.83    530.92  14058.00

     nonloc. stress (kbar) -12657.04    -12.66      4.22
                              -12.66 -12670.48      7.01
                                4.22      7.01 -12640.13

     hartree stress (kbar)  10974.30   -601.19   -150.49
                             -601.19  10336.89   -249.82
                             -150.49   -249.82  11578.61

     exc-cor stress (kbar)   6005.28     -0.91     -0.43
                               -0.91   6004.31     -0.71
                               -0.43     -0.71   6006.51

     corecor stress (kbar) -12793.34     -0.12      0.13
                               -0.12 -12793.46      0.22
                                0.13      0.22 -12793.62

     ewald   stress (kbar) -24973.70   -971.57   -149.21
                             -971.57 -26003.42   -247.94
                             -149.21   -247.94 -23739.33

     hubbard stress (kbar)      0.00      0.00      0.00
                                0.00      0.00      0.00
                                0.00      0.00      0.00

     DFT-D   stress (kbar)      0.00      0.00      0.00
                                0.00      0.00      0.00
                                0.00      0.00      0.00

     XDM     stress (kbar)      0.00      0.00      0.00
                                0.00      0.00      0.00
                                0.00      0.00      0.00

     dft-nl  stress (kbar)      0.00      0.00      0.00
                                0.00      0.00      0.00
                                0.00      0.00      0.00

     TS-vdW  stress (kbar)      0.00      0.00      0.00
                                0.00      0.00      0.00
                                0.00      0.00      0.00

[...]

                                0.00      0.00      0.00

     Writing all to output data dir new_calculations/myprefix.save/

     General routines

     Parallel routines

     PAW routines

   This run was terminated on:   2:16:20  20May2023

   JOB DONE.