     Program PWSCF v.7.0 starts on 20May2023 at 19:32:49

     Reading input from espresso_18551.pwi
Warning: card &CELL ignored
Warning: card / ignored

     Current dimensions of program PWSCF are:
     Max number of different atomic species (ntypx) = 10
     Max number of k-points (npk) =  40000
     Max angular momentum in pseudopotentials (lmaxx) =  4
     file Nb.pbe-spn-kjpaw_psl.0.3.0.UPF: wavefunction(s)  4S 4P renormalized

     gamma-point specific algorithms are used
     Message from routine setup:
     using ibrav=0 with symmetry is DISCOURAGED, use correct ibrav instead

     Subspace diagonalization in iterative solution of the eigenvalue problem:
     a serial algorithm will be used

     Using Slab Decomposition

     bravais-lattice index     =            0
     lattice parameter (alat)  =       6.7710  a.u.
     unit-cell volume          =    1127.9414 (a.u.)^3
     number of atoms/cell      =            8
     number of atomic types    =            3
     number of electrons       =        68.00
     number of Kohn-Sham states=           41
     kinetic-energy cutoff     =      30.0000  Ry
     charge density cutoff     =     240.0000  Ry
     scf convergence threshold =      1.0E-06
     mixing beta               =       0.7000
     number of iterations used =            8  plain     mixing
     Exchange-correlation= SLA  PW   PBE  PBE
                           (   1   4   3   4   0   0   0)

     celldm(1)=   6.770984  celldm(2)=   0.000000  celldm(3)=   0.000000
     celldm(4)=   0.000000  celldm(5)=   0.000000  celldm(6)=   0.000000

     crystal axes: (cart. coord. in units of alat)
               a(1) = (   1.000000   0.000000   0.000000 )
               a(2) = (  -0.500000   0.866025   0.000000 )
               a(3) = (   0.000000   0.000000   4.195663 )

     reciprocal axes: (cart. coord. in units 2 pi/alat)
               b(1) = (  1.000000  0.577351  0.000000 )
               b(2) = (  0.000000  1.154701  0.000000 )
               b(3) = (  0.000000  0.000000  0.238341 )

     PseudoPot. # 1 for Na read from file:
     /home/pragov/projects/rrg-bengioy-ad/pragov/crystal_structure_design/SSSP/na_pbe_v1.5.uspp.F.UPF
     MD5 check sum: 44600605ef58000f06b90626533354dc
     Pseudo is Ultrasoft, Zval =  9.0
     Generated by new atomic code, or converted to UPF format
     Using radial grid of  819 points,  5 beta functions with:
                l(1) =   0
                l(2) =   0
                l(3) =   1
                l(4) =   1
                l(5) =   2
     Q(r) pseudized with  8 coefficients,  rinner =    1.250   1.250   1.250
                                                       1.250   1.250

     PseudoPot. # 2 for Nb read from file:
     /home/pragov/projects/rrg-bengioy-ad/pragov/crystal_structure_design/SSSP/Nb.pbe-spn-kjpaw_psl.0.3.0.UPF
     MD5 check sum: 411d72ad547312f8017e2943ceca08cc
     Pseudo is Projector augmented-wave + core cor, Zval = 13.0
     Generated using "atomic" code by A. Dal Corso  v.5.0.99 svn rev. 10869
     Shape of augmentation charge: PSQ
     Using radial grid of 1227 points,  6 beta functions with:
                l(1) =   0
                l(2) =   0
                l(3) =   1
                l(4) =   1
                l(5) =   2
                l(6) =   2
     Q(r) pseudized with 0 coefficients

     PseudoPot. # 3 for Se read from file:
     /home/pragov/projects/rrg-bengioy-ad/pragov/crystal_structure_design/SSSP/Se_pbe_v1.uspp.F.UPF
     MD5 check sum: 1b3568f3a8ae88f9a2a0ad0698632c85
     Pseudo is Ultrasoft + core correction, Zval =  6.0
     Generated by new atomic code, or converted to UPF format
     Using radial grid of  877 points,  6 beta functions with:
                l(1) =   0
                l(2) =   0
                l(3) =   1
                l(4) =   1
                l(5) =   2
                l(6) =   2
     Q(r) pseudized with  8 coefficients,  rinner =    1.300   1.300   1.300
                                                       1.300   1.300

     atomic species   valence    mass     pseudopotential
        Na             9.00    22.98977     Na( 1.00)
        Nb            13.00    92.90637     Nb( 1.00)
        Se             6.00    78.97100     Se( 1.00)

     24 Sym. Ops., with inversion, found (12 have fractional translation)

                                    s                        frac. trans.

      isym =  1     identity

 cryst.   s( 1) = (     1          0          0      )
                  (     0          1          0      )
                  (     0          0          1      )

 cart.    s( 1) = (  1.0000000  0.0000000  0.0000000 )
                  (  0.0000000  1.0000000  0.0000000 )
                  (  0.0000000  0.0000000  1.0000000 )

      isym =  2     180 deg rotation - cart. axis [0,0,1]

 cryst.   s( 2) = (    -1          0          0      )    f =(  0.0000000 )
                  (     0         -1          0      )       (  0.0000000 )
                  (     0          0          1      )       ( -0.5000000 )

 cart.    s( 2) = ( -1.0000000 -0.0000000  0.0000000 )    f =(  0.0000000 )
                  (  0.0000000 -1.0000000  0.0000000 )       (  0.0000000 )
                  (  0.0000000  0.0000000  1.0000000 )       ( -2.0978313 )

[...]

      isym =  4     180 deg rotation - cart. axis [1,0,0]

[...]

      isym =  5      60 deg rotation - cryst. axis [0,0,1]

[...]

 cryst.   s( 8) = (    -1         -1          0      )
                  (     1          0          0      )
                  (     0          0          1      )

 cart.    s( 8) = ( -0.4999998  0.8660255  0.0000000 )
                  ( -0.8660253 -0.5000002  0.0000000 )
                  (  0.0000000  0.0000000  1.0000000 )

[...]

 cryst.   s( 9) = (     0         -1          0      )    f =(  0.0000000 )
                  (    -1          0          0      )       (  0.0000000 )
                  (     0          0         -1      )       (  0.5000000 )

 cart.    s( 9) = (  0.5000002 -0.8660253  0.0000000 )    f =(  0.0000000 )
                  ( -0.8660253 -0.5000002  0.0000000 )       (  0.0000000 )
                  (  0.0000000  0.0000000 -1.0000000 )       (  2.0978313 )

[...]

 cryst.   s(10) = (     1          1          0      )    f =(  0.0000000 )
                  (     0         -1          0      )       (  0.0000000 )
                  (     0          0         -1      )       (  0.5000000 )

 cart.    s(10) = (  0.4999998  0.8660257  0.0000000 )    f =(  0.0000000 )
                  (  0.8660253 -0.4999998  0.0000000 )       (  0.0000000 )
                  (  0.0000000  0.0000000 -1.0000000 )       (  2.0978313 )

[...]

 cryst.   s(11) = (    -1         -1          0      )
                  (     0          1          0      )
                  (     0          0         -1      )

 cart.    s(11) = ( -0.4999998 -0.8660257  0.0000000 )
                  ( -0.8660253  0.4999998  0.0000000 )
                  (  0.0000000  0.0000000 -1.0000000 )

      isym = 12     180 deg rotation - cryst. axis [1,1,0]

[...]

      isym = 13     inversion

[...]

      isym = 14     inv. 180 deg rotation - cart. axis [0,0,1]

[...]

      isym = 16     inv. 180 deg rotation - cart. axis [1,0,0]

[...]

      isym = 17     inv.  60 deg rotation - cryst. axis [0,0,1]

[...]

 cryst.   s(22) = (    -1         -1          0      )    f =(  0.0000000 )
                  (     0          1          0      )       (  0.0000000 )
                  (     0          0          1      )       ( -0.5000000 )

 cart.    s(22) = ( -0.4999998 -0.8660257  0.0000000 )    f =(  0.0000000 )
                  ( -0.8660253  0.4999998  0.0000000 )       (  0.0000000 )
                  (  0.0000000  0.0000000  1.0000000 )       ( -2.0978313 )

[...]

      isym = 24     inv. 180 deg rotation - cryst. axis [1,1,0]

 cryst.   s(24) = (     0         -1          0      )
                  (    -1          0          0      )
                  (     0          0          1      )

 cart.    s(24) = (  0.5000002 -0.8660253  0.0000000 )
                  ( -0.8660253 -0.5000002  0.0000000 )
                  (  0.0000000  0.0000000  1.0000000 )

   Cartesian axes

     site n.     atom                  positions (alat units)
         1           Na  tau(   1) = (   0.0000000   0.0000000   0.0000000  )
         2           Na  tau(   2) = (   0.0000000   0.0000000   2.0978313  )
         3           Nb  tau(   3) = (   0.0000000   0.0000000   1.0489156  )
         4           Nb  tau(   4) = (   0.0000000   0.0000000   3.1467469  )
         5           Se  tau(   5) = (  -0.0000006   0.5773505   0.5885591  )
         6           Se  tau(   6) = (  -0.0000006   0.5773505   1.5092721  )
         7           Se  tau(   7) = (   0.5000004   0.2886748   2.6863904  )
         8           Se  tau(   8) = (   0.5000004   0.2886748   3.6071034  )

   Crystallographic axes

     site n.     atom                  positions (cryst. coord.)
         1           Na  tau(   1) = (  0.0000000  0.0000000  0.0000000  )
         2           Na  tau(   2) = (  0.0000000  0.0000000  0.5000000  )
         3           Nb  tau(   3) = (  0.0000000  0.0000000  0.2500000  )
         4           Nb  tau(   4) = (  0.0000000  0.0000000  0.7500000  )
         5           Se  tau(   5) = (  0.3333330  0.6666670  0.1402780  )
         6           Se  tau(   6) = (  0.3333330  0.6666670  0.3597220  )
         7           Se  tau(   7) = (  0.6666670  0.3333330  0.6402780  )
         8           Se  tau(   8) = (  0.6666670  0.3333330  0.8597220  )

     number of k points=     1  Methfessel-Paxton smearing, width (Ry)=  0.0010
                       cart. coord. in units 2pi/alat
        k(    1) = (   0.0000000   0.0000000   0.0000000), wk =   2.0000000

                       cryst. coord.
        k(    1) = (   0.0000000   0.0000000   0.0000000), wk =   2.0000000

     Check: negative core charge=   -0.000006

     Initial potential from superposition of free atoms

     starting charge      67.9829, renormalised to      68.0000
     Starting wfcs are   46 randomized atomic wfcs
     Checking if some PAW data can be deallocated...

     Self-consistent Calculation

     iteration #  1     ecut=    30.00 Ry     beta= 0.70
     Davidson diagonalization with overlap

     ethr =  1.00E-02,  avg # of iterations =  2.0

     Threshold (ethr) on eigenvalues was too large:
     Diagonalizing with lowered threshold

     Davidson diagonalization with overlap

[...]

     total energy              =   -1032.84199428 Ry
     estimated scf accuracy    <       0.47849787 Ry

[...]

     total energy              =   -1032.97698141 Ry
     estimated scf accuracy    <       0.00000294 Ry

     iteration # 13     ecut=    30.00 Ry     beta= 0.70
     Davidson diagonalization with overlap

     ethr =  4.32E-09,  avg # of iterations =  5.0

     End of self-consistent calculation

          k = 0.0000 0.0000 0.0000 (  1552 PWs)   bands (ev):

   -44.9175 -44.9160 -42.8512 -42.8509 -21.0843 -21.0842 -21.0827 -21.0826
   -20.9103 -20.9089 -14.8500 -14.8492 -14.7269 -14.7269 -14.7255 -14.7255
    -5.2275  -5.1336  -4.4718  -4.3418   3.2377   3.8530   5.6584   6.7600
     6.7600   6.7809   6.7809   7.1409   7.4736   7.4736   7.5037   7.5038
     9.0407   9.9584  11.4958  11.4959  11.5586  11.5587  11.5610  11.5612
    11.6226

     occupation numbers
     1.0000   1.0000   1.0000   1.0000   1.0000   1.0000   1.0000   1.0000
     1.0000   1.0000   1.0000   1.0000   1.0000   1.0000   1.0000   1.0000
     1.0000   1.0000   1.0000   1.0000   1.0000   1.0000   1.0000   1.0000
     1.0000   1.0000   1.0000   1.0000   1.0000   1.0000   1.0000   1.0000
     1.0000   1.0000  -0.0000  -0.0000  -0.0000  -0.0000  -0.0000  -0.0000
    -0.0000

     the Fermi energy is    10.8709 ev

!    total energy              =   -1032.97698170 Ry
     estimated scf accuracy    <       0.00000043 Ry
     smearing contrib. (-TS)   =       0.00000000 Ry
     internal energy E=F+TS    =   -1032.97698170 Ry

     The total energy is F=E-TS. E is the sum of the following terms:
     one-electron contribution =    -230.75292548 Ry
     hartree contribution      =     145.50039681 Ry
     xc contribution           =    -206.21055914 Ry
     ewald contribution        =    -324.56735931 Ry
     one-center paw contrib.   =    -416.94653458 Ry
      -> PAW hartree energy AE =     140.43751572 Ry
      -> PAW hartree energy PS =    -139.70248261 Ry
      -> PAW xc energy AE      =    -472.03829340 Ry
      -> PAW xc energy PS      =      54.35672571 Ry
      -> total E_H with PAW    =     146.23542993 Ry
      -> total E_XC with PAW   =    -623.89212684 Ry

     convergence has been achieved in  13 iterations

     Forces acting on atoms (cartesian axes, Ry/au):

     atom    1 type  1   force =    -0.00000000   -0.00000000    0.00000000
     atom    2 type  1   force =     0.00000000    0.00000000    0.00000000
     atom    3 type  2   force =     0.00000000   -0.00000000   -0.00000000
     atom    4 type  2   force =    -0.00000000   -0.00000000    0.00000000
     atom    5 type  3   force =     0.00000000   -0.00000000    0.13290110
     atom    6 type  3   force =     0.00000000    0.00000000   -0.13290110
     atom    7 type  3   force =    -0.00000000   -0.00000000    0.13290110
     atom    8 type  3   force =     0.00000000    0.00000000   -0.13290110
     The non-local contrib.  to forces
     atom    1 type  1   force =     0.00000000    0.00000000    0.00000000
     atom    2 type  1   force =     0.00000000   -0.00000000   -0.00000000
     atom    3 type  2   force =     0.00000000   -0.00000000   -0.00000000
     atom    4 type  2   force =     0.00000000    0.00000000    0.00000000
     atom    5 type  3   force =     0.00000000   -0.00000000   -0.18557864
     atom    6 type  3   force =     0.00000000   -0.00000000    0.18557864
     atom    7 type  3   force =    -0.00000000   -0.00000000   -0.18557864
     atom    8 type  3   force =     0.00000000    0.00000000    0.18557864
     The ionic contribution  to forces
     atom    1 type  1   force =     0.00000000   -0.00000000   -0.00000000
     atom    2 type  1   force =     0.00000000   -0.00000000   -0.00000000
     atom    3 type  2   force =    -0.00000570    0.00000329   -0.00000000
     atom    4 type  2   force =     0.00000570   -0.00000329    0.00000000
     atom    5 type  3   force =     0.00000372   -0.00000215   -6.22466849
     atom    6 type  3   force =     0.00000372   -0.00000215    6.22466849
     atom    7 type  3   force =    -0.00000372    0.00000215   -6.22466849
     atom    8 type  3   force =    -0.00000372    0.00000215    6.22466849
     The local contribution  to forces
     atom    1 type  1   force =     0.00000183    0.00000153   -0.00017490
     atom    2 type  1   force =    -0.00001185    0.00000194    0.00044792
     atom    3 type  2   force =    -0.00000683   -0.00003007    0.00048275
     atom    4 type  2   force =     0.00005160    0.00006420   -0.00089627
     atom    5 type  3   force =     0.00000710   -0.00000050    6.51905177
     atom    6 type  3   force =    -0.00000441    0.00001326   -6.51877435
     atom    7 type  3   force =     0.00001368   -0.00000449    6.51944475
     atom    8 type  3   force =     0.00000324   -0.00000388   -6.51986388
     The core correction contribution to forces
     atom    1 type  1   force =     0.00000000    0.00000000    0.00000000
     atom    2 type  1   force =     0.00000000    0.00000000    0.00000000
     atom    3 type  2   force =     0.00000017   -0.00000151   -0.00000113
     atom    4 type  2   force =     0.00000119    0.00000432   -0.00000363
     atom    5 type  3   force =     0.00000132    0.00000046    0.02449418
     atom    6 type  3   force =    -0.00000052    0.00000027   -0.02449482
     atom    7 type  3   force =     0.00000105    0.00000094    0.02448209
     atom    8 type  3   force =    -0.00000046   -0.00000093   -0.02448312
     The Hubbard contrib.    to forces
     atom    1 type  1   force =     0.00000000    0.00000000    0.00000000
     atom    2 type  1   force =     0.00000000    0.00000000    0.00000000
     atom    3 type  2   force =     0.00000000    0.00000000    0.00000000
     atom    4 type  2   force =     0.00000000    0.00000000    0.00000000
     atom    5 type  3   force =     0.00000000    0.00000000    0.00000000
     atom    6 type  3   force =     0.00000000    0.00000000    0.00000000
     atom    7 type  3   force =     0.00000000    0.00000000    0.00000000
     atom    8 type  3   force =     0.00000000    0.00000000    0.00000000
     The SCF correction term to forces
     atom    1 type  1   force =    -0.00003900   -0.00001739    0.00035096
     atom    2 type  1   force =    -0.00000532   -0.00002409   -0.00060497
     atom    3 type  2   force =     0.00000799    0.00000411   -0.00048321
     atom    4 type  2   force =    -0.00003542   -0.00007925    0.00083697
     atom    5 type  3   force =    -0.00000035    0.00000946   -0.00035714
     atom    6 type  3   force =     0.00000225    0.00000512    0.00006933
     atom    7 type  3   force =     0.00000002    0.00001162   -0.00082854
     atom    8 type  3   force =     0.00000260    0.00001591    0.00124103

     Total force =     0.265802     Total SCF correction =     0.001947

     Computing stress (Cartesian axis) and pressure

          total   stress  (Ry/bohr**3)                   (kbar)     P=      113.05
   0.00127758   0.00000000   0.00000000          187.94        0.00        0.00
   0.00000000   0.00127758   0.00000000            0.00      187.94        0.00
   0.00000000   0.00000000  -0.00024962            0.00        0.00      -36.72

     kinetic stress (kbar)  12906.35      0.00      0.00
                                0.00  12906.35     -0.00
                                0.00     -0.00  12976.29

     local   stress (kbar)   1777.65      0.01      0.01
                                0.01   1777.71      0.03
                                0.01      0.03   7073.89

     nonloc. stress (kbar)  -4670.01     -0.00      0.00
                               -0.00  -4670.01      0.00
                                0.00      0.00  -4740.66

     hartree stress (kbar)   7263.66     -0.00     -0.00
                               -0.00   7263.64     -0.01
                               -0.00     -0.01   4448.72

     exc-cor stress (kbar)  13180.03      0.00     -0.00
                                0.00  13180.03     -0.00
                               -0.00     -0.00  13192.50

     corecor stress (kbar) -17068.58     -0.00      0.00
                               -0.00 -17068.58      0.00
                                0.00      0.00 -17060.05

     ewald   stress (kbar) -13201.18     -0.01      0.00
                               -0.01 -13201.19      0.00
                                0.00      0.00 -15927.41

     hubbard stress (kbar)      0.00      0.00      0.00
                                0.00      0.00      0.00
                                0.00      0.00      0.00

     DFT-D   stress (kbar)      0.00      0.00      0.00
                                0.00      0.00      0.00
                                0.00      0.00      0.00

     XDM     stress (kbar)      0.00      0.00      0.00
                                0.00      0.00      0.00
                                0.00      0.00      0.00

     dft-nl  stress (kbar)      0.00      0.00      0.00
                                0.00      0.00      0.00
                                0.00      0.00      0.00

     TS-vdW  stress (kbar)      0.00      0.00      0.00
                                0.00      0.00      0.00
                                0.00      0.00      0.00

[...]

                                0.00      0.00      0.00

     Writing all to output data dir new_calculations/myprefix.save/

     General routines

     Parallel routines

     PAW routines

   This run was terminated on:  19:33:10  20May2023

   JOB DONE.