     Program PWSCF v.7.0 starts on 20May2023 at 16: 4:34

     Reading input from espresso_9481.pwi
Warning: card &CELL ignored
Warning: card / ignored

     Current dimensions of program PWSCF are:
     Max number of different atomic species (ntypx) = 10
     Max number of k-points (npk) =  40000
     Max angular momentum in pseudopotentials (lmaxx) =  4
     file O.pbe-n-kjpaw_psl.0.1.UPF: wavefunction(s)  2P renormalized

     gamma-point specific algorithms are used

     Subspace diagonalization in iterative solution of the eigenvalue problem:
     a serial algorithm will be used

     Using Slab Decomposition

     bravais-lattice index     =            0
     lattice parameter (alat)  =      10.7926  a.u.
     unit-cell volume          =     884.3764 (a.u.)^3
     number of atoms/cell      =           14
     number of atomic types    =            4
     number of electrons       =       123.00
     number of Kohn-Sham states=           74
     kinetic-energy cutoff     =      30.0000  Ry
     charge density cutoff     =     240.0000  Ry
     scf convergence threshold =      1.0E-06
     mixing beta               =       0.7000
     number of iterations used =            8  plain     mixing
     Exchange-correlation= SLA  PW   PBX  PBC
                           (   1   4   3   4   0   0   0)

     celldm(1)=  10.792615  celldm(2)=   0.000000  celldm(3)=   0.000000
     celldm(4)=   0.000000  celldm(5)=   0.000000  celldm(6)=   0.000000

     crystal axes: (cart. coord. in units of alat)
               a(1) = (   1.000000   0.000000   0.000000 )
               a(2) = (   0.503403   0.864052   0.000000 )
               a(3) = (   0.503403   0.289321   0.814174 )

     reciprocal axes: (cart. coord. in units 2 pi/alat)
               b(1) = (  1.000000 -0.582607 -0.411266 )
               b(2) = (  0.000000  1.157338 -0.411266 )
               b(3) = (  0.000000  0.000000  1.228239 )

     PseudoPot. # 1 for Li read from file:
     /home/pragov/projects/rrg-bengioy-ad/pragov/crystal_structure_design/SSSP/li_pbe_v1.4.uspp.F.UPF
     MD5 check sum: e912e257baa3777c20ea3d68f190483c
     Pseudo is Ultrasoft, Zval =  3.0
     Generated by new atomic code, or converted to UPF format
     Using radial grid of  751 points,  5 beta functions with:
                l(1) =   0
                l(2) =   0
                l(3) =   0
                l(4) =   1
                l(5) =   1
     Q(r) pseudized with 10 coefficients,  rinner =    1.150   1.150   1.150

     PseudoPot. # 2 for Co read from file:
     /home/pragov/projects/rrg-bengioy-ad/pragov/crystal_structure_design/SSSP/Co_pbe_v1.2.uspp.F.UPF
     MD5 check sum: 5f91765df6ddd3222702df6e7b74a16d
     Pseudo is Ultrasoft + core correction, Zval = 17.0
     Generated by new atomic code, or converted to UPF format
     Using radial grid of  863 points,  6 beta functions with:
                l(1) =   0
                l(2) =   0
                l(3) =   1
                l(4) =   1
                l(5) =   2
                l(6) =   2
     Q(r) pseudized with  8 coefficients,  rinner =    1.200   1.200   1.200
                                                       1.200   1.200

     PseudoPot. # 3 for Ni read from file:
     /home/pragov/projects/rrg-bengioy-ad/pragov/crystal_structure_design/SSSP/ni_pbe_v1.4.uspp.F.UPF
     MD5 check sum: 1ee80287db30b12d2bc1f57a5b5d6409
     Pseudo is Ultrasoft + core correction, Zval = 18.0
     Generated by new atomic code, or converted to UPF format
     Using radial grid of  865 points,  6 beta functions with:
                l(1) =   0
                l(2) =   0
                l(3) =   1
                l(4) =   1
                l(5) =   2
                l(6) =   2
     Q(r) pseudized with 10 coefficients,  rinner =    0.980   0.980   0.980
                                                       0.980   0.980

     PseudoPot. # 4 for O  read from file:
     /home/pragov/projects/rrg-bengioy-ad/pragov/crystal_structure_design/SSSP/O.pbe-n-kjpaw_psl.0.1.UPF
     MD5 check sum: 0234752ac141de4415c5fc33072bef88
     Pseudo is Projector augmented-wave + core cor, Zval =  6.0
     Generated using "atomic" code by A. Dal Corso  v.5.0.99 svn rev. 10869
     Shape of augmentation charge: BESSEL
     Using radial grid of 1095 points,  4 beta functions with:
                l(1) =   0
                l(2) =   0
                l(3) =   1
                l(4) =   1
     Q(r) pseudized with 0 coefficients

     atomic species   valence    mass     pseudopotential
        Li             3.00     6.94000     Li( 1.00)
        Co            17.00    58.93319     Co( 1.00)
        Ni            18.00    58.69340     Ni( 1.00)
        O              6.00    15.99900     O ( 1.00)

     No symmetry found

                                    s                        frac. trans.

      isym =  1     identity

 cryst.   s( 1) = (     1          0          0      )
                  (     0          1          0      )
                  (     0          0          1      )

 cart.    s( 1) = (  1.0000000 -0.0000000  0.0000000 )
                  (  0.0000000  1.0000000 -0.0000000 )
                  (  0.0000000  0.0000000  1.0000000 )

   Cartesian axes

     site n.     atom                  positions (alat units)
         1           Li  tau(   1) = (   1.7582904   1.0105439   0.7133499  )
         2           Li  tau(   2) = (   1.0070870   0.5788041   0.4085818  )
         3           Co  tau(   3) = (   1.2511077   0.7190503   0.8056976  )
         4           Co  tau(   4) = (   1.2511077   0.9999564   0.4077611  )
         5           Co  tau(   5) = (   1.4938252   0.5776415   0.4077611  )
         6           Ni  tau(   6) = (   0.2380472   0.1368131   0.0965773  )
         7           O   tau(   7) = (   1.4770005   0.8488779   0.5992288  )
         8           O   tau(   8) = (   1.0453702   0.8705175   0.6145043  )
         9           O   tau(   9) = (   1.2784144   0.4650335   0.6145043  )
        10           O   tau(  10) = (   1.2784144   0.7347444   0.2324271  )
        11           O   tau(  11) = (   0.7422165   0.4265748   0.5830243  )
        12           O   tau(  12) = (   0.7422165   0.6922040   0.2067293  )
        13           O   tau(  13) = (   0.9717339   0.2928564   0.2067293  )
        14           O   tau(  14) = (   0.5162044   0.2966787   0.2094275  )

   Crystallographic axes

     site n.     atom                  positions (cryst. coord.)
         1           Li  tau(   1) = (  0.8761640  0.8761640  0.8761640  )
         2           Li  tau(   2) = (  0.5018360  0.5018360  0.5018360  )
         3           Co  tau(   3) = (  0.5008280  0.5008280  0.9895890  )
         4           Co  tau(   4) = (  0.5008280  0.9895890  0.5008280  )
         5           Co  tau(   5) = (  0.9895890  0.5008280  0.5008280  )
         6           Ni  tau(   6) = (  0.1186200  0.1186200  0.1186200  )
         7           O   tau(   7) = (  0.7359960  0.7359960  0.7359960  )
         8           O   tau(   8) = (  0.2854760  0.7547580  0.7547580  )
         9           O   tau(   9) = (  0.7547580  0.2854760  0.7547580  )
        10           O   tau(  10) = (  0.7547580  0.7547580  0.2854760  )
        11           O   tau(  11) = (  0.2539130  0.2539130  0.7160930  )
        12           O   tau(  12) = (  0.2539130  0.7160930  0.2539130  )
        13           O   tau(  13) = (  0.7160930  0.2539130  0.2539130  )
        14           O   tau(  14) = (  0.2572270  0.2572270  0.2572270  )

     number of k points=     1  Methfessel-Paxton smearing, width (Ry)=  0.0010
                       cart. coord. in units 2pi/alat
        k(    1) = (   0.0000000   0.0000000   0.0000000), wk =   2.0000000

                       cryst. coord.
        k(    1) = (   0.0000000   0.0000000   0.0000000), wk =   2.0000000

     Check: negative core charge=   -0.000024

     Initial potential from superposition of free atoms

     starting charge     117.0985, renormalised to     123.0000
     Starting wfcs are   94 randomized atomic wfcs
     Checking if some PAW data can be deallocated...

     Self-consistent Calculation

     iteration #  1     ecut=    30.00 Ry     beta= 0.70
     Davidson diagonalization with overlap

     ethr =  1.00E-02,  avg # of iterations =  3.0

     total energy              =   -1530.50415912 Ry
     estimated scf accuracy    <      93.27480939 Ry

[...]

     total energy              =   -1600.17168323 Ry
     estimated scf accuracy    <       0.00000267 Ry

     iteration # 36     ecut=    30.00 Ry     beta= 0.70
     Davidson diagonalization with overlap

     ethr =  1.23E-09,  avg # of iterations =  1.0

     End of self-consistent calculation

          k = 0.0000 0.0000 0.0000 (  1220 PWs)   bands (ev):

   -95.0103 -86.5627 -86.5570 -86.5567 -55.3925 -55.3924 -55.2113 -49.9608
   -49.9606 -49.9393 -49.9036 -49.8742 -49.8739 -49.5411 -49.5113 -49.5110
   -34.8447 -34.4742 -10.9013  -9.5296  -9.4758  -9.4584  -9.4581  -8.9081
    -8.8503  -8.8498   1.5738   2.2586   2.2587   2.7529   3.3054   3.3054
     3.4163   3.8105   3.8106   4.0664   4.2415   4.2415   4.3941   5.2520
     5.2521   5.8012   5.9745   6.2257   6.2257   6.2628   6.2629   6.5317
     6.5318   6.7502   7.4253   7.4253   7.7953   7.7953   8.1911   8.2787
     8.4494   8.4495   8.6979   8.6980   8.8690   8.9329   9.1129   9.1129
    10.9835  11.1448  11.1448  11.4081  11.4082  11.4877  14.1708  17.8497
    17.8498  18.5031

     occupation numbers
     1.0000   1.0000   1.0000   1.0000   1.0000   1.0000   1.0000   1.0000
     1.0000   1.0000   1.0000   1.0000   1.0000   1.0000   1.0000   1.0000
     1.0000   1.0000   1.0000   1.0000   1.0000   1.0000   1.0000   1.0000
     1.0000   1.0000   1.0000   1.0000   1.0000   1.0000   1.0000   1.0000
     1.0000   1.0000   1.0000   1.0000   1.0000   1.0000   1.0000   1.0000
     1.0000   1.0000   1.0000   1.0000   1.0000   1.0000   1.0000   1.0000
     1.0000   1.0000   1.0000   1.0000   1.0000   1.0000   1.0000   1.0000
     1.0000   1.0000   1.0000   1.0000   1.0000   0.5000  -0.0000  -0.0000
    -0.0000  -0.0000  -0.0000  -0.0000  -0.0000  -0.0000  -0.0000  -0.0000
    -0.0000  -0.0000

     the Fermi energy is     8.9329 ev

!    total energy              =   -1600.17168275 Ry
     estimated scf accuracy    <       0.00000072 Ry
     smearing contrib. (-TS)   =      -0.00028209 Ry
     internal energy E=F+TS    =   -1600.17140066 Ry

     The total energy is F=E-TS. E is the sum of the following terms:
     one-electron contribution =   -1101.62980921 Ry
     hartree contribution      =     608.31612417 Ry
     xc contribution           =    -199.19130558 Ry
     ewald contribution        =    -831.47527064 Ry
     one-center paw contrib.   =     -76.19113940 Ry
      -> PAW hartree energy AE =     232.89499775 Ry
      -> PAW hartree energy PS =    -232.07831732 Ry
      -> PAW xc energy AE      =    -136.71018044 Ry
      -> PAW xc energy PS      =      59.70236061 Ry
      -> total E_H with PAW    =     609.13280460 Ry
      -> total E_XC with PAW   =    -276.19912541 Ry

     convergence has been achieved in  36 iterations

     Forces acting on atoms (cartesian axes, Ry/au):

     atom    1 type  1   force =     0.00296795    0.00171740    0.00119393
     atom    2 type  1   force =     0.01510678    0.00869723    0.00618494
     atom    3 type  2   force =     0.02188840    0.01263038    0.05977392
     atom    4 type  2   force =     0.02193917    0.06019198   -0.00835089
     atom    5 type  2   force =     0.06313485   -0.01132129   -0.00839301
     atom    6 type  3   force =     0.00128598    0.00054365    0.00060043
     atom    7 type  4   force =    -0.00631682   -0.00363397   -0.00256182
     atom    8 type  4   force =     0.00095868   -0.01758966   -0.01239967
     atom    9 type  4   force =    -0.01467342    0.00976114   -0.01243431
     atom   10 type  4   force =    -0.01462955   -0.00843555    0.01345782
     atom   11 type  4   force =    -0.03751027   -0.02150789   -0.00674884
     atom   12 type  4   force =    -0.03753184   -0.01355645   -0.01799992
     atom   13 type  4   force =    -0.03057828   -0.02555454   -0.01801705
     atom   14 type  4   force =     0.01395836    0.00805758    0.00569447
     The non-local contrib.  to forces
     atom    1 type  1   force =    -0.03981819   -0.02288380   -0.01615857
     atom    2 type  1   force =    -0.00344399   -0.00198389   -0.00139857
     atom    3 type  2   force =    -0.03347540   -0.01921091    0.07414688
     atom    4 type  2   force =    -0.03342164    0.06310045   -0.04318579
     atom    5 type  2   force =     0.03781006   -0.06064589   -0.04322115
     atom    6 type  3   force =    -0.21352523   -0.12295879   -0.08658468
     atom    7 type  4   force =    -0.71044168   -0.40832610   -0.28826574
     atom    8 type  4   force =     0.81869307   -0.11479084   -0.08102920
     atom    9 type  4   force =     0.31297824    0.76519669   -0.08105109
     atom   10 type  4   force =     0.31303439    0.17988399    0.74825647
     atom   11 type  4   force =    -0.42694106   -0.24535189   -0.00349265
     atom   12 type  4   force =    -0.42706391   -0.08542575   -0.23006589
     atom   13 type  4   force =    -0.28878497   -0.32599940   -0.23009106
     atom   14 type  4   force =     0.37929252    0.21799406    0.15387027
     The ionic contribution  to forces
     atom    1 type  1   force =    -1.25280234   -0.72002429   -0.50827048
     atom    2 type  1   force =    -0.17468573   -0.10039730   -0.07087096
     atom    3 type  2   force =    -1.76850285   -1.01641334    3.02666821
     atom    4 type  2   force =    -1.76850080    2.51161362   -1.97119616
     atom    5 type  2   force =     1.27989693   -2.79242940   -1.97119616
     atom    6 type  3   force =     6.93285201    3.98452468    2.81270599
     atom    7 type  4   force =    16.94629473    9.73956022    6.87522486
     atom    8 type  4   force =   -18.98261456    0.28809742    0.20336728
     atom    9 type  4   force =    -9.30696574  -16.54699503    0.20336728
     atom   10 type  4   force =    -9.30696609   -5.34900154  -15.65990476
     atom   11 type  4   force =     8.58327252    4.93307244    1.94207816
     atom   12 type  4   force =     8.58326984    3.48177036    3.99801899
     atom   13 type  4   force =     7.32927071    5.66365933    3.99801899
     atom   14 type  4   force =    -7.09381862   -4.07703718   -2.87801126
     The local contribution  to forces
     atom    1 type  1   force =     1.29558283    0.74460264    0.52547810
     atom    2 type  1   force =     0.19319503    0.11102736    0.07853130
     atom    3 type  2   force =     1.82222476    1.04717173   -3.04339282
     atom    4 type  2   force =     1.82212173   -2.51614393    2.00646601
     atom    5 type  2   force =    -1.25713661    2.84102137    2.00659045
     atom    6 type  3   force =    -6.72676170   -3.86563563   -2.72925902
     atom    7 type  4   force =   -16.24996993   -9.33890363   -6.59222984
     atom    8 type  4   force =    18.17363273   -0.19205424   -0.13545402
     atom    9 type  4   force =     8.98233968   15.79951896   -0.13505659
     atom   10 type  4   force =     8.98232615    5.16296902   14.93270629
     atom   11 type  4   force =    -8.19844539   -4.71239154   -1.94474061
     atom   12 type  4   force =    -8.19825322   -3.41050533   -3.78918490
     atom   13 type  4   force =    -7.07414579   -5.36710929   -3.78883673
     atom   14 type  4   force =     6.73290902    3.86920178    2.73124624
     The core correction contribution to forces
     atom    1 type  1   force =     0.00000000    0.00000000    0.00000000
     atom    2 type  1   force =     0.00000000    0.00000000    0.00000000
     atom    3 type  2   force =     0.00148141    0.00085064    0.00215005
     atom    4 type  2   force =     0.00148082    0.00231160    0.00008264
     atom    5 type  2   force =     0.00274192    0.00011508    0.00008289
     atom    6 type  3   force =     0.00891137    0.00512564    0.00361703
     atom    7 type  4   force =     0.00751742    0.00432037    0.00305006
     atom    8 type  4   force =    -0.00848262    0.00112636    0.00079500
     atom    9 type  4   force =    -0.00329688   -0.00789625    0.00079491
     atom   10 type  4   force =    -0.00329751   -0.00189530   -0.00770753
     atom   11 type  4   force =     0.00481317    0.00276632   -0.00020364
     atom   12 type  4   force =     0.00481490    0.00073421    0.00267553
     atom   13 type  4   force =     0.00305853    0.00379093    0.00267566
     atom   14 type  4   force =    -0.00437007   -0.00251137   -0.00177258
     The Hubbard contrib.    to forces
     atom    1 type  1   force =     0.00000000    0.00000000    0.00000000
     atom    2 type  1   force =     0.00000000    0.00000000    0.00000000
     atom    3 type  2   force =     0.00000000    0.00000000    0.00000000
     atom    4 type  2   force =     0.00000000    0.00000000    0.00000000
     atom    5 type  2   force =     0.00000000    0.00000000    0.00000000
     atom    6 type  3   force =     0.00000000    0.00000000    0.00000000
     atom    7 type  4   force =     0.00000000    0.00000000    0.00000000
     atom    8 type  4   force =     0.00000000    0.00000000    0.00000000
     atom    9 type  4   force =     0.00000000    0.00000000    0.00000000
     atom   10 type  4   force =     0.00000000    0.00000000    0.00000000
     atom   11 type  4   force =     0.00000000    0.00000000    0.00000000
     atom   12 type  4   force =     0.00000000    0.00000000    0.00000000
     atom   13 type  4   force =     0.00000000    0.00000000    0.00000000
     atom   14 type  4   force =     0.00000000    0.00000000    0.00000000
     The SCF correction term to forces
     atom    1 type  1   force =     0.00000520    0.00000588    0.00011973
     atom    2 type  1   force =     0.00004102    0.00003408   -0.00010198
     atom    3 type  2   force =     0.00016003    0.00021528    0.00017646
     atom    4 type  2   force =     0.00025861   -0.00070673   -0.00054274
     atom    5 type  2   force =    -0.00017789    0.00060058   -0.00067419
     atom    6 type  3   force =    -0.00019092   -0.00052923    0.00009597
     atom    7 type  4   force =     0.00028218   -0.00030180   -0.00036632
     atom    8 type  4   force =    -0.00027040    0.00001467   -0.00010387
     atom    9 type  4   force =     0.00027082   -0.00008021   -0.00051398
     atom   10 type  4   force =     0.00027304   -0.00040870    0.00008219
     atom   11 type  4   force =    -0.00020996    0.00037980   -0.00041525
     atom   12 type  4   force =    -0.00029991   -0.00014691    0.00053121
     atom   13 type  4   force =     0.00002280    0.00008692    0.00019094
     atom   14 type  4   force =    -0.00005494    0.00039331    0.00033665

     Total force =     0.142897     Total SCF correction =     0.002053

     Computing stress (Cartesian axis) and pressure

          total   stress  (Ry/bohr**3)                   (kbar)     P=     -856.25
  -0.00575582   0.00007379   0.00005194         -846.71       10.85        7.64
   0.00007379  -0.00584240   0.00002959           10.85     -859.45        4.35
   0.00005194   0.00002959  -0.00586371            7.64        4.35     -862.58

     kinetic stress (kbar)  35372.65    172.40    121.75
                              172.40  35171.85     70.12
                              121.75     70.12  35122.10

     local   stress (kbar)  -4032.16  24661.33  17408.49
                            24661.33 -32768.09  10005.06
                            17408.49  10005.06 -39879.35

     nonloc. stress (kbar)  12265.47     35.81     25.34
                               35.81  12223.73     14.67
                               25.34     14.67  12213.35

     hartree stress (kbar)  24124.03 -11002.57  -7766.82
                           -11002.57  36944.42  -4463.97
                            -7766.82  -4463.97  40117.42

     exc-cor stress (kbar)  -8401.29     -4.00     -2.83
                               -4.00  -8396.62     -1.62
                               -2.83     -1.62  -8395.47

     corecor stress (kbar)  -1982.44     -0.84     -0.59
                               -0.84  -1981.47     -0.34
                               -0.59     -0.34  -1981.23

     ewald   stress (kbar) -58192.96 -13851.27  -9777.71
                           -13851.27 -42053.27  -5619.55
                            -9777.71  -5619.55 -38059.40

     hubbard stress (kbar)      0.00      0.00      0.00
                                0.00      0.00      0.00
                                0.00      0.00      0.00

     DFT-D   stress (kbar)      0.00      0.00      0.00
                                0.00      0.00      0.00
                                0.00      0.00      0.00

     XDM     stress (kbar)      0.00      0.00      0.00
                                0.00      0.00      0.00
                                0.00      0.00      0.00

     dft-nl  stress (kbar)      0.00      0.00      0.00
                                0.00      0.00      0.00
                                0.00      0.00      0.00

     TS-vdW  stress (kbar)      0.00      0.00      0.00
                                0.00      0.00      0.00
                                0.00      0.00      0.00

[...]

                                0.00      0.00      0.00

     Writing all to output data dir new_calculations/myprefix.save/

     General routines

     Parallel routines

     PAW routines

   This run was terminated on:  16: 5:19  20May2023

   JOB DONE.