     Program PWSCF v.7.0 starts on 21May2023 at  7:24:22

     Reading input from espresso_22583.pwi
Warning: card &CELL ignored
Warning: card / ignored

     Current dimensions of program PWSCF are:
     Max number of different atomic species (ntypx) = 10
     Max number of k-points (npk) =  40000
     Max angular momentum in pseudopotentials (lmaxx) =  4
     file K.pbe-spn-kjpaw_psl.1.0.0.UPF: wavefunction(s)  3S renormalized
     file Cd.pbe-dn-rrkjus_psl.0.3.1.UPF: wavefunction(s)  4D renormalized
     file O.pbe-n-kjpaw_psl.0.1.UPF: wavefunction(s)  2P renormalized

     gamma-point specific algorithms are used
     Message from routine setup:
     using ibrav=0 with symmetry is DISCOURAGED, use correct ibrav instead

     Subspace diagonalization in iterative solution of the eigenvalue problem:
     a serial algorithm will be used

     Using Slab Decomposition

     bravais-lattice index     =            0
     lattice parameter (alat)  =      12.7034  a.u.
     unit-cell volume          =    1812.8343 (a.u.)^3
     number of atoms/cell      =           14
     number of atomic types    =            3
     number of electrons       =       120.00
     number of Kohn-Sham states=           72
     kinetic-energy cutoff     =      30.0000  Ry
     charge density cutoff     =     240.0000  Ry
     scf convergence threshold =      1.0E-06
     mixing beta               =       0.7000
     number of iterations used =            8  plain     mixing
     Exchange-correlation= SLA  PW   PBX  PBC
                           (   1   4   3   4   0   0   0)

     celldm(1)=  12.703412  celldm(2)=   0.000000  celldm(3)=   0.000000
     celldm(4)=   0.000000  celldm(5)=   0.000000  celldm(6)=   0.000000

     crystal axes: (cart. coord. in units of alat)
               a(1) = (   1.000000   0.000000   0.000000 )
               a(2) = (   0.000000   0.977487   0.000000 )
               a(3) = (   0.000000   0.484681   0.904661 )

     reciprocal axes: (cart. coord. in units 2 pi/alat)
               b(1) = (  1.000000  0.000000  0.000000 )
               b(2) = (  0.000000  1.023031 -0.548099 )
               b(3) = (  0.000000  0.000000  1.105386 )

     PseudoPot. # 1 for K  read from file:
     /home/pragov/projects/rrg-bengioy-ad/pragov/crystal_structure_design/SSSP/K.pbe-spn-kjpaw_psl.1.0.0.UPF
     MD5 check sum: 7d58810084cac21f60fbe77ea2b688fd
     Pseudo is Projector augmented-wave + core cor, Zval =  9.0
     Generated using "atomic" code by A. Dal Corso  v.5.1
     Shape of augmentation charge: PSQ
     Using radial grid of 1165 points,  6 beta functions with:
                l(1) =   0
                l(2) =   0
                l(3) =   1
                l(4) =   1
                l(5) =   2
                l(6) =   2
     Q(r) pseudized with 0 coefficients

     PseudoPot. # 2 for Cd read from file:
     /home/pragov/projects/rrg-bengioy-ad/pragov/crystal_structure_design/SSSP/Cd.pbe-dn-rrkjus_psl.0.3.1.UPF
     MD5 check sum: 558e9f355611b531a870a69ef6ace9e2
     Pseudo is Ultrasoft + core correction, Zval = 12.0
     Generated using "atomic" code by A. Dal Corso  v.5.0.99 svn rev. 10869
     Using radial grid of 1239 points,  6 beta functions with:
                l(1) =   0
                l(2) =   0
                l(3) =   1
                l(4) =   1
                l(5) =   2
                l(6) =   2
     Q(r) pseudized with 0 coefficients

     PseudoPot. # 3 for O  read from file:
     /home/pragov/projects/rrg-bengioy-ad/pragov/crystal_structure_design/SSSP/O.pbe-n-kjpaw_psl.0.1.UPF
     MD5 check sum: 0234752ac141de4415c5fc33072bef88
     Pseudo is Projector augmented-wave + core cor, Zval =  6.0
     Generated using "atomic" code by A. Dal Corso  v.5.0.99 svn rev. 10869
     Shape of augmentation charge: BESSEL
     Using radial grid of 1095 points,  4 beta functions with:
                l(1) =   0
                l(2) =   0
                l(3) =   1
                l(4) =   1
     Q(r) pseudized with 0 coefficients

     atomic species   valence    mass     pseudopotential
        K              9.00    39.09830     K ( 1.00)
        Cd            12.00   112.41400     Cd( 1.00)
        O              6.00    15.99900     O ( 1.00)

      4 Sym. Ops., with inversion, found ( 2 have fractional translation)

                                    s                        frac. trans.

      isym =  1     identity

 cryst.   s( 1) = (     1          0          0      )
                  (     0          1          0      )
                  (     0          0          1      )

 cart.    s( 1) = (  1.0000000  0.0000000  0.0000000 )
                  (  0.0000000  1.0000000  0.0000000 )
                  (  0.0000000  0.0000000  1.0000000 )

      isym =  2     180 deg rotation - cart. axis [1,0,0]

 cryst.   s( 2) = (     1          0          0      )    f =(  0.5000000 )
                  (     0         -1          0      )       (  0.0000000 )
                  (     0          0         -1      )       (  0.5000000 )

 cart.    s( 2) = (  1.0000000  0.0000000  0.0000000 )    f =(  0.5000000 )
                  (  0.0000000 -1.0000000 -0.0000000 )       (  0.2423406 )
                  (  0.0000000  0.0000000 -1.0000000 )       (  0.4523305 )

      isym =  3     inversion

 cryst.   s( 3) = (    -1          0          0      )
                  (     0         -1          0      )
                  (     0          0         -1      )

 cart.    s( 3) = ( -1.0000000  0.0000000  0.0000000 )
                  (  0.0000000 -1.0000000 -0.0000000 )
                  (  0.0000000  0.0000000 -1.0000000 )

      isym =  4     inv. 180 deg rotation - cart. axis [1,0,0]

 cryst.   s( 4) = (    -1          0          0      )    f =(  0.5000000 )
                  (     0          1          0      )       (  0.0000000 )
                  (     0          0          1      )       (  0.5000000 )

 cart.    s( 4) = ( -1.0000000  0.0000000  0.0000000 )    f =(  0.5000000 )
                  (  0.0000000  1.0000000  0.0000000 )       (  0.2423406 )
                  (  0.0000000  0.0000000  1.0000000 )       (  0.4523305 )

   Cartesian axes

     site n.     atom                  positions (alat units)
         1           K   tau(   1) = (   0.3472500   1.2671447   0.8241217  )
         2           K   tau(   2) = (   0.1527500   1.0248041   0.3717912  )
         3           K   tau(   3) = (   0.6527500   0.1950239   0.0805393  )
         4           K   tau(   4) = (   0.8472500   0.4373645   0.5328697  )
         5           Cd  tau(   5) = (   0.1236060   0.7781607   0.8327078  )
         6           Cd  tau(   6) = (   0.3763940   0.5358200   0.3803774  )
         7           Cd  tau(   7) = (   0.8763940   0.6840080   0.0719531  )
         8           Cd  tau(   8) = (   0.6236060   0.9263486   0.5242836  )
         9           O   tau(   9) = (   0.5000000   0.2423406   0.4523305  )
        10           O   tau(  10) = (   0.5996160   0.7454163   0.2380118  )
        11           O   tau(  11) = (   0.0996160   0.4744117   0.2143187  )
        12           O   tau(  12) = (   0.4003840   0.7167523   0.6666492  )
        13           O   tau(  13) = (   0.0000000   0.0000000   0.0000000  )
        14           O   tau(  14) = (   0.9003840   0.9877569   0.6903423  )

   Crystallographic axes

     site n.     atom                  positions (cryst. coord.)
         1           K   tau(   1) = (  0.3472500  0.8446280  0.9109730  )
         2           K   tau(   2) = (  0.1527500  0.8446280  0.4109730  )
         3           K   tau(   3) = (  0.6527500  0.1553720  0.0890270  )
         4           K   tau(   4) = (  0.8472500  0.1553720  0.5890270  )
         5           Cd  tau(   5) = (  0.1236060  0.3396760  0.9204640  )
         6           Cd  tau(   6) = (  0.3763940  0.3396760  0.4204640  )
         7           Cd  tau(   7) = (  0.8763940  0.6603240  0.0795360  )
         8           Cd  tau(   8) = (  0.6236060  0.6603240  0.5795360  )
         9           O   tau(   9) = (  0.5000000 -0.0000000  0.5000000  )
        10           O   tau(  10) = (  0.5996160  0.6321300  0.2630950  )
        11           O   tau(  11) = (  0.0996160  0.3678700  0.2369050  )
        12           O   tau(  12) = (  0.4003840  0.3678700  0.7369050  )
        13           O   tau(  13) = (  0.0000000  0.0000000  0.0000000  )
        14           O   tau(  14) = (  0.9003840  0.6321300  0.7630950  )

     number of k points=     1  Methfessel-Paxton smearing, width (Ry)=  0.0010
                       cart. coord. in units 2pi/alat
        k(    1) = (   0.0000000   0.0000000   0.0000000), wk =   2.0000000

                       cryst. coord.
        k(    1) = (   0.0000000   0.0000000   0.0000000), wk =   2.0000000

     Check: negative core charge=   -0.000007

     Initial potential from superposition of free atoms

     starting charge     119.9051, renormalised to     120.0000
     Starting wfcs are   92 randomized atomic wfcs
     Checking if some PAW data can be deallocated...

     Self-consistent Calculation

     iteration #  1     ecut=    30.00 Ry     beta= 0.70
     Davidson diagonalization with overlap

     ethr =  1.00E-02,  avg # of iterations =  5.0

     total energy              =   -1188.90412571 Ry
     estimated scf accuracy    <       3.44300502 Ry

[...]

     total energy              =   -1190.71809021 Ry
     estimated scf accuracy    <       0.00000197 Ry

     iteration # 12     ecut=    30.00 Ry     beta= 0.70
     Davidson diagonalization with overlap

     ethr =  1.64E-09,  avg # of iterations =  2.0

     End of self-consistent calculation

          k = 0.0000 0.0000 0.0000 (  2507 PWs)   bands (ev):

   -23.5038 -23.4636 -23.4611 -23.4456 -10.8219 -10.6779 -10.6446 -10.6379
   -10.0795  -9.9487  -7.2746  -7.1944  -7.1286  -7.0359  -7.0028  -6.9718
    -6.9536  -6.9003  -6.8774  -6.8264  -6.8064  -6.7457  -1.4458  -1.4341
    -1.3575  -1.2705  -1.2147  -1.1876  -1.0902  -1.0718  -0.9719  -0.9645
    -0.9546  -0.9401  -0.8574  -0.8503  -0.7419  -0.6725  -0.6388  -0.5998
    -0.5469  -0.4600   1.9864   2.3778   2.4644   3.2041   3.3785   3.7123
     4.0620   4.1481   4.2679   4.6753   4.7126   4.8521   4.9150   5.0845
     5.2570   5.3822   5.4930   5.5473   6.0446   9.9880  10.0247  10.0319
    10.3565  11.1743  11.3394  11.5892  12.0486  12.1711  12.2606  12.3036

     occupation numbers
     1.0000   1.0000   1.0000   1.0000   1.0000   1.0000   1.0000   1.0000
     1.0000   1.0000   1.0000   1.0000   1.0000   1.0000   1.0000   1.0000
     1.0000   1.0000   1.0000   1.0000   1.0000   1.0000   1.0000   1.0000
     1.0000   1.0000   1.0000   1.0000   1.0000   1.0000   1.0000   1.0000
     1.0000   1.0000   1.0000   1.0000   1.0000   1.0000   1.0000   1.0000
     1.0000   1.0000   1.0000   1.0000   1.0000   1.0000   1.0000   1.0000
     1.0000   1.0000   1.0000   1.0000   1.0000   1.0000   1.0000   1.0000
     1.0000   1.0000   1.0000   1.0000  -0.0000  -0.0000  -0.0000  -0.0000
    -0.0000  -0.0000  -0.0000  -0.0000  -0.0000  -0.0000  -0.0000  -0.0000

     the Fermi energy is     5.6748 ev

!    total energy              =   -1190.71809061 Ry
     estimated scf accuracy    <       0.00000017 Ry
     smearing contrib. (-TS)   =       0.00000000 Ry
     internal energy E=F+TS    =   -1190.71809061 Ry

     The total energy is F=E-TS. E is the sum of the following terms:
     one-electron contribution =    -317.88451944 Ry
     hartree contribution      =     246.10404909 Ry
     xc contribution           =    -261.44895706 Ry
     ewald contribution        =    -578.65616879 Ry
     one-center paw contrib.   =    -278.83249441 Ry
      -> PAW hartree energy AE =     320.85688530 Ry
      -> PAW hartree energy PS =    -319.43144491 Ry
      -> PAW xc energy AE      =    -366.65312727 Ry
      -> PAW xc energy PS      =      86.39519246 Ry
      -> total E_H with PAW    =     247.52948948 Ry
      -> total E_XC with PAW   =    -541.70689186 Ry

     convergence has been achieved in  12 iterations

     Forces acting on atoms (cartesian axes, Ry/au):

     atom    1 type  1   force =    -0.00276533    0.00195188    0.00325885
     atom    2 type  1   force =     0.00276533    0.00195188    0.00325885
     atom    3 type  1   force =     0.00276533   -0.00195188   -0.00325885
     atom    4 type  1   force =    -0.00276533   -0.00195188   -0.00325885
     atom    5 type  2   force =    -0.00016067   -0.00189448   -0.00242976
     atom    6 type  2   force =     0.00016067   -0.00189448   -0.00242976
     atom    7 type  2   force =     0.00016067    0.00189448    0.00242976
     atom    8 type  2   force =    -0.00016067    0.00189448    0.00242976
     atom    9 type  3   force =     0.00000000    0.00000000   -0.00000000
     atom   10 type  3   force =    -0.00022578    0.00773684   -0.00919987
     atom   11 type  3   force =    -0.00022578   -0.00773684    0.00919987
     atom   12 type  3   force =     0.00022578   -0.00773684    0.00919987
     atom   13 type  3   force =     0.00000000    0.00000000    0.00000000
     atom   14 type  3   force =     0.00022578    0.00773684   -0.00919987
     The non-local contrib.  to forces
     atom    1 type  1   force =     0.01712261   -0.01181672    0.00880869
     atom    2 type  1   force =    -0.01712261   -0.01181672    0.00880869
     atom    3 type  1   force =    -0.01712261    0.01181672   -0.00880869
     atom    4 type  1   force =     0.01712261    0.01181672   -0.00880869
     atom    5 type  2   force =     0.05163682    0.06942601   -0.01361381
     atom    6 type  2   force =    -0.05163682    0.06942601   -0.01361381
     atom    7 type  2   force =    -0.05163682   -0.06942601    0.01361381
     atom    8 type  2   force =     0.05163682   -0.06942601    0.01361381
     atom    9 type  3   force =     0.00000000    0.00000000    0.00000000
     atom   10 type  3   force =     0.37401254   -0.26396121    0.33751124
     atom   11 type  3   force =     0.37401254    0.26396121   -0.33751124
     atom   12 type  3   force =    -0.37401254    0.26396121   -0.33751124
     atom   13 type  3   force =     0.00000000    0.00000000   -0.00000000
     atom   14 type  3   force =    -0.37401254   -0.26396121    0.33751124
     The ionic contribution  to forces
     atom    1 type  1   force =     0.96657506   -0.08885019    0.02962280
     atom    2 type  1   force =    -0.96657506   -0.08885019    0.02962280
     atom    3 type  1   force =    -0.96657506    0.08885019   -0.02962280
     atom    4 type  1   force =     0.96657506    0.08885019   -0.02962280
     atom    5 type  2   force =     2.11531176   -1.18677407   -0.98307825
     atom    6 type  2   force =    -2.11531176   -1.18677408   -0.98307825
     atom    7 type  2   force =    -2.11531176    1.18677407    0.98307825
     atom    8 type  2   force =     2.11531176    1.18677408    0.98307825
     atom    9 type  3   force =    -0.00000000    0.00000000   -0.00000000
     atom   10 type  3   force =    -0.81111387    0.98262083   -3.01671258
     atom   11 type  3   force =    -0.81111387   -0.98262084    3.01671257
     atom   12 type  3   force =     0.81111387   -0.98262084    3.01671258
     atom   13 type  3   force =     0.00000000    0.00000000   -0.00000000
     atom   14 type  3   force =     0.81111387    0.98262084   -3.01671257
     The local contribution  to forces
     atom    1 type  1   force =    -0.98588020    0.10157889   -0.03462692
     atom    2 type  1   force =     0.98582423    0.10162579   -0.03455643
     atom    3 type  1   force =     0.98590979   -0.10162227    0.03458414
     atom    4 type  1   force =    -0.98592228   -0.10172952    0.03464828
     atom    5 type  2   force =    -2.16493178    1.11933830    0.99444321
     atom    6 type  2   force =     2.16487373    1.11935575    0.99441328
     atom    7 type  2   force =     2.16496995   -1.11925822   -0.99463690
     atom    8 type  2   force =    -2.16477463   -1.11924066   -0.99434254
     atom    9 type  3   force =    -0.00000696   -0.00001697   -0.00001606
     atom   10 type  3   force =     0.44149866   -0.71427287    2.67431309
     atom   11 type  3   force =     0.44156264    0.71431269   -2.67425846
     atom   12 type  3   force =    -0.44154144    0.71431606   -2.67424064
     atom   13 type  3   force =    -0.00002157   -0.00010839    0.00005401
     atom   14 type  3   force =    -0.44171317   -0.71440288    2.67441936
     The core correction contribution to forces
     atom    1 type  1   force =    -0.00061756    0.00078943   -0.00043540
     atom    2 type  1   force =     0.00062263    0.00079077   -0.00043276
     atom    3 type  1   force =     0.00061854   -0.00078977    0.00043455
     atom    4 type  1   force =    -0.00062255   -0.00079079    0.00043354
     atom    5 type  2   force =    -0.00244538   -0.00363353   -0.00026623
     atom    6 type  2   force =     0.00245435   -0.00363637   -0.00026900
     atom    7 type  2   force =     0.00244901    0.00363251    0.00026946
     atom    8 type  2   force =    -0.00245593    0.00363904    0.00026577
     atom    9 type  3   force =    -0.00000081    0.00000010   -0.00000013
     atom   10 type  3   force =    -0.00477658    0.00331664   -0.00417831
     atom   11 type  3   force =    -0.00477516   -0.00331606    0.00417994
     atom   12 type  3   force =     0.00477572   -0.00331630    0.00417922
     atom   13 type  3   force =     0.00000026   -0.00000054    0.00000031
     atom   14 type  3   force =     0.00477338    0.00331418   -0.00417735
     The Hubbard contrib.    to forces
     atom    1 type  1   force =     0.00000000    0.00000000    0.00000000
     atom    2 type  1   force =     0.00000000    0.00000000    0.00000000
     atom    3 type  1   force =     0.00000000    0.00000000    0.00000000
     atom    4 type  1   force =     0.00000000    0.00000000    0.00000000
     atom    5 type  2   force =     0.00000000    0.00000000    0.00000000
     atom    6 type  2   force =     0.00000000    0.00000000    0.00000000
     atom    7 type  2   force =     0.00000000    0.00000000    0.00000000
     atom    8 type  2   force =     0.00000000    0.00000000    0.00000000
     atom    9 type  3   force =     0.00000000    0.00000000    0.00000000
     atom   10 type  3   force =     0.00000000    0.00000000    0.00000000
     atom   11 type  3   force =     0.00000000    0.00000000    0.00000000
     atom   12 type  3   force =     0.00000000    0.00000000    0.00000000
     atom   13 type  3   force =     0.00000000    0.00000000    0.00000000
     atom   14 type  3   force =     0.00000000    0.00000000    0.00000000
     The SCF correction term to forces
     atom    1 type  1   force =     0.00010505    0.00024698   -0.00016646
     atom    2 type  1   force =     0.00008628    0.00021445   -0.00015156
     atom    3 type  1   force =    -0.00013115   -0.00020560    0.00015191
     atom    4 type  1   force =     0.00001586   -0.00009091    0.00006858
     atom    5 type  2   force =     0.00035244   -0.00028217    0.00006956
     atom    6 type  2   force =    -0.00017792   -0.00028852    0.00016336
     atom    7 type  2   force =    -0.00034443    0.00012140    0.00015348
     atom    8 type  2   force =     0.00004298    0.00014506   -0.00020428
     atom    9 type  3   force =    -0.00003562    0.00002946    0.00001018
     atom   10 type  3   force =     0.00005684    0.00008754   -0.00009977
     atom   11 type  3   force =     0.00010120   -0.00008829    0.00014675
     atom   12 type  3   force =    -0.00008095   -0.00011957    0.00010275
     atom   13 type  3   force =     0.00004182    0.00009630   -0.00003708
     atom   14 type  3   force =    -0.00004814    0.00005479   -0.00016162

     Total force =     0.026544     Total SCF correction =     0.000991

     Computing stress (Cartesian axis) and pressure

          total   stress  (Ry/bohr**3)                   (kbar)     P=     -261.00
  -0.00177262   0.00000000   0.00000000         -260.76        0.00        0.00
   0.00000000  -0.00175850  -0.00004411            0.00     -258.68       -6.49
   0.00000000  -0.00004411  -0.00179166            0.00       -6.49     -263.56

     kinetic stress (kbar)  19071.42      0.00      0.00
                                0.00  19044.09    -14.79
                                0.00    -14.79  19105.52

     local   stress (kbar)  -5631.16     -0.05     -0.02
                               -0.05  -7990.90   -343.54
                               -0.02   -343.54  -4876.89

     nonloc. stress (kbar)    154.33      0.00      0.00
                                0.00    176.51     -2.54
                                0.00     -2.54    145.18

     hartree stress (kbar)   6410.96      0.03      0.01
                                0.03   7444.70    161.05
                                0.01    161.05   6114.81

     exc-cor stress (kbar)   5108.79      0.00     -0.00
                                0.00   5109.17      0.23
                               -0.00      0.23   5107.83

     corecor stress (kbar)  -9440.42     -0.00     -0.00
                               -0.00  -9441.20      0.26
                               -0.00      0.26  -9439.85

     ewald   stress (kbar) -15934.67      0.00     -0.00
                                0.00 -14601.06    192.84
                               -0.00    192.84 -16420.16

     hubbard stress (kbar)      0.00      0.00      0.00
                                0.00      0.00      0.00
                                0.00      0.00      0.00

     DFT-D   stress (kbar)      0.00      0.00      0.00
                                0.00      0.00      0.00
                                0.00      0.00      0.00

     XDM     stress (kbar)      0.00      0.00      0.00
                                0.00      0.00      0.00
                                0.00      0.00      0.00

     dft-nl  stress (kbar)      0.00      0.00      0.00
                                0.00      0.00      0.00
                                0.00      0.00      0.00

     TS-vdW  stress (kbar)      0.00      0.00      0.00
                                0.00      0.00      0.00
                                0.00      0.00      0.00

[...]

                                0.00      0.00      0.00

     Writing all to output data dir new_calculations/myprefix.save/

     General routines

     Parallel routines

     PAW routines

   This run was terminated on:   7:24:54  21May2023

   JOB DONE.