     Program PWSCF v.7.0 starts on 20May2023 at 15:21:33

     Reading input from espresso_6390.pwi
Warning: card &CELL ignored
Warning: card / ignored

     Current dimensions of program PWSCF are:
     Max number of different atomic species (ntypx) = 10
     Max number of k-points (npk) =  40000
     Max angular momentum in pseudopotentials (lmaxx) =  4

     gamma-point specific algorithms are used
     Message from routine setup:
     using ibrav=0 with symmetry is DISCOURAGED, use correct ibrav instead

     Subspace diagonalization in iterative solution of the eigenvalue problem:
     a serial algorithm will be used

     Using Slab Decomposition

     bravais-lattice index     =            0
     lattice parameter (alat)  =      11.4331  a.u.
     unit-cell volume          =    1538.3666 (a.u.)^3
     number of atoms/cell      =           12
     number of atomic types    =            4
     number of electrons       =        58.00
     number of Kohn-Sham states=           35
     kinetic-energy cutoff     =      30.0000  Ry
     charge density cutoff     =     240.0000  Ry
     scf convergence threshold =      1.0E-06
     mixing beta               =       0.7000
     number of iterations used =            8  plain     mixing
     Exchange-correlation=  SLA  PW   PBX  PBC
                           (   1   4   3   4   0   0   0)

     celldm(1)=  11.433136  celldm(2)=   0.000000  celldm(3)=   0.000000
     celldm(4)=   0.000000  celldm(5)=   0.000000  celldm(6)=   0.000000

     crystal axes: (cart. coord. in units of alat)
               a(1) = (   1.000000   0.000000   0.000000 )
               a(2) = (  -0.504326   0.863513   0.000000 )
               a(3) = (   0.000000   0.000000   1.192050 )

     reciprocal axes: (cart. coord. in units 2 pi/alat)
               b(1) = (  1.000000  0.584039  0.000000 )
               b(2) = (  0.000000  1.158060  0.000000 )
               b(3) = (  0.000000  0.000000  0.838891 )

     PseudoPot. # 1 for Li read from file:
     /home/pragov/projects/rrg-bengioy-ad/pragov/crystal_structure_design/SSSP/li_pbe_v1.4.uspp.F.UPF
     MD5 check sum: e912e257baa3777c20ea3d68f190483c
     Pseudo is Ultrasoft, Zval =  3.0
     Generated by new atomic code, or converted to UPF format
     Using radial grid of  751 points,  5 beta functions with:
                l(1) =   0
                l(2) =   0
                l(3) =   0
                l(4) =   1
                l(5) =   1
     Q(r) pseudized with 10 coefficients,  rinner =    1.150   1.150   1.150

     PseudoPot. # 2 for P  read from file:
     /home/pragov/projects/rrg-bengioy-ad/pragov/crystal_structure_design/SSSP/P.pbe-n-rrkjus_psl.1.0.0.UPF
     MD5 check sum: 8b930f418f0a4573dca56cd030ffe088
     Pseudo is Ultrasoft + core correction, Zval =  5.0
     Generated using "atomic" code by A. Dal Corso  v.5.1
     Using radial grid of 1147 points,  6 beta functions with:
                l(1) =   0
                l(2) =   0
                l(3) =   1
                l(4) =   1
                l(5) =   2
                l(6) =   2
     Q(r) pseudized with 0 coefficients

     PseudoPot. # 3 for S  read from file:
     /home/pragov/projects/rrg-bengioy-ad/pragov/crystal_structure_design/SSSP/s_pbe_v1.4.uspp.F.UPF
     MD5 check sum: 88d86576ff6df21479756cfb9bdac1df
     Pseudo is Ultrasoft + core correction, Zval =  6.0
     Generated by new atomic code, or converted to UPF format
     Using radial grid of  907 points,  6 beta functions with:
                l(1) =   0
                l(2) =   0
                l(3) =   1
                l(4) =   1
                l(5) =   2
                l(6) =   2
     Q(r) pseudized with  8 coefficients,  rinner =    1.300   1.300   1.300
                                                       1.300   1.300

     PseudoPot. # 4 for Cl read from file:
     /home/pragov/projects/rrg-bengioy-ad/pragov/crystal_structure_design/SSSP/cl_pbe_v1.4.uspp.F.UPF
     MD5 check sum: fc6f6913ecf08c9257cb748ef0700058
     Pseudo is Ultrasoft + core correction, Zval =  7.0
     Generated by new atomic code, or converted to UPF format
     Using radial grid of  909 points,  6 beta functions with:
                l(1) =   0
                l(2) =   0
                l(3) =   1
                l(4) =   1
                l(5) =   2
                l(6) =   2
     Q(r) pseudized with  8 coefficients,  rinner =    1.300   1.300   1.300
                                                       1.300   1.300

     atomic species   valence    mass     pseudopotential
        Li             3.00     6.94000     Li( 1.00)
        P              5.00    30.97376     P ( 1.00)
        S              6.00    32.06000     S ( 1.00)
        Cl             7.00    35.45000     Cl( 1.00)

      2 Sym. Ops. (no inversion) found

                                    s                        frac. trans.

      isym =  1     identity

 cryst.   s( 1) = (     1          0          0      )
                  (     0          1          0      )
                  (     0          0          1      )

 cart.    s( 1) = (  1.0000000  0.0000000  0.0000000 )
                  (  0.0000000  1.0000000  0.0000000 )
                  (  0.0000000  0.0000000  1.0000000 )

      isym =  2     inv. 180 deg rotation - cart. axis [0,0,1]

 cryst.   s( 2) = (     1          0          0      )
                  (     0          1          0      )
                  (     0          0         -1      )

 cart.    s( 2) = (  1.0000000  0.0000000  0.0000000 )
                  (  0.0000000  1.0000000  0.0000000 )
                  (  0.0000000  0.0000000 -1.0000000 )

   Cartesian axes

     site n.     atom                  positions (alat units)
         1           Li  tau(   1) = (   0.7648844   0.2610159   0.2923551  )
         2           Li  tau(   2) = (  -0.1603603   0.7921250   0.8996953  )
         3           Li  tau(   3) = (   0.7648844   0.2610159   0.8996953  )
         4           Li  tau(   4) = (  -0.1603603   0.7921250   0.2923551  )
         5           Li  tau(   5) = (   0.3097928   0.5396898   0.5960252  )
         6           P   tau(   6) = (   0.2781654   0.4845916   0.0000000  )
         7           S   tau(   7) = (   0.1374249   0.7960782   0.0000000  )
         8           S   tau(   8) = (   0.6181172   0.5201511   0.0000000  )
         9           S   tau(   9) = (   0.1798816   0.3133716   0.2783974  )
        10           S   tau(  10) = (   0.1798816   0.3133716   0.9136530  )
        11           Cl  tau(  11) = (  -0.3082923   0.5893168   0.5960252  )
        12           Cl  tau(  12) = (   0.6643627   0.0309932   0.5960252  )

   Crystallographic axes

     site n.     atom                  positions (cryst. coord.)
         1           Li  tau(   1) = (  0.9173280  0.3022720  0.2452540  )
         2           Li  tau(   2) = (  0.3022720  0.9173280  0.7547460  )
         3           Li  tau(   3) = (  0.9173280  0.3022720  0.7547460  )
         4           Li  tau(   4) = (  0.3022720  0.9173280  0.2452540  )
         5           Li  tau(   5) = (  0.6249930  0.6249930  0.5000000  )
         6           P   tau(   6) = (  0.5611860  0.5611860  0.0000000  )
         7           S   tau(   7) = (  0.6023660  0.9219060  0.0000000  )
         8           S   tau(   8) = (  0.9219060  0.6023660  0.0000000  )
         9           S   tau(   9) = (  0.3629030  0.3629030  0.2335450  )
        10           S   tau(  10) = (  0.3629030  0.3629030  0.7664550  )
        11           Cl  tau(  11) = (  0.0358920  0.6824640  0.5000000  )
        12           Cl  tau(  12) = (  0.6824640  0.0358920  0.5000000  )

     number of k points=     1  Methfessel-Paxton smearing, width (Ry)=  0.0010
                       cart. coord. in units 2pi/alat
        k(    1) = (   0.0000000   0.0000000   0.0000000), wk =   2.0000000

                       cryst. coord.
        k(    1) = (   0.0000000   0.0000000   0.0000000), wk =   2.0000000

     Initial potential from superposition of free atoms

     starting charge      55.7460, renormalised to      58.0000

     negative rho (up, down):  3.070E-02 0.000E+00
     Starting wfcs are   53 randomized atomic wfcs

     Self-consistent Calculation

     iteration #  1     ecut=    30.00 Ry     beta= 0.70
     Davidson diagonalization with overlap

     ethr =  1.00E-02,  avg # of iterations =  4.0

     negative rho (up, down):  2.980E-02 0.000E+00

     total energy              =    -250.05426171 Ry
     estimated scf accuracy    <       0.67780812 Ry

[...]

     total energy              =    -250.43097164 Ry
     estimated scf accuracy    <       0.00000155 Ry

     iteration #  9     ecut=    30.00 Ry     beta= 0.70
     Davidson diagonalization with overlap

     ethr =  2.67E-09,  avg # of iterations =  5.0

[...]

     End of self-consistent calculation

          k = 0.0000 0.0000 0.0000 (  2126 PWs)   bands (ev):

   -42.0115 -42.0107 -42.0089 -42.0073 -41.6114 -12.0474 -11.5066 -11.0970
    -9.0205  -8.9564  -8.8712  -5.0827  -2.0569  -2.0402  -1.4994  -0.6535
    -0.5431  -0.1295  -0.0756   0.4607   0.5325   1.1535   1.2808   1.3982
     1.7617   2.0298   2.0328   2.1642   2.3245   6.0387   6.6278   7.0929
     7.1923   7.9700   9.0332

     occupation numbers
     1.0000   1.0000   1.0000   1.0000   1.0000   1.0000   1.0000   1.0000
     1.0000   1.0000   1.0000   1.0000   1.0000   1.0000   1.0000   1.0000
     1.0000   1.0000   1.0000   1.0000   1.0000   1.0000   1.0000   1.0000
     1.0000   1.0000   1.0000   1.0000   1.0000  -0.0000  -0.0000  -0.0000
    -0.0000  -0.0000  -0.0000

     the Fermi energy is     2.7547 ev

!    total energy              =    -250.43097268 Ry
     estimated scf accuracy    <       0.00000068 Ry
     smearing contrib. (-TS)   =       0.00000000 Ry
     internal energy E=F+TS    =    -250.43097268 Ry

     The total energy is F=E-TS. E is the sum of the following terms:
     one-electron contribution =     -60.09401157 Ry
     hartree contribution      =      43.99600454 Ry
     xc contribution           =     -74.49696227 Ry
     ewald contribution        =    -159.83600338 Ry

     convergence has been achieved in   9 iterations

     negative rho (up, down):  2.886E-02 0.000E+00

     Forces acting on atoms (cartesian axes, Ry/au):

     atom    1 type  1   force =    -0.00277444   -0.00024116    0.00188931
     atom    2 type  1   force =     0.00118119   -0.00255795   -0.00186838
     atom    3 type  1   force =    -0.00277444   -0.00024116   -0.00188931
     atom    4 type  1   force =     0.00118119   -0.00255795    0.00186838
     atom    5 type  1   force =    -0.00530384   -0.00923817    0.00000000
     atom    6 type  2   force =    -0.00204971   -0.00356749    0.00000000
     atom    7 type  3   force =     0.00207644   -0.00673740    0.00000000
     atom    8 type  3   force =    -0.00689216   -0.00160551    0.00000000
     atom    9 type  3   force =     0.00297097    0.00517033    0.00282270
     atom   10 type  3   force =     0.00297097    0.00517033   -0.00282270
     atom   11 type  4   force =     0.00228727    0.00960672    0.00000000
     atom   12 type  4   force =     0.00712656    0.00679940    0.00000000
     The non-local contrib.  to forces
     atom    1 type  1   force =    -0.02263381   -0.00397075    0.00541434
     atom    2 type  1   force =     0.00796949   -0.02157107   -0.00538226
     atom    3 type  1   force =    -0.02263381   -0.00397075   -0.00541434
     atom    4 type  1   force =     0.00796949   -0.02157107    0.00538226
     atom    5 type  1   force =    -0.01636204   -0.02850429    0.00000000
     atom    6 type  2   force =    -0.00472126   -0.00822428    0.00000000
     atom    7 type  3   force =     0.12560565   -0.20734149    0.00000000
     atom    8 type  3   force =    -0.24234959    0.00387479    0.00000000
     atom    9 type  3   force =     0.04946843    0.08616495   -0.20641452
     atom   10 type  3   force =     0.04946843    0.08616495    0.20641452
     atom   11 type  4   force =     0.01096679    0.00411161    0.00000000
     atom   12 type  4   force =    -0.00202812    0.01158477    0.00000000
     The ionic contribution  to forces
     atom    1 type  1   force =     0.37426054   -0.20112597   -0.24160829
     atom    2 type  1   force =    -0.36242425    0.22174595    0.24160829
     atom    3 type  1   force =     0.37426054   -0.20112597    0.24160829
     atom    4 type  1   force =    -0.36242425    0.22174595   -0.24160829
     atom    5 type  1   force =    -0.17607165   -0.30673426   -0.00000000
     atom    6 type  2   force =     0.04153561    0.07235915   -0.00000000
     atom    7 type  3   force =    -0.19069103    2.44887316   -0.00000000
     atom    8 type  3   force =     2.21080520    1.07036590   -0.00000000
     atom    9 type  3   force =    -1.09066092   -1.90003940    2.24701245
     atom   10 type  3   force =    -1.09066092   -1.90003940   -2.24701244
     atom   11 type  4   force =    -0.13549223    0.39284989   -0.00000000
     atom   12 type  4   force =     0.40756338    0.08112501   -0.00000000
     The local contribution  to forces
     atom    1 type  1   force =    -0.35440013    0.20486927    0.23822974
     atom    2 type  1   force =     0.35563896   -0.20269932   -0.23821025
     atom    3 type  1   force =    -0.35440639    0.20485855   -0.23822574
     atom    4 type  1   force =     0.35563786   -0.20271785    0.23822438
     atom    5 type  1   force =     0.18701930    0.32581430    0.00000848
     atom    6 type  2   force =    -0.03906167   -0.06806185    0.00004438
     atom    7 type  3   force =     0.07347297   -2.25791611    0.00003059
     atom    8 type  3   force =    -1.98691516   -1.07525266   -0.00000590
     atom    9 type  3   force =     1.04632072    1.82271630   -2.04718039
     atom   10 type  3   force =     1.04623083    1.82267982    2.04697524
     atom   11 type  4   force =     0.12792296   -0.38763198   -0.00009110
     atom   12 type  4   force =    -0.39918110   -0.08510946   -0.00001236
     The core correction contribution to forces
     atom    1 type  1   force =     0.00000000    0.00000000    0.00000000
     atom    2 type  1   force =     0.00000000    0.00000000    0.00000000
     atom    3 type  1   force =     0.00000000    0.00000000    0.00000000
     atom    4 type  1   force =     0.00000000    0.00000000    0.00000000
     atom    5 type  1   force =     0.00000000    0.00000000    0.00000000
     atom    6 type  2   force =     0.00024228    0.00042240    0.00000174
     atom    7 type  3   force =    -0.00662373    0.01033598    0.00000080
     atom    8 type  3   force =     0.01226291   -0.00050550   -0.00000037
     atom    9 type  3   force =    -0.00231915   -0.00404158    0.01042101
     atom   10 type  3   force =    -0.00232206   -0.00404122   -0.01042726
     atom   11 type  4   force =    -0.00051496    0.00011354   -0.00000159
     atom   12 type  4   force =     0.00036051   -0.00038986   -0.00000126
     The Hubbard contrib.    to forces
     atom    1 type  1   force =     0.00000000    0.00000000    0.00000000
     atom    2 type  1   force =     0.00000000    0.00000000    0.00000000
     atom    3 type  1   force =     0.00000000    0.00000000    0.00000000
     atom    4 type  1   force =     0.00000000    0.00000000    0.00000000
     atom    5 type  1   force =     0.00000000    0.00000000    0.00000000
     atom    6 type  2   force =     0.00000000    0.00000000    0.00000000
     atom    7 type  3   force =     0.00000000    0.00000000    0.00000000
     atom    8 type  3   force =     0.00000000    0.00000000    0.00000000
     atom    9 type  3   force =     0.00000000    0.00000000    0.00000000
     atom   10 type  3   force =     0.00000000    0.00000000    0.00000000
     atom   11 type  4   force =     0.00000000    0.00000000    0.00000000
     atom   12 type  4   force =     0.00000000    0.00000000    0.00000000
     The SCF correction term to forces
     atom    1 type  1   force =    -0.00000166   -0.00001209   -0.00014118
     atom    2 type  1   force =    -0.00000122   -0.00003464    0.00011812
     atom    3 type  1   force =     0.00000489   -0.00000178    0.00014777
     atom    4 type  1   force =    -0.00000467   -0.00001105   -0.00012770
     atom    5 type  1   force =     0.00011007    0.00018749   -0.00000305
     atom    6 type  2   force =    -0.00004515   -0.00006150   -0.00000926
     atom    7 type  3   force =     0.00031211   -0.00068753   -0.00002090
     atom    8 type  3   force =    -0.00069600   -0.00008663   -0.00000557
     atom    9 type  3   force =     0.00018649    0.00037745   -0.00107762
     atom   10 type  3   force =     0.00022912    0.00040161    0.00116546
     atom   11 type  4   force =    -0.00059577    0.00016507    0.00006319
     atom   12 type  4   force =     0.00041141   -0.00040966   -0.00000283

     Total force =     0.023607     Total SCF correction =     0.002196

     Computing stress (Cartesian axis) and pressure

     negative rho (up, down):  2.886E-02 0.000E+00
          total   stress  (Ry/bohr**3)                   (kbar)     P=      -10.81
  -0.00025415   0.00006083   0.00000000          -37.39        8.95        0.00
   0.00006083  -0.00018312   0.00000000            8.95      -26.94        0.00
   0.00000000   0.00000000   0.00021673            0.00        0.00       31.88

     kinetic stress (kbar)   4781.34      2.25      0.00
                                2.25   4783.96      0.00
                                0.00      0.00   4858.05

     local   stress (kbar)  -1687.31   -204.23     -0.00
                             -204.23  -1925.87      0.00
                               -0.00      0.00  -2570.41

     nonloc. stress (kbar)   2679.37      0.59      0.00
                                0.59   2680.06      0.00
                                0.00      0.00   2698.27

     hartree stress (kbar)   1272.18     64.64     -0.00
                               64.64   1347.70     -0.00
                               -0.00     -0.00   1587.20

     exc-cor stress (kbar)    554.87      0.48      0.00
                                0.48    555.43     -0.00
                                0.00     -0.00    554.98

     corecor stress (kbar)  -2305.39     -0.08     -0.00
                               -0.08  -2305.48      0.00
                               -0.00      0.00  -2307.20

     ewald   stress (kbar)  -5332.45    145.29     -0.00
                              145.29  -5162.73     -0.00
                               -0.00     -0.00  -4789.01

     hubbard stress (kbar)      0.00      0.00      0.00
                                0.00      0.00      0.00
                                0.00      0.00      0.00

     DFT-D   stress (kbar)      0.00      0.00      0.00
                                0.00      0.00      0.00
                                0.00      0.00      0.00

     XDM     stress (kbar)      0.00      0.00      0.00
                                0.00      0.00      0.00
                                0.00      0.00      0.00

     dft-nl  stress (kbar)      0.00      0.00      0.00
                                0.00      0.00      0.00
                                0.00      0.00      0.00

     TS-vdW  stress (kbar)      0.00      0.00      0.00
                                0.00      0.00      0.00
                                0.00      0.00      0.00

[...]

                                0.00      0.00      0.00

     Writing all to output data dir new_calculations/myprefix.save/

     General routines

     Parallel routines

   This run was terminated on:  15:21:55  20May2023

   JOB DONE.