     Program PWSCF v.7.0 starts on 20May2023 at 20:22: 5

     Reading input from espresso_2705.pwi
Warning: card &CELL ignored
Warning: card / ignored

     Current dimensions of program PWSCF are:
     Max number of different atomic species (ntypx) = 10
     Max number of k-points (npk) =  40000
     Max angular momentum in pseudopotentials (lmaxx) =  4
     file Ba.pbe-spn-kjpaw_psl.1.0.0.UPF: wavefunction(s)  5S 6S renormalized
     file O.pbe-n-kjpaw_psl.0.1.UPF: wavefunction(s)  2P renormalized

     gamma-point specific algorithms are used
     Message from routine setup:
     using ibrav=0 with symmetry is DISCOURAGED, use correct ibrav instead

     Subspace diagonalization in iterative solution of the eigenvalue problem:
     a serial algorithm will be used

     Using Slab Decomposition

     bravais-lattice index     =            0
     lattice parameter (alat)  =      11.8518  a.u.
     unit-cell volume          =    1191.9781 (a.u.)^3
     number of atoms/cell      =           10
     number of atomic types    =            4
     number of electrons       =        82.00
     number of Kohn-Sham states=           49
     kinetic-energy cutoff     =      30.0000  Ry
     charge density cutoff     =     240.0000  Ry
     scf convergence threshold =      1.0E-06
     mixing beta               =       0.7000
     number of iterations used =            8  plain     mixing
     Exchange-correlation= SLA  PW   PBX  PBC
                           (   1   4   3   4   0   0   0)

     celldm(1)=  11.851786  celldm(2)=   0.000000  celldm(3)=   0.000000
     celldm(4)=   0.000000  celldm(5)=   0.000000  celldm(6)=   0.000000

     crystal axes: (cart. coord. in units of alat)
               a(1) = (   1.000000   0.000000   0.000000 )
               a(2) = (   0.497175   0.867650   0.000000 )
               a(3) = (   0.500980   0.290330   0.825225 )

     reciprocal axes: (cart. coord. in units 2 pi/alat)
               b(1) = (  1.000000 -0.573013 -0.405486 )
               b(2) = (  0.000000  1.152538 -0.405486 )
               b(3) = (  0.000000  0.000000  1.211791 )

     PseudoPot. # 1 for Ba read from file:
     /home/pragov/projects/rrg-bengioy-ad/pragov/crystal_structure_design/SSSP/Ba.pbe-spn-kjpaw_psl.1.0.0.UPF
     MD5 check sum: c432291d3e53af55f19d5e8866385beb
     Pseudo is Projector augmented-wave + core cor, Zval = 10.0
     Generated using "atomic" code by A. Dal Corso  v.5.1
     Shape of augmentation charge: PSQ
     Using radial grid of 1251 points,  7 beta functions with:
                l(1) =   0
                l(2) =   0
                l(3) =   0
                l(4) =   1
                l(5) =   1
                l(6) =   2
                l(7) =   2
     Q(r) pseudized with 0 coefficients

     PseudoPot. # 2 for La read from file:
     /home/pragov/projects/rrg-bengioy-ad/pragov/crystal_structure_design/SSSP/La.GGA-PBE-paw-v1.0.UPF
     MD5 check sum: 436541e95c1ad8901025bd0b0ed42ae2
     Pseudo is Projector augmented-wave + core cor, Zval = 11.0
     Generated using ATOMPAW code
     Shape of augmentation charge: BESSEL
     Using radial grid of 1101 points,  8 beta functions with:
                l(1) =   0
                l(2) =   0
                l(3) =   1
                l(4) =   1
                l(5) =   2
                l(6) =   2
                l(7) =   3
                l(8) =   3
     Q(r) pseudized with 0 coefficients

     PseudoPot. # 3 for Bi read from file:
     /home/pragov/projects/rrg-bengioy-ad/pragov/crystal_structure_design/SSSP/Bi_pbe_v1.uspp.F.UPF
     MD5 check sum: cceb9f28ec65b6d7ff33140f5b0b1758
     Pseudo is Ultrasoft + core correction, Zval = 15.0
     Generated by new atomic code, or converted to UPF format
     Using radial grid of  899 points,  6 beta functions with:
                l(1) =   0
                l(2) =   0
                l(3) =   1
                l(4) =   1
                l(5) =   2
                l(6) =   2
     Q(r) pseudized with  6 coefficients,  rinner =    1.000   1.000   1.000
                                                       1.000   1.000

     PseudoPot. # 4 for O  read from file:
     /home/pragov/projects/rrg-bengioy-ad/pragov/crystal_structure_design/SSSP/O.pbe-n-kjpaw_psl.0.1.UPF
     MD5 check sum: 0234752ac141de4415c5fc33072bef88
     Pseudo is Projector augmented-wave + core cor, Zval =  6.0
     Generated using "atomic" code by A. Dal Corso  v.5.0.99 svn rev. 10869
     Shape of augmentation charge: BESSEL
     Using radial grid of 1095 points,  4 beta functions with:
                l(1) =   0
                l(2) =   0
                l(3) =   1
                l(4) =   1
     Q(r) pseudized with 0 coefficients

     atomic species   valence    mass     pseudopotential
        Ba            10.00   137.32700     Ba( 1.00)
        La            11.00   138.90547     La( 1.00)
        Bi            15.00   208.98040     Bi( 1.00)
        O              6.00    15.99900     O ( 1.00)

      2 Sym. Ops., with inversion, found

                                    s                        frac. trans.

      isym =  1     identity

 cryst.   s( 1) = (     1          0          0      )
                  (     0          1          0      )
                  (     0          0          1      )

 cart.    s( 1) = (  1.0000000 -0.0000000 -0.0000000 )
                  (  0.0000000  1.0000000 -0.0000000 )
                  (  0.0000000  0.0000000  1.0000000 )

      isym =  2     inversion

 cryst.   s( 2) = (    -1          0          0      )
                  (     0         -1          0      )
                  (     0          0         -1      )

 cart.    s( 2) = ( -1.0000000  0.0000000  0.0000000 )
                  (  0.0000000 -1.0000000  0.0000000 )
                  (  0.0000000  0.0000000 -1.0000000 )

   Cartesian axes

     site n.     atom                  positions (alat units)
         1           Ba  tau(   1) = (   1.2456504   0.7218856   0.1988519  )
         2           Ba  tau(   2) = (   0.7525043   0.4360951   0.6263727  )
         3           La  tau(   3) = (   0.2504899   0.1451652   0.4126123  )
         4           Bi  tau(   4) = (   0.7485875   0.4338252   0.0000000  )
         5           O   tau(   5) = (   1.2113955   0.4250297   0.6626570  )
         6           O   tau(   6) = (   1.0271021   0.3182271   0.1625676  )
         7           O   tau(   7) = (   0.7867593   0.7329509   0.1625676  )
         8           O   tau(   8) = (   0.9710527   0.8397536   0.6626570  )
         9           O   tau(   9) = (   0.5487826   0.3180332   0.2544564  )
        10           O   tau(  10) = (   1.4493722   0.8399474   0.5707682  )

   Crystallographic axes

     site n.     atom                  positions (cryst. coord.)
         1           Ba  tau(   1) = (  0.7513690  0.7513690  0.2409670  )
         2           Ba  tau(   2) = (  0.2486310  0.2486310  0.7590330  )
         3           La  tau(   3) = (  0.0000000  0.0000000  0.5000000  )
         4           Bi  tau(   4) = (  0.5000000  0.5000000  0.0000000  )
         5           O   tau(   5) = (  0.6991500  0.2211650  0.8030020  )
         6           O   tau(   6) = (  0.7788350  0.3008500  0.1969980  )
         7           O   tau(   7) = (  0.3008500  0.7788350  0.1969980  )
         8           O   tau(   8) = (  0.2211650  0.6991500  0.8030020  )
         9           O   tau(   9) = (  0.2633670  0.2633670  0.3083480  )
        10           O   tau(  10) = (  0.7366330  0.7366330  0.6916520  )

     number of k points=     1  Methfessel-Paxton smearing, width (Ry)=  0.0010
                       cart. coord. in units 2pi/alat
        k(    1) = (   0.0000000   0.0000000   0.0000000), wk =   2.0000000

                       cryst. coord.
        k(    1) = (   0.0000000   0.0000000   0.0000000), wk =   2.0000000

     Check: negative core charge=   -0.000009

     Initial potential from superposition of free atoms

     starting charge      80.9574, renormalised to      82.0000

     negative rho (up, down):  3.989E-02 0.000E+00
     Starting wfcs are   75 randomized atomic wfcs
     Checking if some PAW data can be deallocated...

     Self-consistent Calculation

     iteration #  1     ecut=    30.00 Ry     beta= 0.70
     Davidson diagonalization with overlap

     ethr =  1.00E-02,  avg # of iterations =  2.0

     negative rho (up, down):  5.797E-02 0.000E+00

     total energy              =   -1764.71375789 Ry
     estimated scf accuracy    <       2.59764191 Ry

[...]

     c_bands:  1 eigenvalues not converged
     ethr =  2.43E-04,  avg # of iterations = 20.0

[...]

     total energy              =   -1766.06140394 Ry
     estimated scf accuracy    <       0.00000125 Ry

     iteration # 22     ecut=    30.00 Ry     beta= 0.70
     Davidson diagonalization with overlap

     ethr =  1.53E-09,  avg # of iterations =  3.0

[...]

     End of self-consistent calculation

          k = 0.0000 0.0000 0.0000 (  1656 PWs)   bands (ev):

   -20.7589 -17.3403 -17.2860 -12.9931 -12.9916 -12.6556 -12.6475 -12.6400
    -8.2211  -7.9454  -7.8654  -7.8555  -6.6791  -6.6264  -4.1089  -4.0830
    -4.0557  -2.7732  -2.6179  -2.5184  -2.3903  -2.3686  -2.3308   0.4615
     6.0540   6.0705   6.1580   6.8696   6.9400   7.0021   7.1065   7.1366
     7.8548   7.9450   8.0498   8.1379   8.1715   8.1956   8.3797   8.4227
     8.5435  10.7964  13.0080  13.6362  13.6554  13.7131  13.7588  13.7998
    14.0159

     occupation numbers
     1.0000   1.0000   1.0000   1.0000   1.0000   1.0000   1.0000   1.0000
     1.0000   1.0000   1.0000   1.0000   1.0000   1.0000   1.0000   1.0000
     1.0000   1.0000   1.0000   1.0000   1.0000   1.0000   1.0000   1.0000
     1.0000   1.0000   1.0000   1.0000   1.0000   1.0000   1.0000   1.0000
     1.0000   1.0000   1.0000   1.0000   1.0000   1.0000   1.0000   1.0000
     1.0000  -0.0000  -0.0000  -0.0000  -0.0000  -0.0000  -0.0000  -0.0000
    -0.0000

     the Fermi energy is     9.7711 ev

!    total energy              =   -1766.06140389 Ry
     estimated scf accuracy    <       0.00000033 Ry
     smearing contrib. (-TS)   =       0.00000000 Ry
     internal energy E=F+TS    =   -1766.06140389 Ry

     The total energy is F=E-TS. E is the sum of the following terms:
     one-electron contribution =    -128.51863411 Ry
     hartree contribution      =     121.12274265 Ry
     xc contribution           =    -159.22773888 Ry
     ewald contribution        =    -394.24845155 Ry
     one-center paw contrib.   =   -1205.18932200 Ry
      -> PAW hartree energy AE =     269.30218330 Ry
      -> PAW hartree energy PS =    -268.48803490 Ry
      -> PAW xc energy AE      =   -1296.72470383 Ry
      -> PAW xc energy PS      =      90.72123343 Ry
      -> total E_H with PAW    =     121.93689104 Ry
      -> total E_XC with PAW   =   -1365.23120928 Ry

     convergence has been achieved in  22 iterations

     negative rho (up, down):  4.152E-02 0.000E+00

     Forces acting on atoms (cartesian axes, Ry/au):

     atom    1 type  1   force =    -0.00517939   -0.00300140   -0.00566067
     atom    2 type  1   force =     0.00517939    0.00300140    0.00566067
     atom    3 type  2   force =     0.00000000    0.00000000    0.00000000
     atom    4 type  3   force =     0.00000000    0.00000000    0.00000000
     atom    5 type  4   force =    -0.02423048   -0.01471571    0.01595646
     atom    6 type  4   force =     0.02481325    0.01370592   -0.01595482
     atom    7 type  4   force =     0.02423048    0.01471571   -0.01595646
     atom    8 type  4   force =    -0.02481325   -0.01370592    0.01595482
     atom    9 type  4   force =     0.02043026    0.01183893    0.04184693
     atom   10 type  4   force =    -0.02043026   -0.01183893   -0.04184693
     The non-local contrib.  to forces
     atom    1 type  1   force =     0.00527502    0.00307387    0.00706075
     atom    2 type  1   force =    -0.00527502   -0.00307387   -0.00706075
     atom    3 type  2   force =     0.00000000    0.00000000    0.00000000
     atom    4 type  3   force =     0.00000000    0.00000000    0.00000000
     atom    5 type  4   force =     0.06638433    0.47065378    0.29602799
     atom    6 type  4   force =    -0.44133637    0.17638136   -0.29601819
     atom    7 type  4   force =    -0.06638433   -0.47065378   -0.29602799
     atom    8 type  4   force =     0.44133637   -0.17638136    0.29601819
     atom    9 type  4   force =     0.34375056    0.19921365   -0.40501853
     atom   10 type  4   force =    -0.34375056   -0.19921365    0.40501853
     The ionic contribution  to forces
     atom    1 type  1   force =     0.30971023    0.17948483    0.82856062
     atom    2 type  1   force =    -0.30971023   -0.17948483   -0.82856062
     atom    3 type  2   force =     0.00000000    0.00000000    0.00000000
     atom    4 type  3   force =     0.00000000    0.00000000   -0.00000000
     atom    5 type  4   force =    -0.61455419   -4.16804456   -2.27017826
     atom    6 type  4   force =     3.92194617   -1.53902910    2.27017826
     atom    7 type  4   force =     0.61455419    4.16804456    2.27017826
     atom    8 type  4   force =    -3.92194617    1.53902910   -2.27017826
     atom    9 type  4   force =    -2.31615232   -1.34226822    4.21595289
     atom   10 type  4   force =     2.31615232    1.34226822   -4.21595289
     The local contribution  to forces
     atom    1 type  1   force =    -0.31978665   -0.18477748   -0.84091568
     atom    2 type  1   force =     0.32004008    0.18601993    0.84115586
     atom    3 type  2   force =    -0.00000997   -0.00005661    0.00000804
     atom    4 type  3   force =    -0.00000359    0.00004282   -0.00002729
     atom    5 type  4   force =     0.52467508    3.68828466    1.99375399
     atom    6 type  4   force =    -3.46105283    1.37848608   -1.99375622
     atom    7 type  4   force =    -0.52470123   -3.68828209   -1.99374166
     atom    8 type  4   force =     3.46104068   -1.37849051    1.99374098
     atom    9 type  4   force =     1.99703426    1.15732204   -3.77388315
     atom   10 type  4   force =    -1.99706418   -1.15733860    3.77390123
     The core correction contribution to forces
     atom    1 type  1   force =    -0.00025261   -0.00013459   -0.00024957
     atom    2 type  1   force =     0.00025723    0.00015780    0.00025434
     atom    3 type  2   force =    -0.00000000   -0.00000001   -0.00000000
     atom    4 type  3   force =    -0.00000036   -0.00000213    0.00000088
     atom    5 type  4   force =    -0.00075116   -0.00565598   -0.00366733
     atom    6 type  4   force =     0.00528013   -0.00216008    0.00366723
     atom    7 type  4   force =     0.00075099    0.00565593    0.00366755
     atom    8 type  4   force =    -0.00528047    0.00216000   -0.00366739
     atom    9 type  4   force =    -0.00424966   -0.00246289    0.00483915
     atom   10 type  4   force =     0.00424929    0.00246256   -0.00483906
     The Hubbard contrib.    to forces
     atom    1 type  1   force =     0.00000000    0.00000000    0.00000000
     atom    2 type  1   force =     0.00000000    0.00000000    0.00000000
     atom    3 type  2   force =     0.00000000    0.00000000    0.00000000
     atom    4 type  3   force =     0.00000000    0.00000000    0.00000000
     atom    5 type  4   force =     0.00000000    0.00000000    0.00000000
     atom    6 type  4   force =     0.00000000    0.00000000    0.00000000
     atom    7 type  4   force =     0.00000000    0.00000000    0.00000000
     atom    8 type  4   force =     0.00000000    0.00000000    0.00000000
     atom    9 type  4   force =     0.00000000    0.00000000    0.00000000
     atom   10 type  4   force =     0.00000000    0.00000000    0.00000000
     The SCF correction term to forces
     atom    1 type  1   force =    -0.00001675   -0.00009385   -0.00001818
     atom    2 type  1   force =    -0.00002402   -0.00006345   -0.00002956
     atom    3 type  2   force =     0.00001492    0.00005604   -0.00000551
     atom    4 type  3   force =    -0.00001042   -0.00006974    0.00003503
     atom    5 type  4   force =     0.00000954    0.00004386    0.00002395
     atom    6 type  4   force =    -0.00003237    0.00002448   -0.00003032
     atom    7 type  4   force =     0.00000492   -0.00005143   -0.00002876
     atom    8 type  4   force =     0.00002782   -0.00002632    0.00003686
     atom    9 type  4   force =     0.00003323    0.00002528   -0.00003804
     atom   10 type  4   force =    -0.00003133   -0.00002652    0.00003065

     Total force =     0.094794     Total SCF correction =     0.000204

     Computing stress (Cartesian axis) and pressure

     negative rho (up, down):  4.152E-02 0.000E+00
          total   stress  (Ry/bohr**3)                   (kbar)     P=     -194.84
  -0.00128824   0.00003785  -0.00003034         -189.51        5.57       -4.46
   0.00003785  -0.00133158  -0.00001754            5.57     -195.88       -2.58
  -0.00003034  -0.00001754  -0.00135375           -4.46       -2.58     -199.14

     kinetic stress (kbar)  14071.38     -8.82     11.32
                               -8.82  14081.48      6.56
                               11.32      6.56  14074.78

     local   stress (kbar)  -6831.97   -378.17   -362.10
                             -378.17  -6398.54   -209.82
                             -362.10   -209.82  -6496.20

     nonloc. stress (kbar)   7757.51      1.94     -4.07
                                1.94   7755.28     -2.36
                               -4.07     -2.36   7749.03

     hartree stress (kbar)   5120.06    160.14     83.21
                              160.14   4936.52     48.21
                               83.21     48.21   4891.49

     exc-cor stress (kbar)   5194.26      0.23      1.26
                                0.23   5193.99      0.73
                                1.26      0.73   5195.69

     corecor stress (kbar)  -9408.19      0.04      0.25
                                0.04  -9408.23      0.15
                                0.25      0.15  -9407.66

     ewald   stress (kbar) -16092.55    230.21    265.67
                              230.21 -16356.38    153.96
                              265.67    153.96 -16206.28

     hubbard stress (kbar)      0.00      0.00      0.00
                                0.00      0.00      0.00
                                0.00      0.00      0.00

     DFT-D   stress (kbar)      0.00      0.00      0.00
                                0.00      0.00      0.00
                                0.00      0.00      0.00

     XDM     stress (kbar)      0.00      0.00      0.00
                                0.00      0.00      0.00
                                0.00      0.00      0.00

     dft-nl  stress (kbar)      0.00      0.00      0.00
                                0.00      0.00      0.00
                                0.00      0.00      0.00

     TS-vdW  stress (kbar)      0.00      0.00      0.00
                                0.00      0.00      0.00
                                0.00      0.00      0.00

[...]

                                0.00      0.00      0.00

     Writing all to output data dir new_calculations/myprefix.save/

     General routines

     Parallel routines

     PAW routines

   This run was terminated on:  20:23: 5  20May2023

   JOB DONE.