     Program PWSCF v.7.0 starts on 21May2023 at  4:50:51

     Reading input from espresso_1062.pwi
Warning: card &CELL ignored
Warning: card / ignored

     Current dimensions of program PWSCF are:
     Max number of different atomic species (ntypx) = 10
     Max number of k-points (npk) =  40000
     Max angular momentum in pseudopotentials (lmaxx) =  4
     file Ba.pbe-spn-kjpaw_psl.1.0.0.UPF: wavefunction(s)  5S 6S renormalized

     gamma-point specific algorithms are used
     Message from routine setup:
     using ibrav=0 with symmetry is DISCOURAGED, use correct ibrav instead

     Subspace diagonalization in iterative solution of the eigenvalue problem:
     a serial algorithm will be used

     Using Slab Decomposition

     bravais-lattice index     =            0
     lattice parameter (alat)  =      12.0218  a.u.
     unit-cell volume          =    2138.5571 (a.u.)^3
     number of atoms/cell      =           20
     number of atomic types    =            4
     number of electrons       =       124.00
     number of Kohn-Sham states=           74
     kinetic-energy cutoff     =      30.0000  Ry
     charge density cutoff     =     240.0000  Ry
     scf convergence threshold =      1.0E-06
     mixing beta               =       0.7000
     number of iterations used =            8  plain     mixing
     Exchange-correlation= PBE
                           (   1   4   3   4   0   0   0)

     celldm(1)=  12.021787  celldm(2)=   0.000000  celldm(3)=   0.000000
     celldm(4)=   0.000000  celldm(5)=   0.000000  celldm(6)=   0.000000

     crystal axes: (cart. coord. in units of alat)
               a(1) = (   1.000000   0.000000   0.000000 )
               a(2) = (   0.595957   0.803016   0.000000 )
               a(3) = (   0.754781   0.379773   1.532815 )

     reciprocal axes: (cart. coord. in units 2 pi/alat)
               b(1) = (  1.000000 -0.742149 -0.308539 )
               b(2) = (  0.000000  1.245305 -0.308539 )
               b(3) = (  0.000000  0.000000  0.652395 )

     PseudoPot. # 1 for Ba read from file:
     /home/pragov/projects/rrg-bengioy-ad/pragov/crystal_structure_design/SSSP/Ba.pbe-spn-kjpaw_psl.1.0.0.UPF
     MD5 check sum: c432291d3e53af55f19d5e8866385beb
     Pseudo is Projector augmented-wave + core cor, Zval = 10.0
     Generated using "atomic" code by A. Dal Corso  v.5.1
     Shape of augmentation charge: PSQ
     Using radial grid of 1251 points,  7 beta functions with:
                l(1) =   0
                l(2) =   0
                l(3) =   0
                l(4) =   1
                l(5) =   1
                l(6) =   2
                l(7) =   2
     Q(r) pseudized with 0 coefficients

     PseudoPot. # 2 for Li read from file:
     /home/pragov/projects/rrg-bengioy-ad/pragov/crystal_structure_design/SSSP/li_pbe_v1.4.uspp.F.UPF
     MD5 check sum: e912e257baa3777c20ea3d68f190483c
     Pseudo is Ultrasoft, Zval =  3.0
     Generated by new atomic code, or converted to UPF format
     Using radial grid of  751 points,  5 beta functions with:
                l(1) =   0
                l(2) =   0
                l(3) =   0
                l(4) =   1
                l(5) =   1
     Q(r) pseudized with 10 coefficients,  rinner =    1.150   1.150   1.150

     PseudoPot. # 3 for Ta read from file:
     /home/pragov/projects/rrg-bengioy-ad/pragov/crystal_structure_design/SSSP/Ta_pbe_v1.uspp.F.UPF
     MD5 check sum: f8bbe9446314a3b8ea5d9f3e3836c939
     Pseudo is Ultrasoft + core correction, Zval = 13.0
     Generated by new atomic code, or converted to UPF format
     Using radial grid of  921 points,  7 beta functions with:
                l(1) =   0
                l(2) =   0
                l(3) =   1
                l(4) =   1
                l(5) =   2
                l(6) =   2
                l(7) =   3
     Q(r) pseudized with  6 coefficients,  rinner =    1.300   1.300   1.300
                                                       1.300   1.300   1.300
                                                       1.300

     PseudoPot. # 4 for N  read from file:
     /home/pragov/projects/rrg-bengioy-ad/pragov/crystal_structure_design/SSSP/N.pbe-n-radius_5.UPF
     MD5 check sum: 16739722b17309cd8fe442a2ace49922
     Pseudo is Ultrasoft + core correction, Zval =  5.0
     Generated using "atomic" code by A. Dal Corso  v.5.1
     Using radial grid of 1085 points,  4 beta functions with:
                l(1) =   0
                l(2) =   0
                l(3) =   1
                l(4) =   1
     Q(r) pseudized with 0 coefficients

     atomic species   valence    mass     pseudopotential
        Ba            10.00   137.32700     Ba( 1.00)
        Li             3.00     6.94000     Li( 1.00)
        Ta            13.00   180.94788     Ta( 1.00)
        N              5.00    14.00700     N ( 1.00)

      2 Sym. Ops., with inversion, found

                                    s                        frac. trans.

      isym =  1     identity

 cryst.   s( 1) = (     1          0          0      )
                  (     0          1          0      )
                  (     0          0          1      )

 cart.    s( 1) = (  1.0000000  0.0000000 -0.0000000 )
                  (  0.0000000  1.0000000  0.0000000 )
                  (  0.0000000  0.0000000  1.0000000 )

      isym =  2     inversion

 cryst.   s( 2) = (    -1          0          0      )
                  (     0         -1          0      )
                  (     0          0         -1      )

 cart.    s( 2) = ( -1.0000000 -0.0000000  0.0000000 )
                  (  0.0000000 -1.0000000 -0.0000000 )
                  (  0.0000000  0.0000000 -1.0000000 )

   Cartesian axes

     site n.     atom                  positions (alat units)
         1           Ba  tau(   1) = (   0.5243517   0.5473025   0.1712414  )
         2           Ba  tau(   2) = (   1.8263872   0.6354864   1.3615731  )
         3           Ba  tau(   3) = (   1.2213642   0.8980087   0.5951658  )
         4           Ba  tau(   4) = (   1.1293747   0.2847802   0.9376487  )
         5           Li  tau(   5) = (   0.9399514   0.5893104   0.3832036  )
         6           Li  tau(   6) = (   1.4107875   0.5934786   1.1496109  )
         7           Li  tau(   7) = (   0.6322371   0.1103196   0.0649239  )
         8           Li  tau(   8) = (   1.5079733   0.5509517   0.7014834  )
         9           Li  tau(   9) = (   0.8427655   0.6318372   0.8313312  )
        10           Li  tau(  10) = (   1.7185018   1.0724694   1.4678906  )
        11           Ta  tau(  11) = (   1.1331524   0.2053322   0.3832036  )
        12           Ta  tau(  12) = (   1.2175865   0.9774567   1.1496109  )
        13           N   tau(  13) = (   0.6556187   0.3985962   0.9391999  )
        14           N   tau(  14) = (   1.2399145   0.4634082   0.5175441  )
        15           N   tau(  15) = (   1.1108244   0.7193808   1.0152704  )
        16           N   tau(  16) = (   0.8622877   0.2734029   0.2488632  )
        17           N   tau(  17) = (   0.3334093   0.0990394   0.1727926  )
        18           N   tau(  18) = (   1.4884512   0.9093861   1.2839514  )
        19           N   tau(  19) = (   1.6951202   0.7841928   0.5936146  )
        20           N   tau(  20) = (   2.0173296   1.0837496   1.3600219  )

   Crystallographic axes

     site n.     atom                  positions (cryst. coord.)
         1           Ba  tau(   1) = (  0.0653370  0.6287240  0.1117170  )
         2           Ba  tau(   2) = (  0.9346630  0.3712760  0.8882830  )
         3           Ba  tau(   3) = (  0.3712760  0.9346630  0.3882830  )
         4           Ba  tau(   4) = (  0.6287240  0.0653370  0.6117170  )
         5           Li  tau(   5) = (  0.3843620  0.6156380  0.2500000  )
         6           Li  tau(   6) = (  0.6156380  0.3843620  0.7500000  )
         7           Li  tau(   7) = (  0.5303320  0.1173500  0.0423560  )
         8           Li  tau(   8) = (  0.8826500  0.4696680  0.4576440  )
         9           Li  tau(   9) = (  0.1173500  0.5303320  0.5423560  )
        10           Li  tau(  10) = (  0.4696680  0.8826500  0.9576440  )
        11           Ta  tau(  11) = (  0.8625320  0.1374680  0.2500000  )
        12           Ta  tau(  12) = (  0.1374680  0.8625320  0.7500000  )
        13           N   tau(  13) = (  0.0700210  0.2065940  0.6127290  )
        14           N   tau(  14) = (  0.7363140  0.4174020  0.3376430  )
        15           N   tau(  15) = (  0.2636860  0.5825980  0.6623570  )
        16           N   tau(  16) = (  0.5825980  0.2636860  0.1623570  )
        17           N   tau(  17) = (  0.2065940  0.0700210  0.1127290  )
        18           N   tau(  18) = (  0.4174020  0.7363140  0.8376430  )
        19           N   tau(  19) = (  0.9299790  0.7934060  0.3872710  )
        20           N   tau(  20) = (  0.7934060  0.9299790  0.8872710  )

     number of k points=     1  Methfessel-Paxton smearing, width (Ry)=  0.0010
                       cart. coord. in units 2pi/alat
        k(    1) = (   0.0000000   0.0000000   0.0000000), wk =   2.0000000

                       cryst. coord.
        k(    1) = (   0.0000000   0.0000000   0.0000000), wk =   2.0000000

     Check: negative core charge=   -0.000002

     Initial potential from superposition of free atoms

     starting charge     121.2252, renormalised to     124.0000

     negative rho (up, down):  1.940E-01 0.000E+00
     Starting wfcs are  108 randomized atomic wfcs
     Checking if some PAW data can be deallocated...

     Self-consistent Calculation

     iteration #  1     ecut=    30.00 Ry     beta= 0.70
     Davidson diagonalization with overlap

     ethr =  1.00E-02,  avg # of iterations = 12.0

     negative rho (up, down):  2.133E-01 0.000E+00

     total energy              =   -2273.80625120 Ry
     estimated scf accuracy    <       7.36271094 Ry

[...]

     total energy              =   -2277.88098640 Ry
     estimated scf accuracy    <       0.00000104 Ry

     iteration # 24     ecut=    30.00 Ry     beta= 0.70
     Davidson diagonalization with overlap

     ethr =  8.41E-10,  avg # of iterations =  1.0

[...]

     End of self-consistent calculation

          k = 0.0000 0.0000 0.0000 (  2988 PWs)   bands (ev):

   -58.2724 -58.2722 -36.8397 -36.8395 -36.2805 -36.2802 -36.2335 -36.2334
   -24.9978 -24.9976 -24.9602 -24.9601 -24.9396 -24.9389 -18.6879 -18.6265
   -18.6251 -18.5691  -5.1571  -4.8807  -4.5332  -4.5109  -4.4025  -4.3025
    -4.2649  -4.2085  -4.1331  -4.0646  -4.0044  -3.8348  -3.7465  -3.3960
    -3.3003  -3.2334  -3.0840  -3.0746  -2.7843  -2.5708   5.1578   5.3222
     5.3794   5.4157   5.4511   5.8918   5.9132   6.0234   6.1293   6.1843
     6.1880   6.2773   6.5401   6.9113   6.9179   6.9537   6.9560   6.9732
     7.3834   7.4874   7.5726   7.5908   7.7955   7.8369  10.5544  10.5593
    10.5777  10.9029  11.5972  11.6111  11.9475  11.9696  12.2787  12.4576
    12.4865  12.5548

     occupation numbers
     1.0000   1.0000   1.0000   1.0000   1.0000   1.0000   1.0000   1.0000
     1.0000   1.0000   1.0000   1.0000   1.0000   1.0000   1.0000   1.0000
     1.0000   1.0000   1.0000   1.0000   1.0000   1.0000   1.0000   1.0000
     1.0000   1.0000   1.0000   1.0000   1.0000   1.0000   1.0000   1.0000
     1.0000   1.0000   1.0000   1.0000   1.0000   1.0000   1.0000   1.0000
     1.0000   1.0000   1.0000   1.0000   1.0000   1.0000   1.0000   1.0000
     1.0000   1.0000   1.0000   1.0000   1.0000   1.0000   1.0000   1.0000
     1.0000   1.0000   1.0000   1.0000   1.0000   1.0000  -0.0000  -0.0000
    -0.0000  -0.0000  -0.0000  -0.0000  -0.0000  -0.0000  -0.0000  -0.0000
    -0.0000  -0.0000

     the Fermi energy is     8.2472 ev

!    total energy              =   -2277.88098632 Ry
     estimated scf accuracy    <       0.00000035 Ry
     smearing contrib. (-TS)   =       0.00000000 Ry
     internal energy E=F+TS    =   -2277.88098632 Ry

     The total energy is F=E-TS. E is the sum of the following terms:
     one-electron contribution =    -198.55846040 Ry
     hartree contribution      =     149.64489107 Ry
     xc contribution           =    -230.05739626 Ry
     ewald contribution        =    -499.07159970 Ry
     one-center paw contrib.   =   -1499.83842102 Ry
      -> PAW hartree energy AE =     116.06493454 Ry
      -> PAW hartree energy PS =    -115.61851084 Ry
      -> PAW xc energy AE      =   -1577.10096957 Ry
      -> PAW xc energy PS      =      76.81612485 Ry
      -> total E_H with PAW    =     150.09131476 Ry
      -> total E_XC with PAW   =   -1730.34224098 Ry

     convergence has been achieved in  24 iterations

     negative rho (up, down):  1.923E-01 0.000E+00

     Forces acting on atoms (cartesian axes, Ry/au):

     atom    1 type  1   force =    -0.02860884    0.00607971    0.00029251
     atom    2 type  1   force =     0.02860884   -0.00607971   -0.00029251
     atom    3 type  1   force =     0.01216988    0.02661019   -0.00026237
     atom    4 type  1   force =    -0.01216988   -0.02661019    0.00026237
     atom    5 type  2   force =    -0.00230897    0.00458893    0.00000186
     atom    6 type  2   force =     0.00230897   -0.00458893   -0.00000186
     atom    7 type  2   force =    -0.00928230   -0.00599111   -0.00824039
     atom    8 type  2   force =     0.01034279    0.00388322    0.00824305
     atom    9 type  2   force =    -0.01034279   -0.00388322   -0.00824305
     atom   10 type  2   force =     0.00928230    0.00599111    0.00824039
     atom   11 type  3   force =     0.01359344   -0.02702895    0.00003387
     atom   12 type  3   force =    -0.01359344    0.02702895   -0.00003387
     atom   13 type  4   force =     0.00293706    0.01175057    0.01138532
     atom   14 type  4   force =    -0.01143627   -0.00698284   -0.02224273
     atom   15 type  4   force =     0.01143627    0.00698284    0.02224273
     atom   16 type  4   force =     0.01243041    0.00502028    0.02225625
     atom   17 type  4   force =     0.01118352   -0.00464551    0.01139458
     atom   18 type  4   force =    -0.01243041   -0.00502028   -0.02225625
     atom   19 type  4   force =    -0.00293706   -0.01175057   -0.01138532
     atom   20 type  4   force =    -0.01118352    0.00464551   -0.01139458
     The non-local contrib.  to forces
     atom    1 type  1   force =     0.03050959    0.02833508    0.01615062
     atom    2 type  1   force =    -0.03050959   -0.02833508   -0.01615062
     atom    3 type  1   force =    -0.04094887   -0.00770428   -0.01617480
     atom    4 type  1   force =     0.04094887    0.00770428    0.01617480
     atom    5 type  2   force =    -0.01857055    0.03690832    0.00000156
     atom    6 type  2   force =     0.01857055   -0.03690832   -0.00000156
     atom    7 type  2   force =     0.04832914    0.05352902   -0.00483149
     atom    8 type  2   force =    -0.07178804   -0.00690899    0.00483487
     atom    9 type  2   force =     0.07178804    0.00690899   -0.00483487
     atom   10 type  2   force =    -0.04832914   -0.05352902    0.00483149
     atom   11 type  3   force =    -0.00950386    0.01887143    0.00003270
     atom   12 type  3   force =     0.00950386   -0.01887143   -0.00003270
     atom   13 type  4   force =    -0.09088026   -0.19238624    0.22828965
     atom   14 type  4   force =    -0.01220478   -0.23396955   -0.02504887
     atom   15 type  4   force =     0.01220478    0.23396955    0.02504887
     atom   16 type  4   force =     0.19516470   -0.12963251    0.02507920
     atom   17 type  4   force =    -0.20865906    0.04167581    0.22830940
     atom   18 type  4   force =    -0.19516470    0.12963251   -0.02507920
     atom   19 type  4   force =     0.09088026    0.19238624   -0.22828965
     atom   20 type  4   force =     0.20865906   -0.04167581   -0.22830940
     The ionic contribution  to forces
     atom    1 type  1   force =    -0.17058846   -0.33957216    0.05832667
     atom    2 type  1   force =     0.17058846    0.33957216   -0.05832667
     atom    3 type  1   force =     0.37434534   -0.06538531   -0.05832667
     atom    4 type  1   force =    -0.37434534    0.06538531    0.05832668
     atom    5 type  2   force =    -0.12367527    0.24579892    0.00000000
     atom    6 type  2   force =     0.12367527   -0.24579892    0.00000000
     atom    7 type  2   force =     0.15283717    0.27624904   -0.13930101
     atom    8 type  2   force =    -0.31291685    0.04190199    0.13930101
     atom    9 type  2   force =     0.31291685   -0.04190199   -0.13930101
     atom   10 type  2   force =    -0.15283717   -0.27624904    0.13930101
     atom   11 type  3   force =    -0.38946536    0.77404455   -0.00000000
     atom   12 type  3   force =     0.38946535   -0.77404455    0.00000000
     atom   13 type  4   force =     0.75904789    4.40941364   -4.08152993
     atom   14 type  4   force =     1.86642157    5.05598733    2.74222509
     atom   15 type  4   force =    -1.86642157   -5.05598733   -2.74222509
     atom   16 type  4   force =    -5.17234657    1.51438712   -2.74222509
     atom   17 type  4   force =     3.99318993   -2.01829547   -4.08152993
     atom   18 type  4   force =     5.17234657   -1.51438712    2.74222509
     atom   19 type  4   force =    -0.75904789   -4.40941364    4.08152993
     atom   20 type  4   force =    -3.99318993    2.01829547    4.08152993
     The local contribution  to forces
     atom    1 type  1   force =     0.11504690    0.31866113   -0.07334983
     atom    2 type  1   force =    -0.11473094   -0.31816506    0.07240362
     atom    3 type  1   force =    -0.32450477    0.09779267    0.07315000
     atom    4 type  1   force =     0.32377890   -0.09740200   -0.07288055
     atom    5 type  2   force =     0.13993126   -0.27811817    0.00002225
     atom    6 type  2   force =    -0.13993603    0.27811085   -0.00001833
     atom    7 type  2   force =    -0.21044361   -0.33577307    0.13588086
     atom    8 type  2   force =     0.39505043   -0.03110326   -0.13587627
     atom    9 type  2   force =    -0.39505261    0.03111074    0.13589253
     atom   10 type  2   force =     0.21046220    0.33576539   -0.13591459
     atom   11 type  3   force =     0.41364081   -0.82222991    0.00013122
     atom   12 type  3   force =    -0.41374419    0.82222357   -0.00009255
     atom   13 type  4   force =    -0.66597185   -4.20624542    3.86604716
     atom   14 type  4   force =    -1.86537723   -4.83025344   -2.73904718
     atom   15 type  4   force =     1.86537490    4.83026301    2.73907344
     atom   16 type  4   force =     4.99044864   -1.38071023    2.73912277
     atom   17 type  4   force =    -3.77456634    1.97195327    3.86605090
     atom   18 type  4   force =    -4.99045721    1.38071182   -2.73912817
     atom   19 type  4   force =     0.66596953    4.20624260   -3.86600491
     atom   20 type  4   force =     3.77455894   -1.97195612   -3.86608498
     The core correction contribution to forces
     atom    1 type  1   force =    -0.00340236   -0.00110137   -0.00127585
     atom    2 type  1   force =     0.00340569    0.00110761    0.00125332
     atom    3 type  1   force =     0.00290482    0.00208047    0.00127295
     atom    4 type  1   force =    -0.00292615   -0.00207253   -0.00126008
     atom    5 type  2   force =     0.00000000    0.00000000    0.00000000
     atom    6 type  2   force =     0.00000000    0.00000000    0.00000000
     atom    7 type  2   force =     0.00000000    0.00000000    0.00000000
     atom    8 type  2   force =     0.00000000    0.00000000    0.00000000
     atom    9 type  2   force =     0.00000000    0.00000000    0.00000000
     atom   10 type  2   force =     0.00000000    0.00000000    0.00000000
     atom   11 type  3   force =    -0.00112961    0.00224092    0.00000360
     atom   12 type  3   force =     0.00112689   -0.00224226   -0.00000181
     atom   13 type  4   force =     0.00074412    0.00099946   -0.00145628
     atom   14 type  4   force =    -0.00026291    0.00130208   -0.00029348
     atom   15 type  4   force =     0.00026281   -0.00130223    0.00029327
     atom   16 type  4   force =    -0.00088906    0.00098709    0.00029326
     atom   17 type  4   force =     0.00124604    0.00000187   -0.00145631
     atom   18 type  4   force =     0.00088909   -0.00098702   -0.00029302
     atom   19 type  4   force =    -0.00074401   -0.00099943    0.00145619
     atom   20 type  4   force =    -0.00124606   -0.00000194    0.00145644
     The Hubbard contrib.    to forces
     atom    1 type  1   force =     0.00000000    0.00000000    0.00000000
     atom    2 type  1   force =     0.00000000    0.00000000    0.00000000
     atom    3 type  1   force =     0.00000000    0.00000000    0.00000000
     atom    4 type  1   force =     0.00000000    0.00000000    0.00000000
     atom    5 type  2   force =     0.00000000    0.00000000    0.00000000
     atom    6 type  2   force =     0.00000000    0.00000000    0.00000000
     atom    7 type  2   force =     0.00000000    0.00000000    0.00000000
     atom    8 type  2   force =     0.00000000    0.00000000    0.00000000
     atom    9 type  2   force =     0.00000000    0.00000000    0.00000000
     atom   10 type  2   force =     0.00000000    0.00000000    0.00000000
     atom   11 type  3   force =     0.00000000    0.00000000    0.00000000
     atom   12 type  3   force =     0.00000000    0.00000000    0.00000000
     atom   13 type  4   force =     0.00000000    0.00000000    0.00000000
     atom   14 type  4   force =     0.00000000    0.00000000    0.00000000
     atom   15 type  4   force =     0.00000000    0.00000000    0.00000000
     atom   16 type  4   force =     0.00000000    0.00000000    0.00000000
     atom   17 type  4   force =     0.00000000    0.00000000    0.00000000
     atom   18 type  4   force =     0.00000000    0.00000000    0.00000000
     atom   19 type  4   force =     0.00000000    0.00000000    0.00000000
     atom   20 type  4   force =     0.00000000    0.00000000    0.00000000
     The SCF correction term to forces
     atom    1 type  1   force =    -0.00003405   -0.00003896    0.00005180
     atom    2 type  1   force =    -0.00000430   -0.00005533    0.00013873
     atom    3 type  1   force =     0.00003757    0.00000069   -0.00009380
     atom    4 type  1   force =     0.00003805   -0.00005120   -0.00000844
     atom    5 type  2   force =     0.00000539    0.00000023   -0.00002184
     atom    6 type  2   force =    -0.00000102    0.00000785    0.00001815
     atom    7 type  2   force =    -0.00000509    0.00000396    0.00001251
     atom    8 type  2   force =    -0.00000317   -0.00000598   -0.00001936
     atom    9 type  2   force =     0.00000451   -0.00000044   -0.00000250
     atom   10 type  2   force =    -0.00001368    0.00000383    0.00002374
     atom   11 type  3   force =     0.00005580    0.00004907   -0.00013676
     atom   12 type  3   force =     0.00005898   -0.00003137    0.00009007
     atom   13 type  4   force =     0.00000124   -0.00002942    0.00003220
     atom   14 type  4   force =    -0.00001388   -0.00005273   -0.00008705
     atom   15 type  4   force =     0.00001441    0.00003637    0.00004348
     atom   16 type  4   force =     0.00005147   -0.00000933   -0.00000495
     atom   17 type  4   force =    -0.00002906    0.00001924    0.00002585
     atom   18 type  4   force =    -0.00004541    0.00001140    0.00002799
     atom   19 type  4   force =     0.00000914    0.00003511   -0.00007940
     atom   20 type  4   force =     0.00003244   -0.00001587    0.00001875

     Total force =     0.099354     Total SCF correction =     0.000338

     Computing stress (Cartesian axis) and pressure

     negative rho (up, down):  1.923E-01 0.000E+00
          total   stress  (Ry/bohr**3)                   (kbar)     P=      -39.87
  -0.00009803   0.00011959   0.00007433          -14.42       17.59       10.93
   0.00011959  -0.00027553   0.00003741           17.59      -40.53        5.50
   0.00007433   0.00003741  -0.00043949           10.93        5.50      -64.65

     kinetic stress (kbar)  12039.20     32.89    -29.59
                               32.89  11990.37    -14.89
                              -29.59    -14.89  12022.26

     local   stress (kbar)  -1510.60   -219.02   -606.28
                             -219.02  -1185.51   -305.05
                             -606.28   -305.05   -800.81

     nonloc. stress (kbar)    597.16      0.21      3.72
                                0.21    596.85      1.87
                                3.72      1.87    572.80

     hartree stress (kbar)   3570.87     84.75    248.81
                               84.75   3445.07    125.19
                              248.81    125.19   3277.69

     exc-cor stress (kbar)   4262.87     -0.22      0.40
                               -0.22   4263.19      0.20
                                0.40      0.20   4263.28

     corecor stress (kbar)  -7731.86      0.11     -0.19
                                0.11  -7732.02     -0.09
                               -0.19     -0.09  -7730.75

     ewald   stress (kbar) -11242.06    118.86    394.06
                              118.86 -11418.49    198.28
                              394.06    198.28 -11669.12

     hubbard stress (kbar)      0.00      0.00      0.00
                                0.00      0.00      0.00
                                0.00      0.00      0.00

     DFT-D   stress (kbar)      0.00      0.00      0.00
                                0.00      0.00      0.00
                                0.00      0.00      0.00

     XDM     stress (kbar)      0.00      0.00      0.00
                                0.00      0.00      0.00
                                0.00      0.00      0.00

     dft-nl  stress (kbar)      0.00      0.00      0.00
                                0.00      0.00      0.00
                                0.00      0.00      0.00

     TS-vdW  stress (kbar)      0.00      0.00      0.00
                                0.00      0.00      0.00
                                0.00      0.00      0.00

[...]

                                0.00      0.00      0.00

     Writing all to output data dir new_calculations/myprefix.save/

     General routines

     Parallel routines

     PAW routines

   This run was terminated on:   4:51:49  21May2023

   JOB DONE.