     Program PWSCF v.7.0 starts on 20May2023 at 14:32:21

     Reading input from espresso_5482.pwi
Warning: card &CELL ignored
Warning: card / ignored

     Current dimensions of program PWSCF are:
     Max number of different atomic species (ntypx) = 10
     Max number of k-points (npk) =  40000
     Max angular momentum in pseudopotentials (lmaxx) =  4

     gamma-point specific algorithms are used
     Message from routine setup:
     using ibrav=0 with symmetry is DISCOURAGED, use correct ibrav instead

     Subspace diagonalization in iterative solution of the eigenvalue problem:
     a serial algorithm will be used

     Using Slab Decomposition

     bravais-lattice index     =            0
     lattice parameter (alat)  =      15.9155  a.u.
     unit-cell volume          =    2850.6369 (a.u.)^3
     number of atoms/cell      =           10
     number of atomic types    =            4
     number of electrons       =        88.00
     number of Kohn-Sham states=           53
     kinetic-energy cutoff     =      30.0000  Ry
     charge density cutoff     =     240.0000  Ry
     scf convergence threshold =      1.0E-06
     mixing beta               =       0.7000
     number of iterations used =            8  plain     mixing
     Exchange-correlation=  SLA  PW   PBX  PBC
                           (   1   4   3   4   0   0   0)

     celldm(1)=  15.915452  celldm(2)=   0.000000  celldm(3)=   0.000000
     celldm(4)=   0.000000  celldm(5)=   0.000000  celldm(6)=   0.000000

     crystal axes: (cart. coord. in units of alat)
               a(1) = (   1.000000   0.000000   0.000000 )
               a(2) = (   0.500000   0.866025   0.000000 )
               a(3) = (   0.500000   0.288675   0.816497 )

     reciprocal axes: (cart. coord. in units 2 pi/alat)
               b(1) = (  1.000000 -0.577350 -0.408248 )
               b(2) = (  0.000000  1.154701 -0.408248 )
               b(3) = (  0.000000  0.000000  1.224745 )

     PseudoPot. # 1 for Rb read from file:
     /home/pragov/projects/rrg-bengioy-ad/pragov/crystal_structure_design/SSSP/Rb_ONCV_PBE-1.0.oncvpsp.upf
     MD5 check sum: 55a5172d6bfbce6759a58e35d43f6aa9
     Pseudo is Norm-conserving, Zval =  9.0
     Generated using ONCVPSP code by D. R. Hamann
     Using radial grid of 2308 points,  6 beta functions with:
                l(1) =   0
                l(2) =   0
                l(3) =   1
                l(4) =   1
                l(5) =   2
                l(6) =   2

     PseudoPot. # 2 for Tl read from file:
     /home/pragov/projects/rrg-bengioy-ad/pragov/crystal_structure_design/SSSP/Tl_pbe_v1.2.uspp.F.UPF
     MD5 check sum: b76cf1f7e72655a2b2c53cf6385d7059
     Pseudo is Ultrasoft + core correction, Zval = 13.0
     Generated by new atomic code, or converted to UPF format
     Using radial grid of  899 points,  6 beta functions with:
                l(1) =   0
                l(2) =   0
                l(3) =   1
                l(4) =   1
                l(5) =   2
                l(6) =   2
     Q(r) pseudized with  6 coefficients,  rinner =    1.100   1.100   1.100
                                                       1.100   1.100

     PseudoPot. # 3 for Sb read from file:
     /home/pragov/projects/rrg-bengioy-ad/pragov/crystal_structure_design/SSSP/sb_pbe_v1.4.uspp.F.UPF
     MD5 check sum: 9bc50dfb53373b713f5709b9110fe27f
     Pseudo is Ultrasoft + core correction, Zval = 15.0
     Generated by new atomic code, or converted to UPF format
     Using radial grid of  891 points,  6 beta functions with:
                l(1) =   0
                l(2) =   0
                l(3) =   1
                l(4) =   1
                l(5) =   2
                l(6) =   2
     Q(r) pseudized with  8 coefficients,  rinner =    1.350   1.350   1.350
                                                       1.350   1.350

     PseudoPot. # 4 for Br read from file:
     /home/pragov/projects/rrg-bengioy-ad/pragov/crystal_structure_design/SSSP/br_pbe_v1.4.uspp.F.UPF
     MD5 check sum: d3ffb7b29f6225aa16fe06858fb2a80b
     Pseudo is Ultrasoft + core correction, Zval =  7.0
     Generated by new atomic code, or converted to UPF format
     Using radial grid of  879 points,  6 beta functions with:
                l(1) =   0
                l(2) =   0
                l(3) =   1
                l(4) =   1
                l(5) =   2
                l(6) =   2
     Q(r) pseudized with  8 coefficients,  rinner =    1.100   1.100   1.100
                                                       1.100   1.100

     atomic species   valence    mass     pseudopotential
        Rb             9.00    85.46780     Rb( 1.00)
        Tl            13.00   204.38000     Tl( 1.00)
        Sb            15.00   121.76000     Sb( 1.00)
        Br             7.00    79.90400     Br( 1.00)

     12 Sym. Ops., with inversion, found

                                    s                        frac. trans.

      isym =  1     identity

 cryst.   s( 1) = (     1          0          0      )
                  (     0          1          0      )
                  (     0          0          1      )

 cart.    s( 1) = (  1.0000000  0.0000000  0.0000000 )
                  (  0.0000000  1.0000000  0.0000000 )
                  (  0.0000000  0.0000000  1.0000000 )

      isym =  2     180 deg rotation - cart. axis [1,0,0]

[...]

      isym =  3     120 deg rotation - cryst. axis [0,0,1]

[...]

      isym =  6     180 deg rotation - cryst. axis [1,1,0]

[...]

      isym =  7     inversion

[...]

      isym =  8     inv. 180 deg rotation - cart. axis [1,0,0]

[...]

      isym =  9     inv. 120 deg rotation - cryst. axis [0,0,1]

 cryst.   s( 9) = (     1         -1          0      )
                  (     1          0          0      )
                  (     1          0         -1      )

 cart.    s( 9) = (  0.5000000  0.8660254 -0.0000000 )
                  ( -0.8660254  0.5000000 -0.0000000 )
                  (  0.0000000  0.0000000 -1.0000000 )

[...]

 cryst.   s(10) = (     0          1          0      )
                  (    -1          1          0      )
                  (     0          1         -1      )

 cart.    s(10) = (  0.5000000 -0.8660254  0.0000000 )
                  (  0.8660254  0.5000000 -0.0000000 )
                  (  0.0000000  0.0000000 -1.0000000 )

[...]

      isym = 12     inv. 180 deg rotation - cryst. axis [1,1,0]

 cryst.   s(12) = (     1         -1          0      )
                  (     0         -1          0      )
                  (     0         -1          1      )

 cart.    s(12) = (  0.5000000 -0.8660254  0.0000000 )
                  ( -0.8660254 -0.5000000  0.0000000 )
                  (  0.0000000  0.0000000  1.0000000 )

   Cartesian axes

     site n.     atom                  positions (alat units)
         1           Rb  tau(   1) = (   1.5000000   0.8660254   0.6123724  )
         2           Rb  tau(   2) = (   0.5000000   0.2886751   0.2041241  )
         3           Tl  tau(   3) = (   1.0000000   0.5773503   0.4082483  )
         4           Sb  tau(   4) = (   0.0000000   0.0000000   0.0000000  )
         5           Br  tau(   5) = (   1.0000000   0.2727437   0.1928589  )
         6           Br  tau(   6) = (   0.7362030   0.4250470   0.6236376  )
         7           Br  tau(   7) = (   1.0000000   0.8819568   0.6236376  )
         8           Br  tau(   8) = (   0.7362030   0.7296535   0.1928589  )
         9           Br  tau(   9) = (   1.2637970   0.4250470   0.6236376  )
        10           Br  tau(  10) = (   1.2637970   0.7296535   0.1928589  )

   Crystallographic axes

     site n.     atom                  positions (cryst. coord.)
         1           Rb  tau(   1) = (  0.7500000  0.7500000  0.7500000  )
         2           Rb  tau(   2) = (  0.2500000  0.2500000  0.2500000  )
         3           Tl  tau(   3) = (  0.5000000  0.5000000  0.5000000  )
         4           Sb  tau(   4) = (  0.0000000  0.0000000  0.0000000  )
         5           Br  tau(   5) = (  0.7637970  0.2362030  0.2362030  )
         6           Br  tau(   6) = (  0.2362030  0.2362030  0.7637970  )
         7           Br  tau(   7) = (  0.2362030  0.7637970  0.7637970  )
         8           Br  tau(   8) = (  0.2362030  0.7637970  0.2362030  )
         9           Br  tau(   9) = (  0.7637970  0.2362030  0.7637970  )
        10           Br  tau(  10) = (  0.7637970  0.7637970  0.2362030  )

     number of k points=     1  Methfessel-Paxton smearing, width (Ry)=  0.0010
                       cart. coord. in units 2pi/alat
        k(    1) = (   0.0000000   0.0000000   0.0000000), wk =   2.0000000

                       cryst. coord.
        k(    1) = (   0.0000000   0.0000000   0.0000000), wk =   2.0000000

     Check: negative core charge=   -0.000003

     Initial potential from superposition of free atoms

     starting charge      86.9455, renormalised to      88.0000

     negative rho (up, down):  5.094E-02 0.000E+00
     Starting wfcs are   52 randomized atomic wfcs +    1 random wfcs

     Self-consistent Calculation

     iteration #  1     ecut=    30.00 Ry     beta= 0.70
     Davidson diagonalization with overlap

     ethr =  1.00E-02,  avg # of iterations =  6.0

     Threshold (ethr) on eigenvalues was too large:
     Diagonalizing with lowered threshold

     Davidson diagonalization with overlap

[...]

     negative rho (up, down):  4.926E-02 0.000E+00

     total energy              =    -709.16854528 Ry
     estimated scf accuracy    <       0.61659564 Ry

[...]

     total energy              =    -709.39348024 Ry
     estimated scf accuracy    <       0.00001204 Ry

     iteration #  7     ecut=    30.00 Ry     beta= 0.70
     Davidson diagonalization with overlap

     ethr =  1.37E-08,  avg # of iterations =  2.0

[...]

     End of self-consistent calculation

          k = 0.0000 0.0000 0.0000 (  3912 PWs)   bands (ev):

   -27.1522 -27.1522 -27.1522 -27.1519 -27.1519 -24.4123 -24.4120 -11.7268
   -11.2534 -11.2534 -11.2533 -11.1194 -11.1193  -8.4609  -8.4609  -8.4609
    -8.4541  -8.4541  -8.4541  -7.9458  -7.9457  -7.9457  -7.9432  -7.9431
    -6.4728  -2.4274  -1.5303  -1.5303  -1.5302   0.1291   0.1291   0.1291
     0.6975   0.6975   0.9905   0.9905   0.9905   1.0320   1.0320   1.0320
     1.4745   1.4745   1.4745   3.1444   4.2208   4.2208   4.2208   5.4935
     6.7342   7.4799   8.1082   8.1082   8.1082

     occupation numbers
     1.0000   1.0000   1.0000   1.0000   1.0000   1.0000   1.0000   1.0000
     1.0000   1.0000   1.0000   1.0000   1.0000   1.0000   1.0000   1.0000
     1.0000   1.0000   1.0000   1.0000   1.0000   1.0000   1.0000   1.0000
     1.0000   1.0000   1.0000   1.0000   1.0000   1.0000   1.0000   1.0000
     1.0000   1.0000   1.0000   1.0000   1.0000   1.0000   1.0000   1.0000
     1.0000   1.0000   1.0000   1.0000  -0.0000  -0.0000  -0.0000  -0.0000
    -0.0000  -0.0000  -0.0000  -0.0000  -0.0000

     the Fermi energy is     3.8027 ev

!    total energy              =    -709.39348363 Ry
     estimated scf accuracy    <       0.00000024 Ry
     smearing contrib. (-TS)   =       0.00000000 Ry
     internal energy E=F+TS    =    -709.39348363 Ry

     The total energy is F=E-TS. E is the sum of the following terms:
     one-electron contribution =    -277.11029904 Ry
     hartree contribution      =     171.95271221 Ry
     xc contribution           =    -278.16066512 Ry
     ewald contribution        =    -326.07523168 Ry

     convergence has been achieved in   7 iterations

     negative rho (up, down):  4.846E-02 0.000E+00

     Forces acting on atoms (cartesian axes, Ry/au):

     atom    1 type  1   force =    -0.00000000    0.00000000    0.00001461
     atom    2 type  1   force =     0.00000000   -0.00000000   -0.00001461
     atom    3 type  2   force =     0.00000000    0.00000000   -0.00000000
     atom    4 type  3   force =    -0.00000000   -0.00000000    0.00000000
     atom    5 type  4   force =    -0.00000000   -0.01329715   -0.00940535
     atom    6 type  4   force =    -0.01151567   -0.00664857    0.00940535
     atom    7 type  4   force =    -0.00000000    0.01329715    0.00940535
     atom    8 type  4   force =    -0.01151567    0.00664857   -0.00940535
     atom    9 type  4   force =     0.01151567   -0.00664857    0.00940535
     atom   10 type  4   force =     0.01151567    0.00664857   -0.00940535
     The non-local contrib.  to forces
     atom    1 type  1   force =    -0.00000000   -0.00000000   -0.00000084
     atom    2 type  1   force =     0.00000000    0.00000000    0.00000084
     atom    3 type  2   force =     0.00000000    0.00000000   -0.00000000
     atom    4 type  3   force =     0.00000000    0.00000000    0.00000000
     atom    5 type  4   force =     0.00000000    0.02204289    0.01558473
     atom    6 type  4   force =     0.01908970    0.01102145   -0.01558473
     atom    7 type  4   force =     0.00000000   -0.02204289   -0.01558473
     atom    8 type  4   force =     0.01908970   -0.01102145    0.01558473
     atom    9 type  4   force =    -0.01908970    0.01102145   -0.01558473
     atom   10 type  4   force =    -0.01908970   -0.01102145    0.01558473
     The ionic contribution  to forces
     atom    1 type  1   force =     0.00000000    0.00000000   -0.00000000
     atom    2 type  1   force =     0.00000000   -0.00000000    0.00000000
     atom    3 type  2   force =     0.00000000    0.00000000   -0.00000000
     atom    4 type  3   force =    -0.00000000   -0.00000000   -0.00000000
     atom    5 type  4   force =     0.00000000    2.54908820    1.80247755
     atom    6 type  4   force =     2.20757514    1.27454410   -1.80247755
     atom    7 type  4   force =     0.00000000   -2.54908820   -1.80247755
     atom    8 type  4   force =     2.20757514   -1.27454410    1.80247755
     atom    9 type  4   force =    -2.20757514    1.27454410   -1.80247755
     atom   10 type  4   force =    -2.20757514   -1.27454410    1.80247755
     The local contribution  to forces
     atom    1 type  1   force =     0.00000235   -0.00000943   -0.00000466
     atom    2 type  1   force =    -0.00000125    0.00001187    0.00000149
     atom    3 type  2   force =    -0.00002588    0.00001038   -0.00001661
     atom    4 type  3   force =     0.00017628   -0.00006903    0.00007026
     atom    5 type  4   force =     0.00000678   -2.59622742   -1.83581753
     atom    6 type  4   force =    -2.24838616   -1.29810686    1.83580064
     atom    7 type  4   force =    -0.00000155    2.59622726    1.83582050
     atom    8 type  4   force =    -2.24838059    1.29810323   -1.83578883
     atom    9 type  4   force =     2.24838994   -1.29810082    1.83579801
     atom   10 type  4   force =     2.24839872    1.29810285   -1.83580559
     The core correction contribution to forces
     atom    1 type  1   force =     0.00000000    0.00000000    0.00000000
     atom    2 type  1   force =     0.00000000    0.00000000    0.00000000
     atom    3 type  2   force =     0.00000323    0.00000214    0.00000241
     atom    4 type  3   force =     0.00000298   -0.00000167    0.00000127
     atom    5 type  4   force =    -0.00000054    0.01149534    0.00812705
     atom    6 type  4   force =     0.00995177    0.00574810   -0.00812639
     atom    7 type  4   force =    -0.00000086   -0.01149583   -0.00812698
     atom    8 type  4   force =     0.00995196   -0.00574828    0.00812715
     atom    9 type  4   force =    -0.00995593    0.00574745   -0.00812936
     atom   10 type  4   force =    -0.00995290   -0.00574761    0.00812775
     The Hubbard contrib.    to forces
     atom    1 type  1   force =     0.00000000    0.00000000    0.00000000
     atom    2 type  1   force =     0.00000000    0.00000000    0.00000000
     atom    3 type  2   force =     0.00000000    0.00000000    0.00000000
     atom    4 type  3   force =     0.00000000    0.00000000    0.00000000
     atom    5 type  4   force =     0.00000000    0.00000000    0.00000000
     atom    6 type  4   force =     0.00000000    0.00000000    0.00000000
     atom    7 type  4   force =     0.00000000    0.00000000    0.00000000
     atom    8 type  4   force =     0.00000000    0.00000000    0.00000000
     atom    9 type  4   force =     0.00000000    0.00000000    0.00000000
     atom   10 type  4   force =     0.00000000    0.00000000    0.00000000
     The SCF correction term to forces
     atom    1 type  1   force =     0.00000661    0.00000628    0.00002042
     atom    2 type  1   force =    -0.00001185   -0.00001074   -0.00001663
     atom    3 type  2   force =     0.00004662   -0.00001804    0.00002630
     atom    4 type  3   force =    -0.00018063    0.00007572   -0.00007447
     atom    5 type  4   force =    -0.00000278    0.00030083    0.00022073
     atom    6 type  4   force =     0.00026713    0.00013562   -0.00021171
     atom    7 type  4   force =     0.00000615   -0.00029660   -0.00022698
     atom    8 type  4   force =     0.00026151   -0.00013389    0.00019812
     atom    9 type  4   force =    -0.00024649    0.00013819   -0.00019381
     atom   10 type  4   force =    -0.00027105   -0.00013340    0.00020926

     Total force =     0.039895     Total SCF correction =     0.000916

     Computing stress (Cartesian axis) and pressure

     negative rho (up, down):  4.846E-02 0.000E+00
          total   stress  (Ry/bohr**3)                   (kbar)     P=       15.52
   0.00010554  -0.00000000  -0.00000000           15.53       -0.00       -0.00
  -0.00000000   0.00010554  -0.00000000           -0.00       15.53       -0.00
  -0.00000000  -0.00000000   0.00010551           -0.00       -0.00       15.52

     kinetic stress (kbar)   4486.15      0.00     -0.00
                                0.00   4486.15     -0.00
                                0.00     -0.00   4486.15

     local   stress (kbar)    520.74      0.00     -0.00
                                0.00    520.74      0.00
                               -0.00      0.00    520.73

     nonloc. stress (kbar)   -434.72      0.00      0.00
                                0.00   -434.72      0.00
                                0.00      0.00   -434.72

     hartree stress (kbar)   2957.83     -0.00      0.00
                               -0.00   2957.83     -0.00
                                0.00     -0.00   2957.83

     exc-cor stress (kbar)   8141.68     -0.00     -0.00
                               -0.00   8141.68      0.00
                               -0.00      0.00   8141.68

     corecor stress (kbar) -10047.20     -0.00      0.00
                               -0.00 -10047.19      0.00
                                0.00      0.00 -10047.19

     ewald   stress (kbar)  -5608.96     -0.00     -0.00
                               -0.00  -5608.96     -0.00
                               -0.00     -0.00  -5608.96

     hubbard stress (kbar)      0.00      0.00      0.00
                                0.00      0.00      0.00
                                0.00      0.00      0.00

     DFT-D   stress (kbar)      0.00      0.00      0.00
                                0.00      0.00      0.00
                                0.00      0.00      0.00

     XDM     stress (kbar)      0.00      0.00      0.00
                                0.00      0.00      0.00
                                0.00      0.00      0.00

     dft-nl  stress (kbar)      0.00      0.00      0.00
                                0.00      0.00      0.00
                                0.00      0.00      0.00

     TS-vdW  stress (kbar)      0.00      0.00      0.00
                                0.00      0.00      0.00
                                0.00      0.00      0.00

[...]

                                0.00      0.00      0.00

     Writing all to output data dir new_calculations/myprefix.save/

     General routines

     Parallel routines

   This run was terminated on:  14:33: 2  20May2023

   JOB DONE.