     Program PWSCF v.7.0 starts on 21May2023 at  7:49:22

     Reading input from espresso_21709.pwi
Warning: card &CELL ignored
Warning: card / ignored

     Current dimensions of program PWSCF are:
     Max number of different atomic species (ntypx) = 10
     Max number of k-points (npk) =  40000
     Max angular momentum in pseudopotentials (lmaxx) =  4

     gamma-point specific algorithms are used
     Message from routine setup:
     using ibrav=0 with symmetry is DISCOURAGED, use correct ibrav instead

     Subspace diagonalization in iterative solution of the eigenvalue problem:
     a serial algorithm will be used

     Using Slab Decomposition

     bravais-lattice index     =            0
     lattice parameter (alat)  =       7.3837  a.u.
     unit-cell volume          =    1390.5663 (a.u.)^3
     number of atoms/cell      =           12
     number of atomic types    =            3
     number of electrons       =       136.00
     number of Kohn-Sham states=           82
     kinetic-energy cutoff     =      30.0000  Ry
     charge density cutoff     =     240.0000  Ry
     scf convergence threshold =      1.0E-06
     mixing beta               =       0.7000
     number of iterations used =            8  plain     mixing
     Exchange-correlation= PBE
                           (   1   4   3   4   0   0   0)

     celldm(1)=   7.383694  celldm(2)=   0.000000  celldm(3)=   0.000000
     celldm(4)=   0.000000  celldm(5)=   0.000000  celldm(6)=   0.000000

     crystal axes: (cart. coord. in units of alat)
               a(1) = (   1.000000   0.000000   0.000000 )
               a(2) = (  -0.500000   0.866025   0.000000 )
               a(3) = (   0.000000   0.000000   3.988780 )

     reciprocal axes: (cart. coord. in units 2 pi/alat)
               b(1) = (  1.000000  0.577350  0.000000 )
               b(2) = (  0.000000  1.154701  0.000000 )
               b(3) = (  0.000000  0.000000  0.250703 )

     PseudoPot. # 1 for Y  read from file:
     /home/pragov/projects/rrg-bengioy-ad/pragov/crystal_structure_design/SSSP/Y_pbe_v1.uspp.F.UPF
     MD5 check sum: 2cf71db95cafeb975fc457bd7f14888e
     Pseudo is Ultrasoft + core correction, Zval = 11.0
     Generated by new atomic code, or converted to UPF format
     Using radial grid of  885 points,  6 beta functions with:
                l(1) =   0
                l(2) =   0
                l(3) =   1
                l(4) =   1
                l(5) =   2
                l(6) =   2
     Q(r) pseudized with  6 coefficients,  rinner =    1.200   1.200   1.200
                                                       1.200   1.200

     PseudoPot. # 2 for Ni read from file:
     /home/pragov/projects/rrg-bengioy-ad/pragov/crystal_structure_design/SSSP/ni_pbe_v1.4.uspp.F.UPF
     MD5 check sum: 1ee80287db30b12d2bc1f57a5b5d6409
     Pseudo is Ultrasoft + core correction, Zval = 18.0
     Generated by new atomic code, or converted to UPF format
     Using radial grid of  865 points,  6 beta functions with:
                l(1) =   0
                l(2) =   0
                l(3) =   1
                l(4) =   1
                l(5) =   2
                l(6) =   2
     Q(r) pseudized with 10 coefficients,  rinner =    0.980   0.980   0.980
                                                       0.980   0.980

     PseudoPot. # 3 for P  read from file:
     /home/pragov/projects/rrg-bengioy-ad/pragov/crystal_structure_design/SSSP/P.pbe-n-rrkjus_psl.1.0.0.UPF
     MD5 check sum: 8b930f418f0a4573dca56cd030ffe088
     Pseudo is Ultrasoft + core correction, Zval =  5.0
     Generated using "atomic" code by A. Dal Corso  v.5.1
     Using radial grid of 1147 points,  6 beta functions with:
                l(1) =   0
                l(2) =   0
                l(3) =   1
                l(4) =   1
                l(5) =   2
                l(6) =   2
     Q(r) pseudized with 0 coefficients

     atomic species   valence    mass     pseudopotential
        Y             11.00    88.90584     Y ( 1.00)
        Ni            18.00    58.69340     Ni( 1.00)
        P              5.00    30.97376     P ( 1.00)

     24 Sym. Ops., with inversion, found (12 have fractional translation)

                                    s                        frac. trans.

      isym =  1     identity

 cryst.   s( 1) = (     1          0          0      )
                  (     0          1          0      )
                  (     0          0          1      )

 cart.    s( 1) = (  1.0000000  0.0000000  0.0000000 )
                  (  0.0000000  1.0000000  0.0000000 )
                  (  0.0000000  0.0000000  1.0000000 )

      isym =  2     180 deg rotation - cart. axis [0,0,1]

 cryst.   s( 2) = (    -1          0          0      )    f =(  0.0000000 )
                  (     0         -1          0      )       (  0.0000000 )
                  (     0          0          1      )       (  0.5000000 )

 cart.    s( 2) = ( -1.0000000 -0.0000000  0.0000000 )    f =(  0.0000000 )
                  (  0.0000000 -1.0000000  0.0000000 )       (  0.0000000 )
                  (  0.0000000  0.0000000  1.0000000 )       (  1.9943900 )

[...]

      isym =  4     180 deg rotation - cart. axis [1,0,0]

[...]

      isym =  5      60 deg rotation - cryst. axis [0,0,1]

[...]

 cryst.   s( 8) = (    -1         -1          0      )
                  (     1          0          0      )
                  (     0          0          1      )

 cart.    s( 8) = ( -0.4999999  0.8660255  0.0000000 )
                  ( -0.8660253 -0.5000001  0.0000000 )
                  (  0.0000000  0.0000000  1.0000000 )

[...]

 cryst.   s( 9) = (     0         -1          0      )    f =(  0.0000000 )
                  (    -1          0          0      )       (  0.0000000 )
                  (     0          0         -1      )       (  0.5000000 )

 cart.    s( 9) = (  0.5000001 -0.8660253  0.0000000 )    f =(  0.0000000 )
                  ( -0.8660253 -0.5000001  0.0000000 )       (  0.0000000 )
                  (  0.0000000  0.0000000 -1.0000000 )       (  1.9943900 )

[...]

 cryst.   s(10) = (     1          1          0      )    f =(  0.0000000 )
                  (     0         -1          0      )       (  0.0000000 )
                  (     0          0         -1      )       (  0.5000000 )

 cart.    s(10) = (  0.4999999  0.8660256  0.0000000 )    f =(  0.0000000 )
                  (  0.8660253 -0.4999999  0.0000000 )       (  0.0000000 )
                  (  0.0000000  0.0000000 -1.0000000 )       (  1.9943900 )

[...]

 cryst.   s(11) = (    -1         -1          0      )
                  (     0          1          0      )
                  (     0          0         -1      )

 cart.    s(11) = ( -0.4999999 -0.8660256  0.0000000 )
                  ( -0.8660253  0.4999999  0.0000000 )
                  (  0.0000000  0.0000000 -1.0000000 )

      isym = 12     180 deg rotation - cryst. axis [1,1,0]

[...]

      isym = 13     inversion

[...]

      isym = 14     inv. 180 deg rotation - cart. axis [0,0,1]

[...]

      isym = 16     inv. 180 deg rotation - cart. axis [1,0,0]

[...]

      isym = 17     inv.  60 deg rotation - cryst. axis [0,0,1]

[...]

 cryst.   s(22) = (    -1         -1          0      )    f =(  0.0000000 )
                  (     0          1          0      )       (  0.0000000 )
                  (     0          0          1      )       (  0.5000000 )

 cart.    s(22) = ( -0.4999999 -0.8660256  0.0000000 )    f =(  0.0000000 )
                  ( -0.8660253  0.4999999  0.0000000 )       (  0.0000000 )
                  (  0.0000000  0.0000000  1.0000000 )       (  1.9943900 )

[...]

      isym = 24     inv. 180 deg rotation - cryst. axis [1,1,0]

 cryst.   s(24) = (     0         -1          0      )
                  (    -1          0          0      )
                  (     0          0          1      )

 cart.    s(24) = (  0.5000001 -0.8660253  0.0000000 )
                  ( -0.8660253 -0.5000001  0.0000000 )
                  (  0.0000000  0.0000000  1.0000000 )

   Cartesian axes

     site n.     atom                  positions (alat units)
         1           Y   tau(   1) = (   0.0000000   0.0000000   1.9943900  )
         2           Y   tau(   2) = (   0.0000000   0.0000000   0.0000000  )
         3           Y   tau(   3) = (   0.0000000   0.0000000   0.9971950  )
         4           Y   tau(   4) = (   0.0000000   0.0000000   2.9915850  )
         5           Ni  tau(   5) = (  -0.0000006   0.5773505   1.4858245  )
         6           Ni  tau(   6) = (   0.5000005   0.2886748   2.5029554  )
         7           Ni  tau(   7) = (   0.5000005   0.2886748   3.4802145  )
         8           Ni  tau(   8) = (  -0.0000006   0.5773505   0.5085655  )
         9           P   tau(   9) = (  -0.0000006   0.5773505   3.5021049  )
        10           P   tau(  10) = (   0.5000005   0.2886748   0.4866750  )
        11           P   tau(  11) = (   0.5000005   0.2886748   1.5077150  )
        12           P   tau(  12) = (  -0.0000006   0.5773505   2.4810650  )

   Crystallographic axes

     site n.     atom                  positions (cryst. coord.)
         1           Y   tau(   1) = (  0.0000000  0.0000000  0.5000000  )
         2           Y   tau(   2) = (  0.0000000  0.0000000  0.0000000  )
         3           Y   tau(   3) = (  0.0000000  0.0000000  0.2500000  )
         4           Y   tau(   4) = (  0.0000000  0.0000000  0.7500000  )
         5           Ni  tau(   5) = (  0.3333330  0.6666670  0.3725010  )
         6           Ni  tau(   6) = (  0.6666670  0.3333330  0.6274990  )
         7           Ni  tau(   7) = (  0.6666670  0.3333330  0.8725010  )
         8           Ni  tau(   8) = (  0.3333330  0.6666670  0.1274990  )
         9           P   tau(   9) = (  0.3333330  0.6666670  0.8779890  )
        10           P   tau(  10) = (  0.6666670  0.3333330  0.1220110  )
        11           P   tau(  11) = (  0.6666670  0.3333330  0.3779890  )
        12           P   tau(  12) = (  0.3333330  0.6666670  0.6220110  )

     number of k points=     1  Methfessel-Paxton smearing, width (Ry)=  0.0010
                       cart. coord. in units 2pi/alat
        k(    1) = (   0.0000000   0.0000000   0.0000000), wk =   2.0000000

                       cryst. coord.
        k(    1) = (   0.0000000   0.0000000   0.0000000), wk =   2.0000000

     Check: negative core charge=   -0.000007

     Initial potential from superposition of free atoms

     starting charge     127.9815, renormalised to     136.0000

     negative rho (up, down):  1.872E-01 0.000E+00
     Starting wfcs are  120 randomized atomic wfcs

     Self-consistent Calculation

     iteration #  1     ecut=    30.00 Ry     beta= 0.70
     Davidson diagonalization with overlap

     ethr =  1.00E-02,  avg # of iterations =  7.0

     negative rho (up, down):  1.486E-01 0.000E+00

     total energy              =   -1633.22865502 Ry
     estimated scf accuracy    <     191.98567398 Ry

[...]

     total energy              =   -1777.89776942 Ry
     estimated scf accuracy    <       0.00000159 Ry

     iteration # 38     ecut=    30.00 Ry     beta= 0.70
     Davidson diagonalization with overlap

     ethr =  1.17E-09,  avg # of iterations =  2.0

[...]

     End of self-consistent calculation

          k = 0.0000 0.0000 0.0000 (  1946 PWs)   bands (ev):

   -90.8166 -90.8149 -90.8145 -90.8135 -51.3460 -51.3460 -51.3449 -51.3449
   -51.3429 -51.3429 -51.3357 -51.3357 -50.8247 -50.8184 -50.8156 -50.8074
   -28.8152 -28.8133 -28.8005 -28.7986  -9.3202  -9.2053  -9.1998  -9.0802
    -8.6793  -8.6793  -8.6740  -8.6740  -8.6603  -8.6603  -8.6550  -8.6550
     0.9896   1.4058   1.4412   1.9246   7.9603   8.4484   8.4484   8.4930
     8.4931   8.6500   8.6500   8.6973   8.6973   8.9499   9.0604  10.0798
    10.6211  10.6211  10.7387  10.7387  10.7911  10.7911  10.9511  10.9511
    11.1636  11.3124  11.5072  11.5155  12.8701  12.8701  13.2658  13.2658
    13.3685  13.3685  13.4828  14.0759  14.0759  14.2147  14.5276  14.7548
    14.7548  14.9858  14.9858  15.2059  15.4403  15.4403  15.8487  15.8487
    15.9454  15.9606

     occupation numbers
     1.0000   1.0000   1.0000   1.0000   1.0000   1.0000   1.0000   1.0000
     1.0000   1.0000   1.0000   1.0000   1.0000   1.0000   1.0000   1.0000
     1.0000   1.0000   1.0000   1.0000   1.0000   1.0000   1.0000   1.0000
     1.0000   1.0000   1.0000   1.0000   1.0000   1.0000   1.0000   1.0000
     1.0000   1.0000   1.0000   1.0000   1.0000   1.0000   1.0000   1.0000
     1.0000   1.0000   1.0000   1.0000   1.0000   1.0000   1.0000   1.0000
     1.0000   1.0000   1.0000   1.0000   1.0000   1.0000   1.0000   1.0000
     1.0000   1.0000   1.0000   1.0000   1.0000   1.0000   1.0000   1.0000
     1.0000   1.0000   1.0000   0.5004   0.4996  -0.0000  -0.0000  -0.0000
    -0.0000  -0.0000  -0.0000  -0.0000  -0.0000  -0.0000  -0.0000  -0.0000
    -0.0000  -0.0000

     the Fermi energy is    14.0759 ev

!    total energy              =   -1777.89776950 Ry
     estimated scf accuracy    <       0.00000006 Ry
     smearing contrib. (-TS)   =      -0.00056419 Ry
     internal energy E=F+TS    =   -1777.89720531 Ry

     The total energy is F=E-TS. E is the sum of the following terms:
     one-electron contribution =   -1180.75466279 Ry
     hartree contribution      =     655.08309592 Ry
     xc contribution           =    -248.51435488 Ry
     ewald contribution        =   -1003.71128355 Ry

     convergence has been achieved in  38 iterations

     negative rho (up, down):  1.716E-01 0.000E+00

     Forces acting on atoms (cartesian axes, Ry/au):

     atom    1 type  1   force =    -0.00000000   -0.00000000    0.00000000
     atom    2 type  1   force =     0.00000000    0.00000000    0.00000000
     atom    3 type  1   force =    -0.00000000    0.00000000   -0.00000000
     atom    4 type  1   force =     0.00000000    0.00000000    0.00000000
     atom    5 type  2   force =     0.00000000   -0.00000000   -0.01376240
     atom    6 type  2   force =    -0.00000000   -0.00000000    0.01376240
     atom    7 type  2   force =     0.00000000    0.00000000   -0.01376240
     atom    8 type  2   force =     0.00000000   -0.00000000    0.01376240
     atom    9 type  3   force =    -0.00000000    0.00000000    0.01451226
     atom   10 type  3   force =     0.00000000    0.00000000   -0.01451226
     atom   11 type  3   force =    -0.00000000   -0.00000000    0.01451226
     atom   12 type  3   force =    -0.00000000   -0.00000000   -0.01451226
     The non-local contrib.  to forces
     atom    1 type  1   force =     0.00000000   -0.00000000   -0.00000000
     atom    2 type  1   force =     0.00000000    0.00000000    0.00000000
     atom    3 type  1   force =     0.00000000    0.00000000    0.00000000
     atom    4 type  1   force =    -0.00000000   -0.00000000    0.00000000
     atom    5 type  2   force =     0.00000000   -0.00000000    0.04274615
     atom    6 type  2   force =    -0.00000000    0.00000000   -0.04274615
     atom    7 type  2   force =     0.00000000   -0.00000000    0.04274615
     atom    8 type  2   force =    -0.00000000    0.00000000   -0.04274615
     atom    9 type  3   force =    -0.00000000   -0.00000000   -0.04367677
     atom   10 type  3   force =     0.00000000    0.00000000    0.04367677
     atom   11 type  3   force =    -0.00000000   -0.00000000   -0.04367677
     atom   12 type  3   force =     0.00000000    0.00000000    0.04367677
     The ionic contribution  to forces
     atom    1 type  1   force =     0.00000000   -0.00000000    0.00000000
     atom    2 type  1   force =     0.00000000   -0.00000000   -0.00000000
     atom    3 type  1   force =    -0.00000840    0.00000485    0.00000000
     atom    4 type  1   force =     0.00000840   -0.00000485    0.00000000
     atom    5 type  2   force =     0.00005190   -0.00002996    1.52065134
     atom    6 type  2   force =    -0.00005190    0.00002996   -1.52065134
     atom    7 type  2   force =    -0.00005190    0.00002996    1.52065134
     atom    8 type  2   force =     0.00005190   -0.00002996   -1.52065134
     atom    9 type  3   force =     0.00004379   -0.00002528    0.64068609
     atom   10 type  3   force =    -0.00004379    0.00002528   -0.64068609
     atom   11 type  3   force =    -0.00004379    0.00002528    0.64068609
     atom   12 type  3   force =     0.00004379   -0.00002528   -0.64068609
     The local contribution  to forces
     atom    1 type  1   force =    -0.00000044    0.00000337    0.00011752
     atom    2 type  1   force =     0.00000127    0.00000062   -0.00028705
     atom    3 type  1   force =     0.00002247    0.00002008   -0.00030188
     atom    4 type  1   force =    -0.00001799   -0.00001533    0.00043363
     atom    5 type  2   force =     0.00013911    0.00037476   -1.57787472
     atom    6 type  2   force =    -0.00013526   -0.00040244    1.57886021
     atom    7 type  2   force =    -0.00014699   -0.00039425   -1.57768070
     atom    8 type  2   force =     0.00014960    0.00040165    1.57686197
     atom    9 type  3   force =    -0.00000327    0.00009879   -0.58488682
     atom   10 type  3   force =    -0.00000189   -0.00009581    0.58465019
     atom   11 type  3   force =     0.00000216   -0.00010111   -0.58495421
     atom   12 type  3   force =    -0.00000086    0.00010481    0.58520636
     The core correction contribution to forces
     atom    1 type  1   force =     0.00000007    0.00000008   -0.00000140
     atom    2 type  1   force =     0.00000005    0.00000010    0.00000149
     atom    3 type  1   force =     0.00000007    0.00000016   -0.00000051
     atom    4 type  1   force =    -0.00000004   -0.00000006    0.00000020
     atom    5 type  2   force =     0.00000296    0.00000594    0.00080520
     atom    6 type  2   force =    -0.00000302   -0.00000630   -0.00080526
     atom    7 type  2   force =    -0.00000295   -0.00000587    0.00080536
     atom    8 type  2   force =     0.00000296    0.00000611   -0.00080566
     atom    9 type  3   force =     0.00000089    0.00000186    0.00246137
     atom   10 type  3   force =    -0.00000081   -0.00000169   -0.00246092
     atom   11 type  3   force =    -0.00000112   -0.00000208    0.00246039
     atom   12 type  3   force =     0.00000105    0.00000198   -0.00246018
     The Hubbard contrib.    to forces
     atom    1 type  1   force =     0.00000000    0.00000000    0.00000000
     atom    2 type  1   force =     0.00000000    0.00000000    0.00000000
     atom    3 type  1   force =     0.00000000    0.00000000    0.00000000
     atom    4 type  1   force =     0.00000000    0.00000000    0.00000000
     atom    5 type  2   force =     0.00000000    0.00000000    0.00000000
     atom    6 type  2   force =     0.00000000    0.00000000    0.00000000
     atom    7 type  2   force =     0.00000000    0.00000000    0.00000000
     atom    8 type  2   force =     0.00000000    0.00000000    0.00000000
     atom    9 type  3   force =     0.00000000    0.00000000    0.00000000
     atom   10 type  3   force =     0.00000000    0.00000000    0.00000000
     atom   11 type  3   force =     0.00000000    0.00000000    0.00000000
     atom   12 type  3   force =     0.00000000    0.00000000    0.00000000
     The SCF correction term to forces
     atom    1 type  1   force =     0.00000087   -0.00000178   -0.00013405
     atom    2 type  1   force =    -0.00000038    0.00000056    0.00028980
     atom    3 type  1   force =    -0.00000939   -0.00001479    0.00030332
     atom    4 type  1   force =     0.00000624    0.00001311   -0.00042497
     atom    5 type  2   force =    -0.00019184   -0.00025495   -0.00013712
     atom    6 type  2   force =     0.00017912    0.00027601   -0.00086044
     atom    7 type  2   force =     0.00020012    0.00027294   -0.00025790
     atom    8 type  2   force =    -0.00019648   -0.00026943    0.00104888
     atom    9 type  3   force =    -0.00001543   -0.00002278   -0.00005810
     atom   10 type  3   force =     0.00001736    0.00002124    0.00029672
     atom   11 type  3   force =     0.00001410    0.00002236   -0.00001286
     atom   12 type  3   force =    -0.00001419   -0.00002293   -0.00023417

     Total force =     0.040000     Total SCF correction =     0.001699

     Computing stress (Cartesian axis) and pressure

     negative rho (up, down):  1.716E-01 0.000E+00
          total   stress  (Ry/bohr**3)                   (kbar)     P=     -344.48
  -0.00128736  -0.00000000   0.00000000         -189.38       -0.00        0.00
  -0.00000000  -0.00128736   0.00000000           -0.00     -189.38        0.00
   0.00000000   0.00000000  -0.00445056            0.00        0.00     -654.70

     kinetic stress (kbar)  21386.14      0.00      0.00
                                0.00  21386.14      0.00
                               -0.00      0.00  21352.30

     local   stress (kbar) -18796.35      0.04     -0.00
                                0.04 -18796.70     -0.00
                               -0.00     -0.00  -5729.68

     nonloc. stress (kbar)  12305.64      0.00     -0.00
                                0.00  12305.65     -0.00
                                0.00      0.00  12357.39

     hartree stress (kbar)  24594.44     -0.03      0.00
                               -0.03  24594.61      0.00
                                0.00      0.00  20110.80

     exc-cor stress (kbar)   -918.43     -0.00      0.00
                               -0.00   -918.43      0.00
                                0.00      0.00   -924.05

     corecor stress (kbar)  -6387.54      0.00     -0.00
                                0.00  -6387.54      0.00
                               -0.00      0.00  -6387.35

     ewald   stress (kbar) -32373.21      0.03     -0.00
                                0.03 -32373.18     -0.00
                               -0.00     -0.00 -41434.11

     hubbard stress (kbar)      0.00      0.00      0.00
                                0.00      0.00      0.00
                                0.00      0.00      0.00

     DFT-D   stress (kbar)      0.00      0.00      0.00
                                0.00      0.00      0.00
                                0.00      0.00      0.00

     XDM     stress (kbar)      0.00      0.00      0.00
                                0.00      0.00      0.00
                                0.00      0.00      0.00

     dft-nl  stress (kbar)      0.00      0.00      0.00
                                0.00      0.00      0.00
                                0.00      0.00      0.00

     TS-vdW  stress (kbar)      0.00      0.00      0.00
                                0.00      0.00      0.00
                                0.00      0.00      0.00

[...]

                                0.00      0.00      0.00

     Writing all to output data dir new_calculations/myprefix.save/

     General routines

     Parallel routines

   This run was terminated on:   7:49:58  21May2023

   JOB DONE.