     Program PWSCF v.7.0 starts on 21May2023 at  8:36:34

     Reading input from espresso_24554.pwi
Warning: card &CELL ignored
Warning: card / ignored

     Current dimensions of program PWSCF are:
     Max number of different atomic species (ntypx) = 10
     Max number of k-points (npk) =  40000
     Max angular momentum in pseudopotentials (lmaxx) =  4

     gamma-point specific algorithms are used
     Message from routine setup:
     using ibrav=0 with symmetry is DISCOURAGED, use correct ibrav instead

     Subspace diagonalization in iterative solution of the eigenvalue problem:
     a serial algorithm will be used

     Using Slab Decomposition

     bravais-lattice index     =            0
     lattice parameter (alat)  =      11.6654  a.u.
     unit-cell volume          =    1122.4981 (a.u.)^3
     number of atoms/cell      =            9
     number of atomic types    =            3
     number of electrons       =        74.00
     number of Kohn-Sham states=           44
     kinetic-energy cutoff     =      30.0000  Ry
     charge density cutoff     =     240.0000  Ry
     scf convergence threshold =      1.0E-06
     mixing beta               =       0.7000
     number of iterations used =            8  plain     mixing
     Exchange-correlation=  SLA  PW   PBX  PBC
                           (   1   4   3   4   0   0   0)

     celldm(1)=  11.665415  celldm(2)=   0.000000  celldm(3)=   0.000000
     celldm(4)=   0.000000  celldm(5)=   0.000000  celldm(6)=   0.000000

     crystal axes: (cart. coord. in units of alat)
               a(1) = (   1.000000   0.000000   0.000000 )
               a(2) = (   0.500000   0.866025   0.000000 )
               a(3) = (   0.500000   0.288675   0.816497 )

     reciprocal axes: (cart. coord. in units 2 pi/alat)
               b(1) = (  1.000000 -0.577350 -0.408248 )
               b(2) = (  0.000000  1.154701 -0.408248 )
               b(3) = (  0.000000  0.000000  1.224745 )

     PseudoPot. # 1 for Rb read from file:
     /home/pragov/projects/rrg-bengioy-ad/pragov/crystal_structure_design/SSSP/Rb_ONCV_PBE-1.0.oncvpsp.upf
     MD5 check sum: 55a5172d6bfbce6759a58e35d43f6aa9
     Pseudo is Norm-conserving, Zval =  9.0
     Generated using ONCVPSP code by D. R. Hamann
     Using radial grid of 2308 points,  6 beta functions with:
                l(1) =   0
                l(2) =   0
                l(3) =   1
                l(4) =   1
                l(5) =   2
                l(6) =   2

     PseudoPot. # 2 for Ge read from file:
     /home/pragov/projects/rrg-bengioy-ad/pragov/crystal_structure_design/SSSP/ge_pbe_v1.4.uspp.F.UPF
     MD5 check sum: 9c9eaa91e581c3f09632fb3098b2c6b2
     Pseudo is Ultrasoft + core correction, Zval = 14.0
     Generated by new atomic code, or converted to UPF format
     Using radial grid of  873 points,  6 beta functions with:
                l(1) =   0
                l(2) =   0
                l(3) =   1
                l(4) =   1
                l(5) =   2
                l(6) =   2
     Q(r) pseudized with  8 coefficients,  rinner =    1.400   1.400   1.400
                                                       1.400   1.400

     PseudoPot. # 3 for F  read from file:
     /home/pragov/projects/rrg-bengioy-ad/pragov/crystal_structure_design/SSSP/f_pbe_v1.4.uspp.F.UPF
     MD5 check sum: 4c38b6a325caf53ec0e86aed9459de46
     Pseudo is Ultrasoft, Zval =  7.0
     Generated by new atomic code, or converted to UPF format
     Using radial grid of  799 points,  4 beta functions with:
                l(1) =   0
                l(2) =   0
                l(3) =   1
                l(4) =   1
     Q(r) pseudized with  8 coefficients,  rinner =    0.950   0.950   0.950

     atomic species   valence    mass     pseudopotential
        Rb             9.00    85.46780     Rb( 1.00)
        Ge            14.00    72.63000     Ge( 1.00)
        F              7.00    18.99840     F ( 1.00)

     12 Sym. Ops., with inversion, found

                                    s                        frac. trans.

      isym =  1     identity

 cryst.   s( 1) = (     1          0          0      )
                  (     0          1          0      )
                  (     0          0          1      )

 cart.    s( 1) = (  1.0000000  0.0000000  0.0000000 )
                  (  0.0000000  1.0000000 -0.0000000 )
                  (  0.0000000  0.0000000  1.0000000 )

      isym =  2     180 deg rotation - cart. axis [1,0,0]

[...]

      isym =  3     120 deg rotation - cryst. axis [0,0,1]

[...]

      isym =  6     180 deg rotation - cryst. axis [1,1,0]

[...]

      isym =  7     inversion

[...]

      isym =  8     inv. 180 deg rotation - cart. axis [1,0,0]

[...]

      isym =  9     inv. 120 deg rotation - cryst. axis [0,0,1]

 cryst.   s( 9) = (     1         -1          0      )
                  (     1          0          0      )
                  (     1          0         -1      )

 cart.    s( 9) = (  0.5000000  0.8660254 -0.0000000 )
                  ( -0.8660254  0.5000000 -0.0000000 )
                  (  0.0000000  0.0000000 -1.0000000 )

[...]

 cryst.   s(10) = (     0          1          0      )
                  (    -1          1          0      )
                  (     0          1         -1      )

 cart.    s(10) = (  0.5000000 -0.8660254  0.0000000 )
                  (  0.8660254  0.5000000 -0.0000000 )
                  (  0.0000000  0.0000000 -1.0000000 )

[...]

      isym = 12     inv. 180 deg rotation - cryst. axis [1,1,0]

 cryst.   s(12) = (     1         -1          0      )
                  (     0         -1          0      )
                  (     0         -1          1      )

 cart.    s(12) = (  0.5000000 -0.8660254  0.0000000 )
                  ( -0.8660254 -0.5000000  0.0000000 )
                  (  0.0000000  0.0000000  1.0000000 )

   Cartesian axes

     site n.     atom                  positions (alat units)
         1           Rb  tau(   1) = (   0.5000000   0.2886751   0.2041241  )
         2           Rb  tau(   2) = (   1.5000000   0.8660254   0.6123724  )
         3           Ge  tau(   3) = (   0.0000000   0.0000000   0.0000000  )
         4           F   tau(   4) = (   1.2895730   0.4101652   0.6446837  )
         5           F   tau(   5) = (   0.7104270   0.4101652   0.6446837  )
         6           F   tau(   6) = (   1.2895730   0.7445353   0.1718129  )
         7           F   tau(   7) = (   0.7104270   0.7445353   0.1718129  )
         8           F   tau(   8) = (   1.0000000   0.9117204   0.6446837  )
         9           F   tau(   9) = (   1.0000000   0.2429802   0.1718129  )

   Crystallographic axes

     site n.     atom                  positions (cryst. coord.)
         1           Rb  tau(   1) = (  0.2500000  0.2500000  0.2500000  )
         2           Rb  tau(   2) = (  0.7500000  0.7500000  0.7500000  )
         3           Ge  tau(   3) = (  0.0000000  0.0000000  0.0000000  )
         4           F   tau(   4) = (  0.7895730  0.2104270  0.7895730  )
         5           F   tau(   5) = (  0.2104270  0.2104270  0.7895730  )
         6           F   tau(   6) = (  0.7895730  0.7895730  0.2104270  )
         7           F   tau(   7) = (  0.2104270  0.7895730  0.2104270  )
         8           F   tau(   8) = (  0.2104270  0.7895730  0.7895730  )
         9           F   tau(   9) = (  0.7895730  0.2104270  0.2104270  )

     number of k points=     1  Methfessel-Paxton smearing, width (Ry)=  0.0010
                       cart. coord. in units 2pi/alat
        k(    1) = (   0.0000000   0.0000000   0.0000000), wk =   2.0000000

                       cryst. coord.
        k(    1) = (   0.0000000   0.0000000   0.0000000), wk =   2.0000000

     Initial potential from superposition of free atoms

     starting charge      73.9496, renormalised to      74.0000
     Starting wfcs are   43 randomized atomic wfcs +    1 random wfcs

     Self-consistent Calculation

     iteration #  1     ecut=    30.00 Ry     beta= 0.70
     Davidson diagonalization with overlap

     ethr =  1.00E-02,  avg # of iterations =  4.0

     total energy              =    -603.38466791 Ry
     estimated scf accuracy    <       1.02868037 Ry

[...]

     total energy              =    -603.82351673 Ry
     estimated scf accuracy    <       0.00000426 Ry

     iteration #  7     ecut=    30.00 Ry     beta= 0.70
     Davidson diagonalization with overlap

     ethr =  5.76E-09,  avg # of iterations =  2.0

     End of self-consistent calculation

          k = 0.0000 0.0000 0.0000 (  1560 PWs)   bands (ev):

   -22.0989 -22.0987 -22.0931 -22.0277 -21.4593 -21.4593 -21.4593 -20.3283
   -19.4799 -19.4780 -19.4775 -18.4443 -18.4430  -6.3443  -6.3443  -6.3442
    -6.1581  -6.1581  -6.1581  -5.5848  -2.5900  -2.5889  -2.5886  -1.0269
    -1.0267  -1.0259  -0.3945  -0.3931  -0.1291  -0.1289  -0.1280  -0.0184
    -0.0183  -0.0181   0.5038   0.5040   0.5050   6.2922   9.6978  10.1687
    10.1687  10.3895  10.3897  10.3898

     occupation numbers
     1.0000   1.0000   1.0000   1.0000   1.0000   1.0000   1.0000   1.0000
     1.0000   1.0000   1.0000   1.0000   1.0000   1.0000   1.0000   1.0000
     1.0000   1.0000   1.0000   1.0000   1.0000   1.0000   1.0000   1.0000
     1.0000   1.0000   1.0000   1.0000   1.0000   1.0000   1.0000   1.0000
     1.0000   1.0000   1.0000   1.0000   1.0000  -0.0000  -0.0000  -0.0000
    -0.0000  -0.0000  -0.0000  -0.0000

     the Fermi energy is     2.3356 ev

!    total energy              =    -603.82351650 Ry
     estimated scf accuracy    <       0.00000088 Ry
     smearing contrib. (-TS)   =       0.00000000 Ry
     internal energy E=F+TS    =    -603.82351650 Ry

     The total energy is F=E-TS. E is the sum of the following terms:
     one-electron contribution =    -463.92906924 Ry
     hartree contribution      =     273.39820355 Ry
     xc contribution           =    -130.02419681 Ry
     ewald contribution        =    -283.26845401 Ry

     convergence has been achieved in   7 iterations

     Forces acting on atoms (cartesian axes, Ry/au):

     atom    1 type  1   force =    -0.00000000   -0.00000000    0.00000146
     atom    2 type  1   force =     0.00000000    0.00000000   -0.00000146
     atom    3 type  2   force =    -0.00000000    0.00000000   -0.00000000
     atom    4 type  3   force =     0.01195286   -0.00690098    0.00975991
     atom    5 type  3   force =    -0.01195286   -0.00690098    0.00975991
     atom    6 type  3   force =     0.01195286    0.00690098   -0.00975991
     atom    7 type  3   force =    -0.01195286    0.00690098   -0.00975991
     atom    8 type  3   force =     0.00000000    0.01380197    0.00975991
     atom    9 type  3   force =     0.00000000   -0.01380197   -0.00975991
     The non-local contrib.  to forces
     atom    1 type  1   force =    -0.00000000   -0.00000000    0.00000005
     atom    2 type  1   force =     0.00000000    0.00000000   -0.00000005
     atom    3 type  2   force =    -0.00000000    0.00000000    0.00000000
     atom    4 type  3   force =     0.89393366   -0.51611284    0.72989372
     atom    5 type  3   force =    -0.89393366   -0.51611284    0.72989372
     atom    6 type  3   force =     0.89393366    0.51611284   -0.72989372
     atom    7 type  3   force =    -0.89393366    0.51611284   -0.72989372
     atom    8 type  3   force =     0.00000000    1.03222568    0.72989372
     atom    9 type  3   force =     0.00000000   -1.03222568   -0.72989372
     The ionic contribution  to forces
     atom    1 type  1   force =     0.00000000    0.00000000    0.00000000
     atom    2 type  1   force =    -0.00000000   -0.00000000    0.00000000
     atom    3 type  2   force =    -0.00000000    0.00000000   -0.00000000
     atom    4 type  3   force =   -13.72557127    7.92446227  -11.20688201
     atom    5 type  3   force =    13.72557127    7.92446227  -11.20688201
     atom    6 type  3   force =   -13.72557127   -7.92446227   11.20688201
     atom    7 type  3   force =    13.72557127   -7.92446227   11.20688201
     atom    8 type  3   force =     0.00000000  -15.84892453  -11.20688201
     atom    9 type  3   force =    -0.00000000   15.84892453   11.20688201
     The local contribution  to forces
     atom    1 type  1   force =    -0.00000363    0.00000403   -0.00000393
     atom    2 type  1   force =    -0.00000288   -0.00000430    0.00000150
     atom    3 type  2   force =    -0.00001600   -0.00000747    0.00000468
     atom    4 type  3   force =    12.84423861   -7.41563396   10.48728597
     atom    5 type  3   force =   -12.84423312   -7.41562287   10.48726466
     atom    6 type  3   force =    12.84425580    7.41563033  -10.48729378
     atom    7 type  3   force =   -12.84424594    7.41561783  -10.48727227
     atom    8 type  3   force =    -0.00000851   14.83125875   10.48729464
     atom    9 type  3   force =    -0.00001230  -14.83126359  -10.48727598
     The core correction contribution to forces
     atom    1 type  1   force =     0.00000000    0.00000000    0.00000000
     atom    2 type  1   force =     0.00000000    0.00000000    0.00000000
     atom    3 type  2   force =    -0.00000391   -0.00000227    0.00000027
     atom    4 type  3   force =     0.00000000    0.00000000    0.00000000
     atom    5 type  3   force =     0.00000000    0.00000000    0.00000000
     atom    6 type  3   force =     0.00000000    0.00000000    0.00000000
     atom    7 type  3   force =     0.00000000    0.00000000    0.00000000
     atom    8 type  3   force =     0.00000000    0.00000000    0.00000000
     atom    9 type  3   force =     0.00000000    0.00000000    0.00000000
     The Hubbard contrib.    to forces
     atom    1 type  1   force =     0.00000000    0.00000000    0.00000000
     atom    2 type  1   force =     0.00000000    0.00000000    0.00000000
     atom    3 type  2   force =     0.00000000    0.00000000    0.00000000
     atom    4 type  3   force =     0.00000000    0.00000000    0.00000000
     atom    5 type  3   force =     0.00000000    0.00000000    0.00000000
     atom    6 type  3   force =     0.00000000    0.00000000    0.00000000
     atom    7 type  3   force =     0.00000000    0.00000000    0.00000000
     atom    8 type  3   force =     0.00000000    0.00000000    0.00000000
     atom    9 type  3   force =     0.00000000    0.00000000    0.00000000
     The SCF correction term to forces
     atom    1 type  1   force =     0.00000547    0.00000013    0.00000128
     atom    2 type  1   force =     0.00000301    0.00000364   -0.00000696
     atom    3 type  2   force =    -0.00003452   -0.00003529   -0.00000153
     atom    4 type  3   force =    -0.00061010    0.00035139   -0.00050067
     atom    5 type  3   force =     0.00064836    0.00037493   -0.00052604
     atom    6 type  3   force =    -0.00069475   -0.00039888    0.00056209
     atom    7 type  3   force =     0.00059475   -0.00034203    0.00048128
     atom    8 type  3   force =    -0.00000349   -0.00080384   -0.00057518
     atom    9 type  3   force =     0.00000455    0.00079006    0.00055281

     Total force =     0.041407     Total SCF correction =     0.002270

     Computing stress (Cartesian axis) and pressure

          total   stress  (Ry/bohr**3)                   (kbar)     P=      -66.69
  -0.00045335   0.00000000   0.00000000          -66.69        0.00        0.00
   0.00000000  -0.00045335   0.00000000            0.00      -66.69        0.00
   0.00000000   0.00000000  -0.00045335            0.00        0.00      -66.69

     kinetic stress (kbar)  13295.06      0.00      0.00
                                0.00  13295.06     -0.00
                                0.00     -0.00  13295.06

     local   stress (kbar)  -9629.41      0.09     -0.13
                                0.09  -9629.26      0.11
                               -0.13      0.11  -9629.34

     nonloc. stress (kbar)   1011.90      0.00      0.00
                                0.00   1011.90     -0.00
                                0.00     -0.00   1011.90

     hartree stress (kbar)  11943.14     -0.07      0.10
                               -0.07  11943.02     -0.09
                                0.10     -0.09  11943.08

     exc-cor stress (kbar)   -286.49      0.00     -0.00
                                0.00   -286.49      0.00
                               -0.00      0.00   -286.49

     corecor stress (kbar)  -4026.66     -0.00      0.00
                               -0.00  -4026.66     -0.00
                                0.00     -0.00  -4026.66

     ewald   stress (kbar) -12374.25      0.00      0.00
                                0.00 -12374.25     -0.00
                                0.00     -0.00 -12374.25

     hubbard stress (kbar)      0.00      0.00      0.00
                                0.00      0.00      0.00
                                0.00      0.00      0.00

     DFT-D   stress (kbar)      0.00      0.00      0.00
                                0.00      0.00      0.00
                                0.00      0.00      0.00

     XDM     stress (kbar)      0.00      0.00      0.00
                                0.00      0.00      0.00
                                0.00      0.00      0.00

     dft-nl  stress (kbar)      0.00      0.00      0.00
                                0.00      0.00      0.00
                                0.00      0.00      0.00

     TS-vdW  stress (kbar)      0.00      0.00      0.00
                                0.00      0.00      0.00
                                0.00      0.00      0.00

[...]

                                0.00      0.00      0.00

     Writing all to output data dir new_calculations/myprefix.save/

     General routines

     Parallel routines

   This run was terminated on:   8:36:48  21May2023

   JOB DONE.