     Program PWSCF v.7.0 starts on 20May2023 at  0:23:50

     Reading input from espresso_36.pwi
Warning: card &CELL ignored
Warning: card / ignored

     Current dimensions of program PWSCF are:
     Max number of different atomic species (ntypx) = 10
     Max number of k-points (npk) =  40000
     Max angular momentum in pseudopotentials (lmaxx) =  4

     gamma-point specific algorithms are used
     Message from routine setup:
     using ibrav=0 with symmetry is DISCOURAGED, use correct ibrav instead

     Subspace diagonalization in iterative solution of the eigenvalue problem:
     a serial algorithm will be used

     Using Slab Decomposition

     bravais-lattice index     =            0
     lattice parameter (alat)  =      18.8798  a.u.
     unit-cell volume          =    2603.4858 (a.u.)^3
     number of atoms/cell      =           14
     number of atomic types    =            3
     number of electrons       =       120.00
     number of Kohn-Sham states=           72
     kinetic-energy cutoff     =      30.0000  Ry
     charge density cutoff     =     240.0000  Ry
     scf convergence threshold =      1.0E-06
     mixing beta               =       0.7000
     number of iterations used =            8  plain     mixing
     Exchange-correlation=  SLA  PW   PBX  PBC
                           (   1   4   3   4   0   0   0)

     celldm(1)=  18.879829  celldm(2)=   0.000000  celldm(3)=   0.000000
     celldm(4)=   0.000000  celldm(5)=   0.000000  celldm(6)=   0.000000

     crystal axes: (cart. coord. in units of alat)
               a(1) = (   1.000000   0.000000   0.000000 )
               a(2) = (   0.000000   0.579520   0.000000 )
               a(3) = (   0.000000   0.095726   0.667564 )

     reciprocal axes: (cart. coord. in units 2 pi/alat)
               b(1) = (  1.000000  0.000000  0.000000 )
               b(2) = (  0.000000  1.725567 -0.247438 )
               b(3) = (  0.000000  0.000000  1.497984 )

     PseudoPot. # 1 for Tl read from file:
     /home/pragov/projects/rrg-bengioy-ad/pragov/crystal_structure_design/SSSP/Tl_pbe_v1.2.uspp.F.UPF
     MD5 check sum: b76cf1f7e72655a2b2c53cf6385d7059
     Pseudo is Ultrasoft + core correction, Zval = 13.0
     Generated by new atomic code, or converted to UPF format
     Using radial grid of  899 points,  6 beta functions with:
                l(1) =   0
                l(2) =   0
                l(3) =   1
                l(4) =   1
                l(5) =   2
                l(6) =   2
     Q(r) pseudized with  6 coefficients,  rinner =    1.100   1.100   1.100
                                                       1.100   1.100

     PseudoPot. # 2 for B  read from file:
     /home/pragov/projects/rrg-bengioy-ad/pragov/crystal_structure_design/SSSP/b_pbe_v1.4.uspp.F.UPF
     MD5 check sum: cc6de2960df11db49a60e589f9ebb39b
     Pseudo is Ultrasoft + core correction, Zval =  3.0
     Generated by new atomic code, or converted to UPF format
     Using radial grid of  781 points,  4 beta functions with:
                l(1) =   0
                l(2) =   0
                l(3) =   1
                l(4) =   1
     Q(r) pseudized with  8 coefficients,  rinner =    1.100   1.100   1.100

     PseudoPot. # 3 for S  read from file:
     /home/pragov/projects/rrg-bengioy-ad/pragov/crystal_structure_design/SSSP/s_pbe_v1.4.uspp.F.UPF
     MD5 check sum: 88d86576ff6df21479756cfb9bdac1df
     Pseudo is Ultrasoft + core correction, Zval =  6.0
     Generated by new atomic code, or converted to UPF format
     Using radial grid of  907 points,  6 beta functions with:
                l(1) =   0
                l(2) =   0
                l(3) =   1
                l(4) =   1
                l(5) =   2
                l(6) =   2
     Q(r) pseudized with  8 coefficients,  rinner =    1.300   1.300   1.300
                                                       1.300   1.300

     atomic species   valence    mass     pseudopotential
        Tl            13.00   204.38000     Tl( 1.00)
        B              3.00    10.81000     B ( 1.00)
        S              6.00    32.06000     S ( 1.00)

      4 Sym. Ops., with inversion, found ( 2 have fractional translation)

                                    s                        frac. trans.

      isym =  1     identity

 cryst.   s( 1) = (     1          0          0      )
                  (     0          1          0      )
                  (     0          0          1      )

 cart.    s( 1) = (  1.0000000  0.0000000  0.0000000 )
                  (  0.0000000  1.0000000  0.0000000 )
                  (  0.0000000  0.0000000  1.0000000 )

      isym =  2     180 deg rotation - cart. axis [1,0,0]

 cryst.   s( 2) = (     1          0          0      )    f =( -0.5000000 )
                  (     0         -1          0      )       (  0.0000000 )
                  (     0          0         -1      )       ( -0.0000000 )

 cart.    s( 2) = (  1.0000000  0.0000000  0.0000000 )    f =( -0.5000000 )
                  (  0.0000000 -1.0000000 -0.0000000 )       (  0.0000000 )
                  (  0.0000000  0.0000000 -1.0000000 )       ( -0.0000000 )

      isym =  3     inversion

 cryst.   s( 3) = (    -1          0          0      )
                  (     0         -1          0      )
                  (     0          0         -1      )

 cart.    s( 3) = ( -1.0000000  0.0000000  0.0000000 )
                  (  0.0000000 -1.0000000 -0.0000000 )
                  (  0.0000000  0.0000000 -1.0000000 )

      isym =  4     inv. 180 deg rotation - cart. axis [1,0,0]

 cryst.   s( 4) = (    -1          0          0      )    f =(  0.5000000 )
                  (     0          1          0      )       (  0.0000000 )
                  (     0          0          1      )       (  0.0000000 )

 cart.    s( 4) = ( -1.0000000  0.0000000  0.0000000 )    f =(  0.5000000 )
                  (  0.0000000  1.0000000  0.0000000 )       (  0.0000000 )
                  (  0.0000000  0.0000000  1.0000000 )       (  0.0000000 )

   Cartesian axes

     site n.     atom                  positions (alat units)
         1           Tl  tau(   1) = (   0.0484900   0.4780943   0.4481023  )
         2           Tl  tau(   2) = (   0.5484900   0.1971510   0.2194616  )
         3           Tl  tau(   3) = (   0.9515100   0.1971510   0.2194616  )
         4           Tl  tau(   4) = (   0.4515100   0.4780943   0.4481023  )
         5           Tl  tau(   5) = (   0.2500000   0.1873707   0.6617314  )
         6           Tl  tau(   6) = (   0.7500000   0.4878746   0.0058325  )
         7           B   tau(   7) = (   0.2500000   0.3797719   0.1740586  )
         8           B   tau(   8) = (   0.7500000   0.2954734   0.4935053  )
         9           S   tau(   9) = (   0.5905330   0.2238259   0.5472536  )
        10           S   tau(  10) = (   0.0905330   0.4514194   0.1203104  )
        11           S   tau(  11) = (   0.4094670   0.4514194   0.1203104  )
        12           S   tau(  12) = (   0.9094670   0.2238259   0.5472536  )
        13           S   tau(  13) = (   0.7500000   0.4403690   0.3818252  )
        14           S   tau(  14) = (   0.2500000   0.2348763   0.2857387  )

   Crystallographic axes

     site n.     atom                  positions (cryst. coord.)
         1           Tl  tau(   1) = (  0.0484900  0.7141060  0.6712500  )
         2           Tl  tau(   2) = (  0.5484900  0.2858940  0.3287500  )
         3           Tl  tau(   3) = (  0.9515100  0.2858940  0.3287500  )
         4           Tl  tau(   4) = (  0.4515100  0.7141060  0.6712500  )
         5           Tl  tau(   5) = (  0.2500000  0.1595830  0.9912630  )
         6           Tl  tau(   6) = (  0.7500000  0.8404170  0.0087370  )
         7           B   tau(   7) = (  0.2500000  0.6122530  0.2607370  )
         8           B   tau(   8) = (  0.7500000  0.3877470  0.7392630  )
         9           S   tau(   9) = (  0.5905330  0.2508150  0.8197770  )
        10           S   tau(  10) = (  0.0905330  0.7491850  0.1802230  )
        11           S   tau(  11) = (  0.4094670  0.7491850  0.1802230  )
        12           S   tau(  12) = (  0.9094670  0.2508150  0.8197770  )
        13           S   tau(  13) = (  0.7500000  0.6654080  0.5719680  )
        14           S   tau(  14) = (  0.2500000  0.3345920  0.4280320  )

     number of k points=     1  Methfessel-Paxton smearing, width (Ry)=  0.0010
                       cart. coord. in units 2pi/alat
        k(    1) = (   0.0000000   0.0000000   0.0000000), wk =   2.0000000

                       cryst. coord.
        k(    1) = (   0.0000000   0.0000000   0.0000000), wk =   2.0000000

     Check: negative core charge=   -0.000005

     Initial potential from superposition of free atoms

     starting charge     119.9700, renormalised to     120.0000

     negative rho (up, down):  2.990E-01 0.000E+00
     Starting wfcs are   86 randomized atomic wfcs

     Self-consistent Calculation

     iteration #  1     ecut=    30.00 Ry     beta= 0.70
     Davidson diagonalization with overlap

     ethr =  1.00E-02,  avg # of iterations =  2.0

     Threshold (ethr) on eigenvalues was too large:
     Diagonalizing with lowered threshold

     Davidson diagonalization with overlap

[...]

     negative rho (up, down):  2.987E-01 0.000E+00

     total energy              =   -1027.41266918 Ry
     estimated scf accuracy    <       0.78358141 Ry

[...]

     total energy              =   -1027.74383917 Ry
     estimated scf accuracy    <       0.00000270 Ry

     iteration #  9     ecut=    30.00 Ry     beta= 0.70
     Davidson diagonalization with overlap

     ethr =  2.25E-09,  avg # of iterations =  5.0

[...]

     End of self-consistent calculation

          k = 0.0000 0.0000 0.0000 (  3622 PWs)   bands (ev):

    -8.1289  -8.0178  -6.7028  -6.6046  -6.4537  -6.4435  -5.1071  -5.0888
    -5.0857  -5.0826  -5.0806  -5.0608  -5.0491  -5.0316  -5.0166  -5.0161
    -5.0122  -5.0044  -5.0013  -4.9910  -4.9670  -4.9599  -4.9512  -4.9505
    -4.9403  -4.9210  -4.9113  -4.9070  -4.9041  -4.9021  -4.9000  -4.8782
    -4.8732  -4.8306  -4.8174  -4.7822  -1.0300  -0.0601   0.0178   0.1032
     0.3413   0.8726   1.1104   1.1962   1.3001   1.6201   1.9202   2.2691
     2.5839   2.5882   3.4325   3.4775   3.9629   4.1207   4.1469   4.2364
     4.2920   4.4603   4.5086   5.1133   7.4705   7.4915   7.9900   8.1711
     8.4721   8.6355   8.7742   8.7911   8.9802   9.4173   9.7230  10.1792

     occupation numbers
     1.0000   1.0000   1.0000   1.0000   1.0000   1.0000   1.0000   1.0000
     1.0000   1.0000   1.0000   1.0000   1.0000   1.0000   1.0000   1.0000
     1.0000   1.0000   1.0000   1.0000   1.0000   1.0000   1.0000   1.0000
     1.0000   1.0000   1.0000   1.0000   1.0000   1.0000   1.0000   1.0000
     1.0000   1.0000   1.0000   1.0000   1.0000   1.0000   1.0000   1.0000
     1.0000   1.0000   1.0000   1.0000   1.0000   1.0000   1.0000   1.0000
     1.0000   1.0000   1.0000   1.0000   1.0000   1.0000   1.0000   1.0000
     1.0000   1.0000   1.0000   1.0000  -0.0000  -0.0000  -0.0000  -0.0000
    -0.0000  -0.0000  -0.0000  -0.0000  -0.0000  -0.0000  -0.0000  -0.0000

     the Fermi energy is     5.6702 ev

!    total energy              =   -1027.74384048 Ry
     estimated scf accuracy    <       0.00000042 Ry
     smearing contrib. (-TS)   =       0.00000000 Ry
     internal energy E=F+TS    =   -1027.74384048 Ry

     The total energy is F=E-TS. E is the sum of the following terms:
     one-electron contribution =    -213.74598904 Ry
     hartree contribution      =     182.83238845 Ry
     xc contribution           =    -428.69046291 Ry
     ewald contribution        =    -568.13977697 Ry

     convergence has been achieved in   9 iterations

     negative rho (up, down):  2.982E-01 0.000E+00

     Forces acting on atoms (cartesian axes, Ry/au):

     atom    1 type  1   force =    -0.00051893    0.01033943    0.00698489
     atom    2 type  1   force =    -0.00051893   -0.01033943   -0.00698489
     atom    3 type  1   force =     0.00051893   -0.01033943   -0.00698489
     atom    4 type  1   force =     0.00051893    0.01033943    0.00698489
     atom    5 type  1   force =     0.00000000    0.01952319    0.00968756
     atom    6 type  1   force =     0.00000000   -0.01952319   -0.00968756
     atom    7 type  2   force =     0.00000000   -0.01225775    0.00488329
     atom    8 type  2   force =     0.00000000    0.01225775   -0.00488329
     atom    9 type  3   force =    -0.02295479   -0.00105324   -0.00428941
     atom   10 type  3   force =    -0.02295479    0.00105324    0.00428941
     atom   11 type  3   force =     0.02295479    0.00105324    0.00428941
     atom   12 type  3   force =     0.02295479   -0.00105324   -0.00428941
     atom   13 type  3   force =     0.00000000    0.01705446    0.00436959
     atom   14 type  3   force =     0.00000000   -0.01705446   -0.00436959
     The non-local contrib.  to forces
     atom    1 type  1   force =    -0.14004816   -0.11850457   -0.03470778
     atom    2 type  1   force =    -0.14004816    0.11850457    0.03470778
     atom    3 type  1   force =     0.14004816    0.11850457    0.03470778
     atom    4 type  1   force =     0.14004816   -0.11850457   -0.03470778
     atom    5 type  1   force =     0.00000000   -0.14729092    0.11352451
     atom    6 type  1   force =     0.00000000    0.14729092   -0.11352451
     atom    7 type  2   force =     0.00000000   -0.01065795   -0.00695684
     atom    8 type  2   force =    -0.00000000    0.01065795    0.00695684
     atom    9 type  3   force =     0.18509704    0.04455422   -0.01460824
     atom   10 type  3   force =     0.18509704   -0.04455422    0.01460824
     atom   11 type  3   force =    -0.18509704   -0.04455422    0.01460824
     atom   12 type  3   force =    -0.18509704    0.04455422   -0.01460824
     atom   13 type  3   force =     0.00000000   -0.08716604    0.10723695
     atom   14 type  3   force =     0.00000000    0.08716604   -0.10723695
     The ionic contribution  to forces
     atom    1 type  1   force =     2.48920975    2.26812050    0.74536107
     atom    2 type  1   force =     2.48920975   -2.26812050   -0.74536107
     atom    3 type  1   force =    -2.48920975   -2.26812050   -0.74536107
     atom    4 type  1   force =    -2.48920975    2.26812050    0.74536107
     atom    5 type  1   force =     0.00000000    0.75669255   -3.18042260
     atom    6 type  1   force =     0.00000000   -0.75669255    3.18042260
     atom    7 type  2   force =     0.00000000    0.28329335   -0.15175017
     atom    8 type  2   force =     0.00000000   -0.28329335    0.15175017
     atom    9 type  3   force =    -2.24620552   -1.18649523    1.06432650
     atom   10 type  3   force =    -2.24620552    1.18649523   -1.06432650
     atom   11 type  3   force =     2.24620552    1.18649523   -1.06432650
     atom   12 type  3   force =     2.24620552   -1.18649523    1.06432650
     atom   13 type  3   force =     0.00000000    2.64145746   -3.04689563
     atom   14 type  3   force =    -0.00000000   -2.64145746    3.04689563
     The local contribution  to forces
     atom    1 type  1   force =    -2.35318916   -2.14337510   -0.70572779
     atom    2 type  1   force =    -2.35178770    2.14346258    0.70567761
     atom    3 type  1   force =     2.35146456    2.14339392    0.70568916
     atom    4 type  1   force =     2.35360254   -2.14347204   -0.70571243
     atom    5 type  1   force =     0.00051876   -0.59425263    3.07373770
     atom    6 type  1   force =    -0.00057533    0.59453100   -3.07383494
     atom    7 type  2   force =     0.00008882   -0.28516154    0.16330167
     atom    8 type  2   force =    -0.00009938    0.28508249   -0.16328931
     atom    9 type  3   force =     2.04759329    1.14283750   -1.05425128
     atom   10 type  3   force =     2.04699812   -1.14286697    1.05421049
     atom   11 type  3   force =    -2.04668850   -1.14281238    1.05418634
     atom   12 type  3   force =    -2.04785276    1.14277462   -1.05427469
     atom   13 type  3   force =    -0.00026225   -2.54102288    2.94926233
     atom   14 type  3   force =     0.00027467    2.54095426   -2.94923939
     The core correction contribution to forces
     atom    1 type  1   force =     0.00275490    0.00399786    0.00233250
     atom    2 type  1   force =     0.00277136   -0.00399884   -0.00233543
     atom    3 type  1   force =    -0.00277461   -0.00400306   -0.00233296
     atom    4 type  1   force =    -0.00274775    0.00399832    0.00233246
     atom    5 type  1   force =     0.00000507    0.00447702    0.00282301
     atom    6 type  1   force =    -0.00000570   -0.00447469   -0.00282173
     atom    7 type  2   force =    -0.00000221    0.00026366    0.00018154
     atom    8 type  2   force =     0.00000091   -0.00026506   -0.00018080
     atom    9 type  3   force =    -0.00899808   -0.00186069    0.00034209
     atom   10 type  3   force =    -0.00900411    0.00185881   -0.00034350
     atom   11 type  3   force =     0.00900854    0.00186212   -0.00034482
     atom   12 type  3   force =     0.00899836   -0.00186042    0.00034111
     atom   13 type  3   force =    -0.00000239    0.00357820   -0.00499675
     atom   14 type  3   force =     0.00000234   -0.00358145    0.00499882
     The Hubbard contrib.    to forces
     atom    1 type  1   force =     0.00000000    0.00000000    0.00000000
     atom    2 type  1   force =     0.00000000    0.00000000    0.00000000
     atom    3 type  1   force =     0.00000000    0.00000000    0.00000000
     atom    4 type  1   force =     0.00000000    0.00000000    0.00000000
     atom    5 type  1   force =     0.00000000    0.00000000    0.00000000
     atom    6 type  1   force =     0.00000000    0.00000000    0.00000000
     atom    7 type  2   force =     0.00000000    0.00000000    0.00000000
     atom    8 type  2   force =     0.00000000    0.00000000    0.00000000
     atom    9 type  3   force =     0.00000000    0.00000000    0.00000000
     atom   10 type  3   force =     0.00000000    0.00000000    0.00000000
     atom   11 type  3   force =     0.00000000    0.00000000    0.00000000
     atom   12 type  3   force =     0.00000000    0.00000000    0.00000000
     atom   13 type  3   force =     0.00000000    0.00000000    0.00000000
     atom   14 type  3   force =     0.00000000    0.00000000    0.00000000
     The SCF correction term to forces
     atom    1 type  1   force =     0.00078558    0.00008744   -0.00028185
     atom    2 type  1   force =    -0.00068727   -0.00017759    0.00035095
     atom    3 type  1   force =     0.00104000   -0.00014015    0.00028020
     atom    4 type  1   force =    -0.00121495    0.00019439   -0.00028697
     atom    5 type  1   force =    -0.00053568   -0.00012126    0.00002425
     atom    6 type  1   force =     0.00057537   -0.00019628    0.00007035
     atom    7 type  2   force =    -0.00012697   -0.00002102    0.00012540
     atom    8 type  2   force =     0.00012485    0.00004995   -0.00010185
     atom    9 type  3   force =    -0.00037324   -0.00007446   -0.00011568
     atom   10 type  3   force =     0.00011432    0.00010098    0.00013591
     atom   11 type  3   force =    -0.00036842    0.00009362    0.00013063
     atom   12 type  3   force =     0.00061829   -0.00002930   -0.00009717
     atom   13 type  3   force =     0.00024589    0.00017327   -0.00022073
     atom   14 type  3   force =    -0.00023836   -0.00017030    0.00022889

     Total force =     0.068758     Total SCF correction =     0.002424

     Computing stress (Cartesian axis) and pressure

     negative rho (up, down):  2.982E-01 0.000E+00
          total   stress  (Ry/bohr**3)                   (kbar)     P=      -14.13
   0.00008907   0.00000000   0.00000000           13.10        0.00        0.00
   0.00000000   0.00019004   0.00001891            0.00       27.96        2.78
   0.00000000   0.00001891  -0.00056717            0.00        2.78      -83.43

     kinetic stress (kbar)   4881.55      0.00      0.00
                                0.00   4894.88     33.87
                                0.00     33.87   4852.12

     local   stress (kbar)  -1342.68     -0.00     -0.01
                               -0.00   -456.46    433.60
                               -0.01    433.60    632.04

     nonloc. stress (kbar)   6301.86      0.00      0.00
                                0.00   6277.31    -23.93
                                0.00    -23.93   6271.07

     hartree stress (kbar)   3705.27      0.00      0.00
                                0.00   3474.80      2.93
                                0.00      2.93   3150.53

     exc-cor stress (kbar)  14286.71      0.00      0.00
                                0.00  14283.08     -4.46
                                0.00     -4.46  14282.75

     corecor stress (kbar) -17814.58     -0.00     -0.00
                               -0.00 -17811.24      3.13
                               -0.00      3.13 -17809.71

     ewald   stress (kbar) -10005.02      0.00     -0.00
                                0.00 -10634.42   -442.37
                               -0.00   -442.37 -11462.23

     hubbard stress (kbar)      0.00      0.00      0.00
                                0.00      0.00      0.00
                                0.00      0.00      0.00

     DFT-D   stress (kbar)      0.00      0.00      0.00
                                0.00      0.00      0.00
                                0.00      0.00      0.00

     XDM     stress (kbar)      0.00      0.00      0.00
                                0.00      0.00      0.00
                                0.00      0.00      0.00

     dft-nl  stress (kbar)      0.00      0.00      0.00
                                0.00      0.00      0.00
                                0.00      0.00      0.00

     TS-vdW  stress (kbar)      0.00      0.00      0.00
                                0.00      0.00      0.00
                                0.00      0.00      0.00

[...]

                                0.00      0.00      0.00

     Writing all to output data dir new_calculations/myprefix.save/

     General routines

     Parallel routines

   This run was terminated on:   0:24:21  20May2023

   JOB DONE.