     Program PWSCF v.7.0 starts on 20May2023 at  8: 6:51

     Reading input from espresso_10247.pwi
Warning: card &CELL ignored
Warning: card / ignored

     Current dimensions of program PWSCF are:
     Max number of different atomic species (ntypx) = 10
     Max number of k-points (npk) =  40000
     Max angular momentum in pseudopotentials (lmaxx) =  4
     file Ga.pbe-dn-kjpaw_psl.1.0.0.UPF: wavefunction(s)  4S renormalized

     gamma-point specific algorithms are used
     Message from routine setup:
     using ibrav=0 with symmetry is DISCOURAGED, use correct ibrav instead

     Subspace diagonalization in iterative solution of the eigenvalue problem:
     a serial algorithm will be used

     Using Slab Decomposition

     bravais-lattice index     =            0
     lattice parameter (alat)  =       8.4981  a.u.
     unit-cell volume          =     433.9613 (a.u.)^3
     number of atoms/cell      =            4
     number of atomic types    =            3
     number of electrons       =        55.00
     number of Kohn-Sham states=           34
     kinetic-energy cutoff     =      30.0000  Ry
     charge density cutoff     =     240.0000  Ry
     scf convergence threshold =      1.0E-06
     mixing beta               =       0.7000
     number of iterations used =            8  plain     mixing
     Exchange-correlation= SLA  PW   PBE  PBE
                           (   1   4   3   4   0   0   0)

     celldm(1)=   8.498103  celldm(2)=   0.000000  celldm(3)=   0.000000
     celldm(4)=   0.000000  celldm(5)=   0.000000  celldm(6)=   0.000000

     crystal axes: (cart. coord. in units of alat)
               a(1) = (   1.000000   0.000000   0.000000 )
               a(2) = (   0.500000   0.866025   0.000000 )
               a(3) = (   0.500000   0.288675   0.816497 )

     reciprocal axes: (cart. coord. in units 2 pi/alat)
               b(1) = (  1.000000 -0.577350 -0.408248 )
               b(2) = (  0.000000  1.154701 -0.408248 )
               b(3) = (  0.000000  0.000000  1.224745 )

     PseudoPot. # 1 for Hf read from file:
     /home/pragov/projects/rrg-bengioy-ad/pragov/crystal_structure_design/SSSP/Hf-sp.oncvpsp.upf
     MD5 check sum: 417ed15784afe83d2e06dacf143de3f8
     Pseudo is Norm-conserving + core correction, Zval = 12.0
     Generated using ONCVPSP code by D. R. Hamann
     Using radial grid of 1656 points,  8 beta functions with:
                l(1) =   0
                l(2) =   0
                l(3) =   1
                l(4) =   1
                l(5) =   2
                l(6) =   2
                l(7) =   3
                l(8) =   3

     PseudoPot. # 2 for Ga read from file:
     /home/pragov/projects/rrg-bengioy-ad/pragov/crystal_structure_design/SSSP/Ga.pbe-dn-kjpaw_psl.1.0.0.UPF
     MD5 check sum: a27b4342b1af7e5f338de752e9ed7044
     Pseudo is Projector augmented-wave + core cor, Zval = 13.0
     Generated using "atomic" code by A. Dal Corso  v.5.1
     Shape of augmentation charge: PSQ
     Using radial grid of 1205 points,  6 beta functions with:
                l(1) =   0
                l(2) =   0
                l(3) =   1
                l(4) =   1
                l(5) =   2
                l(6) =   2
     Q(r) pseudized with 0 coefficients

     PseudoPot. # 3 for Ir read from file:
     /home/pragov/projects/rrg-bengioy-ad/pragov/crystal_structure_design/SSSP/Ir_pbe_v1.2.uspp.F.UPF
     MD5 check sum: 8836f839c3459d2b385c504ce6d91f2c
     Pseudo is Ultrasoft + core correction, Zval = 15.0
     Generated by new atomic code, or converted to UPF format
     Using radial grid of  983 points,  7 beta functions with:
                l(1) =   0
                l(2) =   0
                l(3) =   1
                l(4) =   1
                l(5) =   1
                l(6) =   2
                l(7) =   2
     Q(r) pseudized with  8 coefficients,  rinner =    1.400   1.400   1.400
                                                       1.400   1.400

     atomic species   valence    mass     pseudopotential
        Hf            12.00   178.49000     Hf( 1.00)
        Ga            13.00    69.72300     Ga( 1.00)
        Ir            15.00   192.21700     Ir( 1.00)

     12 Sym. Ops., with inversion, found

                                    s                        frac. trans.

      isym =  1     identity

 cryst.   s( 1) = (     1          0          0      )
                  (     0          1          0      )
                  (     0          0          1      )

 cart.    s( 1) = (  1.0000000  0.0000000  0.0000000 )
                  (  0.0000000  1.0000000  0.0000000 )
                  (  0.0000000  0.0000000  1.0000000 )

      isym =  2     180 deg rotation - cart. axis [1,0,0]

[...]

      isym =  3     120 deg rotation - cryst. axis [0,0,1]

[...]

      isym =  6     180 deg rotation - cryst. axis [1,1,0]

[...]

      isym =  7     inversion

[...]

      isym =  8     inv. 180 deg rotation - cart. axis [1,0,0]

[...]

      isym =  9     inv. 120 deg rotation - cryst. axis [0,0,1]

 cryst.   s( 9) = (     1         -1          0      )
                  (     1          0          0      )
                  (     1          0         -1      )

 cart.    s( 9) = (  0.5000000  0.8660254 -0.0000000 )
                  ( -0.8660254  0.5000000 -0.0000000 )
                  (  0.0000000  0.0000000 -1.0000000 )

[...]

 cryst.   s(10) = (     0          1          0      )
                  (    -1          1          0      )
                  (     0          1         -1      )

 cart.    s(10) = (  0.5000000 -0.8660254  0.0000000 )
                  (  0.8660254  0.5000000 -0.0000000 )
                  (  0.0000000  0.0000000 -1.0000000 )

[...]

      isym = 12     inv. 180 deg rotation - cryst. axis [1,1,0]

 cryst.   s(12) = (     1         -1          0      )
                  (     0         -1          0      )
                  (     0         -1          1      )

 cart.    s(12) = (  0.5000000 -0.8660254  0.0000000 )
                  ( -0.8660254 -0.5000000  0.0000000 )
                  (  0.0000000  0.0000000  1.0000000 )

   Cartesian axes

     site n.     atom                  positions (alat units)
         1           Hf  tau(   1) = (   0.0000000   0.0000000   0.0000000  )
         2           Ga  tau(   2) = (   1.0000000   0.5773503   0.4082483  )
         3           Ir  tau(   3) = (   0.5000000   0.2886751   0.2041241  )
         4           Ir  tau(   4) = (   1.5000000   0.8660254   0.6123724  )

   Crystallographic axes

     site n.     atom                  positions (cryst. coord.)
         1           Hf  tau(   1) = (  0.0000000  0.0000000  0.0000000  )
         2           Ga  tau(   2) = (  0.5000000  0.5000000  0.5000000  )
         3           Ir  tau(   3) = (  0.2500000  0.2500000  0.2500000  )
         4           Ir  tau(   4) = (  0.7500000  0.7500000  0.7500000  )

     number of k points=     1  Methfessel-Paxton smearing, width (Ry)=  0.0010
                       cart. coord. in units 2pi/alat
        k(    1) = (   0.0000000   0.0000000   0.0000000), wk =   2.0000000

                       cryst. coord.
        k(    1) = (   0.0000000   0.0000000   0.0000000), wk =   2.0000000

     Initial potential from superposition of free atoms

     starting charge      53.9951, renormalised to      55.0000

     negative rho (up, down):  7.305E-01 0.000E+00
     Starting wfcs are   43 randomized atomic wfcs
     Checking if some PAW data can be deallocated...

     Self-consistent Calculation

     iteration #  1     ecut=    30.00 Ry     beta= 0.70
     Davidson diagonalization with overlap

     ethr =  1.00E-02,  avg # of iterations =  2.0

     negative rho (up, down):  5.937E-01 0.000E+00

     total energy              =    -751.64007890 Ry
     estimated scf accuracy    <       3.29455205 Ry

[...]

     total energy              =    -753.58242661 Ry
     estimated scf accuracy    <       0.00000257 Ry

     iteration # 20     ecut=    30.00 Ry     beta= 0.70
     Davidson diagonalization with overlap

     ethr =  4.67E-09,  avg # of iterations =  2.0

[...]

     End of self-consistent calculation

          k = 0.0000 0.0000 0.0000 (   622 PWs)   bands (ev):

   -41.2110 -28.8286 -28.8286 -28.8285 -28.7630 -28.7629 -28.7629 -10.1405
   -10.1405 -10.1404   2.2071   2.2071   2.2071   2.2151   2.2151   8.1413
    14.5332  14.5332  14.5333  14.6802  14.6802  17.5401  17.5401  17.5402
    19.7241  19.7242  19.8246  19.8246  19.8246  20.0849  23.3384  23.3385
    23.3385  23.9200

     occupation numbers
     1.0000   1.0000   1.0000   1.0000   1.0000   1.0000   1.0000   1.0000
     1.0000   1.0000   1.0000   1.0000   1.0000   1.0000   1.0000   1.0000
     1.0000   1.0000   1.0000   1.0000   1.0000   1.0000   1.0000   1.0000
     1.0000   1.0000   0.5024   0.4998   0.4978  -0.0000  -0.0000  -0.0000
    -0.0000  -0.0000

     the Fermi energy is    19.8246 ev

!    total energy              =    -753.58242626 Ry
     estimated scf accuracy    <       0.00000090 Ry
     smearing contrib. (-TS)   =      -0.00084627 Ry
     internal energy E=F+TS    =    -753.58157999 Ry

     The total energy is F=E-TS. E is the sum of the following terms:
     one-electron contribution =    -124.74437920 Ry
     hartree contribution      =     110.46620461 Ry
     xc contribution           =    -168.05370237 Ry
     ewald contribution        =    -460.26535630 Ry
     one-center paw contrib.   =    -110.98434673 Ry
      -> PAW hartree energy AE =     137.09386470 Ry
      -> PAW hartree energy PS =    -134.94897996 Ry
      -> PAW xc energy AE      =    -150.57171277 Ry
      -> PAW xc energy PS      =      37.44248131 Ry
      -> total E_H with PAW    =     112.61108934 Ry
      -> total E_XC with PAW   =    -281.18293384 Ry

     convergence has been achieved in  20 iterations

     negative rho (up, down):  6.749E-01 0.000E+00

     Forces acting on atoms (cartesian axes, Ry/au):

     atom    1 type  1   force =     0.00000000    0.00000000    0.00000000
     atom    2 type  2   force =     0.00000000    0.00000000    0.00000000
     atom    3 type  3   force =     0.00000000   -0.00000000   -0.00011821
     atom    4 type  3   force =     0.00000000    0.00000000    0.00011821
     The non-local contrib.  to forces
     atom    1 type  1   force =     0.00000000    0.00000000    0.00000000
     atom    2 type  2   force =    -0.00000000   -0.00000000    0.00000000
     atom    3 type  3   force =     0.00000000    0.00000000   -0.00003219
     atom    4 type  3   force =     0.00000000    0.00000000    0.00003219
     The ionic contribution  to forces
     atom    1 type  1   force =     0.00000000    0.00000000   -0.00000000
     atom    2 type  2   force =    -0.00000000   -0.00000000    0.00000000
     atom    3 type  3   force =    -0.00000000    0.00000000    0.00000000
     atom    4 type  3   force =     0.00000000   -0.00000000   -0.00000000
     The local contribution  to forces
     atom    1 type  1   force =    -0.00009428    0.00007198   -0.00002851
     atom    2 type  2   force =     0.00007323   -0.00000876    0.00004365
     atom    3 type  3   force =    -0.00026411   -0.00083709   -0.00022647
     atom    4 type  3   force =     0.00039782    0.00074819    0.00027062
     The core correction contribution to forces
     atom    1 type  1   force =    -0.00000289    0.00000231   -0.00000009
     atom    2 type  2   force =     0.00000160    0.00000022    0.00000103
     atom    3 type  3   force =     0.00009415    0.00021678   -0.00007459
     atom    4 type  3   force =    -0.00011268   -0.00020471    0.00007128
     The Hubbard contrib.    to forces
     atom    1 type  1   force =     0.00000000    0.00000000    0.00000000
     atom    2 type  2   force =     0.00000000    0.00000000    0.00000000
     atom    3 type  3   force =     0.00000000    0.00000000    0.00000000
     atom    4 type  3   force =     0.00000000    0.00000000    0.00000000
     The SCF correction term to forces
     atom    1 type  1   force =     0.00008027   -0.00006548    0.00003178
     atom    2 type  2   force =    -0.00008241    0.00001997   -0.00006481
     atom    3 type  3   force =     0.00031616    0.00093696    0.00022755
     atom    4 type  3   force =    -0.00044218   -0.00083845   -0.00024338

     Total force =     0.000167     Total SCF correction =     0.001418
     SCF correction compared to forces is large: reduce conv_thr to get better values

     Computing stress (Cartesian axis) and pressure

     negative rho (up, down):  6.749E-01 0.000E+00
          total   stress  (Ry/bohr**3)                   (kbar)     P=       79.65
   0.00054125   0.00000000   0.00000000           79.62        0.00        0.00
   0.00000000   0.00054125  -0.00000000            0.00       79.62       -0.00
   0.00000000  -0.00000000   0.00054191            0.00       -0.00       79.72

     kinetic stress (kbar)  31937.31      0.00      0.00
                                0.00  31937.31     -0.00
                                0.00     -0.00  31936.47

     local   stress (kbar)  13153.37      1.10      0.77
                                1.10  13148.79      1.55
                                0.77      1.55  13152.69

     nonloc. stress (kbar)   5923.10     -0.00      0.00
                               -0.00   5923.10     -0.00
                               -0.00     -0.00   5922.93

     hartree stress (kbar)  12481.15     -0.60      0.03
                               -0.60  12483.25     -0.21
                                0.03     -0.21  12481.66

     exc-cor stress (kbar)  22146.42     -0.01     -0.01
                               -0.01  22146.45     -0.02
                               -0.01     -0.02  22146.42

     corecor stress (kbar) -33553.23      0.01      0.06
                                0.01 -33553.33      0.10
                                0.06      0.10 -33553.23

     ewald   stress (kbar) -52007.23      0.00     -0.00
                                0.00 -52007.23     -0.00
                               -0.00     -0.00 -52007.23

     hubbard stress (kbar)      0.00      0.00      0.00
                                0.00      0.00      0.00
                                0.00      0.00      0.00

     DFT-D   stress (kbar)      0.00      0.00      0.00
                                0.00      0.00      0.00
                                0.00      0.00      0.00

     XDM     stress (kbar)      0.00      0.00      0.00
                                0.00      0.00      0.00
                                0.00      0.00      0.00

     dft-nl  stress (kbar)      0.00      0.00      0.00
                                0.00      0.00      0.00
                                0.00      0.00      0.00

     TS-vdW  stress (kbar)      0.00      0.00      0.00
                                0.00      0.00      0.00
                                0.00      0.00      0.00

[...]

                                0.00      0.00      0.00

     Writing all to output data dir new_calculations/myprefix.save/

     General routines

     Parallel routines

     PAW routines

   This run was terminated on:   8: 7: 4  20May2023

   JOB DONE.