     Program PWSCF v.7.0 starts on 21May2023 at  4:52:53

     Reading input from espresso_10022.pwi
Warning: card &CELL ignored
Warning: card / ignored

     Current dimensions of program PWSCF are:
     Max number of different atomic species (ntypx) = 10
     Max number of k-points (npk) =  40000
     Max angular momentum in pseudopotentials (lmaxx) =  4
     file O.pbe-n-kjpaw_psl.0.1.UPF: wavefunction(s)  2P renormalized

     gamma-point specific algorithms are used

     Subspace diagonalization in iterative solution of the eigenvalue problem:
     a serial algorithm will be used

     Using Slab Decomposition

     bravais-lattice index     =            0
     lattice parameter (alat)  =      11.1002  a.u.
     unit-cell volume          =    1703.0000 (a.u.)^3
     number of atoms/cell      =           18
     number of atomic types    =            4
     number of electrons       =       159.00
     number of Kohn-Sham states=           96
     kinetic-energy cutoff     =      30.0000  Ry
     charge density cutoff     =     240.0000  Ry
     scf convergence threshold =      1.0E-06
     mixing beta               =       0.7000
     number of iterations used =            8  plain     mixing
     Exchange-correlation= SLA  PW   PBX  PBC
                           (   1   4   3   4   0   0   0)

     celldm(1)=  11.100239  celldm(2)=   0.000000  celldm(3)=   0.000000
     celldm(4)=   0.000000  celldm(5)=   0.000000  celldm(6)=   0.000000

     crystal axes: (cart. coord. in units of alat)
               a(1) = (   1.000000   0.000000   0.000000 )
               a(2) = (  -0.305687   1.116235   0.000000 )
               a(3) = (   0.305689  -0.038437   1.115480 )

     reciprocal axes: (cart. coord. in units 2 pi/alat)
               b(1) = (  1.000000  0.273855 -0.264606 )
               b(2) = (  0.000000  0.895868  0.030869 )
               b(3) = (  0.000000  0.000000  0.896475 )

     PseudoPot. # 1 for V  read from file:
     /home/pragov/projects/rrg-bengioy-ad/pragov/crystal_structure_design/SSSP/v_pbe_v1.4.uspp.F.UPF
     MD5 check sum: 22b79981416ebb76fdaf5b1b8640f6fb
     Pseudo is Ultrasoft + core correction, Zval = 13.0
     Generated by new atomic code, or converted to UPF format
     Using radial grid of  853 points,  6 beta functions with:
                l(1) =   0
                l(2) =   0
                l(3) =   1
                l(4) =   1
                l(5) =   2
                l(6) =   2
     Q(r) pseudized with  8 coefficients,  rinner =    1.100   1.100   1.100
                                                       1.100   1.100

     PseudoPot. # 2 for Co read from file:
     /home/pragov/projects/rrg-bengioy-ad/pragov/crystal_structure_design/SSSP/Co_pbe_v1.2.uspp.F.UPF
     MD5 check sum: 5f91765df6ddd3222702df6e7b74a16d
     Pseudo is Ultrasoft + core correction, Zval = 17.0
     Generated by new atomic code, or converted to UPF format
     Using radial grid of  863 points,  6 beta functions with:
                l(1) =   0
                l(2) =   0
                l(3) =   1
                l(4) =   1
                l(5) =   2
                l(6) =   2
     Q(r) pseudized with  8 coefficients,  rinner =    1.200   1.200   1.200
                                                       1.200   1.200

     PseudoPot. # 3 for Ni read from file:
     /home/pragov/projects/rrg-bengioy-ad/pragov/crystal_structure_design/SSSP/ni_pbe_v1.4.uspp.F.UPF
     MD5 check sum: 1ee80287db30b12d2bc1f57a5b5d6409
     Pseudo is Ultrasoft + core correction, Zval = 18.0
     Generated by new atomic code, or converted to UPF format
     Using radial grid of  865 points,  6 beta functions with:
                l(1) =   0
                l(2) =   0
                l(3) =   1
                l(4) =   1
                l(5) =   2
                l(6) =   2
     Q(r) pseudized with 10 coefficients,  rinner =    0.980   0.980   0.980
                                                       0.980   0.980

     PseudoPot. # 4 for O  read from file:
     /home/pragov/projects/rrg-bengioy-ad/pragov/crystal_structure_design/SSSP/O.pbe-n-kjpaw_psl.0.1.UPF
     MD5 check sum: 0234752ac141de4415c5fc33072bef88
     Pseudo is Projector augmented-wave + core cor, Zval =  6.0
     Generated using "atomic" code by A. Dal Corso  v.5.0.99 svn rev. 10869
     Shape of augmentation charge: BESSEL
     Using radial grid of 1095 points,  4 beta functions with:
                l(1) =   0
                l(2) =   0
                l(3) =   1
                l(4) =   1
     Q(r) pseudized with 0 coefficients

     atomic species   valence    mass     pseudopotential
        V             13.00    50.94150     V ( 1.00)
        Co            17.00    58.93319     Co( 1.00)
        Ni            18.00    58.69340     Ni( 1.00)
        O              6.00    15.99900     O ( 1.00)

     No symmetry found

                                    s                        frac. trans.

      isym =  1     identity

 cryst.   s( 1) = (     1          0          0      )
                  (     0          1          0      )
                  (     0          0          1      )

 cart.    s( 1) = (  1.0000000  0.0000000 -0.0000000 )
                  (  0.0000000  1.0000000 -0.0000000 )
                  (  0.0000000  0.0000000  1.0000000 )

   Cartesian axes

     site n.     atom                  positions (alat units)
         1           V   tau(   1) = (   0.8786442   0.2066923   0.6833255  )
         2           V   tau(   2) = (   0.6213406   0.6758398   0.2300467  )
         3           V   tau(   3) = (   0.3798520   0.4024098   0.8858834  )
         4           V   tau(   4) = (   0.1201501   0.8715651   0.4326380  )
         5           Co  tau(   5) = (   0.7500889   0.0897652   0.0928158  )
         6           Ni  tau(   6) = (   0.2499942   0.9856194   1.0201214  )
         7           O   tau(   7) = (   0.8707816   0.0096552   0.9011242  )
         8           O   tau(   8) = (   0.6291971   0.9003041   0.0406526  )
         9           O   tau(   9) = (   0.8596661   0.0856543   0.4253383  )
        10           O   tau(  10) = (   0.6403346   0.4221624   0.1002282  )
        11           O   tau(  11) = (   0.3755239   0.1780113   1.0739489  )
        12           O   tau(  12) = (   0.1244418   1.0672189   0.2148482  )
        13           O   tau(  13) = (   0.6386341   0.3912038   0.7237527  )
        14           O   tau(  14) = (   0.8613693   0.7099089   0.4158467  )
        15           O   tau(  15) = (   0.1383750   0.3665767   0.7013862  )
        16           O   tau(  16) = (   0.3616199   0.6883815   0.3905041  )
        17           O   tau(  17) = (   0.3632219   0.6560606   1.0162451  )
        18           O   tau(  18) = (   0.1367840   0.9931568   0.6906196  )

   Crystallographic axes

     site n.     atom                  positions (cryst. coord.)
         1           V   tau(   1) = (  0.7544360  0.2062630  0.6125840  )
         2           V   tau(   2) = (  0.7455510  0.6125650  0.2062310  )
         3           V   tau(   3) = (  0.2556440  0.3878530  0.7941720  )
         4           V   tau(   4) = (  0.2443540  0.7941630  0.3878490  )
         5           Co  tau(   5) = (  0.7501120  0.0832830  0.0832070  )
         6           Ni  tau(   6) = (  0.2499810  0.9144760  0.9145130  )
         7           O   tau(   7) = (  0.6349830  0.0364670  0.8078350  )
         8           O   tau(   8) = (  0.8649930  0.8078090  0.0364440  )
         9           O   tau(   9) = (  0.7705760  0.0898650  0.3813050  )
        10           O   tau(  10) = (  0.7294250  0.3812960  0.0898520  )
        11           O   tau(  11) = (  0.1401000  0.1926270  0.9627680  )
        12           O   tau(  12) = (  0.3598550  0.9627200  0.1926060  )
        13           O   tau(  13) = (  0.5542580  0.3728090  0.6488260  )
        14           O   tau(  14) = (  0.9457460  0.6488220  0.3727960  )
        15           O   tau(  15) = (  0.0531730  0.3500560  0.6287750  )
        16           O   tau(  16) = (  0.4468070  0.6287540  0.3500770  )
        17           O   tau(  17) = (  0.2739830  0.6191150  0.9110380  )
        18           O   tau(  18) = (  0.2260230  0.9110570  0.6191230  )

     number of k points=     1  Methfessel-Paxton smearing, width (Ry)=  0.0010
                       cart. coord. in units 2pi/alat
        k(    1) = (   0.0000000   0.0000000   0.0000000), wk =   2.0000000

                       cryst. coord.
        k(    1) = (   0.0000000   0.0000000   0.0000000), wk =   2.0000000

     Check: negative core charge=   -0.000017

     Initial potential from superposition of free atoms

     starting charge     155.9951, renormalised to     159.0000

     negative rho (up, down):  3.643E-03 0.000E+00
     Starting wfcs are  114 randomized atomic wfcs
     Checking if some PAW data can be deallocated...

     Self-consistent Calculation

     iteration #  1     ecut=    30.00 Ry     beta= 0.70
     Davidson diagonalization with overlap

     ethr =  1.00E-02,  avg # of iterations =  2.0

     negative rho (up, down):  1.327E-02 0.000E+00

     total energy              =   -1708.23239773 Ry
     estimated scf accuracy    <      20.79126821 Ry

[...]

     total energy              =   -1721.82151097 Ry
     estimated scf accuracy    <       0.00000619 Ry

     iteration # 52     ecut=    30.00 Ry     beta= 0.70
     Davidson diagonalization with overlap

     ethr =  1.49E-09,  avg # of iterations =  1.0

[...]

     End of self-consistent calculation

          k = 0.0000 0.0000 0.0000 (  2362 PWs)   bands (ev):

   -97.9312 -89.8814 -60.0817 -60.0808 -60.0048 -60.0043 -58.3181 -58.2681
   -58.1771 -53.2085 -53.0900 -53.0402 -34.0227 -34.0218 -34.0013 -34.0004
   -33.9862 -33.9853 -33.9684 -33.9677 -33.8923 -33.8914 -33.8821 -33.8816
   -13.3741 -12.9554 -12.8420 -12.6904 -12.6888 -12.6507 -12.5526 -12.4617
   -12.3050 -12.2547 -12.1551 -12.1110  -0.3746  -0.3380  -0.2416  -0.2299
    -0.0667   0.0568   0.1565   0.2555   0.2860   0.4445   0.4736   0.6667
     0.8052   0.8523   0.9582   1.0441   1.0707   1.1144   1.1785   1.3390
     1.5162   1.7568   1.7697   1.7989   1.8759   1.9964   2.3270   2.3631
     2.6029   2.6386   2.9948   3.0956   3.1924   3.2973   3.5227   3.5787
     4.4358   4.4866   4.5608   4.6906   4.7552   4.8333   5.3645   5.3674
     5.3755   5.6860   6.7679   6.8098   6.8102   7.1125   7.1969   7.2922
     7.4287   7.5383   7.7297   8.0175   8.3132   8.3283   8.3665   8.5726

     occupation numbers
     1.0000   1.0000   1.0000   1.0000   1.0000   1.0000   1.0000   1.0000
     1.0000   1.0000   1.0000   1.0000   1.0000   1.0000   1.0000   1.0000
     1.0000   1.0000   1.0000   1.0000   1.0000   1.0000   1.0000   1.0000
     1.0000   1.0000   1.0000   1.0000   1.0000   1.0000   1.0000   1.0000
     1.0000   1.0000   1.0000   1.0000   1.0000   1.0000   1.0000   1.0000
     1.0000   1.0000   1.0000   1.0000   1.0000   1.0000   1.0000   1.0000
     1.0000   1.0000   1.0000   1.0000   1.0000   1.0000   1.0000   1.0000
     1.0000   1.0000   1.0000   1.0000   1.0000   1.0000   1.0000   1.0000
     1.0000   1.0000   1.0000   1.0000   1.0000   1.0000   1.0000   1.0000
     1.0000   1.0000   1.0000   1.0000   1.0000   1.0000   0.7615   0.5981
     0.1404  -0.0000  -0.0000  -0.0000  -0.0000  -0.0000  -0.0000  -0.0000
    -0.0000  -0.0000  -0.0000  -0.0000  -0.0000  -0.0000  -0.0000  -0.0000

     the Fermi energy is     5.3690 ev

!    total energy              =   -1721.82151041 Ry
     estimated scf accuracy    <       0.00000097 Ry
     smearing contrib. (-TS)   =      -0.00058973 Ry
     internal energy E=F+TS    =   -1721.82092069 Ry

     The total energy is F=E-TS. E is the sum of the following terms:
     one-electron contribution =   -1228.90399248 Ry
     hartree contribution      =     667.27328358 Ry
     xc contribution           =    -234.14523818 Ry
     ewald contribution        =    -811.69417125 Ry
     one-center paw contrib.   =    -114.35080236 Ry
      -> PAW hartree energy AE =     350.61183966 Ry
      -> PAW hartree energy PS =    -349.41433997 Ry
      -> PAW xc energy AE      =    -205.32069345 Ry
      -> PAW xc energy PS      =      89.77239140 Ry
      -> total E_H with PAW    =     668.47078327 Ry
      -> total E_XC with PAW   =    -349.69354023 Ry

     convergence has been achieved in  52 iterations

     negative rho (up, down):  7.264E-03 0.000E+00

     Forces acting on atoms (cartesian axes, Ry/au):

     atom    1 type  1   force =     0.00333710    0.00421727   -0.00178978
     atom    2 type  1   force =    -0.00329594   -0.00188270    0.00438107
     atom    3 type  1   force =    -0.00253284    0.01672061   -0.00538710
     atom    4 type  1   force =     0.00249392   -0.00585046    0.01652681
     atom    5 type  2   force =    -0.00007590    0.01284859    0.01346376
     atom    6 type  3   force =     0.00005275   -0.01448502   -0.01507300
     atom    7 type  4   force =     0.01193998    0.00155528    0.02162761
     atom    8 type  4   force =    -0.01190207    0.02164485    0.00222977
     atom    9 type  4   force =    -0.01261722    0.01526833   -0.01505678
     atom   10 type  4   force =     0.01265119   -0.01554600    0.01469888
     atom   11 type  4   force =    -0.03006170   -0.02150902    0.02038203
     atom   12 type  4   force =     0.02993914    0.02106342   -0.02083971
     atom   13 type  4   force =     0.00173347   -0.00748168    0.00966353
     atom   14 type  4   force =    -0.00179836    0.00990069   -0.00720217
     atom   15 type  4   force =    -0.00523070   -0.01254566    0.00120664
     atom   16 type  4   force =     0.00530297    0.00167443   -0.01254850
     atom   17 type  4   force =    -0.00678384   -0.01573710   -0.01031855
     atom   18 type  4   force =     0.00684803   -0.00985582   -0.01596452
     The non-local contrib.  to forces
     atom    1 type  1   force =    -0.00918581   -0.13275824   -0.07633821
     atom    2 type  1   force =     0.00912315   -0.07177691   -0.13543787
     atom    3 type  1   force =     0.00601919    0.08322558    0.13509479
     atom    4 type  1   force =    -0.00587745    0.13222483    0.08768507
     atom    5 type  2   force =    -0.00007782   -0.06309272   -0.06520842
     atom    6 type  3   force =    -0.00027948    0.06510950    0.06737110
     atom    7 type  4   force =    -0.03331984    0.63979117   -0.12930938
     atom    8 type  4   force =     0.03376232   -0.15110970    0.63503436
     atom    9 type  4   force =    -0.15776705    0.39402647    0.25761736
     atom   10 type  4   force =     0.15831067    0.24403690    0.40216688
     atom   11 type  4   force =    -0.23458820    0.21548616   -0.55452443
     atom   12 type  4   force =     0.23261113   -0.56230723    0.19641772
     atom   13 type  4   force =    -0.06790637   -0.58727779    0.39406786
     atom   14 type  4   force =     0.06781149    0.41406166   -0.57337027
     atom   15 type  4   force =    -0.08566960   -0.39120250    0.56487924
     atom   16 type  4   force =     0.08573137    0.57811842   -0.37192015
     atom   17 type  4   force =    -0.16895675   -0.34911180   -0.44976667
     atom   18 type  4   force =     0.16893469   -0.43754388   -0.36374592
     The ionic contribution  to forces
     atom    1 type  1   force =     3.71279840    5.69453950   -6.30228396
     atom    2 type  1   force =    -3.71962307   -6.49184324    5.47679948
     atom    3 type  1   force =     3.23827899    6.28763498   -5.44689183
     atom    4 type  1   force =    -3.23069617   -5.65687748    6.09785306
     atom    5 type  2   force =    -0.01477000    4.82692012    5.01345288
     atom    6 type  3   force =     0.00579143   -4.81405328   -4.98826191
     atom    7 type  4   force =     3.95484636   -6.96622713   -3.58009079
     atom    8 type  4   force =    -3.96336915   -3.33975813   -7.08404264
     atom    9 type  4   force =     4.26754749   -2.78703215   -1.08527444
     atom   10 type  4   force =    -4.27401180   -0.99040713   -2.81700948
     atom   11 type  4   force =     3.03657480    3.56858464    7.79807416
     atom   12 type  4   force =    -3.01577138    7.67716858    3.83335341
     atom   13 type  4   force =     0.74224236    9.25386659   -5.01023530
     atom   14 type  4   force =    -0.74384670   -5.32504614    9.07605170
     atom   15 type  4   force =     0.73030376    5.14141237   -9.02125173
     atom   16 type  4   force =    -0.72865722   -9.18973975    4.82793970
     atom   17 type  4   force =     4.71765040    0.13806640    2.97597538
     atom   18 type  4   force =    -4.71528848    2.97279124    0.23584230
     The local contribution  to forces
     atom    1 type  1   force =    -3.70220706   -5.56871301    6.37055962
     atom    2 type  1   force =     3.70920746    6.55569554   -5.34859150
     atom    3 type  1   force =    -3.24797585   -6.34710565    5.31971010
     atom    4 type  1   force =     3.24009508    5.53159489   -6.16149022
     atom    5 type  2   force =     0.01499883   -4.75166781   -4.93580119
     atom    6 type  3   force =    -0.00553797    4.73513561    4.90642220
     atom    7 type  4   force =    -3.90974801    6.33337613    3.73129918
     atom    8 type  4   force =     3.91788580    3.51271769    6.45653495
     atom    9 type  4   force =    -4.12423635    2.41108509    0.81233332
     atom   10 type  4   force =     4.13024839    0.73051604    2.43229497
     atom   11 type  4   force =    -2.83452115   -3.80492445   -7.22759429
     atom   12 type  4   force =     2.81559707   -7.09805596   -4.05015222
     atom   13 type  4   force =    -0.67355603   -8.67934608    4.62956921
     atom   14 type  4   force =     0.67484817    4.92453233   -8.51506288
     atom   15 type  4   force =    -0.65037188   -4.76613803    8.46291369
     atom   16 type  4   force =     0.64905794    8.61847678   -4.47182508
     atom   17 type  4   force =    -4.55750331    0.19420311   -2.54000149
     atom   18 type  4   force =     4.55518766   -2.54840752    0.11100952
     The core correction contribution to forces
     atom    1 type  1   force =     0.00191622    0.01161522    0.00627566
     atom    2 type  1   force =    -0.00191489    0.00587280    0.01182896
     atom    3 type  1   force =     0.00113343   -0.00706131   -0.01322036
     atom    4 type  1   force =    -0.00113757   -0.01297245   -0.00749584
     atom    5 type  2   force =    -0.00001246    0.00099304    0.00103757
     atom    6 type  3   force =     0.00000541   -0.00072047   -0.00074912
     atom    7 type  4   force =     0.00027087   -0.00508988   -0.00069829
     atom    8 type  4   force =    -0.00027523   -0.00052302   -0.00511233
     atom    9 type  4   force =     0.00191039   -0.00281649    0.00053043
     atom   10 type  4   force =    -0.00191678    0.00062426   -0.00279016
     atom   11 type  4   force =     0.00271489   -0.00018668    0.00404298
     atom   12 type  4   force =    -0.00269334    0.00405116   -0.00004631
     atom   13 type  4   force =     0.00062981    0.00529143   -0.00353603
     atom   14 type  4   force =    -0.00062768   -0.00371600    0.00516603
     atom   15 type  4   force =     0.00080962    0.00347423   -0.00511950
     atom   16 type  4   force =    -0.00081196   -0.00523575    0.00330193
     atom   17 type  4   force =     0.00204066    0.00061824    0.00340070
     atom   18 type  4   force =    -0.00204016    0.00337626    0.00072677
     The Hubbard contrib.    to forces
     atom    1 type  1   force =     0.00000000    0.00000000    0.00000000
     atom    2 type  1   force =     0.00000000    0.00000000    0.00000000
     atom    3 type  1   force =     0.00000000    0.00000000    0.00000000
     atom    4 type  1   force =     0.00000000    0.00000000    0.00000000
     atom    5 type  2   force =     0.00000000    0.00000000    0.00000000
     atom    6 type  3   force =     0.00000000    0.00000000    0.00000000
     atom    7 type  4   force =     0.00000000    0.00000000    0.00000000
     atom    8 type  4   force =     0.00000000    0.00000000    0.00000000
     atom    9 type  4   force =     0.00000000    0.00000000    0.00000000
     atom   10 type  4   force =     0.00000000    0.00000000    0.00000000
     atom   11 type  4   force =     0.00000000    0.00000000    0.00000000
     atom   12 type  4   force =     0.00000000    0.00000000    0.00000000
     atom   13 type  4   force =     0.00000000    0.00000000    0.00000000
     atom   14 type  4   force =     0.00000000    0.00000000    0.00000000
     atom   15 type  4   force =     0.00000000    0.00000000    0.00000000
     atom   16 type  4   force =     0.00000000    0.00000000    0.00000000
     atom   17 type  4   force =     0.00000000    0.00000000    0.00000000
     atom   18 type  4   force =     0.00000000    0.00000000    0.00000000
     The SCF correction term to forces
     atom    1 type  1   force =     0.00001090   -0.00047060    0.00000025
     atom    2 type  1   force =    -0.00009304    0.00016471   -0.00021487
     atom    3 type  1   force =     0.00000694    0.00002261   -0.00007666
     atom    4 type  1   force =     0.00010558    0.00017536   -0.00002212
     atom    5 type  2   force =    -0.00021891   -0.00030844   -0.00001395
     atom    6 type  3   force =     0.00006890    0.00003921    0.00014786
     atom    7 type  4   force =    -0.00011384   -0.00029940    0.00043002
     atom    8 type  4   force =     0.00008972    0.00031361   -0.00018143
     atom    9 type  4   force =    -0.00007616    0.00000102   -0.00026032
     atom   10 type  4   force =     0.00001626   -0.00032047    0.00003980
     atom   11 type  4   force =    -0.00024650   -0.00047308    0.00038675
     atom   12 type  4   force =     0.00019119    0.00020247   -0.00040918
     atom   13 type  4   force =     0.00031925   -0.00002023   -0.00019907
     atom   14 type  4   force =     0.00001191    0.00006444    0.00001638
     atom   15 type  4   force =    -0.00030706   -0.00009614   -0.00021193
     atom   16 type  4   force =    -0.00002162    0.00005032   -0.00004177
     atom   17 type  4   force =    -0.00001929    0.00048255    0.00007666
     atom   18 type  4   force =     0.00004987   -0.00007630    0.00020595

     Total force =     0.094750     Total SCF correction =     0.001548

     Computing stress (Cartesian axis) and pressure

     negative rho (up, down):  7.264E-03 0.000E+00
          total   stress  (Ry/bohr**3)                   (kbar)     P=     -566.09
  -0.00368005   0.00001554  -0.00001491         -541.35        2.29       -2.19
   0.00001554  -0.00392930  -0.00012253            2.29     -578.02      -18.02
  -0.00001491  -0.00012253  -0.00393528           -2.19      -18.02     -578.90

     kinetic stress (kbar)  25224.22      7.97     -7.95
                                7.97  25360.55     37.60
                               -7.95     37.60  25362.97

     local   stress (kbar) -24009.62  -1487.55   1440.76
                            -1487.55 -17900.17   8522.26
                             1440.76   8522.26 -17305.20

     nonloc. stress (kbar)   4381.62      1.97     -2.09
                                1.97   4325.83    -10.71
                               -2.09    -10.71   4324.91

     hartree stress (kbar)  21363.85    682.23   -660.83
                              682.23  18272.91  -3876.43
                             -660.83  -3876.43  18002.28

     exc-cor stress (kbar)  -4651.79     -0.04      0.03
                               -0.04  -4646.59      0.27
                                0.03      0.27  -4646.58

     corecor stress (kbar)  -1680.66      0.05     -0.05
                                0.05  -1681.34     -0.31
                               -0.05     -0.31  -1681.36

     ewald   stress (kbar) -21168.98    797.64   -772.08
                              797.64 -24309.20  -4690.71
                             -772.08  -4690.71 -24635.93

     hubbard stress (kbar)      0.00      0.00      0.00
                                0.00      0.00      0.00
                                0.00      0.00      0.00

     DFT-D   stress (kbar)      0.00      0.00      0.00
                                0.00      0.00      0.00
                                0.00      0.00      0.00

     XDM     stress (kbar)      0.00      0.00      0.00
                                0.00      0.00      0.00
                                0.00      0.00      0.00

     dft-nl  stress (kbar)      0.00      0.00      0.00
                                0.00      0.00      0.00
                                0.00      0.00      0.00

     TS-vdW  stress (kbar)      0.00      0.00      0.00
                                0.00      0.00      0.00
                                0.00      0.00      0.00

[...]

                                0.00      0.00      0.00

     Writing all to output data dir new_calculations/myprefix.save/

     General routines

     Parallel routines

     PAW routines

   This run was terminated on:   4:54:12  21May2023

   JOB DONE.