     Program PWSCF v.7.0 starts on 20May2023 at 22:35:42

     Reading input from espresso_16650.pwi
Warning: card &CELL ignored
Warning: card / ignored

     Current dimensions of program PWSCF are:
     Max number of different atomic species (ntypx) = 10
     Max number of k-points (npk) =  40000
     Max angular momentum in pseudopotentials (lmaxx) =  4
     file O.pbe-n-kjpaw_psl.0.1.UPF: wavefunction(s)  2P renormalized

     gamma-point specific algorithms are used
     Message from routine setup:
     using ibrav=0 with symmetry is DISCOURAGED, use correct ibrav instead

     Subspace diagonalization in iterative solution of the eigenvalue problem:
     a serial algorithm will be used

     Using Slab Decomposition

     bravais-lattice index     =            0
     lattice parameter (alat)  =      11.0357  a.u.
     unit-cell volume          =    1912.5425 (a.u.)^3
     number of atoms/cell      =           20
     number of atomic types    =            4
     number of electrons       =       144.00
     number of Kohn-Sham states=           86
     kinetic-energy cutoff     =      30.0000  Ry
     charge density cutoff     =     240.0000  Ry
     scf convergence threshold =      1.0E-06
     mixing beta               =       0.7000
     number of iterations used =            8  plain     mixing
     Exchange-correlation= SLA  PW   PBX  PBC
                           (   1   4   3   4   0   0   0)

     celldm(1)=  11.035696  celldm(2)=   0.000000  celldm(3)=   0.000000
     celldm(4)=   0.000000  celldm(5)=   0.000000  celldm(6)=   0.000000

     crystal axes: (cart. coord. in units of alat)
               a(1) = (   1.000000   0.000000   0.000000 )
               a(2) = (   0.000000   1.007125   0.000000 )
               a(3) = (  -0.001024   0.000000   1.412955 )

     reciprocal axes: (cart. coord. in units 2 pi/alat)
               b(1) = (  1.000000  0.000000  0.000725 )
               b(2) = (  0.000000  0.992925  0.000000 )
               b(3) = (  0.000000  0.000000  0.707737 )

     PseudoPot. # 1 for Na read from file:
     /home/pragov/projects/rrg-bengioy-ad/pragov/crystal_structure_design/SSSP/na_pbe_v1.5.uspp.F.UPF
     MD5 check sum: 44600605ef58000f06b90626533354dc
     Pseudo is Ultrasoft, Zval =  9.0
     Generated by new atomic code, or converted to UPF format
     Using radial grid of  819 points,  5 beta functions with:
                l(1) =   0
                l(2) =   0
                l(3) =   1
                l(4) =   1
                l(5) =   2
     Q(r) pseudized with  8 coefficients,  rinner =    1.250   1.250   1.250
                                                       1.250   1.250

     PseudoPot. # 2 for Sr read from file:
     /home/pragov/projects/rrg-bengioy-ad/pragov/crystal_structure_design/SSSP/Sr_pbe_v1.uspp.F.UPF
     MD5 check sum: 6b418c05fbe9db5448babca5e47b7a5b
     Pseudo is Ultrasoft + core correction, Zval = 10.0
     Generated by new atomic code, or converted to UPF format
     Using radial grid of  883 points,  6 beta functions with:
                l(1) =   0
                l(2) =   0
                l(3) =   1
                l(4) =   1
                l(5) =   2
                l(6) =   2
     Q(r) pseudized with  6 coefficients,  rinner =    1.400   1.400   1.400
                                                       1.400   1.400

     PseudoPot. # 3 for I  read from file:
     /home/pragov/projects/rrg-bengioy-ad/pragov/crystal_structure_design/SSSP/I.pbe-n-kjpaw_psl.0.2.UPF
     MD5 check sum: d4ef18d9c8f18dc85e5843bca1e50dc0
     Pseudo is Projector augmented-wave + core cor, Zval =  7.0
     Generated using "atomic" code by A. Dal Corso  v.5.0.99 svn rev. 10869
     Shape of augmentation charge: PSQ
     Using radial grid of 1247 points,  4 beta functions with:
                l(1) =   0
                l(2) =   0
                l(3) =   1
                l(4) =   1
     Q(r) pseudized with 0 coefficients

     PseudoPot. # 4 for O  read from file:
     /home/pragov/projects/rrg-bengioy-ad/pragov/crystal_structure_design/SSSP/O.pbe-n-kjpaw_psl.0.1.UPF
     MD5 check sum: 0234752ac141de4415c5fc33072bef88
     Pseudo is Projector augmented-wave + core cor, Zval =  6.0
     Generated using "atomic" code by A. Dal Corso  v.5.0.99 svn rev. 10869
     Shape of augmentation charge: BESSEL
     Using radial grid of 1095 points,  4 beta functions with:
                l(1) =   0
                l(2) =   0
                l(3) =   1
                l(4) =   1
     Q(r) pseudized with 0 coefficients

     atomic species   valence    mass     pseudopotential
        Na             9.00    22.98977     Na( 1.00)
        Sr            10.00    87.62000     Sr( 1.00)
        I              7.00   126.90447     I ( 1.00)
        O              6.00    15.99900     O ( 1.00)

      4 Sym. Ops., with inversion, found ( 2 have fractional translation)

                                    s                        frac. trans.

      isym =  1     identity

 cryst.   s( 1) = (     1          0          0      )
                  (     0          1          0      )
                  (     0          0          1      )

 cart.    s( 1) = (  1.0000000  0.0000000  0.0000000 )
                  (  0.0000000  1.0000000  0.0000000 )
                  (  0.0000000  0.0000000  1.0000000 )

      isym =  2     180 deg rotation - cart. axis [0,1,0]

 cryst.   s( 2) = (    -1          0          0      )    f =(  0.5000000 )
                  (     0          1          0      )       ( -0.5000000 )
                  (     0          0         -1      )       (  0.5000000 )

 cart.    s( 2) = ( -1.0000000  0.0000000 -0.0000000 )    f =(  0.4994880 )
                  (  0.0000000  1.0000000  0.0000000 )       ( -0.5035627 )
                  (  0.0000000  0.0000000 -1.0000000 )       (  0.7064776 )

      isym =  3     inversion

 cryst.   s( 3) = (    -1          0          0      )
                  (     0         -1          0      )
                  (     0          0         -1      )

 cart.    s( 3) = ( -1.0000000  0.0000000 -0.0000000 )
                  (  0.0000000 -1.0000000  0.0000000 )
                  (  0.0000000  0.0000000 -1.0000000 )

      isym =  4     inv. 180 deg rotation - cart. axis [0,1,0]

 cryst.   s( 4) = (     1          0          0      )    f =( -0.5000000 )
                  (     0         -1          0      )       ( -0.5000000 )
                  (     0          0          1      )       ( -0.5000000 )

 cart.    s( 4) = (  1.0000000  0.0000000  0.0000000 )    f =( -0.4994880 )
                  (  0.0000000 -1.0000000  0.0000000 )       ( -0.5035627 )
                  (  0.0000000  0.0000000  1.0000000 )       ( -0.7064776 )

   Cartesian axes

     site n.     atom                  positions (alat units)
         1           Na  tau(   1) = (   0.5000000   0.5035627   0.0000000  )
         2           Na  tau(   2) = (  -0.0005120   0.0000000   0.7064776  )
         3           Sr  tau(   3) = (   0.5061595   0.0379163   1.0603889  )
         4           Sr  tau(   4) = (   0.9923045   0.5414790   1.0590438  )
         5           Sr  tau(   5) = (   0.4928165   0.9692091   0.3525662  )
         6           Sr  tau(   6) = (   0.0066715   0.4656464   0.3539113  )
         7           I   tau(   7) = (   0.4994880   0.5035627   0.7064776  )
         8           I   tau(   8) = (   0.0000000   0.0000000   0.0000000  )
         9           O   tau(   9) = (   0.6809417   0.7691920   0.7648566  )
        10           O   tau(  10) = (   0.8175223   0.2656293   1.3545761  )
        11           O   tau(  11) = (   0.3180343   0.2379334   0.6480985  )
        12           O   tau(  12) = (   0.1814537   0.7414961   0.0583791  )
        13           O   tau(  13) = (   0.4266331   0.4800171   1.0237171  )
        14           O   tau(  14) = (   0.0718309   0.9835798   1.0957156  )
        15           O   tau(  15) = (   0.5723429   0.5271083   0.3892381  )
        16           O   tau(  16) = (   0.9271451   0.0235456   0.3172395  )
        17           O   tau(  17) = (   0.7615083   0.3149311   0.7557473  )
        18           O   tau(  18) = (   0.7369557   0.8184938   1.3636854  )
        19           O   tau(  19) = (   0.2374677   0.6921943   0.6572078  )
        20           O   tau(  20) = (   0.2620203   0.1886316   0.0492697  )

   Crystallographic axes

     site n.     atom                  positions (cryst. coord.)
         1           Na  tau(   1) = (  0.5000000  0.5000000  0.0000000  )
         2           Na  tau(   2) = (  0.0000000  0.0000000  0.5000000  )
         3           Sr  tau(   3) = (  0.5069280  0.0376480  0.7504760  )
         4           Sr  tau(   4) = (  0.9930720  0.5376480  0.7495240  )
         5           Sr  tau(   5) = (  0.4930720  0.9623520  0.2495240  )
         6           Sr  tau(   6) = (  0.0069280  0.4623520  0.2504760  )
         7           I   tau(   7) = (  0.5000000  0.5000000  0.5000000  )
         8           I   tau(   8) = (  0.0000000  0.0000000  0.0000000  )
         9           O   tau(   9) = (  0.6814960  0.7637500  0.5413170  )
        10           O   tau(  10) = (  0.8185040  0.2637500  0.9586830  )
        11           O   tau(  11) = (  0.3185040  0.2362500  0.4586830  )
        12           O   tau(  12) = (  0.1814960  0.7362500  0.0413170  )
        13           O   tau(  13) = (  0.4273750  0.4766210  0.7245220  )
        14           O   tau(  14) = (  0.0726250  0.9766210  0.7754780  )
        15           O   tau(  15) = (  0.5726250  0.5233790  0.2754780  )
        16           O   tau(  16) = (  0.9273750  0.0233790  0.2245220  )
        17           O   tau(  17) = (  0.7620560  0.3127030  0.5348700  )
        18           O   tau(  18) = (  0.7379440  0.8127030  0.9651300  )
        19           O   tau(  19) = (  0.2379440  0.6872970  0.4651300  )
        20           O   tau(  20) = (  0.2620560  0.1872970  0.0348700  )

     number of k points=     1  Methfessel-Paxton smearing, width (Ry)=  0.0010
                       cart. coord. in units 2pi/alat
        k(    1) = (   0.0000000   0.0000000   0.0000000), wk =   2.0000000

                       cryst. coord.
        k(    1) = (   0.0000000   0.0000000   0.0000000), wk =   2.0000000

     Check: negative core charge=   -0.000010

     Initial potential from superposition of free atoms

     starting charge     143.8526, renormalised to     144.0000

     negative rho (up, down):  2.532E-01 0.000E+00
     Starting wfcs are  118 randomized atomic wfcs
     Checking if some PAW data can be deallocated...

     Self-consistent Calculation

     iteration #  1     ecut=    30.00 Ry     beta= 0.70
     Davidson diagonalization with overlap

     ethr =  1.00E-02,  avg # of iterations =  2.0

     negative rho (up, down):  2.581E-01 0.000E+00

     total energy              =   -1726.06497261 Ry
     estimated scf accuracy    <       5.84202764 Ry

[...]

     total energy              =   -1728.86155406 Ry
     estimated scf accuracy    <       0.00000189 Ry

     iteration # 10     ecut=    30.00 Ry     beta= 0.70
     Davidson diagonalization with overlap

     ethr =  1.31E-09,  avg # of iterations =  2.0

[...]

     End of self-consistent calculation

          k = 0.0000 0.0000 0.0000 (  2680 PWs)   bands (ev):

   -42.3372 -42.3366 -25.7353 -25.7243 -25.7132 -25.7047 -14.2988 -14.2960
   -14.2925 -14.2922 -14.2799 -14.2786 -13.7624 -13.7288 -10.6996 -10.6949
   -10.4939 -10.4930 -10.4373 -10.4035  -9.7377  -9.6212  -9.4829  -9.4819
    -7.7989  -7.7755  -7.7643  -7.7332  -7.7231  -7.7090  -7.6930  -7.6852
    -7.5285  -7.5087  -7.4846  -7.4509  -3.7556  -3.2955   1.2044   1.2547
     1.2582   1.2646   1.3020   1.4215   3.5174   3.9256   4.1504   4.1708
     4.2293   4.5023   4.6366   4.9747   4.9979   5.0000   5.0144   5.2610
     5.6812   5.6880   5.8785   5.8891   6.0217   6.0251   6.0705   6.1791
     6.2067   6.2569   6.3760   6.4006   6.6149   6.6418   6.6965   6.7124
     9.2069  10.2078  12.9544  12.9761  13.0727  13.1674  13.3336  13.4543
    13.6052  14.0723  14.2126  14.3613  14.3781  14.7444

     occupation numbers
     1.0000   1.0000   1.0000   1.0000   1.0000   1.0000   1.0000   1.0000
     1.0000   1.0000   1.0000   1.0000   1.0000   1.0000   1.0000   1.0000
     1.0000   1.0000   1.0000   1.0000   1.0000   1.0000   1.0000   1.0000
     1.0000   1.0000   1.0000   1.0000   1.0000   1.0000   1.0000   1.0000
     1.0000   1.0000   1.0000   1.0000   1.0000   1.0000   1.0000   1.0000
     1.0000   1.0000   1.0000   1.0000   1.0000   1.0000   1.0000   1.0000
     1.0000   1.0000   1.0000   1.0000   1.0000   1.0000   1.0000   1.0000
     1.0000   1.0000   1.0000   1.0000   1.0000   1.0000   1.0000   1.0000
     1.0000   1.0000   1.0000   1.0000   1.0000   1.0000   1.0000   1.0000
    -0.0000  -0.0000  -0.0000  -0.0000  -0.0000  -0.0000  -0.0000  -0.0000
    -0.0000  -0.0000  -0.0000  -0.0000  -0.0000  -0.0000

     the Fermi energy is     7.7112 ev

!    total energy              =   -1728.86155435 Ry
     estimated scf accuracy    <       0.00000016 Ry
     smearing contrib. (-TS)   =       0.00000000 Ry
     internal energy E=F+TS    =   -1728.86155435 Ry

     The total energy is F=E-TS. E is the sum of the following terms:
     one-electron contribution =    -274.99914024 Ry
     hartree contribution      =     220.58479541 Ry
     xc contribution           =    -275.69056733 Ry
     ewald contribution        =    -643.58374031 Ry
     one-center paw contrib.   =    -755.17290188 Ry
      -> PAW hartree energy AE =     368.48083678 Ry
      -> PAW hartree energy PS =    -367.29003023 Ry
      -> PAW xc energy AE      =    -925.75422603 Ry
      -> PAW xc energy PS      =     169.39051760 Ry
      -> total E_H with PAW    =     221.77560196 Ry
      -> total E_XC with PAW   =   -1032.05427576 Ry

     convergence has been achieved in  10 iterations

     negative rho (up, down):  2.660E-01 0.000E+00

     Forces acting on atoms (cartesian axes, Ry/au):

     atom    1 type  1   force =     0.00000000    0.00000000    0.00000000
     atom    2 type  1   force =    -0.00000000    0.00000000   -0.00000000
     atom    3 type  2   force =     0.00842899    0.01021483    0.00074842
     atom    4 type  2   force =    -0.00842899    0.01021483   -0.00074842
     atom    5 type  2   force =    -0.00842899   -0.01021483   -0.00074842
     atom    6 type  2   force =     0.00842899   -0.01021483    0.00074842
     atom    7 type  3   force =     0.00000000    0.00000000    0.00000000
     atom    8 type  3   force =     0.00000000    0.00000000   -0.00000000
     atom    9 type  4   force =     0.01304357    0.04655412    0.03212013
     atom   10 type  4   force =    -0.01304357    0.04655412   -0.03212013
     atom   11 type  4   force =    -0.01304357   -0.04655412   -0.03212013
     atom   12 type  4   force =     0.01304357   -0.04655412    0.03212013
     atom   13 type  4   force =    -0.02376487   -0.01257761    0.03645029
     atom   14 type  4   force =     0.02376487   -0.01257761   -0.03645029
     atom   15 type  4   force =     0.02376487    0.01257761   -0.03645029
     atom   16 type  4   force =    -0.02376487    0.01257761    0.03645029
     atom   17 type  4   force =     0.05439935   -0.01732280    0.02688111
     atom   18 type  4   force =    -0.05439935   -0.01732280   -0.02688111
     atom   19 type  4   force =    -0.05439935    0.01732280   -0.02688111
     atom   20 type  4   force =     0.05439935    0.01732280    0.02688111
     The non-local contrib.  to forces
     atom    1 type  1   force =     0.00000000    0.00000000    0.00000000
     atom    2 type  1   force =     0.00000000   -0.00000000    0.00000000
     atom    3 type  2   force =    -0.00103530   -0.01033080   -0.00212553
     atom    4 type  2   force =     0.00103530   -0.01033080    0.00212553
     atom    5 type  2   force =     0.00103530    0.01033080    0.00212553
     atom    6 type  2   force =    -0.00103530    0.01033080   -0.00212553
     atom    7 type  3   force =     0.00000000   -0.00000000    0.00000000
     atom    8 type  3   force =    -0.00000000   -0.00000000   -0.00000000
     atom    9 type  4   force =    -0.66164816   -0.96790558   -0.13663644
     atom   10 type  4   force =     0.66164816   -0.96790558    0.13663644
     atom   11 type  4   force =     0.66164816    0.96790558    0.13663644
     atom   12 type  4   force =    -0.66164816    0.96790558   -0.13663644
     atom   13 type  4   force =     0.22910008    0.03699089   -1.06644641
     atom   14 type  4   force =    -0.22910008    0.03699089    1.06644641
     atom   15 type  4   force =    -0.22910008   -0.03699089    1.06644641
     atom   16 type  4   force =     0.22910008   -0.03699089   -1.06644641
     atom   17 type  4   force =    -0.93964426    0.70825870   -0.13244655
     atom   18 type  4   force =     0.93964426    0.70825870    0.13244655
     atom   19 type  4   force =     0.93964426   -0.70825870    0.13244655
     atom   20 type  4   force =    -0.93964426   -0.70825870   -0.13244655
     The ionic contribution  to forces
     atom    1 type  1   force =     0.00000000   -0.00000000    0.00000000
     atom    2 type  1   force =    -0.00000000    0.00000000   -0.00000000
     atom    3 type  2   force =    -0.37212316   -1.13696361    0.05425620
     atom    4 type  2   force =     0.37212316   -1.13696361   -0.05425619
     atom    5 type  2   force =     0.37212316    1.13696361   -0.05425620
     atom    6 type  2   force =    -0.37212316    1.13696361    0.05425619
     atom    7 type  3   force =    -0.00000000   -0.00000000   -0.00000000
     atom    8 type  3   force =    -0.00000000   -0.00000000   -0.00000000
     atom    9 type  4   force =     1.81830545    2.94317467    0.61112865
     atom   10 type  4   force =    -1.81830545    2.94317467   -0.61112865
     atom   11 type  4   force =    -1.81830545   -2.94317467   -0.61112865
     atom   12 type  4   force =     1.81830545   -2.94317467    0.61112865
     atom   13 type  4   force =    -1.09635268    0.48896853    3.44908194
     atom   14 type  4   force =     1.09635268    0.48896853   -3.44908194
     atom   15 type  4   force =     1.09635268   -0.48896853   -3.44908194
     atom   16 type  4   force =    -1.09635268   -0.48896853    3.44908194
     atom   17 type  4   force =     3.09259424   -2.06939406    0.35681452
     atom   18 type  4   force =    -3.09259424   -2.06939406   -0.35681452
     atom   19 type  4   force =    -3.09259424    2.06939406   -0.35681452
     atom   20 type  4   force =     3.09259424    2.06939406    0.35681452
     The local contribution  to forces
     atom    1 type  1   force =    -0.00004775    0.00003667   -0.00003626
     atom    2 type  1   force =     0.00007474   -0.00003025    0.00008216
     atom    3 type  2   force =     0.38133447    1.15666659   -0.05150519
     atom    4 type  2   force =    -0.38133139    1.15671084    0.05146256
     atom    5 type  2   force =    -0.38150846   -1.15672839    0.05150950
     atom    6 type  2   force =     0.38149092   -1.15660855   -0.05146062
     atom    7 type  3   force =    -0.00008030    0.00001975    0.00003150
     atom    8 type  3   force =     0.00006715   -0.00005197   -0.00010833
     atom    9 type  4   force =    -1.14997941   -1.93849276   -0.44378064
     atom   10 type  4   force =     1.14999580   -1.93847050    0.44377259
     atom   11 type  4   force =     1.14997531    1.93849132    0.44383296
     atom   12 type  4   force =    -1.14997958    1.93849287   -0.44379419
     atom   13 type  4   force =     0.84588732   -0.53798162   -2.35637532
     atom   14 type  4   force =    -0.84591024   -0.53796688    2.35633577
     atom   15 type  4   force =    -0.84591207    0.53800528    2.35638159
     atom   16 type  4   force =     0.84591794    0.53799132   -2.35637422
     atom   17 type  4   force =    -2.10787426    1.35061494   -0.19894409
     atom   18 type  4   force =     2.10787379    1.35062116    0.19895416
     atom   19 type  4   force =     2.10790372   -1.35059344    0.19901948
     atom   20 type  4   force =    -2.10791191   -1.35061015   -0.19897310
     The core correction contribution to forces
     atom    1 type  1   force =     0.00000000    0.00000000    0.00000000
     atom    2 type  1   force =     0.00000000    0.00000000    0.00000000
     atom    3 type  2   force =     0.00013918    0.00083262    0.00013818
     atom    4 type  2   force =    -0.00013893    0.00083322   -0.00013736
     atom    5 type  2   force =    -0.00013960   -0.00083330   -0.00013790
     atom    6 type  2   force =     0.00013900   -0.00083314    0.00013715
     atom    7 type  3   force =     0.00000715   -0.00000101    0.00000051
     atom    8 type  3   force =    -0.00000589    0.00000713    0.00001136
     atom    9 type  4   force =     0.00630989    0.00970797    0.00139737
     atom   10 type  4   force =    -0.00630974    0.00970800   -0.00139688
     atom   11 type  4   force =    -0.00630933   -0.00970782   -0.00139778
     atom   12 type  4   force =     0.00630914   -0.00970732    0.00139789
     atom   13 type  4   force =    -0.00242810   -0.00054867    0.01012935
     atom   14 type  4   force =     0.00242792   -0.00054821   -0.01012868
     atom   15 type  4   force =     0.00242892    0.00054863   -0.01012937
     atom   16 type  4   force =    -0.00242889    0.00054897    0.01012928
     atom   17 type  4   force =     0.00930862   -0.00677481    0.00146695
     atom   18 type  4   force =    -0.00930909   -0.00677494   -0.00146669
     atom   19 type  4   force =    -0.00930794    0.00677468   -0.00146720
     atom   20 type  4   force =     0.00930857    0.00677540    0.00146774
     The Hubbard contrib.    to forces
     atom    1 type  1   force =     0.00000000    0.00000000    0.00000000
     atom    2 type  1   force =     0.00000000    0.00000000    0.00000000
     atom    3 type  2   force =     0.00000000    0.00000000    0.00000000
     atom    4 type  2   force =     0.00000000    0.00000000    0.00000000
     atom    5 type  2   force =     0.00000000    0.00000000    0.00000000
     atom    6 type  2   force =     0.00000000    0.00000000    0.00000000
     atom    7 type  3   force =     0.00000000    0.00000000    0.00000000
     atom    8 type  3   force =     0.00000000    0.00000000    0.00000000
     atom    9 type  4   force =     0.00000000    0.00000000    0.00000000
     atom   10 type  4   force =     0.00000000    0.00000000    0.00000000
     atom   11 type  4   force =     0.00000000    0.00000000    0.00000000
     atom   12 type  4   force =     0.00000000    0.00000000    0.00000000
     atom   13 type  4   force =     0.00000000    0.00000000    0.00000000
     atom   14 type  4   force =     0.00000000    0.00000000    0.00000000
     atom   15 type  4   force =     0.00000000    0.00000000    0.00000000
     atom   16 type  4   force =     0.00000000    0.00000000    0.00000000
     atom   17 type  4   force =     0.00000000    0.00000000    0.00000000
     atom   18 type  4   force =     0.00000000    0.00000000    0.00000000
     atom   19 type  4   force =     0.00000000    0.00000000    0.00000000
     atom   20 type  4   force =     0.00000000    0.00000000    0.00000000
     The SCF correction term to forces
     atom    1 type  1   force =     0.00007864   -0.00004703    0.00004273
     atom    2 type  1   force =    -0.00011684    0.00004621   -0.00012547
     atom    3 type  2   force =     0.00011854    0.00000401   -0.00001678
     atom    4 type  2   force =    -0.00011559   -0.00003286    0.00005167
     atom    5 type  2   force =     0.00006080    0.00005214    0.00001854
     atom    6 type  2   force =    -0.00004550   -0.00007132   -0.00005468
     atom    7 type  3   force =     0.00009854   -0.00002105   -0.00003613
     atom    8 type  3   force =    -0.00008208    0.00006507    0.00012963
     atom    9 type  4   force =     0.00007466    0.00007962    0.00000056
     atom   10 type  4   force =    -0.00008468    0.00005546    0.00003535
     atom   11 type  4   force =    -0.00003998   -0.00007395   -0.00008677
     atom   12 type  4   force =     0.00003780   -0.00004741    0.00005016
     atom   13 type  4   force =     0.00005591   -0.00001261    0.00007104
     atom   14 type  4   force =    -0.00003719    0.00000515    0.00000098
     atom   15 type  4   force =     0.00002412   -0.00001613   -0.00007625
     atom   16 type  4   force =    -0.00003178    0.00001717    0.00006298
     atom   17 type  4   force =     0.00002292   -0.00002239   -0.00002375
     atom   18 type  4   force =    -0.00003940   -0.00002847    0.00002833
     atom   19 type  4   force =    -0.00001679   -0.00000417   -0.00007241
     atom   20 type  4   force =     0.00004781    0.00004290    0.00005449

     Total force =     0.195741     Total SCF correction =     0.000461

     Computing stress (Cartesian axis) and pressure

     negative rho (up, down):  2.660E-01 0.000E+00
          total   stress  (Ry/bohr**3)                   (kbar)     P=     -218.40
  -0.00135501   0.00000000   0.00001121         -199.33        0.00        1.65
   0.00000000  -0.00130234   0.00000000            0.00     -191.58        0.00
   0.00001121   0.00000000  -0.00179658            1.65        0.00     -264.29

     kinetic stress (kbar)  17337.40      0.00      5.68
                                0.00  17363.39      0.00
                                5.68      0.00  17188.72

     local   stress (kbar)  -1293.37      0.04   -110.79
                                0.04  -1171.54      0.00
                             -110.79      0.00  -1382.54

     nonloc. stress (kbar)   -860.53      0.00     -1.24
                                0.00   -862.07      0.00
                               -1.24      0.00   -867.85

     hartree stress (kbar)   5631.67     -0.02     31.11
                               -0.02   5596.40     -0.00
                               31.11     -0.00   5738.42

     exc-cor stress (kbar)   4554.46     -0.00      0.25
                               -0.00   4554.12      0.00
                                0.25      0.00   4554.67

     corecor stress (kbar)  -9078.09     -0.00      0.11
                               -0.00  -9078.48     -0.00
                                0.11     -0.00  -9078.11

     ewald   stress (kbar) -16490.87      0.00     76.51
                                0.00 -16593.41      0.00
                               76.51      0.00 -16417.59

     hubbard stress (kbar)      0.00      0.00      0.00
                                0.00      0.00      0.00
                                0.00      0.00      0.00

     DFT-D   stress (kbar)      0.00      0.00      0.00
                                0.00      0.00      0.00
                                0.00      0.00      0.00

     XDM     stress (kbar)      0.00      0.00      0.00
                                0.00      0.00      0.00
                                0.00      0.00      0.00

     dft-nl  stress (kbar)      0.00      0.00      0.00
                                0.00      0.00      0.00
                                0.00      0.00      0.00

     TS-vdW  stress (kbar)      0.00      0.00      0.00
                                0.00      0.00      0.00
                                0.00      0.00      0.00

[...]

                                0.00      0.00      0.00

     Writing all to output data dir new_calculations/myprefix.save/

     General routines

     Parallel routines

     PAW routines

   This run was terminated on:  22:36:34  20May2023

   JOB DONE.