     Program PWSCF v.7.0 starts on 20May2023 at 10:44:58

     Reading input from espresso_12230.pwi
Warning: card &CELL ignored
Warning: card / ignored

     Current dimensions of program PWSCF are:
     Max number of different atomic species (ntypx) = 10
     Max number of k-points (npk) =  40000
     Max angular momentum in pseudopotentials (lmaxx) =  4

     gamma-point specific algorithms are used
     Message from routine setup:
     using ibrav=0 with symmetry is DISCOURAGED, use correct ibrav instead

     Subspace diagonalization in iterative solution of the eigenvalue problem:
     a serial algorithm will be used

     Using Slab Decomposition

     bravais-lattice index     =            0
     lattice parameter (alat)  =      14.2436  a.u.
     unit-cell volume          =    1481.0695 (a.u.)^3
     number of atoms/cell      =            8
     number of atomic types    =            4
     number of electrons       =        96.00
     number of Kohn-Sham states=           58
     kinetic-energy cutoff     =      30.0000  Ry
     charge density cutoff     =     240.0000  Ry
     scf convergence threshold =      1.0E-06
     mixing beta               =       0.7000
     number of iterations used =            8  plain     mixing
     Exchange-correlation= SLA  PW   PBE  PBE
                           (   1   4   3   4   0   0   0)

     celldm(1)=  14.243604  celldm(2)=   0.000000  celldm(3)=   0.000000
     celldm(4)=   0.000000  celldm(5)=   0.000000  celldm(6)=   0.000000

     crystal axes: (cart. coord. in units of alat)
               a(1) = (   1.000000   0.000000   0.000000 )
               a(2) = (   0.383850   0.923395   0.000000 )
               a(3) = (  -0.691925  -0.461698   0.555045 )

     reciprocal axes: (cart. coord. in units 2 pi/alat)
               b(1) = (  1.000000 -0.415694  0.900828 )
               b(2) = (  0.000000  1.082960  0.900828 )
               b(3) = (  0.000000  0.000000  1.801656 )

     PseudoPot. # 1 for Zn read from file:
     /home/pragov/projects/rrg-bengioy-ad/pragov/crystal_structure_design/SSSP/Zn_pbe_v1.uspp.F.UPF
     MD5 check sum: df62231357ef9e81f77b2b3087fa5675
     Pseudo is Ultrasoft, Zval = 20.0
     Generated by new atomic code, or converted to UPF format
     Using radial grid of  943 points,  6 beta functions with:
                l(1) =   0
                l(2) =   0
                l(3) =   1
                l(4) =   1
                l(5) =   2
                l(6) =   2
     Q(r) pseudized with  8 coefficients,  rinner =    1.100   1.100   1.100
                                                       1.100   1.100

     PseudoPot. # 2 for Ag read from file:
     /home/pragov/projects/rrg-bengioy-ad/pragov/crystal_structure_design/SSSP/Ag_ONCV_PBE-1.0.oncvpsp.upf
     MD5 check sum: 94f47bd0669c641108e45594df92fabc
     Pseudo is Norm-conserving, Zval = 19.0
     Generated using ONCVPSP code by D. R. Hamann
     Using radial grid of 1398 points,  6 beta functions with:
                l(1) =   0
                l(2) =   0
                l(3) =   1
                l(4) =   1
                l(5) =   2
                l(6) =   2

     PseudoPot. # 3 for Sn read from file:
     /home/pragov/projects/rrg-bengioy-ad/pragov/crystal_structure_design/SSSP/Sn_pbe_v1.uspp.F.UPF
     MD5 check sum: 4cf58ce39ec5d5d420df3dd08604eb00
     Pseudo is Ultrasoft + core correction, Zval = 14.0
     Generated by new atomic code, or converted to UPF format
     Using radial grid of  891 points,  6 beta functions with:
                l(1) =   0
                l(2) =   0
                l(3) =   1
                l(4) =   1
                l(5) =   2
                l(6) =   2
     Q(r) pseudized with  6 coefficients,  rinner =    1.200   1.200   1.200
                                                       1.200   1.200

     PseudoPot. # 4 for Se read from file:
     /home/pragov/projects/rrg-bengioy-ad/pragov/crystal_structure_design/SSSP/Se_pbe_v1.uspp.F.UPF
     MD5 check sum: 1b3568f3a8ae88f9a2a0ad0698632c85
     Pseudo is Ultrasoft + core correction, Zval =  6.0
     Generated by new atomic code, or converted to UPF format
     Using radial grid of  877 points,  6 beta functions with:
                l(1) =   0
                l(2) =   0
                l(3) =   1
                l(4) =   1
                l(5) =   2
                l(6) =   2
     Q(r) pseudized with  8 coefficients,  rinner =    1.300   1.300   1.300
                                                       1.300   1.300

     atomic species   valence    mass     pseudopotential
        Zn            20.00    65.38000     Zn( 1.00)
        Ag            19.00   107.86820     Ag( 1.00)
        Sn            14.00   118.71000     Sn( 1.00)
        Se             6.00    78.97100     Se( 1.00)

      2 Sym. Ops. (no inversion) found

                                    s                        frac. trans.

      isym =  1     identity

 cryst.   s( 1) = (     1          0          0      )
                  (     0          1          0      )
                  (     0          0          1      )

 cart.    s( 1) = (  1.0000000 -0.0000000  0.0000000 )
                  (  0.0000000  1.0000000 -0.0000000 )
                  (  0.0000000  0.0000000  1.0000000 )

      isym =  2     inv. 180 deg rotation - cart. axis [0,0,1]

 cryst.   s( 2) = (     1          0          0      )
                  (     0          1          0      )
                  (    -1         -1         -1      )

 cart.    s( 2) = (  1.0000000 -0.0000000  0.0000000 )
                  (  0.0000000  1.0000000  0.0000000 )
                  (  0.0000000  0.0000000 -1.0000000 )

   Cartesian axes

     site n.     atom                  positions (alat units)
         1           Zn  tau(   1) = (   0.0000000   0.0000000   0.0000000  )
         2           Ag  tau(   2) = (   0.5000000  -0.0000000   0.2775225  )
         3           Ag  tau(   3) = (   0.1919251   0.4616977   0.2775225  )
         4           Sn  tau(   4) = (   0.6919251   0.4616977   0.0000000  )
         5           Se  tau(   5) = (   0.6850980   0.1146949   0.0000000  )
         6           Se  tau(   6) = (   0.3688839   0.5885907   0.0000000  )
         7           Se  tau(   7) = (   0.1649342   0.1100549   0.2701903  )
         8           Se  tau(   8) = (   0.8568593   0.5717525   0.2848546  )

   Crystallographic axes

     site n.     atom                  positions (cryst. coord.)
         1           Zn  tau(   1) = (  0.0000000  0.0000000  0.0000000  )
         2           Ag  tau(   2) = (  0.7500000  0.2500000  0.5000000  )
         3           Ag  tau(   3) = (  0.2500000  0.7500000  0.5000000  )
         4           Sn  tau(   4) = (  0.5000000  0.5000000  0.0000000  )
         5           Se  tau(   5) = (  0.6374200  0.1242100  0.0000000  )
         6           Se  tau(   6) = (  0.1242100  0.6374200  0.0000000  )
         7           Se  tau(   7) = (  0.3625800  0.3625800  0.4867900  )
         8           Se  tau(   8) = (  0.8757900  0.8757900  0.5132100  )

     number of k points=     1  Methfessel-Paxton smearing, width (Ry)=  0.0010
                       cart. coord. in units 2pi/alat
        k(    1) = (   0.0000000   0.0000000   0.0000000), wk =   2.0000000

                       cryst. coord.
        k(    1) = (   0.0000000   0.0000000   0.0000000), wk =   2.0000000

     Initial potential from superposition of free atoms

     starting charge      94.9990, renormalised to      96.0000
     Starting wfcs are   58 randomized atomic wfcs

     Self-consistent Calculation

     iteration #  1     ecut=    30.00 Ry     beta= 0.70
     Davidson diagonalization with overlap

     ethr =  1.00E-02,  avg # of iterations =  5.0

     total energy              =   -1369.69423830 Ry
     estimated scf accuracy    <       4.22779205 Ry

[...]

     total energy              =   -1372.86469494 Ry
     estimated scf accuracy    <       0.00000220 Ry

     iteration # 17     ecut=    30.00 Ry     beta= 0.70
     Davidson diagonalization with overlap

     ethr =  2.29E-09,  avg # of iterations =  1.0

     End of self-consistent calculation

          k = 0.0000 0.0000 0.0000 (  2059 PWs)   bands (ev):

  -119.4894 -87.3537 -86.8608 -73.6054 -73.4581 -73.3448 -49.9067 -49.8820
   -49.8801 -49.8254 -49.7493 -49.4922 -15.0111 -14.9907 -14.9575 -14.9025
   -14.8544  -6.9318  -6.1089  -6.0888  -6.0360  -0.7897  -0.3400  -0.2543
    -0.1931  -0.1382  -0.0877   1.4265   1.6929   1.7092   1.7624   1.8746
     2.0741   2.1006   2.3572   2.3892   2.7024   2.9130   3.2657   3.5338
     3.7327   3.8218   4.0467   4.2235   4.2847   5.9962   6.1252   6.1607
     6.1623   8.6291   9.1140  10.2342  10.2459  10.2866  11.4554  11.6998
    11.7214  11.7296

     occupation numbers
     1.0000   1.0000   1.0000   1.0000   1.0000   1.0000   1.0000   1.0000
     1.0000   1.0000   1.0000   1.0000   1.0000   1.0000   1.0000   1.0000
     1.0000   1.0000   1.0000   1.0000   1.0000   1.0000   1.0000   1.0000
     1.0000   1.0000   1.0000   1.0000   1.0000   1.0000   1.0000   1.0000
     1.0000   1.0000   1.0000   1.0000   1.0000   1.0000   1.0000   1.0000
     1.0000   1.0000   1.0000   1.0000   1.0000   1.0000   1.0005   0.5481
     0.4514  -0.0000  -0.0000  -0.0000  -0.0000  -0.0000  -0.0000  -0.0000
    -0.0000  -0.0000

     the Fermi energy is     6.1615 ev

!    total energy              =   -1372.86469489 Ry
     estimated scf accuracy    <       0.00000016 Ry
     smearing contrib. (-TS)   =      -0.00055568 Ry
     internal energy E=F+TS    =   -1372.86413922 Ry

     The total energy is F=E-TS. E is the sum of the following terms:
     one-electron contribution =    -985.32044618 Ry
     hartree contribution      =     518.95397356 Ry
     xc contribution           =    -262.31193781 Ry
     ewald contribution        =    -644.18572878 Ry

     convergence has been achieved in  17 iterations

     Forces acting on atoms (cartesian axes, Ry/au):

     atom    1 type  1   force =    -0.00900514    0.00231932   -0.00000000
     atom    2 type  2   force =     0.00725275   -0.01092686    0.00130278
     atom    3 type  2   force =     0.00725275   -0.01092686   -0.00130278
     atom    4 type  3   force =    -0.00597239    0.00067866   -0.00000000
     atom    5 type  4   force =     0.02388919   -0.01733838    0.00000000
     atom    6 type  4   force =    -0.00991351    0.02756357    0.00000000
     atom    7 type  4   force =    -0.00675182    0.00431528   -0.03376879
     atom    8 type  4   force =    -0.00675182    0.00431528    0.03376879
     The non-local contrib.  to forces
     atom    1 type  1   force =    -0.01572940    0.01759555   -0.00000000
     atom    2 type  2   force =    -0.00478457    0.00588916    0.00072089
     atom    3 type  2   force =    -0.00478457    0.00588916   -0.00072089
     atom    4 type  3   force =    -0.00568654    0.00221317   -0.00000000
     atom    5 type  4   force =    -0.03026765   -0.14847280   -0.00000000
     atom    6 type  4   force =    -0.15106652    0.03383815   -0.00000000
     atom    7 type  4   force =     0.08800713    0.06610656   -0.11152064
     atom    8 type  4   force =     0.08800713    0.06610656    0.11152064
     The ionic contribution  to forces
     atom    1 type  1   force =    -0.00000000   -0.00000000   -0.00000000
     atom    2 type  2   force =    -0.00000000   -0.00000000   -0.00000000
     atom    3 type  2   force =    -0.00000000   -0.00000000   -0.00000000
     atom    4 type  3   force =    -0.00000000   -0.00000000   -0.00000000
     atom    5 type  4   force =    -1.00451455    1.85964451    0.00000000
     atom    6 type  4   force =     1.33160387   -1.64138915    0.00000000
     atom    7 type  4   force =    -0.16354466   -0.10912768    2.10444090
     atom    8 type  4   force =    -0.16354466   -0.10912768   -2.10444089
     The local contribution  to forces
     atom    1 type  1   force =     0.00492345   -0.01364785    0.01326493
     atom    2 type  2   force =     0.00349627   -0.01337365    0.02204076
     atom    3 type  2   force =     0.01918642   -0.01511992    0.02068842
     atom    4 type  3   force =    -0.00232089    0.00012713    0.00807505
     atom    5 type  4   force =     1.05239713   -1.74834792   -0.01012433
     atom    6 type  4   force =    -1.21275554    1.64007090   -0.00186294
     atom    7 type  4   force =     0.08363721    0.05454398   -2.03762834
     atom    8 type  4   force =     0.07838672    0.06124950    2.04524176
     The core correction contribution to forces
     atom    1 type  1   force =     0.00000000    0.00000000    0.00000000
     atom    2 type  2   force =     0.00000000    0.00000000    0.00000000
     atom    3 type  2   force =     0.00000000    0.00000000    0.00000000
     atom    4 type  3   force =     0.00029925    0.00025932   -0.00007756
     atom    5 type  4   force =     0.00494642    0.02204029   -0.00213090
     atom    6 type  4   force =     0.02104060   -0.00283697   -0.00058668
     atom    7 type  4   force =    -0.01356288   -0.00887541    0.01699910
     atom    8 type  4   force =    -0.01366298   -0.00803339   -0.01258501
     The Hubbard contrib.    to forces
     atom    1 type  1   force =     0.00000000    0.00000000    0.00000000
     atom    2 type  2   force =     0.00000000    0.00000000    0.00000000
     atom    3 type  2   force =     0.00000000    0.00000000    0.00000000
     atom    4 type  3   force =     0.00000000    0.00000000    0.00000000
     atom    5 type  4   force =     0.00000000    0.00000000    0.00000000
     atom    6 type  4   force =     0.00000000    0.00000000    0.00000000
     atom    7 type  4   force =     0.00000000    0.00000000    0.00000000
     atom    8 type  4   force =     0.00000000    0.00000000    0.00000000
     The SCF correction term to forces
     atom    1 type  1   force =     0.00047194    0.00049603    0.00009555
     atom    2 type  2   force =    -0.00068282   -0.00036486   -0.00003096
     atom    3 type  2   force =    -0.00058297   -0.00052480    0.00015760
     atom    4 type  3   force =     0.00040692    0.00020343    0.00000388
     atom    5 type  4   force =    -0.00000104   -0.00007807    0.00004037
     atom    6 type  4   force =    -0.00006479    0.00000504   -0.00001856
     atom    7 type  4   force =     0.00008551   -0.00001722   -0.00004303
     atom    8 type  4   force =     0.00003008    0.00005413    0.00004906

     Total force =     0.067885     Total SCF correction =     0.001398

     Computing stress (Cartesian axis) and pressure

          total   stress  (Ry/bohr**3)                   (kbar)     P=     -355.96
  -0.00258981  -0.00016554  -0.00000000         -380.97      -24.35       -0.00
  -0.00016554  -0.00224438  -0.00000000          -24.35     -330.16       -0.00
  -0.00000000  -0.00000000  -0.00242519           -0.00       -0.00     -356.76

     kinetic stress (kbar)  18257.62    -40.88      0.00
                              -40.88  18310.33      0.00
                                0.00      0.00  18337.31

     local   stress (kbar) -12456.81   -836.82    -12.35
                             -836.82 -11748.38     -3.95
                              -12.35     -3.95 -11211.94

     nonloc. stress (kbar)   2014.55     23.40      0.00
                               23.40   2009.02      0.00
                                0.00      0.00   1965.52

     hartree stress (kbar)  17408.80    284.40     -1.43
                              284.40  17159.13      1.36
                               -1.43      1.36  16976.43

     exc-cor stress (kbar)   8141.82      1.50     -0.25
                                1.50   8140.37      0.29
                               -0.25      0.29   8139.61

     corecor stress (kbar) -12844.59     -3.48     -0.56
                               -3.48 -12843.07     -0.67
                               -0.56     -0.67 -12840.78

     ewald   stress (kbar) -20902.35    547.53      0.00
                              547.53 -21357.56      0.00
                                0.00      0.00 -21722.91

     hubbard stress (kbar)      0.00      0.00      0.00
                                0.00      0.00      0.00
                                0.00      0.00      0.00

     DFT-D   stress (kbar)      0.00      0.00      0.00
                                0.00      0.00      0.00
                                0.00      0.00      0.00

     XDM     stress (kbar)      0.00      0.00      0.00
                                0.00      0.00      0.00
                                0.00      0.00      0.00

     dft-nl  stress (kbar)      0.00      0.00      0.00
                                0.00      0.00      0.00
                                0.00      0.00      0.00

     TS-vdW  stress (kbar)      0.00      0.00      0.00
                                0.00      0.00      0.00
                                0.00      0.00      0.00

[...]

                                0.00      0.00      0.00

     Writing all to output data dir new_calculations/myprefix.save/

     General routines

     Parallel routines

   This run was terminated on:  10:45:27  20May2023

   JOB DONE.