     Program PWSCF v.7.0 starts on 20May2023 at  8:44:43

     Reading input from espresso_11215.pwi
Warning: card &CELL ignored
Warning: card / ignored

     Current dimensions of program PWSCF are:
     Max number of different atomic species (ntypx) = 10
     Max number of k-points (npk) =  40000
     Max angular momentum in pseudopotentials (lmaxx) =  4
     file In.pbe-dn-rrkjus_psl.0.2.2.UPF: wavefunction(s)  5S renormalized

     gamma-point specific algorithms are used
     Message from routine setup:
     using ibrav=0 with symmetry is DISCOURAGED, use correct ibrav instead

     Subspace diagonalization in iterative solution of the eigenvalue problem:
     a serial algorithm will be used

     Using Slab Decomposition

     bravais-lattice index     =            0
     lattice parameter (alat)  =       6.4829  a.u.
     unit-cell volume          =     185.4326 (a.u.)^3
     number of atoms/cell      =            1
     number of atomic types    =            1
     number of electrons       =        13.00
     number of Kohn-Sham states=           11
     kinetic-energy cutoff     =      30.0000  Ry
     charge density cutoff     =     240.0000  Ry
     scf convergence threshold =      1.0E-06
     mixing beta               =       0.7000
     number of iterations used =            8  plain     mixing
     Exchange-correlation= PBE
                           (   1   4   3   4   0   0   0)

     celldm(1)=   6.482949  celldm(2)=   0.000000  celldm(3)=   0.000000
     celldm(4)=   0.000000  celldm(5)=   0.000000  celldm(6)=   0.000000

     crystal axes: (cart. coord. in units of alat)
               a(1) = (   1.000000   0.000000   0.000000 )
               a(2) = (   0.069210   0.997602   0.000000 )
               a(3) = (  -0.534605  -0.498801   0.682199 )

     reciprocal axes: (cart. coord. in units 2 pi/alat)
               b(1) = (  1.000000 -0.069376  0.732924 )
               b(2) = (  0.000000  1.002404  0.732924 )
               b(3) = (  0.000000  0.000000  1.465849 )

     PseudoPot. # 1 for In read from file:
     /home/pragov/projects/rrg-bengioy-ad/pragov/crystal_structure_design/SSSP/In.pbe-dn-rrkjus_psl.0.2.2.UPF
     MD5 check sum: 25e7c42c3b55b68f4bf926be2e7201a4
     Pseudo is Ultrasoft + core correction, Zval = 13.0
     Generated using "atomic" code by A. Dal Corso  v.5.0.99 svn rev. 10869
     Using radial grid of 1241 points,  6 beta functions with:
                l(1) =   0
                l(2) =   0
                l(3) =   1
                l(4) =   1
                l(5) =   2
                l(6) =   2
     Q(r) pseudized with 0 coefficients

     atomic species   valence    mass     pseudopotential
        In            13.00   114.81800     In( 1.00)

      4 Sym. Ops., with inversion, found

                                    s                        frac. trans.

      isym =  1     identity

 cryst.   s( 1) = (     1          0          0      )
                  (     0          1          0      )
                  (     0          0          1      )

 cart.    s( 1) = (  1.0000000  0.0000000  0.0000000 )
                  (  0.0000000  1.0000000  0.0000000 )
                  (  0.0000000  0.0000000  1.0000000 )

      isym =  2     180 deg rotation - cart. axis [0,0,1]

[...]

      isym =  3     inversion

[...]

      isym =  4     inv. 180 deg rotation - cart. axis [0,0,1]

 cryst.   s( 4) = (     1          0          0      )
                  (     0          1          0      )
                  (    -1         -1         -1      )

 cart.    s( 4) = (  1.0000000  0.0000000 -0.0000000 )
                  (  0.0000000  1.0000000 -0.0000000 )
                  (  0.0000000  0.0000000 -1.0000000 )

   Cartesian axes

     site n.     atom                  positions (alat units)
         1           In  tau(   1) = (   0.0000000   0.0000000   0.0000000  )

   Crystallographic axes

     site n.     atom                  positions (cryst. coord.)
         1           In  tau(   1) = (  0.0000000  0.0000000  0.0000000  )

     number of k points=     1  Methfessel-Paxton smearing, width (Ry)=  0.0010
                       cart. coord. in units 2pi/alat
        k(    1) = (   0.0000000   0.0000000   0.0000000), wk =   2.0000000

                       cryst. coord.
        k(    1) = (   0.0000000   0.0000000   0.0000000), wk =   2.0000000

     Initial potential from superposition of free atoms

     starting charge      12.9963, renormalised to      13.0000
     Starting wfcs are    9 randomized atomic wfcs +    2 random wfcs

     Self-consistent Calculation

     iteration #  1     ecut=    30.00 Ry     beta= 0.70
     Davidson diagonalization with overlap

     ethr =  1.00E-02,  avg # of iterations =  4.0

     Threshold (ethr) on eigenvalues was too large:
     Diagonalizing with lowered threshold

     Davidson diagonalization with overlap

[...]

     total energy              =    -144.65141753 Ry
     estimated scf accuracy    <       0.02702456 Ry

[...]

     total energy              =    -144.65704431 Ry
     estimated scf accuracy    <       0.00001527 Ry

     iteration # 49     ecut=    30.00 Ry     beta= 0.70
     Davidson diagonalization with overlap

     ethr =  1.17E-07,  avg # of iterations =  1.0

     End of self-consistent calculation

          k = 0.0000 0.0000 0.0000 (   267 PWs)   bands (ev):

    -5.3094  -5.2557  -5.1288  -5.0358  -4.8319   0.2593  19.4686  19.4770
    19.6291  21.2724  23.4836

     occupation numbers
     1.0000   1.0000   1.0000   1.0000   1.0000   1.0000   0.4513   0.0487
    -0.0000  -0.0000  -0.0000

     the Fermi energy is    19.4678 ev

!    total energy              =    -144.65704438 Ry
     estimated scf accuracy    <       0.00000052 Ry
     smearing contrib. (-TS)   =      -0.00029459 Ry
     internal energy E=F+TS    =    -144.65674979 Ry

     The total energy is F=E-TS. E is the sum of the following terms:
     one-electron contribution =     -46.09074674 Ry
     hartree contribution      =      34.64631612 Ry
     xc contribution           =     -47.62342300 Ry
     ewald contribution        =     -85.58889618 Ry

     convergence has been achieved in  49 iterations

     Forces acting on atoms (cartesian axes, Ry/au):

     atom    1 type  1   force =     0.00000000    0.00000000    0.00000000
     The non-local contrib.  to forces
     atom    1 type  1   force =     0.00000000    0.00000000    0.00000000
     The ionic contribution  to forces
     atom    1 type  1   force =     0.00000000    0.00000000    0.00000000
     The local contribution  to forces
     atom    1 type  1   force =    -0.00000931   -0.00001110   -0.00000263
     The core correction contribution to forces
     atom    1 type  1   force =    -0.00000062   -0.00000125   -0.00000063
     The Hubbard contrib.    to forces
     atom    1 type  1   force =     0.00000000    0.00000000    0.00000000
     The SCF correction term to forces
     atom    1 type  1   force =     0.00001227    0.00000309   -0.00000963

     Total force =     0.000000     Total SCF correction =     0.000016

     Computing stress (Cartesian axis) and pressure

          total   stress  (Ry/bohr**3)                   (kbar)     P=       65.41
   0.00044075  -0.00005754  -0.00000000           64.84       -8.46       -0.00
  -0.00005754   0.00041110  -0.00000000           -8.46       60.48       -0.00
  -0.00000000  -0.00000000   0.00048208           -0.00       -0.00       70.92

     kinetic stress (kbar)  14991.89   -104.50     -0.00
                             -104.50  14999.82     -0.00
                               -0.00     -0.00  15100.38

     local   stress (kbar)   1124.00    850.08    330.21
                              850.08   1012.75   -349.01
                              330.21   -349.01    216.26

     nonloc. stress (kbar)   3682.63   -188.11     -0.00
                             -188.11   3706.04     -0.00
                               -0.00     -0.00   3882.89

     hartree stress (kbar)   9009.74   -380.45   -137.98
                             -380.45   9059.48    145.66
                             -137.98    145.66   9415.96

     exc-cor stress (kbar)  17164.02     -7.49     -2.81
                               -7.49  17164.99      2.96
                               -2.81      2.96  17172.01

     corecor stress (kbar) -23200.00      7.05      7.77
                                7.05 -23200.84     -8.23
                                7.77     -8.23 -23207.49

     ewald   stress (kbar) -22707.44   -185.05     -0.00
                             -185.05 -22681.76     -0.00
                               -0.00     -0.00 -22509.11

     hubbard stress (kbar)      0.00      0.00      0.00
                                0.00      0.00      0.00
                                0.00      0.00      0.00

     DFT-D   stress (kbar)      0.00      0.00      0.00
                                0.00      0.00      0.00
                                0.00      0.00      0.00

     XDM     stress (kbar)      0.00      0.00      0.00
                                0.00      0.00      0.00
                                0.00      0.00      0.00

     dft-nl  stress (kbar)      0.00      0.00      0.00
                                0.00      0.00      0.00
                                0.00      0.00      0.00

     TS-vdW  stress (kbar)      0.00      0.00      0.00
                                0.00      0.00      0.00
                                0.00      0.00      0.00

[...]

                                0.00      0.00      0.00

     Writing all to output data dir new_calculations/myprefix.save/

     General routines

     Parallel routines

   This run was terminated on:   8:44:48  20May2023

   JOB DONE.