     Program PWSCF v.7.0 starts on 21May2023 at  7:18:37

     Reading input from espresso_10135.pwi
Warning: card &CELL ignored
Warning: card / ignored

     Current dimensions of program PWSCF are:
     Max number of different atomic species (ntypx) = 10
     Max number of k-points (npk) =  40000
     Max angular momentum in pseudopotentials (lmaxx) =  4
     file In.pbe-dn-rrkjus_psl.0.2.2.UPF: wavefunction(s)  5S renormalized
     file Ga.pbe-dn-kjpaw_psl.1.0.0.UPF: wavefunction(s)  4S renormalized
     file O.pbe-n-kjpaw_psl.0.1.UPF: wavefunction(s)  2P renormalized

     gamma-point specific algorithms are used
     Message from routine setup:
     using ibrav=0 with symmetry is DISCOURAGED, use correct ibrav instead

     Subspace diagonalization in iterative solution of the eigenvalue problem:
     a serial algorithm will be used

     Using Slab Decomposition

     bravais-lattice index     =            0
     lattice parameter (alat)  =       6.3232  a.u.
     unit-cell volume          =    1488.3432 (a.u.)^3
     number of atoms/cell      =           18
     number of atomic types    =            4
     number of electrons       =       192.00
     number of Kohn-Sham states=          115
     kinetic-energy cutoff     =      30.0000  Ry
     charge density cutoff     =     240.0000  Ry
     scf convergence threshold =      1.0E-06
     mixing beta               =       0.7000
     number of iterations used =            8  plain     mixing
     Exchange-correlation= SLA  PW   PBX  PBC
                           (   1   4   3   4   0   0   0)

     celldm(1)=   6.323235  celldm(2)=   0.000000  celldm(3)=   0.000000
     celldm(4)=   0.000000  celldm(5)=   0.000000  celldm(6)=   0.000000

     crystal axes: (cart. coord. in units of alat)
               a(1) = (   1.000000   0.000000   0.000000 )
               a(2) = (  -0.500000   0.866025   0.000000 )
               a(3) = (   0.000000   0.000000   6.797581 )

     reciprocal axes: (cart. coord. in units 2 pi/alat)
               b(1) = (  1.000000  0.577350  0.000000 )
               b(2) = (  0.000000  1.154701  0.000000 )
               b(3) = (  0.000000  0.000000  0.147111 )

     PseudoPot. # 1 for Zn read from file:
     /home/pragov/projects/rrg-bengioy-ad/pragov/crystal_structure_design/SSSP/Zn_pbe_v1.uspp.F.UPF
     MD5 check sum: df62231357ef9e81f77b2b3087fa5675
     Pseudo is Ultrasoft, Zval = 20.0
     Generated by new atomic code, or converted to UPF format
     Using radial grid of  943 points,  6 beta functions with:
                l(1) =   0
                l(2) =   0
                l(3) =   1
                l(4) =   1
                l(5) =   2
                l(6) =   2
     Q(r) pseudized with  8 coefficients,  rinner =    1.100   1.100   1.100
                                                       1.100   1.100

     PseudoPot. # 2 for In read from file:
     /home/pragov/projects/rrg-bengioy-ad/pragov/crystal_structure_design/SSSP/In.pbe-dn-rrkjus_psl.0.2.2.UPF
     MD5 check sum: 25e7c42c3b55b68f4bf926be2e7201a4
     Pseudo is Ultrasoft + core correction, Zval = 13.0
     Generated using "atomic" code by A. Dal Corso  v.5.0.99 svn rev. 10869
     Using radial grid of 1241 points,  6 beta functions with:
                l(1) =   0
                l(2) =   0
                l(3) =   1
                l(4) =   1
                l(5) =   2
                l(6) =   2
     Q(r) pseudized with 0 coefficients

     PseudoPot. # 3 for Ga read from file:
     /home/pragov/projects/rrg-bengioy-ad/pragov/crystal_structure_design/SSSP/Ga.pbe-dn-kjpaw_psl.1.0.0.UPF
     MD5 check sum: a27b4342b1af7e5f338de752e9ed7044
     Pseudo is Projector augmented-wave + core cor, Zval = 13.0
     Generated using "atomic" code by A. Dal Corso  v.5.1
     Shape of augmentation charge: PSQ
     Using radial grid of 1205 points,  6 beta functions with:
                l(1) =   0
                l(2) =   0
                l(3) =   1
                l(4) =   1
                l(5) =   2
                l(6) =   2
     Q(r) pseudized with 0 coefficients

     PseudoPot. # 4 for O  read from file:
     /home/pragov/projects/rrg-bengioy-ad/pragov/crystal_structure_design/SSSP/O.pbe-n-kjpaw_psl.0.1.UPF
     MD5 check sum: 0234752ac141de4415c5fc33072bef88
     Pseudo is Projector augmented-wave + core cor, Zval =  6.0
     Generated using "atomic" code by A. Dal Corso  v.5.0.99 svn rev. 10869
     Shape of augmentation charge: BESSEL
     Using radial grid of 1095 points,  4 beta functions with:
                l(1) =   0
                l(2) =   0
                l(3) =   1
                l(4) =   1
     Q(r) pseudized with 0 coefficients

     atomic species   valence    mass     pseudopotential
        Zn            20.00    65.38000     Zn( 1.00)
        In            13.00   114.81800     In( 1.00)
        Ga            13.00    69.72300     Ga( 1.00)
        O              6.00    15.99900     O ( 1.00)

     24 Sym. Ops., with inversion, found (12 have fractional translation)

                                    s                        frac. trans.

      isym =  1     identity

 cryst.   s( 1) = (     1          0          0      )
                  (     0          1          0      )
                  (     0          0          1      )

 cart.    s( 1) = (  1.0000000 -0.0000000  0.0000000 )
                  (  0.0000000  1.0000000  0.0000000 )
                  (  0.0000000  0.0000000  1.0000000 )

      isym =  2     180 deg rotation - cart. axis [0,0,1]

 cryst.   s( 2) = (    -1          0          0      )    f =( -0.0000000 )
                  (     0         -1          0      )       (  0.0000000 )
                  (     0          0          1      )       ( -0.5000000 )

 cart.    s( 2) = ( -1.0000000  0.0000000  0.0000000 )    f =( -0.0000000 )
                  (  0.0000000 -1.0000000  0.0000000 )       (  0.0000000 )
                  (  0.0000000  0.0000000  1.0000000 )       ( -3.3987907 )

[...]

      isym =  4     180 deg rotation - cart. axis [1,0,0]

[...]

      isym =  5      60 deg rotation - cryst. axis [0,0,1]

[...]

 cryst.   s( 8) = (    -1         -1          0      )
                  (     1          0          0      )
                  (     0          0          1      )

 cart.    s( 8) = ( -0.5000000  0.8660254  0.0000000 )
                  ( -0.8660254 -0.5000000  0.0000000 )
                  (  0.0000000  0.0000000  1.0000000 )

[...]

 cryst.   s( 9) = (     0         -1          0      )    f =(  0.0000000 )
                  (    -1          0          0      )       (  0.0000000 )
                  (     0          0         -1      )       (  0.5000000 )

 cart.    s( 9) = (  0.5000000 -0.8660254  0.0000000 )    f =(  0.0000000 )
                  ( -0.8660254 -0.5000000  0.0000000 )       (  0.0000000 )
                  (  0.0000000  0.0000000 -1.0000000 )       (  3.3987907 )

[...]

 cryst.   s(10) = (     1          1          0      )    f =(  0.0000000 )
                  (     0         -1          0      )       (  0.0000010 )
                  (     0          0         -1      )       (  0.5000000 )

 cart.    s(10) = (  0.5000000  0.8660254  0.0000000 )    f =( -0.0000005 )
                  (  0.8660254 -0.5000000  0.0000000 )       (  0.0000009 )
                  (  0.0000000  0.0000000 -1.0000000 )       (  3.3987907 )

[...]

 cryst.   s(11) = (    -1         -1          0      )
                  (     0          1          0      )
                  (     0          0         -1      )

 cart.    s(11) = ( -0.5000000 -0.8660254  0.0000000 )
                  ( -0.8660254  0.5000000  0.0000000 )
                  (  0.0000000  0.0000000 -1.0000000 )

      isym = 12     180 deg rotation - cryst. axis [1,1,0]

[...]

      isym = 13     inversion

[...]

      isym = 14     inv. 180 deg rotation - cart. axis [0,0,1]

[...]

      isym = 16     inv. 180 deg rotation - cart. axis [1,0,0]

[...]

      isym = 17     inv.  60 deg rotation - cryst. axis [0,0,1]

[...]

 cryst.   s(22) = (    -1         -1          0      )    f =( -0.0000000 )
                  (     0          1          0      )       (  0.0000010 )
                  (     0          0          1      )       ( -0.5000000 )

 cart.    s(22) = ( -0.5000000 -0.8660254  0.0000000 )    f =( -0.0000005 )
                  ( -0.8660254  0.5000000  0.0000000 )       (  0.0000009 )
                  (  0.0000000  0.0000000  1.0000000 )       ( -3.3987907 )

[...]

      isym = 24     inv. 180 deg rotation - cryst. axis [1,1,0]

 cryst.   s(24) = (     0         -1          0      )
                  (    -1          0          0      )
                  (     0          0          1      )

 cart.    s(24) = (  0.5000000 -0.8660254  0.0000000 )
                  ( -0.8660254 -0.5000000  0.0000000 )
                  (  0.0000000  0.0000000  1.0000000 )

   Cartesian axes

     site n.     atom                  positions (alat units)
         1           Zn  tau(   1) = (   0.5000005   0.2886748   0.9206169  )
         2           Zn  tau(   2) = (   0.5000005   0.2886748   2.4781739  )
         3           Zn  tau(   3) = (  -0.0000005   0.5773506   4.3194076  )
         4           Zn  tau(   4) = (  -0.0000005   0.5773506   5.8769646  )
         5           In  tau(   5) = (   0.0000000   0.0000000   0.0000000  )
         6           In  tau(   6) = (   0.0000000   0.0000000   3.3987907  )
         7           Ga  tau(   7) = (   0.0000000   0.0000000   1.6993954  )
         8           Ga  tau(   8) = (   0.0000000   0.0000000   5.0981861  )
         9           O   tau(   9) = (   0.5000005   0.2886748   0.3272084  )
        10           O   tau(  10) = (   0.0000000   0.0000000   1.1025881  )
        11           O   tau(  11) = (   0.5000005   0.2886748   1.6993954  )
        12           O   tau(  12) = (   0.0000000   0.0000000   2.2962026  )
        13           O   tau(  13) = (   0.5000005   0.2886748   3.0715824  )
        14           O   tau(  14) = (  -0.0000005   0.5773506   3.7259991  )
        15           O   tau(  15) = (   0.0000000   0.0000000   4.5013789  )
        16           O   tau(  16) = (  -0.0000005   0.5773506   5.0981861  )
        17           O   tau(  17) = (   0.0000000   0.0000000   5.6949934  )
        18           O   tau(  18) = (  -0.0000005   0.5773506   6.4703731  )

   Crystallographic axes

     site n.     atom                  positions (cryst. coord.)
         1           Zn  tau(   1) = (  0.6666670  0.3333330  0.1354330  )
         2           Zn  tau(   2) = (  0.6666670  0.3333330  0.3645670  )
         3           Zn  tau(   3) = (  0.3333330  0.6666670  0.6354330  )
         4           Zn  tau(   4) = (  0.3333330  0.6666670  0.8645670  )
         5           In  tau(   5) = (  0.0000000  0.0000000  0.0000000  )
         6           In  tau(   6) = (  0.0000000  0.0000000  0.5000000  )
         7           Ga  tau(   7) = (  0.0000000  0.0000000  0.2500000  )
         8           Ga  tau(   8) = (  0.0000000  0.0000000  0.7500000  )
         9           O   tau(   9) = (  0.6666670  0.3333330  0.0481360  )
[...]

     Check: negative core charge=   -0.000011

     Initial potential from superposition of free atoms

     starting charge     191.9861, renormalised to     192.0000
     Starting wfcs are  128 randomized atomic wfcs
     Checking if some PAW data can be deallocated...

     Self-consistent Calculation

     iteration #  1     ecut=    30.00 Ry     beta= 0.70
     Davidson diagonalization with overlap

     ethr =  1.00E-02,  avg # of iterations =  3.0

     total energy              =   -3101.91297949 Ry
     estimated scf accuracy    <       6.70206575 Ry

[...]

     total energy              =   -3105.18640388 Ry
     estimated scf accuracy    <       0.00000210 Ry

     iteration # 22     ecut=    30.00 Ry     beta= 0.70
     Davidson diagonalization with overlap

     ethr =  1.09E-09,  avg # of iterations =  2.0

     End of self-consistent calculation

          k = 0.0000 0.0000 0.0000 (  2108 PWs)   bands (ev):

  -115.0556-115.0551-115.0534-115.0528 -69.2292 -69.2235 -69.2201 -69.2184
   -69.2063 -69.2063 -69.2019 -69.2019 -69.1980 -69.1980 -69.1974 -69.1974
    -9.2628  -9.2545  -8.7675  -8.7363  -8.1280  -8.0344  -7.9316  -7.8668
    -7.4612  -7.4555  -5.3485  -5.3485  -5.3482  -5.3482  -5.2824  -5.2800
    -5.1003  -5.1003  -5.1000  -5.1000  -5.0545  -5.0545  -5.0529  -5.0529
    -4.7704  -4.7704  -4.7688  -4.7688  -4.2177  -4.2162   2.8138   2.9961
     3.0163   3.2235   3.2235   3.2238   3.2238   3.2464   3.2464   3.2537
     3.2537   3.5246   3.6270   3.9501   3.9501   3.9557   3.9557   3.9605
     3.9605   3.9717   3.9717   4.0936   4.6903   4.8887   6.2002   6.4521
     6.6678   7.4409   7.4546   7.4546   7.4614   7.4614   7.4692   7.9783
     7.9783   8.0049   8.0049   8.4130   8.4242   8.4243   8.4640   8.4640
     8.9758   8.9758   9.0220   9.0220   9.0830   9.0830   9.1229   9.1229
     9.5206  10.5440  11.0637  12.2082  12.7825  13.5598  13.6171  13.6691
    14.0730  14.2449  18.2381  18.4373  18.7358  18.9925  19.0305  19.0305
    19.0324  19.0324  20.0051

     occupation numbers
     1.0000   1.0000   1.0000   1.0000   1.0000   1.0000   1.0000   1.0000
     1.0000   1.0000   1.0000   1.0000   1.0000   1.0000   1.0000   1.0000
     1.0000   1.0000   1.0000   1.0000   1.0000   1.0000   1.0000   1.0000
     1.0000   1.0000   1.0000   1.0000   1.0000   1.0000   1.0000   1.0000
     1.0000   1.0000   1.0000   1.0000   1.0000   1.0000   1.0000   1.0000
     1.0000   1.0000   1.0000   1.0000   1.0000   1.0000   1.0000   1.0000
     1.0000   1.0000   1.0000   1.0000   1.0000   1.0000   1.0000   1.0000
     1.0000   1.0000   1.0000   1.0000   1.0000   1.0000   1.0000   1.0000
     1.0000   1.0000   1.0000   1.0000   1.0000   1.0000   1.0000   1.0000
     1.0000   1.0000   1.0000   1.0000   1.0000   1.0000   1.0000   1.0000
     1.0000   1.0000   1.0000   1.0000   1.0000   1.0000   1.0000   1.0000
     1.0000   1.0000   1.0000   1.0000   1.0000   1.0000   1.0000   1.0000
    -0.0000  -0.0000  -0.0000  -0.0000  -0.0000  -0.0000  -0.0000  -0.0000
    -0.0000  -0.0000  -0.0000  -0.0000  -0.0000  -0.0000  -0.0000  -0.0000
    -0.0000  -0.0000  -0.0000

     the Fermi energy is     9.3039 ev

!    total energy              =   -3105.18640374 Ry
     estimated scf accuracy    <       0.00000072 Ry
     smearing contrib. (-TS)   =       0.00000000 Ry
     internal energy E=F+TS    =   -3105.18640374 Ry

     The total energy is F=E-TS. E is the sum of the following terms:
     one-electron contribution =   -2077.86153861 Ry
     hartree contribution      =    1167.46529586 Ry
     xc contribution           =    -417.04139146 Ry
     ewald contribution        =   -1460.51459891 Ry
     one-center paw contrib.   =    -317.23417062 Ry
      -> PAW hartree energy AE =     585.40920975 Ry
      -> PAW hartree energy PS =    -580.12231875 Ry
      -> PAW xc energy AE      =    -475.07508630 Ry
      -> PAW xc energy PS      =     152.55402468 Ry
      -> total E_H with PAW    =    1172.75218686 Ry
      -> total E_XC with PAW   =    -739.56245307 Ry

     convergence has been achieved in  22 iterations

     Forces acting on atoms (cartesian axes, Ry/au):

     atom    1 type  1   force =     0.00000000    0.00000000   -0.07057257
     atom    2 type  1   force =     0.00000000   -0.00000000    0.07057257
     atom    3 type  1   force =     0.00000000   -0.00000000   -0.07057257
     atom    4 type  1   force =    -0.00000000    0.00000000    0.07057257
     atom    5 type  2   force =     0.00000000    0.00000000   -0.00000000
     atom    6 type  2   force =     0.00000000    0.00000000   -0.00000000
     atom    7 type  3   force =     0.00000000    0.00000000    0.00000000
     atom    8 type  3   force =    -0.00000000   -0.00000000   -0.00000000
     atom    9 type  4   force =     0.00000000    0.00000000    0.06084109
     atom   10 type  4   force =     0.00000000    0.00000000    0.10536045
     atom   11 type  4   force =     0.00000000    0.00000000   -0.00000000
     atom   12 type  4   force =     0.00000000    0.00000000   -0.10536045
     atom   13 type  4   force =     0.00000000   -0.00000000   -0.06084109
     atom   14 type  4   force =    -0.00000000   -0.00000000    0.06084109
     atom   15 type  4   force =     0.00000000   -0.00000000    0.10536045
     atom   16 type  4   force =    -0.00000000   -0.00000000    0.00000000
     atom   17 type  4   force =    -0.00000000    0.00000000   -0.10536045
     atom   18 type  4   force =    -0.00000000   -0.00000000   -0.06084109
     The non-local contrib.  to forces
     atom    1 type  1   force =     0.00000000    0.00000000    0.73406144
     atom    2 type  1   force =     0.00000000    0.00000000   -0.73406144
     atom    3 type  1   force =    -0.00000000   -0.00000000    0.73406144
     atom    4 type  1   force =     0.00000000    0.00000000   -0.73406144
     atom    5 type  2   force =    -0.00000000   -0.00000000    0.00000000
     atom    6 type  2   force =    -0.00000000   -0.00000000    0.00000000
     atom    7 type  3   force =     0.00000000    0.00000000   -0.00000000
     atom    8 type  3   force =     0.00000000    0.00000000    0.00000000
     atom    9 type  4   force =     0.00000000   -0.00000000   -0.37272369
     atom   10 type  4   force =     0.00000000    0.00000000   -0.09326623
     atom   11 type  4   force =     0.00000000   -0.00000000   -0.00000000
     atom   12 type  4   force =     0.00000000    0.00000000    0.09326623
     atom   13 type  4   force =     0.00000000    0.00000000    0.37272369
     atom   14 type  4   force =    -0.00000000    0.00000000   -0.37272369
     atom   15 type  4   force =    -0.00000000   -0.00000000   -0.09326623
     atom   16 type  4   force =     0.00000000    0.00000000   -0.00000000
     atom   17 type  4   force =     0.00000000   -0.00000000    0.09326623
     atom   18 type  4   force =    -0.00000000    0.00000000    0.37272369
     The ionic contribution  to forces
     atom    1 type  1   force =    -0.00002797    0.00001615  -26.80957434
     atom    2 type  1   force =    -0.00002797    0.00001615   26.80957434
     atom    3 type  1   force =     0.00002797   -0.00001615  -26.80957434
     atom    4 type  1   force =     0.00002797   -0.00001615   26.80957434
     atom    5 type  2   force =     0.00000000   -0.00000000   -0.00000000
     atom    6 type  2   force =     0.00000000   -0.00000000   -0.00000000
     atom    7 type  3   force =     0.00002600   -0.00001501    0.00000000
     atom    8 type  3   force =    -0.00002600    0.00001501    0.00000000
     atom    9 type  4   force =    -0.00001044    0.00000603   -8.84533457
     atom   10 type  4   force =     0.00002664   -0.00001538   -3.65107326
     atom   11 type  4   force =    -0.00002421    0.00001398    0.00000000
     atom   12 type  4   force =     0.00002664   -0.00001538    3.65107326
     atom   13 type  4   force =    -0.00001044    0.00000603    8.84533457
     atom   14 type  4   force =     0.00001044   -0.00000603   -8.84533457
     atom   15 type  4   force =    -0.00002664    0.00001538   -3.65107326
     atom   16 type  4   force =     0.00002421   -0.00001398    0.00000000
     atom   17 type  4   force =    -0.00002664    0.00001538    3.65107326
     atom   18 type  4   force =     0.00001044   -0.00000603    8.84533457
     The local contribution  to forces
     atom    1 type  1   force =     0.00002963   -0.00001809   26.00760278
     atom    2 type  1   force =     0.00003332   -0.00002134  -26.00812442
     atom    3 type  1   force =    -0.00003911    0.00002014   26.00456539
     atom    4 type  1   force =    -0.00003386    0.00001795  -26.00611184
     atom    5 type  2   force =    -0.00000310   -0.00000076    0.00203133
     atom    6 type  2   force =     0.00000623   -0.00000341    0.00138877
     atom    7 type  3   force =    -0.00002810    0.00001674   -0.00052100
     atom    8 type  3   force =     0.00002769   -0.00001543   -0.00228290
     atom    9 type  4   force =    -0.00000402   -0.00000116    9.27551773
     atom   10 type  4   force =    -0.00002494    0.00000894    3.84874069
     atom   11 type  4   force =     0.00002290   -0.00001641    0.00000035
     atom   12 type  4   force =    -0.00001807    0.00000995   -3.84890921
     atom   13 type  4   force =     0.00001057   -0.00000415   -9.27474050
     atom   14 type  4   force =    -0.00001233    0.00000600    9.27511425
     atom   15 type  4   force =     0.00002914   -0.00001213    3.84741938
     atom   16 type  4   force =    -0.00002207    0.00001762   -0.00093503
     atom   17 type  4   force =     0.00002228   -0.00001425   -3.84853945
     atom   18 type  4   force =     0.00000924   -0.00000095   -9.27456550
     The core correction contribution to forces
     atom    1 type  1   force =     0.00000000    0.00000000    0.00000000
     atom    2 type  1   force =     0.00000000    0.00000000    0.00000000
     atom    3 type  1   force =     0.00000000    0.00000000    0.00000000
     atom    4 type  1   force =     0.00000000    0.00000000    0.00000000
     atom    5 type  2   force =    -0.00000071    0.00000002    0.00000231
     atom    6 type  2   force =     0.00000044   -0.00000041    0.00000014
     atom    7 type  3   force =    -0.00000011    0.00000001    0.00000255
     atom    8 type  3   force =     0.00000003   -0.00000000    0.00000738
     atom    9 type  4   force =    -0.00000007    0.00000004    0.00420194
     atom   10 type  4   force =    -0.00000002   -0.00000008    0.00181334
     atom   11 type  4   force =     0.00000002   -0.00000002    0.00000282
     atom   12 type  4   force =     0.00000008   -0.00000004   -0.00181086
     atom   13 type  4   force =     0.00000002    0.00000002   -0.00420924
     atom   14 type  4   force =     0.00000000    0.00000001    0.00420236
     atom   15 type  4   force =     0.00000001    0.00000004    0.00181526
     atom   16 type  4   force =     0.00000004    0.00000006    0.00000420
     atom   17 type  4   force =    -0.00000005   -0.00000000   -0.00181337
     atom   18 type  4   force =     0.00000008   -0.00000005   -0.00421199
     The Hubbard contrib.    to forces
     atom    1 type  1   force =     0.00000000    0.00000000    0.00000000
     atom    2 type  1   force =     0.00000000    0.00000000    0.00000000
     atom    3 type  1   force =     0.00000000    0.00000000    0.00000000
     atom    4 type  1   force =     0.00000000    0.00000000    0.00000000
     atom    5 type  2   force =     0.00000000    0.00000000    0.00000000
     atom    6 type  2   force =     0.00000000    0.00000000    0.00000000
     atom    7 type  3   force =     0.00000000    0.00000000    0.00000000
     atom    8 type  3   force =     0.00000000    0.00000000    0.00000000
     atom    9 type  4   force =     0.00000000    0.00000000    0.00000000
     atom   10 type  4   force =     0.00000000    0.00000000    0.00000000
     atom   11 type  4   force =     0.00000000    0.00000000    0.00000000
     atom   12 type  4   force =     0.00000000    0.00000000    0.00000000
     atom   13 type  4   force =     0.00000000    0.00000000    0.00000000
     atom   14 type  4   force =     0.00000000    0.00000000    0.00000000
     atom   15 type  4   force =     0.00000000    0.00000000    0.00000000
     atom   16 type  4   force =     0.00000000    0.00000000    0.00000000
     atom   17 type  4   force =     0.00000000    0.00000000    0.00000000
     atom   18 type  4   force =     0.00000000    0.00000000    0.00000000
     The SCF correction term to forces
     atom    1 type  1   force =     0.00001649   -0.00000246   -0.00279712
     atom    2 type  1   force =     0.00000146    0.00000843    0.00351144
     atom    3 type  1   force =     0.00001910   -0.00000227    0.00069848
     atom    4 type  1   force =     0.00000270    0.00000288    0.00103303
     atom    5 type  2   force =    -0.00000451   -0.00000002   -0.00216797
     atom    6 type  2   force =    -0.00001301    0.00000380   -0.00142791
     atom    7 type  3   force =    -0.00000028    0.00000277    0.00049662
     atom    8 type  3   force =     0.00000271   -0.00000118    0.00254716
     atom    9 type  4   force =     0.00001219   -0.00000340   -0.00114140
     atom   10 type  4   force =    -0.00000201    0.00000312   -0.00088025
     atom   11 type  4   force =     0.00000061    0.00000078    0.00013655
     atom   12 type  4   force =    -0.00000488    0.00000189    0.00119032
     atom   13 type  4   force =     0.00000157   -0.00000204   -0.00014937
     atom   14 type  4   force =     0.00000289   -0.00000114   -0.00068396
     atom   15 type  4   force =    -0.00000319   -0.00000049    0.00065340
     atom   16 type  4   force =     0.00000046   -0.00000135    0.00127084
     atom   17 type  4   force =     0.00000231   -0.00000049    0.00064464
     atom   18 type  4   force =    -0.00001048    0.00000355   -0.00050984

     Total force =     0.281304     Total SCF correction =     0.006473

     Computing stress (Cartesian axis) and pressure

          total   stress  (Ry/bohr**3)                   (kbar)     P=     -152.80
   0.00011279   0.00000000   0.00000000           16.59        0.00        0.00
   0.00000000   0.00011279   0.00000000            0.00       16.59        0.00
   0.00000000   0.00000000  -0.00334168            0.00        0.00     -491.58

     kinetic stress (kbar)  29048.59      0.00      0.00
                                0.00  29048.59      0.00
                                0.00      0.00  27033.82

     local   stress (kbar) -15708.67      0.11     -0.00
                                0.11 -15708.54      0.00
                               -0.00      0.00   2406.25

     nonloc. stress (kbar)   1554.82      0.00      0.00
                                0.00   1554.82      0.00
                                0.00      0.00   1569.42

     hartree stress (kbar)  41318.26     -0.04      0.00
                               -0.04  41318.21     -0.00
                                0.00     -0.00  32753.64

     exc-cor stress (kbar)  -1692.17     -0.00      0.00
                               -0.00  -1692.17     -0.00
                                0.00     -0.00  -1693.32

     corecor stress (kbar)  -9075.73     -0.00     -0.00
                               -0.00  -9075.73     -0.00
                               -0.00     -0.00  -9063.93

     ewald   stress (kbar) -45428.51     -0.07     -0.00
                               -0.07 -45428.58      0.00
                               -0.00      0.00 -53497.46

     hubbard stress (kbar)      0.00      0.00      0.00
                                0.00      0.00      0.00
                                0.00      0.00      0.00

     DFT-D   stress (kbar)      0.00      0.00      0.00
                                0.00      0.00      0.00
                                0.00      0.00      0.00

     XDM     stress (kbar)      0.00      0.00      0.00
                                0.00      0.00      0.00
                                0.00      0.00      0.00

     dft-nl  stress (kbar)      0.00      0.00      0.00
                                0.00      0.00      0.00
                                0.00      0.00      0.00

     TS-vdW  stress (kbar)      0.00      0.00      0.00
                                0.00      0.00      0.00
                                0.00      0.00      0.00

[...]

                                0.00      0.00      0.00

     Writing all to output data dir new_calculations/myprefix.save/

     General routines

     Parallel routines

     PAW routines

   This run was terminated on:   7:19:12  21May2023

   JOB DONE.