     Program PWSCF v.7.0 starts on 20May2023 at  3:36:14

     Reading input from espresso_2126.pwi
Warning: card &CELL ignored
Warning: card / ignored

     Current dimensions of program PWSCF are:
     Max number of different atomic species (ntypx) = 10
     Max number of k-points (npk) =  40000
     Max angular momentum in pseudopotentials (lmaxx) =  4
     file K.pbe-spn-kjpaw_psl.1.0.0.UPF: wavefunction(s)  3S renormalized
     file O.pbe-n-kjpaw_psl.0.1.UPF: wavefunction(s)  2P renormalized

     gamma-point specific algorithms are used
     Message from routine setup:
     using ibrav=0 with symmetry is DISCOURAGED, use correct ibrav instead

     Subspace diagonalization in iterative solution of the eigenvalue problem:
     a serial algorithm will be used

     Using Slab Decomposition

     bravais-lattice index     =            0
     lattice parameter (alat)  =      14.5935  a.u.
     unit-cell volume          =    1480.9461 (a.u.)^3
     number of atoms/cell      =           12
     number of atomic types    =            3
     number of electrons       =        96.00
     number of Kohn-Sham states=           58
     kinetic-energy cutoff     =      30.0000  Ry
     charge density cutoff     =     240.0000  Ry
     scf convergence threshold =      1.0E-06
     mixing beta               =       0.7000
     number of iterations used =            8  plain     mixing
     Exchange-correlation= SLA  PW   PBX  PBC
                           (   1   4   3   4   0   0   0)

     celldm(1)=  14.593481  celldm(2)=   0.000000  celldm(3)=   0.000000
     celldm(4)=   0.000000  celldm(5)=   0.000000  celldm(6)=   0.000000

     crystal axes: (cart. coord. in units of alat)
               a(1) = (   1.000000   0.000000   0.000000 )
               a(2) = (   0.438061   0.898945   0.000000 )
               a(3) = (  -0.719031  -0.449473   0.530065 )

     reciprocal axes: (cart. coord. in units 2 pi/alat)
               b(1) = (  1.000000 -0.487306  0.943280 )
               b(2) = (  0.000000  1.112415  0.943280 )
               b(3) = (  0.000000  0.000000  1.886560 )

     PseudoPot. # 1 for K  read from file:
     /home/pragov/projects/rrg-bengioy-ad/pragov/crystal_structure_design/SSSP/K.pbe-spn-kjpaw_psl.1.0.0.UPF
     MD5 check sum: 7d58810084cac21f60fbe77ea2b688fd
     Pseudo is Projector augmented-wave + core cor, Zval =  9.0
     Generated using "atomic" code by A. Dal Corso  v.5.1
     Shape of augmentation charge: PSQ
     Using radial grid of 1165 points,  6 beta functions with:
                l(1) =   0
                l(2) =   0
                l(3) =   1
                l(4) =   1
                l(5) =   2
                l(6) =   2
     Q(r) pseudized with 0 coefficients

     PseudoPot. # 2 for Tc read from file:
     /home/pragov/projects/rrg-bengioy-ad/pragov/crystal_structure_design/SSSP/Tc_ONCV_PBE-1.0.oncvpsp.upf
     MD5 check sum: 1c2b1e6c8b361b656073c0c20ed4f60a
     Pseudo is Norm-conserving, Zval = 15.0
     Generated using ONCVPSP code by D. R. Hamann
     Using radial grid of 1492 points,  6 beta functions with:
                l(1) =   0
                l(2) =   0
                l(3) =   1
                l(4) =   1
                l(5) =   2
                l(6) =   2

     PseudoPot. # 3 for O  read from file:
     /home/pragov/projects/rrg-bengioy-ad/pragov/crystal_structure_design/SSSP/O.pbe-n-kjpaw_psl.0.1.UPF
     MD5 check sum: 0234752ac141de4415c5fc33072bef88
     Pseudo is Projector augmented-wave + core cor, Zval =  6.0
     Generated using "atomic" code by A. Dal Corso  v.5.0.99 svn rev. 10869
     Shape of augmentation charge: BESSEL
     Using radial grid of 1095 points,  4 beta functions with:
                l(1) =   0
                l(2) =   0
                l(3) =   1
                l(4) =   1
     Q(r) pseudized with 0 coefficients

     atomic species   valence    mass     pseudopotential
        K              9.00    39.09830     K ( 1.00)
        Tc            15.00    97.90721     Tc( 1.00)
        O              6.00    15.99900     O ( 1.00)

      2 Sym. Ops., with inversion, found ( 1 have fractional translation)

                                    s                        frac. trans.

      isym =  1     identity

 cryst.   s( 1) = (     1          0          0      )
                  (     0          1          0      )
                  (     0          0          1      )

 cart.    s( 1) = (  1.0000000 -0.0000000  0.0000000 )
                  (  0.0000000  1.0000000  0.0000000 )
                  (  0.0000000  0.0000000  1.0000000 )

      isym =  2     inversion

 cryst.   s( 2) = (    -1          0          0      )    f =(  0.2500000 )
                  (     0         -1          0      )       ( -0.2500000 )
                  (     0          0         -1      )       (  0.5000000 )

 cart.    s( 2) = ( -1.0000000  0.0000000 -0.0000000 )    f =( -0.2190307 )
                  (  0.0000000 -1.0000000 -0.0000000 )       ( -0.4494725 )
                  (  0.0000000  0.0000000 -1.0000000 )       (  0.2650327 )

   Cartesian axes

     site n.     atom                  positions (alat units)
         1           K   tau(   1) = (   0.7190307   0.4494725   0.0000000  )
         2           K   tau(   2) = (   0.2190307   0.4494725   0.2650327  )
         3           Tc  tau(   3) = (   0.0000000   0.0000000   0.0000000  )
         4           Tc  tau(   4) = (   0.5000000   0.0000000   0.2650327  )
         5           O   tau(   5) = (   0.0784599  -0.3679629   0.4724701  )
         6           O   tau(   6) = (   0.3604961  -0.0192833   0.4414925  )
         7           O   tau(   7) = (   0.8596166   0.7819860   0.0885729  )
         8           O   tau(   8) = (   0.4226215   0.6811940   0.0575953  )
         9           O   tau(   9) = (   0.5154399   0.2177510   0.2074374  )
        10           O   tau(  10) = (   0.0784449   0.1169590   0.1764598  )
        11           O   tau(  11) = (   0.8585346   0.4687558   0.3536055  )
        12           O   tau(  12) = (  -0.2974906  -0.0815096   0.3226280  )

   Crystallographic axes

     site n.     atom                  positions (cryst. coord.)
         1           K   tau(   1) = (  0.5000000  0.5000000  0.0000000  )
         2           K   tau(   2) = (  0.2500000  0.7500000  0.5000000  )
         3           Tc  tau(   3) = (  0.0000000  0.0000000  0.0000000  )
         4           Tc  tau(   4) = (  0.7500000  0.2500000  0.5000000  )
         5           O   tau(   5) = (  0.7034420  0.0363440  0.8913430  )
         6           O   tau(   6) = (  0.7863440  0.3950000  0.8329020  )
         7           O   tau(   7) = (  0.5620990  0.9534420  0.1670980  )
         8           O   tau(   8) = (  0.1450000  0.8120990  0.1086570  )
         9           O   tau(   9) = (  0.6050000  0.4379010  0.3913430  )
        10           O   tau(  10) = (  0.1879010  0.2965580  0.3329020  )
        11           O   tau(  11) = (  0.9636560  0.8550000  0.6670980  )
        12           O   tau(  12) = (  0.0465580  0.2136560  0.6086570  )

     number of k points=     1  Methfessel-Paxton smearing, width (Ry)=  0.0010
                       cart. coord. in units 2pi/alat
        k(    1) = (   0.0000000   0.0000000   0.0000000), wk =   2.0000000

                       cryst. coord.
        k(    1) = (   0.0000000   0.0000000   0.0000000), wk =   2.0000000

     Check: negative core charge=   -0.000013

     Initial potential from superposition of free atoms

     starting charge      95.9609, renormalised to      96.0000
     Starting wfcs are   68 randomized atomic wfcs
     Checking if some PAW data can be deallocated...

     Self-consistent Calculation

     iteration #  1     ecut=    30.00 Ry     beta= 0.70
     Davidson diagonalization with overlap

     ethr =  1.00E-02,  avg # of iterations =  6.0

     total energy              =    -881.29537277 Ry
     estimated scf accuracy    <       4.37581676 Ry

[...]

     total energy              =    -883.96354770 Ry
     estimated scf accuracy    <       0.00000208 Ry

     iteration # 12     ecut=    30.00 Ry     beta= 0.70
     Davidson diagonalization with overlap

     ethr =  2.16E-09,  avg # of iterations =  2.0

     End of self-consistent calculation

          k = 0.0000 0.0000 0.0000 (  2087 PWs)   bands (ev):

   -66.2834 -64.8580 -37.8466 -37.7711 -37.5557 -37.3815 -37.1773 -37.1449
   -25.6145 -24.2416 -16.6432 -16.3451 -15.3550 -14.9886 -14.7470 -14.5165
   -14.2304 -13.7612  -8.2578  -8.0903  -7.9572  -7.8510  -7.8025  -7.5525
    -1.8579  -1.5705  -1.5306  -1.5161  -1.4482  -1.3119  -1.2821  -1.1836
    -1.1262  -1.0489   0.0377   0.2935   1.1034   1.1454   1.2186   1.5808
     1.6942   1.7705   1.8238   2.2112   2.2574   2.4241   2.4436   2.5642
     5.6375   5.8760   6.1831   6.5140   7.8262   7.9213   8.0114   8.4388
     8.6466   8.8216

     occupation numbers
     1.0000   1.0000   1.0000   1.0000   1.0000   1.0000   1.0000   1.0000
     1.0000   1.0000   1.0000   1.0000   1.0000   1.0000   1.0000   1.0000
     1.0000   1.0000   1.0000   1.0000   1.0000   1.0000   1.0000   1.0000
     1.0000   1.0000   1.0000   1.0000   1.0000   1.0000   1.0000   1.0000
     1.0000   1.0000   1.0000   1.0000   1.0000   1.0000   1.0000   1.0000
     1.0000   1.0000   1.0000   1.0000   1.0000   1.0000   1.0000   1.0000
    -0.0000  -0.0000  -0.0000  -0.0000  -0.0000  -0.0000  -0.0000  -0.0000
    -0.0000  -0.0000

     the Fermi energy is     4.2465 ev

!    total energy              =    -883.96354797 Ry
     estimated scf accuracy    <       0.00000004 Ry
     smearing contrib. (-TS)   =       0.00000000 Ry
     internal energy E=F+TS    =    -883.96354797 Ry

     The total energy is F=E-TS. E is the sum of the following terms:
     one-electron contribution =    -430.22689298 Ry
     hartree contribution      =     246.57597443 Ry
     xc contribution           =    -116.35964777 Ry
     ewald contribution        =    -396.89346661 Ry
     one-center paw contrib.   =    -187.05951502 Ry
      -> PAW hartree energy AE =     288.55271962 Ry
      -> PAW hartree energy PS =    -287.49922661 Ry
      -> PAW xc energy AE      =    -265.91040863 Ry
      -> PAW xc energy PS      =      77.79740059 Ry
      -> total E_H with PAW    =     247.62946744 Ry
      -> total E_XC with PAW   =    -304.47265581 Ry

     convergence has been achieved in  12 iterations

     Forces acting on atoms (cartesian axes, Ry/au):

     atom    1 type  1   force =    -0.00447120    0.01087340   -0.00898688
     atom    2 type  1   force =     0.00447120   -0.01087340    0.00898688
     atom    3 type  2   force =     0.01166375    0.00605756   -0.00014476
     atom    4 type  2   force =    -0.01166375   -0.00605756    0.00014476
     atom    5 type  3   force =     0.00112388    0.03417190    0.10869716
     atom    6 type  3   force =    -0.02952103   -0.01510339   -0.05621052
     atom    7 type  3   force =     0.06750670   -0.01840054    0.02613847
     atom    8 type  3   force =     0.01642057   -0.02086960   -0.09130275
     atom    9 type  3   force =    -0.01642057    0.02086960    0.09130275
     atom   10 type  3   force =    -0.06750670    0.01840054   -0.02613847
     atom   11 type  3   force =     0.02952103    0.01510339    0.05621052
     atom   12 type  3   force =    -0.00112388   -0.03417190   -0.10869716
     The non-local contrib.  to forces
     atom    1 type  1   force =    -0.00491298    0.00785412    0.00204143
     atom    2 type  1   force =     0.00491298   -0.00785412   -0.00204143
     atom    3 type  2   force =     0.00543103   -0.01585262    0.01349495
     atom    4 type  2   force =    -0.00543103    0.01585262   -0.01349495
     atom    5 type  3   force =     1.13991403   -0.36477767    0.41530687
     atom    6 type  3   force =     0.77738075    0.14970582   -0.96118936
     atom    7 type  3   force =     0.43043815    0.53657479    0.91173542
     atom    8 type  3   force =    -0.00594908    1.18656677   -0.39365351
     atom    9 type  3   force =     0.00594908   -1.18656677    0.39365351
     atom   10 type  3   force =    -0.43043815   -0.53657479   -0.91173542
     atom   11 type  3   force =    -0.77738075   -0.14970582    0.96118936
     atom   12 type  3   force =    -1.13991403    0.36477767   -0.41530687
     The ionic contribution  to forces
     atom    1 type  1   force =    -0.00001570    0.00002563   -0.00000044
     atom    2 type  1   force =     0.00001570   -0.00002563    0.00000044
     atom    3 type  2   force =     0.00008367   -0.00007965   -0.00004594
     atom    4 type  2   force =    -0.00008367    0.00007966    0.00004594
     atom    5 type  3   force =   -12.23180483    5.69417309   -4.65761013
     atom    6 type  3   force =    -8.70446648    0.05146377   11.31200181
     atom    7 type  3   force =    -3.76684097   -7.84740869  -11.31208396
     atom    8 type  3   force =    -0.23955885  -13.49010056    4.65758946
     atom    9 type  3   force =     0.23955885   13.49010056   -4.65758946
     atom   10 type  3   force =     3.76684097    7.84740869   11.31208396
     atom   11 type  3   force =     8.70446648   -0.05146377  -11.31200181
     atom   12 type  3   force =    12.23180483   -5.69417309    4.65761013
     The local contribution  to forces
     atom    1 type  1   force =    -0.00185626    0.00744464   -0.01104372
     atom    2 type  1   force =    -0.00279681    0.00211834    0.01202468
     atom    3 type  2   force =     0.01772967    0.01743961   -0.03146938
     atom    4 type  2   force =     0.00546524   -0.02686215   -0.00416671
     atom    5 type  3   force =    11.13959417   -5.18841551    4.33302733
     atom    6 type  3   force =     7.82574010   -0.27707010  -10.33054000
     atom    7 type  3   force =     3.46657435    7.35133514   10.37112831
     atom    8 type  3   force =     0.22921755   12.19892354   -4.31150870
     atom    9 type  3   force =    -0.29346044  -12.38918681    4.40460670
     atom   10 type  3   force =    -3.34718691   -7.24282332  -10.49631286
     atom   11 type  3   force =    -7.98517941    0.15067891   10.49945897
     atom   12 type  3   force =   -11.06733410    5.40870552   -4.37424092
     The core correction contribution to forces
     atom    1 type  1   force =    -0.00010385    0.00021071    0.00021060
     atom    2 type  1   force =    -0.00016902   -0.00049654   -0.00081378
     atom    3 type  2   force =     0.00000000    0.00000000    0.00000000
     atom    4 type  2   force =     0.00000000    0.00000000    0.00000000
     atom    5 type  3   force =    -0.00967309    0.00631685   -0.00346402
     atom    6 type  3   force =    -0.00910159   -0.00357618    0.00905452
     atom    7 type  3   force =    -0.00171820   -0.00364315   -0.00777251
     atom    8 type  3   force =    -0.00017622   -0.01324047    0.00373783
     atom    9 type  3   force =    -0.00136806    0.00953235   -0.00188280
     atom   10 type  3   force =     0.00419699    0.00566715    0.00661949
     atom   11 type  3   force =     0.00661726    0.00128708   -0.00682534
     atom   12 type  3   force =     0.01110199   -0.00035603    0.00180201
     The Hubbard contrib.    to forces
     atom    1 type  1   force =     0.00000000    0.00000000    0.00000000
     atom    2 type  1   force =     0.00000000    0.00000000    0.00000000
     atom    3 type  2   force =     0.00000000    0.00000000    0.00000000
     atom    4 type  2   force =     0.00000000    0.00000000    0.00000000
     atom    5 type  3   force =     0.00000000    0.00000000    0.00000000
     atom    6 type  3   force =     0.00000000    0.00000000    0.00000000
     atom    7 type  3   force =     0.00000000    0.00000000    0.00000000
     atom    8 type  3   force =     0.00000000    0.00000000    0.00000000
     atom    9 type  3   force =     0.00000000    0.00000000    0.00000000
     atom   10 type  3   force =     0.00000000    0.00000000    0.00000000
     atom   11 type  3   force =     0.00000000    0.00000000    0.00000000
     atom   12 type  3   force =     0.00000000    0.00000000    0.00000000
     The SCF correction term to forces
     atom    1 type  1   force =    -0.00007090   -0.00001231    0.00006829
     atom    2 type  1   force =     0.00001986    0.00003396    0.00008001
     atom    3 type  2   force =     0.00005927   -0.00007691   -0.00025907
     atom    4 type  2   force =     0.00002561    0.00024519   -0.00037420
     atom    5 type  3   force =    -0.00000857   -0.00000420    0.00000076
     atom    6 type  3   force =    -0.00008212    0.00002884    0.00006765
     atom    7 type  3   force =    -0.00005307   -0.00002338   -0.00014520
     atom    8 type  3   force =     0.00003144    0.00005030   -0.00002506
     atom    9 type  3   force =     0.00004425    0.00005945   -0.00004244
     atom   10 type  3   force =    -0.00002605   -0.00004194   -0.00007004
     atom   11 type  3   force =    -0.00001085   -0.00003747   -0.00000552
     atom   12 type  3   force =     0.00011527   -0.00000530    0.00000215

     Total force =     0.253990     Total SCF correction =     0.000605

     Computing stress (Cartesian axis) and pressure

          total   stress  (Ry/bohr**3)                   (kbar)     P=     -170.90
  -0.00251672   0.00030645  -0.00008094         -370.22       45.08      -11.91
   0.00030645  -0.00040217  -0.00014783           45.08      -59.16      -21.75
  -0.00008094  -0.00014783  -0.00056639          -11.91      -21.75      -83.32

     kinetic stress (kbar)  18645.58      0.66    -14.43
                                0.66  18731.22    -12.20
                              -14.43    -12.20  18746.60

     local   stress (kbar) -15764.17  -1367.29     -2.09
                            -1367.29 -14128.32    -21.31
                               -2.09    -21.31 -13275.42

     nonloc. stress (kbar)   4049.45      3.91     -0.06
                                3.91   4058.79      3.02
                               -0.06      3.02   4051.28

     hartree stress (kbar)   8764.54    660.74      4.80
                              660.74   8072.32      8.59
                                4.80      8.59   7655.98

     exc-cor stress (kbar)  -2687.79     -0.14     -0.04
                               -0.14  -2688.29      0.09
                               -0.04      0.09  -2688.91

     corecor stress (kbar)   -877.23      0.40     -0.09
                                0.40   -876.52      0.10
                               -0.09      0.10   -877.67

     ewald   stress (kbar) -12500.60    746.80     -0.01
                              746.80 -13228.36     -0.03
                               -0.01     -0.03 -13695.19

     hubbard stress (kbar)      0.00      0.00      0.00
                                0.00      0.00      0.00
                                0.00      0.00      0.00

     DFT-D   stress (kbar)      0.00      0.00      0.00
                                0.00      0.00      0.00
                                0.00      0.00      0.00

     XDM     stress (kbar)      0.00      0.00      0.00
                                0.00      0.00      0.00
                                0.00      0.00      0.00

     dft-nl  stress (kbar)      0.00      0.00      0.00
                                0.00      0.00      0.00
                                0.00      0.00      0.00

     TS-vdW  stress (kbar)      0.00      0.00      0.00
                                0.00      0.00      0.00
                                0.00      0.00      0.00

[...]

                                0.00      0.00      0.00

     Writing all to output data dir new_calculations/myprefix.save/

     General routines

     Parallel routines

     PAW routines

   This run was terminated on:   3:36:36  20May2023

   JOB DONE.