     Program PWSCF v.7.0 starts on 20May2023 at 19:12:58

     Reading input from espresso_1633.pwi
Warning: card &CELL ignored
Warning: card / ignored

     Current dimensions of program PWSCF are:
     Max number of different atomic species (ntypx) = 10
     Max number of k-points (npk) =  40000
     Max angular momentum in pseudopotentials (lmaxx) =  4
     file O.pbe-n-kjpaw_psl.0.1.UPF: wavefunction(s)  2P renormalized

     gamma-point specific algorithms are used
     Message from routine setup:
     using ibrav=0 with symmetry is DISCOURAGED, use correct ibrav instead

     Subspace diagonalization in iterative solution of the eigenvalue problem:
     a serial algorithm will be used

     Using Slab Decomposition

     bravais-lattice index     =            0
     lattice parameter (alat)  =       7.6296  a.u.
     unit-cell volume          =    2649.1757 (a.u.)^3
     number of atoms/cell      =           18
     number of atomic types    =            4
     number of electrons       =       174.00
     number of Kohn-Sham states=          104
     kinetic-energy cutoff     =      30.0000  Ry
     charge density cutoff     =     240.0000  Ry
     scf convergence threshold =      1.0E-06
     mixing beta               =       0.7000
     number of iterations used =            8  plain     mixing
     Exchange-correlation= SLA  PW   PBX  PBC
                           (   1   4   3   4   0   0   0)

     celldm(1)=   7.629602  celldm(2)=   0.000000  celldm(3)=   0.000000
     celldm(4)=   0.000000  celldm(5)=   0.000000  celldm(6)=   0.000000

     crystal axes: (cart. coord. in units of alat)
               a(1) = (   1.000000   0.000000   0.000000 )
               a(2) = (  -0.500000   0.866025   0.000000 )
               a(3) = (   0.000000   0.000000   6.887703 )

     reciprocal axes: (cart. coord. in units 2 pi/alat)
               b(1) = (  1.000000  0.577350  0.000000 )
               b(2) = (  0.000000  1.154700  0.000000 )
               b(3) = (  0.000000  0.000000  0.145186 )

     PseudoPot. # 1 for Sr read from file:
     /home/pragov/projects/rrg-bengioy-ad/pragov/crystal_structure_design/SSSP/Sr_pbe_v1.uspp.F.UPF
     MD5 check sum: 6b418c05fbe9db5448babca5e47b7a5b
     Pseudo is Ultrasoft + core correction, Zval = 10.0
     Generated by new atomic code, or converted to UPF format
     Using radial grid of  883 points,  6 beta functions with:
                l(1) =   0
                l(2) =   0
                l(3) =   1
                l(4) =   1
                l(5) =   2
                l(6) =   2
     Q(r) pseudized with  6 coefficients,  rinner =    1.400   1.400   1.400
                                                       1.400   1.400

     PseudoPot. # 2 for Cu read from file:
     /home/pragov/projects/rrg-bengioy-ad/pragov/crystal_structure_design/SSSP/Cu_pbe_v1.2.uspp.F.UPF
     MD5 check sum: 6e991ff952a84172a2a52a1c1e996048
     Pseudo is Ultrasoft + core correction, Zval = 19.0
     Generated by new atomic code, or converted to UPF format
     Using radial grid of  867 points,  6 beta functions with:
                l(1) =   0
                l(2) =   0
                l(3) =   1
                l(4) =   1
                l(5) =   2
                l(6) =   2
     Q(r) pseudized with  8 coefficients,  rinner =    1.150   1.150   1.150
                                                       1.150   1.150

     PseudoPot. # 3 for Cl read from file:
     /home/pragov/projects/rrg-bengioy-ad/pragov/crystal_structure_design/SSSP/cl_pbe_v1.4.uspp.F.UPF
     MD5 check sum: fc6f6913ecf08c9257cb748ef0700058
     Pseudo is Ultrasoft + core correction, Zval =  7.0
     Generated by new atomic code, or converted to UPF format
     Using radial grid of  909 points,  6 beta functions with:
                l(1) =   0
                l(2) =   0
                l(3) =   1
                l(4) =   1
                l(5) =   2
                l(6) =   2
     Q(r) pseudized with  8 coefficients,  rinner =    1.300   1.300   1.300
                                                       1.300   1.300

     PseudoPot. # 4 for O  read from file:
     /home/pragov/projects/rrg-bengioy-ad/pragov/crystal_structure_design/SSSP/O.pbe-n-kjpaw_psl.0.1.UPF
     MD5 check sum: 0234752ac141de4415c5fc33072bef88
     Pseudo is Projector augmented-wave + core cor, Zval =  6.0
     Generated using "atomic" code by A. Dal Corso  v.5.0.99 svn rev. 10869
     Shape of augmentation charge: BESSEL
     Using radial grid of 1095 points,  4 beta functions with:
                l(1) =   0
                l(2) =   0
                l(3) =   1
                l(4) =   1
     Q(r) pseudized with 0 coefficients

     atomic species   valence    mass     pseudopotential
        Sr            10.00    87.62000     Sr( 1.00)
        Cu            19.00    63.54600     Cu( 1.00)
        Cl             7.00    35.45000     Cl( 1.00)
        O              6.00    15.99900     O ( 1.00)

      6 Sym. Ops. (no inversion) found ( 4 have fractional translation)

                                    s                        frac. trans.

      isym =  1     identity

 cryst.   s( 1) = (     1          0          0      )
                  (     0          1          0      )
                  (     0          0          1      )

 cart.    s( 1) = (  1.0000000  0.0000000  0.0000000 )
                  (  0.0000000  1.0000000  0.0000000 )
                  (  0.0000000  0.0000000  1.0000000 )

      isym =  2     180 deg rotation - cart. axis [1,0,0]

 cryst.   s( 2) = (     1          0          0      )    f =( -0.0000000 )
                  (    -1         -1          0      )       (  0.0000000 )
                  (     0          0         -1      )       (  0.3333340 )

 cart.    s( 2) = (  1.0000000 -0.0000002  0.0000000 )    f =( -0.0000000 )
                  (  0.0000000 -1.0000000  0.0000000 )       (  0.0000000 )
                  (  0.0000000  0.0000000 -1.0000000 )       (  2.2959055 )

      isym =  3     120 deg rotation - cryst. axis [0,0,1]

[...]

 cryst.   s( 5) = (    -1         -1          0      )    f =( -0.0000000 )
                  (     0          1          0      )       ( -0.0000000 )
                  (     0          0         -1      )       ( -0.3333330 )

 cart.    s( 5) = ( -0.5000001 -0.8660253  0.0000000 )    f =(  0.0000000 )
                  ( -0.8660254  0.5000001  0.0000000 )       ( -0.0000000 )
                  (  0.0000000  0.0000000 -1.0000000 )       ( -2.2958987 )

      isym =  6     180 deg rotation - cryst. axis [1,1,0]

 cryst.   s( 6) = (     0          1          0      )
                  (     1          0          0      )
                  (     0          0         -1      )

 cart.    s( 6) = ( -0.4999999  0.8660254  0.0000000 )
                  (  0.8660254  0.4999999  0.0000000 )
                  (  0.0000000  0.0000000 -1.0000000 )

   Cartesian axes

     site n.     atom                  positions (alat units)
         1           Sr  tau(   1) = (  -0.1662124   0.8549308   3.9760987  )
         2           Sr  tau(   2) = (   0.3234981   0.5825043   1.6802000  )
         3           Sr  tau(   3) = (   0.3337875   0.0110947   0.6156986  )
         4           Sr  tau(   4) = (   0.3427146   0.5714097   5.2075028  )
         5           Sr  tau(   5) = (   0.8234980   0.2835211   2.9116042  )
         6           Sr  tau(   6) = (  -0.1572855   0.2946158   6.2720042  )
         7           Cu  tau(   7) = (  -0.1619155   0.2804459   4.5918042  )
         8           Cu  tau(   8) = (   0.3380846   0.5855796   0.0000000  )
         9           Cu  tau(   9) = (   0.3238310   0.0000000   2.2958987  )
        10           Cl  tau(  10) = (  -0.1741535   0.3016427   1.1479528  )
        11           Cl  tau(  11) = (   0.3258465   0.5643827   3.4438514  )
        12           Cl  tau(  12) = (   0.3483070   0.0000000   5.7397501  )
        13           O   tau(  13) = (   0.8335450   0.2771385   4.1410936  )
        14           O   tau(  14) = (   0.3432186   0.5833019   6.4369922  )
        15           O   tau(  15) = (  -0.1767634   0.8604404   2.7466093  )
        16           O   tau(  16) = (  -0.1567815   0.2827235   5.0425079  )
        17           O   tau(  17) = (   0.3335451   0.5888869   0.4507106  )
        18           O   tau(  18) = (   0.3232365   0.0055850   1.8451949  )

   Crystallographic axes

     site n.     atom                  positions (cryst. coord.)
         1           Sr  tau(   1) = (  0.3273820  0.9871890  0.5772750  )
         2           Sr  tau(   2) = (  0.6598070  0.6726180  0.2439420  )
         3           Sr  tau(   3) = (  0.3401930  0.0128110  0.0893910  )
         4           Sr  tau(   4) = (  0.6726180  0.6598070  0.7560580  )
         5           Sr  tau(   5) = (  0.9871890  0.3273820  0.4227250  )
         6           Sr  tau(   6) = (  0.0128110  0.3401930  0.9106090  )
         7           Cu  tau(   7) = ( -0.0000000  0.3238310  0.6666670  )
         8           Cu  tau(   8) = (  0.6761690  0.6761690  0.0000000  )
         9           Cu  tau(   9) = (  0.3238310  0.0000000  0.3333330  )
        10           Cl  tau(  10) = (  0.0000000  0.3483070  0.1666670  )
        11           Cl  tau(  11) = (  0.6516930  0.6516930  0.5000000  )
        12           Cl  tau(  12) = (  0.3483070  0.0000000  0.8333330  )
        13           O   tau(  13) = (  0.9935510  0.3200120  0.6012300  )
        14           O   tau(  14) = (  0.6799880  0.6735390  0.9345630  )
        15           O   tau(  15) = (  0.3200120  0.9935510  0.3987700  )
        16           O   tau(  16) = (  0.0064490  0.3264610  0.7321030  )
        17           O   tau(  17) = (  0.6735390  0.6799880  0.0654370  )
        18           O   tau(  18) = (  0.3264610  0.0064490  0.2678970  )

     number of k points=     1  Methfessel-Paxton smearing, width (Ry)=  0.0010
                       cart. coord. in units 2pi/alat
        k(    1) = (   0.0000000   0.0000000   0.0000000), wk =   2.0000000

                       cryst. coord.
        k(    1) = (   0.0000000   0.0000000   0.0000000), wk =   2.0000000

     Check: negative core charge=   -0.000007

     Initial potential from superposition of free atoms

     starting charge     170.7980, renormalised to     174.0000

     negative rho (up, down):  4.293E-01 0.000E+00
     Starting wfcs are  153 randomized atomic wfcs
     Checking if some PAW data can be deallocated...

     Self-consistent Calculation

     iteration #  1     ecut=    30.00 Ry     beta= 0.70
     Davidson diagonalization with overlap

     ethr =  1.00E-02,  avg # of iterations =  3.0

     negative rho (up, down):  4.234E-01 0.000E+00

     total energy              =   -1966.75799676 Ry
     estimated scf accuracy    <      21.99594933 Ry

[...]

     c_bands:  1 eigenvalues not converged
     ethr =  3.15E-05,  avg # of iterations = 20.0

[...]

     total energy              =   -1983.74232770 Ry
     estimated scf accuracy    <       0.00000391 Ry

     iteration # 19     ecut=    30.00 Ry     beta= 0.70
     Davidson diagonalization with overlap

     ethr =  2.25E-09,  avg # of iterations =  2.0

[...]

     End of self-consistent calculation

          k = 0.0000 0.0000 0.0000 (  3694 PWs)   bands (ev):

  -106.0146-106.0133-106.0122 -63.7105 -63.7078 -63.7068 -63.2066 -63.2057
   -63.2041 -63.2033 -63.2023 -63.2016 -27.3293 -27.3283 -27.3273 -27.3270
   -27.3264 -27.3251 -11.2551 -11.2506 -11.2491 -11.0348 -11.0327 -11.0270
    -9.6549  -9.6355  -9.6343  -9.3134  -9.3122  -9.2904  -9.2180  -9.2169
    -9.2166  -9.2160  -9.2159  -9.2154  -9.2149  -9.2147  -9.2144  -9.2141
    -9.2135  -9.2126  -8.1613  -8.1563  -8.1549   1.3861   1.3874   1.4757
     2.4153   2.6977   2.6982   2.7060   2.7068   2.7156   2.7157   2.7445
     2.7447   3.3314   3.3315   3.4233   3.4245   3.5153   3.5204   3.5204
     3.5238   3.6637   3.7305   3.7434   3.7440   3.8614   3.8646   3.8647
     3.8691   4.0507   4.0508   4.2835   4.2837   4.2883   4.2899   4.2900
     4.2913   5.2809   5.2810   5.3545   5.3548   5.3553   5.3555   8.3365
     8.6891   8.6898   9.9356   9.9366  10.4416  10.7464  10.7477  11.3694
    11.6257  12.0483  12.0493  12.0497  12.0570  12.0580  12.0592  12.2650

     occupation numbers
     1.0000   1.0000   1.0000   1.0000   1.0000   1.0000   1.0000   1.0000
     1.0000   1.0000   1.0000   1.0000   1.0000   1.0000   1.0000   1.0000
     1.0000   1.0000   1.0000   1.0000   1.0000   1.0000   1.0000   1.0000
     1.0000   1.0000   1.0000   1.0000   1.0000   1.0000   1.0000   1.0000
     1.0000   1.0000   1.0000   1.0000   1.0000   1.0000   1.0000   1.0000
     1.0000   1.0000   1.0000   1.0000   1.0000   1.0000   1.0000   1.0000
     1.0000   1.0000   1.0000   1.0000   1.0000   1.0000   1.0000   1.0000
     1.0000   1.0000   1.0000   1.0000   1.0000   1.0000   1.0000   1.0000
     1.0000   1.0000   1.0000   1.0000   1.0000   1.0000   1.0000   1.0000
     1.0000   1.0000   1.0000   1.0000   1.0000   1.0000   1.0000   1.0000
     1.0000   1.0000   1.0000   1.0000   1.0000   1.0000   1.0000  -0.0000
    -0.0000  -0.0000  -0.0000  -0.0000  -0.0000  -0.0000  -0.0000  -0.0000
    -0.0000  -0.0000  -0.0000  -0.0000  -0.0000  -0.0000  -0.0000  -0.0000

     the Fermi energy is     6.8440 ev

!    total energy              =   -1983.74232809 Ry
     estimated scf accuracy    <       0.00000081 Ry
     smearing contrib. (-TS)   =       0.00000000 Ry
     internal energy E=F+TS    =   -1983.74232809 Ry

     The total energy is F=E-TS. E is the sum of the following terms:
     one-electron contribution =   -1649.17661741 Ry
     hartree contribution      =     891.72555037 Ry
     xc contribution           =    -299.56066633 Ry
     ewald contribution        =    -869.59792642 Ry
     one-center paw contrib.   =     -57.13266831 Ry
      -> PAW hartree energy AE =     173.93664858 Ry
      -> PAW hartree energy PS =    -173.32394695 Ry
      -> PAW xc energy AE      =    -102.40212364 Ry
      -> PAW xc energy PS      =      44.65675369 Ry
      -> total E_H with PAW    =     892.33825201 Ry
      -> total E_XC with PAW   =    -357.30603627 Ry

     convergence has been achieved in  19 iterations

     negative rho (up, down):  4.320E-01 0.000E+00

     Forces acting on atoms (cartesian axes, Ry/au):

     atom    1 type  1   force =    -0.00003472   -0.00020658    0.04830006
     atom    2 type  1   force =    -0.00016155    0.00013336    0.04830006
     atom    3 type  1   force =    -0.00003472    0.00020658   -0.04830006
     atom    4 type  1   force =     0.00019626   -0.00007323   -0.04830006
     atom    5 type  1   force =    -0.00016155   -0.00013336   -0.04830006
     atom    6 type  1   force =     0.00019626    0.00007323    0.04830006
     atom    7 type  2   force =     0.00027929   -0.00048375    0.00000000
     atom    8 type  2   force =     0.00027929    0.00048375    0.00000000
     atom    9 type  2   force =    -0.00055859    0.00000000   -0.00000000
     atom   10 type  3   force =     0.00024055   -0.00041665   -0.00000000
     atom   11 type  3   force =     0.00024055    0.00041665    0.00000000
     atom   12 type  3   force =    -0.00048110    0.00000000   -0.00000000
     atom   13 type  4   force =     0.00014441    0.00069850   -0.05615650
     atom   14 type  4   force =    -0.00067713   -0.00022419   -0.05615650
     atom   15 type  4   force =     0.00053272    0.00047431    0.05615650
     atom   16 type  4   force =    -0.00067713    0.00022419    0.05615650
     atom   17 type  4   force =     0.00014441   -0.00069850    0.05615650
     atom   18 type  4   force =     0.00053272   -0.00047431   -0.05615650
     The non-local contrib.  to forces
     atom    1 type  1   force =    -0.00181415   -0.00009519    0.11123212
     atom    2 type  1   force =     0.00082464    0.00161870    0.11123212
     atom    3 type  1   force =    -0.00181415    0.00009519   -0.11123212
     atom    4 type  1   force =     0.00098951    0.00152350   -0.11123212
     atom    5 type  1   force =     0.00082464   -0.00161870   -0.11123212
     atom    6 type  1   force =     0.00098951   -0.00152351    0.11123212
     atom    7 type  2   force =    -0.00180983    0.00313472   -0.00000000
     atom    8 type  2   force =    -0.00180983   -0.00313472    0.00000000
     atom    9 type  2   force =     0.00361967   -0.00000000    0.00000000
     atom   10 type  3   force =     0.00120545   -0.00208791    0.00000000
     atom   11 type  3   force =     0.00120545    0.00208791    0.00000000
     atom   12 type  3   force =    -0.00241091    0.00000000   -0.00000000
     atom   13 type  4   force =     0.00414754    0.00642556    0.63716270
     atom   14 type  4   force =    -0.00763847    0.00037910    0.63716270
     atom   15 type  4   force =     0.00349093    0.00680466   -0.63716270
     atom   16 type  4   force =    -0.00763847   -0.00037910   -0.63716270
     atom   17 type  4   force =     0.00414754   -0.00642556   -0.63716270
     atom   18 type  4   force =     0.00349093   -0.00680466    0.63716270
     The ionic contribution  to forces
     atom    1 type  1   force =    -0.00832693    0.00208228  -16.41058844
     atom    2 type  1   force =     0.00596879    0.00616893  -16.41080312
     atom    3 type  1   force =    -0.00832678   -0.00208303   16.41079075
     atom    4 type  1   force =     0.00235805    0.00825359   16.41080312
     atom    5 type  1   force =     0.00596677   -0.00617020   16.41058844
     atom    6 type  1   force =     0.00235943   -0.00825272  -16.41079075
     atom    7 type  2   force =    -0.01598330    0.02766662   -0.00088500
     atom    8 type  2   force =    -0.01597525   -0.02766994    0.00000000
     atom    9 type  2   force =     0.03195165   -0.00000864    0.00088500
     atom   10 type  3   force =     0.02254348   -0.03904830   -0.00015484
     atom   11 type  3   force =     0.02254466    0.03904849   -0.00000000
     atom   12 type  3   force =    -0.04508856   -0.00000092    0.00015484
     atom   13 type  4   force =    -0.13749289   -0.09274830  -18.66554293
     atom   14 type  4   force =     0.14906768   -0.07269673  -18.66562075
     atom   15 type  4   force =    -0.01157595   -0.16544648   18.66554293
     atom   16 type  4   force =     0.14907874    0.07270089   18.66612667
     atom   17 type  4   force =    -0.13749104    0.09274804   18.66562075
     atom   18 type  4   force =    -0.01157854    0.16545642  -18.66612667
     The local contribution  to forces
     atom    1 type  1   force =     0.00998851   -0.00220955   16.35663137
     atom    2 type  1   force =    -0.00688965   -0.00755096   16.35685130
     atom    3 type  1   force =     0.00999000    0.00218596  -16.35715561
     atom    4 type  1   force =    -0.00309470   -0.00975280  -16.35673336
     atom    5 type  1   force =    -0.00689771    0.00755902  -16.35586640
     atom    6 type  1   force =    -0.00308711    0.00976258   16.35617713
     atom    7 type  2   force =     0.01807319   -0.03126742    0.00192577
     atom    8 type  2   force =     0.01805372    0.03126875    0.00017029
     atom    9 type  2   force =    -0.03610912    0.00002583   -0.00038891
     atom   10 type  3   force =    -0.02343513    0.04063754    0.00022114
     atom   11 type  3   force =    -0.02345821   -0.04062071    0.00052190
     atom   12 type  3   force =     0.04689983   -0.00000587   -0.00041618
     atom   13 type  4   force =     0.13351914    0.08709912   17.97908456
     atom   14 type  4   force =    -0.14219195    0.07208180   17.97940329
     atom   15 type  4   force =     0.00866704    0.15919087  -17.97935981
     atom   16 type  4   force =    -0.14220122   -0.07208714  -17.97970967
     atom   17 type  4   force =     0.13352906   -0.08710406  -17.97973594
     atom   18 type  4   force =     0.00866899   -0.15919381   17.98004519
     The core correction contribution to forces
     atom    1 type  1   force =     0.00011641    0.00000096   -0.00864275
     atom    2 type  1   force =    -0.00005666   -0.00010162   -0.00864489
     atom    3 type  1   force =     0.00011648   -0.00000218    0.00864366
     atom    4 type  1   force =    -0.00005962   -0.00010028    0.00864530
     atom    5 type  1   force =    -0.00005684    0.00010200    0.00865965
     atom    6 type  1   force =    -0.00005960    0.00010058   -0.00865293
     atom    7 type  2   force =     0.00000434   -0.00000756    0.00000050
     atom    8 type  2   force =     0.00000436    0.00000750    0.00000011
     atom    9 type  2   force =    -0.00000871   -0.00000000   -0.00000011
     atom   10 type  3   force =    -0.00005642    0.00009904    0.00000624
     atom   11 type  3   force =    -0.00005702   -0.00009846    0.00000564
     atom   12 type  3   force =     0.00011380   -0.00000021    0.00000237
     atom   13 type  4   force =    -0.00003798   -0.00007511   -0.00713398
     atom   14 type  4   force =     0.00008400    0.00000467   -0.00713338
     atom   15 type  4   force =    -0.00004605   -0.00007042    0.00713189
     atom   16 type  4   force =     0.00008402   -0.00000458    0.00712952
     atom   17 type  4   force =    -0.00003793    0.00007500    0.00713397
     atom   18 type  4   force =    -0.00004603    0.00007042   -0.00713483
     The Hubbard contrib.    to forces
     atom    1 type  1   force =     0.00000000    0.00000000    0.00000000
     atom    2 type  1   force =     0.00000000    0.00000000    0.00000000
     atom    3 type  1   force =     0.00000000    0.00000000    0.00000000
     atom    4 type  1   force =     0.00000000    0.00000000    0.00000000
     atom    5 type  1   force =     0.00000000    0.00000000    0.00000000
     atom    6 type  1   force =     0.00000000    0.00000000    0.00000000
     atom    7 type  2   force =     0.00000000    0.00000000    0.00000000
     atom    8 type  2   force =     0.00000000    0.00000000    0.00000000
     atom    9 type  2   force =     0.00000000    0.00000000    0.00000000
     atom   10 type  3   force =     0.00000000    0.00000000    0.00000000
     atom   11 type  3   force =     0.00000000    0.00000000    0.00000000
     atom   12 type  3   force =     0.00000000    0.00000000    0.00000000
     atom   13 type  4   force =     0.00000000    0.00000000    0.00000000
     atom   14 type  4   force =     0.00000000    0.00000000    0.00000000
     atom   15 type  4   force =     0.00000000    0.00000000    0.00000000
     atom   16 type  4   force =     0.00000000    0.00000000    0.00000000
     atom   17 type  4   force =     0.00000000    0.00000000    0.00000000
     atom   18 type  4   force =     0.00000000    0.00000000    0.00000000
     The SCF correction term to forces
     atom    1 type  1   force =    -0.00000005    0.00000951   -0.00032153
     atom    2 type  1   force =    -0.00000439   -0.00000185   -0.00022687
     atom    3 type  1   force =    -0.00000081    0.00000513    0.00061693
     atom    4 type  1   force =     0.00000253    0.00000104    0.00024852
     atom    5 type  1   force =     0.00000221   -0.00000371   -0.00036466
     atom    6 type  1   force =    -0.00000228   -0.00001033    0.00029545
     atom    7 type  2   force =    -0.00001635   -0.00001999   -0.00119790
     atom    8 type  2   force =     0.00000249    0.00001482   -0.00025601
     atom    9 type  2   force =    -0.00000875   -0.00001808   -0.00077298
     atom   10 type  3   force =    -0.00000642   -0.00000797    0.00009460
     atom   11 type  3   force =     0.00000197    0.00000096   -0.00038330
     atom   12 type  3   force =     0.00000158    0.00000353    0.00036262
     atom   13 type  4   force =     0.00000703   -0.00000362    0.00022435
     atom   14 type  4   force =     0.00000239    0.00000665    0.00002129
     atom   15 type  4   force =    -0.00000540   -0.00000387   -0.00008359
     atom   16 type  4   force =    -0.00000215   -0.00000396   -0.00040363
     atom   17 type  4   force =    -0.00000025    0.00000583    0.00039258
     atom   18 type  4   force =    -0.00000352   -0.00000046   -0.00021567

     Total force =     0.181449     Total SCF correction =     0.001904

     Computing stress (Cartesian axis) and pressure

     negative rho (up, down):  4.320E-01 0.000E+00
          total   stress  (Ry/bohr**3)                   (kbar)     P=     -246.29
  -0.00162485   0.00000000   0.00000000         -239.02        0.00        0.00
   0.00000000  -0.00162485   0.00000000            0.00     -239.02        0.00
   0.00000000   0.00000000  -0.00177307            0.00        0.00     -260.83

     kinetic stress (kbar)  14526.59     -0.00      0.00
                               -0.00  14526.59      0.00
                                0.00      0.00  13790.71

     local   stress (kbar) -20368.70      0.00      0.00
                                0.00 -20368.69      0.00
                                0.00      0.00 -17975.00

     nonloc. stress (kbar)   9251.48     -0.00      0.00
                               -0.00   9251.48      0.00
                                0.00      0.00   9170.64

     hartree stress (kbar)  17445.64      0.00      0.00
                                0.00  17445.64     -0.00
                                0.00     -0.00  14625.01

     exc-cor stress (kbar)   -431.58      0.00     -0.00
                                0.00   -431.58     -0.00
                               -0.00     -0.00   -428.69

     corecor stress (kbar)  -4161.34     -0.00     -0.00
                               -0.00  -4161.34     -0.00
                               -0.00     -0.00  -4158.16

     ewald   stress (kbar) -16501.12     -0.00      0.00
                               -0.00 -16501.12     -0.00
                                0.00     -0.00 -15285.33

     hubbard stress (kbar)      0.00      0.00      0.00
                                0.00      0.00      0.00
                                0.00      0.00      0.00

     DFT-D   stress (kbar)      0.00      0.00      0.00
                                0.00      0.00      0.00
                                0.00      0.00      0.00

     XDM     stress (kbar)      0.00      0.00      0.00
                                0.00      0.00      0.00
                                0.00      0.00      0.00

     dft-nl  stress (kbar)      0.00      0.00      0.00
                                0.00      0.00      0.00
                                0.00      0.00      0.00

     TS-vdW  stress (kbar)      0.00      0.00      0.00
                                0.00      0.00      0.00
                                0.00      0.00      0.00

[...]

                                0.00      0.00      0.00

     Writing all to output data dir new_calculations/myprefix.save/

     General routines

     Parallel routines

     PAW routines

   This run was terminated on:  19:13:58  20May2023

   JOB DONE.