     Program PWSCF v.7.0 starts on 21May2023 at 19:10:38

     Reading input from espresso_19960.pwi
Warning: card &CELL ignored
Warning: card / ignored

     Current dimensions of program PWSCF are:
     Max number of different atomic species (ntypx) = 10
     Max number of k-points (npk) =  40000
     Max angular momentum in pseudopotentials (lmaxx) =  4

     gamma-point specific algorithms are used
     Message from routine setup:
     using ibrav=0 with symmetry is DISCOURAGED, use correct ibrav instead

     Subspace diagonalization in iterative solution of the eigenvalue problem:
     a serial algorithm will be used

     Using Slab Decomposition

     bravais-lattice index     =            0
     lattice parameter (alat)  =       8.3375  a.u.
     unit-cell volume          =    2216.6009 (a.u.)^3
     number of atoms/cell      =           13
     number of atomic types    =            3
     number of electrons       =       174.00
     number of Kohn-Sham states=          104
     kinetic-energy cutoff     =      30.0000  Ry
     charge density cutoff     =     240.0000  Ry
     scf convergence threshold =      1.0E-06
     mixing beta               =       0.7000
     number of iterations used =            8  plain     mixing
     Exchange-correlation= SLA  PW   PBE  PBE
                           (   1   4   3   4   0   0   0)

     celldm(1)=   8.337500  celldm(2)=   0.000000  celldm(3)=   0.000000
     celldm(4)=   0.000000  celldm(5)=   0.000000  celldm(6)=   0.000000

     crystal axes: (cart. coord. in units of alat)
               a(1) = (   1.000000   0.000000   0.000000 )
               a(2) = (   0.000000   0.997944   0.000000 )
               a(3) = (   0.000000   0.000000   3.832428 )

     reciprocal axes: (cart. coord. in units 2 pi/alat)
               b(1) = (  1.000000  0.000000  0.000000 )
               b(2) = (  0.000000  1.002061  0.000000 )
               b(3) = (  0.000000  0.000000  0.260931 )

     PseudoPot. # 1 for Y  read from file:
     /home/pragov/projects/rrg-bengioy-ad/pragov/crystal_structure_design/SSSP/Y_pbe_v1.uspp.F.UPF
     MD5 check sum: 2cf71db95cafeb975fc457bd7f14888e
     Pseudo is Ultrasoft + core correction, Zval = 11.0
     Generated by new atomic code, or converted to UPF format
     Using radial grid of  885 points,  6 beta functions with:
                l(1) =   0
                l(2) =   0
                l(3) =   1
                l(4) =   1
                l(5) =   2
                l(6) =   2
     Q(r) pseudized with  6 coefficients,  rinner =    1.200   1.200   1.200
                                                       1.200   1.200

     PseudoPot. # 2 for Ni read from file:
     /home/pragov/projects/rrg-bengioy-ad/pragov/crystal_structure_design/SSSP/ni_pbe_v1.4.uspp.F.UPF
     MD5 check sum: 1ee80287db30b12d2bc1f57a5b5d6409
     Pseudo is Ultrasoft + core correction, Zval = 18.0
     Generated by new atomic code, or converted to UPF format
     Using radial grid of  865 points,  6 beta functions with:
                l(1) =   0
                l(2) =   0
                l(3) =   1
                l(4) =   1
                l(5) =   2
                l(6) =   2
     Q(r) pseudized with 10 coefficients,  rinner =    0.980   0.980   0.980
                                                       0.980   0.980

     PseudoPot. # 3 for Sn read from file:
     /home/pragov/projects/rrg-bengioy-ad/pragov/crystal_structure_design/SSSP/Sn_pbe_v1.uspp.F.UPF
     MD5 check sum: 4cf58ce39ec5d5d420df3dd08604eb00
     Pseudo is Ultrasoft + core correction, Zval = 14.0
     Generated by new atomic code, or converted to UPF format
     Using radial grid of  891 points,  6 beta functions with:
                l(1) =   0
                l(2) =   0
                l(3) =   1
                l(4) =   1
                l(5) =   2
                l(6) =   2
     Q(r) pseudized with  6 coefficients,  rinner =    1.200   1.200   1.200
                                                       1.200   1.200

     atomic species   valence    mass     pseudopotential
        Y             11.00    88.90584     Y ( 1.00)
        Ni            18.00    58.69340     Ni( 1.00)
        Sn            14.00   118.71000     Sn( 1.00)

      4 Sym. Ops. (no inversion) found ( 2 have fractional translation)

                                    s                        frac. trans.

      isym =  1     identity

 cryst.   s( 1) = (     1          0          0      )
                  (     0          1          0      )
                  (     0          0          1      )

 cart.    s( 1) = (  1.0000000  0.0000000  0.0000000 )
                  (  0.0000000  1.0000000  0.0000000 )
                  (  0.0000000  0.0000000  1.0000000 )

      isym =  2     180 deg rotation - cart. axis [0,0,1]

 cryst.   s( 2) = (    -1          0          0      )    f =(  0.5000000 )
                  (     0         -1          0      )       (  0.0000000 )
                  (     0          0          1      )       (  0.0000000 )

 cart.    s( 2) = ( -1.0000000  0.0000000  0.0000000 )    f =(  0.5000000 )
                  (  0.0000000 -1.0000000  0.0000000 )       (  0.0000000 )
                  (  0.0000000  0.0000000  1.0000000 )       (  0.0000000 )

      isym =  3     inv. 180 deg rotation - cart. axis [0,1,0]

 cryst.   s( 3) = (     1          0          0      )
                  (     0         -1          0      )
                  (     0          0          1      )

 cart.    s( 3) = (  1.0000000  0.0000000  0.0000000 )
                  (  0.0000000 -1.0000000  0.0000000 )
                  (  0.0000000  0.0000000  1.0000000 )

      isym =  4     inv. 180 deg rotation - cart. axis [1,0,0]

 cryst.   s( 4) = (    -1          0          0      )    f =(  0.5000000 )
                  (     0          1          0      )       (  0.0000000 )
                  (     0          0          1      )       (  0.0000000 )

 cart.    s( 4) = ( -1.0000000  0.0000000  0.0000000 )    f =(  0.5000000 )
                  (  0.0000000  1.0000000  0.0000000 )       (  0.0000000 )
                  (  0.0000000  0.0000000  1.0000000 )       (  0.0000000 )

   Cartesian axes

     site n.     atom                  positions (alat units)
         1           Y   tau(   1) = (   0.2500000   0.0000000   0.3771454  )
         2           Y   tau(   2) = (   0.2500000   0.4989718   2.3120960  )
         3           Y   tau(   3) = (   0.7500000   0.4989718   1.5219912  )
         4           Y   tau(   4) = (   0.7500000   0.0000000   3.4452798  )
         5           Ni  tau(   5) = (   0.2500000   0.0000000   1.1892675  )
         6           Sn  tau(   6) = (   0.2500000   0.0000000   1.7470850  )
         7           Sn  tau(   7) = (   0.2500000   0.4989718   3.5888272  )
         8           Sn  tau(   8) = (   0.7500000   0.4989718   0.2212882  )
         9           Sn  tau(   9) = (   0.7500000   0.0000000   2.1878717  )
        10           Sn  tau(  10) = (   0.2500000   0.4989718   0.9085537  )
        11           Sn  tau(  11) = (   0.2500000   0.0000000   2.8614362  )
        12           Sn  tau(  12) = (   0.7500000   0.0000000   0.9118994  )
        13           Sn  tau(  13) = (   0.7500000   0.4989718   2.8910954  )

   Crystallographic axes

     site n.     atom                  positions (cryst. coord.)
         1           Y   tau(   1) = (  0.2500000  0.0000000  0.0984090  )
         2           Y   tau(   2) = (  0.2500000  0.5000000  0.6032980  )
         3           Y   tau(   3) = (  0.7500000  0.5000000  0.3971350  )
         4           Y   tau(   4) = (  0.7500000  0.0000000  0.8989810  )
         5           Ni  tau(   5) = (  0.2500000  0.0000000  0.3103170  )
         6           Sn  tau(   6) = (  0.2500000  0.0000000  0.4558690  )
         7           Sn  tau(   7) = (  0.2500000  0.5000000  0.9364370  )
         8           Sn  tau(   8) = (  0.7500000  0.5000000  0.0577410  )
         9           Sn  tau(   9) = (  0.7500000  0.0000000  0.5708840  )
        10           Sn  tau(  10) = (  0.2500000  0.5000000  0.2370700  )
        11           Sn  tau(  11) = (  0.2500000  0.0000000  0.7466380  )
        12           Sn  tau(  12) = (  0.7500000  0.0000000  0.2379430  )
        13           Sn  tau(  13) = (  0.7500000  0.5000000  0.7543770  )

     number of k points=     1  Methfessel-Paxton smearing, width (Ry)=  0.0010
                       cart. coord. in units 2pi/alat
        k(    1) = (   0.0000000   0.0000000   0.0000000), wk =   2.0000000

                       cryst. coord.
        k(    1) = (   0.0000000   0.0000000   0.0000000), wk =   2.0000000

     Check: negative core charge=   -0.000003

     Initial potential from superposition of free atoms

     starting charge     163.9818, renormalised to     174.0000

     negative rho (up, down):  1.858E-01 0.000E+00
     Starting wfcs are  137 randomized atomic wfcs

     Self-consistent Calculation

     iteration #  1     ecut=    30.00 Ry     beta= 0.70
     Davidson diagonalization with overlap

     ethr =  1.00E-02,  avg # of iterations =  3.0

     negative rho (up, down):  1.610E-01 0.000E+00

     total energy              =   -1781.39274242 Ry
     estimated scf accuracy    <     257.64285228 Ry

[...]

     total energy              =   -1998.49348924 Ry
     estimated scf accuracy    <       0.00008906 Ry

     iteration # 22     ecut=    30.00 Ry     beta= 0.70
     Davidson diagonalization with overlap

     ethr =  5.12E-08,  avg # of iterations =  1.0

[...]

     End of self-consistent calculation

          k = 0.0000 0.0000 0.0000 (  3080 PWs)   bands (ev):

   -91.3006 -51.8301 -51.6111 -51.5817 -31.1344 -30.9142 -30.8510 -30.7306
   -11.2377 -11.1612 -11.1252 -11.0242 -10.9071 -10.9022 -10.8850 -10.8791
   -10.8506 -10.7945 -10.7357 -10.7172  -9.9460  -9.8835  -9.8685  -9.8521
    -9.8456  -9.7770  -9.7760  -9.7538  -9.7397  -9.7148  -9.6799  -9.6561
    -9.6418  -9.6409  -9.6314  -9.6283  -9.5559  -9.4726  -9.4527  -9.4454
    -9.4143  -9.3902  -9.3868  -9.3761  -9.3536  -9.3526  -9.3499  -9.3066
    -9.2808  -9.1661  -8.8480  -8.7499  -8.7241  -8.6830  -8.6775  -8.5920
    -8.5871  -8.5617  -8.5461  -8.4017   1.2550   2.0746   2.2871   3.1583
     4.7019   5.6085   7.1783   7.8480   8.5384   8.5590   8.5905   9.0947
     9.9359  10.1170  10.1705  10.1843  10.3089  10.3152  10.3882  10.4373
    10.5095  10.5910  10.8530  10.9251  10.9617  11.9194  11.9544  12.3558
    12.5192  13.3087  13.5610  13.6635  13.7015  13.7804  13.8462  13.8552
    14.0091  14.0428  14.0793  14.1645  14.3016  14.3050  14.3937  14.4973

     occupation numbers
     1.0000   1.0000   1.0000   1.0000   1.0000   1.0000   1.0000   1.0000
     1.0000   1.0000   1.0000   1.0000   1.0000   1.0000   1.0000   1.0000
     1.0000   1.0000   1.0000   1.0000   1.0000   1.0000   1.0000   1.0000
     1.0000   1.0000   1.0000   1.0000   1.0000   1.0000   1.0000   1.0000
     1.0000   1.0000   1.0000   1.0000   1.0000   1.0000   1.0000   1.0000
     1.0000   1.0000   1.0000   1.0000   1.0000   1.0000   1.0000   1.0000
     1.0000   1.0000   1.0000   1.0000   1.0000   1.0000   1.0000   1.0000
     1.0000   1.0000   1.0000   1.0000   1.0000   1.0000   1.0000   1.0000
     1.0000   1.0000   1.0000   1.0000   1.0000   1.0000   1.0000   1.0000
     1.0000   1.0000   1.0000   1.0000   1.0000   1.0000   1.0000   1.0000
     1.0000   1.0000   1.0000   1.0000   1.0000   1.0000   1.0000  -0.0000
    -0.0000  -0.0000  -0.0000  -0.0000  -0.0000  -0.0000  -0.0000  -0.0000
    -0.0000  -0.0000  -0.0000  -0.0000  -0.0000  -0.0000  -0.0000  -0.0000

     the Fermi energy is    12.1474 ev

!    total energy              =   -1998.49349329 Ry
     estimated scf accuracy    <       0.00000089 Ry
     smearing contrib. (-TS)   =       0.00000000 Ry
     internal energy E=F+TS    =   -1998.49349329 Ry

     The total energy is F=E-TS. E is the sum of the following terms:
     one-electron contribution =    -956.48284902 Ry
     hartree contribution      =     588.90097190 Ry
     xc contribution           =    -504.76951113 Ry
     ewald contribution        =   -1126.14210504 Ry

     convergence has been achieved in  22 iterations

     negative rho (up, down):  1.688E-01 0.000E+00

     Forces acting on atoms (cartesian axes, Ry/au):

     atom    1 type  1   force =     0.00000000    0.00000000    0.04127778
     atom    2 type  1   force =     0.00000000    0.00000000    0.04954283
     atom    3 type  1   force =     0.00000000    0.00000000   -0.00850266
     atom    4 type  1   force =     0.00000000    0.00000000   -0.04513474
     atom    5 type  2   force =     0.00000000    0.00000000   -0.00654273
     atom    6 type  3   force =     0.00000000    0.00000000    0.07613044
     atom    7 type  3   force =     0.00000000    0.00000000    0.10129402
     atom    8 type  3   force =     0.00000000    0.00000000   -0.10699851
     atom    9 type  3   force =     0.00000000    0.00000000   -0.10363001
     atom   10 type  3   force =     0.00000000    0.00000000   -0.00009170
     atom   11 type  3   force =     0.00000000    0.00000000    0.01440648
     atom   12 type  3   force =     0.00000000    0.00000000    0.00109379
     atom   13 type  3   force =     0.00000000    0.00000000   -0.01284499
     The non-local contrib.  to forces
     atom    1 type  1   force =     0.00000000    0.00000000   -0.15728830
     atom    2 type  1   force =     0.00000000    0.00000000   -0.15344213
     atom    3 type  1   force =     0.00000000    0.00000000    0.11869187
     atom    4 type  1   force =     0.00000000    0.00000000    0.15472970
     atom    5 type  2   force =     0.00000000    0.00000000   -0.26823725
     atom    6 type  3   force =     0.00000000    0.00000000   -0.02548639
     atom    7 type  3   force =     0.00000000    0.00000000   -0.02253082
     atom    8 type  3   force =     0.00000000    0.00000000    0.11227212
     atom    9 type  3   force =     0.00000000    0.00000000    0.00694297
     atom   10 type  3   force =     0.00000000    0.00000000    0.07936438
     atom   11 type  3   force =     0.00000000    0.00000000    0.00353118
     atom   12 type  3   force =     0.00000000    0.00000000    0.13663319
     atom   13 type  3   force =     0.00000000    0.00000000   -0.00048434
     The ionic contribution  to forces
     atom    1 type  1   force =    -0.00000000    0.00000000  -21.18298595
     atom    2 type  1   force =     0.00000000   -0.00000000    9.62268971
     atom    3 type  1   force =    -0.00000000    0.00000000   17.67296005
     atom    4 type  1   force =    -0.00000000   -0.00000000   -4.46927028
     atom    5 type  2   force =    -0.00000000    0.00000000   13.85293993
     atom    6 type  3   force =    -0.00000000   -0.00000000   28.24619855
     atom    7 type  3   force =     0.00000000    0.00000000  -13.06694282
     atom    8 type  3   force =     0.00000000    0.00000000  -17.44480150
     atom    9 type  3   force =     0.00000000    0.00000000   18.00775120
     atom   10 type  3   force =    -0.00000000    0.00000000  -20.26889093
     atom   11 type  3   force =    -0.00000000    0.00000000    5.24274864
     atom   12 type  3   force =    -0.00000000   -0.00000000  -20.26464778
     atom   13 type  3   force =    -0.00000000   -0.00000000    4.05225118
     The local contribution  to forces
     atom    1 type  1   force =     0.00000664   -0.00000682   21.36957404
     atom    2 type  1   force =    -0.00000209   -0.00001891   -9.43266622
     atom    3 type  1   force =    -0.00000057   -0.00001438  -17.79089373
     atom    4 type  1   force =     0.00000043   -0.00000286    4.28166730
     atom    5 type  2   force =     0.00000564   -0.00000233  -13.58909061
     atom    6 type  3   force =     0.00000333    0.00000327  -28.14779691
     atom    7 type  3   force =    -0.00000405    0.00001455   13.18071435
     atom    8 type  3   force =     0.00000688    0.00001099   17.23699055
     atom    9 type  3   force =     0.00000155    0.00001720  -18.10998901
     atom   10 type  3   force =     0.00000747    0.00000246   20.18848744
     atom   11 type  3   force =    -0.00000449   -0.00000019   -5.23080960
     atom   12 type  3   force =    -0.00001774    0.00000231   20.13084060
     atom   13 type  3   force =     0.00000631   -0.00000703   -4.06379799
     The core correction contribution to forces
     atom    1 type  1   force =     0.00000059   -0.00000037    0.01332975
     atom    2 type  1   force =    -0.00000001   -0.00000064    0.01291203
     atom    3 type  1   force =    -0.00000037   -0.00000096   -0.01006365
     atom    4 type  1   force =     0.00000009    0.00000032   -0.01252264
     atom    5 type  2   force =     0.00000004    0.00000004   -0.00263762
     atom    6 type  3   force =     0.00000022   -0.00000008    0.00232461
     atom    7 type  3   force =    -0.00000018    0.00000049    0.00921595
     atom    8 type  3   force =    -0.00000002    0.00000025   -0.00993998
     atom    9 type  3   force =     0.00000012    0.00000020   -0.00913428
     atom   10 type  3   force =     0.00000023    0.00000028    0.00088454
     atom   11 type  3   force =    -0.00000008    0.00000006   -0.00022799
     atom   12 type  3   force =    -0.00000046   -0.00000000   -0.00168298
     atom   13 type  3   force =     0.00000001   -0.00000018   -0.00043767
     The Hubbard contrib.    to forces
     atom    1 type  1   force =     0.00000000    0.00000000    0.00000000
     atom    2 type  1   force =     0.00000000    0.00000000    0.00000000
     atom    3 type  1   force =     0.00000000    0.00000000    0.00000000
     atom    4 type  1   force =     0.00000000    0.00000000    0.00000000
     atom    5 type  2   force =     0.00000000    0.00000000    0.00000000
     atom    6 type  3   force =     0.00000000    0.00000000    0.00000000
     atom    7 type  3   force =     0.00000000    0.00000000    0.00000000
     atom    8 type  3   force =     0.00000000    0.00000000    0.00000000
     atom    9 type  3   force =     0.00000000    0.00000000    0.00000000
     atom   10 type  3   force =     0.00000000    0.00000000    0.00000000
     atom   11 type  3   force =     0.00000000    0.00000000    0.00000000
     atom   12 type  3   force =     0.00000000    0.00000000    0.00000000
     atom   13 type  3   force =     0.00000000    0.00000000    0.00000000
     The SCF correction term to forces
     atom    1 type  1   force =     0.00000045    0.00000382   -0.00126659
     atom    2 type  1   force =     0.00000378    0.00001189    0.00013461
     atom    3 type  1   force =     0.00000062    0.00000994    0.00088798
     atom    4 type  1   force =     0.00000088    0.00000469    0.00034635
     atom    5 type  2   force =    -0.00001164    0.00000364    0.00056798
     atom    6 type  3   force =    -0.00000569   -0.00000865    0.00097575
     atom    7 type  3   force =     0.00000190   -0.00001536    0.00092253
     atom    8 type  3   force =    -0.00000949   -0.00000977   -0.00143454
     atom    9 type  3   force =    -0.00000253   -0.00002044    0.00088429
     atom   10 type  3   force =    -0.00001120   -0.00000089    0.00014805
     atom   11 type  3   force =     0.00000672   -0.00000108   -0.00075058
     atom   12 type  3   force =     0.00002126   -0.00000833    0.00003592
     atom   13 type  3   force =    -0.00000540    0.00000831   -0.00029101

     Total force =     0.211963     Total SCF correction =     0.002858

     Computing stress (Cartesian axis) and pressure

     negative rho (up, down):  1.688E-01 0.000E+00
          total   stress  (Ry/bohr**3)                   (kbar)     P=      -12.60
   0.00049859   0.00000000   0.00000000           73.35        0.00        0.00
   0.00000000   0.00022189   0.00000000            0.00       32.64        0.00
   0.00000000   0.00000000  -0.00097754            0.00        0.00     -143.80

     kinetic stress (kbar)  13577.37      0.00      0.00
                                0.00  13604.29      0.00
                                0.00      0.00  13485.85

     local   stress (kbar) -13192.34     -0.00     -0.00
                               -0.00  -9551.35     -0.00
                               -0.00     -0.00   9862.24

     nonloc. stress (kbar)   9143.63      0.00      0.00
                                0.00   9147.39      0.00
                                0.00      0.00   9057.38

     hartree stress (kbar)  17259.12      0.00      0.00
                                0.00  15688.24      0.00
                                0.00      0.00   6135.15

     exc-cor stress (kbar)  12154.81      0.00      0.00
                                0.00  12154.69      0.00
                                0.00      0.00  12154.22

     corecor stress (kbar) -18661.68      0.00     -0.00
                                0.00 -18662.05      0.00
                               -0.00      0.00 -18658.17

     ewald   stress (kbar) -20207.56      0.00     -0.00
                                0.00 -22348.57     -0.00
                               -0.00     -0.00 -32180.47

     hubbard stress (kbar)      0.00      0.00      0.00
                                0.00      0.00      0.00
                                0.00      0.00      0.00

     DFT-D   stress (kbar)      0.00      0.00      0.00
                                0.00      0.00      0.00
                                0.00      0.00      0.00

     XDM     stress (kbar)      0.00      0.00      0.00
                                0.00      0.00      0.00
                                0.00      0.00      0.00

     dft-nl  stress (kbar)      0.00      0.00      0.00
                                0.00      0.00      0.00
                                0.00      0.00      0.00

     TS-vdW  stress (kbar)      0.00      0.00      0.00
                                0.00      0.00      0.00
                                0.00      0.00      0.00

[...]

                                0.00      0.00      0.00

     Writing all to output data dir new_calculations/myprefix.save/

     General routines

     Parallel routines

   This run was terminated on:  19:11:54  21May2023

   JOB DONE.