     Program PWSCF v.7.0 starts on 21May2023 at  2:43:27

     Reading input from espresso_23313.pwi
Warning: card &CELL ignored
Warning: card / ignored

     Current dimensions of program PWSCF are:
     Max number of different atomic species (ntypx) = 10
     Max number of k-points (npk) =  40000
     Max angular momentum in pseudopotentials (lmaxx) =  4

     gamma-point specific algorithms are used
     Message from routine setup:
     using ibrav=0 with symmetry is DISCOURAGED, use correct ibrav instead

     Subspace diagonalization in iterative solution of the eigenvalue problem:
     a serial algorithm will be used

     Using Slab Decomposition

     bravais-lattice index     =            0
     lattice parameter (alat)  =      19.6046  a.u.
     unit-cell volume          =     987.3522 (a.u.)^3
     number of atoms/cell      =            5
     number of atomic types    =            2
     number of electrons       =        28.00
     number of Kohn-Sham states=           18
     kinetic-energy cutoff     =      30.0000  Ry
     charge density cutoff     =     240.0000  Ry
     scf convergence threshold =      1.0E-06
     mixing beta               =       0.7000
     number of iterations used =            8  plain     mixing
     Exchange-correlation= PBE
                           (   1   4   3   4   0   0   0)

     celldm(1)=  19.604615  celldm(2)=   0.000000  celldm(3)=   0.000000
     celldm(4)=   0.000000  celldm(5)=   0.000000  celldm(6)=   0.000000

     crystal axes: (cart. coord. in units of alat)
               a(1) = (   1.000000   0.000000   0.000000 )
               a(2) = (   0.922306   0.386460   0.000000 )
               a(3) = (   0.922306   0.185420   0.339073 )

     reciprocal axes: (cart. coord. in units 2 pi/alat)
               b(1) = (  1.000000 -2.386553 -1.415010 )
               b(2) = (  0.000000  2.587593 -1.415010 )
               b(3) = (  0.000000  0.000000  2.949219 )

     PseudoPot. # 1 for Te read from file:
     /home/pragov/projects/rrg-bengioy-ad/pragov/crystal_structure_design/SSSP/Te_pbe_v1.uspp.F.UPF
     MD5 check sum: c319670d6894cc26e93307826a071b75
     Pseudo is Ultrasoft + core correction, Zval =  6.0
     Generated by new atomic code, or converted to UPF format
     Using radial grid of  891 points,  5 beta functions with:
                l(1) =   0
                l(2) =   0
                l(3) =   1
                l(4) =   1
                l(5) =   2
     Q(r) pseudized with  6 coefficients,  rinner =    1.800   1.800   1.800
                                                       1.800   1.800

     PseudoPot. # 2 for As read from file:
     /home/pragov/projects/rrg-bengioy-ad/pragov/crystal_structure_design/SSSP/As.pbe-n-rrkjus_psl.0.2.UPF
     MD5 check sum: 767315de957beeeb34f87d97bf945c8f
     Pseudo is Ultrasoft + core correction, Zval =  5.0
     Generated using "atomic" code by A. Dal Corso  v.5.0.99 svn rev. 10869
     Using radial grid of 1209 points,  4 beta functions with:
                l(1) =   0
                l(2) =   0
                l(3) =   1
                l(4) =   1
     Q(r) pseudized with 0 coefficients

     atomic species   valence    mass     pseudopotential
        Te             6.00   127.60000     Te( 1.00)
        As             5.00    74.92159     As( 1.00)

      2 Sym. Ops., with inversion, found

                                    s                        frac. trans.

      isym =  1     identity

 cryst.   s( 1) = (     1          0          0      )
                  (     0          1          0      )
                  (     0          0          1      )

 cart.    s( 1) = (  1.0000000 -0.0000000 -0.0000000 )
                  (  0.0000000  1.0000000 -0.0000000 )
                  (  0.0000000  0.0000000  1.0000000 )

      isym =  2     inversion

 cryst.   s( 2) = (    -1          0          0      )
                  (     0         -1          0      )
                  (     0          0         -1      )

 cart.    s( 2) = ( -1.0000000  0.0000000  0.0000000 )
                  (  0.0000000 -1.0000000  0.0000000 )
                  (  0.0000000  0.0000000 -1.0000000 )

   Cartesian axes

     site n.     atom                  positions (alat units)
         1           Te  tau(   1) = (   0.6217242   0.1249912   0.0741084  )
         2           Te  tau(   2) = (   2.2228884   0.4468885   0.2649644  )
         3           Te  tau(   3) = (   0.0000000   0.0000000   0.0000000  )
         4           As  tau(   4) = (   1.7206834   0.3459254   0.2051025  )
         5           As  tau(   5) = (   1.1239292   0.2259542   0.1339704  )

   Crystallographic axes

     site n.     atom                  positions (cryst. coord.)
         1           Te  tau(   1) = (  0.2185620  0.2185620  0.2185620  )
         2           Te  tau(   2) = (  0.7814380  0.7814380  0.7814380  )
         3           Te  tau(   3) = (  0.0000000  0.0000000  0.0000000  )
         4           As  tau(   4) = (  0.6048920  0.6048920  0.6048920  )
         5           As  tau(   5) = (  0.3951080  0.3951080  0.3951080  )

     number of k points=     1  Methfessel-Paxton smearing, width (Ry)=  0.0010
                       cart. coord. in units 2pi/alat
        k(    1) = (   0.0000000   0.0000000   0.0000000), wk =   2.0000000

                       cryst. coord.
        k(    1) = (   0.0000000   0.0000000   0.0000000), wk =   2.0000000

     Initial potential from superposition of free atoms

     starting charge      27.9989, renormalised to      28.0000
     Starting wfcs are   20 randomized atomic wfcs

     Self-consistent Calculation

     iteration #  1     ecut=    30.00 Ry     beta= 0.70
     Davidson diagonalization with overlap

     ethr =  1.00E-02,  avg # of iterations =  2.0

     Threshold (ethr) on eigenvalues was too large:
     Diagonalizing with lowered threshold

     Davidson diagonalization with overlap

[...]

     total energy              =    -114.20994425 Ry
     estimated scf accuracy    <       0.27410031 Ry

[...]

     total energy              =    -114.33473610 Ry
     estimated scf accuracy    <       0.00000116 Ry

     iteration # 13     ecut=    30.00 Ry     beta= 0.70
     Davidson diagonalization with overlap

     ethr =  4.15E-09,  avg # of iterations =  1.0

     End of self-consistent calculation

          k = 0.0000 0.0000 0.0000 (  1376 PWs)   bands (ev):

    -7.0446  -6.2775  -4.9729  -2.2409  -1.1875   4.3287   4.5240   4.7730
     4.7730   4.9060   4.9061   5.8521   5.8522   6.5275   7.1382   7.1383
     7.1539   8.7156

     occupation numbers
     1.0000   1.0000   1.0000   1.0000   1.0000   1.0000   1.0000   1.0000
     1.0000   1.0000   1.0000   1.0000   1.0000   1.0000  -0.0000  -0.0000
    -0.0000  -0.0000

     the Fermi energy is     6.8476 ev

!    total energy              =    -114.33473608 Ry
     estimated scf accuracy    <       0.00000014 Ry
     smearing contrib. (-TS)   =       0.00000000 Ry
     internal energy E=F+TS    =    -114.33473608 Ry

     The total energy is F=E-TS. E is the sum of the following terms:
     one-electron contribution =      14.34852203 Ry
     hartree contribution      =       7.47341992 Ry
     xc contribution           =     -62.05034309 Ry
     ewald contribution        =     -74.10633494 Ry

     convergence has been achieved in  13 iterations

     Forces acting on atoms (cartesian axes, Ry/au):

     atom    1 type  1   force =     0.11256966    0.02262730    0.01342186
     atom    2 type  1   force =    -0.11256966   -0.02262730   -0.01342186
     atom    3 type  1   force =     0.00000000    0.00000000    0.00000000
     atom    4 type  2   force =    -0.01950121   -0.00391611   -0.00232523
     atom    5 type  2   force =     0.01950121    0.00391611    0.00232523
     The non-local contrib.  to forces
     atom    1 type  1   force =     0.01182562    0.00236697    0.00140918
     atom    2 type  1   force =    -0.01182562   -0.00236697   -0.00140918
     atom    3 type  1   force =     0.00000000    0.00000000    0.00000000
     atom    4 type  2   force =    -0.08912130   -0.01793857   -0.01062639
     atom    5 type  2   force =     0.08912130    0.01793857    0.01062639
     The ionic contribution  to forces
     atom    1 type  1   force =    -2.89590007   -0.58219043   -0.34518649
     atom    2 type  1   force =     2.89590007    0.58219043    0.34518649
     atom    3 type  1   force =    -0.00000000   -0.00000000   -0.00000000
     atom    4 type  2   force =    -1.06604291   -0.21431678   -0.12707053
     atom    5 type  2   force =     1.06604291    0.21431678    0.12707053
     The local contribution  to forces
     atom    1 type  1   force =     3.00204089    0.60346918    0.35785606
     atom    2 type  1   force =    -3.00190154   -0.60356299   -0.35781565
     atom    3 type  1   force =    -0.00025541   -0.00006826   -0.00004624
     atom    4 type  2   force =     1.12727971    0.22661779    0.13437170
     atom    5 type  2   force =    -1.12750087   -0.22672973   -0.13439705
     The core correction contribution to forces
     atom    1 type  1   force =    -0.00555905   -0.00111149   -0.00066408
     atom    2 type  1   force =     0.00556975    0.00112796    0.00066304
     atom    3 type  1   force =     0.00000485    0.00000381    0.00000189
     atom    4 type  2   force =     0.00783133    0.00157393    0.00093410
     atom    5 type  2   force =    -0.00785015   -0.00158712   -0.00093582
     The Hubbard contrib.    to forces
     atom    1 type  1   force =     0.00000000    0.00000000    0.00000000
     atom    2 type  1   force =     0.00000000    0.00000000    0.00000000
     atom    3 type  1   force =     0.00000000    0.00000000    0.00000000
     atom    4 type  2   force =     0.00000000    0.00000000    0.00000000
     atom    5 type  2   force =     0.00000000    0.00000000    0.00000000
     The SCF correction term to forces
     atom    1 type  1   force =     0.00010815    0.00001108    0.00001254
     atom    2 type  1   force =    -0.00036645   -0.00009772   -0.00004123
     atom    3 type  1   force =     0.00023626    0.00004372    0.00002620
     atom    4 type  2   force =     0.00048712    0.00010229    0.00005967
     atom    5 type  2   force =    -0.00037682   -0.00006763   -0.00004502

     Total force =     0.165922     Total SCF correction =     0.000785

     Computing stress (Cartesian axis) and pressure

          total   stress  (Ry/bohr**3)                   (kbar)     P=      338.18
   0.00024515  -0.00063672  -0.00037751           36.06      -93.67      -55.53
  -0.00063672   0.00328422  -0.00007588          -93.67      483.13      -11.16
  -0.00037751  -0.00007588   0.00336724          -55.53      -11.16      495.34

     kinetic stress (kbar)   2283.52    -90.95    -53.93
                              -90.95   2717.64    -10.84
                              -53.93    -10.84   2729.49

     local   stress (kbar)   6660.05    301.04    178.49
                              301.04   5223.17     35.87
                              178.49     35.87   5183.92

     nonloc. stress (kbar)  -3180.03     13.81      8.19
                               13.81  -3245.98      1.66
                                8.19      1.66  -3247.78

     hartree stress (kbar)    -94.53   -144.37    -85.60
                             -144.37    594.58    -17.21
                              -85.60    -17.21    613.41

     exc-cor stress (kbar)   5333.33      0.60      0.36
                                0.60   5330.47      0.07
                                0.36      0.07   5330.40

     corecor stress (kbar)  -6720.17      1.61      0.95
                                1.61  -6727.85      0.19
                                0.95      0.19  -6728.06

     ewald   stress (kbar)  -4246.11   -175.40   -104.00
                             -175.40  -3408.91    -20.91
                             -104.00    -20.91  -3386.04

     hubbard stress (kbar)      0.00      0.00      0.00
                                0.00      0.00      0.00
                                0.00      0.00      0.00

     DFT-D   stress (kbar)      0.00      0.00      0.00
                                0.00      0.00      0.00
                                0.00      0.00      0.00

     XDM     stress (kbar)      0.00      0.00      0.00
                                0.00      0.00      0.00
                                0.00      0.00      0.00

     dft-nl  stress (kbar)      0.00      0.00      0.00
                                0.00      0.00      0.00
                                0.00      0.00      0.00

     TS-vdW  stress (kbar)      0.00      0.00      0.00
                                0.00      0.00      0.00
                                0.00      0.00      0.00

[...]

                                0.00      0.00      0.00

     Writing all to output data dir new_calculations/myprefix.save/

     General routines

     Parallel routines

   This run was terminated on:   2:44: 2  21May2023

   JOB DONE.