     Program PWSCF v.7.0 starts on 21May2023 at  4:49: 8

     Reading input from espresso_26432.pwi
Warning: card &CELL ignored
Warning: card / ignored

     Current dimensions of program PWSCF are:
     Max number of different atomic species (ntypx) = 10
     Max number of k-points (npk) =  40000
     Max angular momentum in pseudopotentials (lmaxx) =  4
     file O.pbe-n-kjpaw_psl.0.1.UPF: wavefunction(s)  2P renormalized

     gamma-point specific algorithms are used

     Subspace diagonalization in iterative solution of the eigenvalue problem:
     a serial algorithm will be used

     Using Slab Decomposition

     bravais-lattice index     =            0
     lattice parameter (alat)  =       9.1954  a.u.
     unit-cell volume          =    1073.1131 (a.u.)^3
     number of atoms/cell      =           15
     number of atomic types    =            4
     number of electrons       =        84.00
     number of Kohn-Sham states=           50
     kinetic-energy cutoff     =      30.0000  Ry
     charge density cutoff     =     240.0000  Ry
     scf convergence threshold =      1.0E-06
     mixing beta               =       0.7000
     number of iterations used =            8  plain     mixing
     Exchange-correlation= SLA  PW   PBX  PBC
                           (   1   4   3   4   0   0   0)

     celldm(1)=   9.195353  celldm(2)=   0.000000  celldm(3)=   0.000000
     celldm(4)=   0.000000  celldm(5)=   0.000000  celldm(6)=   0.000000

     crystal axes: (cart. coord. in units of alat)
               a(1) = (   1.000000   0.000000   0.000000 )
               a(2) = (  -0.158804   1.121592   0.000000 )
               a(3) = (  -0.132918  -0.163855   1.230567 )

     reciprocal axes: (cart. coord. in units 2 pi/alat)
               b(1) = (  1.000000  0.141588  0.126867 )
               b(2) = (  0.000000  0.891590  0.118719 )
               b(3) = (  0.000000  0.000000  0.812633 )

     PseudoPot. # 1 for Li read from file:
     /home/pragov/projects/rrg-bengioy-ad/pragov/crystal_structure_design/SSSP/li_pbe_v1.4.uspp.F.UPF
     MD5 check sum: e912e257baa3777c20ea3d68f190483c
     Pseudo is Ultrasoft, Zval =  3.0
     Generated by new atomic code, or converted to UPF format
     Using radial grid of  751 points,  5 beta functions with:
                l(1) =   0
                l(2) =   0
                l(3) =   0
                l(4) =   1
                l(5) =   1
     Q(r) pseudized with 10 coefficients,  rinner =    1.150   1.150   1.150

     PseudoPot. # 2 for Cr read from file:
     /home/pragov/projects/rrg-bengioy-ad/pragov/crystal_structure_design/SSSP/cr_pbe_v1.5.uspp.F.UPF
     MD5 check sum: 0d52af634a40206e4dee301ad30da4bf
     Pseudo is Ultrasoft + core correction, Zval = 14.0
     Generated by new atomic code, or converted to UPF format
     Using radial grid of  857 points,  6 beta functions with:
                l(1) =   0
                l(2) =   0
                l(3) =   1
                l(4) =   1
                l(5) =   2
                l(6) =   2
     Q(r) pseudized with  8 coefficients,  rinner =    0.950   0.950   0.950
                                                       0.950   0.950

     PseudoPot. # 3 for P  read from file:
     /home/pragov/projects/rrg-bengioy-ad/pragov/crystal_structure_design/SSSP/P.pbe-n-rrkjus_psl.1.0.0.UPF
     MD5 check sum: 8b930f418f0a4573dca56cd030ffe088
     Pseudo is Ultrasoft + core correction, Zval =  5.0
     Generated using "atomic" code by A. Dal Corso  v.5.1
     Using radial grid of 1147 points,  6 beta functions with:
                l(1) =   0
                l(2) =   0
                l(3) =   1
                l(4) =   1
                l(5) =   2
                l(6) =   2
     Q(r) pseudized with 0 coefficients

     PseudoPot. # 4 for O  read from file:
     /home/pragov/projects/rrg-bengioy-ad/pragov/crystal_structure_design/SSSP/O.pbe-n-kjpaw_psl.0.1.UPF
     MD5 check sum: 0234752ac141de4415c5fc33072bef88
     Pseudo is Projector augmented-wave + core cor, Zval =  6.0
     Generated using "atomic" code by A. Dal Corso  v.5.0.99 svn rev. 10869
     Shape of augmentation charge: BESSEL
     Using radial grid of 1095 points,  4 beta functions with:
                l(1) =   0
                l(2) =   0
                l(3) =   1
                l(4) =   1
     Q(r) pseudized with 0 coefficients

     atomic species   valence    mass     pseudopotential
        Li             3.00     6.94000     Li( 1.00)
        Cr            14.00    51.99610     Cr( 1.00)
        P              5.00    30.97376     P ( 1.00)
        O              6.00    15.99900     O ( 1.00)

     No symmetry found

                                    s                        frac. trans.

      isym =  1     identity

 cryst.   s( 1) = (     1          0          0      )
                  (     0          1          0      )
                  (     0          0          1      )

 cart.    s( 1) = (  1.0000000  0.0000000 -0.0000000 )
                  (  0.0000000  1.0000000 -0.0000000 )
                  (  0.0000000  0.0000000  1.0000000 )

   Cartesian axes

     site n.     atom                  positions (alat units)
         1           Li  tau(   1) = (   0.0327001   0.2404525   0.6979186  )
         2           Li  tau(   2) = (   0.2171632   0.5998409   0.2103888  )
         3           Li  tau(   3) = (   0.4917250   0.3579726   1.0203801  )
         4           Li  tau(   4) = (   0.6755164   0.7171240   0.5326005  )
         5           Cr  tau(   5) = (   0.0005055   0.0000897   0.0002190  )
         6           P   tau(   6) = (   0.1577920   0.7718121   0.8723835  )
         7           P   tau(   7) = (   0.5502873   0.1859184   0.3580987  )
         8           O   tau(   8) = (   0.0552248   0.5339422   1.0609581  )
         9           O   tau(   9) = (   0.0879454   0.6910693   0.5740694  )
        10           O   tau(  10) = (   0.2310067   0.1635140   0.3225403  )
        11           O   tau(  11) = (   0.1708936  -0.0743189   0.9508174  )
        12           O   tau(  12) = (   0.5373004   1.0321693   0.2796833  )
        13           O   tau(  13) = (   0.4770188   0.7941722   0.9076429  )
        14           O   tau(  14) = (   0.6201581   0.2663543   0.6564780  )
        15           O   tau(  15) = (   0.6527058   0.4240464   0.1697937  )

   Crystallographic axes

     site n.     atom                  positions (cryst. coord.)
         1           Li  tau(   1) = (  0.1552880  0.2972410  0.5671520  )
         2           Li  tau(   2) = (  0.3287850  0.5597890  0.1709690  )
         3           Li  tau(   3) = (  0.6718620  0.4403030  0.8291950  )
         4           Li  tau(   4) = (  0.8446220  0.7026100  0.4328090  )
         5           Cr  tau(   5) = (  0.0005460  0.0001060  0.0001780  )
         6           P   tau(   6) = (  0.3777480  0.7917080  0.7089280  )
         7           P   tau(   7) = (  0.6220420  0.2082760  0.2910030  )
         8           O   tau(   8) = (  0.2654250  0.6020130  0.8621700  )
         9           O   tau(   9) = (  0.2586230  0.6843030  0.4665080  )
        10           O   tau(  10) = (  0.2950780  0.1840790  0.2621070  )
        11           O   tau(  11) = (  0.2809980  0.0466180  0.7726660  )
        12           O   tau(  12) = (  0.7189260  0.9534750  0.2272800  )
        13           O   tau(  13) = (  0.7046140  0.8158300  0.7375810  )
        14           O   tau(  14) = (  0.7411560  0.3154150  0.5334760  )
        15           O   tau(  15) = (  0.7342870  0.3982330  0.1379800  )

     number of k points=     1  Methfessel-Paxton smearing, width (Ry)=  0.0010
                       cart. coord. in units 2pi/alat
        k(    1) = (   0.0000000   0.0000000   0.0000000), wk =   2.0000000

                       cryst. coord.
        k(    1) = (   0.0000000   0.0000000   0.0000000), wk =   2.0000000

     Check: negative core charge=   -0.000014

     Initial potential from superposition of free atoms

     starting charge      81.1967, renormalised to      84.0000

     negative rho (up, down):  2.440E-03 0.000E+00
     Starting wfcs are   70 randomized atomic wfcs
     Checking if some PAW data can be deallocated...

     Self-consistent Calculation

     iteration #  1     ecut=    30.00 Ry     beta= 0.70
     Davidson diagonalization with overlap

     ethr =  1.00E-02,  avg # of iterations =  3.0

     negative rho (up, down):  3.055E-03 0.000E+00

     total energy              =    -593.96356613 Ry
     estimated scf accuracy    <       2.35066389 Ry

[...]

     total energy              =    -595.24717152 Ry
     estimated scf accuracy    <       0.00000572 Ry

     iteration # 25     ecut=    30.00 Ry     beta= 0.70
     Davidson diagonalization with overlap

     ethr =  6.81E-09,  avg # of iterations =  1.0

[...]

     End of self-consistent calculation

          k = 0.0000 0.0000 0.0000 (  1480 PWs)   bands (ev):

   -64.9419 -38.9470 -38.9397 -38.8220 -38.8147 -36.5179 -36.4552 -35.9075
   -16.2058 -15.9115 -13.7482 -13.6881 -13.5594 -13.4943 -13.2984 -13.2092
    -3.5165  -2.9156  -1.5723  -1.0788  -0.9500  -0.9022  -0.7137  -0.0722
     0.8699   1.0083   1.2183   1.4569   1.5481   1.7471   1.9853   2.4778
     2.6275   2.8409   3.0407   3.1956   3.3457   3.4960   3.7592   3.8396
     6.9257   7.0181   7.0256   7.3379   8.7164   9.6168  11.8162  12.8630
    12.9991  13.5009

     occupation numbers
     1.0000   1.0000   1.0000   1.0000   1.0000   1.0000   1.0000   1.0000
     1.0000   1.0000   1.0000   1.0000   1.0000   1.0000   1.0000   1.0000
     1.0000   1.0000   1.0000   1.0000   1.0000   1.0000   1.0000   1.0000
     1.0000   1.0000   1.0000   1.0000   1.0000   1.0000   1.0000   1.0000
     1.0000   1.0000   1.0000   1.0000   1.0000   1.0000   1.0000   1.0000
     1.0000   0.7241   0.2759  -0.0000  -0.0000  -0.0000  -0.0000  -0.0000
    -0.0000  -0.0000

     the Fermi energy is     7.0219 ev

!    total energy              =    -595.24717319 Ry
     estimated scf accuracy    <       0.00000034 Ry
     smearing contrib. (-TS)   =      -0.00044302 Ry
     internal energy E=F+TS    =    -595.24673017 Ry

     The total energy is F=E-TS. E is the sum of the following terms:
     one-electron contribution =    -254.83997669 Ry
     hartree contribution      =     162.94259797 Ry
     xc contribution           =    -105.52011264 Ry
     ewald contribution        =    -321.70494549 Ry
     one-center paw contrib.   =     -76.12429333 Ry
      -> PAW hartree energy AE =     250.21615024 Ry
      -> PAW hartree energy PS =    -249.33503621 Ry
      -> PAW xc energy AE      =    -139.34646512 Ry
      -> PAW xc energy PS      =      62.34105777 Ry
      -> total E_H with PAW    =     163.82371200 Ry
      -> total E_XC with PAW   =    -182.52551999 Ry

     convergence has been achieved in  25 iterations

     negative rho (up, down):  2.106E-03 0.000E+00

     Forces acting on atoms (cartesian axes, Ry/au):

     atom    1 type  1   force =    -0.00041374   -0.00185751    0.00747633
     atom    2 type  1   force =    -0.00867457    0.00825429   -0.00846926
     atom    3 type  1   force =     0.00858516   -0.00799920    0.00823525
     atom    4 type  1   force =     0.00036113    0.00194258   -0.00746861
     atom    5 type  2   force =    -0.00103655   -0.00052943   -0.00052265
     atom    6 type  3   force =    -0.00477558   -0.00434389    0.00462616
     atom    7 type  3   force =     0.00583925    0.00406861   -0.00447463
     atom    8 type  4   force =    -0.00599101   -0.00195236    0.02394121
     atom    9 type  4   force =     0.00323102   -0.00649110   -0.01076646
     atom   10 type  4   force =    -0.02737444   -0.00644854   -0.02186993
     atom   11 type  4   force =    -0.02256677    0.01379697   -0.00159692
     atom   12 type  4   force =     0.02276692   -0.01383944    0.00128219
     atom   13 type  4   force =     0.02797361    0.00662473    0.02264121
     atom   14 type  4   force =    -0.00355612    0.00668765    0.01068019
     atom   15 type  4   force =     0.00563169    0.00208665   -0.02371410
     The non-local contrib.  to forces
     atom    1 type  1   force =     0.04231883    0.00876775    0.01358921
     atom    2 type  1   force =     0.01790976   -0.00829511    0.01447740
     atom    3 type  1   force =    -0.01788897    0.00818840   -0.01446603
     atom    4 type  1   force =    -0.04231387   -0.00867665   -0.01385605
     atom    5 type  2   force =    -0.00042259   -0.00073772   -0.00095631
     atom    6 type  3   force =     0.03291882    0.03452086    0.02568004
     atom    7 type  3   force =    -0.03407316   -0.03424553   -0.02577819
     atom    8 type  4   force =     0.56877868    1.26641891   -0.86952757
     atom    9 type  4   force =     0.34701322    0.33740624    1.48288244
     atom   10 type  4   force =     1.36890187    0.02735269   -0.20597235
     atom   11 type  4   force =     0.35332144   -1.59329777   -0.06520017
     atom   12 type  4   force =    -0.35512179    1.59329436    0.06632883
     atom   13 type  4   force =    -1.37052392   -0.02987722    0.20549570
     atom   14 type  4   force =    -0.34845399   -0.33499770   -1.48352015
     atom   15 type  4   force =    -0.57024394   -1.26643943    0.86887568
     The ionic contribution  to forces
     atom    1 type  1   force =     0.06011378   -0.13484966    0.34901571
     atom    2 type  1   force =    -0.40489649    0.52126396    0.07096039
     atom    3 type  1   force =     0.40396672   -0.51607441   -0.07363903
     atom    4 type  1   force =    -0.06071900    0.13824602   -0.34489304
     atom    5 type  2   force =    -0.06569824   -0.02823171   -0.02944166
     atom    6 type  3   force =     0.48336880   -0.14302033   -1.45884138
     atom    7 type  3   force =    -0.47585611    0.14180882    1.45867303
     atom    8 type  4   force =    -2.21576694   -6.56234430    3.11777263
     atom    9 type  4   force =    -1.15960133   -1.04942512   -6.26262935
     atom   10 type  4   force =    -2.98895439    1.24050276    4.17081334
     atom   11 type  4   force =     1.38467360    7.38643821   -3.37102743
     atom   12 type  4   force =    -1.36830492   -7.38184527    3.33829122
     atom   13 type  4   force =     3.02328311   -1.21055354   -4.11498253
     atom   14 type  4   force =     1.15784447    1.04423554    6.27482725
     atom   15 type  4   force =     2.22654692    6.55384902   -3.12489914
     The local contribution  to forces
     atom    1 type  1   force =    -0.10285282    0.12422192   -0.35509492
     atom    2 type  1   force =     0.37831749   -0.50469073   -0.09392023
     atom    3 type  1   force =    -0.37749539    0.49986812    0.09635083
     atom    4 type  1   force =     0.10340203   -0.12762210    0.35125235
     atom    5 type  2   force =     0.06515428    0.02842451    0.02985763
     atom    6 type  3   force =    -0.51855758    0.10812470    1.44010579
     atom    7 type  3   force =     0.51317092   -0.10744375   -1.43968831
     atom    8 type  4   force =     1.64594999    5.30549352   -2.23203836
     atom    9 type  4   force =     0.81897359    0.70851114    4.78177004
     atom   10 type  4   force =     1.60460419   -1.27451120   -3.98938869
     atom   11 type  4   force =    -1.75793974   -5.79402707    3.43489101
     atom   12 type  4   force =     1.74356027    5.78938930   -3.40359505
     atom   13 type  4   force =    -1.63671503    1.24723232    3.93481139
     atom   14 type  4   force =    -0.81611811   -0.70550841   -4.79341016
     atom   15 type  4   force =    -1.65564050   -5.29682619    2.24003420
     The core correction contribution to forces
     atom    1 type  1   force =     0.00000000    0.00000000    0.00000000
     atom    2 type  1   force =     0.00000000    0.00000000    0.00000000
     atom    3 type  1   force =     0.00000000    0.00000000    0.00000000
     atom    4 type  1   force =     0.00000000    0.00000000    0.00000000
     atom    5 type  2   force =    -0.00007350   -0.00000391   -0.00000006
     atom    6 type  3   force =    -0.00252201   -0.00398576   -0.00230660
     atom    7 type  3   force =     0.00262527    0.00396195    0.00231631
     atom    8 type  4   force =    -0.00489545   -0.01156744    0.00775061
     atom    9 type  4   force =    -0.00316765   -0.00298630   -0.01282215
     atom   10 type  4   force =    -0.01185075    0.00014606    0.00271592
     atom   11 type  4   force =    -0.00265002    0.01479308   -0.00024879
     atom   12 type  4   force =     0.00266441   -0.01479119    0.00024242
     atom   13 type  4   force =     0.01185361   -0.00012382   -0.00272525
     atom   14 type  4   force =     0.00318663    0.00296236    0.01282634
     atom   15 type  4   force =     0.00491205    0.01156502   -0.00774553
     The Hubbard contrib.    to forces
     atom    1 type  1   force =     0.00000000    0.00000000    0.00000000
     atom    2 type  1   force =     0.00000000    0.00000000    0.00000000
     atom    3 type  1   force =     0.00000000    0.00000000    0.00000000
     atom    4 type  1   force =     0.00000000    0.00000000    0.00000000
     atom    5 type  2   force =     0.00000000    0.00000000    0.00000000
     atom    6 type  3   force =     0.00000000    0.00000000    0.00000000
     atom    7 type  3   force =     0.00000000    0.00000000    0.00000000
     atom    8 type  4   force =     0.00000000    0.00000000    0.00000000
     atom    9 type  4   force =     0.00000000    0.00000000    0.00000000
     atom   10 type  4   force =     0.00000000    0.00000000    0.00000000
     atom   11 type  4   force =     0.00000000    0.00000000    0.00000000
     atom   12 type  4   force =     0.00000000    0.00000000    0.00000000
     atom   13 type  4   force =     0.00000000    0.00000000    0.00000000
     atom   14 type  4   force =     0.00000000    0.00000000    0.00000000
     atom   15 type  4   force =     0.00000000    0.00000000    0.00000000
     The SCF correction term to forces
     atom    1 type  1   force =     0.00000782    0.00000272   -0.00003307
     atom    2 type  1   force =    -0.00000397   -0.00002358    0.00001378
     atom    3 type  1   force =     0.00000416    0.00001893   -0.00000992
     atom    4 type  1   force =    -0.00000668   -0.00000444    0.00002873
     atom    5 type  2   force =     0.00000485    0.00001964    0.00001835
     atom    6 type  3   force =     0.00001775    0.00001687   -0.00001109
     atom    7 type  3   force =    -0.00002632   -0.00001263    0.00000314
     atom    8 type  4   force =    -0.00005593    0.00004719   -0.00001550
     atom    9 type  4   force =     0.00001455    0.00000318    0.00003316
     atom   10 type  4   force =    -0.00007400    0.00006139   -0.00003756
     atom   11 type  4   force =     0.00002930   -0.00010924   -0.00001095
     atom   12 type  4   force =    -0.00002969    0.00011359    0.00001536
     atom   13 type  4   force =     0.00007720   -0.00005277    0.00004249
     atom   14 type  4   force =    -0.00001377   -0.00000390   -0.00004249
     atom   15 type  4   force =     0.00005851   -0.00006153    0.00002129

     Total force =     0.079047     Total SCF correction =     0.000265

     Computing stress (Cartesian axis) and pressure

     negative rho (up, down):  2.106E-03 0.000E+00
          total   stress  (Ry/bohr**3)                   (kbar)     P=     -404.56
  -0.00305692   0.00004422  -0.00002998         -449.69        6.50       -4.41
   0.00004422  -0.00254415  -0.00009334            6.50     -374.26      -13.73
  -0.00002998  -0.00009334  -0.00264940           -4.41      -13.73     -389.74

     kinetic stress (kbar)  18380.85     -7.20     52.34
                               -7.20  18663.43   -146.58
                               52.34   -146.58  18436.39

     local   stress (kbar) -14203.80  -1119.54   2230.62
                            -1119.54  -3178.43  -4059.32
                             2230.62  -4059.32 -13271.14

     nonloc. stress (kbar)   3088.66    -27.08     -3.24
                              -27.08   3068.65     30.61
                               -3.24     30.61   3067.22

     hartree stress (kbar)   9150.34    526.41   -865.14
                              526.41   4618.29   1657.31
                             -865.14   1657.31   8567.96

     exc-cor stress (kbar)  -3403.50      0.93     -1.38
                                0.93  -3408.65      0.03
                               -1.38      0.03  -3399.98

     corecor stress (kbar)  -1096.44      1.20     -0.52
                                1.20  -1097.33     -0.52
                               -0.52     -0.52  -1096.07

     ewald   stress (kbar) -12365.78    631.79  -1417.10
                              631.79 -19040.23   2504.73
                            -1417.10   2504.73 -12694.12

     hubbard stress (kbar)      0.00      0.00      0.00
                                0.00      0.00      0.00
                                0.00      0.00      0.00

     DFT-D   stress (kbar)      0.00      0.00      0.00
                                0.00      0.00      0.00
                                0.00      0.00      0.00

     XDM     stress (kbar)      0.00      0.00      0.00
                                0.00      0.00      0.00
                                0.00      0.00      0.00

     dft-nl  stress (kbar)      0.00      0.00      0.00
                                0.00      0.00      0.00
                                0.00      0.00      0.00

     TS-vdW  stress (kbar)      0.00      0.00      0.00
                                0.00      0.00      0.00
                                0.00      0.00      0.00

[...]

                                0.00      0.00      0.00

     Writing all to output data dir new_calculations/myprefix.save/

     General routines

     Parallel routines

     PAW routines

   This run was terminated on:   4:49:29  21May2023

   JOB DONE.