     Program PWSCF v.7.0 starts on 21May2023 at  5:40:35

     Reading input from espresso_8134.pwi
Warning: card &CELL ignored
Warning: card / ignored

     Current dimensions of program PWSCF are:
     Max number of different atomic species (ntypx) = 10
     Max number of k-points (npk) =  40000
     Max angular momentum in pseudopotentials (lmaxx) =  4

     gamma-point specific algorithms are used
     Message from routine setup:
     using ibrav=0 with symmetry is DISCOURAGED, use correct ibrav instead

     Subspace diagonalization in iterative solution of the eigenvalue problem:
     a serial algorithm will be used

     Using Slab Decomposition

     bravais-lattice index     =            0
     lattice parameter (alat)  =      12.5763  a.u.
     unit-cell volume          =    1406.5170 (a.u.)^3
     number of atoms/cell      =           10
     number of atomic types    =            4
     number of electrons       =        86.00
     number of Kohn-Sham states=           52
     kinetic-energy cutoff     =      30.0000  Ry
     charge density cutoff     =     240.0000  Ry
     scf convergence threshold =      1.0E-06
     mixing beta               =       0.7000
     number of iterations used =            8  plain     mixing
     Exchange-correlation=  SLA  PW   PBX  PBC
                           (   1   4   3   4   0   0   0)

     celldm(1)=  12.576313  celldm(2)=   0.000000  celldm(3)=   0.000000
     celldm(4)=   0.000000  celldm(5)=   0.000000  celldm(6)=   0.000000

     crystal axes: (cart. coord. in units of alat)
               a(1) = (   1.000000   0.000000   0.000000 )
               a(2) = (   0.500000   0.866025   0.000000 )
               a(3) = (   0.500000   0.288675   0.816497 )

     reciprocal axes: (cart. coord. in units 2 pi/alat)
               b(1) = (  1.000000 -0.577350 -0.408248 )
               b(2) = (  0.000000  1.154701 -0.408248 )
               b(3) = (  0.000000  0.000000  1.224745 )

     PseudoPot. # 1 for Cs read from file:
     /home/pragov/projects/rrg-bengioy-ad/pragov/crystal_structure_design/SSSP/Cs_pbe_v1.uspp.F.UPF
     MD5 check sum: 3476d69cb178dfad3ffaa59df4e07ca4
     Pseudo is Ultrasoft + core correction, Zval =  9.0
     Generated by new atomic code, or converted to UPF format
     Using radial grid of  905 points,  6 beta functions with:
                l(1) =   0
                l(2) =   0
                l(3) =   1
                l(4) =   1
                l(5) =   2
                l(6) =   2
     Q(r) pseudized with  6 coefficients,  rinner =    1.500   1.500   1.500
                                                       1.500   1.500

     PseudoPot. # 2 for Tl read from file:
     /home/pragov/projects/rrg-bengioy-ad/pragov/crystal_structure_design/SSSP/Tl_pbe_v1.2.uspp.F.UPF
     MD5 check sum: b76cf1f7e72655a2b2c53cf6385d7059
     Pseudo is Ultrasoft + core correction, Zval = 13.0
     Generated by new atomic code, or converted to UPF format
     Using radial grid of  899 points,  6 beta functions with:
                l(1) =   0
                l(2) =   0
                l(3) =   1
                l(4) =   1
                l(5) =   2
                l(6) =   2
     Q(r) pseudized with  6 coefficients,  rinner =    1.100   1.100   1.100
                                                       1.100   1.100

     PseudoPot. # 3 for V  read from file:
     /home/pragov/projects/rrg-bengioy-ad/pragov/crystal_structure_design/SSSP/v_pbe_v1.4.uspp.F.UPF
     MD5 check sum: 22b79981416ebb76fdaf5b1b8640f6fb
     Pseudo is Ultrasoft + core correction, Zval = 13.0
     Generated by new atomic code, or converted to UPF format
     Using radial grid of  853 points,  6 beta functions with:
                l(1) =   0
                l(2) =   0
                l(3) =   1
                l(4) =   1
                l(5) =   2
                l(6) =   2
     Q(r) pseudized with  8 coefficients,  rinner =    1.100   1.100   1.100
                                                       1.100   1.100

     PseudoPot. # 4 for F  read from file:
     /home/pragov/projects/rrg-bengioy-ad/pragov/crystal_structure_design/SSSP/f_pbe_v1.4.uspp.F.UPF
     MD5 check sum: 4c38b6a325caf53ec0e86aed9459de46
     Pseudo is Ultrasoft, Zval =  7.0
     Generated by new atomic code, or converted to UPF format
     Using radial grid of  799 points,  4 beta functions with:
                l(1) =   0
                l(2) =   0
                l(3) =   1
                l(4) =   1
     Q(r) pseudized with  8 coefficients,  rinner =    0.950   0.950   0.950

     atomic species   valence    mass     pseudopotential
        Cs             9.00   132.90545     Cs( 1.00)
        Tl            13.00   204.38000     Tl( 1.00)
        V             13.00    50.94150     V ( 1.00)
        F              7.00    18.99840     F ( 1.00)

     12 Sym. Ops., with inversion, found

                                    s                        frac. trans.

      isym =  1     identity

 cryst.   s( 1) = (     1          0          0      )
                  (     0          1          0      )
                  (     0          0          1      )

 cart.    s( 1) = (  1.0000000  0.0000000  0.0000000 )
                  (  0.0000000  1.0000000  0.0000000 )
                  (  0.0000000  0.0000000  1.0000000 )

      isym =  2     180 deg rotation - cart. axis [1,0,0]

[...]

      isym =  3     120 deg rotation - cryst. axis [0,0,1]

[...]

      isym =  6     180 deg rotation - cryst. axis [1,1,0]

[...]

      isym =  7     inversion

[...]

      isym =  8     inv. 180 deg rotation - cart. axis [1,0,0]

[...]

      isym =  9     inv. 120 deg rotation - cryst. axis [0,0,1]

 cryst.   s( 9) = (     1         -1          0      )
                  (     1          0          0      )
                  (     1          0         -1      )

 cart.    s( 9) = (  0.5000000  0.8660254 -0.0000000 )
                  ( -0.8660254  0.5000000 -0.0000000 )
                  (  0.0000000  0.0000000 -1.0000000 )

[...]

 cryst.   s(10) = (     0          1          0      )
                  (    -1          1          0      )
                  (     0          1         -1      )

 cart.    s(10) = (  0.5000000 -0.8660254  0.0000000 )
                  (  0.8660254  0.5000000 -0.0000000 )
                  (  0.0000000  0.0000000 -1.0000000 )

[...]

      isym = 12     inv. 180 deg rotation - cryst. axis [1,1,0]

 cryst.   s(12) = (     1         -1          0      )
                  (     0         -1          0      )
                  (     0         -1          1      )

 cart.    s(12) = (  0.5000000 -0.8660254  0.0000000 )
                  ( -0.8660254 -0.5000000  0.0000000 )
                  (  0.0000000  0.0000000  1.0000000 )

   Cartesian axes

     site n.     atom                  positions (alat units)
         1           Cs  tau(   1) = (   1.5000000   0.8660254   0.6123724  )
         2           Cs  tau(   2) = (   0.5000000   0.2886751   0.2041241  )
         3           Tl  tau(   3) = (   1.0000000   0.5773503   0.4082483  )
         4           V   tau(   4) = (   0.0000000   0.0000000   0.0000000  )
         5           F   tau(   5) = (   1.2888090   0.4106063   0.6440599  )
         6           F   tau(   6) = (   0.7111910   0.4106063   0.6440599  )
         7           F   tau(   7) = (   1.2888100   0.7440948   0.1724359  )
         8           F   tau(   8) = (   1.0000000   0.2438624   0.1724367  )
         9           F   tau(   9) = (   0.7111910   0.7440942   0.1724367  )
        10           F   tau(  10) = (   1.0000000   0.9108382   0.6440599  )

   Crystallographic axes

     site n.     atom                  positions (cryst. coord.)
         1           Cs  tau(   1) = (  0.7500000  0.7500000  0.7500000  )
         2           Cs  tau(   2) = (  0.2500000  0.2500000  0.2500000  )
         3           Tl  tau(   3) = (  0.5000000  0.5000000  0.5000000  )
         4           V   tau(   4) = (  0.0000000  0.0000000  0.0000000  )
         5           F   tau(   5) = (  0.7888090  0.2111910  0.7888090  )
         6           F   tau(   6) = (  0.2111910  0.2111910  0.7888090  )
         7           F   tau(   7) = (  0.7888100  0.7888100  0.2111900  )
         8           F   tau(   8) = (  0.7888090  0.2111910  0.2111910  )
         9           F   tau(   9) = (  0.2111910  0.7888090  0.2111910  )
        10           F   tau(  10) = (  0.2111910  0.7888090  0.7888090  )

     number of k points=     1  Methfessel-Paxton smearing, width (Ry)=  0.0010
                       cart. coord. in units 2pi/alat
        k(    1) = (   0.0000000   0.0000000   0.0000000), wk =   2.0000000

                       cryst. coord.
        k(    1) = (   0.0000000   0.0000000   0.0000000), wk =   2.0000000

     Check: negative core charge=   -0.000004

     Initial potential from superposition of free atoms

     starting charge      85.9151, renormalised to      86.0000

     negative rho (up, down):  5.167E-02 0.000E+00
     Starting wfcs are   69 randomized atomic wfcs

     Self-consistent Calculation

     iteration #  1     ecut=    30.00 Ry     beta= 0.70
     Davidson diagonalization with overlap

     ethr =  1.00E-02,  avg # of iterations =  2.0

     negative rho (up, down):  5.200E-02 0.000E+00

     total energy              =    -707.89842023 Ry
     estimated scf accuracy    <       1.39266826 Ry

[...]

     total energy              =    -708.59467009 Ry
     estimated scf accuracy    <       0.00000614 Ry

     iteration # 23     ecut=    30.00 Ry     beta= 0.70
     Davidson diagonalization with overlap

     ethr =  7.14E-09,  avg # of iterations =  1.0

[...]

     End of self-consistent calculation

          k = 0.0000 0.0000 0.0000 (  1920 PWs)   bands (ev):

   -58.3984 -32.2548 -32.2548 -32.2548 -17.2612 -16.9207 -16.9207 -16.8587
   -16.8587 -16.8586 -15.4848 -15.4778  -5.2036  -5.2036  -5.2036  -5.1773
    -5.1773  -2.6144  -2.6144  -2.6144  -2.3593  -2.3593  -2.3593  -1.1049
     0.6360   0.6360   0.8418   0.8419   0.8419   1.1726   1.1726   1.1727
     1.9113   1.9113   1.9113   2.0269   2.0269   2.0269   2.3510   2.3510
     2.3510   2.6008   7.4519   7.4519   7.4519   9.0213   9.0213   9.0213
     9.2974   9.2975  10.2042  10.4609

     occupation numbers
     1.0000   1.0000   1.0000   1.0000   1.0000   1.0000   1.0000   1.0000
     1.0000   1.0000   1.0000   1.0000   1.0000   1.0000   1.0000   1.0000
     1.0000   1.0000   1.0000   1.0000   1.0000   1.0000   1.0000   1.0000
     1.0000   1.0000   1.0000   1.0000   1.0000   1.0000   1.0000   1.0000
     1.0000   1.0000   1.0000   1.0000   1.0000   1.0000   1.0000   1.0000
     1.0000   1.0000   0.3340   0.3334   0.3326  -0.0000  -0.0000  -0.0000
    -0.0000  -0.0000  -0.0000  -0.0000

     the Fermi energy is     7.4492 ev

!    total energy              =    -708.59467015 Ry
     estimated scf accuracy    <       0.00000018 Ry
     smearing contrib. (-TS)   =      -0.00074672 Ry
     internal energy E=F+TS    =    -708.59392344 Ry

     The total energy is F=E-TS. E is the sum of the following terms:
     one-electron contribution =    -367.11934351 Ry
     hartree contribution      =     230.30030052 Ry
     xc contribution           =    -198.55094247 Ry
     ewald contribution        =    -373.22393798 Ry

     convergence has been achieved in  23 iterations

     negative rho (up, down):  5.155E-02 0.000E+00

     Forces acting on atoms (cartesian axes, Ry/au):

     atom    1 type  1   force =     0.00000000    0.00000000   -0.00000660
     atom    2 type  1   force =    -0.00000000    0.00000000    0.00000660
     atom    3 type  2   force =     0.00000000    0.00000000    0.00000000
     atom    4 type  3   force =     0.00000000    0.00000000   -0.00000000
     atom    5 type  4   force =     0.01539860   -0.00889038    0.01257347
     atom    6 type  4   force =    -0.01539860   -0.00889038    0.01257347
     atom    7 type  4   force =     0.01539860    0.00889038   -0.01257347
     atom    8 type  4   force =     0.00000000   -0.01778077   -0.01257347
     atom    9 type  4   force =    -0.01539860    0.00889038   -0.01257347
     atom   10 type  4   force =     0.00000000    0.01778077    0.01257347
     The non-local contrib.  to forces
     atom    1 type  1   force =     0.00000000    0.00000000    0.00000885
     atom    2 type  1   force =    -0.00000000   -0.00000000   -0.00000885
     atom    3 type  2   force =     0.00000000    0.00000000    0.00000000
     atom    4 type  3   force =    -0.00000000    0.00000000   -0.00000000
     atom    5 type  4   force =     0.38830983   -0.22419079    0.31705492
     atom    6 type  4   force =    -0.38830983   -0.22419079    0.31705492
     atom    7 type  4   force =     0.38830983    0.22419079   -0.31705492
     atom    8 type  4   force =     0.00000000   -0.44838157   -0.31705492
     atom    9 type  4   force =    -0.38830983    0.22419079   -0.31705492
     atom   10 type  4   force =     0.00000000    0.44838157    0.31705492
     The ionic contribution  to forces
     atom    1 type  1   force =    -0.00000440   -0.00000254    0.00000359
     atom    2 type  1   force =    -0.00000440   -0.00000254    0.00000359
     atom    3 type  2   force =     0.00003631    0.00002096   -0.00002965
     atom    4 type  3   force =     0.00009108    0.00005258   -0.00007436
     atom    5 type  4   force =    -7.76858119    4.48520199   -6.34303349
     atom    6 type  4   force =     7.76857984    4.48519166   -6.34301888
     atom    7 type  4   force =    -7.76873152   -4.48527923    6.34314272
     atom    8 type  4   force =     0.00000827    8.97039921    6.34301998
     atom    9 type  4   force =     7.76859773   -4.48519244    6.34301998
     atom   10 type  4   force =     0.00000827   -8.97038965   -6.34303349
     The local contribution  to forces
     atom    1 type  1   force =     0.00000626    0.00001503   -0.00001855
     atom    2 type  1   force =     0.00000848   -0.00003674    0.00001571
     atom    3 type  2   force =    -0.00003894   -0.00001284    0.00002315
     atom    4 type  3   force =    -0.00008775   -0.00005729    0.00007622
     atom    5 type  4   force =     7.39556477   -4.26989581    6.03853707
     atom    6 type  4   force =    -7.39561406   -4.26996161    6.03852522
     atom    7 type  4   force =     7.39575056    4.27004133   -6.03864112
     atom    8 type  4   force =    -0.00004691   -8.53986688   -6.03852648
     atom    9 type  4   force =    -7.39558244    4.26988956   -6.03852063
     atom   10 type  4   force =     0.00002920    8.53985736    6.03853806
     The core correction contribution to forces
     atom    1 type  1   force =     0.00000453   -0.00000651   -0.00000264
     atom    2 type  1   force =    -0.00000259    0.00000002    0.00000214
     atom    3 type  2   force =     0.00000016    0.00000018    0.00000090
     atom    4 type  3   force =     0.00000018   -0.00000010    0.00000027
     atom    5 type  4   force =     0.00000000    0.00000000    0.00000000
     atom    6 type  4   force =     0.00000000    0.00000000    0.00000000
     atom    7 type  4   force =     0.00000000    0.00000000    0.00000000
     atom    8 type  4   force =     0.00000000    0.00000000    0.00000000
     atom    9 type  4   force =     0.00000000    0.00000000    0.00000000
     atom   10 type  4   force =     0.00000000    0.00000000    0.00000000
     The Hubbard contrib.    to forces
     atom    1 type  1   force =     0.00000000    0.00000000    0.00000000
     atom    2 type  1   force =     0.00000000    0.00000000    0.00000000
     atom    3 type  2   force =     0.00000000    0.00000000    0.00000000
     atom    4 type  3   force =     0.00000000    0.00000000    0.00000000
     atom    5 type  4   force =     0.00000000    0.00000000    0.00000000
     atom    6 type  4   force =     0.00000000    0.00000000    0.00000000
     atom    7 type  4   force =     0.00000000    0.00000000    0.00000000
     atom    8 type  4   force =     0.00000000    0.00000000    0.00000000
     atom    9 type  4   force =     0.00000000    0.00000000    0.00000000
     atom   10 type  4   force =     0.00000000    0.00000000    0.00000000
     The SCF correction term to forces
     atom    1 type  1   force =     0.00001423   -0.00002731    0.00000369
     atom    2 type  1   force =    -0.00001313    0.00002829   -0.00000445
     atom    3 type  2   force =     0.00000436   -0.00000883    0.00000993
     atom    4 type  3   force =    -0.00000501    0.00000634   -0.00000351
     atom    5 type  4   force =     0.00010884   -0.00000565    0.00001971
     atom    6 type  4   force =    -0.00006054    0.00006740    0.00001515
     atom    7 type  4   force =     0.00005997   -0.00006790   -0.00001617
     atom    8 type  4   force =     0.00003976    0.00007057   -0.00000872
     atom    9 type  4   force =    -0.00010827    0.00000470   -0.00001955
     atom   10 type  4   force =    -0.00003945   -0.00006977    0.00001194

     Total force =     0.053343     Total SCF correction =     0.000238

     Computing stress (Cartesian axis) and pressure

     negative rho (up, down):  5.155E-02 0.000E+00
          total   stress  (Ry/bohr**3)                   (kbar)     P=      -72.36
  -0.00049190  -0.00000000  -0.00000000          -72.36       -0.00       -0.00
  -0.00000000  -0.00049190   0.00000000           -0.00      -72.36        0.00
   0.00000000   0.00000000  -0.00049190            0.00        0.00      -72.36

     kinetic stress (kbar)  12564.19      0.00      0.00
                                0.00  12564.19     -0.00
                                0.00     -0.00  12564.18

     local   stress (kbar)  -8557.18      0.01      0.26
                                0.01  -8557.11     -0.51
                                0.26     -0.51  -8557.17

     nonloc. stress (kbar)   5034.56      0.00      0.00
                                0.00   5034.56     -0.00
                                0.00     -0.00   5034.59

     hartree stress (kbar)   8028.86      0.02     -0.10
                                0.02   8028.93      0.20
                               -0.10      0.20   8028.90

     exc-cor stress (kbar)   6213.44     -0.00     -0.00
                               -0.00   6213.44      0.00
                               -0.00      0.00   6213.44

     corecor stress (kbar) -10344.70      0.00      0.00
                                0.00 -10344.70     -0.00
                                0.00     -0.00 -10344.70

     ewald   stress (kbar) -13011.60      0.00     -0.00
                                0.00 -13011.61     -0.00
                               -0.00     -0.00 -13011.61

     hubbard stress (kbar)      0.00      0.00      0.00
                                0.00      0.00      0.00
                                0.00      0.00      0.00

     DFT-D   stress (kbar)      0.00      0.00      0.00
                                0.00      0.00      0.00
                                0.00      0.00      0.00

     XDM     stress (kbar)      0.00      0.00      0.00
                                0.00      0.00      0.00
                                0.00      0.00      0.00

     dft-nl  stress (kbar)      0.00      0.00      0.00
                                0.00      0.00      0.00
                                0.00      0.00      0.00

     TS-vdW  stress (kbar)      0.00      0.00      0.00
                                0.00      0.00      0.00
                                0.00      0.00      0.00

[...]

                                0.00      0.00      0.00

     Writing all to output data dir new_calculations/myprefix.save/

     General routines

     Parallel routines

   This run was terminated on:   5:41: 0  21May2023

   JOB DONE.