     Program PWSCF v.7.0 starts on 20May2023 at 17:40:55

     Reading input from espresso_11495.pwi
Warning: card &CELL ignored
Warning: card / ignored

     Current dimensions of program PWSCF are:
     Max number of different atomic species (ntypx) = 10
     Max number of k-points (npk) =  40000
     Max angular momentum in pseudopotentials (lmaxx) =  4

     gamma-point specific algorithms are used
     Message from routine setup:
     using ibrav=0 with symmetry is DISCOURAGED, use correct ibrav instead

     Subspace diagonalization in iterative solution of the eigenvalue problem:
     a serial algorithm will be used

     Using Slab Decomposition

     bravais-lattice index     =            0
     lattice parameter (alat)  =      17.6161  a.u.
     unit-cell volume          =    1233.2804 (a.u.)^3
     number of atoms/cell      =            8
     number of atomic types    =            3
     number of electrons       =       116.00
     number of Kohn-Sham states=           70
     kinetic-energy cutoff     =      30.0000  Ry
     charge density cutoff     =     240.0000  Ry
     scf convergence threshold =      1.0E-06
     mixing beta               =       0.7000
     number of iterations used =            8  plain     mixing
     Exchange-correlation= SLA  PW   PBE  PBE
                           (   1   4   3   4   0   0   0)

     celldm(1)=  17.616127  celldm(2)=   0.000000  celldm(3)=   0.000000
     celldm(4)=   0.000000  celldm(5)=   0.000000  celldm(6)=   0.000000

     crystal axes: (cart. coord. in units of alat)
               a(1) = (   1.000000   0.000000   0.000000 )
               a(2) = (  -0.886636   0.462468   0.000000 )
               a(3) = (   0.000000   0.000000   0.487808 )

     reciprocal axes: (cart. coord. in units 2 pi/alat)
               b(1) = (  1.000000  1.917183  0.000000 )
               b(2) = (  0.000000  2.162312  0.000000 )
               b(3) = (  0.000000  0.000000  2.049987 )

     PseudoPot. # 1 for Ce read from file:
     /home/pragov/projects/rrg-bengioy-ad/pragov/crystal_structure_design/SSSP/Ce.GGA-PBE-paw-v1.0.UPF
     MD5 check sum: f2b950f613061344c13339c8d844425d
     Pseudo is Projector augmented-wave + core cor, Zval = 12.0
     Generated using ATOMPAW code
     Shape of augmentation charge: BESSEL
     Using radial grid of 1102 points,  8 beta functions with:
                l(1) =   0
                l(2) =   0
                l(3) =   1
                l(4) =   1
                l(5) =   2
                l(6) =   2
                l(7) =   3
                l(8) =   3
     Q(r) pseudized with 0 coefficients

     PseudoPot. # 2 for Ni read from file:
     /home/pragov/projects/rrg-bengioy-ad/pragov/crystal_structure_design/SSSP/ni_pbe_v1.4.uspp.F.UPF
     MD5 check sum: 1ee80287db30b12d2bc1f57a5b5d6409
     Pseudo is Ultrasoft + core correction, Zval = 18.0
     Generated by new atomic code, or converted to UPF format
     Using radial grid of  865 points,  6 beta functions with:
                l(1) =   0
                l(2) =   0
                l(3) =   1
                l(4) =   1
                l(5) =   2
                l(6) =   2
     Q(r) pseudized with 10 coefficients,  rinner =    0.980   0.980   0.980
                                                       0.980   0.980

     PseudoPot. # 3 for Sn read from file:
     /home/pragov/projects/rrg-bengioy-ad/pragov/crystal_structure_design/SSSP/Sn_pbe_v1.uspp.F.UPF
     MD5 check sum: 4cf58ce39ec5d5d420df3dd08604eb00
     Pseudo is Ultrasoft + core correction, Zval = 14.0
     Generated by new atomic code, or converted to UPF format
     Using radial grid of  891 points,  6 beta functions with:
                l(1) =   0
                l(2) =   0
                l(3) =   1
                l(4) =   1
                l(5) =   2
                l(6) =   2
     Q(r) pseudized with  6 coefficients,  rinner =    1.200   1.200   1.200
                                                       1.200   1.200

     atomic species   valence    mass     pseudopotential
        Ce            12.00   140.11600     Ce( 1.00)
        Ni            18.00    58.69340     Ni( 1.00)
        Sn            14.00   118.71000     Sn( 1.00)

      4 Sym. Ops., with inversion, found ( 2 have fractional translation)

                                    s                        frac. trans.

      isym =  1     identity

 cryst.   s( 1) = (     1          0          0      )
                  (     0          1          0      )
                  (     0          0          1      )

 cart.    s( 1) = (  1.0000000  0.0000000  0.0000000 )
                  (  0.0000000  1.0000000  0.0000000 )
                  (  0.0000000  0.0000000  1.0000000 )

      isym =  2     180 deg rotation - cart. axis [0,0,1]

 cryst.   s( 2) = (    -1          0          0      )    f =( -0.0000000 )
                  (     0         -1          0      )       ( -0.0000000 )
                  (     0          0          1      )       ( -0.5000000 )

 cart.    s( 2) = ( -1.0000000 -0.0000000  0.0000000 )    f =( -0.0000000 )
                  (  0.0000000 -1.0000000  0.0000000 )       ( -0.0000000 )
                  (  0.0000000  0.0000000  1.0000000 )       ( -0.2439039 )

      isym =  3     inversion

 cryst.   s( 3) = (    -1          0          0      )
                  (     0         -1          0      )
                  (     0          0         -1      )

 cart.    s( 3) = ( -1.0000000 -0.0000000  0.0000000 )
                  (  0.0000000 -1.0000000  0.0000000 )
                  (  0.0000000  0.0000000 -1.0000000 )

      isym =  4     inv. 180 deg rotation - cart. axis [0,0,1]

 cryst.   s( 4) = (     1          0          0      )    f =(  0.0000000 )
                  (     0          1          0      )       (  0.0000000 )
                  (     0          0         -1      )       (  0.5000000 )

 cart.    s( 4) = (  1.0000000  0.0000000  0.0000000 )    f =(  0.0000000 )
                  (  0.0000000  1.0000000  0.0000000 )       (  0.0000000 )
                  (  0.0000000  0.0000000 -1.0000000 )       (  0.2439039 )

   Cartesian axes

     site n.     atom                  positions (alat units)
         1           Ce  tau(   1) = (   0.2639290   0.1804319   0.1219520  )
         2           Ce  tau(   2) = (  -0.1505649   0.2820361   0.3658559  )
         3           Ni  tau(   3) = (   0.6573756   0.0839870   0.1219520  )
         4           Ni  tau(   4) = (  -0.5440116   0.3784810   0.3658559  )
         5           Sn  tau(   5) = (   0.9128374   0.0213660   0.1219520  )
         6           Sn  tau(   6) = (  -0.7994734   0.4411020   0.3658559  )
         7           Sn  tau(   7) = (  -0.4167599   0.3472880   0.1219520  )
         8           Sn  tau(   8) = (   0.5301239   0.1151800   0.3658559  )

   Crystallographic axes

     site n.     atom                  positions (cryst. coord.)
         1           Ce  tau(   1) = (  0.6098500  0.3901500  0.2500000  )
         2           Ce  tau(   2) = (  0.3901500  0.6098500  0.7500000  )
         3           Ni  tau(   3) = (  0.8183940  0.1816060  0.2500000  )
         4           Ni  tau(   4) = (  0.1816060  0.8183940  0.7500000  )
         5           Sn  tau(   5) = (  0.9538000  0.0462000  0.2500000  )
         6           Sn  tau(   6) = (  0.0462000  0.9538000  0.7500000  )
         7           Sn  tau(   7) = (  0.2490550  0.7509450  0.2500000  )
         8           Sn  tau(   8) = (  0.7509450  0.2490550  0.7500000  )

     number of k points=     1  Methfessel-Paxton smearing, width (Ry)=  0.0010
                       cart. coord. in units 2pi/alat
        k(    1) = (   0.0000000   0.0000000   0.0000000), wk =   2.0000000

                       cryst. coord.
        k(    1) = (   0.0000000   0.0000000   0.0000000), wk =   2.0000000

     Check: negative core charge=   -0.000002

     Initial potential from superposition of free atoms

     starting charge     107.9858, renormalised to     116.0000
     Starting wfcs are  126 randomized atomic wfcs
     Checking if some PAW data can be deallocated...

     Self-consistent Calculation

     iteration #  1     ecut=    30.00 Ry     beta= 0.70
     Davidson diagonalization with overlap

     ethr =  1.00E-02,  avg # of iterations =  4.0

     total energy              =   -2227.95633989 Ry
     estimated scf accuracy    <     102.55101757 Ry

[...]

     total energy              =   -2303.08478201 Ry
     estimated scf accuracy    <       0.00005045 Ry

     iteration # 67     ecut=    30.00 Ry     beta= 0.70
     Davidson diagonalization with overlap

     ethr =  8.88E-10,  avg # of iterations =  1.0

     End of self-consistent calculation

          k = 0.0000 0.0000 0.0000 (  1725 PWs)   bands (ev):

   -90.0327 -90.0281 -50.5494 -50.5337 -50.4099 -50.3997 -50.2475 -50.2365
   -21.4390 -21.4345  -8.2317  -8.1918  -8.1187  -8.1102  -8.1098  -8.0244
    -8.0210  -7.9875  -7.9829  -7.9555  -7.8833  -7.8751  -7.8343  -7.8288
    -7.7955  -7.7340  -7.6820  -7.6786  -7.6668  -7.5565  -4.4202  -4.2819
    -4.2750  -4.2478  -4.0052  -3.9896   2.6893   4.3879   6.5720   7.8857
     9.3486   9.4695   9.5005  10.4253  10.7535  11.1931  11.3350  11.3682
    11.4301  11.4693  11.4837  12.0930  12.1111  12.2677  12.3448  13.0359
    13.3005  13.3930  13.4060  13.4062  13.4130  13.4707  13.5032  13.5034
    13.5831  13.6126  13.6155  13.6560  13.7691  13.8930

     occupation numbers
     1.0000   1.0000   1.0000   1.0000   1.0000   1.0000   1.0000   1.0000
     1.0000   1.0000   1.0000   1.0000   1.0000   1.0000   1.0000   1.0000
     1.0000   1.0000   1.0000   1.0000   1.0000   1.0000   1.0000   1.0000
     1.0000   1.0000   1.0000   1.0000   1.0000   1.0000   1.0000   1.0000
     1.0000   1.0000   1.0000   1.0000   1.0000   1.0000   1.0000   1.0000
     1.0000   1.0000   1.0000   1.0000   1.0000   1.0000   1.0000   1.0000
     1.0000   1.0000   1.0000   1.0000   1.0000   1.0000   1.0000   1.0000
     1.0000   0.8199   0.1100   0.0999  -0.0299  -0.0000  -0.0000  -0.0000
    -0.0000  -0.0000  -0.0000  -0.0000  -0.0000  -0.0000

     the Fermi energy is    13.3986 ev

!    total energy              =   -2303.08478168 Ry
     estimated scf accuracy    <       0.00000068 Ry
     smearing contrib. (-TS)   =      -0.00020962 Ry
     internal energy E=F+TS    =   -2303.08457206 Ry

     The total energy is F=E-TS. E is the sum of the following terms:
     one-electron contribution =    -925.40015696 Ry
     hartree contribution      =     543.03838697 Ry
     xc contribution           =    -282.51664585 Ry
     ewald contribution        =    -821.56900910 Ry
     one-center paw contrib.   =    -816.63714712 Ry
      -> PAW hartree energy AE =      87.76275631 Ry
      -> PAW hartree energy PS =     -87.18588189 Ry
      -> PAW xc energy AE      =    -834.31503110 Ry
      -> PAW xc energy PS      =      17.10100956 Ry
      -> total E_H with PAW    =     543.61526139 Ry
      -> total E_XC with PAW   =   -1099.73066739 Ry

     convergence has been achieved in  67 iterations

     Forces acting on atoms (cartesian axes, Ry/au):

     atom    1 type  1   force =     0.02139152   -0.00523043    0.00000000
     atom    2 type  1   force =    -0.02139152    0.00523043    0.00000000
     atom    3 type  2   force =    -0.00310876    0.00073735    0.00000000
     atom    4 type  2   force =     0.00310876   -0.00073735    0.00000000
     atom    5 type  3   force =     0.07557264   -0.01852029   -0.00000000
     atom    6 type  3   force =    -0.07557264    0.01852029   -0.00000000
     atom    7 type  3   force =    -0.00221402    0.00058210    0.00000000
     atom    8 type  3   force =     0.00221402   -0.00058210    0.00000000
     The non-local contrib.  to forces
     atom    1 type  1   force =     0.01765319   -0.00433476    0.00000000
     atom    2 type  1   force =    -0.01765319    0.00433476    0.00000000
     atom    3 type  2   force =    -0.16340096    0.04002965   -0.00000000
     atom    4 type  2   force =     0.16340096   -0.04002965   -0.00000000
     atom    5 type  3   force =    -0.00379810    0.00094236    0.00000000
     atom    6 type  3   force =     0.00379810   -0.00094236    0.00000000
     atom    7 type  3   force =     0.01469932   -0.00355204    0.00000000
     atom    8 type  3   force =    -0.01469932    0.00355204    0.00000000
     The ionic contribution  to forces
     atom    1 type  1   force =   -20.77336426    5.09214093    0.00000000
     atom    2 type  1   force =    20.77336426   -5.09214093   -0.00000000
     atom    3 type  2   force =    25.95842549   -6.36314653   -0.00000000
     atom    4 type  2   force =   -25.95842549    6.36314653   -0.00000000
     atom    5 type  3   force =    17.19587172   -4.21519601    0.00000000
     atom    6 type  3   force =   -17.19587172    4.21519601   -0.00000000
     atom    7 type  3   force =    -0.85261653    0.20900050    0.00000000
     atom    8 type  3   force =     0.85261653   -0.20900050   -0.00000000
     The local contribution  to forces
     atom    1 type  1   force =    20.77869575   -5.09343191    0.00065626
     atom    2 type  1   force =   -20.77805137    5.09320039    0.00064586
     atom    3 type  2   force =   -25.79866560    6.32403850   -0.00020744
     atom    4 type  2   force =    25.79914695   -6.32418338   -0.00017249
     atom    5 type  3   force =   -17.11975242    4.19652159   -0.00010463
     atom    6 type  3   force =    17.11912751   -4.19635726   -0.00009515
     atom    7 type  3   force =     0.83535901   -0.20487047   -0.00004885
     atom    8 type  3   force =    -0.83514855    0.20480507   -0.00001292
     The core correction contribution to forces
     atom    1 type  1   force =     0.00010460   -0.00002563    0.00000046
     atom    2 type  1   force =    -0.00010417    0.00002547    0.00000045
     atom    3 type  2   force =     0.00002670   -0.00000639   -0.00000193
     atom    4 type  2   force =    -0.00002544    0.00000612   -0.00000235
     atom    5 type  3   force =     0.00239876   -0.00058830   -0.00000116
     atom    6 type  3   force =    -0.00240070    0.00058845   -0.00000088
     atom    7 type  3   force =     0.00040801   -0.00010161   -0.00000041
     atom    8 type  3   force =    -0.00041433    0.00010231    0.00000050
     The Hubbard contrib.    to forces
     atom    1 type  1   force =     0.00000000    0.00000000    0.00000000
     atom    2 type  1   force =     0.00000000    0.00000000    0.00000000
     atom    3 type  2   force =     0.00000000    0.00000000    0.00000000
     atom    4 type  2   force =     0.00000000    0.00000000    0.00000000
     atom    5 type  3   force =     0.00000000    0.00000000    0.00000000
     atom    6 type  3   force =     0.00000000    0.00000000    0.00000000
     atom    7 type  3   force =     0.00000000    0.00000000    0.00000000
     atom    8 type  3   force =     0.00000000    0.00000000    0.00000000
     The SCF correction term to forces
     atom    1 type  1   force =    -0.00154025    0.00036341   -0.00025885
     atom    2 type  1   force =     0.00121046   -0.00024678   -0.00025759
     atom    3 type  2   force =     0.00053385   -0.00018296    0.00017329
     atom    4 type  2   force =    -0.00095998    0.00031794    0.00014366
     atom    5 type  3   force =     0.00082527   -0.00019133    0.00008943
     atom    6 type  3   force =    -0.00025325    0.00004404    0.00008340
     atom    7 type  3   force =    -0.00005926    0.00010483    0.00004474
     atom    8 type  3   force =    -0.00013573   -0.00004192    0.00001079

     Total force =     0.114496     Total SCF correction =     0.002528

     Computing stress (Cartesian axis) and pressure

          total   stress  (Ry/bohr**3)                   (kbar)     P=     -194.51
  -0.00194179   0.00015571   0.00000000         -285.65       22.91        0.00
   0.00015571  -0.00134236   0.00000000           22.91     -197.47        0.00
   0.00000000   0.00000000  -0.00068268            0.00        0.00     -100.43

     kinetic stress (kbar)  17576.26     43.47      0.00
                               43.47  17742.40      0.00
                                0.00      0.00  17761.05

     local   stress (kbar)   8135.41  -5936.23     -0.00
                            -5936.23 -14624.21     -0.00
                               -0.00     -0.00 -23295.48

     nonloc. stress (kbar)  10563.13     11.89      0.00
                               11.89  10607.88      0.00
                                0.00      0.00  10665.98

     hartree stress (kbar)  12532.09   3040.41      0.00
                             3040.41  24189.79      0.00
                                0.00      0.00  28051.47

     exc-cor stress (kbar)   6688.78     -0.79      0.00
                               -0.79   6685.76      0.00
                                0.00      0.00   6687.84

     corecor stress (kbar) -14183.70     -0.30     -0.00
                               -0.30 -14184.86     -0.00
                               -0.00     -0.00 -14186.78

     ewald   stress (kbar) -41597.61   2864.46      0.00
                             2864.46 -30614.24     -0.00
                                0.00     -0.00 -25784.50

     hubbard stress (kbar)      0.00      0.00      0.00
                                0.00      0.00      0.00
                                0.00      0.00      0.00

     DFT-D   stress (kbar)      0.00      0.00      0.00
                                0.00      0.00      0.00
                                0.00      0.00      0.00

     XDM     stress (kbar)      0.00      0.00      0.00
                                0.00      0.00      0.00
                                0.00      0.00      0.00

     dft-nl  stress (kbar)      0.00      0.00      0.00
                                0.00      0.00      0.00
                                0.00      0.00      0.00

     TS-vdW  stress (kbar)      0.00      0.00      0.00
                                0.00      0.00      0.00
                                0.00      0.00      0.00

[...]

                                0.00      0.00      0.00

     Writing all to output data dir new_calculations/myprefix.save/

     General routines

     Parallel routines

     PAW routines

   This run was terminated on:  17:42:56  20May2023

   JOB DONE.