     Program PWSCF v.7.0 starts on 21May2023 at  6:53:22

     Reading input from espresso_23470.pwi
Warning: card &CELL ignored
Warning: card / ignored

     Current dimensions of program PWSCF are:
     Max number of different atomic species (ntypx) = 10
     Max number of k-points (npk) =  40000
     Max angular momentum in pseudopotentials (lmaxx) =  4
     file O.pbe-n-kjpaw_psl.0.1.UPF: wavefunction(s)  2P renormalized

     gamma-point specific algorithms are used
     Message from routine setup:
     using ibrav=0 with symmetry is DISCOURAGED, use correct ibrav instead

     Subspace diagonalization in iterative solution of the eigenvalue problem:
     a serial algorithm will be used

     Using Slab Decomposition

     bravais-lattice index     =            0
     lattice parameter (alat)  =      10.9127  a.u.
     unit-cell volume          =     918.9272 (a.u.)^3
     number of atoms/cell      =           10
     number of atomic types    =            5
     number of electrons       =        88.00
     number of Kohn-Sham states=           53
     kinetic-energy cutoff     =      30.0000  Ry
     charge density cutoff     =     240.0000  Ry
     scf convergence threshold =      1.0E-06
     mixing beta               =       0.7000
     number of iterations used =            8  plain     mixing
     Exchange-correlation= SLA  PW   PBX  PBC
                           (   1   4   3   4   0   0   0)

     celldm(1)=  10.912695  celldm(2)=   0.000000  celldm(3)=   0.000000
     celldm(4)=   0.000000  celldm(5)=   0.000000  celldm(6)=   0.000000

     crystal axes: (cart. coord. in units of alat)
               a(1) = (   1.000000   0.000000   0.000000 )
               a(2) = (   0.500000   0.866025   0.000000 )
               a(3) = (   0.500000   0.288675   0.816497 )

     reciprocal axes: (cart. coord. in units 2 pi/alat)
               b(1) = (  1.000000 -0.577350 -0.408248 )
               b(2) = (  0.000000  1.154701 -0.408248 )
               b(3) = (  0.000000  0.000000  1.224745 )

     PseudoPot. # 1 for Na read from file:
     /home/pragov/projects/rrg-bengioy-ad/pragov/crystal_structure_design/SSSP/na_pbe_v1.5.uspp.F.UPF
     MD5 check sum: 44600605ef58000f06b90626533354dc
     Pseudo is Ultrasoft, Zval =  9.0
     Generated by new atomic code, or converted to UPF format
     Using radial grid of  819 points,  5 beta functions with:
                l(1) =   0
                l(2) =   0
                l(3) =   1
                l(4) =   1
                l(5) =   2
     Q(r) pseudized with  8 coefficients,  rinner =    1.250   1.250   1.250
                                                       1.250   1.250

     PseudoPot. # 2 for Eu read from file:
     /home/pragov/projects/rrg-bengioy-ad/pragov/crystal_structure_design/SSSP/Eu.GGA-PBE-paw-v1.0.UPF
     MD5 check sum: acec5fd9176fb57ec8e299eae1ecaf48
     Pseudo is Projector augmented-wave + core cor, Zval = 17.0
     Generated using ATOMPAW code
     Shape of augmentation charge: BESSEL
     Using radial grid of 1109 points,  8 beta functions with:
                l(1) =   0
                l(2) =   0
                l(3) =   1
                l(4) =   1
                l(5) =   2
                l(6) =   2
                l(7) =   3
                l(8) =   3
     Q(r) pseudized with 0 coefficients

     PseudoPot. # 3 for Zr read from file:
     /home/pragov/projects/rrg-bengioy-ad/pragov/crystal_structure_design/SSSP/Zr_pbe_v1.uspp.F.UPF
     MD5 check sum: 5db81b1e868ab7776c4564c113de050b
     Pseudo is Ultrasoft + core correction, Zval = 12.0
     Generated by new atomic code, or converted to UPF format
     Using radial grid of  887 points,  6 beta functions with:
                l(1) =   0
                l(2) =   0
                l(3) =   1
                l(4) =   1
                l(5) =   2
                l(6) =   2
     Q(r) pseudized with  6 coefficients,  rinner =    1.200   1.200   1.200
                                                       1.200   1.200

     PseudoPot. # 4 for W  read from file:
     /home/pragov/projects/rrg-bengioy-ad/pragov/crystal_structure_design/SSSP/W_pbe_v1.2.uspp.F.UPF
     MD5 check sum: 9c083fa34c2a2ea0f02f1f893e16e1c8
     Pseudo is Ultrasoft + core correction, Zval = 14.0
     Generated by new atomic code, or converted to UPF format
     Using radial grid of  923 points,  8 beta functions with:
                l(1) =   0
                l(2) =   0
                l(3) =   0
                l(4) =   1
                l(5) =   1
                l(6) =   2
                l(7) =   2
                l(8) =   3
     Q(r) pseudized with  6 coefficients,  rinner =    1.350   1.350   1.350
                                                       1.350   1.350   1.350
                                                       1.350

     PseudoPot. # 5 for O  read from file:
     /home/pragov/projects/rrg-bengioy-ad/pragov/crystal_structure_design/SSSP/O.pbe-n-kjpaw_psl.0.1.UPF
     MD5 check sum: 0234752ac141de4415c5fc33072bef88
     Pseudo is Projector augmented-wave + core cor, Zval =  6.0
     Generated using "atomic" code by A. Dal Corso  v.5.0.99 svn rev. 10869
     Shape of augmentation charge: BESSEL
     Using radial grid of 1095 points,  4 beta functions with:
                l(1) =   0
                l(2) =   0
                l(3) =   1
                l(4) =   1
     Q(r) pseudized with 0 coefficients

     atomic species   valence    mass     pseudopotential
        Na             9.00    22.98977     Na( 1.00)
        Eu            17.00   151.96400     Eu( 1.00)
        Zr            12.00    91.22400     Zr( 1.00)
        W             14.00   183.84000     W ( 1.00)
        O              6.00    15.99900     O ( 1.00)

      6 Sym. Ops. (no inversion) found

                                    s                        frac. trans.

      isym =  1     identity

 cryst.   s( 1) = (     1          0          0      )
                  (     0          1          0      )
                  (     0          0          1      )

 cart.    s( 1) = (  1.0000000  0.0000000  0.0000000 )
                  (  0.0000000  1.0000000 -0.0000000 )
                  (  0.0000000  0.0000000  1.0000000 )

      isym =  2     120 deg rotation - cryst. axis [0,0,1]

[...]

      isym =  3     120 deg rotation - cryst. axis [0,0,-1]

[...]

      isym =  4     inv. 180 deg rotation - cart. axis [1,0,0]

[...]

      isym =  5     inv. 180 deg rotation - cryst. axis [0,1,0]

[...]

      isym =  6     inv. 180 deg rotation - cryst. axis [1,1,0]

 cryst.   s( 6) = (     1         -1          0      )
                  (     0         -1          0      )
                  (     0         -1          1      )

 cart.    s( 6) = (  0.5000000 -0.8660254 -0.0000000 )
                  ( -0.8660254 -0.5000000 -0.0000000 )
                  (  0.0000000  0.0000000  1.0000000 )

   Cartesian axes

     site n.     atom                  positions (alat units)
         1           Na  tau(   1) = (   0.5000000   0.2886751   0.2041241  )
         2           Eu  tau(   2) = (   1.5000000   0.8660254   0.6123724  )
         3           Zr  tau(   3) = (   0.0000000   0.0000000   0.0000000  )
         4           W   tau(   4) = (   1.0000000   0.5773503   0.4082483  )
         5           O   tau(   5) = (   1.0000000   0.2964885   0.2096490  )
         6           O   tau(   6) = (   1.0000000   0.8582120   0.6068475  )
         7           O   tau(   7) = (   1.2432334   0.4369194   0.6068475  )
         8           O   tau(   8) = (   0.7567666   0.7177811   0.2096490  )
         9           O   tau(   9) = (   1.2432334   0.7177811   0.2096490  )
        10           O   tau(  10) = (   0.7567666   0.4369194   0.6068475  )

   Crystallographic axes

     site n.     atom                  positions (cryst. coord.)
         1           Na  tau(   1) = (  0.2500000  0.2500000  0.2500000  )
         2           Eu  tau(   2) = (  0.7500000  0.7500000  0.7500000  )
         3           Zr  tau(   3) = (  0.0000000  0.0000000  0.0000000  )
         4           W   tau(   4) = (  0.5000000  0.5000000  0.5000000  )
         5           O   tau(   5) = (  0.7432334  0.2567666  0.2567666  )
         6           O   tau(   6) = (  0.2567666  0.7432334  0.7432334  )
         7           O   tau(   7) = (  0.7432334  0.2567666  0.7432334  )
         8           O   tau(   8) = (  0.2567666  0.7432334  0.2567666  )
         9           O   tau(   9) = (  0.7432334  0.7432334  0.2567666  )
        10           O   tau(  10) = (  0.2567666  0.2567666  0.7432334  )

     number of k points=     1  Methfessel-Paxton smearing, width (Ry)=  0.0010
                       cart. coord. in units 2pi/alat
        k(    1) = (   0.0000000   0.0000000   0.0000000), wk =   2.0000000

                       cryst. coord.
        k(    1) = (   0.0000000   0.0000000   0.0000000), wk =   2.0000000

     Check: negative core charge=   -0.000011

     Initial potential from superposition of free atoms

     starting charge      87.8865, renormalised to      88.0000

     negative rho (up, down):  1.246E-01 0.000E+00
     Starting wfcs are   87 randomized atomic wfcs
     Checking if some PAW data can be deallocated...

     Self-consistent Calculation

     iteration #  1     ecut=    30.00 Ry     beta= 0.70
     Davidson diagonalization with overlap

     ethr =  1.00E-02,  avg # of iterations =  2.0

     negative rho (up, down):  1.244E-01 0.000E+00

     total energy              =   -1241.94030147 Ry
     estimated scf accuracy    <       5.34019173 Ry

[...]

     total energy              =   -1245.74112930 Ry
     estimated scf accuracy    <       0.00000102 Ry

     iteration # 62     ecut=    30.00 Ry     beta= 0.70
     Davidson diagonalization with overlap

     ethr =  1.16E-09,  avg # of iterations =  1.0

[...]

     End of self-consistent calculation

          k = 0.0000 0.0000 0.0000 (  1319 PWs)   bands (ev):

   -64.6694 -41.2997 -38.3295 -30.5757 -28.8558 -28.8524 -28.8524 -16.5718
   -16.5701 -16.5701 -13.2021 -13.2020 -13.2020  -9.4976  -9.4973  -9.4973
    -7.7577  -7.0685  -7.0685  -6.2099  -6.2097  -6.2097   4.5723   4.5723
     4.6771   5.2414   5.2420   5.2420   7.0969   7.0977   7.0977   8.4078
     8.4078   8.4082   8.9715   8.9715   8.9717   9.6088   9.6088   9.6089
    10.8887  11.0323  11.0339  11.0339  11.0879  11.0892  11.0892  11.4379
    11.4390  11.4390  13.4044  13.9495  13.9495

     occupation numbers
     1.0000   1.0000   1.0000   1.0000   1.0000   1.0000   1.0000   1.0000
     1.0000   1.0000   1.0000   1.0000   1.0000   1.0000   1.0000   1.0000
     1.0000   1.0000   1.0000   1.0000   1.0000   1.0000   1.0000   1.0000
     1.0000   1.0000   1.0000   1.0000   1.0000   1.0000   1.0000   1.0000
     1.0000   1.0000   1.0000   1.0000   1.0000   1.0000   1.0000   1.0000
     1.0000   1.0054   1.0081   1.0081  -0.0088  -0.0064  -0.0064  -0.0000
    -0.0000  -0.0000  -0.0000  -0.0000  -0.0000

     the Fermi energy is    11.0611 ev

!    total energy              =   -1245.74112919 Ry
     estimated scf accuracy    <       0.00000010 Ry
     smearing contrib. (-TS)   =       0.00019723 Ry
     internal energy E=F+TS    =   -1245.74132642 Ry

     The total energy is F=E-TS. E is the sum of the following terms:
     one-electron contribution =    -250.23723943 Ry
     hartree contribution      =     176.65330793 Ry
     xc contribution           =    -138.67831875 Ry
     ewald contribution        =    -519.47386032 Ry
     one-center paw contrib.   =    -514.00521586 Ry
      -> PAW hartree energy AE =     338.12690950 Ry
      -> PAW hartree energy PS =    -330.09946562 Ry
      -> PAW xc energy AE      =    -587.07195764 Ry
      -> PAW xc energy PS      =      65.03929790 Ry
      -> total E_H with PAW    =     184.68075181 Ry
      -> total E_XC with PAW   =    -660.71097849 Ry

     convergence has been achieved in  62 iterations

     negative rho (up, down):  1.281E-01 0.000E+00

     Forces acting on atoms (cartesian axes, Ry/au):

     atom    1 type  1   force =     0.00000000    0.00000000    0.00000395
     atom    2 type  2   force =     0.00000000    0.00000000   -0.00009571
     atom    3 type  3   force =     0.00000000    0.00000000   -0.00007139
     atom    4 type  4   force =    -0.00000000   -0.00000000    0.00026457
     atom    5 type  5   force =     0.00000000    0.02626311    0.01844712
     atom    6 type  5   force =     0.00000000   -0.02619703   -0.01848092
     atom    7 type  5   force =    -0.02268729    0.01309851   -0.01848092
     atom    8 type  5   force =     0.02274452   -0.01313155    0.01844712
     atom    9 type  5   force =    -0.02274452   -0.01313155    0.01844712
     atom   10 type  5   force =     0.02268729    0.01309851   -0.01848092
     The non-local contrib.  to forces
     atom    1 type  1   force =     0.00000000    0.00000000    0.00010171
     atom    2 type  2   force =     0.00000000    0.00000000    0.00145525
     atom    3 type  3   force =     0.00000000    0.00000000   -0.00013836
     atom    4 type  4   force =     0.00000000    0.00000000   -0.00005148
     atom    5 type  5   force =     0.00000000    0.23592775    0.16652806
     atom    6 type  5   force =     0.00000000   -0.23576348   -0.16672010
     atom    7 type  5   force =    -0.20417716    0.11788174   -0.16672010
     atom    8 type  5   force =     0.20431943   -0.11796388    0.16652806
     atom    9 type  5   force =    -0.20431943   -0.11796388    0.16652806
     atom   10 type  5   force =     0.20417716    0.11788174   -0.16672010
     The ionic contribution  to forces
     atom    1 type  1   force =    -0.00000000    0.00000000   -0.00000000
     atom    2 type  2   force =    -0.00000000   -0.00000000    0.00000000
     atom    3 type  3   force =    -0.00000000    0.00000000    0.00000000
     atom    4 type  4   force =    -0.00000000   -0.00000000    0.00000000
     atom    5 type  5   force =     0.00000000   -2.55841841   -1.80907501
     atom    6 type  5   force =    -0.00000000    2.55841841    1.80907501
     atom    7 type  5   force =     2.21565533   -1.27920920    1.80907501
     atom    8 type  5   force =    -2.21565534    1.27920920   -1.80907501
     atom    9 type  5   force =     2.21565534    1.27920920   -1.80907501
     atom   10 type  5   force =    -2.21565533   -1.27920920    1.80907501
     The local contribution  to forces
     atom    1 type  1   force =    -0.00000011   -0.00000025   -0.00010632
     atom    2 type  2   force =     0.00000710   -0.00000026   -0.00148227
     atom    3 type  3   force =     0.00000162    0.00000043    0.00007410
     atom    4 type  4   force =    -0.00000092   -0.00000091    0.00030562
     atom    5 type  5   force =     0.00000019    2.35119824    1.66270124
     atom    6 type  5   force =    -0.00000018   -2.35129562   -1.66255999
     atom    7 type  5   force =    -2.03628277    1.17564729   -1.66256127
     atom    8 type  5   force =     2.03619849   -1.17559999    1.66270121
     atom    9 type  5   force =    -2.03619906   -1.17560010    1.66270152
     atom   10 type  5   force =     2.03628306    1.17564791   -1.66256201
     The core correction contribution to forces
     atom    1 type  1   force =     0.00000000    0.00000000    0.00000000
     atom    2 type  2   force =     0.00000000    0.00000000   -0.00000004
     atom    3 type  3   force =    -0.00000001    0.00000002    0.00001046
     atom    4 type  4   force =     0.00000001   -0.00000006   -0.00001937
     atom    5 type  5   force =    -0.00000000   -0.00247111   -0.00174375
     atom    6 type  5   force =    -0.00000000    0.00246905    0.00174625
     atom    7 type  5   force =     0.00213828   -0.00123453    0.00174625
     atom    8 type  5   force =    -0.00214006    0.00123555   -0.00174375
     atom    9 type  5   force =     0.00214007    0.00123557   -0.00174376
     atom   10 type  5   force =    -0.00213826   -0.00123453    0.00174623
     The Hubbard contrib.    to forces
     atom    1 type  1   force =     0.00000000    0.00000000    0.00000000
     atom    2 type  2   force =     0.00000000    0.00000000    0.00000000
     atom    3 type  3   force =     0.00000000    0.00000000    0.00000000
     atom    4 type  4   force =     0.00000000    0.00000000    0.00000000
     atom    5 type  5   force =     0.00000000    0.00000000    0.00000000
     atom    6 type  5   force =     0.00000000    0.00000000    0.00000000
     atom    7 type  5   force =     0.00000000    0.00000000    0.00000000
     atom    8 type  5   force =     0.00000000    0.00000000    0.00000000
     atom    9 type  5   force =     0.00000000    0.00000000    0.00000000
     atom   10 type  5   force =     0.00000000    0.00000000    0.00000000
     The SCF correction term to forces
     atom    1 type  1   force =     0.00000033    0.00000019    0.00000362
     atom    2 type  2   force =    -0.00000435    0.00000337   -0.00007360
     atom    3 type  3   force =    -0.00000153    0.00000019   -0.00002255
     atom    4 type  4   force =     0.00000135    0.00000020    0.00002484
     atom    5 type  5   force =    -0.00000042    0.00002765    0.00003165
     atom    6 type  5   force =    -0.00000004   -0.00002581   -0.00002672
     atom    7 type  5   force =    -0.00002088    0.00001317   -0.00002562
     atom    8 type  5   force =     0.00002137   -0.00001288    0.00003160
     atom    9 type  5   force =    -0.00002095   -0.00001180    0.00003134
     atom   10 type  5   force =     0.00002053    0.00001219   -0.00002548

     Total force =     0.078573     Total SCF correction =     0.000124

     Computing stress (Cartesian axis) and pressure

     negative rho (up, down):  1.281E-01 0.000E+00
          total   stress  (Ry/bohr**3)                   (kbar)     P=     -211.85
  -0.00144119  -0.00000000   0.00000000         -212.01       -0.00        0.00
   0.00000000  -0.00144119  -0.00000000            0.00     -212.01       -0.00
  -0.00000000  -0.00000000  -0.00143805           -0.00       -0.00     -211.54

     kinetic stress (kbar)  22785.80      0.00     -0.00
                                0.00  22785.80      0.00
                               -0.00      0.00  22784.19

     local   stress (kbar)   3453.62     -0.01      0.02
                               -0.01   3453.62     -0.01
                                0.02     -0.01   3456.51

     nonloc. stress (kbar)  -2039.39      0.00      0.00
                                0.00  -2039.39     -0.00
                                0.00     -0.00  -2039.28

     hartree stress (kbar)   9426.75      0.00     -0.01
                                0.00   9426.75      0.00
                               -0.01      0.00   9425.79

     exc-cor stress (kbar)   -519.52      0.00     -0.00
                                0.00   -519.52      0.00
                               -0.00      0.00   -519.56

     corecor stress (kbar)  -5599.53     -0.00      0.00
                               -0.00  -5599.53     -0.00
                                0.00     -0.00  -5599.47

     ewald   stress (kbar) -27719.73     -0.00     -0.00
                               -0.00 -27719.73     -0.00
                               -0.00     -0.00 -27719.73

     hubbard stress (kbar)      0.00      0.00      0.00
                                0.00      0.00      0.00
                                0.00      0.00      0.00

     DFT-D   stress (kbar)      0.00      0.00      0.00
                                0.00      0.00      0.00
                                0.00      0.00      0.00

     XDM     stress (kbar)      0.00      0.00      0.00
                                0.00      0.00      0.00
                                0.00      0.00      0.00

     dft-nl  stress (kbar)      0.00      0.00      0.00
                                0.00      0.00      0.00
                                0.00      0.00      0.00

     TS-vdW  stress (kbar)      0.00      0.00      0.00
                                0.00      0.00      0.00
                                0.00      0.00      0.00

[...]

                                0.00      0.00      0.00

     Writing all to output data dir new_calculations/myprefix.save/

     General routines

     Parallel routines

     PAW routines

   This run was terminated on:   6:55:15  21May2023

   JOB DONE.