     Program PWSCF v.7.0 starts on 21May2023 at  6: 4: 7

     Reading input from espresso_13978.pwi
Warning: card &CELL ignored
Warning: card / ignored

     Current dimensions of program PWSCF are:
     Max number of different atomic species (ntypx) = 10
     Max number of k-points (npk) =  40000
     Max angular momentum in pseudopotentials (lmaxx) =  4
     file O.pbe-n-kjpaw_psl.0.1.UPF: wavefunction(s)  2P renormalized

     gamma-point specific algorithms are used
     Message from routine setup:
     using ibrav=0 with symmetry is DISCOURAGED, use correct ibrav instead

     Subspace diagonalization in iterative solution of the eigenvalue problem:
     a serial algorithm will be used

     Using Slab Decomposition

     bravais-lattice index     =            0
     lattice parameter (alat)  =      16.4821  a.u.
     unit-cell volume          =    1265.8520 (a.u.)^3
     number of atoms/cell      =            7
     number of atomic types    =            3
     number of electrons       =        56.00
     number of Kohn-Sham states=           34
     kinetic-energy cutoff     =      30.0000  Ry
     charge density cutoff     =     240.0000  Ry
     scf convergence threshold =      1.0E-06
     mixing beta               =       0.7000
     number of iterations used =            8  plain     mixing
     Exchange-correlation= SLA  PW   PBX  PBC
                           (   1   4   3   4   0   0   0)

     celldm(1)=  16.482060  celldm(2)=   0.000000  celldm(3)=   0.000000
     celldm(4)=   0.000000  celldm(5)=   0.000000  celldm(6)=   0.000000

     crystal axes: (cart. coord. in units of alat)
               a(1) = (   1.000000   0.000000   0.000000 )
               a(2) = (   0.692692   0.721234   0.000000 )
               a(3) = (  -0.846346  -0.360617   0.391988 )

     reciprocal axes: (cart. coord. in units 2 pi/alat)
               b(1) = (  1.000000 -0.960426  1.275551 )
               b(2) = (  0.000000  1.386513  1.275551 )
               b(3) = (  0.000000  0.000000  2.551101 )

     PseudoPot. # 1 for Sr read from file:
     /home/pragov/projects/rrg-bengioy-ad/pragov/crystal_structure_design/SSSP/Sr_pbe_v1.uspp.F.UPF
     MD5 check sum: 6b418c05fbe9db5448babca5e47b7a5b
     Pseudo is Ultrasoft + core correction, Zval = 10.0
     Generated by new atomic code, or converted to UPF format
     Using radial grid of  883 points,  6 beta functions with:
                l(1) =   0
                l(2) =   0
                l(3) =   1
                l(4) =   1
                l(5) =   2
                l(6) =   2
     Q(r) pseudized with  6 coefficients,  rinner =    1.400   1.400   1.400
                                                       1.400   1.400

     PseudoPot. # 2 for P  read from file:
     /home/pragov/projects/rrg-bengioy-ad/pragov/crystal_structure_design/SSSP/P.pbe-n-rrkjus_psl.1.0.0.UPF
     MD5 check sum: 8b930f418f0a4573dca56cd030ffe088
     Pseudo is Ultrasoft + core correction, Zval =  5.0
     Generated using "atomic" code by A. Dal Corso  v.5.1
     Using radial grid of 1147 points,  6 beta functions with:
                l(1) =   0
                l(2) =   0
                l(3) =   1
                l(4) =   1
                l(5) =   2
                l(6) =   2
     Q(r) pseudized with 0 coefficients

     PseudoPot. # 3 for O  read from file:
     /home/pragov/projects/rrg-bengioy-ad/pragov/crystal_structure_design/SSSP/O.pbe-n-kjpaw_psl.0.1.UPF
     MD5 check sum: 0234752ac141de4415c5fc33072bef88
     Pseudo is Projector augmented-wave + core cor, Zval =  6.0
     Generated using "atomic" code by A. Dal Corso  v.5.0.99 svn rev. 10869
     Shape of augmentation charge: BESSEL
     Using radial grid of 1095 points,  4 beta functions with:
                l(1) =   0
                l(2) =   0
                l(3) =   1
                l(4) =   1
     Q(r) pseudized with 0 coefficients

     atomic species   valence    mass     pseudopotential
        Sr            10.00    87.62000     Sr( 1.00)
        P              5.00    30.97376     P ( 1.00)
        O              6.00    15.99900     O ( 1.00)

      4 Sym. Ops., with inversion, found

                                    s                        frac. trans.

      isym =  1     identity

 cryst.   s( 1) = (     1          0          0      )
                  (     0          1          0      )
                  (     0          0          1      )

 cart.    s( 1) = (  1.0000000  0.0000000 -0.0000000 )
                  (  0.0000000  1.0000000  0.0000000 )
                  (  0.0000000  0.0000000  1.0000000 )

      isym =  2     180 deg rotation - cart. axis [0,0,1]

[...]

      isym =  3     inversion

[...]

      isym =  4     inv. 180 deg rotation - cart. axis [0,0,1]

 cryst.   s( 4) = (     1          0          0      )
                  (     0          1          0      )
                  (    -1         -1         -1      )

 cart.    s( 4) = (  1.0000000  0.0000000  0.0000000 )
                  (  0.0000000  1.0000000  0.0000000 )
                  (  0.0000000  0.0000000 -1.0000000 )

   Cartesian axes

     site n.     atom                  positions (alat units)
         1           Sr  tau(   1) = (   1.1441393   0.4875030   0.0000000  )
         2           Sr  tau(   2) = (   0.5485522   0.2337310   0.0000000  )
         3           Sr  tau(   3) = (   0.0768271  -0.1803085   0.1959938  )
         4           Sr  tau(   4) = (  -0.0768271   0.1803085   0.1959938  )
         5           P   tau(   5) = (   1.4639124   0.6237542   0.0000000  )
         6           P   tau(   6) = (   0.2287791   0.0974798   0.0000000  )
         7           O   tau(   7) = (   0.8463458   0.3606170   0.0000000  )

   Crystallographic axes

     site n.     atom                  positions (cryst. coord.)
         1           Sr  tau(   1) = (  0.6759290  0.6759290  0.0000000  )
         2           Sr  tau(   2) = (  0.3240710  0.3240710  0.0000000  )
         3           Sr  tau(   3) = (  0.5000000  0.0000000  0.5000000  )
         4           Sr  tau(   4) = (  0.0000000  0.5000000  0.5000000  )
         5           P   tau(   5) = (  0.8648430  0.8648430  0.0000000  )
         6           P   tau(   6) = (  0.1351570  0.1351570  0.0000000  )
         7           O   tau(   7) = (  0.5000000  0.5000000  0.0000000  )

     number of k points=     1  Methfessel-Paxton smearing, width (Ry)=  0.0010
                       cart. coord. in units 2pi/alat
        k(    1) = (   0.0000000   0.0000000   0.0000000), wk =   2.0000000

                       cryst. coord.
        k(    1) = (   0.0000000   0.0000000   0.0000000), wk =   2.0000000

     Check: negative core charge=   -0.000005

     Initial potential from superposition of free atoms

     starting charge      55.8651, renormalised to      56.0000

     negative rho (up, down):  2.543E-01 0.000E+00
     Starting wfcs are   64 randomized atomic wfcs
     Checking if some PAW data can be deallocated...

     Self-consistent Calculation

     iteration #  1     ecut=    30.00 Ry     beta= 0.70
     Davidson diagonalization with overlap

     ethr =  1.00E-02,  avg # of iterations =  3.0

     negative rho (up, down):  2.551E-01 0.000E+00

     total energy              =    -350.49982037 Ry
     estimated scf accuracy    <       2.02288576 Ry

[...]

     total energy              =    -351.40747467 Ry
     estimated scf accuracy    <       0.00001336 Ry

     iteration # 13     ecut=    30.00 Ry     beta= 0.70
     Davidson diagonalization with overlap

     ethr =  2.38E-08,  avg # of iterations =  4.0

[...]

     End of self-consistent calculation

          k = 0.0000 0.0000 0.0000 (  1762 PWs)   bands (ev):

   -28.0198 -28.0052 -26.6859 -26.5048 -12.4295 -11.4127 -10.9242 -10.2039
   -10.1696 -10.0349  -9.8936  -9.2917  -9.1496  -9.0824  -8.9414  -8.7316
    -8.6981  -0.7595  -0.2263   5.2377   5.3278   6.4241   6.4742   6.6918
     6.8012   7.2128   7.4041   7.5891   8.6333   9.0205   9.5231   9.5663
     9.6199   9.6291

     occupation numbers
     1.0000   1.0000   1.0000   1.0000   1.0000   1.0000   1.0000   1.0000
     1.0000   1.0000   1.0000   1.0000   1.0000   1.0000   1.0000   1.0000
     1.0000   1.0000   1.0000   1.0000   1.0000   1.0000   1.0000   1.0000
     1.0000   1.0000   1.0000   1.0000  -0.0000  -0.0000  -0.0000  -0.0000
    -0.0000  -0.0000

     the Fermi energy is     7.9876 ev

!    total energy              =    -351.40747821 Ry
     estimated scf accuracy    <       0.00000071 Ry
     smearing contrib. (-TS)   =       0.00000000 Ry
     internal energy E=F+TS    =    -351.40747821 Ry

     The total energy is F=E-TS. E is the sum of the following terms:
     one-electron contribution =    -104.13151748 Ry
     hartree contribution      =      72.78398599 Ry
     xc contribution           =     -89.98384709 Ry
     ewald contribution        =    -220.57667041 Ry
     one-center paw contrib.   =      -9.49942922 Ry
      -> PAW hartree energy AE =      30.69805062 Ry
      -> PAW hartree energy PS =     -30.57653429 Ry
      -> PAW xc energy AE      =     -17.32449736 Ry
      -> PAW xc energy PS      =       7.70355181 Ry
      -> total E_H with PAW    =      72.90550231 Ry
      -> total E_XC with PAW   =     -99.60479263 Ry

     convergence has been achieved in  13 iterations

     negative rho (up, down):  2.607E-01 0.000E+00

     Forces acting on atoms (cartesian axes, Ry/au):

     atom    1 type  1   force =     0.00903637    0.00777999    0.00000000
     atom    2 type  1   force =    -0.00903637   -0.00777999   -0.00000000
     atom    3 type  1   force =     0.00000000    0.00000000    0.00000000
     atom    4 type  1   force =     0.00000000    0.00000000    0.00000000
     atom    5 type  2   force =     0.04674601    0.02681273    0.00000000
     atom    6 type  2   force =    -0.04674601   -0.02681273   -0.00000000
     atom    7 type  3   force =     0.00000000    0.00000000    0.00000000
     The non-local contrib.  to forces
     atom    1 type  1   force =    -0.10062288   -0.04153334   -0.00000000
     atom    2 type  1   force =     0.10062288    0.04153334    0.00000000
     atom    3 type  1   force =     0.00000000    0.00000000    0.00000000
     atom    4 type  1   force =     0.00000000    0.00000000   -0.00000000
     atom    5 type  2   force =    -0.12157923   -0.04193520   -0.00000000
     atom    6 type  2   force =     0.12157923    0.04193520    0.00000000
     atom    7 type  3   force =     0.00000000    0.00000000    0.00000000
     The ionic contribution  to forces
     atom    1 type  1   force =     6.29015865    2.68015529    0.00000000
     atom    2 type  1   force =    -6.29015865   -2.68015529   -0.00000000
     atom    3 type  1   force =     0.00000000   -0.00000000   -0.00000000
     atom    4 type  1   force =    -0.00000000    0.00000000    0.00000000
     atom    5 type  2   force =    -2.99418780   -1.27578472   -0.00000000
     atom    6 type  2   force =     2.99418780    1.27578472    0.00000000
     atom    7 type  3   force =    -0.00000000    0.00000000    0.00000000
     The local contribution  to forces
     atom    1 type  1   force =    -6.18640191   -2.63392119   -0.01039085
     atom    2 type  1   force =     6.18667641    2.63400141    0.01033745
     atom    3 type  1   force =    -0.00009102    0.00001060    0.00000045
     atom    4 type  1   force =    -0.00002505    0.00000243   -0.00007355
     atom    5 type  2   force =     3.15681118    1.34202446   -0.01373910
     atom    6 type  2   force =    -3.15721176   -1.34211706    0.01382366
     atom    7 type  3   force =    -0.00007996   -0.00004158    0.00005155
     The core correction contribution to forces
     atom    1 type  1   force =     0.00628044    0.00323871   -0.00042758
     atom    2 type  1   force =    -0.00628123   -0.00323895    0.00042756
     atom    3 type  1   force =    -0.00000081    0.00000082   -0.00000070
     atom    4 type  1   force =     0.00000106    0.00000234   -0.00000207
     atom    5 type  2   force =     0.00536370    0.00241146   -0.00012093
     atom    6 type  2   force =    -0.00537605   -0.00241518    0.00012309
     atom    7 type  3   force =    -0.00000135   -0.00000041    0.00000021
     The Hubbard contrib.    to forces
     atom    1 type  1   force =     0.00000000    0.00000000    0.00000000
     atom    2 type  1   force =     0.00000000    0.00000000    0.00000000
     atom    3 type  1   force =     0.00000000    0.00000000    0.00000000
     atom    4 type  1   force =     0.00000000    0.00000000    0.00000000
     atom    5 type  2   force =     0.00000000    0.00000000    0.00000000
     atom    6 type  2   force =     0.00000000    0.00000000    0.00000000
     atom    7 type  3   force =     0.00000000    0.00000000    0.00000000
     The SCF correction term to forces
     atom    1 type  1   force =    -0.00038367   -0.00016300    0.00003250
     atom    2 type  1   force =     0.00009850    0.00007599   -0.00000282
     atom    3 type  1   force =     0.00010349    0.00000246   -0.00000503
     atom    4 type  1   force =     0.00005284    0.00003570    0.00004796
     atom    5 type  2   force =     0.00021944    0.00006356   -0.00000949
     atom    6 type  2   force =    -0.00004394   -0.00003357   -0.00003294
     atom    7 type  3   force =     0.00001980    0.00001893   -0.00003623

     Total force =     0.078055     Total SCF correction =     0.000516

     Computing stress (Cartesian axis) and pressure

     negative rho (up, down):  2.607E-01 0.000E+00
          total   stress  (Ry/bohr**3)                   (kbar)     P=       17.00
  -0.00035013  -0.00063270  -0.00000000          -51.51      -93.07       -0.00
  -0.00063270  -0.00015437  -0.00000000          -93.07      -22.71       -0.00
  -0.00000000  -0.00000000   0.00085125           -0.00       -0.00      125.22

     kinetic stress (kbar)   8625.27   -114.61      0.00
                             -114.61   8771.16      0.00
                                0.00      0.00   8926.59

     local   stress (kbar)  -2646.49   2842.90     22.31
                             2842.90  -8140.35     32.00
                               22.31     32.00  -9323.21

     nonloc. stress (kbar)   6186.58     -4.93      0.00
                               -4.93   6148.56      0.00
                                0.00      0.00   6144.32

     hartree stress (kbar)    969.12  -1301.63     -3.31
                            -1301.63   3474.25    -11.74
                               -3.31    -11.74   4014.89

     exc-cor stress (kbar)   2465.51      1.36     -0.05
                                1.36   2463.28     -0.57
                               -0.05     -0.57   2462.05

     corecor stress (kbar)  -4944.64      3.90      1.93
                                3.90  -4952.54     -3.43
                                1.93     -3.43  -4960.03

     ewald   stress (kbar) -10706.85  -1520.05     -0.00
                            -1520.05  -7787.06     -0.00
                               -0.00     -0.00  -7139.38

     hubbard stress (kbar)      0.00      0.00      0.00
                                0.00      0.00      0.00
                                0.00      0.00      0.00

     DFT-D   stress (kbar)      0.00      0.00      0.00
                                0.00      0.00      0.00
                                0.00      0.00      0.00

     XDM     stress (kbar)      0.00      0.00      0.00
                                0.00      0.00      0.00
                                0.00      0.00      0.00

     dft-nl  stress (kbar)      0.00      0.00      0.00
                                0.00      0.00      0.00
                                0.00      0.00      0.00

     TS-vdW  stress (kbar)      0.00      0.00      0.00
                                0.00      0.00      0.00
                                0.00      0.00      0.00

[...]

                                0.00      0.00      0.00

     Writing all to output data dir new_calculations/myprefix.save/

     General routines

     Parallel routines

     PAW routines

   This run was terminated on:   6: 4:29  21May2023

   JOB DONE.