     Program PWSCF v.7.0 starts on 20May2023 at 20:12:41

     Reading input from espresso_14712.pwi
Warning: card &CELL ignored
Warning: card / ignored

     Current dimensions of program PWSCF are:
     Max number of different atomic species (ntypx) = 10
     Max number of k-points (npk) =  40000
     Max angular momentum in pseudopotentials (lmaxx) =  4
     file Fe.pbe-spn-kjpaw_psl.0.2.1.UPF: wavefunction(s)  3D renormalized

     gamma-point specific algorithms are used
     Message from routine setup:
     using ibrav=0 with symmetry is DISCOURAGED, use correct ibrav instead

     Subspace diagonalization in iterative solution of the eigenvalue problem:
     a serial algorithm will be used

     Using Slab Decomposition

     bravais-lattice index     =            0
     lattice parameter (alat)  =      12.0267  a.u.
     unit-cell volume          =    3157.5649 (a.u.)^3
     number of atoms/cell      =           16
     number of atomic types    =            3
     number of electrons       =       140.00
     number of Kohn-Sham states=           84
     kinetic-energy cutoff     =      30.0000  Ry
     charge density cutoff     =     240.0000  Ry
     scf convergence threshold =      1.0E-06
     mixing beta               =       0.7000
     number of iterations used =            8  plain     mixing
     Exchange-correlation=  SLA  PW   PBX  PBC
                           (   1   4   3   4   0   0   0)

     celldm(1)=  12.026693  celldm(2)=   0.000000  celldm(3)=   0.000000
     celldm(4)=   0.000000  celldm(5)=   0.000000  celldm(6)=   0.000000

     crystal axes: (cart. coord. in units of alat)
               a(1) = (   1.000000   0.000000   0.000000 )
               a(2) = (  -0.500000   0.866025   0.000000 )
               a(3) = (   0.000000   0.000000   2.095960 )

     reciprocal axes: (cart. coord. in units 2 pi/alat)
               b(1) = (  1.000000  0.577350  0.000000 )
               b(2) = (  0.000000  1.154701  0.000000 )
               b(3) = (  0.000000  0.000000  0.477108 )

     PseudoPot. # 1 for Zr read from file:
     /home/pragov/projects/rrg-bengioy-ad/pragov/crystal_structure_design/SSSP/Zr_pbe_v1.uspp.F.UPF
     MD5 check sum: 5db81b1e868ab7776c4564c113de050b
     Pseudo is Ultrasoft + core correction, Zval = 12.0
     Generated by new atomic code, or converted to UPF format
     Using radial grid of  887 points,  6 beta functions with:
                l(1) =   0
                l(2) =   0
                l(3) =   1
                l(4) =   1
                l(5) =   2
                l(6) =   2
     Q(r) pseudized with  6 coefficients,  rinner =    1.200   1.200   1.200
                                                       1.200   1.200

     PseudoPot. # 2 for Fe read from file:
     /home/pragov/projects/rrg-bengioy-ad/pragov/crystal_structure_design/SSSP/Fe.pbe-spn-kjpaw_psl.0.2.1.UPF
     MD5 check sum: e86618425769142926afa95317d90200
     Pseudo is Projector augmented-wave + core cor, Zval = 16.0
     Generated using "atomic" code by A. Dal Corso  v.5.0.99 svn rev. 10869
     Shape of augmentation charge: PSQ
     Using radial grid of 1191 points,  6 beta functions with:
                l(1) =   0
                l(2) =   0
                l(3) =   1
                l(4) =   1
                l(5) =   2
                l(6) =   2
     Q(r) pseudized with 0 coefficients

     PseudoPot. # 3 for Cl read from file:
     /home/pragov/projects/rrg-bengioy-ad/pragov/crystal_structure_design/SSSP/cl_pbe_v1.4.uspp.F.UPF
     MD5 check sum: fc6f6913ecf08c9257cb748ef0700058
     Pseudo is Ultrasoft + core correction, Zval =  7.0
     Generated by new atomic code, or converted to UPF format
     Using radial grid of  909 points,  6 beta functions with:
                l(1) =   0
                l(2) =   0
                l(3) =   1
                l(4) =   1
                l(5) =   2
                l(6) =   2
     Q(r) pseudized with  8 coefficients,  rinner =    1.300   1.300   1.300
                                                       1.300   1.300

     atomic species   valence    mass     pseudopotential
        Zr            12.00    91.22400     Zr( 1.00)
        Fe            16.00    55.84500     Fe( 1.00)
        Cl             7.00    35.45000     Cl( 1.00)

     12 Sym. Ops., with inversion, found ( 6 have fractional translation)

                                    s                        frac. trans.

      isym =  1     identity

 cryst.   s( 1) = (     1          0          0      )
                  (     0          1          0      )
                  (     0          0          1      )

 cart.    s( 1) = (  1.0000000 -0.0000000  0.0000000 )
                  (  0.0000000  1.0000000  0.0000000 )
                  (  0.0000000  0.0000000  1.0000000 )

      isym =  2     180 deg rotation - cart. axis [0,1,0]

 cryst.   s( 2) = (    -1          0          0      )    f =(  0.0000010 )
                  (     1          1          0      )       (  0.0000000 )
                  (     0          0         -1      )       (  0.5000000 )

 cart.    s( 2) = ( -1.0000000 -0.0000000  0.0000000 )    f =(  0.0000010 )
                  (  0.0000000  1.0000000  0.0000000 )       (  0.0000000 )
                  (  0.0000000  0.0000000 -1.0000000 )       (  1.0479799 )

      isym =  3     120 deg rotation - cryst. axis [0,0,1]

[...]

      isym =  6     180 deg rotation - cryst. axis [2,1,0]

[...]

      isym =  7     inversion

[...]

      isym =  8     inv. 180 deg rotation - cart. axis [0,1,0]

 cryst.   s( 8) = (     1          0          0      )    f =(  0.0000010 )
                  (    -1         -1          0      )       (  0.0000000 )
                  (     0          0          1      )       ( -0.5000000 )

 cart.    s( 8) = (  1.0000000  0.0000000  0.0000000 )    f =(  0.0000010 )
                  (  0.0000000 -1.0000000  0.0000000 )       (  0.0000000 )
                  (  0.0000000  0.0000000  1.0000000 )       ( -1.0479799 )

      isym =  9     inv. 120 deg rotation - cryst. axis [0,0,1]

 cryst.   s( 9) = (     0         -1          0      )
                  (     1          1          0      )
                  (     0          0         -1      )

 cart.    s( 9) = (  0.5000000  0.8660254  0.0000000 )
                  ( -0.8660254  0.5000000  0.0000000 )
                  (  0.0000000  0.0000000 -1.0000000 )

[...]

 cryst.   s(10) = (     1          1          0      )
                  (    -1          0          0      )
                  (     0          0         -1      )

 cart.    s(10) = (  0.5000000 -0.8660254  0.0000000 )
                  (  0.8660254  0.5000000  0.0000000 )
                  (  0.0000000  0.0000000 -1.0000000 )

[...]

 cryst.   s(11) = (     0          1          0      )    f =(  0.0000000 )
                  (     1          0          0      )       (  0.0000000 )
                  (     0          0          1      )       ( -0.5000000 )

 cart.    s(11) = ( -0.5000000  0.8660254  0.0000000 )    f =(  0.0000000 )
                  (  0.8660254  0.5000000  0.0000000 )       (  0.0000000 )
                  (  0.0000000  0.0000000  1.0000000 )       ( -1.0479799 )

      isym = 12     inv. 180 deg rotation - cryst. axis [2,1,0]

 cryst.   s(12) = (    -1         -1          0      )    f =(  0.0000000 )
                  (     0          1          0      )       ( -0.0000010 )
                  (     0          0          1      )       ( -0.5000000 )

 cart.    s(12) = ( -0.5000000 -0.8660254  0.0000000 )    f =(  0.0000005 )
                  ( -0.8660254  0.5000000  0.0000000 )       ( -0.0000009 )
                  (  0.0000000  0.0000000  1.0000000 )       ( -1.0479799 )

   Cartesian axes

     site n.     atom                  positions (alat units)
         1           Zr  tau(   1) = (  -0.0000005   0.5773506   0.5239899  )
         2           Zr  tau(   2) = (   0.5000005   0.2886748   1.5719698  )
         3           Fe  tau(   3) = (   0.0000000   0.0000000   0.5239899  )
         4           Fe  tau(   4) = (   0.0000000   0.0000000   1.5719698  )
         5           Cl  tau(   5) = (   0.1811080   0.8445722   0.3003888  )
         6           Cl  tau(   6) = (  -0.3219750   0.6005834   0.3003888  )
         7           Cl  tau(   7) = (   0.1408670   0.2868952   0.3003888  )
         8           Cl  tau(   8) = (  -0.1408670   0.2868952   0.7475911  )
         9           Cl  tau(   9) = (   0.1780250   0.2654420   1.3483686  )
        10           Cl  tau(  10) = (   0.6811080   0.0214532   1.3483686  )
        11           Cl  tau(  11) = (   0.6408670   0.5791302   1.3483686  )
        12           Cl  tau(  12) = (   0.3591330   0.5791302   1.7955710  )
        13           Cl  tau(  13) = (   0.8219750   0.2654420   1.7955710  )
        14           Cl  tau(  14) = (   0.3188920   0.0214532   1.7955710  )
        15           Cl  tau(  15) = (   0.3219750   0.6005834   0.7475911  )
        16           Cl  tau(  16) = (  -0.1811080   0.8445722   0.7475911  )

   Crystallographic axes

     site n.     atom                  positions (cryst. coord.)
         1           Zr  tau(   1) = (  0.3333330  0.6666670  0.2500000  )
         2           Zr  tau(   2) = (  0.6666670  0.3333330  0.7500000  )
         3           Fe  tau(   3) = (  0.0000000  0.0000000  0.2500000  )
         4           Fe  tau(   4) = (  0.0000000  0.0000000  0.7500000  )
         5           Cl  tau(   5) = (  0.6687220  0.9752280  0.1433180  )
         6           Cl  tau(   6) = (  0.0247720  0.6934940  0.1433180  )
         7           Cl  tau(   7) = (  0.3065060  0.3312780  0.1433180  )
         8           Cl  tau(   8) = (  0.0247720  0.3312780  0.3566820  )
         9           Cl  tau(   9) = (  0.3312780  0.3065060  0.6433180  )
        10           Cl  tau(  10) = (  0.6934940  0.0247720  0.6433180  )
        11           Cl  tau(  11) = (  0.9752280  0.6687220  0.6433180  )
        12           Cl  tau(  12) = (  0.6934940  0.6687220  0.8566820  )
        13           Cl  tau(  13) = (  0.9752280  0.3065060  0.8566820  )
        14           Cl  tau(  14) = (  0.3312780  0.0247720  0.8566820  )
        15           Cl  tau(  15) = (  0.6687220  0.6934940  0.3566820  )
        16           Cl  tau(  16) = (  0.3065060  0.9752280  0.3566820  )

     number of k points=     1  Methfessel-Paxton smearing, width (Ry)=  0.0010
                       cart. coord. in units 2pi/alat
        k(    1) = (   0.0000000   0.0000000   0.0000000), wk =   2.0000000

                       cryst. coord.
        k(    1) = (   0.0000000   0.0000000   0.0000000), wk =   2.0000000

     Check: negative core charge=   -0.000039

     Initial potential from superposition of free atoms

     starting charge     139.9947, renormalised to     140.0000

     negative rho (up, down):  2.973E-01 0.000E+00
     Starting wfcs are  100 randomized atomic wfcs
     Checking if some PAW data can be deallocated...

     Self-consistent Calculation

     iteration #  1     ecut=    30.00 Ry     beta= 0.70
     Davidson diagonalization with overlap

     ethr =  1.00E-02,  avg # of iterations =  3.0

     Threshold (ethr) on eigenvalues was too large:
     Diagonalizing with lowered threshold

     Davidson diagonalization with overlap

[...]

     negative rho (up, down):  3.067E-01 0.000E+00

     total energy              =   -1256.80078401 Ry
     estimated scf accuracy    <       1.12974232 Ry

[...]

     total energy              =   -1257.37302028 Ry
     estimated scf accuracy    <       0.00000149 Ry

     iteration # 13     ecut=    30.00 Ry     beta= 0.70
     Davidson diagonalization with overlap

     ethr =  1.06E-09,  avg # of iterations =  5.0

[...]

     End of self-consistent calculation

          k = 0.0000 0.0000 0.0000 (  4402 PWs)   bands (ev):

   -83.6106 -83.6081 -49.2699 -49.2698 -49.2695 -49.2694 -49.1333 -49.1088
   -47.4884 -47.4870 -25.5186 -25.5173 -25.4592 -25.4591 -25.4578 -25.4577
   -12.6733 -12.6405 -12.0663 -12.0618 -12.0618 -12.0589 -12.0588 -12.0254
   -11.8867 -11.8866 -11.8831 -11.8830  -2.2186  -2.1607  -1.9290  -1.6658
    -1.5887  -1.5887  -1.5738  -1.5737  -1.2238  -1.2237  -1.2001  -1.2001
    -1.0404  -1.0404  -0.9843  -0.9843  -0.9571  -0.9048  -0.4406  -0.4152
    -0.2521  -0.2521  -0.2283  -0.2283  -0.0226   0.2040   0.2789   0.5131
     0.5131   0.5408   0.5819   0.5819   0.6946   0.6946   0.7140   0.7140
     2.4340   2.4340   2.4508   2.4508   2.4983   2.5210   4.0515   4.0515
     4.1034   4.1034   4.3407   4.3989   4.7361   4.7362   4.7794   4.7795
     6.9453   6.9454   7.0046   7.0253

     occupation numbers
     1.0000   1.0000   1.0000   1.0000   1.0000   1.0000   1.0000   1.0000
     1.0000   1.0000   1.0000   1.0000   1.0000   1.0000   1.0000   1.0000
     1.0000   1.0000   1.0000   1.0000   1.0000   1.0000   1.0000   1.0000
     1.0000   1.0000   1.0000   1.0000   1.0000   1.0000   1.0000   1.0000
     1.0000   1.0000   1.0000   1.0000   1.0000   1.0000   1.0000   1.0000
     1.0000   1.0000   1.0000   1.0000   1.0000   1.0000   1.0000   1.0000
     1.0000   1.0000   1.0000   1.0000   1.0000   1.0000   1.0000   1.0000
     1.0000   1.0000   1.0000   1.0000   1.0000   1.0000   1.0000   1.0000
     1.0000   1.0000   1.0000   1.0000   1.0000   1.0000  -0.0000  -0.0000
    -0.0000  -0.0000  -0.0000  -0.0000  -0.0000  -0.0000  -0.0000  -0.0000
    -0.0000  -0.0000  -0.0000  -0.0000

     the Fermi energy is     2.9001 ev

!    total energy              =   -1257.37302107 Ry
     estimated scf accuracy    <       0.00000053 Ry
     smearing contrib. (-TS)   =       0.00000000 Ry
     internal energy E=F+TS    =   -1257.37302107 Ry

     The total energy is F=E-TS. E is the sum of the following terms:
     one-electron contribution =    -860.29212856 Ry
     hartree contribution      =     466.77265967 Ry
     xc contribution           =    -217.96308102 Ry
     ewald contribution        =    -493.75818839 Ry
     one-center paw contrib.   =    -152.13228276 Ry
      -> PAW hartree energy AE =     417.67367530 Ry
      -> PAW hartree energy PS =    -416.10525744 Ry
      -> PAW xc energy AE      =    -222.35596110 Ry
      -> PAW xc energy PS      =      68.65526048 Ry
      -> total E_H with PAW    =     468.34107753 Ry
      -> total E_XC with PAW   =    -371.66378164 Ry

     convergence has been achieved in  13 iterations

     negative rho (up, down):  3.075E-01 0.000E+00

     Forces acting on atoms (cartesian axes, Ry/au):

     atom    1 type  1   force =     0.00000000    0.00000000    0.00000000
     atom    2 type  1   force =     0.00000000    0.00000000    0.00000000
     atom    3 type  2   force =    -0.00000000   -0.00000000    0.00000000
     atom    4 type  2   force =     0.00000000    0.00000000    0.00000000
     atom    5 type  3   force =     0.00395051    0.00231459    0.00844190
     atom    6 type  3   force =    -0.00397975    0.00226395    0.00844190
     atom    7 type  3   force =     0.00002923   -0.00457854    0.00844190
     atom    8 type  3   force =    -0.00002923   -0.00457854   -0.00844190
     atom    9 type  3   force =    -0.00397975   -0.00226395    0.00844190
     atom   10 type  3   force =     0.00395051   -0.00231459    0.00844190
     atom   11 type  3   force =     0.00002923    0.00457854    0.00844190
     atom   12 type  3   force =    -0.00002923    0.00457854   -0.00844190
     atom   13 type  3   force =     0.00397975   -0.00226395   -0.00844190
     atom   14 type  3   force =    -0.00395051   -0.00231459   -0.00844190
     atom   15 type  3   force =     0.00397975    0.00226395   -0.00844190
     atom   16 type  3   force =    -0.00395051    0.00231459   -0.00844190
     The non-local contrib.  to forces
     atom    1 type  1   force =    -0.00000000   -0.00000000    0.00000000
     atom    2 type  1   force =     0.00000000    0.00000000    0.00000000
     atom    3 type  2   force =    -0.00000000    0.00000000    0.00000000
     atom    4 type  2   force =     0.00000000    0.00000000    0.00000000
     atom    5 type  3   force =     0.06332528   -0.08439538    0.13774769
     atom    6 type  3   force =     0.04142590    0.09703899    0.13774769
     atom    7 type  3   force =    -0.10475118   -0.01264361    0.13774769
     atom    8 type  3   force =     0.10475118   -0.01264361   -0.13774769
     atom    9 type  3   force =     0.04142590   -0.09703899    0.13774769
     atom   10 type  3   force =     0.06332528    0.08439538    0.13774769
     atom   11 type  3   force =    -0.10475118    0.01264361    0.13774769
     atom   12 type  3   force =     0.10475118    0.01264361   -0.13774769
     atom   13 type  3   force =    -0.04142590   -0.09703899   -0.13774769
     atom   14 type  3   force =    -0.06332528    0.08439538   -0.13774769
     atom   15 type  3   force =    -0.04142590    0.09703899   -0.13774769
     atom   16 type  3   force =    -0.06332528   -0.08439538   -0.13774769
     The ionic contribution  to forces
     atom    1 type  1   force =     0.00003457   -0.00001996    0.00000000
     atom    2 type  1   force =    -0.00003457    0.00001996    0.00000000
     atom    3 type  2   force =    -0.00001495    0.00000863   -0.00000000
     atom    4 type  2   force =     0.00001495   -0.00000863   -0.00000000
     atom    5 type  3   force =    -3.87286891    3.54842855  -11.11288584
     atom    6 type  3   force =    -1.13661047   -5.12822777  -11.11289944
     atom    7 type  3   force =     5.00947002    1.57980491  -11.11287581
     atom    8 type  3   force =    -5.00946375    1.57978851   11.11288584
     atom    9 type  3   force =    -1.13658390    5.12823073  -11.11287581
     atom   10 type  3   force =    -3.87287023   -3.54844748  -11.11289944
     atom   11 type  3   force =     5.00946375   -1.57978851  -11.11288584
     atom   12 type  3   force =    -5.00947002   -1.57980491   11.11287581
     atom   13 type  3   force =     1.13661047    5.12822777   11.11289944
     atom   14 type  3   force =     3.87286891   -3.54842855   11.11288584
     atom   15 type  3   force =     1.13658390   -5.12823073   11.11287581
     atom   16 type  3   force =     3.87287024    3.54844748   11.11289944
     The local contribution  to forces
     atom    1 type  1   force =    -0.00003362    0.00002403   -0.00081218
     atom    2 type  1   force =     0.00005866   -0.00002310    0.00082659
     atom    3 type  2   force =    -0.00002145    0.00000527   -0.00097660
     atom    4 type  2   force =     0.00002612    0.00000370    0.00100144
     atom    5 type  3   force =     3.81591928   -3.46279260   10.98554512
     atom    6 type  3   force =     1.09090132    5.03609261   10.98551846
     atom    7 type  3   force =    -4.90684405   -1.57333030   10.98548970
     atom    8 type  3   force =     4.90682359   -1.57324304  -10.98631141
     atom    9 type  3   force =     1.09125089   -5.03599000   10.98652822
     atom   10 type  3   force =     3.81565597    3.46310126   10.98653138
     atom   11 type  3   force =    -4.90690207    1.57285880   10.98656604
     atom   12 type  3   force =     4.90694287    1.57302657  -10.98573826
     atom   13 type  3   force =    -1.09127471   -5.03601379  -10.98578576
     atom   14 type  3   force =    -3.81564405    3.46303751  -10.98580615
     atom   15 type  3   force =    -1.09091299    5.03609329  -10.98625977
     atom   16 type  3   force =    -3.81588588   -3.46283091  -10.98628028
     The core correction contribution to forces
     atom    1 type  1   force =     0.00000034    0.00000005   -0.00000578
     atom    2 type  1   force =     0.00000023   -0.00000002    0.00000600
     atom    3 type  2   force =    -0.00000048    0.00000018   -0.00000429
     atom    4 type  2   force =     0.00000132   -0.00000007    0.00000403
     atom    5 type  3   force =    -0.00262702    0.00105826   -0.00253743
     atom    6 type  3   force =     0.00039652   -0.00280450   -0.00253864
     atom    7 type  3   force =     0.00222961    0.00174579   -0.00253810
     atom    8 type  3   force =    -0.00223047    0.00174644    0.00253544
     atom    9 type  3   force =     0.00039857    0.00280572   -0.00253539
     atom   10 type  3   force =    -0.00262938   -0.00105667   -0.00253633
     atom   11 type  3   force =     0.00223065   -0.00174968   -0.00253498
     atom   12 type  3   force =    -0.00222971   -0.00174716    0.00253831
     atom   13 type  3   force =    -0.00039909    0.00280487    0.00253735
     atom   14 type  3   force =     0.00262973   -0.00105695    0.00253621
     atom   15 type  3   force =    -0.00039735   -0.00280461    0.00253636
     atom   16 type  3   force =     0.00262809    0.00105814    0.00253680
     The Hubbard contrib.    to forces
     atom    1 type  1   force =     0.00000000    0.00000000    0.00000000
     atom    2 type  1   force =     0.00000000    0.00000000    0.00000000
     atom    3 type  2   force =     0.00000000    0.00000000    0.00000000
     atom    4 type  2   force =     0.00000000    0.00000000    0.00000000
     atom    5 type  3   force =     0.00000000    0.00000000    0.00000000
     atom    6 type  3   force =     0.00000000    0.00000000    0.00000000
     atom    7 type  3   force =     0.00000000    0.00000000    0.00000000
     atom    8 type  3   force =     0.00000000    0.00000000    0.00000000
     atom    9 type  3   force =     0.00000000    0.00000000    0.00000000
     atom   10 type  3   force =     0.00000000    0.00000000    0.00000000
     atom   11 type  3   force =     0.00000000    0.00000000    0.00000000
     atom   12 type  3   force =     0.00000000    0.00000000    0.00000000
     atom   13 type  3   force =     0.00000000    0.00000000    0.00000000
     atom   14 type  3   force =     0.00000000    0.00000000    0.00000000
     atom   15 type  3   force =     0.00000000    0.00000000    0.00000000
     atom   16 type  3   force =     0.00000000    0.00000000    0.00000000
     The SCF correction term to forces
     atom    1 type  1   force =     0.00000184   -0.00000511    0.00081450
     atom    2 type  1   force =    -0.00002105    0.00000508   -0.00082538
     atom    3 type  2   force =     0.00004710   -0.00002274    0.00118328
     atom    4 type  2   force =    -0.00008657    0.00000580   -0.00122427
     atom    5 type  3   force =     0.00023045    0.00003670    0.00055105
     atom    6 type  3   force =    -0.00013237    0.00017427    0.00058224
     atom    7 type  3   force =    -0.00007418   -0.00019135    0.00058582
     atom    8 type  3   force =     0.00008847   -0.00023630    0.00018093
     atom    9 type  3   force =    -0.00045045   -0.00025804   -0.00039817
     atom   10 type  3   force =     0.00044728   -0.00027360   -0.00038459
     atom   11 type  3   force =    -0.00001098    0.00055768   -0.00041628
     atom   12 type  3   force =    -0.00002035    0.00047398   -0.00035721
     atom   13 type  3   force =     0.00045376   -0.00024235   -0.00034226
     atom   14 type  3   force =    -0.00045584   -0.00026027   -0.00031894
     atom   15 type  3   force =     0.00014665    0.00017803    0.00015340
     atom   16 type  3   force =    -0.00023877    0.00003531    0.00014838

     Total force =     0.033268     Total SCF correction =     0.002843

     Computing stress (Cartesian axis) and pressure

     negative rho (up, down):  3.075E-01 0.000E+00
          total   stress  (Ry/bohr**3)                   (kbar)     P=      -58.05
  -0.00037075  -0.00000000   0.00000000          -54.54       -0.00        0.00
  -0.00000000  -0.00037075   0.00000000           -0.00      -54.54        0.00
   0.00000000   0.00000000  -0.00044233            0.00        0.00      -65.07

     kinetic stress (kbar)   8836.23      0.00     -0.00
                                0.00   8836.23      0.00
                                0.00     -0.00   8841.23

     local   stress (kbar) -16251.67      0.01      0.00
                                0.01 -16251.65      0.01
                                0.00      0.01   5814.72

     nonloc. stress (kbar)   3092.66      0.00      0.00
                                0.00   3092.66      0.00
                                0.00      0.00   3090.04

     hartree stress (kbar)  10564.67     -0.01     -0.00
                               -0.01  10564.67     -0.01
                               -0.00     -0.01    616.73

     exc-cor stress (kbar)    822.61      0.00     -0.00
                                0.00    822.61     -0.00
                               -0.00     -0.00    822.01

     corecor stress (kbar)  -3494.70     -0.00      0.00
                               -0.00  -3494.70      0.00
                                0.00      0.00  -3495.26

     ewald   stress (kbar)  -3624.36     -0.01     -0.00
                               -0.01  -3624.37     -0.00
                               -0.00     -0.00 -15754.54

     hubbard stress (kbar)      0.00      0.00      0.00
                                0.00      0.00      0.00
                                0.00      0.00      0.00

     DFT-D   stress (kbar)      0.00      0.00      0.00
                                0.00      0.00      0.00
                                0.00      0.00      0.00

     XDM     stress (kbar)      0.00      0.00      0.00
                                0.00      0.00      0.00
                                0.00      0.00      0.00

     dft-nl  stress (kbar)      0.00      0.00      0.00
                                0.00      0.00      0.00
                                0.00      0.00      0.00

     TS-vdW  stress (kbar)      0.00      0.00      0.00
                                0.00      0.00      0.00
                                0.00      0.00      0.00

[...]

                                0.00      0.00      0.00

     Writing all to output data dir new_calculations/myprefix.save/

     General routines

     Parallel routines

     PAW routines

   This run was terminated on:  20:13:24  20May2023

   JOB DONE.