     Program PWSCF v.7.0 starts on 21May2023 at  1:53:51

     Reading input from espresso_20352.pwi
Warning: card &CELL ignored
Warning: card / ignored

     Current dimensions of program PWSCF are:
     Max number of different atomic species (ntypx) = 10
     Max number of k-points (npk) =  40000
     Max angular momentum in pseudopotentials (lmaxx) =  4
     file O.pbe-n-kjpaw_psl.0.1.UPF: wavefunction(s)  2P renormalized

     gamma-point specific algorithms are used
     Message from routine setup:
     using ibrav=0 with symmetry is DISCOURAGED, use correct ibrav instead

     Subspace diagonalization in iterative solution of the eigenvalue problem:
     a serial algorithm will be used

     Using Slab Decomposition

     bravais-lattice index     =            0
     lattice parameter (alat)  =      10.9120  a.u.
     unit-cell volume          =     918.7611 (a.u.)^3
     number of atoms/cell      =           10
     number of atomic types    =            5
     number of electrons       =        82.00
     number of Kohn-Sham states=           49
     kinetic-energy cutoff     =      30.0000  Ry
     charge density cutoff     =     240.0000  Ry
     scf convergence threshold =      1.0E-06
     mixing beta               =       0.7000
     number of iterations used =            8  plain     mixing
     Exchange-correlation= SLA  PW   PBX  PBC
                           (   1   4   3   4   0   0   0)

     celldm(1)=  10.912038  celldm(2)=   0.000000  celldm(3)=   0.000000
     celldm(4)=   0.000000  celldm(5)=   0.000000  celldm(6)=   0.000000

     crystal axes: (cart. coord. in units of alat)
               a(1) = (   1.000000   0.000000   0.000000 )
               a(2) = (   0.500000   0.866025   0.000000 )
               a(3) = (   0.500000   0.288675   0.816497 )

     reciprocal axes: (cart. coord. in units 2 pi/alat)
               b(1) = (  1.000000 -0.577350 -0.408248 )
               b(2) = (  0.000000  1.154701 -0.408248 )
               b(3) = (  0.000000  0.000000  1.224745 )

     PseudoPot. # 1 for Na read from file:
     /home/pragov/projects/rrg-bengioy-ad/pragov/crystal_structure_design/SSSP/na_pbe_v1.5.uspp.F.UPF
     MD5 check sum: 44600605ef58000f06b90626533354dc
     Pseudo is Ultrasoft, Zval =  9.0
     Generated by new atomic code, or converted to UPF format
     Using radial grid of  819 points,  5 beta functions with:
                l(1) =   0
                l(2) =   0
                l(3) =   1
                l(4) =   1
                l(5) =   2
     Q(r) pseudized with  8 coefficients,  rinner =    1.250   1.250   1.250
                                                       1.250   1.250

     PseudoPot. # 2 for Sr read from file:
     /home/pragov/projects/rrg-bengioy-ad/pragov/crystal_structure_design/SSSP/Sr_pbe_v1.uspp.F.UPF
     MD5 check sum: 6b418c05fbe9db5448babca5e47b7a5b
     Pseudo is Ultrasoft + core correction, Zval = 10.0
     Generated by new atomic code, or converted to UPF format
     Using radial grid of  883 points,  6 beta functions with:
                l(1) =   0
                l(2) =   0
                l(3) =   1
                l(4) =   1
                l(5) =   2
                l(6) =   2
     Q(r) pseudized with  6 coefficients,  rinner =    1.400   1.400   1.400
                                                       1.400   1.400

     PseudoPot. # 3 for Zr read from file:
     /home/pragov/projects/rrg-bengioy-ad/pragov/crystal_structure_design/SSSP/Zr_pbe_v1.uspp.F.UPF
     MD5 check sum: 5db81b1e868ab7776c4564c113de050b
     Pseudo is Ultrasoft + core correction, Zval = 12.0
     Generated by new atomic code, or converted to UPF format
     Using radial grid of  887 points,  6 beta functions with:
                l(1) =   0
                l(2) =   0
                l(3) =   1
                l(4) =   1
                l(5) =   2
                l(6) =   2
     Q(r) pseudized with  6 coefficients,  rinner =    1.200   1.200   1.200
                                                       1.200   1.200

     PseudoPot. # 4 for Sb read from file:
     /home/pragov/projects/rrg-bengioy-ad/pragov/crystal_structure_design/SSSP/sb_pbe_v1.4.uspp.F.UPF
     MD5 check sum: 9bc50dfb53373b713f5709b9110fe27f
     Pseudo is Ultrasoft + core correction, Zval = 15.0
     Generated by new atomic code, or converted to UPF format
     Using radial grid of  891 points,  6 beta functions with:
                l(1) =   0
                l(2) =   0
                l(3) =   1
                l(4) =   1
                l(5) =   2
                l(6) =   2
     Q(r) pseudized with  8 coefficients,  rinner =    1.350   1.350   1.350
                                                       1.350   1.350

     PseudoPot. # 5 for O  read from file:
     /home/pragov/projects/rrg-bengioy-ad/pragov/crystal_structure_design/SSSP/O.pbe-n-kjpaw_psl.0.1.UPF
     MD5 check sum: 0234752ac141de4415c5fc33072bef88
     Pseudo is Projector augmented-wave + core cor, Zval =  6.0
     Generated using "atomic" code by A. Dal Corso  v.5.0.99 svn rev. 10869
     Shape of augmentation charge: BESSEL
     Using radial grid of 1095 points,  4 beta functions with:
                l(1) =   0
                l(2) =   0
                l(3) =   1
                l(4) =   1
     Q(r) pseudized with 0 coefficients

     atomic species   valence    mass     pseudopotential
        Na             9.00    22.98977     Na( 1.00)
        Sr            10.00    87.62000     Sr( 1.00)
        Zr            12.00    91.22400     Zr( 1.00)
        Sb            15.00   121.76000     Sb( 1.00)
        O              6.00    15.99900     O ( 1.00)

      6 Sym. Ops. (no inversion) found

                                    s                        frac. trans.

      isym =  1     identity

 cryst.   s( 1) = (     1          0          0      )
                  (     0          1          0      )
                  (     0          0          1      )

 cart.    s( 1) = (  1.0000000  0.0000000  0.0000000 )
                  (  0.0000000  1.0000000  0.0000000 )
                  (  0.0000000  0.0000000  1.0000000 )

      isym =  2     120 deg rotation - cryst. axis [0,0,1]

[...]

      isym =  3     120 deg rotation - cryst. axis [0,0,-1]

[...]

      isym =  4     inv. 180 deg rotation - cart. axis [1,0,0]

[...]

      isym =  5     inv. 180 deg rotation - cryst. axis [0,1,0]

[...]

      isym =  6     inv. 180 deg rotation - cryst. axis [1,1,0]

 cryst.   s( 6) = (     1         -1          0      )
                  (     0         -1          0      )
                  (     0         -1          1      )

 cart.    s( 6) = (  0.5000000 -0.8660254  0.0000000 )
                  ( -0.8660254 -0.5000000 -0.0000000 )
                  (  0.0000000  0.0000000  1.0000000 )

   Cartesian axes

     site n.     atom                  positions (alat units)
         1           Na  tau(   1) = (   1.5000000   0.8660254   0.6123724  )
         2           Sr  tau(   2) = (   0.5000000   0.2886751   0.2041241  )
         3           Zr  tau(   3) = (   1.0000000   0.5773503   0.4082483  )
         4           Sb  tau(   4) = (   0.0000000   0.0000000   0.0000000  )
         5           O   tau(   5) = (   1.0000000   0.2816236   0.1991380  )
         6           O   tau(   6) = (   1.0000000   0.8730769   0.6173586  )
         7           O   tau(   7) = (   1.2561068   0.4294869   0.6173586  )
         8           O   tau(   8) = (   0.7438932   0.7252136   0.1991380  )
         9           O   tau(   9) = (   1.2561068   0.7252136   0.1991380  )
        10           O   tau(  10) = (   0.7438932   0.4294869   0.6173586  )

   Crystallographic axes

     site n.     atom                  positions (cryst. coord.)
         1           Na  tau(   1) = (  0.7500000  0.7500000  0.7500000  )
         2           Sr  tau(   2) = (  0.2500000  0.2500000  0.2500000  )
         3           Zr  tau(   3) = (  0.5000000  0.5000000  0.5000000  )
         4           Sb  tau(   4) = (  0.0000000  0.0000000  0.0000000  )
         5           O   tau(   5) = (  0.7561068  0.2438932  0.2438932  )
         6           O   tau(   6) = (  0.2438932  0.7561068  0.7561068  )
         7           O   tau(   7) = (  0.7561068  0.2438932  0.7561068  )
         8           O   tau(   8) = (  0.2438932  0.7561068  0.2438932  )
         9           O   tau(   9) = (  0.7561068  0.7561068  0.2438932  )
        10           O   tau(  10) = (  0.2438932  0.2438932  0.7561068  )

     number of k points=     1  Methfessel-Paxton smearing, width (Ry)=  0.0010
                       cart. coord. in units 2pi/alat
        k(    1) = (   0.0000000   0.0000000   0.0000000), wk =   2.0000000

                       cryst. coord.
        k(    1) = (   0.0000000   0.0000000   0.0000000), wk =   2.0000000

     Check: negative core charge=   -0.000013

     Initial potential from superposition of free atoms

     starting charge      80.9579, renormalised to      82.0000

     negative rho (up, down):  1.252E-01 0.000E+00
     Starting wfcs are   64 randomized atomic wfcs
     Checking if some PAW data can be deallocated...

     Self-consistent Calculation

     iteration #  1     ecut=    30.00 Ry     beta= 0.70
     Davidson diagonalization with overlap

     ethr =  1.00E-02,  avg # of iterations =  2.0

     negative rho (up, down):  1.275E-01 0.000E+00

     total energy              =    -698.41520735 Ry
     estimated scf accuracy    <       2.91894575 Ry

[...]

     total energy              =    -699.76053551 Ry
     estimated scf accuracy    <       0.00000603 Ry

     iteration #  9     ecut=    30.00 Ry     beta= 0.70
     Davidson diagonalization with overlap

     ethr =  7.36E-09,  avg # of iterations =  3.0

[...]

     End of self-consistent calculation

          k = 0.0000 0.0000 0.0000 (  1319 PWs)   bands (ev):

   -42.2233 -39.3647 -25.9705 -20.2992 -20.2992 -20.1159 -20.1158 -20.1158
   -17.5981 -17.5981 -17.5981 -14.1268 -14.1268 -14.1267  -9.6680  -8.0074
    -8.0074  -8.0074  -7.8221  -7.8220  -7.8219  -7.5115  -7.5113   0.2251
     4.3865   4.3865   4.3866   5.1535   5.1536   5.1536   5.5164   5.5165
     7.5425   7.5426   7.5427   7.6572   7.6572   7.6572   8.6686   8.6687
     8.6688  11.8787  12.6309  12.6310  12.6310  13.9764  14.1305  14.1305
    14.6758

     occupation numbers
     1.0000   1.0000   1.0000   1.0000   1.0000   1.0000   1.0000   1.0000
     1.0000   1.0000   1.0000   1.0000   1.0000   1.0000   1.0000   1.0000
     1.0000   1.0000   1.0000   1.0000   1.0000   1.0000   1.0000   1.0000
     1.0000   1.0000   1.0000   1.0000   1.0000   1.0000   1.0000   1.0000
     1.0000   1.0000   1.0000   1.0000   1.0000   1.0000   1.0000   1.0000
     1.0000  -0.0000  -0.0000  -0.0000  -0.0000  -0.0000  -0.0000  -0.0000
    -0.0000

     the Fermi energy is    11.2386 ev

!    total energy              =    -699.76053654 Ry
     estimated scf accuracy    <       0.00000016 Ry
     smearing contrib. (-TS)   =       0.00000000 Ry
     internal energy E=F+TS    =    -699.76053654 Ry

     The total energy is F=E-TS. E is the sum of the following terms:
     one-electron contribution =    -242.02317445 Ry
     hartree contribution      =     168.49089246 Ry
     xc contribution           =    -140.11573162 Ry
     ewald contribution        =    -429.05733887 Ry
     one-center paw contrib.   =     -57.05518406 Ry
      -> PAW hartree energy AE =     182.06322293 Ry
      -> PAW hartree energy PS =    -181.35896047 Ry
      -> PAW xc energy AE      =    -103.68177278 Ry
      -> PAW xc energy PS      =      45.92232627 Ry
      -> total E_H with PAW    =     169.19515492 Ry
      -> total E_XC with PAW   =    -197.87517814 Ry

     convergence has been achieved in   9 iterations

     negative rho (up, down):  1.322E-01 0.000E+00

     Forces acting on atoms (cartesian axes, Ry/au):

     atom    1 type  1   force =     0.00000000    0.00000000   -0.00000867
     atom    2 type  2   force =     0.00000000    0.00000000    0.00000453
     atom    3 type  3   force =     0.00000000    0.00000000   -0.00002066
     atom    4 type  4   force =    -0.00000000   -0.00000000    0.00005290
     atom    5 type  5   force =     0.00000000    0.02035904    0.01439473
     atom    6 type  5   force =     0.00000000   -0.02037119   -0.01440410
     atom    7 type  5   force =    -0.01764197    0.01018560   -0.01440410
     atom    8 type  5   force =     0.01763145   -0.01017952    0.01439473
     atom    9 type  5   force =    -0.01763145   -0.01017952    0.01439473
     atom   10 type  5   force =     0.01764197    0.01018560   -0.01440410
     The non-local contrib.  to forces
     atom    1 type  1   force =     0.00000000    0.00000000   -0.00002703
     atom    2 type  2   force =     0.00000000    0.00000000   -0.00000185
     atom    3 type  3   force =     0.00000000    0.00000000    0.00000073
     atom    4 type  4   force =     0.00000000    0.00000000    0.00002953
     atom    5 type  5   force =     0.00000000   -0.47202058   -0.33376740
     atom    6 type  5   force =     0.00000000    0.47201393    0.33375980
     atom    7 type  5   force =     0.40877606   -0.23600697    0.33375980
     atom    8 type  5   force =    -0.40878181    0.23601029   -0.33376740
     atom    9 type  5   force =     0.40878181    0.23601029   -0.33376740
     atom   10 type  5   force =    -0.40877606   -0.23600697    0.33375980
     The ionic contribution  to forces
     atom    1 type  1   force =     0.00000000   -0.00000000   -0.00000000
     atom    2 type  2   force =     0.00000000    0.00000000    0.00000000
     atom    3 type  3   force =     0.00000000   -0.00000000    0.00000000
     atom    4 type  4   force =    -0.00000000    0.00000000   -0.00000000
     atom    5 type  5   force =     0.00000000    2.98528514    2.11091536
     atom    6 type  5   force =    -0.00000000   -2.98528514   -2.11091536
     atom    7 type  5   force =    -2.58533277    1.49264257   -2.11091536
     atom    8 type  5   force =     2.58533276   -1.49264257    2.11091536
     atom    9 type  5   force =    -2.58533276   -1.49264257    2.11091536
     atom   10 type  5   force =     2.58533277    1.49264257   -2.11091536
     The local contribution  to forces
     atom    1 type  1   force =     0.00000487    0.00001936   -0.00000154
     atom    2 type  2   force =     0.00001700   -0.00003173    0.00004136
     atom    3 type  3   force =    -0.00015670    0.00001304   -0.00005202
     atom    4 type  4   force =     0.00002731   -0.00000079   -0.00005543
     atom    5 type  5   force =    -0.00001030   -2.49894530   -1.76701619
     atom    6 type  5   force =    -0.00000882    2.49898159    1.76702895
     atom    7 type  5   force =     2.16416457   -1.24950485    1.76702411
     atom    8 type  5   force =    -2.16410304    1.24945128   -1.76699275
     atom    9 type  5   force =     2.16413486    1.24947841   -1.76702726
     atom   10 type  5   force =    -2.16416157   -1.24948244    1.76700810
     The core correction contribution to forces
     atom    1 type  1   force =     0.00000000    0.00000000    0.00000000
     atom    2 type  2   force =    -0.00000116   -0.00000187    0.00000101
     atom    3 type  3   force =    -0.00000234    0.00000002   -0.00000116
     atom    4 type  4   force =    -0.00000220    0.00000060   -0.00000064
     atom    5 type  5   force =    -0.00000012    0.00565008    0.00399527
     atom    6 type  5   force =    -0.00000018   -0.00564977   -0.00399492
     atom    7 type  5   force =    -0.00489275    0.00282468   -0.00399490
     atom    8 type  5   force =     0.00489300   -0.00282503    0.00399504
     atom    9 type  5   force =    -0.00489272   -0.00282483    0.00399489
     atom   10 type  5   force =     0.00489265    0.00282466   -0.00399482
     The Hubbard contrib.    to forces
     atom    1 type  1   force =     0.00000000    0.00000000    0.00000000
     atom    2 type  2   force =     0.00000000    0.00000000    0.00000000
     atom    3 type  3   force =     0.00000000    0.00000000    0.00000000
     atom    4 type  4   force =     0.00000000    0.00000000    0.00000000
     atom    5 type  5   force =     0.00000000    0.00000000    0.00000000
     atom    6 type  5   force =     0.00000000    0.00000000    0.00000000
     atom    7 type  5   force =     0.00000000    0.00000000    0.00000000
     atom    8 type  5   force =     0.00000000    0.00000000    0.00000000
     atom    9 type  5   force =     0.00000000    0.00000000    0.00000000
     atom   10 type  5   force =     0.00000000    0.00000000    0.00000000
     The SCF correction term to forces
     atom    1 type  1   force =    -0.00000509   -0.00000037    0.00002422
     atom    2 type  2   force =    -0.00001316    0.00003133   -0.00003166
     atom    3 type  3   force =     0.00013752   -0.00001513    0.00003612
     atom    4 type  4   force =    -0.00006418    0.00003238    0.00008377
     atom    5 type  5   force =     0.00001472    0.00039914    0.00028484
     atom    6 type  5   force =    -0.00000568   -0.00044754   -0.00028264
     atom    7 type  5   force =    -0.00036704    0.00023225   -0.00028789
     atom    8 type  5   force =     0.00029268   -0.00017620    0.00024323
     atom    9 type  5   force =    -0.00030759   -0.00020160    0.00027622
     atom   10 type  5   force =     0.00033152    0.00019620   -0.00023864

     Total force =     0.061094     Total SCF correction =     0.001192

     Computing stress (Cartesian axis) and pressure

     negative rho (up, down):  1.322E-01 0.000E+00
          total   stress  (Ry/bohr**3)                   (kbar)     P=     -251.90
  -0.00171233  -0.00000000   0.00000000         -251.89       -0.00        0.00
  -0.00000000  -0.00171233   0.00000000           -0.00     -251.89        0.00
  -0.00000000   0.00000000  -0.00171242           -0.00        0.00     -251.91

     kinetic stress (kbar)  21957.29     -0.00      0.00
                                0.00  21957.29      0.00
                                0.00      0.00  21957.28

     local   stress (kbar)  -2129.86     -0.00      0.00
                               -0.00  -2129.75      0.08
                                0.00      0.08  -2129.80

     nonloc. stress (kbar)   -351.84      0.00      0.00
                                0.00   -351.84      0.00
                                0.00      0.00   -351.85

     hartree stress (kbar)   8992.55     -0.00     -0.00
                               -0.00   8992.44     -0.07
                               -0.00     -0.07   8992.50

     exc-cor stress (kbar)    878.15     -0.00      0.00
                               -0.00    878.16      0.00
                                0.00      0.00    878.16

     corecor stress (kbar)  -6699.05     -0.00     -0.00
                               -0.00  -6699.05     -0.00
                               -0.00     -0.00  -6699.05

     ewald   stress (kbar) -22899.14      0.00     -0.00
                                0.00 -22899.14      0.00
                               -0.00      0.00 -22899.14

     hubbard stress (kbar)      0.00      0.00      0.00
                                0.00      0.00      0.00
                                0.00      0.00      0.00

     DFT-D   stress (kbar)      0.00      0.00      0.00
                                0.00      0.00      0.00
                                0.00      0.00      0.00

     XDM     stress (kbar)      0.00      0.00      0.00
                                0.00      0.00      0.00
                                0.00      0.00      0.00

     dft-nl  stress (kbar)      0.00      0.00      0.00
                                0.00      0.00      0.00
                                0.00      0.00      0.00

     TS-vdW  stress (kbar)      0.00      0.00      0.00
                                0.00      0.00      0.00
                                0.00      0.00      0.00

[...]

                                0.00      0.00      0.00

     Writing all to output data dir new_calculations/myprefix.save/

     General routines

     Parallel routines

     PAW routines

   This run was terminated on:   1:54: 7  21May2023

   JOB DONE.