     Program PWSCF v.7.0 starts on 20May2023 at  8:58:44

     Reading input from espresso_7204.pwi
Warning: card &CELL ignored
Warning: card / ignored

     Current dimensions of program PWSCF are:
     Max number of different atomic species (ntypx) = 10
     Max number of k-points (npk) =  40000
     Max angular momentum in pseudopotentials (lmaxx) =  4

     gamma-point specific algorithms are used
     Message from routine setup:
     using ibrav=0 with symmetry is DISCOURAGED, use correct ibrav instead

     Subspace diagonalization in iterative solution of the eigenvalue problem:
     a serial algorithm will be used

     Using Slab Decomposition

     bravais-lattice index     =            0
     lattice parameter (alat)  =      13.9067  a.u.
     unit-cell volume          =    1666.3095 (a.u.)^3
     number of atoms/cell      =           18
     number of atomic types    =            3
     number of electrons       =       188.00
     number of Kohn-Sham states=          113
     kinetic-energy cutoff     =      30.0000  Ry
     charge density cutoff     =     240.0000  Ry
     scf convergence threshold =      1.0E-06
     mixing beta               =       0.7000
     number of iterations used =            8  plain     mixing
     Exchange-correlation=  SLA  PW   PBX  PBC
                           (   1   4   3   4   0   0   0)

     celldm(1)=  13.906733  celldm(2)=   0.000000  celldm(3)=   0.000000
     celldm(4)=   0.000000  celldm(5)=   0.000000  celldm(6)=   0.000000

     crystal axes: (cart. coord. in units of alat)
               a(1) = (   1.000000   0.000000   0.000000 )
               a(2) = (  -0.750907   0.660408   0.000000 )
               a(3) = (   0.000000   0.000000   0.938141 )

     reciprocal axes: (cart. coord. in units 2 pi/alat)
               b(1) = (  1.000000  1.137036  0.000000 )
               b(2) = (  0.000000  1.514216  0.000000 )
               b(3) = (  0.000000  0.000000  1.065938 )

     PseudoPot. # 1 for Zr read from file:
     /home/pragov/projects/rrg-bengioy-ad/pragov/crystal_structure_design/SSSP/Zr_pbe_v1.uspp.F.UPF
     MD5 check sum: 5db81b1e868ab7776c4564c113de050b
     Pseudo is Ultrasoft + core correction, Zval = 12.0
     Generated by new atomic code, or converted to UPF format
     Using radial grid of  887 points,  6 beta functions with:
                l(1) =   0
                l(2) =   0
                l(3) =   1
                l(4) =   1
                l(5) =   2
                l(6) =   2
     Q(r) pseudized with  6 coefficients,  rinner =    1.200   1.200   1.200
                                                       1.200   1.200

     PseudoPot. # 2 for Si read from file:
     /home/pragov/projects/rrg-bengioy-ad/pragov/crystal_structure_design/SSSP/Si.pbe-n-rrkjus_psl.1.0.0.UPF
     MD5 check sum: 0b0bb1205258b0d07b9f9672cf965d36
     Pseudo is Ultrasoft + core correction, Zval =  4.0
     Generated using "atomic" code by A. Dal Corso  v.5.1
     Using radial grid of 1141 points,  6 beta functions with:
                l(1) =   0
                l(2) =   0
                l(3) =   1
                l(4) =   1
                l(5) =   2
                l(6) =   2
     Q(r) pseudized with 0 coefficients

     PseudoPot. # 3 for Ni read from file:
     /home/pragov/projects/rrg-bengioy-ad/pragov/crystal_structure_design/SSSP/ni_pbe_v1.4.uspp.F.UPF
     MD5 check sum: 1ee80287db30b12d2bc1f57a5b5d6409
     Pseudo is Ultrasoft + core correction, Zval = 18.0
     Generated by new atomic code, or converted to UPF format
     Using radial grid of  865 points,  6 beta functions with:
                l(1) =   0
                l(2) =   0
                l(3) =   1
                l(4) =   1
                l(5) =   2
                l(6) =   2
     Q(r) pseudized with 10 coefficients,  rinner =    0.980   0.980   0.980
                                                       0.980   0.980

     atomic species   valence    mass     pseudopotential
        Zr            12.00    91.22400     Zr( 1.00)
        Si             4.00    28.08500     Si( 1.00)
        Ni            18.00    58.69340     Ni( 1.00)

      4 Sym. Ops., with inversion, found ( 2 have fractional translation)

                                    s                        frac. trans.

      isym =  1     identity

 cryst.   s( 1) = (     1          0          0      )
                  (     0          1          0      )
                  (     0          0          1      )

 cart.    s( 1) = (  1.0000000  0.0000000  0.0000000 )
                  (  0.0000000  1.0000000  0.0000000 )
                  (  0.0000000  0.0000000  1.0000000 )

      isym =  2     180 deg rotation - cart. axis [0,0,1]

 cryst.   s( 2) = (    -1          0          0      )    f =( -0.5000000 )
                  (     0         -1          0      )       (  0.5000000 )
                  (     0          0          1      )       (  0.5000000 )

 cart.    s( 2) = ( -1.0000000 -0.0000000  0.0000000 )    f =( -0.8754536 )
                  (  0.0000000 -1.0000000  0.0000000 )       (  0.3302039 )
                  (  0.0000000  0.0000000  1.0000000 )       (  0.4690706 )

      isym =  3     inversion

 cryst.   s( 3) = (    -1          0          0      )
                  (     0         -1          0      )
                  (     0          0         -1      )

 cart.    s( 3) = ( -1.0000000 -0.0000000  0.0000000 )
                  (  0.0000000 -1.0000000  0.0000000 )
                  (  0.0000000  0.0000000 -1.0000000 )

      isym =  4     inv. 180 deg rotation - cart. axis [0,0,1]

 cryst.   s( 4) = (     1          0          0      )    f =(  0.5000000 )
                  (     0          1          0      )       (  0.5000000 )
                  (     0          0         -1      )       (  0.5000000 )

 cart.    s( 4) = (  1.0000000  0.0000000  0.0000000 )    f =(  0.1245464 )
                  (  0.0000000  1.0000000  0.0000000 )       (  0.3302039 )
                  (  0.0000000  0.0000000 -1.0000000 )       (  0.4690706 )

   Cartesian axes

     site n.     atom                  positions (alat units)
         1           Zr  tau(   1) = (  -0.5680477   0.5914368   0.5613809  )
         2           Zr  tau(   2) = (   0.8171405   0.0689710   0.3767603  )
         3           Zr  tau(   3) = (  -0.0583131   0.3991749   0.0923103  )
         4           Zr  tau(   4) = (   0.3074059   0.2612329   0.8458309  )
         5           Si  tau(   5) = (   0.2945407   0.4546756   0.2345353  )
         6           Si  tau(   6) = (   0.0790986   0.5359361   0.7036059  )
         7           Si  tau(   7) = (  -0.0454479   0.2057322   0.7036059  )
         8           Si  tau(   8) = (   0.1699943   0.1244717   0.2345353  )
         9           Si  tau(   9) = (  -0.4314279   0.5399065   0.9164438  )
        10           Si  tau(  10) = (   0.6805207   0.1205013   0.0216973  )
        11           Si  tau(  11) = (  -0.1949329   0.4507052   0.4473733  )
        12           Si  tau(  12) = (   0.4440257   0.2097026   0.4907679  )
        13           Ni  tau(  13) = (   0.0000000   0.0000000   0.0000000  )
        14           Ni  tau(  14) = (   0.1245464   0.3302039   0.4690706  )
        15           Ni  tau(  15) = (   0.5844524   0.3453266   0.2345353  )
        16           Ni  tau(  16) = (  -0.2108131   0.6452851   0.7036059  )
        17           Ni  tau(  17) = (  -0.3353596   0.3150812   0.7036059  )
        18           Ni  tau(  18) = (   0.4599060   0.0151227   0.2345353  )

   Crystallographic axes

     site n.     atom                  positions (cryst. coord.)
         1           Zr  tau(   1) = (  0.1044370  0.8955630  0.5983970  )
         2           Zr  tau(   2) = (  0.8955630  0.1044370  0.4016030  )
         3           Zr  tau(   3) = (  0.3955630  0.6044370  0.0983970  )
         4           Zr  tau(   4) = (  0.6044370  0.3955630  0.9016030  )
         5           Si  tau(   5) = (  0.8115230  0.6884770  0.2500000  )
         6           Si  tau(   6) = (  0.6884770  0.8115230  0.7500000  )
         7           Si  tau(   7) = (  0.1884770  0.3115230  0.7500000  )
         8           Si  tau(   8) = (  0.3115230  0.1884770  0.2500000  )
         9           Si  tau(   9) = (  0.1824650  0.8175350  0.9768720  )
        10           Si  tau(  10) = (  0.8175350  0.1824650  0.0231280  )
        11           Si  tau(  11) = (  0.3175350  0.6824650  0.4768720  )
        12           Si  tau(  12) = (  0.6824650  0.3175350  0.5231280  )
        13           Ni  tau(  13) = (  0.0000000  0.0000000  0.0000000  )
        14           Ni  tau(  14) = (  0.5000000  0.5000000  0.5000000  )
        15           Ni  tau(  15) = (  0.9771010  0.5228990  0.2500000  )
        16           Ni  tau(  16) = (  0.5228990  0.9771010  0.7500000  )
        17           Ni  tau(  17) = (  0.0228990  0.4771010  0.7500000  )
        18           Ni  tau(  18) = (  0.4771010  0.0228990  0.2500000  )

     number of k points=     1  Methfessel-Paxton smearing, width (Ry)=  0.0010
                       cart. coord. in units 2pi/alat
        k(    1) = (   0.0000000   0.0000000   0.0000000), wk =   2.0000000

                       cryst. coord.
        k(    1) = (   0.0000000   0.0000000   0.0000000), wk =   2.0000000

     Check: negative core charge=   -0.000005

     Initial potential from superposition of free atoms

     starting charge     175.9869, renormalised to     188.0000

     negative rho (up, down):  2.545E-01 0.000E+00
     Starting wfcs are  162 randomized atomic wfcs

     Self-consistent Calculation

     iteration #  1     ecut=    30.00 Ry     beta= 0.70
     Davidson diagonalization with overlap

     ethr =  1.00E-02,  avg # of iterations =  6.0

     negative rho (up, down):  2.308E-01 0.000E+00

     total energy              =   -2370.19836018 Ry
     estimated scf accuracy    <     243.54545369 Ry

[...]

     total energy              =   -2547.79440714 Ry
     estimated scf accuracy    <       0.00000129 Ry

     iteration # 27     ecut=    30.00 Ry     beta= 0.70
     Davidson diagonalization with overlap

     ethr =  6.84E-10,  avg # of iterations =  1.0

[...]

     End of self-consistent calculation

          k = 0.0000 0.0000 0.0000 (  2335 PWs)   bands (ev):

   -89.0343 -89.0341 -88.6451 -88.6442 -88.6422 -88.6404 -49.5713 -49.5668
   -49.3539 -49.3444 -49.1833 -49.1768 -49.1605 -49.1591 -49.1569 -49.1538
   -49.1370 -49.1299 -49.1271 -49.1218 -48.6824 -48.6795 -48.6041 -48.5974
   -33.4023 -33.3752 -33.3715 -33.3447 -11.6820 -11.6422 -11.6051 -11.5916
   -11.5744 -11.5694 -11.5544 -11.4970 -11.3745 -11.3389 -11.3059 -11.2391
     3.0552   4.6317   5.7583   6.1634   7.0556   7.4815   8.1423   8.5692
     8.7482   9.1196   9.9527  10.0507  10.2189  10.3100  10.5599  10.5656
    10.9250  11.2390  11.2866  11.4383  11.5045  11.6886  11.9874  12.0518
    12.0582  12.0590  12.1850  12.2993  12.3497  12.4046  12.4961  12.5125
    12.5715  12.5962  12.6731  12.7574  12.7620  12.8648  13.0476  13.0662
    13.1229  13.2257  13.4930  13.6150  13.7034  13.7131  13.7147  13.7166
    13.9879  14.2311  14.9796  15.0318  15.4252  15.5068  15.7433  15.9058
    16.0344  16.0511  16.2443  16.5682  16.8484  16.8755  17.0633  17.2562
    17.6547  17.8931  18.4412  18.7873  18.8044  18.9966  19.1097  19.3539
    19.6200

     occupation numbers
     1.0000   1.0000   1.0000   1.0000   1.0000   1.0000   1.0000   1.0000
     1.0000   1.0000   1.0000   1.0000   1.0000   1.0000   1.0000   1.0000
     1.0000   1.0000   1.0000   1.0000   1.0000   1.0000   1.0000   1.0000
     1.0000   1.0000   1.0000   1.0000   1.0000   1.0000   1.0000   1.0000
     1.0000   1.0000   1.0000   1.0000   1.0000   1.0000   1.0000   1.0000
     1.0000   1.0000   1.0000   1.0000   1.0000   1.0000   1.0000   1.0000
     1.0000   1.0000   1.0000   1.0000   1.0000   1.0000   1.0000   1.0000
     1.0000   1.0000   1.0000   1.0000   1.0000   1.0000   1.0000   1.0000
     1.0000   1.0000   1.0000   1.0000   1.0000   1.0000   1.0000   1.0000
     1.0000   1.0000   1.0000   1.0000   1.0000   1.0000   1.0000   1.0000
     1.0000   1.0000   1.0000   1.0000   1.0000   1.0000   1.0000   1.0000
     1.0000   1.0000   1.0000   1.0000   1.0000   1.0000  -0.0000  -0.0000
    -0.0000  -0.0000  -0.0000  -0.0000  -0.0000  -0.0000  -0.0000  -0.0000
    -0.0000  -0.0000  -0.0000  -0.0000  -0.0000  -0.0000  -0.0000  -0.0000
    -0.0000

     the Fermi energy is    15.6075 ev

!    total energy              =   -2547.79440718 Ry
     estimated scf accuracy    <       0.00000008 Ry
     smearing contrib. (-TS)   =       0.00000000 Ry
     internal energy E=F+TS    =   -2547.79440718 Ry

     The total energy is F=E-TS. E is the sum of the following terms:
     one-electron contribution =   -1695.66411618 Ry
     hartree contribution      =     949.99395025 Ry
     xc contribution           =    -335.04364731 Ry
     ewald contribution        =   -1467.08059394 Ry

     convergence has been achieved in  27 iterations

     negative rho (up, down):  2.437E-01 0.000E+00

     Forces acting on atoms (cartesian axes, Ry/au):

     atom    1 type  1   force =    -0.05238022    0.01975658   -0.00961142
     atom    2 type  1   force =     0.05238022   -0.01975658    0.00961142
     atom    3 type  1   force =     0.05238022   -0.01975658   -0.00961142
     atom    4 type  1   force =    -0.05238022    0.01975658    0.00961142
     atom    5 type  2   force =     0.02706860   -0.01020971    0.00000017
     atom    6 type  2   force =    -0.02706860    0.01020971    0.00000017
     atom    7 type  2   force =    -0.02706860    0.01020971   -0.00000017
     atom    8 type  2   force =     0.02706860   -0.01020971   -0.00000017
     atom    9 type  2   force =     0.00524217   -0.00197688   -0.00663122
     atom   10 type  2   force =    -0.00524217    0.00197688    0.00663122
     atom   11 type  2   force =    -0.00524217    0.00197688   -0.00663122
     atom   12 type  2   force =     0.00524217   -0.00197688    0.00663122
     atom   13 type  3   force =     0.00000000    0.00000000    0.00000000
     atom   14 type  3   force =     0.00000000    0.00000000    0.00000000
     atom   15 type  3   force =     0.01412465   -0.00532699   -0.00000166
     atom   16 type  3   force =    -0.01412465    0.00532699   -0.00000166
     atom   17 type  3   force =    -0.01412465    0.00532699    0.00000166
     atom   18 type  3   force =     0.01412465   -0.00532699    0.00000166
     The non-local contrib.  to forces
     atom    1 type  1   force =     0.11337697   -0.04276350    0.03386240
     atom    2 type  1   force =    -0.11337697    0.04276350   -0.03386240
     atom    3 type  1   force =    -0.11337697    0.04276350    0.03386240
     atom    4 type  1   force =     0.11337697   -0.04276350   -0.03386240
     atom    5 type  2   force =    -0.00347081    0.00130882    0.00000021
     atom    6 type  2   force =     0.00347081   -0.00130882    0.00000021
     atom    7 type  2   force =     0.00347081   -0.00130882   -0.00000021
     atom    8 type  2   force =    -0.00347081    0.00130882   -0.00000021
     atom    9 type  2   force =    -0.01539966    0.00580884   -0.00082604
     atom   10 type  2   force =     0.01539966   -0.00580884    0.00082604
     atom   11 type  2   force =     0.01539966   -0.00580884   -0.00082604
     atom   12 type  2   force =    -0.01539966    0.00580884    0.00082604
     atom   13 type  3   force =     0.00000000    0.00000000    0.00000000
     atom   14 type  3   force =     0.00000000    0.00000000    0.00000000
     atom   15 type  3   force =    -0.30385313    0.11460744    0.00000081
     atom   16 type  3   force =     0.30385313   -0.11460744    0.00000081
     atom   17 type  3   force =     0.30385313   -0.11460744   -0.00000081
     atom   18 type  3   force =    -0.30385313    0.11460744   -0.00000081
     The ionic contribution  to forces
     atom    1 type  1   force =    -8.63005000    3.25508521   -0.91479008
     atom    2 type  1   force =     8.63005000   -3.25508521    0.91479008
     atom    3 type  1   force =     8.63005000   -3.25508521   -0.91479008
     atom    4 type  1   force =    -8.63005000    3.25508521    0.91479008
     atom    5 type  2   force =    -2.22167886    0.83797359    0.00000000
     atom    6 type  2   force =     2.22167886   -0.83797359   -0.00000000
     atom    7 type  2   force =     2.22167886   -0.83797359   -0.00000000
     atom    8 type  2   force =    -2.22167886    0.83797359    0.00000000
     atom    9 type  2   force =    -3.21046130    1.21092289   -0.64130126
     atom   10 type  2   force =     3.21046129   -1.21092289    0.64130126
     atom   11 type  2   force =     3.21046129   -1.21092289   -0.64130126
     atom   12 type  2   force =    -3.21046129    1.21092289    0.64130126
     atom   13 type  3   force =     0.00000000   -0.00000000    0.00000000
     atom   14 type  3   force =     0.00000000    0.00000000   -0.00000000
     atom   15 type  3   force =    -3.59040908    1.35423172   -0.00000000
     atom   16 type  3   force =     3.59040907   -1.35423172   -0.00000000
     atom   17 type  3   force =     3.59040907   -1.35423172    0.00000000
     atom   18 type  3   force =    -3.59040907    1.35423173    0.00000000
     The local contribution  to forces
     atom    1 type  1   force =     8.47186184   -3.19545393    0.87370395
     atom    2 type  1   force =    -8.47179716    3.19544597   -0.87339395
     atom    3 type  1   force =    -8.47184280    3.19536071    0.87337524
     atom    4 type  1   force =     8.47189622   -3.19540050   -0.87366243
     atom    5 type  2   force =     2.25116948   -0.84910446   -0.00000566
     atom    6 type  2   force =    -2.25111938    0.84906382   -0.00000107
     atom    7 type  2   force =    -2.25112396    0.84909344   -0.00000139
     atom    8 type  2   force =     2.25112954   -0.84907349   -0.00000536
     atom    9 type  2   force =     3.22886371   -1.21789663    0.63509357
     atom   10 type  2   force =    -3.22889270    1.21791130   -0.63521710
     atom   11 type  2   force =    -3.22890067    1.21784168    0.63521278
     atom   12 type  2   force =     3.22887237   -1.21783408   -0.63508395
     atom   13 type  3   force =     0.00016993   -0.00006160   -0.00014704
     atom   14 type  3   force =     0.00014143   -0.00005899    0.00018850
     atom   15 type  3   force =     3.90530695   -1.47300019   -0.00008726
     atom   16 type  3   force =    -3.90566319    1.47312351    0.00007195
     atom   17 type  3   force =    -3.90563400    1.47314777    0.00006908
     atom   18 type  3   force =     3.90529425   -1.47300756   -0.00008405
     The core correction contribution to forces
     atom    1 type  1   force =    -0.00731191    0.00275766   -0.00219557
     atom    2 type  1   force =     0.00731126   -0.00275779    0.00219725
     atom    3 type  1   force =     0.00731145   -0.00275767   -0.00219731
     atom    4 type  1   force =    -0.00731174    0.00275803    0.00219599
     atom    5 type  2   force =     0.00113577   -0.00042832   -0.00000023
     atom    6 type  2   force =    -0.00113595    0.00042832    0.00000010
     atom    7 type  2   force =    -0.00113552    0.00042840    0.00000015
     atom    8 type  2   force =     0.00113630   -0.00042851   -0.00000018
     atom    9 type  2   force =     0.00228989   -0.00086311    0.00033773
     atom   10 type  2   force =    -0.00229004    0.00086323   -0.00033812
     atom   11 type  2   force =    -0.00228958    0.00086412    0.00033764
     atom   12 type  2   force =     0.00228933   -0.00086419   -0.00033719
     atom   13 type  3   force =    -0.00000003    0.00000008   -0.00000001
     atom   14 type  3   force =    -0.00000016   -0.00000001   -0.00000001
     atom   15 type  3   force =     0.00309171   -0.00116613   -0.00000016
     atom   16 type  3   force =    -0.00309159    0.00116613    0.00000012
     atom   17 type  3   force =    -0.00309141    0.00116599    0.00000017
     atom   18 type  3   force =     0.00309206   -0.00116626   -0.00000013
     The Hubbard contrib.    to forces
     atom    1 type  1   force =     0.00000000    0.00000000    0.00000000
     atom    2 type  1   force =     0.00000000    0.00000000    0.00000000
     atom    3 type  1   force =     0.00000000    0.00000000    0.00000000
     atom    4 type  1   force =     0.00000000    0.00000000    0.00000000
     atom    5 type  2   force =     0.00000000    0.00000000    0.00000000
     atom    6 type  2   force =     0.00000000    0.00000000    0.00000000
     atom    7 type  2   force =     0.00000000    0.00000000    0.00000000
     atom    8 type  2   force =     0.00000000    0.00000000    0.00000000
     atom    9 type  2   force =     0.00000000    0.00000000    0.00000000
     atom   10 type  2   force =     0.00000000    0.00000000    0.00000000
     atom   11 type  2   force =     0.00000000    0.00000000    0.00000000
     atom   12 type  2   force =     0.00000000    0.00000000    0.00000000
     atom   13 type  3   force =     0.00000000    0.00000000    0.00000000
     atom   14 type  3   force =     0.00000000    0.00000000    0.00000000
     atom   15 type  3   force =     0.00000000    0.00000000    0.00000000
     atom   16 type  3   force =     0.00000000    0.00000000    0.00000000
     atom   17 type  3   force =     0.00000000    0.00000000    0.00000000
     atom   18 type  3   force =     0.00000000    0.00000000    0.00000000
     The SCF correction term to forces
     atom    1 type  1   force =    -0.00025890    0.00013391   -0.00017823
     atom    2 type  1   force =     0.00018756   -0.00012456   -0.00010649
     atom    3 type  1   force =     0.00023824   -0.00003448    0.00012499
     atom    4 type  1   force =    -0.00029574    0.00007649    0.00013767
     atom    5 type  2   force =    -0.00008430    0.00003944    0.00000369
     atom    6 type  2   force =     0.00003899   -0.00000285    0.00000176
     atom    7 type  2   force =     0.00004696   -0.00002962    0.00000194
     atom    8 type  2   force =    -0.00004257    0.00000832    0.00000358
     atom    9 type  2   force =    -0.00004908    0.00005810    0.00006399
     atom   10 type  2   force =     0.00007603   -0.00006960    0.00005379
     atom   11 type  2   force =     0.00008748    0.00000769   -0.00005270
     atom   12 type  2   force =    -0.00006322   -0.00001611   -0.00006873
     atom   13 type  3   force =    -0.00018118    0.00006961    0.00014102
     atom   14 type  3   force =    -0.00014624    0.00006030   -0.00021758
     atom   15 type  3   force =    -0.00000513    0.00000117    0.00009258
     atom   16 type  3   force =     0.00037810   -0.00012438   -0.00008376
     atom   17 type  3   force =     0.00036004   -0.00015876   -0.00007520
     atom   18 type  3   force =     0.00002548   -0.00000539    0.00009344

     Total force =     0.132160     Total SCF correction =     0.000947

     Computing stress (Cartesian axis) and pressure

     negative rho (up, down):  2.437E-01 0.000E+00
          total   stress  (Ry/bohr**3)                   (kbar)     P=     -517.37
  -0.00375192   0.00015591   0.00000000         -551.93       22.93        0.00
   0.00015591  -0.00339739   0.00000000           22.93     -499.77        0.00
   0.00000000   0.00000000  -0.00340165            0.00        0.00     -500.40

     kinetic stress (kbar)  24800.59     78.59      0.00
                               78.59  24979.30      0.00
                                0.00      0.00  24736.50

     local   stress (kbar)  -8086.43  -8206.02     -0.01
                            -8206.02 -26747.50      0.01
                               -0.01      0.01 -10223.13

     nonloc. stress (kbar)  13245.69     99.66      0.00
                               99.66  13472.31      0.00
                                0.00      0.00  13136.67

     hartree stress (kbar)  24477.81   4063.97      0.00
                             4063.97  33719.57     -0.01
                                0.00     -0.01  25669.95

     exc-cor stress (kbar)  -2668.76     -0.53      0.00
                               -0.53  -2669.96     -0.00
                                0.00     -0.00  -2667.89

     corecor stress (kbar)  -5735.83     -1.17     -0.00
                               -1.17  -5738.49      0.00
                               -0.00      0.00  -5735.76

     ewald   stress (kbar) -46585.00   3988.44      0.00
                             3988.44 -37515.01     -0.00
                                0.00     -0.00 -45416.75

     hubbard stress (kbar)      0.00      0.00      0.00
                                0.00      0.00      0.00
                                0.00      0.00      0.00

     DFT-D   stress (kbar)      0.00      0.00      0.00
                                0.00      0.00      0.00
                                0.00      0.00      0.00

     XDM     stress (kbar)      0.00      0.00      0.00
                                0.00      0.00      0.00
                                0.00      0.00      0.00

     dft-nl  stress (kbar)      0.00      0.00      0.00
                                0.00      0.00      0.00
                                0.00      0.00      0.00

     TS-vdW  stress (kbar)      0.00      0.00      0.00
                                0.00      0.00      0.00
                                0.00      0.00      0.00

[...]

                                0.00      0.00      0.00

     Writing all to output data dir new_calculations/myprefix.save/

     General routines

     Parallel routines

   This run was terminated on:   8:59:45  20May2023

   JOB DONE.