     Program PWSCF v.7.0 starts on 20May2023 at  4: 3: 4

     Reading input from espresso_17015.pwi
Warning: card &CELL ignored
Warning: card / ignored

     Current dimensions of program PWSCF are:
     Max number of different atomic species (ntypx) = 10
     Max number of k-points (npk) =  40000
     Max angular momentum in pseudopotentials (lmaxx) =  4
     file Ga.pbe-dn-kjpaw_psl.1.0.0.UPF: wavefunction(s)  4S renormalized

     gamma-point specific algorithms are used
     Message from routine setup:
     using ibrav=0 with symmetry is DISCOURAGED, use correct ibrav instead

     Subspace diagonalization in iterative solution of the eigenvalue problem:
     a serial algorithm will be used

     Using Slab Decomposition

     bravais-lattice index     =            0
     lattice parameter (alat)  =       8.1213  a.u.
     unit-cell volume          =    1376.1137 (a.u.)^3
     number of atoms/cell      =           10
     number of atomic types    =            3
     number of electrons       =       128.00
     number of Kohn-Sham states=           77
     kinetic-energy cutoff     =      30.0000  Ry
     charge density cutoff     =     240.0000  Ry
     scf convergence threshold =      1.0E-06
     mixing beta               =       0.7000
     number of iterations used =            8  plain     mixing
     Exchange-correlation= SLA  PW   PBX  PBC
                           (   1   4   3   4   0   0   0)

     celldm(1)=   8.121261  celldm(2)=   0.000000  celldm(3)=   0.000000
     celldm(4)=   0.000000  celldm(5)=   0.000000  celldm(6)=   0.000000

     crystal axes: (cart. coord. in units of alat)
               a(1) = (   1.000000   0.000000   0.000000 )
               a(2) = (   0.000000   1.000000   0.000000 )
               a(3) = (   0.000000   0.000000   2.569118 )

     reciprocal axes: (cart. coord. in units 2 pi/alat)
               b(1) = (  1.000000  0.000000  0.000000 )
               b(2) = (  0.000000  1.000000  0.000000 )
               b(3) = (  0.000000  0.000000  0.389239 )

     PseudoPot. # 1 for Li read from file:
     /home/pragov/projects/rrg-bengioy-ad/pragov/crystal_structure_design/SSSP/li_pbe_v1.4.uspp.F.UPF
     MD5 check sum: e912e257baa3777c20ea3d68f190483c
     Pseudo is Ultrasoft, Zval =  3.0
     Generated by new atomic code, or converted to UPF format
     Using radial grid of  751 points,  5 beta functions with:
                l(1) =   0
                l(2) =   0
                l(3) =   0
                l(4) =   1
                l(5) =   1
     Q(r) pseudized with 10 coefficients,  rinner =    1.150   1.150   1.150

     PseudoPot. # 2 for Eu read from file:
     /home/pragov/projects/rrg-bengioy-ad/pragov/crystal_structure_design/SSSP/Eu.GGA-PBE-paw-v1.0.UPF
     MD5 check sum: acec5fd9176fb57ec8e299eae1ecaf48
     Pseudo is Projector augmented-wave + core cor, Zval = 17.0
     Generated using ATOMPAW code
     Shape of augmentation charge: BESSEL
     Using radial grid of 1109 points,  8 beta functions with:
                l(1) =   0
                l(2) =   0
                l(3) =   1
                l(4) =   1
                l(5) =   2
                l(6) =   2
                l(7) =   3
                l(8) =   3
     Q(r) pseudized with 0 coefficients

     PseudoPot. # 3 for Ga read from file:
     /home/pragov/projects/rrg-bengioy-ad/pragov/crystal_structure_design/SSSP/Ga.pbe-dn-kjpaw_psl.1.0.0.UPF
     MD5 check sum: a27b4342b1af7e5f338de752e9ed7044
     Pseudo is Projector augmented-wave + core cor, Zval = 13.0
     Generated using "atomic" code by A. Dal Corso  v.5.1
     Shape of augmentation charge: PSQ
     Using radial grid of 1205 points,  6 beta functions with:
                l(1) =   0
                l(2) =   0
                l(3) =   1
                l(4) =   1
                l(5) =   2
                l(6) =   2
     Q(r) pseudized with 0 coefficients

     atomic species   valence    mass     pseudopotential
        Li             3.00     6.94000     Li( 1.00)
        Eu            17.00   151.96400     Eu( 1.00)
        Ga            13.00    69.72300     Ga( 1.00)

      8 Sym. Ops. (no inversion) found

                                    s                        frac. trans.

      isym =  1     identity

 cryst.   s( 1) = (     1          0          0      )
                  (     0          1          0      )
                  (     0          0          1      )

 cart.    s( 1) = (  1.0000000  0.0000000  0.0000000 )
                  (  0.0000000  1.0000000  0.0000000 )
                  (  0.0000000  0.0000000  1.0000000 )

      isym =  2     180 deg rotation - cart. axis [0,0,1]

[...]

      isym =  4     180 deg rotation - cart. axis [1,-1,0]

[...]

      isym =  5     inv. 180 deg rotation - cart. axis [0,1,0]

[...]

      isym =  8     inv.  90 deg rotation - cart. axis [0,0,1]

 cryst.   s( 8) = (     0         -1          0      )
                  (     1          0          0      )
                  (     0          0         -1      )

 cart.    s( 8) = (  0.0000000  1.0000000  0.0000000 )
                  ( -1.0000000  0.0000000  0.0000000 )
                  (  0.0000000  0.0000000 -1.0000000 )

   Cartesian axes

     site n.     atom                  positions (alat units)
         1           Li  tau(   1) = (   0.0000000   0.0000000   0.0000000  )
         2           Eu  tau(   2) = (   0.5000000   0.0000000   1.9178643  )
         3           Eu  tau(   3) = (   0.0000000   0.5000000   0.6512533  )
         4           Ga  tau(   4) = (   0.0000000   0.5000000   2.2277127  )
         5           Ga  tau(   5) = (   0.5000000   0.0000000   0.9254193  )
         6           Ga  tau(   6) = (   0.5000000   0.0000000   0.3414049  )
         7           Ga  tau(   7) = (   0.0000000   0.5000000   1.6436983  )
         8           Ga  tau(   8) = (   0.5000000   0.5000000   1.2845588  )
         9           Ga  tau(   9) = (   0.5000000   0.5000000   0.0000000  )
        10           Ga  tau(  10) = (   0.0000000   0.0000000   1.2845588  )

   Crystallographic axes

     site n.     atom                  positions (cryst. coord.)
         1           Li  tau(   1) = (  0.0000000  0.0000000  0.0000000  )
         2           Eu  tau(   2) = (  0.5000000  0.0000000  0.7465070  )
         3           Eu  tau(   3) = (  0.0000000  0.5000000  0.2534930  )
         4           Ga  tau(   4) = (  0.0000000  0.5000000  0.8671120  )
         5           Ga  tau(   5) = (  0.5000000  0.0000000  0.3602090  )
         6           Ga  tau(   6) = (  0.5000000  0.0000000  0.1328880  )
         7           Ga  tau(   7) = (  0.0000000  0.5000000  0.6397910  )
         8           Ga  tau(   8) = (  0.5000000  0.5000000  0.5000000  )
         9           Ga  tau(   9) = (  0.5000000  0.5000000  0.0000000  )
        10           Ga  tau(  10) = (  0.0000000  0.0000000  0.5000000  )

     number of k points=     1  Methfessel-Paxton smearing, width (Ry)=  0.0010
                       cart. coord. in units 2pi/alat
        k(    1) = (   0.0000000   0.0000000   0.0000000), wk =   2.0000000

                       cryst. coord.
        k(    1) = (   0.0000000   0.0000000   0.0000000), wk =   2.0000000

     Check: negative core charge=   -0.000002

     Initial potential from superposition of free atoms

     starting charge     127.5191, renormalised to     128.0000
     Starting wfcs are  132 randomized atomic wfcs
     Checking if some PAW data can be deallocated...

     Self-consistent Calculation

     iteration #  1     ecut=    30.00 Ry     beta= 0.70
     Davidson diagonalization with overlap

     ethr =  1.00E-02,  avg # of iterations =  2.0

     total energy              =   -3180.47666041 Ry
     estimated scf accuracy    <      54.01867508 Ry

[...]

     total energy              =   -3243.21656023 Ry
     estimated scf accuracy    <       0.00000174 Ry

     iteration # 59     ecut=    30.00 Ry     beta= 0.70
     Davidson diagonalization with overlap

     ethr =  1.36E-09,  avg # of iterations =  2.0

     End of self-consistent calculation

          k = 0.0000 0.0000 0.0000 (  1883 PWs)   bands (ev):

   -35.6376 -30.0616 -30.0615  -9.1786  -9.1684  -8.9167  -8.9165  -8.8598
    -8.8597  -4.9916  -4.9905  -4.9105  -4.9102  -4.9046  -4.9044  -4.8539
    -4.8474  -4.8445  -4.8185  -4.6144  -4.6138  -4.5816  -4.5784  -4.5609
    -4.5559  -4.5552  -4.5405  -4.5314  -4.5313  -4.0897  -4.0662  -4.0661
    -4.0653  -4.0150  -4.0118  -3.9883  -3.8948  -3.8844  -3.8844  -3.7762
    -3.7762  -3.7711  -3.7481  -3.6835   0.0681   1.5287   2.2905   5.1384
     5.4935   8.2274   8.3174   8.3174   9.1534   9.1534   9.9477  10.4709
    10.6340  10.7117  10.7118  10.8580  10.8581  10.8616  10.8837  10.9860
    10.9861  11.0694  11.2324  11.2325  11.2639  11.2639  11.3092  11.3823
    11.9517  11.9518  12.0649  12.0650  12.2764

     occupation numbers
     1.0000   1.0000   1.0000   1.0000   1.0000   1.0000   1.0000   1.0000
     1.0000   1.0000   1.0000   1.0000   1.0000   1.0000   1.0000   1.0000
     1.0000   1.0000   1.0000   1.0000   1.0000   1.0000   1.0000   1.0000
     1.0000   1.0000   1.0000   1.0000   1.0000   1.0000   1.0000   1.0000
     1.0000   1.0000   1.0000   1.0000   1.0000   1.0000   1.0000   1.0000
     1.0000   1.0000   1.0000   1.0000   1.0000   1.0000   1.0000   1.0000
     1.0000   1.0000   1.0000   1.0000   1.0000   1.0000   1.0000   1.0000
     1.0000   1.0000   1.0000   1.0000   1.0000   1.0000   1.0000   0.5005
     0.4995  -0.0000  -0.0000  -0.0000  -0.0000  -0.0000  -0.0000  -0.0000
    -0.0000  -0.0000  -0.0000  -0.0000  -0.0000

     the Fermi energy is    10.9861 ev

!    total energy              =   -3243.21655985 Ry
     estimated scf accuracy    <       0.00000099 Ry
     smearing contrib. (-TS)   =      -0.00056419 Ry
     internal energy E=F+TS    =   -3243.21599566 Ry

     The total energy is F=E-TS. E is the sum of the following terms:
     one-electron contribution =    -873.32342942 Ry
     hartree contribution      =     559.04957587 Ry
     xc contribution           =    -310.56534772 Ry
     ewald contribution        =    -927.93249540 Ry
     one-center paw contrib.   =   -1690.44429899 Ry
      -> PAW hartree energy AE =    1309.96361642 Ry
      -> PAW hartree energy PS =   -1280.02205530 Ry
      -> PAW xc energy AE      =   -2022.68712545 Ry
      -> PAW xc energy PS      =     302.30126534 Ry
      -> total E_H with PAW    =     588.99113698 Ry
      -> total E_XC with PAW   =   -2030.95120782 Ry

     convergence has been achieved in  59 iterations

     Forces acting on atoms (cartesian axes, Ry/au):

     atom    1 type  1   force =     0.00000000    0.00000000    0.00000000
     atom    2 type  2   force =     0.00000000    0.00000000   -0.01963861
     atom    3 type  2   force =     0.00000000    0.00000000    0.01963861
     atom    4 type  3   force =     0.00000000    0.00000000   -0.01457960
     atom    5 type  3   force =     0.00000000    0.00000000   -0.03901579
     atom    6 type  3   force =     0.00000000    0.00000000    0.01457960
     atom    7 type  3   force =     0.00000000    0.00000000    0.03901579
     atom    8 type  3   force =     0.00000000    0.00000000    0.00000000
     atom    9 type  3   force =     0.00000000    0.00000000    0.00000000
     atom   10 type  3   force =     0.00000000    0.00000000    0.00000000
     The non-local contrib.  to forces
     atom    1 type  1   force =     0.00000000    0.00000000    0.00000000
     atom    2 type  2   force =     0.00000000    0.00000000   -0.17418847
     atom    3 type  2   force =     0.00000000    0.00000000    0.17418847
     atom    4 type  3   force =     0.00000000    0.00000000    0.01608013
     atom    5 type  3   force =     0.00000000    0.00000000    0.40745944
     atom    6 type  3   force =     0.00000000    0.00000000   -0.01608013
     atom    7 type  3   force =     0.00000000    0.00000000   -0.40745944
     atom    8 type  3   force =     0.00000000    0.00000000    0.00000000
     atom    9 type  3   force =     0.00000000    0.00000000    0.00000000
     atom   10 type  3   force =     0.00000000    0.00000000    0.00000000
     The ionic contribution  to forces
     atom    1 type  1   force =     0.00000000    0.00000000    0.00000000
     atom    2 type  2   force =     0.00000000   -0.00000000   16.20809375
     atom    3 type  2   force =    -0.00000000    0.00000000  -16.20809375
     atom    4 type  3   force =     0.00000000    0.00000000    9.52126488
     atom    5 type  3   force =    -0.00000000   -0.00000000  -11.20515346
     atom    6 type  3   force =    -0.00000000    0.00000000   -9.52126488
     atom    7 type  3   force =    -0.00000000    0.00000000   11.20515346
     atom    8 type  3   force =    -0.00000000   -0.00000000    0.00000000
     atom    9 type  3   force =     0.00000000   -0.00000000   -0.00000000
     atom   10 type  3   force =    -0.00000000   -0.00000000    0.00000000
     The local contribution  to forces
     atom    1 type  1   force =     0.00000036   -0.00000052    0.00062384
     atom    2 type  2   force =     0.00001685    0.00003245  -16.05428923
     atom    3 type  2   force =     0.00000095    0.00002476   16.05405547
     atom    4 type  3   force =    -0.00001371   -0.00000019   -9.55135209
     atom    5 type  3   force =     0.00000889   -0.00001963   10.76487375
     atom    6 type  3   force =     0.00000040    0.00002143    9.55442850
     atom    7 type  3   force =    -0.00000201    0.00002439  -10.76798861
     atom    8 type  3   force =     0.00001022    0.00001030   -0.00237740
     atom    9 type  3   force =     0.00001269   -0.00001913    0.00279466
     atom   10 type  3   force =    -0.00000689   -0.00001713   -0.00228069
     The core correction contribution to forces
     atom    1 type  1   force =     0.00000000    0.00000000    0.00000000
     atom    2 type  2   force =     0.00000000    0.00000000    0.00000329
     atom    3 type  2   force =     0.00000000    0.00000000   -0.00000329
     atom    4 type  3   force =    -0.00000033   -0.00000003    0.00060388
     atom    5 type  3   force =     0.00000006   -0.00000031   -0.00734226
     atom    6 type  3   force =    -0.00000010    0.00000067   -0.00060534
     atom    7 type  3   force =     0.00000018    0.00000053    0.00734366
     atom    8 type  3   force =     0.00000004    0.00000008    0.00000029
     atom    9 type  3   force =     0.00000043   -0.00000048    0.00000330
     atom   10 type  3   force =    -0.00000012   -0.00000028    0.00000205
     The Hubbard contrib.    to forces
     atom    1 type  1   force =     0.00000000    0.00000000    0.00000000
     atom    2 type  2   force =     0.00000000    0.00000000    0.00000000
     atom    3 type  2   force =     0.00000000    0.00000000    0.00000000
     atom    4 type  3   force =     0.00000000    0.00000000    0.00000000
     atom    5 type  3   force =     0.00000000    0.00000000    0.00000000
     atom    6 type  3   force =     0.00000000    0.00000000    0.00000000
     atom    7 type  3   force =     0.00000000    0.00000000    0.00000000
     atom    8 type  3   force =     0.00000000    0.00000000    0.00000000
     atom    9 type  3   force =     0.00000000    0.00000000    0.00000000
     atom   10 type  3   force =     0.00000000    0.00000000    0.00000000
     The SCF correction term to forces
     atom    1 type  1   force =    -0.00000118   -0.00000058   -0.00052558
     atom    2 type  2   force =    -0.00002808   -0.00000764    0.00074489
     atom    3 type  2   force =     0.00000363    0.00000814   -0.00050544
     atom    4 type  3   force =     0.00001439   -0.00000192   -0.00122725
     atom    5 type  3   force =     0.00000095    0.00001348    0.00118495
     atom    6 type  3   force =     0.00000523   -0.00001704   -0.00194941
     atom    7 type  3   force =    -0.00000611   -0.00002207    0.00200496
     atom    8 type  3   force =    -0.00000095   -0.00002395    0.00246846
     atom    9 type  3   force =    -0.00001287   -0.00000304   -0.00290614
     atom   10 type  3   force =     0.00001033    0.00002226    0.00238251

     Total force =     0.065123     Total SCF correction =     0.005660

     Computing stress (Cartesian axis) and pressure

          total   stress  (Ry/bohr**3)                   (kbar)     P=       41.73
   0.00030979  -0.00000000   0.00000000           45.57       -0.00        0.00
   0.00000000   0.00030979   0.00000000            0.00       45.57        0.00
   0.00000000   0.00000000   0.00023149            0.00        0.00       34.05

     kinetic stress (kbar)  10303.17      0.00      0.00
                                0.00  10303.17      0.00
                                0.00      0.00  10093.88

     local   stress (kbar)   3380.14     -0.18     -0.00
                               -0.18   3379.93     -0.01
                               -0.00     -0.01   7786.35

     nonloc. stress (kbar)   5434.60      0.00      0.00
                                0.00   5434.60      0.00
                                0.00      0.00   5438.82

     hartree stress (kbar)  20741.14      0.07      0.00
                                0.07  20741.19      0.00
                                0.00      0.00  18279.47

     exc-cor stress (kbar)   3533.55      0.00      0.00
                                0.00   3533.55      0.00
                                0.00      0.00   3531.31

     corecor stress (kbar) -10864.62     -0.00     -0.00
                               -0.00 -10864.62     -0.00
                               -0.00     -0.00 -10865.44

     ewald   stress (kbar) -32482.32      0.00     -0.00
                                0.00 -32482.32      0.00
                               -0.00      0.00 -34230.35

     hubbard stress (kbar)      0.00      0.00      0.00
                                0.00      0.00      0.00
                                0.00      0.00      0.00

     DFT-D   stress (kbar)      0.00      0.00      0.00
                                0.00      0.00      0.00
                                0.00      0.00      0.00

     XDM     stress (kbar)      0.00      0.00      0.00
                                0.00      0.00      0.00
                                0.00      0.00      0.00

     dft-nl  stress (kbar)      0.00      0.00      0.00
                                0.00      0.00      0.00
                                0.00      0.00      0.00

     TS-vdW  stress (kbar)      0.00      0.00      0.00
                                0.00      0.00      0.00
                                0.00      0.00      0.00

[...]

                                0.00      0.00      0.00

     Writing all to output data dir new_calculations/myprefix.save/

     General routines

     Parallel routines

     PAW routines

   This run was terminated on:   4: 6:17  20May2023

   JOB DONE.