     Program PWSCF v.7.0 starts on 21May2023 at  4:33:26

     Reading input from espresso_3061.pwi
Warning: card &CELL ignored
Warning: card / ignored

     Current dimensions of program PWSCF are:
     Max number of different atomic species (ntypx) = 10
     Max number of k-points (npk) =  40000
     Max angular momentum in pseudopotentials (lmaxx) =  4
     file K.pbe-spn-kjpaw_psl.1.0.0.UPF: wavefunction(s)  3S renormalized

     gamma-point specific algorithms are used
     Message from routine setup:
     using ibrav=0 with symmetry is DISCOURAGED, use correct ibrav instead

     Subspace diagonalization in iterative solution of the eigenvalue problem:
     a serial algorithm will be used

     Using Slab Decomposition

     bravais-lattice index     =            0
     lattice parameter (alat)  =      14.6845  a.u.
     unit-cell volume          =     795.3956 (a.u.)^3
     number of atoms/cell      =            4
     number of atomic types    =            3
     number of electrons       =        32.00
     number of Kohn-Sham states=           20
     kinetic-energy cutoff     =      30.0000  Ry
     charge density cutoff     =     240.0000  Ry
     scf convergence threshold =      1.0E-06
     mixing beta               =       0.7000
     number of iterations used =            8  plain     mixing
     Exchange-correlation=  SLA  PW   PBX  PBC
                           (   1   4   3   4   0   0   0)

     celldm(1)=  14.684470  celldm(2)=   0.000000  celldm(3)=   0.000000
     celldm(4)=   0.000000  celldm(5)=   0.000000  celldm(6)=   0.000000

     crystal axes: (cart. coord. in units of alat)
               a(1) = (   1.000000   0.000000   0.000000 )
               a(2) = (   0.846956   0.531663   0.000000 )
               a(3) = (   0.846956   0.243804   0.472467 )

     reciprocal axes: (cart. coord. in units 2 pi/alat)
               b(1) = (  1.000000 -1.593031 -0.970583 )
               b(2) = (  0.000000  1.880890 -0.970583 )
               b(3) = (  0.000000  0.000000  2.116549 )

     PseudoPot. # 1 for K  read from file:
     /home/pragov/projects/rrg-bengioy-ad/pragov/crystal_structure_design/SSSP/K.pbe-spn-kjpaw_psl.1.0.0.UPF
     MD5 check sum: 7d58810084cac21f60fbe77ea2b688fd
     Pseudo is Projector augmented-wave + core cor, Zval =  9.0
     Generated using "atomic" code by A. Dal Corso  v.5.1
     Shape of augmentation charge: PSQ
     Using radial grid of 1165 points,  6 beta functions with:
                l(1) =   0
                l(2) =   0
                l(3) =   1
                l(4) =   1
                l(5) =   2
                l(6) =   2
     Q(r) pseudized with 0 coefficients

     PseudoPot. # 2 for La read from file:
     /home/pragov/projects/rrg-bengioy-ad/pragov/crystal_structure_design/SSSP/La.GGA-PBE-paw-v1.0.UPF
     MD5 check sum: 436541e95c1ad8901025bd0b0ed42ae2
     Pseudo is Projector augmented-wave + core cor, Zval = 11.0
     Generated using ATOMPAW code
     Shape of augmentation charge: BESSEL
     Using radial grid of 1101 points,  8 beta functions with:
                l(1) =   0
                l(2) =   0
                l(3) =   1
                l(4) =   1
                l(5) =   2
                l(6) =   2
                l(7) =   3
                l(8) =   3
     Q(r) pseudized with 0 coefficients

     PseudoPot. # 3 for S  read from file:
     /home/pragov/projects/rrg-bengioy-ad/pragov/crystal_structure_design/SSSP/s_pbe_v1.4.uspp.F.UPF
     MD5 check sum: 88d86576ff6df21479756cfb9bdac1df
     Pseudo is Ultrasoft + core correction, Zval =  6.0
     Generated by new atomic code, or converted to UPF format
     Using radial grid of  907 points,  6 beta functions with:
                l(1) =   0
                l(2) =   0
                l(3) =   1
                l(4) =   1
                l(5) =   2
                l(6) =   2
     Q(r) pseudized with  8 coefficients,  rinner =    1.300   1.300   1.300
                                                       1.300   1.300

     atomic species   valence    mass     pseudopotential
        K              9.00    39.09830     K ( 1.00)
        La            11.00   138.90547     La( 1.00)
        S              6.00    32.06000     S ( 1.00)

      2 Sym. Ops., with inversion, found

                                    s                        frac. trans.

      isym =  1     identity

 cryst.   s( 1) = (     1          0          0      )
                  (     0          1          0      )
                  (     0          0          1      )

 cart.    s( 1) = (  1.0000000 -0.0000000  0.0000000 )
                  (  0.0000000  1.0000000  0.0000000 )
                  (  0.0000000  0.0000000  1.0000000 )

      isym =  2     inversion

 cryst.   s( 2) = (    -1          0          0      )
                  (     0         -1          0      )
                  (     0          0         -1      )

 cart.    s( 2) = ( -1.0000000  0.0000000 -0.0000000 )
                  (  0.0000000 -1.0000000 -0.0000000 )
                  (  0.0000000  0.0000000 -1.0000000 )

   Cartesian axes

     site n.     atom                  positions (alat units)
         1           K   tau(   1) = (   1.3469559   0.3877336   0.2362336  )
         2           La  tau(   2) = (   0.0000000   0.0000000   0.0000000  )
         3           S   tau(   3) = (   1.9822099   0.5705974   0.3476466  )
         4           S   tau(   4) = (   0.7117018   0.2048699   0.1248206  )

   Crystallographic axes

     site n.     atom                  positions (cryst. coord.)
         1           K   tau(   1) = (  0.5000000  0.5000000  0.5000000  )
         2           La  tau(   2) = (  0.0000000  0.0000000  0.0000000  )
         3           S   tau(   3) = (  0.7358110  0.7358110  0.7358110  )
         4           S   tau(   4) = (  0.2641890  0.2641890  0.2641890  )

     number of k points=     1  Methfessel-Paxton smearing, width (Ry)=  0.0010
                       cart. coord. in units 2pi/alat
        k(    1) = (   0.0000000   0.0000000   0.0000000), wk =   2.0000000

                       cryst. coord.
        k(    1) = (   0.0000000   0.0000000   0.0000000), wk =   2.0000000

     Check: negative core charge=   -0.000002

     Initial potential from superposition of free atoms

     starting charge      31.9726, renormalised to      32.0000
     Starting wfcs are   48 randomized atomic wfcs
     Checking if some PAW data can be deallocated...

     Self-consistent Calculation

     iteration #  1     ecut=    30.00 Ry     beta= 0.70
     Davidson diagonalization with overlap

     ethr =  1.00E-02,  avg # of iterations =  1.0

     total energy              =    -619.71395044 Ry
     estimated scf accuracy    <       0.39744944 Ry

[...]

     c_bands:  2 eigenvalues not converged
     ethr =  1.29E-05,  avg # of iterations = 20.0

[...]

     c_bands:  1 eigenvalues not converged
     ethr =  9.11E-06,  avg # of iterations = 20.0

[...]

     total energy              =    -619.85329548 Ry
     estimated scf accuracy    <       0.00000153 Ry

     iteration # 10     ecut=    30.00 Ry     beta= 0.70
     Davidson diagonalization with overlap

     ethr =  4.11E-09,  avg # of iterations =  4.0

     End of self-consistent calculation

          k = 0.0000 0.0000 0.0000 (  1105 PWs)   bands (ev):

   -25.1771 -24.0641  -9.4357  -8.7419  -8.7418  -7.6222  -7.5180  -7.5180
    -5.0427  -4.1391   3.2486   4.1301   4.1301   5.3214   5.4655   5.4655
     9.1410   9.3213   9.3215   9.5621

     occupation numbers
     1.0000   1.0000   1.0000   1.0000   1.0000   1.0000   1.0000   1.0000
     1.0000   1.0000   1.0000   1.0000   1.0000   1.0000   1.0000   1.0000
    -0.0000  -0.0000  -0.0000  -0.0000

     the Fermi energy is     7.5100 ev

!    total energy              =    -619.85329580 Ry
     estimated scf accuracy    <       0.00000002 Ry
     smearing contrib. (-TS)   =       0.00000000 Ry
     internal energy E=F+TS    =    -619.85329580 Ry

     The total energy is F=E-TS. E is the sum of the following terms:
     one-electron contribution =     -32.55374866 Ry
     hartree contribution      =      30.58011535 Ry
     xc contribution           =     -37.22763052 Ry
     ewald contribution        =    -127.10042361 Ry
     one-center paw contrib.   =    -453.55160837 Ry
      -> PAW hartree energy AE =      73.05248604 Ry
      -> PAW hartree energy PS =     -72.88163692 Ry
      -> PAW xc energy AE      =    -471.66027999 Ry
      -> PAW xc energy PS      =      17.93782251 Ry
      -> total E_H with PAW    =      30.75096447 Ry
      -> total E_XC with PAW   =    -490.95008801 Ry

     convergence has been achieved in  10 iterations

     Forces acting on atoms (cartesian axes, Ry/au):

     atom    1 type  1   force =     0.00000000    0.00000000    0.00000000
     atom    2 type  2   force =     0.00000000    0.00000000    0.00000000
     atom    3 type  3   force =    -0.10715862   -0.03083972   -0.01880056
     atom    4 type  3   force =     0.10715862    0.03083972    0.01880056
     The non-local contrib.  to forces
     atom    1 type  1   force =     0.00000000    0.00000000    0.00000000
     atom    2 type  2   force =     0.00000000    0.00000000    0.00000000
     atom    3 type  3   force =     0.15571215    0.04480288    0.02730648
     atom    4 type  3   force =    -0.15571215   -0.04480288   -0.02730648
     The ionic contribution  to forces
     atom    1 type  1   force =    -0.00000000   -0.00000000   -0.00000000
     atom    2 type  2   force =     0.00000000    0.00000000    0.00000000
     atom    3 type  3   force =     2.87098834    0.82644044    0.50352427
     atom    4 type  3   force =    -2.87098834   -0.82644044   -0.50352427
     The local contribution  to forces
     atom    1 type  1   force =    -0.00009778   -0.00002615   -0.00001608
     atom    2 type  2   force =     0.00012231   -0.00011878   -0.00005380
     atom    3 type  3   force =    -3.12486916   -0.89937235   -0.54797945
     atom    4 type  3   force =     3.12493382    0.89958826    0.54816856
     The core correction contribution to forces
     atom    1 type  1   force =     0.00000103    0.00000035    0.00000083
     atom    2 type  2   force =     0.00000000   -0.00000008   -0.00000003
     atom    3 type  3   force =    -0.00903580   -0.00259620   -0.00158183
     atom    4 type  3   force =     0.00903588    0.00260192    0.00158774
     The Hubbard contrib.    to forces
     atom    1 type  1   force =     0.00000000    0.00000000    0.00000000
     atom    2 type  2   force =     0.00000000    0.00000000    0.00000000
     atom    3 type  3   force =     0.00000000    0.00000000    0.00000000
     atom    4 type  3   force =     0.00000000    0.00000000    0.00000000
     The SCF correction term to forces
     atom    1 type  1   force =     0.00015114    0.00002824    0.00004463
     atom    2 type  2   force =    -0.00015469    0.00007120    0.00002429
     atom    3 type  3   force =     0.00005514   -0.00006118   -0.00002472
     atom    4 type  3   force =    -0.00010129   -0.00005382   -0.00007967

     Total force =     0.159922     Total SCF correction =     0.000287

     Computing stress (Cartesian axis) and pressure

          total   stress  (Ry/bohr**3)                   (kbar)     P=        9.35
  -0.00063708  -0.00032072  -0.00019544          -93.72      -47.18      -28.75
  -0.00032072   0.00038488  -0.00005631          -47.18       56.62       -8.28
  -0.00019544  -0.00005631   0.00044282          -28.75       -8.28       65.14

     kinetic stress (kbar)   6768.73    -91.27    -55.61
                              -91.27   7059.49    -16.02
                              -55.61    -16.02   7076.01

     local   stress (kbar)  -2110.74    723.66    440.90
                              723.66  -4416.30    126.92
                              440.90    126.92  -4547.32

     nonloc. stress (kbar)   4452.20      2.06      1.25
                                2.06   4445.61      0.36
                                1.25      0.36   4445.25

     hartree stress (kbar)   1290.13   -272.43   -165.98
                             -272.43   2158.11    -47.78
                             -165.98    -47.78   2207.43

     exc-cor stress (kbar)    186.69     -0.71     -0.43
                               -0.71    188.95     -0.12
                               -0.43     -0.12    189.08

     corecor stress (kbar)  -1950.67      1.00      0.61
                                1.00  -1953.87      0.18
                                0.61      0.18  -1954.06

     ewald   stress (kbar)  -8730.05   -409.49   -249.49
                             -409.49  -7425.38    -71.82
                             -249.49    -71.82  -7351.26

     hubbard stress (kbar)      0.00      0.00      0.00
                                0.00      0.00      0.00
                                0.00      0.00      0.00

     DFT-D   stress (kbar)      0.00      0.00      0.00
                                0.00      0.00      0.00
                                0.00      0.00      0.00

     XDM     stress (kbar)      0.00      0.00      0.00
                                0.00      0.00      0.00
                                0.00      0.00      0.00

     dft-nl  stress (kbar)      0.00      0.00      0.00
                                0.00      0.00      0.00
                                0.00      0.00      0.00

     TS-vdW  stress (kbar)      0.00      0.00      0.00
                                0.00      0.00      0.00
                                0.00      0.00      0.00

[...]

                                0.00      0.00      0.00

     Writing all to output data dir new_calculations/myprefix.save/

     General routines

     Parallel routines

     PAW routines

   This run was terminated on:   4:33:47  21May2023

   JOB DONE.