     Program PWSCF v.7.0 starts on 21May2023 at  0: 2: 8

     Reading input from espresso_11691.pwi
Warning: card &CELL ignored
Warning: card / ignored

     Current dimensions of program PWSCF are:
     Max number of different atomic species (ntypx) = 10
     Max number of k-points (npk) =  40000
     Max angular momentum in pseudopotentials (lmaxx) =  4

     gamma-point specific algorithms are used
     Message from routine setup:
     using ibrav=0 with symmetry is DISCOURAGED, use correct ibrav instead

     Subspace diagonalization in iterative solution of the eigenvalue problem:
     a serial algorithm will be used

     Using Slab Decomposition

     bravais-lattice index     =            0
     lattice parameter (alat)  =      11.3662  a.u.
     unit-cell volume          =     967.8639 (a.u.)^3
     number of atoms/cell      =            6
     number of atomic types    =            2
     number of electrons       =        96.00
     number of Kohn-Sham states=           58
     kinetic-energy cutoff     =      30.0000  Ry
     charge density cutoff     =     240.0000  Ry
     scf convergence threshold =      1.0E-06
     mixing beta               =       0.7000
     number of iterations used =            8  plain     mixing
     Exchange-correlation= PBE
                           (   1   4   3   4   0   0   0)

     celldm(1)=  11.366241  celldm(2)=   0.000000  celldm(3)=   0.000000
     celldm(4)=   0.000000  celldm(5)=   0.000000  celldm(6)=   0.000000

     crystal axes: (cart. coord. in units of alat)
               a(1) = (   1.000000   0.000000   0.000000 )
               a(2) = (  -0.053552   0.998565   0.000000 )
               a(3) = (  -0.254173  -0.706901   0.660066 )

     reciprocal axes: (cart. coord. in units 2 pi/alat)
               b(1) = (  1.000000  0.053629  0.442506 )
               b(2) = (  0.000000  1.001437  1.072494 )
               b(3) = (  0.000000  0.000000  1.515000 )

     PseudoPot. # 1 for Ca read from file:
     /home/pragov/projects/rrg-bengioy-ad/pragov/crystal_structure_design/SSSP/Ca_pbe_v1.uspp.F.UPF
     MD5 check sum: 403a4c14b9e4d4dfdc3024c9a3812218
     Pseudo is Ultrasoft + core correction, Zval = 10.0
     Generated by new atomic code, or converted to UPF format
     Using radial grid of  845 points,  6 beta functions with:
                l(1) =   0
                l(2) =   0
                l(3) =   1
                l(4) =   1
                l(5) =   2
                l(6) =   2
     Q(r) pseudized with  8 coefficients,  rinner =    1.500   1.500   1.500
                                                       1.500   1.500

     PseudoPot. # 2 for Ag read from file:
     /home/pragov/projects/rrg-bengioy-ad/pragov/crystal_structure_design/SSSP/Ag_ONCV_PBE-1.0.oncvpsp.upf
     MD5 check sum: 94f47bd0669c641108e45594df92fabc
     Pseudo is Norm-conserving, Zval = 19.0
     Generated using ONCVPSP code by D. R. Hamann
     Using radial grid of 1398 points,  6 beta functions with:
                l(1) =   0
                l(2) =   0
                l(3) =   1
                l(4) =   1
                l(5) =   2
                l(6) =   2

     atomic species   valence    mass     pseudopotential
        Ca            10.00    40.07800     Ca( 1.00)
        Ag            19.00   107.86820     Ag( 1.00)

      2 Sym. Ops., with inversion, found

                                    s                        frac. trans.

      isym =  1     identity

 cryst.   s( 1) = (     1          0          0      )
                  (     0          1          0      )
                  (     0          0          1      )

 cart.    s( 1) = (  1.0000000 -0.0000000  0.0000000 )
                  (  0.0000000  1.0000000  0.0000000 )
                  (  0.0000000  0.0000000  1.0000000 )

      isym =  2     inversion

 cryst.   s( 2) = (    -1          0          0      )
                  (     0         -1          0      )
                  (     0          0         -1      )

 cart.    s( 2) = ( -1.0000000  0.0000000 -0.0000000 )
                  (  0.0000000 -1.0000000 -0.0000000 )
                  (  0.0000000  0.0000000 -1.0000000 )

   Cartesian axes

     site n.     atom                  positions (alat units)
         1           Ca  tau(   1) = (   0.0774238   0.0164049   0.4950495  )
         2           Ca  tau(   2) = (   0.6148514   0.2752593   0.1650165  )
         3           Ag  tau(   3) = (   0.1286299   0.5196379   0.2965578  )
         4           Ag  tau(   4) = (   0.5636453  -0.2279738   0.3635082  )
         5           Ag  tau(   5) = (  -0.1390905  -0.5097232   0.6265907  )
         6           Ag  tau(   6) = (   0.8313657   0.8013874   0.0334752  )

   Crystallographic axes

     site n.     atom                  positions (cryst. coord.)
         1           Ca  tau(   1) = (  0.2973660  0.5473660  0.7500000  )
         2           Ca  tau(   2) = (  0.7026340  0.4526340  0.2500000  )
         3           Ag  tau(   3) = (  0.2877260  0.8384410  0.4492850  )
         4           Ag  tau(   4) = (  0.7122740  0.1615590  0.5507150  )
         5           Ag  tau(   5) = (  0.1108440  0.1615590  0.9492850  )
         6           Ag  tau(   6) = (  0.8891560  0.8384410  0.0507150  )

     number of k points=     1  Methfessel-Paxton smearing, width (Ry)=  0.0010
                       cart. coord. in units 2pi/alat
        k(    1) = (   0.0000000   0.0000000   0.0000000), wk =   2.0000000

                       cryst. coord.
        k(    1) = (   0.0000000   0.0000000   0.0000000), wk =   2.0000000

     Initial potential from superposition of free atoms

     starting charge      95.9879, renormalised to      96.0000
     Starting wfcs are   60 randomized atomic wfcs

     Self-consistent Calculation

     iteration #  1     ecut=    30.00 Ry     beta= 0.70
     Davidson diagonalization with overlap

     ethr =  1.00E-02,  avg # of iterations =  4.0

     Threshold (ethr) on eigenvalues was too large:
     Diagonalizing with lowered threshold

     Davidson diagonalization with overlap

[...]

     total energy              =   -1298.09941386 Ry
     estimated scf accuracy    <       0.19644511 Ry

[...]

     total energy              =   -1298.14439871 Ry
     estimated scf accuracy    <       0.00000438 Ry

     iteration #  7     ecut=    30.00 Ry     beta= 0.70
     Davidson diagonalization with overlap

     ethr =  4.56E-09,  avg # of iterations =  2.0

     End of self-consistent calculation

          k = 0.0000 0.0000 0.0000 (  1340 PWs)   bands (ev):

   -81.8679 -81.8610 -81.8562 -81.8535 -45.0169 -45.0163 -44.9329 -44.9320
   -44.9297 -44.9042 -44.8848 -44.8692 -44.8110 -44.7824 -44.7684 -44.7653
   -30.1824 -30.1722 -11.2538 -11.2532 -11.1968 -11.1122 -11.0925 -11.0898
     5.3367   6.1004   6.1128   6.1609   6.1834   6.3721   6.4260   6.5285
     6.6375   6.7501   6.8964   6.9355   6.9502   7.0597   7.0840   7.3284
     7.3517   7.6265   7.9460   7.9842   8.0798  10.1218  10.8411  11.8580
    12.2091  12.4821  12.6949  13.0010  13.3168  14.6205  15.1830  15.3709
    15.5316  15.9639

     occupation numbers
     1.0000   1.0000   1.0000   1.0000   1.0000   1.0000   1.0000   1.0000
     1.0000   1.0000   1.0000   1.0000   1.0000   1.0000   1.0000   1.0000
     1.0000   1.0000   1.0000   1.0000   1.0000   1.0000   1.0000   1.0000
     1.0000   1.0000   1.0000   1.0000   1.0000   1.0000   1.0000   1.0000
     1.0000   1.0000   1.0000   1.0000   1.0000   1.0000   1.0000   1.0000
     1.0000   1.0000   1.0000   1.0000   1.0000   1.0000   1.0000   1.0000
    -0.0000  -0.0000  -0.0000  -0.0000  -0.0000  -0.0000  -0.0000  -0.0000
    -0.0000  -0.0000

     the Fermi energy is    12.0761 ev

!    total energy              =   -1298.14439947 Ry
     estimated scf accuracy    <       0.00000029 Ry
     smearing contrib. (-TS)   =       0.00000000 Ry
     internal energy E=F+TS    =   -1298.14439947 Ry

     The total energy is F=E-TS. E is the sum of the following terms:
     one-electron contribution =    -743.03456519 Ry
     hartree contribution      =     395.57666270 Ry
     xc contribution           =    -131.73853664 Ry
     ewald contribution        =    -818.94796033 Ry

     convergence has been achieved in   7 iterations

     Forces acting on atoms (cartesian axes, Ry/au):

     atom    1 type  1   force =     0.01473361    0.01556171   -0.00000592
     atom    2 type  1   force =    -0.01473361   -0.01556171    0.00000592
     atom    3 type  2   force =    -0.01728293   -0.04004104    0.00962645
     atom    4 type  2   force =     0.01728293    0.04004104   -0.00962645
     atom    5 type  2   force =     0.03904992    0.01939995    0.00963543
     atom    6 type  2   force =    -0.03904992   -0.01939995   -0.00963543
     The non-local contrib.  to forces
     atom    1 type  1   force =    -0.09513700   -0.10035671   -0.00000783
     atom    2 type  1   force =     0.09513700    0.10035671    0.00000783
     atom    3 type  2   force =    -0.06548833    0.03340477   -0.04528438
     atom    4 type  2   force =     0.06548833   -0.03340477    0.04528438
     atom    5 type  2   force =    -0.03687122    0.06357477   -0.04528633
     atom    6 type  2   force =     0.03687122   -0.06357477    0.04528633
     The ionic contribution  to forces
     atom    1 type  1   force =     2.88041520    3.03902704   -0.00000000
     atom    2 type  1   force =    -2.88041520   -3.03902704   -0.00000000
     atom    3 type  2   force =     6.88430327   -4.20169149    5.06609050
     atom    4 type  2   force =    -6.88430327    4.20169149   -5.06609049
     atom    5 type  2   force =     4.56432841   -6.64941720    5.06609050
     atom    6 type  2   force =    -4.56432841    6.64941720   -5.06609050
     The local contribution  to forces
     atom    1 type  1   force =    -2.77510861   -2.92784891   -0.00001756
     atom    2 type  1   force =     2.77498785    2.92770720    0.00004714
     atom    3 type  2   force =    -6.83430339    4.12996263   -5.01109429
     atom    4 type  2   force =     6.83426265   -4.12968378    5.01086787
     atom    5 type  2   force =    -4.49003104    6.60293494   -5.01093949
     atom    6 type  2   force =     4.49001127   -6.60311952    5.01102897
     The core correction contribution to forces
     atom    1 type  1   force =     0.00431302    0.00455089   -0.00000023
     atom    2 type  1   force =    -0.00431687   -0.00455505   -0.00000033
     atom    3 type  2   force =     0.00000000    0.00000000    0.00000000
     atom    4 type  2   force =     0.00000000    0.00000000    0.00000000
     atom    5 type  2   force =     0.00000000    0.00000000    0.00000000
     atom    6 type  2   force =     0.00000000    0.00000000    0.00000000
     The Hubbard contrib.    to forces
     atom    1 type  1   force =     0.00000000    0.00000000    0.00000000
     atom    2 type  1   force =     0.00000000    0.00000000    0.00000000
     atom    3 type  2   force =     0.00000000    0.00000000    0.00000000
     atom    4 type  2   force =     0.00000000    0.00000000    0.00000000
     atom    5 type  2   force =     0.00000000    0.00000000    0.00000000
     atom    6 type  2   force =     0.00000000    0.00000000    0.00000000
     The SCF correction term to forces
     atom    1 type  1   force =     0.00022305    0.00016092    0.00001841
     atom    2 type  1   force =    -0.00015433   -0.00007200   -0.00005001
     atom    3 type  2   force =    -0.00180488   -0.00172700   -0.00007657
     atom    4 type  2   force =     0.00182484    0.00142803    0.00032060
     atom    5 type  2   force =     0.00163912    0.00232442   -0.00023147
     atom    6 type  2   force =    -0.00158864   -0.00210588    0.00013753

     Total force =     0.094319     Total SCF correction =     0.005191

     Computing stress (Cartesian axis) and pressure

          total   stress  (Ry/bohr**3)                   (kbar)     P=     -823.33
  -0.00529418  -0.00003317   0.00074274         -778.80       -4.88      109.26
  -0.00003317  -0.00529786  -0.00070392           -4.88     -779.34     -103.55
   0.00074274  -0.00070392  -0.00619859          109.26     -103.55     -911.84

     kinetic stress (kbar)  42794.33    -58.33    303.98
                              -58.33  42788.08   -288.12
                              303.98   -288.12  42466.61

     local   stress (kbar) -13685.67  -4340.00   5806.22
                            -4340.00 -14151.26  -5503.14
                             5806.22  -5503.14 -16887.89

     nonloc. stress (kbar)   -852.03     29.21    -30.49
                               29.21   -848.90     28.90
                              -30.49     28.90   -841.30

     hartree stress (kbar)  19506.80   1741.02  -2433.71
                             1741.02  19693.61   2306.65
                            -2433.71   2306.65  20923.06

     exc-cor stress (kbar)  -5784.00      1.56      0.70
                                1.56  -5783.83     -0.66
                                0.70     -0.66  -5786.35

     corecor stress (kbar)   -516.88     -0.27     -0.49
                               -0.27   -516.91      0.46
                               -0.49      0.46   -516.01

     ewald   stress (kbar) -42241.35   2621.93  -3536.95
                             2621.93 -41960.12   3352.35
                            -3536.95   3352.35 -40269.96

     hubbard stress (kbar)      0.00      0.00      0.00
                                0.00      0.00      0.00
                                0.00      0.00      0.00

     DFT-D   stress (kbar)      0.00      0.00      0.00
                                0.00      0.00      0.00
                                0.00      0.00      0.00

     XDM     stress (kbar)      0.00      0.00      0.00
                                0.00      0.00      0.00
                                0.00      0.00      0.00

     dft-nl  stress (kbar)      0.00      0.00      0.00
                                0.00      0.00      0.00
                                0.00      0.00      0.00

     TS-vdW  stress (kbar)      0.00      0.00      0.00
                                0.00      0.00      0.00
                                0.00      0.00      0.00

[...]

                                0.00      0.00      0.00

     Writing all to output data dir new_calculations/myprefix.save/

     General routines

     Parallel routines

   This run was terminated on:   0: 3: 2  21May2023

   JOB DONE.