     Program PWSCF v.7.0 starts on 20May2023 at  4:32: 4

     Reading input from espresso_6104.pwi
Warning: card &CELL ignored
Warning: card / ignored

     Current dimensions of program PWSCF are:
     Max number of different atomic species (ntypx) = 10
     Max number of k-points (npk) =  40000
     Max angular momentum in pseudopotentials (lmaxx) =  4
     file Al.pbe-n-kjpaw_psl.1.0.0.UPF: wavefunction(s)  3S 3P renormalized

     gamma-point specific algorithms are used
     Message from routine setup:
     using ibrav=0 with symmetry is DISCOURAGED, use correct ibrav instead

     Subspace diagonalization in iterative solution of the eigenvalue problem:
     a serial algorithm will be used

     Using Slab Decomposition

     bravais-lattice index     =            0
     lattice parameter (alat)  =       7.9923  a.u.
     unit-cell volume          =     685.6226 (a.u.)^3
     number of atoms/cell      =            6
     number of atomic types    =            4
     number of electrons       =        52.00
     number of Kohn-Sham states=           31
     kinetic-energy cutoff     =      30.0000  Ry
     charge density cutoff     =     240.0000  Ry
     scf convergence threshold =      1.0E-06
     mixing beta               =       0.7000
     number of iterations used =            8  plain     mixing
     Exchange-correlation= PBE
                           (   1   4   3   4   0   0   0)

     celldm(1)=   7.992306  celldm(2)=   0.000000  celldm(3)=   0.000000
     celldm(4)=   0.000000  celldm(5)=   0.000000  celldm(6)=   0.000000

     crystal axes: (cart. coord. in units of alat)
               a(1) = (   1.000000   0.000000   0.000000 )
               a(2) = (   0.000000   1.000000   0.000000 )
               a(3) = (   0.000000   0.000000   1.342978 )

     reciprocal axes: (cart. coord. in units 2 pi/alat)
               b(1) = (  1.000000  0.000000  0.000000 )
               b(2) = (  0.000000  1.000000  0.000000 )
               b(3) = (  0.000000  0.000000  0.744614 )

     PseudoPot. # 1 for La read from file:
     /home/pragov/projects/rrg-bengioy-ad/pragov/crystal_structure_design/SSSP/La.GGA-PBE-paw-v1.0.UPF
     MD5 check sum: 436541e95c1ad8901025bd0b0ed42ae2
     Pseudo is Projector augmented-wave + core cor, Zval = 11.0
     Generated using ATOMPAW code
     Shape of augmentation charge: BESSEL
     Using radial grid of 1101 points,  8 beta functions with:
                l(1) =   0
                l(2) =   0
                l(3) =   1
                l(4) =   1
                l(5) =   2
                l(6) =   2
                l(7) =   3
                l(8) =   3
     Q(r) pseudized with 0 coefficients

     PseudoPot. # 2 for Al read from file:
     /home/pragov/projects/rrg-bengioy-ad/pragov/crystal_structure_design/SSSP/Al.pbe-n-kjpaw_psl.1.0.0.UPF
     MD5 check sum: cfc449ca30b5f3223ec38ddd88ac046d
     Pseudo is Projector augmented-wave + core cor, Zval =  3.0
     Generated using "atomic" code by A. Dal Corso  v.5.1
     Shape of augmentation charge: PSQ
     Using radial grid of 1135 points,  6 beta functions with:
                l(1) =   0
                l(2) =   0
                l(3) =   1
                l(4) =   1
                l(5) =   2
                l(6) =   2
     Q(r) pseudized with 0 coefficients

     PseudoPot. # 3 for B  read from file:
     /home/pragov/projects/rrg-bengioy-ad/pragov/crystal_structure_design/SSSP/b_pbe_v1.4.uspp.F.UPF
     MD5 check sum: cc6de2960df11db49a60e589f9ebb39b
     Pseudo is Ultrasoft + core correction, Zval =  3.0
     Generated by new atomic code, or converted to UPF format
     Using radial grid of  781 points,  4 beta functions with:
                l(1) =   0
                l(2) =   0
                l(3) =   1
                l(4) =   1
     Q(r) pseudized with  8 coefficients,  rinner =    1.100   1.100   1.100

     PseudoPot. # 4 for Ru read from file:
     /home/pragov/projects/rrg-bengioy-ad/pragov/crystal_structure_design/SSSP/Ru_ONCV_PBE-1.0.oncvpsp.upf
     MD5 check sum: be037bb81c227cfb9b1461a9f099f4bd
     Pseudo is Norm-conserving, Zval = 16.0
     Generated using ONCVPSP code by D. R. Hamann
     Using radial grid of 1458 points,  6 beta functions with:
                l(1) =   0
                l(2) =   0
                l(3) =   1
                l(4) =   1
                l(5) =   2
                l(6) =   2

     atomic species   valence    mass     pseudopotential
        La            11.00   138.90547     La( 1.00)
        Al             3.00    26.98154     Al( 1.00)
        B              3.00    10.81000     B ( 1.00)
        Ru            16.00   101.07000     Ru( 1.00)

     16 Sym. Ops., with inversion, found

                                    s                        frac. trans.

      isym =  1     identity

 cryst.   s( 1) = (     1          0          0      )
                  (     0          1          0      )
                  (     0          0          1      )

 cart.    s( 1) = (  1.0000000  0.0000000  0.0000000 )
                  (  0.0000000  1.0000000  0.0000000 )
                  (  0.0000000  0.0000000  1.0000000 )

      isym =  2     180 deg rotation - cart. axis [0,0,1]

[...]

      isym =  8      90 deg rotation - cart. axis [0,0,1]

[...]

      isym =  9     inversion

 cryst.   s( 9) = (    -1          0          0      )
                  (     0         -1          0      )
                  (     0          0         -1      )

 cart.    s( 9) = ( -1.0000000  0.0000000  0.0000000 )
                  (  0.0000000 -1.0000000  0.0000000 )
                  (  0.0000000  0.0000000 -1.0000000 )

      isym = 10     inv. 180 deg rotation - cart. axis [0,0,1]

 cryst.   s(10) = (     1          0          0      )
                  (     0          1          0      )
                  (     0          0         -1      )

 cart.    s(10) = (  1.0000000  0.0000000  0.0000000 )
                  (  0.0000000  1.0000000  0.0000000 )
                  (  0.0000000  0.0000000 -1.0000000 )

[...]

      isym = 16     inv.  90 deg rotation - cart. axis [0,0,1]

 cryst.   s(16) = (     0         -1          0      )
                  (     1          0          0      )
                  (     0          0         -1      )

 cart.    s(16) = (  0.0000000  1.0000000  0.0000000 )
                  ( -1.0000000  0.0000000  0.0000000 )
                  (  0.0000000  0.0000000 -1.0000000 )

   Cartesian axes

     site n.     atom                  positions (alat units)
         1           La  tau(   1) = (   0.0000000   0.0000000   0.6714889  )
         2           Al  tau(   2) = (   0.5000000   0.5000000   1.0015526  )
         3           Al  tau(   3) = (   0.5000000   0.5000000   0.3414253  )
         4           B   tau(   4) = (   0.0000000   0.0000000   0.0000000  )
         5           Ru  tau(   5) = (   0.5000000   0.0000000   0.0000000  )
         6           Ru  tau(   6) = (   0.0000000   0.5000000   0.0000000  )

   Crystallographic axes

     site n.     atom                  positions (cryst. coord.)
         1           La  tau(   1) = (  0.0000000  0.0000000  0.5000000  )
         2           Al  tau(   2) = (  0.5000000  0.5000000  0.7457700  )
         3           Al  tau(   3) = (  0.5000000  0.5000000  0.2542300  )
         4           B   tau(   4) = (  0.0000000  0.0000000  0.0000000  )
         5           Ru  tau(   5) = (  0.5000000  0.0000000  0.0000000  )
         6           Ru  tau(   6) = (  0.0000000  0.5000000  0.0000000  )

     number of k points=     1  Methfessel-Paxton smearing, width (Ry)=  0.0010
                       cart. coord. in units 2pi/alat
        k(    1) = (   0.0000000   0.0000000   0.0000000), wk =   2.0000000

                       cryst. coord.
        k(    1) = (   0.0000000   0.0000000   0.0000000), wk =   2.0000000

     Initial potential from superposition of free atoms

     starting charge      51.9855, renormalised to      52.0000
     Starting wfcs are   64 randomized atomic wfcs
     Checking if some PAW data can be deallocated...

     Self-consistent Calculation

     iteration #  1     ecut=    30.00 Ry     beta= 0.70
     Davidson diagonalization with overlap

     ethr =  1.00E-02,  avg # of iterations =  2.0

     negative rho (up, down):  8.339E-07 0.000E+00

     total energy              =    -919.43172012 Ry
     estimated scf accuracy    <       1.48490040 Ry

[...]

     c_bands:  1 eigenvalues not converged
     ethr =  7.03E-08,  avg # of iterations = 20.0

[...]

     total energy              =    -920.44281165 Ry
     estimated scf accuracy    <       0.00000212 Ry

     iteration # 18     ecut=    30.00 Ry     beta= 0.70
     Davidson diagonalization with overlap

     ethr =  4.07E-09,  avg # of iterations =  5.0

     End of self-consistent calculation

          k = 0.0000 0.0000 0.0000 (   942 PWs)   bands (ev):

   -58.6363 -58.6041 -28.9377 -28.9372 -28.7081 -28.7077 -28.3567 -28.3133
   -19.0597  -2.8932  -2.7394  -2.7392   3.9305   5.9680   8.5318   9.7237
    10.2442  10.2444  10.3223  11.4956  12.2689  12.2690  12.4962  12.7983
    12.7983  13.0274  14.1217  14.5619  14.9232  14.9956  14.9956

     occupation numbers
     1.0000   1.0000   1.0000   1.0000   1.0000   1.0000   1.0000   1.0000
     1.0000   1.0000   1.0000   1.0000   1.0000   1.0000   1.0000   1.0000
     1.0000   1.0000   1.0000   1.0000   1.0000   1.0000   1.0000   1.0000
     1.0000   1.0000  -0.0000  -0.0000  -0.0000  -0.0000  -0.0000

     the Fermi energy is    13.9769 ev

!    total energy              =    -920.44281198 Ry
     estimated scf accuracy    <       0.00000070 Ry
     smearing contrib. (-TS)   =       0.00000000 Ry
     internal energy E=F+TS    =    -920.44281198 Ry

     The total energy is F=E-TS. E is the sum of the following terms:
     one-electron contribution =    -226.89914426 Ry
     hartree contribution      =     138.19922231 Ry
     xc contribution           =     -56.76019640 Ry
     ewald contribution        =    -307.51437859 Ry
     one-center paw contrib.   =    -467.46831505 Ry
      -> PAW hartree energy AE =      38.40839968 Ry
      -> PAW hartree energy PS =     -38.43650547 Ry
      -> PAW xc energy AE      =    -478.76875557 Ry
      -> PAW xc energy PS      =      11.32854631 Ry
      -> total E_H with PAW    =     138.17111652 Ry
      -> total E_XC with PAW   =    -524.20040566 Ry

     convergence has been achieved in  18 iterations

     Forces acting on atoms (cartesian axes, Ry/au):

     atom    1 type  1   force =     0.00000000    0.00000000    0.00000000
     atom    2 type  2   force =     0.00000000    0.00000000    0.01680802
     atom    3 type  2   force =     0.00000000    0.00000000   -0.01680802
     atom    4 type  3   force =     0.00000000    0.00000000    0.00000000
     atom    5 type  4   force =     0.00000000    0.00000000    0.00000000
     atom    6 type  4   force =     0.00000000    0.00000000    0.00000000
     The non-local contrib.  to forces
     atom    1 type  1   force =     0.00000000    0.00000000    0.00000000
     atom    2 type  2   force =     0.00000000    0.00000000   -0.06039782
     atom    3 type  2   force =     0.00000000    0.00000000    0.06039782
     atom    4 type  3   force =     0.00000000    0.00000000    0.00000000
     atom    5 type  4   force =     0.00000000    0.00000000    0.00000000
     atom    6 type  4   force =     0.00000000    0.00000000    0.00000000
     The ionic contribution  to forces
     atom    1 type  1   force =    -0.00000000   -0.00000000    0.00000000
     atom    2 type  2   force =     0.00000000    0.00000000   -5.61250635
     atom    3 type  2   force =     0.00000000    0.00000000    5.61250635
     atom    4 type  3   force =    -0.00000000   -0.00000000   -0.00000000
     atom    5 type  4   force =     0.00000000   -0.00000000   -0.00000000
     atom    6 type  4   force =    -0.00000000    0.00000000   -0.00000000
     The local contribution  to forces
     atom    1 type  1   force =     0.00004322    0.00011124    0.00037552
     atom    2 type  2   force =     0.00000044   -0.00004563    5.68092080
     atom    3 type  2   force =     0.00001436   -0.00003424   -5.68093325
     atom    4 type  3   force =    -0.00007219    0.00006840   -0.00005287
     atom    5 type  4   force =     0.00034365    0.00059512    0.00010343
     atom    6 type  4   force =    -0.00003237   -0.00053295   -0.00006611
     The core correction contribution to forces
     atom    1 type  1   force =     0.00000003    0.00000003    0.00000022
     atom    2 type  2   force =     0.00000007   -0.00000156    0.00857550
     atom    3 type  2   force =     0.00000060   -0.00000086   -0.00857610
     atom    4 type  3   force =    -0.00000150   -0.00000009   -0.00000054
     atom    5 type  4   force =     0.00000000    0.00000000    0.00000000
     atom    6 type  4   force =     0.00000000    0.00000000    0.00000000
     The Hubbard contrib.    to forces
     atom    1 type  1   force =     0.00000000    0.00000000    0.00000000
     atom    2 type  2   force =     0.00000000    0.00000000    0.00000000
     atom    3 type  2   force =     0.00000000    0.00000000    0.00000000
     atom    4 type  3   force =     0.00000000    0.00000000    0.00000000
     atom    5 type  4   force =     0.00000000    0.00000000    0.00000000
     atom    6 type  4   force =     0.00000000    0.00000000    0.00000000
     The SCF correction term to forces
     atom    1 type  1   force =    -0.00000874   -0.00005439   -0.00024384
     atom    2 type  2   force =     0.00000070    0.00002830    0.00021245
     atom    3 type  2   force =    -0.00001148    0.00002450   -0.00020628
     atom    4 type  3   force =     0.00003208   -0.00006983    0.00003310
     atom    5 type  4   force =    -0.00031481   -0.00055450   -0.00013541
     atom    6 type  4   force =     0.00005625    0.00060124    0.00004709

     Total force =     0.023770     Total SCF correction =     0.000975

     Computing stress (Cartesian axis) and pressure

          total   stress  (Ry/bohr**3)                   (kbar)     P=       87.95
   0.00092995   0.00000000   0.00000000          136.80        0.00        0.00
   0.00000000   0.00092995   0.00000000            0.00      136.80        0.00
   0.00000000   0.00000000  -0.00006637            0.00        0.00       -9.76

     kinetic stress (kbar)  20821.16      0.00      0.00
                                0.00  20821.16      0.00
                                0.00      0.00  21372.33

     local   stress (kbar) -27265.04     -0.02     -0.02
                               -0.02 -27265.19      0.04
                               -0.02      0.04  20542.79

     nonloc. stress (kbar)   6257.43      0.00      0.00
                                0.00   6257.43      0.00
                                0.00      0.00   6100.49

     hartree stress (kbar)  17025.96     -0.00      0.01
                               -0.00  17026.12     -0.01
                                0.01     -0.01  -4400.48

     exc-cor stress (kbar)  -3081.41     -0.00     -0.00
                               -0.00  -3081.41     -0.00
                               -0.00     -0.00  -3088.23

     corecor stress (kbar)   -603.04     -0.00      0.00
                               -0.00   -603.04     -0.00
                                0.00     -0.00   -593.86

     ewald   stress (kbar) -13018.27     -0.00     -0.00
                               -0.00 -13018.27      0.00
                               -0.00      0.00 -39942.80

     hubbard stress (kbar)      0.00      0.00      0.00
                                0.00      0.00      0.00
                                0.00      0.00      0.00

     DFT-D   stress (kbar)      0.00      0.00      0.00
                                0.00      0.00      0.00
                                0.00      0.00      0.00

     XDM     stress (kbar)      0.00      0.00      0.00
                                0.00      0.00      0.00
                                0.00      0.00      0.00

     dft-nl  stress (kbar)      0.00      0.00      0.00
                                0.00      0.00      0.00
                                0.00      0.00      0.00

     TS-vdW  stress (kbar)      0.00      0.00      0.00
                                0.00      0.00      0.00
                                0.00      0.00      0.00

[...]

                                0.00      0.00      0.00

     Writing all to output data dir new_calculations/myprefix.save/

     General routines

     Parallel routines

     PAW routines

   This run was terminated on:   4:32:34  20May2023

   JOB DONE.