     Program PWSCF v.7.0 starts on 20May2023 at 23: 4:29

     Reading input from espresso_17664.pwi
Warning: card &CELL ignored
Warning: card / ignored

     Current dimensions of program PWSCF are:
     Max number of different atomic species (ntypx) = 10
     Max number of k-points (npk) =  40000
     Max angular momentum in pseudopotentials (lmaxx) =  4

     gamma-point specific algorithms are used
     Message from routine setup:
     using ibrav=0 with symmetry is DISCOURAGED, use correct ibrav instead

     Subspace diagonalization in iterative solution of the eigenvalue problem:
     a serial algorithm will be used

     Using Slab Decomposition

     bravais-lattice index     =            0
     lattice parameter (alat)  =       7.5782  a.u.
     unit-cell volume          =    1211.5750 (a.u.)^3
     number of atoms/cell      =           12
     number of atomic types    =            3
     number of electrons       =       132.00
     number of Kohn-Sham states=           79
     kinetic-energy cutoff     =      30.0000  Ry
     charge density cutoff     =     240.0000  Ry
     scf convergence threshold =      1.0E-06
     mixing beta               =       0.7000
     number of iterations used =            8  plain     mixing
     Exchange-correlation=  SLA  PW   PBX  PBC
                           (   1   4   3   4   0   0   0)

     celldm(1)=   7.578165  celldm(2)=   0.000000  celldm(3)=   0.000000
     celldm(4)=   0.000000  celldm(5)=   0.000000  celldm(6)=   0.000000

     crystal axes: (cart. coord. in units of alat)
               a(1) = (   1.000000   0.000000   0.000000 )
               a(2) = (   0.000000   1.605669   0.000000 )
               a(3) = (   0.000000   0.000000   1.733812 )

     reciprocal axes: (cart. coord. in units 2 pi/alat)
               b(1) = (  1.000000  0.000000  0.000000 )
               b(2) = (  0.000000  0.622793  0.000000 )
               b(3) = (  0.000000  0.000000  0.576764 )

     PseudoPot. # 1 for Sc read from file:
     /home/pragov/projects/rrg-bengioy-ad/pragov/crystal_structure_design/SSSP/Sc_ONCV_PBE-1.0.oncvpsp.upf
     MD5 check sum: e21af8023abb52e52cb7cd3133e4a229
     Pseudo is Norm-conserving, Zval = 11.0
     Generated using ONCVPSP code by D. R. Hamann
     Using radial grid of 1662 points,  6 beta functions with:
                l(1) =   0
                l(2) =   0
                l(3) =   1
                l(4) =   1
                l(5) =   2
                l(6) =   2

     PseudoPot. # 2 for Si read from file:
     /home/pragov/projects/rrg-bengioy-ad/pragov/crystal_structure_design/SSSP/Si.pbe-n-rrkjus_psl.1.0.0.UPF
     MD5 check sum: 0b0bb1205258b0d07b9f9672cf965d36
     Pseudo is Ultrasoft + core correction, Zval =  4.0
     Generated using "atomic" code by A. Dal Corso  v.5.1
     Using radial grid of 1141 points,  6 beta functions with:
                l(1) =   0
                l(2) =   0
                l(3) =   1
                l(4) =   1
                l(5) =   2
                l(6) =   2
     Q(r) pseudized with 0 coefficients

     PseudoPot. # 3 for Ni read from file:
     /home/pragov/projects/rrg-bengioy-ad/pragov/crystal_structure_design/SSSP/ni_pbe_v1.4.uspp.F.UPF
     MD5 check sum: 1ee80287db30b12d2bc1f57a5b5d6409
     Pseudo is Ultrasoft + core correction, Zval = 18.0
     Generated by new atomic code, or converted to UPF format
     Using radial grid of  865 points,  6 beta functions with:
                l(1) =   0
                l(2) =   0
                l(3) =   1
                l(4) =   1
                l(5) =   2
                l(6) =   2
     Q(r) pseudized with 10 coefficients,  rinner =    0.980   0.980   0.980
                                                       0.980   0.980

     atomic species   valence    mass     pseudopotential
        Sc            11.00    44.95591     Sc( 1.00)
        Si             4.00    28.08500     Si( 1.00)
        Ni            18.00    58.69340     Ni( 1.00)

      8 Sym. Ops., with inversion, found ( 6 have fractional translation)

                                    s                        frac. trans.

      isym =  1     identity

 cryst.   s( 1) = (     1          0          0      )
                  (     0          1          0      )
                  (     0          0          1      )

 cart.    s( 1) = (  1.0000000  0.0000000  0.0000000 )
                  (  0.0000000  1.0000000  0.0000000 )
                  (  0.0000000  0.0000000  1.0000000 )

      isym =  2     180 deg rotation - cart. axis [0,0,1]

 cryst.   s( 2) = (    -1          0          0      )    f =(  0.0000000 )
                  (     0         -1          0      )       (  0.5000000 )
                  (     0          0          1      )       ( -0.5000000 )

 cart.    s( 2) = ( -1.0000000  0.0000000  0.0000000 )    f =(  0.0000000 )
                  (  0.0000000 -1.0000000  0.0000000 )       (  0.8028346 )
                  (  0.0000000  0.0000000  1.0000000 )       ( -0.8669062 )

[...]

      isym =  4     180 deg rotation - cart. axis [1,0,0]

[...]

      isym =  5     inversion

 cryst.   s( 5) = (    -1          0          0      )
                  (     0         -1          0      )
                  (     0          0         -1      )

 cart.    s( 5) = ( -1.0000000  0.0000000  0.0000000 )
                  (  0.0000000 -1.0000000  0.0000000 )
                  (  0.0000000  0.0000000 -1.0000000 )

      isym =  6     inv. 180 deg rotation - cart. axis [0,0,1]

[...]

      isym =  8     inv. 180 deg rotation - cart. axis [1,0,0]

 cryst.   s( 8) = (    -1          0          0      )    f =( -0.5000000 )
                  (     0          1          0      )       (  0.0000000 )
                  (     0          0          1      )       (  0.0000000 )

 cart.    s( 8) = ( -1.0000000  0.0000000  0.0000000 )    f =( -0.5000000 )
                  (  0.0000000  1.0000000  0.0000000 )       (  0.0000000 )
                  (  0.0000000  0.0000000  1.0000000 )       (  0.0000000 )

   Cartesian axes

     site n.     atom                  positions (alat units)
         1           Sc  tau(   1) = (   0.7500000   0.0121533   0.3494048  )
         2           Sc  tau(   2) = (   0.2500000   1.5935159   1.3844077  )
         3           Sc  tau(   3) = (   0.7500000   0.8149879   0.5175014  )
         4           Sc  tau(   4) = (   0.2500000   0.7906813   1.2163111  )
         5           Si  tau(   5) = (   0.2500000   0.4814471   0.1660992  )
         6           Si  tau(   6) = (   0.7500000   1.1242222   1.5677133  )
         7           Si  tau(   7) = (   0.2500000   1.2842817   0.7008070  )
         8           Si  tau(   8) = (   0.7500000   0.3213875   1.0330055  )
         9           Ni  tau(   9) = (   0.2500000   1.0940966   0.1339162  )
        10           Ni  tau(  10) = (   0.7500000   0.5115726   1.5998963  )
        11           Ni  tau(  11) = (   0.2500000   0.2912620   0.7329900  )
        12           Ni  tau(  12) = (   0.7500000   1.3144073   1.0008225  )

   Crystallographic axes

     site n.     atom                  positions (cryst. coord.)
         1           Sc  tau(   1) = (  0.7500000  0.0075690  0.2015240  )
         2           Sc  tau(   2) = (  0.2500000  0.9924310  0.7984760  )
         3           Sc  tau(   3) = (  0.7500000  0.5075690  0.2984760  )
         4           Sc  tau(   4) = (  0.2500000  0.4924310  0.7015240  )
         5           Si  tau(   5) = (  0.2500000  0.2998420  0.0958000  )
         6           Si  tau(   6) = (  0.7500000  0.7001580  0.9042000  )
         7           Si  tau(   7) = (  0.2500000  0.7998420  0.4042000  )
         8           Si  tau(   8) = (  0.7500000  0.2001580  0.5958000  )
         9           Ni  tau(   9) = (  0.2500000  0.6813960  0.0772380  )
        10           Ni  tau(  10) = (  0.7500000  0.3186040  0.9227620  )
        11           Ni  tau(  11) = (  0.2500000  0.1813960  0.4227620  )
        12           Ni  tau(  12) = (  0.7500000  0.8186040  0.5772380  )

     number of k points=     1  Methfessel-Paxton smearing, width (Ry)=  0.0010
                       cart. coord. in units 2pi/alat
        k(    1) = (   0.0000000   0.0000000   0.0000000), wk =   2.0000000

                       cryst. coord.
        k(    1) = (   0.0000000   0.0000000   0.0000000), wk =   2.0000000

     Check: negative core charge=   -0.000004

     Initial potential from superposition of free atoms

     starting charge     123.9872, renormalised to     132.0000
     Starting wfcs are  108 randomized atomic wfcs

     Self-consistent Calculation

     iteration #  1     ecut=    30.00 Ry     beta= 0.70
     Davidson diagonalization with overlap

     ethr =  1.00E-02,  avg # of iterations =  5.0

     total energy              =   -1654.42721168 Ry
     estimated scf accuracy    <     177.15053997 Ry

[...]

     total energy              =   -1786.17883892 Ry
     estimated scf accuracy    <       0.00000113 Ry

     iteration # 25     ecut=    30.00 Ry     beta= 0.70
     Davidson diagonalization with overlap

     ethr =  8.59E-10,  avg # of iterations =  6.0

     End of self-consistent calculation

          k = 0.0000 0.0000 0.0000 (  1690 PWs)   bands (ev):

   -90.6842 -90.6834 -90.6823 -90.6817 -51.1364 -51.1305 -51.1279 -51.1249
   -51.1044 -51.1030 -51.1026 -51.1015 -50.8133 -50.8121 -50.8119 -50.8037
   -36.0539 -36.0426 -36.0334 -36.0232 -14.9299 -14.9216 -14.8665 -14.8665
   -14.7868 -14.7853 -14.7016 -14.6909 -14.4617 -14.4354 -14.4249 -14.3976
     2.4868   4.2951   4.8432   4.9830   7.5862   8.2090   8.9403   9.0743
     9.2221   9.2875   9.7051   9.7426   9.9736  10.0432  10.0600  10.1521
    10.5021  10.5384  10.7160  10.7673  10.8095  10.9273  10.9457  11.1052
    11.2704  11.3137  11.3279  11.7397  11.8807  12.1863  12.2808  12.4262
    12.9349  13.4667  13.5926  14.1341  14.3248  14.5531  15.0433  15.0662
    15.0748  15.1423  15.2737  15.7043  16.0382  16.0699  16.1081

     occupation numbers
     1.0000   1.0000   1.0000   1.0000   1.0000   1.0000   1.0000   1.0000
     1.0000   1.0000   1.0000   1.0000   1.0000   1.0000   1.0000   1.0000
     1.0000   1.0000   1.0000   1.0000   1.0000   1.0000   1.0000   1.0000
     1.0000   1.0000   1.0000   1.0000   1.0000   1.0000   1.0000   1.0000
     1.0000   1.0000   1.0000   1.0000   1.0000   1.0000   1.0000   1.0000
     1.0000   1.0000   1.0000   1.0000   1.0000   1.0000   1.0000   1.0000
     1.0000   1.0000   1.0000   1.0000   1.0000   1.0000   1.0000   1.0000
     1.0000   1.0000   1.0000   1.0000   1.0000   1.0000   1.0000   1.0000
     1.0000   1.0000  -0.0000  -0.0000  -0.0000  -0.0000  -0.0000  -0.0000
    -0.0000  -0.0000  -0.0000  -0.0000  -0.0000  -0.0000  -0.0000

     the Fermi energy is    13.5296 ev

!    total energy              =   -1786.17883856 Ry
     estimated scf accuracy    <       0.00000059 Ry
     smearing contrib. (-TS)   =       0.00000000 Ry
     internal energy E=F+TS    =   -1786.17883856 Ry

     The total energy is F=E-TS. E is the sum of the following terms:
     one-electron contribution =   -1206.19251018 Ry
     hartree contribution      =     659.76089727 Ry
     xc contribution           =    -215.03572500 Ry
     ewald contribution        =   -1024.71150066 Ry

     convergence has been achieved in  25 iterations

     Forces acting on atoms (cartesian axes, Ry/au):

     atom    1 type  1   force =    -0.00000000    0.01715369    0.05105613
     atom    2 type  1   force =     0.00000000   -0.01715369   -0.05105613
     atom    3 type  1   force =     0.00000000    0.01715369   -0.05105613
     atom    4 type  1   force =     0.00000000   -0.01715369    0.05105613
     atom    5 type  2   force =     0.00000000    0.01742405    0.04000479
     atom    6 type  2   force =     0.00000000   -0.01742405   -0.04000479
     atom    7 type  2   force =     0.00000000    0.01742405   -0.04000479
     atom    8 type  2   force =     0.00000000   -0.01742405    0.04000479
     atom    9 type  3   force =    -0.00000000   -0.01288194   -0.00784942
     atom   10 type  3   force =     0.00000000    0.01288194    0.00784942
     atom   11 type  3   force =    -0.00000000   -0.01288194    0.00784942
     atom   12 type  3   force =     0.00000000    0.01288194   -0.00784942
     The non-local contrib.  to forces
     atom    1 type  1   force =    -0.00000000    0.01593407    0.06333099
     atom    2 type  1   force =     0.00000000   -0.01593407   -0.06333099
     atom    3 type  1   force =     0.00000000    0.01593407   -0.06333099
     atom    4 type  1   force =     0.00000000   -0.01593407    0.06333099
     atom    5 type  2   force =     0.00000000    0.00195793   -0.03872122
     atom    6 type  2   force =     0.00000000   -0.00195793    0.03872122
     atom    7 type  2   force =     0.00000000    0.00195793    0.03872122
     atom    8 type  2   force =    -0.00000000   -0.00195793   -0.03872122
     atom    9 type  3   force =     0.00000000    0.04639762   -0.18345021
     atom   10 type  3   force =     0.00000000   -0.04639762    0.18345021
     atom   11 type  3   force =     0.00000000    0.04639762    0.18345021
     atom   12 type  3   force =     0.00000000   -0.04639762   -0.18345021
     The ionic contribution  to forces
     atom    1 type  1   force =     0.00000000   -1.42532734   -5.44190878
     atom    2 type  1   force =     0.00000000    1.42532734    5.44190878
     atom    3 type  1   force =     0.00000000   -1.42532734    5.44190878
     atom    4 type  1   force =    -0.00000000    1.42532734   -5.44190878
     atom    5 type  2   force =    -0.00000000   -2.29265354    0.66168280
     atom    6 type  2   force =     0.00000000    2.29265354   -0.66168280
     atom    7 type  2   force =     0.00000000   -2.29265354   -0.66168280
     atom    8 type  2   force =     0.00000000    2.29265354    0.66168280
     atom    9 type  3   force =     0.00000000    6.15691307    2.19677098
     atom   10 type  3   force =     0.00000000   -6.15691307   -2.19677098
     atom   11 type  3   force =    -0.00000000    6.15691307   -2.19677098
     atom   12 type  3   force =     0.00000000   -6.15691307    2.19677098
     The local contribution  to forces
     atom    1 type  1   force =    -0.00000096    1.42690493    5.43011115
     atom    2 type  1   force =    -0.00000591   -1.42638270   -5.43016689
     atom    3 type  1   force =    -0.00000542    1.42599702   -5.42940103
     atom    4 type  1   force =     0.00000024   -1.42695631    5.42952310
     atom    5 type  2   force =     0.00000096    2.30842459   -0.58739854
     atom    6 type  2   force =    -0.00000277   -2.30846618    0.58734244
     atom    7 type  2   force =     0.00000214    2.30877462    0.58761371
     atom    8 type  2   force =     0.00000076   -2.30857714   -0.58760301
     atom    9 type  3   force =     0.00001462   -6.21385723   -2.02374869
     atom   10 type  3   force =     0.00000236    6.21399129    2.02250209
     atom   11 type  3   force =    -0.00000849   -6.21418620    2.02388565
     atom   12 type  3   force =    -0.00000549    6.21498645   -2.02265976
     The core correction contribution to forces
     atom    1 type  1   force =     0.00000000    0.00000000    0.00000000
     atom    2 type  1   force =     0.00000000    0.00000000    0.00000000
     atom    3 type  1   force =     0.00000000    0.00000000    0.00000000
     atom    4 type  1   force =     0.00000000    0.00000000    0.00000000
     atom    5 type  2   force =     0.00000008   -0.00038481    0.00451694
     atom    6 type  2   force =    -0.00000014    0.00038575   -0.00451472
     atom    7 type  2   force =     0.00000006   -0.00038374   -0.00451999
     atom    8 type  2   force =     0.00000005    0.00038486    0.00451691
     atom    9 type  3   force =    -0.00000008   -0.00213964    0.00201478
     atom   10 type  3   force =    -0.00000009    0.00214002   -0.00201625
     atom   11 type  3   force =    -0.00000013   -0.00213862   -0.00201426
     atom   12 type  3   force =     0.00000008    0.00213960    0.00201719
     The Hubbard contrib.    to forces
     atom    1 type  1   force =     0.00000000    0.00000000    0.00000000
     atom    2 type  1   force =     0.00000000    0.00000000    0.00000000
     atom    3 type  1   force =     0.00000000    0.00000000    0.00000000
     atom    4 type  1   force =     0.00000000    0.00000000    0.00000000
     atom    5 type  2   force =     0.00000000    0.00000000    0.00000000
     atom    6 type  2   force =     0.00000000    0.00000000    0.00000000
     atom    7 type  2   force =     0.00000000    0.00000000    0.00000000
     atom    8 type  2   force =     0.00000000    0.00000000    0.00000000
     atom    9 type  3   force =     0.00000000    0.00000000    0.00000000
     atom   10 type  3   force =     0.00000000    0.00000000    0.00000000
     atom   11 type  3   force =     0.00000000    0.00000000    0.00000000
     atom   12 type  3   force =     0.00000000    0.00000000    0.00000000
     The SCF correction term to forces
     atom    1 type  1   force =     0.00000152   -0.00037064   -0.00049418
     atom    2 type  1   force =     0.00000877   -0.00016689    0.00052681
     atom    3 type  1   force =     0.00000817    0.00055541   -0.00023236
     atom    4 type  1   force =     0.00000037    0.00040475    0.00012214
     atom    5 type  2   force =    -0.00000069    0.00008917   -0.00008378
     atom    6 type  2   force =     0.00000171   -0.00002284    0.00014931
     atom    7 type  2   force =    -0.00000150   -0.00025184   -0.00016290
     atom    8 type  2   force =    -0.00000133    0.00008491    0.00013217
     atom    9 type  3   force =    -0.00002175   -0.00026342    0.00051056
     atom   10 type  3   force =    -0.00001308    0.00001737    0.00060837
     atom   11 type  3   force =     0.00001666    0.00014909   -0.00066734
     atom   12 type  3   force =     0.00001381   -0.00094028   -0.00051659

     Total force =     0.141880     Total SCF correction =     0.001924

     Computing stress (Cartesian axis) and pressure

          total   stress  (Ry/bohr**3)                   (kbar)     P=     -557.66
  -0.00264249   0.00000000   0.00000000         -388.72        0.00        0.00
   0.00000000  -0.00440520   0.00000000            0.00     -648.03        0.00
   0.00000000   0.00000000  -0.00432500            0.00        0.00     -636.23

     kinetic stress (kbar)  27160.65      0.00      0.00
                                0.00  26846.74      0.00
                                0.00      0.00  26455.05

     local   stress (kbar) -11423.46     -0.00      0.00
                               -0.00  -6373.74      0.05
                                0.00      0.05  -8498.26

     nonloc. stress (kbar)   3796.03      0.00      0.00
                                0.00   3988.76      0.00
                                0.00      0.00   3933.60

     hartree stress (kbar)  27587.80      0.00     -0.00
                                0.00  26104.73     -0.06
                               -0.00     -0.06  26413.25

     exc-cor stress (kbar)  -5114.90      0.00     -0.00
                                0.00  -5119.88      0.00
                               -0.00      0.00  -5120.91

     corecor stress (kbar)  -2636.23      0.00      0.00
                                0.00  -2627.46     -0.00
                                0.00     -0.00  -2627.99

     ewald   stress (kbar) -39758.63      0.00     -0.00
                                0.00 -43467.18      0.00
                               -0.00      0.00 -41190.97

     hubbard stress (kbar)      0.00      0.00      0.00
                                0.00      0.00      0.00
                                0.00      0.00      0.00

     DFT-D   stress (kbar)      0.00      0.00      0.00
                                0.00      0.00      0.00
                                0.00      0.00      0.00

     XDM     stress (kbar)      0.00      0.00      0.00
                                0.00      0.00      0.00
                                0.00      0.00      0.00

     dft-nl  stress (kbar)      0.00      0.00      0.00
                                0.00      0.00      0.00
                                0.00      0.00      0.00

     TS-vdW  stress (kbar)      0.00      0.00      0.00
                                0.00      0.00      0.00
                                0.00      0.00      0.00

[...]

                                0.00      0.00      0.00

     Writing all to output data dir new_calculations/myprefix.save/

     General routines

     Parallel routines

   This run was terminated on:  23: 4:58  20May2023

   JOB DONE.