     Program PWSCF v.7.0 starts on 20May2023 at 13:54:18

     Reading input from espresso_17402.pwi
Warning: card &CELL ignored
Warning: card / ignored

     Current dimensions of program PWSCF are:
     Max number of different atomic species (ntypx) = 10
     Max number of k-points (npk) =  40000
     Max angular momentum in pseudopotentials (lmaxx) =  4
     file Nb.pbe-spn-kjpaw_psl.0.3.0.UPF: wavefunction(s)  4S 4P renormalized
     file O.pbe-n-kjpaw_psl.0.1.UPF: wavefunction(s)  2P renormalized

     gamma-point specific algorithms are used
     Message from routine setup:
     using ibrav=0 with symmetry is DISCOURAGED, use correct ibrav instead

     Subspace diagonalization in iterative solution of the eigenvalue problem:
     a serial algorithm will be used

     Using Slab Decomposition

     bravais-lattice index     =            0
     lattice parameter (alat)  =       5.5525  a.u.
     unit-cell volume          =     534.6284 (a.u.)^3
     number of atoms/cell      =            8
     number of atomic types    =            3
     number of electrons       =        56.00
     number of Kohn-Sham states=           34
     kinetic-energy cutoff     =      30.0000  Ry
     charge density cutoff     =     240.0000  Ry
     scf convergence threshold =      1.0E-06
     mixing beta               =       0.7000
     number of iterations used =            8  plain     mixing
     Exchange-correlation= SLA  PW   PBX  PBC
                           (   1   4   3   4   0   0   0)

     celldm(1)=   5.552481  celldm(2)=   0.000000  celldm(3)=   0.000000
     celldm(4)=   0.000000  celldm(5)=   0.000000  celldm(6)=   0.000000

     crystal axes: (cart. coord. in units of alat)
               a(1) = (   1.000000   0.000000   0.000000 )
               a(2) = (  -0.500000   0.866025   0.000000 )
               a(3) = (   0.000000   0.000000   3.606287 )

     reciprocal axes: (cart. coord. in units 2 pi/alat)
               b(1) = (  1.000000  0.577350  0.000000 )
               b(2) = (  0.000000  1.154701  0.000000 )
               b(3) = (  0.000000  0.000000  0.277294 )

     PseudoPot. # 1 for Li read from file:
     /home/pragov/projects/rrg-bengioy-ad/pragov/crystal_structure_design/SSSP/li_pbe_v1.4.uspp.F.UPF
     MD5 check sum: e912e257baa3777c20ea3d68f190483c
     Pseudo is Ultrasoft, Zval =  3.0
     Generated by new atomic code, or converted to UPF format
     Using radial grid of  751 points,  5 beta functions with:
                l(1) =   0
                l(2) =   0
                l(3) =   0
                l(4) =   1
                l(5) =   1
     Q(r) pseudized with 10 coefficients,  rinner =    1.150   1.150   1.150

     PseudoPot. # 2 for Nb read from file:
     /home/pragov/projects/rrg-bengioy-ad/pragov/crystal_structure_design/SSSP/Nb.pbe-spn-kjpaw_psl.0.3.0.UPF
     MD5 check sum: 411d72ad547312f8017e2943ceca08cc
     Pseudo is Projector augmented-wave + core cor, Zval = 13.0
     Generated using "atomic" code by A. Dal Corso  v.5.0.99 svn rev. 10869
     Shape of augmentation charge: PSQ
     Using radial grid of 1227 points,  6 beta functions with:
                l(1) =   0
                l(2) =   0
                l(3) =   1
                l(4) =   1
                l(5) =   2
                l(6) =   2
     Q(r) pseudized with 0 coefficients

     PseudoPot. # 3 for O  read from file:
     /home/pragov/projects/rrg-bengioy-ad/pragov/crystal_structure_design/SSSP/O.pbe-n-kjpaw_psl.0.1.UPF
     MD5 check sum: 0234752ac141de4415c5fc33072bef88
     Pseudo is Projector augmented-wave + core cor, Zval =  6.0
     Generated using "atomic" code by A. Dal Corso  v.5.0.99 svn rev. 10869
     Shape of augmentation charge: BESSEL
     Using radial grid of 1095 points,  4 beta functions with:
                l(1) =   0
                l(2) =   0
                l(3) =   1
                l(4) =   1
     Q(r) pseudized with 0 coefficients

     atomic species   valence    mass     pseudopotential
        Li             3.00     6.94000     Li( 1.00)
        Nb            13.00    92.90637     Nb( 1.00)
        O              6.00    15.99900     O ( 1.00)

     24 Sym. Ops., with inversion, found (12 have fractional translation)

                                    s                        frac. trans.

      isym =  1     identity

 cryst.   s( 1) = (     1          0          0      )
                  (     0          1          0      )
                  (     0          0          1      )

 cart.    s( 1) = (  1.0000000 -0.0000000  0.0000000 )
                  (  0.0000000  1.0000000  0.0000000 )
                  (  0.0000000  0.0000000  1.0000000 )

      isym =  2     180 deg rotation - cart. axis [0,0,1]

 cryst.   s( 2) = (    -1          0          0      )    f =(  0.0000000 )
                  (     0         -1          0      )       (  0.0000000 )
                  (     0          0          1      )       ( -0.5000000 )

 cart.    s( 2) = ( -1.0000000  0.0000000  0.0000000 )    f =(  0.0000000 )
                  (  0.0000000 -1.0000000  0.0000000 )       (  0.0000000 )
                  (  0.0000000  0.0000000  1.0000000 )       ( -1.8031433 )

[...]

      isym =  4     180 deg rotation - cart. axis [1,0,0]

[...]

      isym =  5      60 deg rotation - cryst. axis [0,0,1]

[...]

 cryst.   s( 8) = (    -1         -1          0      )
                  (     1          0          0      )
                  (     0          0          1      )

 cart.    s( 8) = ( -0.4999999  0.8660255  0.0000000 )
                  ( -0.8660253 -0.5000001  0.0000000 )
                  (  0.0000000  0.0000000  1.0000000 )

[...]

 cryst.   s( 9) = (     0         -1          0      )    f =(  0.0000000 )
                  (    -1          0          0      )       (  0.0000000 )
                  (     0          0         -1      )       (  0.5000000 )

 cart.    s( 9) = (  0.5000001 -0.8660253  0.0000000 )    f =(  0.0000000 )
                  ( -0.8660253 -0.5000001  0.0000000 )       (  0.0000000 )
                  (  0.0000000  0.0000000 -1.0000000 )       (  1.8031433 )

[...]

 cryst.   s(10) = (     1          1          0      )    f =(  0.0000000 )
                  (     0         -1          0      )       (  0.0000000 )
                  (     0          0         -1      )       (  0.5000000 )

 cart.    s(10) = (  0.4999999  0.8660256  0.0000000 )    f =(  0.0000000 )
                  (  0.8660253 -0.4999999  0.0000000 )       (  0.0000000 )
                  (  0.0000000  0.0000000 -1.0000000 )       (  1.8031433 )

[...]

 cryst.   s(11) = (    -1         -1          0      )
                  (     0          1          0      )
                  (     0          0         -1      )

 cart.    s(11) = ( -0.4999999 -0.8660256  0.0000000 )
                  ( -0.8660253  0.4999999  0.0000000 )
                  (  0.0000000  0.0000000 -1.0000000 )

      isym = 12     180 deg rotation - cryst. axis [1,1,0]

[...]

      isym = 13     inversion

[...]

      isym = 14     inv. 180 deg rotation - cart. axis [0,0,1]

[...]

      isym = 16     inv. 180 deg rotation - cart. axis [1,0,0]

[...]

      isym = 17     inv.  60 deg rotation - cryst. axis [0,0,1]

[...]

 cryst.   s(22) = (    -1         -1          0      )    f =(  0.0000000 )
                  (     0          1          0      )       (  0.0000000 )
                  (     0          0          1      )       ( -0.5000000 )

 cart.    s(22) = ( -0.4999999 -0.8660256  0.0000000 )    f =(  0.0000000 )
                  ( -0.8660253  0.4999999  0.0000000 )       (  0.0000000 )
                  (  0.0000000  0.0000000  1.0000000 )       ( -1.8031433 )

[...]

      isym = 24     inv. 180 deg rotation - cryst. axis [1,1,0]

 cryst.   s(24) = (     0         -1          0      )
                  (    -1          0          0      )
                  (     0          0          1      )

 cart.    s(24) = (  0.5000001 -0.8660253  0.0000000 )
                  ( -0.8660253 -0.5000001  0.0000000 )
                  (  0.0000000  0.0000000  1.0000000 )

   Cartesian axes

     site n.     atom                  positions (alat units)
         1           Li  tau(   1) = (   0.0000000   0.0000000   0.0000000  )
         2           Li  tau(   2) = (   0.0000000   0.0000000   1.8031433  )
         3           Nb  tau(   3) = (  -0.0000006   0.5773505   2.7047149  )
         4           Nb  tau(   4) = (   0.5000005   0.2886748   0.9015716  )
         5           O   tau(   5) = (  -0.0000006   0.5773505   0.4445794  )
         6           O   tau(   6) = (  -0.0000006   0.5773505   1.3585639  )
         7           O   tau(   7) = (   0.5000005   0.2886748   2.2477227  )
         8           O   tau(   8) = (   0.5000005   0.2886748   3.1617071  )

   Crystallographic axes

     site n.     atom                  positions (cryst. coord.)
         1           Li  tau(   1) = (  0.0000000  0.0000000  0.0000000  )
         2           Li  tau(   2) = (  0.0000000  0.0000000  0.5000000  )
         3           Nb  tau(   3) = (  0.3333330  0.6666670  0.7500000  )
         4           Nb  tau(   4) = (  0.6666670  0.3333330  0.2500000  )
         5           O   tau(   5) = (  0.3333330  0.6666670  0.1232790  )
         6           O   tau(   6) = (  0.3333330  0.6666670  0.3767210  )
         7           O   tau(   7) = (  0.6666670  0.3333330  0.6232790  )
         8           O   tau(   8) = (  0.6666670  0.3333330  0.8767210  )

     number of k points=     1  Methfessel-Paxton smearing, width (Ry)=  0.0010
                       cart. coord. in units 2pi/alat
        k(    1) = (   0.0000000   0.0000000   0.0000000), wk =   2.0000000

                       cryst. coord.
        k(    1) = (   0.0000000   0.0000000   0.0000000), wk =   2.0000000

     Check: negative core charge=   -0.000023

     Initial potential from superposition of free atoms

     starting charge      55.0943, renormalised to      56.0000
     Starting wfcs are   46 randomized atomic wfcs
     Checking if some PAW data can be deallocated...

     Self-consistent Calculation

     iteration #  1     ecut=    30.00 Ry     beta= 0.70
     Davidson diagonalization with overlap

     ethr =  1.00E-02,  avg # of iterations =  2.0

     total energy              =    -861.15317831 Ry
     estimated scf accuracy    <       3.97009457 Ry

[...]

     total energy              =    -863.42539037 Ry
     estimated scf accuracy    <       0.00000756 Ry

     iteration # 13     ecut=    30.00 Ry     beta= 0.70
     Davidson diagonalization with overlap

     ethr =  1.35E-08,  avg # of iterations =  5.0

     End of self-consistent calculation

          k = 0.0000 0.0000 0.0000 (   732 PWs)   bands (ev):

   -41.6673 -41.6649 -33.5633 -33.5624 -17.8175 -17.8142 -17.3502 -17.3502
   -17.3479 -17.3479  -6.5878  -6.3644  -5.5394  -5.2634   5.9660   6.9689
     8.6152   8.7889   8.7889   8.8410   8.8410   9.4925   9.4926   9.5723
     9.5723  10.3961  13.4055  13.8574  15.3469  15.3469  15.4345  15.4345
    16.3268  16.5450

     occupation numbers
     1.0000   1.0000   1.0000   1.0000   1.0000   1.0000   1.0000   1.0000
     1.0000   1.0000   1.0000   1.0000   1.0000   1.0000   1.0000   1.0000
     1.0000   1.0000   1.0000   1.0000   1.0000   1.0000   1.0000   1.0000
     1.0000   1.0000   1.0000   1.0000  -0.0000  -0.0000  -0.0000  -0.0000
    -0.0000  -0.0000

     the Fermi energy is    14.8535 ev

!    total energy              =    -863.42539172 Ry
     estimated scf accuracy    <       0.00000023 Ry
     smearing contrib. (-TS)   =       0.00000000 Ry
     internal energy E=F+TS    =    -863.42539172 Ry

     The total energy is F=E-TS. E is the sum of the following terms:
     one-electron contribution =    -103.47278208 Ry
     hartree contribution      =      86.24425888 Ry
     xc contribution           =     -95.46658973 Ry
     ewald contribution        =    -295.77809180 Ry
     one-center paw contrib.   =    -454.95218699 Ry
      -> PAW hartree energy AE =     264.35723311 Ry
      -> PAW hartree energy PS =    -263.11324823 Ry
      -> PAW xc energy AE      =    -541.64050202 Ry
      -> PAW xc energy PS      =      85.44433015 Ry
      -> total E_H with PAW    =      87.48824376 Ry
      -> total E_XC with PAW   =    -551.66276159 Ry

     convergence has been achieved in  13 iterations

     Forces acting on atoms (cartesian axes, Ry/au):

     atom    1 type  1   force =     0.00000000    0.00000000    0.00000000
     atom    2 type  1   force =    -0.00000000   -0.00000000    0.00000000
     atom    3 type  2   force =    -0.00000000   -0.00000000    0.00000000
     atom    4 type  2   force =     0.00000000    0.00000000    0.00000000
     atom    5 type  3   force =    -0.00000000   -0.00000000    0.16986856
     atom    6 type  3   force =     0.00000000    0.00000000   -0.16986856
     atom    7 type  3   force =     0.00000000    0.00000000    0.16986856
     atom    8 type  3   force =     0.00000000   -0.00000000   -0.16986856
     The non-local contrib.  to forces
     atom    1 type  1   force =     0.00000000   -0.00000000    0.00000000
     atom    2 type  1   force =    -0.00000000   -0.00000000    0.00000000
     atom    3 type  2   force =     0.00000000    0.00000000    0.00000000
     atom    4 type  2   force =    -0.00000000    0.00000000   -0.00000000
     atom    5 type  3   force =    -0.00000000   -0.00000000   -0.27320812
     atom    6 type  3   force =    -0.00000000   -0.00000000    0.27320812
     atom    7 type  3   force =     0.00000000   -0.00000000   -0.27320812
     atom    8 type  3   force =     0.00000000   -0.00000000    0.27320812
     The ionic contribution  to forces
     atom    1 type  1   force =    -0.00000000    0.00000000    0.00000000
     atom    2 type  1   force =    -0.00000000    0.00000000   -0.00000000
     atom    3 type  2   force =     0.00002444   -0.00001411    0.00000000
     atom    4 type  2   force =    -0.00002444    0.00001411   -0.00000000
     atom    5 type  3   force =     0.00001364   -0.00000787  -11.18053489
     atom    6 type  3   force =     0.00001364   -0.00000787   11.18053489
     atom    7 type  3   force =    -0.00001364    0.00000787  -11.18053489
     atom    8 type  3   force =    -0.00001364    0.00000787   11.18053489
     The local contribution  to forces
     atom    1 type  1   force =     0.00000351   -0.00000327    0.00018593
     atom    2 type  1   force =     0.00000898   -0.00000951    0.00000065
     atom    3 type  2   force =    -0.00007542    0.00001022   -0.00069714
     atom    4 type  2   force =     0.00024748   -0.00017078   -0.00018454
     atom    5 type  3   force =    -0.00013106    0.00008802   11.61738090
     atom    6 type  3   force =    -0.00027501    0.00020581  -11.61722146
     atom    7 type  3   force =     0.00006718   -0.00003667   11.61648149
     atom    8 type  3   force =     0.00001906    0.00000852  -11.61664298
     The core correction contribution to forces
     atom    1 type  1   force =     0.00000000    0.00000000    0.00000000
     atom    2 type  1   force =     0.00000000    0.00000000    0.00000000
     atom    3 type  2   force =     0.00000044   -0.00000216   -0.00001173
     atom    4 type  2   force =     0.00000276   -0.00000255    0.00000880
     atom    5 type  3   force =    -0.00000044    0.00000014    0.00602523
     atom    6 type  3   force =    -0.00000012    0.00000043   -0.00602253
     atom    7 type  3   force =     0.00000015   -0.00000030    0.00602724
     atom    8 type  3   force =     0.00000019    0.00000026   -0.00602615
     The Hubbard contrib.    to forces
     atom    1 type  1   force =     0.00000000    0.00000000    0.00000000
     atom    2 type  1   force =     0.00000000    0.00000000    0.00000000
     atom    3 type  2   force =     0.00000000    0.00000000    0.00000000
     atom    4 type  2   force =     0.00000000    0.00000000    0.00000000
     atom    5 type  3   force =     0.00000000    0.00000000    0.00000000
     atom    6 type  3   force =     0.00000000    0.00000000    0.00000000
     atom    7 type  3   force =     0.00000000    0.00000000    0.00000000
     atom    8 type  3   force =     0.00000000    0.00000000    0.00000000
     The SCF correction term to forces
     atom    1 type  1   force =    -0.00000410    0.00000095   -0.00019592
     atom    2 type  1   force =    -0.00000611    0.00000560   -0.00000989
     atom    3 type  2   force =     0.00003494   -0.00000337    0.00049605
     atom    4 type  2   force =    -0.00010383    0.00007487    0.00042853
     atom    5 type  3   force =     0.00006781   -0.00004923    0.00011860
     atom    6 type  3   force =     0.00015358   -0.00011358   -0.00018811
     atom    7 type  3   force =    -0.00004663    0.00000528    0.00122337
     atom    8 type  3   force =    -0.00000346   -0.00000975   -0.00108823

     Total force =     0.339737     Total SCF correction =     0.001806

     Computing stress (Cartesian axis) and pressure

          total   stress  (Ry/bohr**3)                   (kbar)     P=      -41.83
   0.00123725   0.00000000  -0.00000000          182.01        0.00       -0.00
   0.00000000   0.00123725  -0.00000000            0.00      182.01       -0.00
   0.00000000   0.00000000  -0.00332759            0.00        0.00     -489.51

     kinetic stress (kbar)  30360.19      0.00      0.00
                                0.00  30360.20      0.00
                                0.00      0.00  30135.63

     local   stress (kbar) -22036.93     -0.11     -0.10
                               -0.11 -22037.03      0.09
                               -0.10      0.09   7766.53

     nonloc. stress (kbar)   7354.02      0.00      0.00
                                0.00   7354.02      0.00
                                0.00      0.00   7938.36

     hartree stress (kbar)  12183.17      0.05      0.02
                                0.05  12183.22     -0.02
                                0.02     -0.02   -635.95

     exc-cor stress (kbar)   2273.57      0.00      0.00
                                0.00   2273.57     -0.00
                                0.00     -0.00   2285.24

     corecor stress (kbar)  -8818.36     -0.00     -0.00
                               -0.00  -8818.36      0.00
                               -0.00      0.00  -8862.11

     ewald   stress (kbar) -21133.66      0.04      0.00
                                0.04 -21133.62     -0.00
                                0.00     -0.00 -39117.21

     hubbard stress (kbar)      0.00      0.00      0.00
                                0.00      0.00      0.00
                                0.00      0.00      0.00

     DFT-D   stress (kbar)      0.00      0.00      0.00
                                0.00      0.00      0.00
                                0.00      0.00      0.00

     XDM     stress (kbar)      0.00      0.00      0.00
                                0.00      0.00      0.00
                                0.00      0.00      0.00

     dft-nl  stress (kbar)      0.00      0.00      0.00
                                0.00      0.00      0.00
                                0.00      0.00      0.00

     TS-vdW  stress (kbar)      0.00      0.00      0.00
                                0.00      0.00      0.00
                                0.00      0.00      0.00

[...]

                                0.00      0.00      0.00

     Writing all to output data dir new_calculations/myprefix.save/

     General routines

     Parallel routines

     PAW routines

   This run was terminated on:  13:54:27  20May2023

   JOB DONE.