     Program PWSCF v.7.0 starts on 21May2023 at  2:53:56

     Reading input from espresso_3988.pwi
Warning: card &CELL ignored
Warning: card / ignored

     Current dimensions of program PWSCF are:
     Max number of different atomic species (ntypx) = 10
     Max number of k-points (npk) =  40000
     Max angular momentum in pseudopotentials (lmaxx) =  4
     file Ga.pbe-dn-kjpaw_psl.1.0.0.UPF: wavefunction(s)  4S renormalized
     file O.pbe-n-kjpaw_psl.0.1.UPF: wavefunction(s)  2P renormalized

     gamma-point specific algorithms are used
     Message from routine setup:
     using ibrav=0 with symmetry is DISCOURAGED, use correct ibrav instead

     Subspace diagonalization in iterative solution of the eigenvalue problem:
     a serial algorithm will be used

     Using Slab Decomposition

     bravais-lattice index     =            0
     lattice parameter (alat)  =      11.2828  a.u.
     unit-cell volume          =    1015.6252 (a.u.)^3
     number of atoms/cell      =            8
     number of atomic types    =            3
     number of electrons       =        68.00
     number of Kohn-Sham states=           41
     kinetic-energy cutoff     =      30.0000  Ry
     charge density cutoff     =     240.0000  Ry
     scf convergence threshold =      1.0E-06
     mixing beta               =       0.7000
     number of iterations used =            8  plain     mixing
     Exchange-correlation= SLA  PW   PBX  PBC
                           (   1   4   3   4   0   0   0)

     celldm(1)=  11.282781  celldm(2)=   0.000000  celldm(3)=   0.000000
     celldm(4)=   0.000000  celldm(5)=   0.000000  celldm(6)=   0.000000

     crystal axes: (cart. coord. in units of alat)
               a(1) = (   1.000000   0.000000   0.000000 )
               a(2) = (   0.500000   0.866025   0.000000 )
               a(3) = (   0.500000   0.288675   0.816497 )

     reciprocal axes: (cart. coord. in units 2 pi/alat)
               b(1) = (  1.000000 -0.577350 -0.408248 )
               b(2) = (  0.000000  1.154701 -0.408248 )
               b(3) = (  0.000000  0.000000  1.224745 )

     PseudoPot. # 1 for Rb read from file:
     /home/pragov/projects/rrg-bengioy-ad/pragov/crystal_structure_design/SSSP/Rb_ONCV_PBE-1.0.oncvpsp.upf
     MD5 check sum: 55a5172d6bfbce6759a58e35d43f6aa9
     Pseudo is Norm-conserving, Zval =  9.0
     Generated using ONCVPSP code by D. R. Hamann
     Using radial grid of 2308 points,  6 beta functions with:
                l(1) =   0
                l(2) =   0
                l(3) =   1
                l(4) =   1
                l(5) =   2
                l(6) =   2

     PseudoPot. # 2 for Ga read from file:
     /home/pragov/projects/rrg-bengioy-ad/pragov/crystal_structure_design/SSSP/Ga.pbe-dn-kjpaw_psl.1.0.0.UPF
     MD5 check sum: a27b4342b1af7e5f338de752e9ed7044
     Pseudo is Projector augmented-wave + core cor, Zval = 13.0
     Generated using "atomic" code by A. Dal Corso  v.5.1
     Shape of augmentation charge: PSQ
     Using radial grid of 1205 points,  6 beta functions with:
                l(1) =   0
                l(2) =   0
                l(3) =   1
                l(4) =   1
                l(5) =   2
                l(6) =   2
     Q(r) pseudized with 0 coefficients

     PseudoPot. # 3 for O  read from file:
     /home/pragov/projects/rrg-bengioy-ad/pragov/crystal_structure_design/SSSP/O.pbe-n-kjpaw_psl.0.1.UPF
     MD5 check sum: 0234752ac141de4415c5fc33072bef88
     Pseudo is Projector augmented-wave + core cor, Zval =  6.0
     Generated using "atomic" code by A. Dal Corso  v.5.0.99 svn rev. 10869
     Shape of augmentation charge: BESSEL
     Using radial grid of 1095 points,  4 beta functions with:
                l(1) =   0
                l(2) =   0
                l(3) =   1
                l(4) =   1
     Q(r) pseudized with 0 coefficients

     atomic species   valence    mass     pseudopotential
        Rb             9.00    85.46780     Rb( 1.00)
        Ga            13.00    69.72300     Ga( 1.00)
        O              6.00    15.99900     O ( 1.00)

     12 Sym. Ops., with inversion, found ( 6 have fractional translation)

                                    s                        frac. trans.

      isym =  1     identity

 cryst.   s( 1) = (     1          0          0      )
                  (     0          1          0      )
                  (     0          0          1      )

 cart.    s( 1) = (  1.0000000  0.0000000  0.0000000 )
                  (  0.0000000  1.0000000 -0.0000000 )
                  (  0.0000000  0.0000000  1.0000000 )

      isym =  2     180 deg rotation - cart. axis [1,0,0]

 cryst.   s( 2) = (     1          0          0      )    f =( -0.2500000 )
                  (     1         -1          0      )       ( -0.2500000 )
                  (     1          0         -1      )       ( -0.2500000 )

 cart.    s( 2) = (  1.0000000  0.0000000 -0.0000000 )    f =( -0.5000000 )
                  (  0.0000000 -1.0000000  0.0000000 )       ( -0.2886751 )
                  (  0.0000000  0.0000000 -1.0000000 )       ( -0.2041241 )

      isym =  3     120 deg rotation - cryst. axis [0,0,1]

[...]

      isym =  6     180 deg rotation - cryst. axis [1,1,0]

[...]

      isym =  7     inversion

[...]

      isym =  8     inv. 180 deg rotation - cart. axis [1,0,0]

 cryst.   s( 8) = (    -1          0          0      )
                  (    -1          1          0      )
                  (    -1          0          1      )

 cart.    s( 8) = ( -1.0000000  0.0000000  0.0000000 )
                  (  0.0000000  1.0000000 -0.0000000 )
                  (  0.0000000  0.0000000  1.0000000 )

      isym =  9     inv. 120 deg rotation - cryst. axis [0,0,1]

 cryst.   s( 9) = (     1         -1          0      )    f =( -0.2500000 )
                  (     1          0          0      )       ( -0.2500000 )
                  (     1          0         -1      )       ( -0.2500000 )

 cart.    s( 9) = (  0.5000000  0.8660254 -0.0000000 )    f =( -0.5000000 )
                  ( -0.8660254  0.5000000 -0.0000000 )       ( -0.2886751 )
                  (  0.0000000  0.0000000 -1.0000000 )       ( -0.2041241 )

[...]

 cryst.   s(10) = (     0          1          0      )    f =( -0.2500000 )
                  (    -1          1          0      )       ( -0.2500000 )
                  (     0          1         -1      )       ( -0.2500000 )

 cart.    s(10) = (  0.5000000 -0.8660254  0.0000000 )    f =( -0.5000000 )
                  (  0.8660254  0.5000000 -0.0000000 )       ( -0.2886751 )
                  (  0.0000000  0.0000000 -1.0000000 )       ( -0.2041241 )

[...]

 cryst.   s(11) = (     0          1          0      )
                  (     1          0          0      )
                  (     0          0          1      )

 cart.    s(11) = (  0.5000000  0.8660254 -0.0000000 )
                  (  0.8660254 -0.5000000  0.0000000 )
                  (  0.0000000  0.0000000  1.0000000 )

      isym = 12     inv. 180 deg rotation - cryst. axis [1,1,0]

 cryst.   s(12) = (     1         -1          0      )
                  (     0         -1          0      )
                  (     0         -1          1      )

 cart.    s(12) = (  0.5000000 -0.8660254  0.0000000 )
                  ( -0.8660254 -0.5000000  0.0000000 )
                  (  0.0000000  0.0000000  1.0000000 )

   Cartesian axes

     site n.     atom                  positions (alat units)
         1           Rb  tau(   1) = (   0.0000000   0.0000000   0.0000000  )
         2           Rb  tau(   2) = (   0.5000000   0.2886751   0.2041241  )
         3           Ga  tau(   3) = (   1.5000000   0.8660254   0.6123724  )
         4           Ga  tau(   4) = (   1.0000000   0.5773503   0.4082483  )
         5           O   tau(   5) = (   1.2500000   0.7216878   0.5103104  )
         6           O   tau(   6) = (   0.7500000   0.7216878   0.5103104  )
         7           O   tau(   7) = (   1.0000000   0.2886751   0.5103104  )
         8           O   tau(   8) = (   1.0000000   0.5773503   0.1020621  )

   Crystallographic axes

     site n.     atom                  positions (cryst. coord.)
         1           Rb  tau(   1) = (  0.0000000  0.0000000  0.0000000  )
         2           Rb  tau(   2) = (  0.2500000  0.2500000  0.2500000  )
         3           Ga  tau(   3) = (  0.7500000  0.7500000  0.7500000  )
         4           Ga  tau(   4) = (  0.5000000  0.5000000  0.5000000  )
         5           O   tau(   5) = (  0.6250000  0.6250000  0.6250000  )
         6           O   tau(   6) = (  0.1250000  0.6250000  0.6250000  )
         7           O   tau(   7) = (  0.6250000  0.1250000  0.6250000  )
         8           O   tau(   8) = (  0.6250000  0.6250000  0.1250000  )

     number of k points=     1  Methfessel-Paxton smearing, width (Ry)=  0.0010
                       cart. coord. in units 2pi/alat
        k(    1) = (   0.0000000   0.0000000   0.0000000), wk =   2.0000000

                       cryst. coord.
        k(    1) = (   0.0000000   0.0000000   0.0000000), wk =   2.0000000

     Check: negative core charge=   -0.000009

     Initial potential from superposition of free atoms

     starting charge      67.9446, renormalised to      68.0000
     Starting wfcs are   44 randomized atomic wfcs
     Checking if some PAW data can be deallocated...

     Self-consistent Calculation

     iteration #  1     ecut=    30.00 Ry     beta= 0.70
     Davidson diagonalization with overlap

     ethr =  1.00E-02,  avg # of iterations =  4.0

     total energy              =    -818.74022828 Ry
     estimated scf accuracy    <       2.39786546 Ry

[...]

     total energy              =    -819.92119315 Ry
     estimated scf accuracy    <       0.00000267 Ry

     iteration # 10     ecut=    30.00 Ry     beta= 0.70
     Davidson diagonalization with overlap

     ethr =  3.93E-09,  avg # of iterations =  3.0

     End of self-consistent calculation

          k = 0.0000 0.0000 0.0000 (  1371 PWs)   bands (ev):

   -21.5328 -21.3941 -12.1990 -11.5722 -11.5707 -11.5704  -8.6361  -8.6360
    -8.6360  -8.4011  -8.4011  -8.3228  -8.3228  -7.5092  -7.5089  -7.5089
    -5.7274  -5.7274  -5.7274  -5.3688  -5.3688  -5.3687  -2.5333   1.5203
     1.5208   1.5209   3.9653   3.9653   5.0591   5.0593   5.0594   5.1786
     5.1789   5.1796   7.1379  10.2827  11.0149  11.0149  11.0150  12.1055
    12.1056

     occupation numbers
     1.0000   1.0000   1.0000   1.0000   1.0000   1.0000   1.0000   1.0000
     1.0000   1.0000   1.0000   1.0000   1.0000   1.0000   1.0000   1.0000
     1.0000   1.0000   1.0000   1.0000   1.0000   1.0000   1.0000   1.0000
     1.0000   1.0000   1.0000   1.0000   1.0000   1.0000   1.0000   1.0000
     1.0000   1.0000  -0.0000  -0.0000  -0.0000  -0.0000  -0.0000  -0.0000
    -0.0000

     the Fermi energy is     5.8834 ev

!    total energy              =    -819.92119356 Ry
     estimated scf accuracy    <       0.00000038 Ry
     smearing contrib. (-TS)   =       0.00000000 Ry
     internal energy E=F+TS    =    -819.92119356 Ry

     The total energy is F=E-TS. E is the sum of the following terms:
     one-electron contribution =    -385.82624965 Ry
     hartree contribution      =     240.38289877 Ry
     xc contribution           =    -121.60231903 Ry
     ewald contribution        =    -292.72333886 Ry
     one-center paw contrib.   =    -260.15218478 Ry
      -> PAW hartree energy AE =     405.38550147 Ry
      -> PAW hartree energy PS =    -400.82381497 Ry
      -> PAW xc energy AE      =    -371.13918098 Ry
      -> PAW xc energy PS      =     106.42530970 Ry
      -> total E_H with PAW    =     244.94458527 Ry
      -> total E_XC with PAW   =    -386.31619031 Ry

     convergence has been achieved in  10 iterations

     Forces acting on atoms (cartesian axes, Ry/au):

     atom    1 type  1   force =     0.00000000    0.00000000    0.00000889
     atom    2 type  1   force =     0.00000000    0.00000000   -0.00000889
     atom    3 type  2   force =     0.00000000    0.00000000   -0.00000402
     atom    4 type  2   force =     0.00000000    0.00000000    0.00000402
     atom    5 type  3   force =    -0.00000000    0.00000000   -0.00000000
     atom    6 type  3   force =    -0.00000000    0.00000000   -0.00000000
     atom    7 type  3   force =     0.00000000   -0.00000000   -0.00000000
     atom    8 type  3   force =    -0.00000000    0.00000000    0.00000000
     The non-local contrib.  to forces
     atom    1 type  1   force =     0.00000000   -0.00000000    0.00000137
     atom    2 type  1   force =     0.00000000    0.00000000   -0.00000137
     atom    3 type  2   force =    -0.00000000    0.00000000    0.00002808
     atom    4 type  2   force =    -0.00000000   -0.00000000   -0.00002808
     atom    5 type  3   force =     0.00000000   -0.00000000   -0.00000000
     atom    6 type  3   force =     0.00000000   -0.00000000   -0.00000000
     atom    7 type  3   force =     0.00000000   -0.00000000   -0.00000000
     atom    8 type  3   force =     0.00000000    0.00000000    0.00000000
     The ionic contribution  to forces
     atom    1 type  1   force =    -0.00000000    0.00000000   -0.00000000
     atom    2 type  1   force =    -0.00000000   -0.00000000   -0.00000000
     atom    3 type  2   force =     0.00000000    0.00000000    0.00000000
     atom    4 type  2   force =     0.00000000    0.00000000   -0.00000000
     atom    5 type  3   force =     0.00000000    0.00000000    0.00000000
     atom    6 type  3   force =    -0.00000000    0.00000000    0.00000000
     atom    7 type  3   force =     0.00000000   -0.00000000    0.00000000
     atom    8 type  3   force =     0.00000000   -0.00000000   -0.00000000
     The local contribution  to forces
     atom    1 type  1   force =    -0.00002357    0.00002178    0.00001121
     atom    2 type  1   force =     0.00003856   -0.00002575    0.00003036
     atom    3 type  2   force =     0.00005604    0.00026339   -0.00001118
     atom    4 type  2   force =    -0.00014590   -0.00025886    0.00001402
     atom    5 type  3   force =     0.00001058    0.00000367   -0.00002903
     atom    6 type  3   force =    -0.00002448    0.00000628   -0.00001999
     atom    7 type  3   force =    -0.00002636   -0.00000624   -0.00003011
     atom    8 type  3   force =     0.00004331   -0.00000633    0.00003162
     The core correction contribution to forces
     atom    1 type  1   force =     0.00000000    0.00000000    0.00000000
     atom    2 type  1   force =     0.00000000    0.00000000    0.00000000
     atom    3 type  2   force =     0.00000287   -0.00000795   -0.00000032
     atom    4 type  2   force =    -0.00000551    0.00000750    0.00000086
     atom    5 type  3   force =    -0.00000000   -0.00000018   -0.00000010
     atom    6 type  3   force =    -0.00000016   -0.00000002   -0.00000030
     atom    7 type  3   force =    -0.00000017   -0.00000015   -0.00000019
     atom    8 type  3   force =     0.00000059    0.00000011    0.00000008
     The Hubbard contrib.    to forces
     atom    1 type  1   force =     0.00000000    0.00000000    0.00000000
     atom    2 type  1   force =     0.00000000    0.00000000    0.00000000
     atom    3 type  2   force =     0.00000000    0.00000000    0.00000000
     atom    4 type  2   force =     0.00000000    0.00000000    0.00000000
     atom    5 type  3   force =     0.00000000    0.00000000    0.00000000
     atom    6 type  3   force =     0.00000000    0.00000000    0.00000000
     atom    7 type  3   force =     0.00000000    0.00000000    0.00000000
     atom    8 type  3   force =     0.00000000    0.00000000    0.00000000
     The SCF correction term to forces
     atom    1 type  1   force =     0.00004336   -0.00002101   -0.00000614
     atom    2 type  1   force =    -0.00006395    0.00003120   -0.00004034
     atom    3 type  2   force =    -0.00002358   -0.00045081   -0.00002019
     atom    4 type  2   force =     0.00009672    0.00042150    0.00001764
     atom    5 type  3   force =    -0.00001383   -0.00000736    0.00003119
     atom    6 type  3   force =     0.00002730   -0.00001148    0.00001787
     atom    7 type  3   force =     0.00001250    0.00000213    0.00002513
     atom    8 type  3   force =    -0.00002328    0.00000503   -0.00003280

     Total force =     0.000014     Total SCF correction =     0.000637
     SCF correction compared to forces is large: reduce conv_thr to get better values

     Computing stress (Cartesian axis) and pressure

          total   stress  (Ry/bohr**3)                   (kbar)     P=     -159.09
  -0.00108148   0.00000000  -0.00000000         -159.09        0.00       -0.00
  -0.00000000  -0.00108148   0.00000000           -0.00     -159.09        0.00
   0.00000000   0.00000000  -0.00108153            0.00        0.00     -159.10

     kinetic stress (kbar)  12518.15      0.00     -0.00
                                0.00  12518.15     -0.00
                                0.00     -0.00  12518.17

     local   stress (kbar)  -7425.06     -0.03     -0.02
                               -0.03  -7425.69      0.23
                               -0.02      0.23  -7425.41

     nonloc. stress (kbar)   1589.42     -0.00      0.00
                               -0.00   1589.42     -0.00
                                0.00     -0.00   1589.41

     hartree stress (kbar)  11605.56      0.03      0.02
                                0.03  11606.11     -0.20
                                0.02     -0.20  11605.85

     exc-cor stress (kbar)    131.34     -0.00     -0.00
                               -0.00    131.34     -0.00
                               -0.00     -0.00    131.34

     corecor stress (kbar)  -4445.60     -0.00      0.00
                               -0.00  -4445.60     -0.00
                                0.00     -0.00  -4445.60

     ewald   stress (kbar) -14132.87     -0.00     -0.00
                               -0.00 -14132.87     -0.00
                               -0.00     -0.00 -14132.87

     hubbard stress (kbar)      0.00      0.00      0.00
                                0.00      0.00      0.00
                                0.00      0.00      0.00

     DFT-D   stress (kbar)      0.00      0.00      0.00
                                0.00      0.00      0.00
                                0.00      0.00      0.00

     XDM     stress (kbar)      0.00      0.00      0.00
                                0.00      0.00      0.00
                                0.00      0.00      0.00

     dft-nl  stress (kbar)      0.00      0.00      0.00
                                0.00      0.00      0.00
                                0.00      0.00      0.00

     TS-vdW  stress (kbar)      0.00      0.00      0.00
                                0.00      0.00      0.00
                                0.00      0.00      0.00

[...]

                                0.00      0.00      0.00

     Writing all to output data dir new_calculations/myprefix.save/

     General routines

     Parallel routines

     PAW routines

   This run was terminated on:   2:54: 8  21May2023

   JOB DONE.