     Program PWSCF v.7.0 starts on 21May2023 at  6:49:27

     Reading input from espresso_18966.pwi
Warning: card &CELL ignored
Warning: card / ignored

     Current dimensions of program PWSCF are:
     Max number of different atomic species (ntypx) = 10
     Max number of k-points (npk) =  40000
     Max angular momentum in pseudopotentials (lmaxx) =  4

     gamma-point specific algorithms are used
     Message from routine setup:
     using ibrav=0 with symmetry is DISCOURAGED, use correct ibrav instead

     Subspace diagonalization in iterative solution of the eigenvalue problem:
     a serial algorithm will be used

     Using Slab Decomposition

     bravais-lattice index     =            0
     lattice parameter (alat)  =       7.8818  a.u.
     unit-cell volume          =     891.4326 (a.u.)^3
     number of atoms/cell      =            5
     number of atomic types    =            2
     number of electrons       =        64.00
     number of Kohn-Sham states=           38
     kinetic-energy cutoff     =      30.0000  Ry
     charge density cutoff     =     240.0000  Ry
     scf convergence threshold =      1.0E-06
     mixing beta               =       0.7000
     number of iterations used =            8  plain     mixing
     Exchange-correlation=  SLA  PW   PBX  PBC
                           (   1   4   3   4   0   0   0)

     celldm(1)=   7.881845  celldm(2)=   0.000000  celldm(3)=   0.000000
     celldm(4)=   0.000000  celldm(5)=   0.000000  celldm(6)=   0.000000

     crystal axes: (cart. coord. in units of alat)
               a(1) = (   1.000000   0.000000   0.000000 )
               a(2) = (   0.000000   1.034201   0.000000 )
               a(3) = (   0.500000   0.517101   1.760353 )

     reciprocal axes: (cart. coord. in units 2 pi/alat)
               b(1) = (  1.000000  0.000000 -0.284034 )
               b(2) = (  0.000000  0.966930 -0.284034 )
               b(3) = (  0.000000  0.000000  0.568068 )

     PseudoPot. # 1 for La read from file:
     /home/pragov/projects/rrg-bengioy-ad/pragov/crystal_structure_design/SSSP/La.GGA-PBE-paw-v1.0.UPF
     MD5 check sum: 436541e95c1ad8901025bd0b0ed42ae2
     Pseudo is Projector augmented-wave + core cor, Zval = 11.0
     Generated using ATOMPAW code
     Shape of augmentation charge: BESSEL
     Using radial grid of 1101 points,  8 beta functions with:
                l(1) =   0
                l(2) =   0
                l(3) =   1
                l(4) =   1
                l(5) =   2
                l(6) =   2
                l(7) =   3
                l(8) =   3
     Q(r) pseudized with 0 coefficients

     PseudoPot. # 2 for Ge read from file:
     /home/pragov/projects/rrg-bengioy-ad/pragov/crystal_structure_design/SSSP/ge_pbe_v1.4.uspp.F.UPF
     MD5 check sum: 9c9eaa91e581c3f09632fb3098b2c6b2
     Pseudo is Ultrasoft + core correction, Zval = 14.0
     Generated by new atomic code, or converted to UPF format
     Using radial grid of  873 points,  6 beta functions with:
                l(1) =   0
                l(2) =   0
                l(3) =   1
                l(4) =   1
                l(5) =   2
                l(6) =   2
     Q(r) pseudized with  8 coefficients,  rinner =    1.400   1.400   1.400
                                                       1.400   1.400

     atomic species   valence    mass     pseudopotential
        La            11.00   138.90547     La( 1.00)
        Ge            14.00    72.63000     Ge( 1.00)

      4 Sym. Ops. (no inversion) found

                                    s                        frac. trans.

      isym =  1     identity

 cryst.   s( 1) = (     1          0          0      )
                  (     0          1          0      )
                  (     0          0          1      )

 cart.    s( 1) = (  1.0000000  0.0000000  0.0000000 )
                  (  0.0000000  1.0000000  0.0000000 )
                  (  0.0000000  0.0000000  1.0000000 )

      isym =  2     180 deg rotation - cart. axis [0,0,1]

[...]

      isym =  3     inv. 180 deg rotation - cart. axis [0,1,0]

[...]

      isym =  4     inv. 180 deg rotation - cart. axis [1,0,0]

 cryst.   s( 4) = (    -1          0          0      )
                  (     0          1          0      )
                  (    -1          0          1      )

 cart.    s( 4) = ( -1.0000000  0.0000000  0.0000001 )
                  (  0.0000000  1.0000000  0.0000000 )
                  (  0.0000000  0.0000000  1.0000000 )

   Cartesian axes

     site n.     atom                  positions (alat units)
         1           La  tau(   1) = (   1.0000001   0.5171007   0.8789477  )
         2           La  tau(   2) = (   0.4999996   0.5171003   1.7592490  )
         3           Ge  tau(   3) = (   0.5000000   0.5171007   0.3225459  )
         4           Ge  tau(   4) = (   0.5000001   1.0342014   1.1321110  )
         5           Ge  tau(   5) = (   1.0000001   1.0342014   1.4874664  )

   Crystallographic axes

     site n.     atom                  positions (cryst. coord.)
         1           La  tau(   1) = (  0.7503490  0.2503490  0.4993020  )
         2           La  tau(   2) = (  0.0003130  0.0003130  0.9993730  )
         3           Ge  tau(   3) = (  0.4083860  0.4083860  0.1832280  )
         4           Ge  tau(   4) = (  0.1784420  0.6784420  0.6431160  )
         5           Ge  tau(   5) = (  0.5775090  0.5775090  0.8449820  )

     number of k points=     1  Methfessel-Paxton smearing, width (Ry)=  0.0010
                       cart. coord. in units 2pi/alat
        k(    1) = (   0.0000000   0.0000000   0.0000000), wk =   2.0000000

                       cryst. coord.
        k(    1) = (   0.0000000   0.0000000   0.0000000), wk =   2.0000000

     Initial potential from superposition of free atoms

     starting charge      63.9803, renormalised to      64.0000
     Starting wfcs are   91 randomized atomic wfcs
     Checking if some PAW data can be deallocated...

     Self-consistent Calculation

     iteration #  1     ecut=    30.00 Ry     beta= 0.70
     Davidson diagonalization with overlap

     ethr =  1.00E-02,  avg # of iterations =  2.0

     Threshold (ethr) on eigenvalues was too large:
     Diagonalizing with lowered threshold

     Davidson diagonalization with overlap

[...]

     total energy              =   -1556.84264642 Ry
     estimated scf accuracy    <       0.35346411 Ry

[...]

     total energy              =   -1557.07066103 Ry
     estimated scf accuracy    <       0.00005782 Ry

     iteration # 25     ecut=    30.00 Ry     beta= 0.70
     Davidson diagonalization with overlap

     ethr =  4.83E-09,  avg # of iterations =  1.0

     End of self-consistent calculation

          k = 0.0000 0.0000 0.0000 (  1229 PWs)   bands (ev):

   -21.7084 -21.6492 -13.8233 -13.8123 -13.7511 -13.7430 -13.7242 -13.6877
   -13.6852 -13.6621 -13.6583 -13.6481 -13.5971 -13.5889 -13.5318 -13.5267
   -13.4935  -5.8803  -5.4099  -5.3773  -5.3313  -5.3012  -5.2663  -0.0510
     2.3997   4.4162   8.5637   9.0268   9.0499   9.7130  10.3325  10.4282
    10.4300  11.4424  12.0776  12.1996  12.5406  12.6223

     occupation numbers
     1.0000   1.0000   1.0000   1.0000   1.0000   1.0000   1.0000   1.0000
     1.0000   1.0000   1.0000   1.0000   1.0000   1.0000   1.0000   1.0000
     1.0000   1.0000   1.0000   1.0000   1.0000   1.0000   1.0000   1.0000
     1.0000   1.0000   1.0000   1.0000   1.0000   1.0000   1.0000   0.5574
     0.4426  -0.0000  -0.0000  -0.0000  -0.0000  -0.0000

     the Fermi energy is    10.4291 ev

!    total energy              =   -1557.07066076 Ry
     estimated scf accuracy    <       0.00000077 Ry
     smearing contrib. (-TS)   =      -0.00055640 Ry
     internal energy E=F+TS    =   -1557.07010436 Ry

     The total energy is F=E-TS. E is the sum of the following terms:
     one-electron contribution =    -446.43751757 Ry
     hartree contribution      =     277.68301752 Ry
     xc contribution           =    -192.46236500 Ry
     ewald contribution        =    -399.70827790 Ry
     one-center paw contrib.   =    -796.14496141 Ry
      -> PAW hartree energy AE =      71.30015009 Ry
      -> PAW hartree energy PS =     -71.35341831 Ry
      -> PAW xc energy AE      =    -810.87483376 Ry
      -> PAW xc energy PS      =      14.78314057 Ry
      -> total E_H with PAW    =     277.62974929 Ry
      -> total E_XC with PAW   =    -988.55405818 Ry

     convergence has been achieved in  25 iterations

     Forces acting on atoms (cartesian axes, Ry/au):

     atom    1 type  1   force =     0.00000000    0.00000000    0.03278004
     atom    2 type  1   force =     0.00000000    0.00000000   -0.04607409
     atom    3 type  2   force =     0.00000000    0.00000000    0.00778213
     atom    4 type  2   force =     0.00000000    0.00000000    0.11372497
     atom    5 type  2   force =     0.00000000    0.00000000   -0.10821306
     The non-local contrib.  to forces
     atom    1 type  1   force =     0.00000000    0.00000000    0.03194101
     atom    2 type  1   force =     0.00000000    0.00000000    0.09497249
     atom    3 type  2   force =     0.00000000    0.00000000   -0.28790558
     atom    4 type  2   force =     0.00000000    0.00000000   -0.03075004
     atom    5 type  2   force =     0.00000000    0.00000000    0.44374885
     The ionic contribution  to forces
     atom    1 type  1   force =    -0.00000044    0.00000099   -6.90360621
     atom    2 type  1   force =     0.00001951    0.00003012    7.49504025
     atom    3 type  2   force =    -0.00000931   -0.00001145   13.74555900
     atom    4 type  2   force =     0.00000357   -0.00000589  -14.91513258
     atom    5 type  2   force =    -0.00001332   -0.00001377    0.57813954
     The local contribution  to forces
     atom    1 type  1   force =    -0.00023987    0.00014670    6.90634452
     atom    2 type  1   force =    -0.00015852   -0.00007499   -7.63661204
     atom    3 type  2   force =     0.00056103    0.00019231  -13.44987301
     atom    4 type  2   force =     0.00015608   -0.00004237   15.05230846
     atom    5 type  2   force =    -0.00000184   -0.00001453   -1.12259363
     The core correction contribution to forces
     atom    1 type  1   force =    -0.00000013    0.00000008   -0.00004335
     atom    2 type  1   force =    -0.00000005   -0.00000002   -0.00003898
     atom    3 type  2   force =     0.00000851    0.00000309   -0.00018049
     atom    4 type  2   force =     0.00000201   -0.00000117    0.00710786
     atom    5 type  2   force =    -0.00000153   -0.00000024   -0.00870125
     The Hubbard contrib.    to forces
     atom    1 type  1   force =     0.00000000    0.00000000    0.00000000
     atom    2 type  1   force =     0.00000000    0.00000000    0.00000000
     atom    3 type  2   force =     0.00000000    0.00000000    0.00000000
     atom    4 type  2   force =     0.00000000    0.00000000    0.00000000
     atom    5 type  2   force =     0.00000000    0.00000000    0.00000000
     The SCF correction term to forces
     atom    1 type  1   force =     0.00008822   -0.00004715   -0.00150274
     atom    2 type  1   force =     0.00009097    0.00003164    0.00091737
     atom    3 type  2   force =    -0.00047794   -0.00026339    0.00053539
     atom    4 type  2   force =    -0.00007342   -0.00014233    0.00054445
     atom    5 type  2   force =     0.00006997    0.00008461    0.00154661

     Total force =     0.167037     Total SCF correction =     0.002536

     Computing stress (Cartesian axis) and pressure

          total   stress  (Ry/bohr**3)                   (kbar)     P=      -22.19
   0.00020323   0.00000000  -0.00000000           29.90        0.00       -0.00
   0.00000000   0.00008353  -0.00000000            0.00       12.29       -0.00
  -0.00000000  -0.00000000  -0.00073922           -0.00       -0.00     -108.74

     kinetic stress (kbar)   9228.62      0.00     -0.00
                                0.00   9378.22     -0.00
                               -0.00     -0.00   9052.84

     local   stress (kbar)  -9548.22     -0.09      0.02
                               -0.09   6014.27     -0.02
                                0.02     -0.02  -1322.48

     nonloc. stress (kbar)   5045.94      0.00     -0.00
                                0.00   5110.39     -0.00
                               -0.00     -0.00   5017.77

     hartree stress (kbar)  18779.04      0.05     -0.01
                                0.05  11990.99      0.02
                               -0.01      0.02  15053.48

     exc-cor stress (kbar)   9268.20      0.00     -0.00
                                0.00   9266.31      0.00
                               -0.00      0.00   9266.07

     corecor stress (kbar) -15235.86     -0.00     -0.00
                               -0.00 -15236.62     -0.00
                               -0.00     -0.00 -15235.27

     ewald   stress (kbar) -17507.82      0.00     -0.00
                                0.00 -26511.27      0.00
                               -0.00      0.00 -21941.15

     hubbard stress (kbar)      0.00      0.00      0.00
                                0.00      0.00      0.00
                                0.00      0.00      0.00

     DFT-D   stress (kbar)      0.00      0.00      0.00
                                0.00      0.00      0.00
                                0.00      0.00      0.00

     XDM     stress (kbar)      0.00      0.00      0.00
                                0.00      0.00      0.00
                                0.00      0.00      0.00

     dft-nl  stress (kbar)      0.00      0.00      0.00
                                0.00      0.00      0.00
                                0.00      0.00      0.00

     TS-vdW  stress (kbar)      0.00      0.00      0.00
                                0.00      0.00      0.00
                                0.00      0.00      0.00

[...]

                                0.00      0.00      0.00

     Writing all to output data dir new_calculations/myprefix.save/

     General routines

     Parallel routines

     PAW routines

   This run was terminated on:   6:50: 6  21May2023

   JOB DONE.