     Program PWSCF v.7.0 starts on 20May2023 at  6:46:29

     Reading input from espresso_9193.pwi
Warning: card &CELL ignored
Warning: card / ignored

     Current dimensions of program PWSCF are:
     Max number of different atomic species (ntypx) = 10
     Max number of k-points (npk) =  40000
     Max angular momentum in pseudopotentials (lmaxx) =  4

     gamma-point specific algorithms are used
     Message from routine setup:
     using ibrav=0 with symmetry is DISCOURAGED, use correct ibrav instead

     Subspace diagonalization in iterative solution of the eigenvalue problem:
     a serial algorithm will be used

     Using Slab Decomposition

     bravais-lattice index     =            0
     lattice parameter (alat)  =      10.0220  a.u.
     unit-cell volume          =    1354.0537 (a.u.)^3
     number of atoms/cell      =           12
     number of atomic types    =            3
     number of electrons       =       158.00
     number of Kohn-Sham states=           95
     kinetic-energy cutoff     =      30.0000  Ry
     charge density cutoff     =     240.0000  Ry
     scf convergence threshold =      1.0E-06
     mixing beta               =       0.7000
     number of iterations used =            8  plain     mixing
     Exchange-correlation= PBE
                           (   1   4   3   4   0   0   0)

     celldm(1)=  10.022004  celldm(2)=   0.000000  celldm(3)=   0.000000
     celldm(4)=   0.000000  celldm(5)=   0.000000  celldm(6)=   0.000000

     crystal axes: (cart. coord. in units of alat)
               a(1) = (   1.000000   0.000000   0.000000 )
               a(2) = (  -0.500000   0.866025   0.000000 )
               a(3) = (   0.000000   0.000000   1.553251 )

     reciprocal axes: (cart. coord. in units 2 pi/alat)
               b(1) = (  1.000000  0.577350  0.000000 )
               b(2) = (  0.000000  1.154701  0.000000 )
               b(3) = (  0.000000  0.000000  0.643811 )

     PseudoPot. # 1 for Zr read from file:
     /home/pragov/projects/rrg-bengioy-ad/pragov/crystal_structure_design/SSSP/Zr_pbe_v1.uspp.F.UPF
     MD5 check sum: 5db81b1e868ab7776c4564c113de050b
     Pseudo is Ultrasoft + core correction, Zval = 12.0
     Generated by new atomic code, or converted to UPF format
     Using radial grid of  887 points,  6 beta functions with:
                l(1) =   0
                l(2) =   0
                l(3) =   1
                l(4) =   1
                l(5) =   2
                l(6) =   2
     Q(r) pseudized with  6 coefficients,  rinner =    1.200   1.200   1.200
                                                       1.200   1.200

     PseudoPot. # 2 for V  read from file:
     /home/pragov/projects/rrg-bengioy-ad/pragov/crystal_structure_design/SSSP/v_pbe_v1.4.uspp.F.UPF
     MD5 check sum: 22b79981416ebb76fdaf5b1b8640f6fb
     Pseudo is Ultrasoft + core correction, Zval = 13.0
     Generated by new atomic code, or converted to UPF format
     Using radial grid of  853 points,  6 beta functions with:
                l(1) =   0
                l(2) =   0
                l(3) =   1
                l(4) =   1
                l(5) =   2
                l(6) =   2
     Q(r) pseudized with  8 coefficients,  rinner =    1.100   1.100   1.100
                                                       1.100   1.100

     PseudoPot. # 3 for Ru read from file:
     /home/pragov/projects/rrg-bengioy-ad/pragov/crystal_structure_design/SSSP/Ru_ONCV_PBE-1.0.oncvpsp.upf
     MD5 check sum: be037bb81c227cfb9b1461a9f099f4bd
     Pseudo is Norm-conserving, Zval = 16.0
     Generated using ONCVPSP code by D. R. Hamann
     Using radial grid of 1458 points,  6 beta functions with:
                l(1) =   0
                l(2) =   0
                l(3) =   1
                l(4) =   1
                l(5) =   2
                l(6) =   2

     atomic species   valence    mass     pseudopotential
        Zr            12.00    91.22400     Zr( 1.00)
        V             13.00    50.94150     V ( 1.00)
        Ru            16.00   101.07000     Ru( 1.00)

     24 Sym. Ops., with inversion, found (12 have fractional translation)

                                    s                        frac. trans.

      isym =  1     identity

 cryst.   s( 1) = (     1          0          0      )
                  (     0          1          0      )
                  (     0          0          1      )

 cart.    s( 1) = (  1.0000000 -0.0000000  0.0000000 )
                  (  0.0000000  1.0000000  0.0000000 )
                  (  0.0000000  0.0000000  1.0000000 )

      isym =  2     180 deg rotation - cart. axis [0,0,1]

 cryst.   s( 2) = (    -1          0          0      )    f =(  0.0000000 )
                  (     0         -1          0      )       (  0.0000000 )
                  (     0          0          1      )       ( -0.5000000 )

 cart.    s( 2) = ( -1.0000000  0.0000000  0.0000000 )    f =(  0.0000000 )
                  (  0.0000000 -1.0000000  0.0000000 )       (  0.0000000 )
                  (  0.0000000  0.0000000  1.0000000 )       ( -0.7766254 )

[...]

      isym =  4     180 deg rotation - cart. axis [1,0,0]

[...]

      isym =  5      60 deg rotation - cryst. axis [0,0,1]

[...]

 cryst.   s( 8) = (    -1         -1          0      )
                  (     1          0          0      )
                  (     0          0          1      )

 cart.    s( 8) = ( -0.5000000  0.8660254  0.0000000 )
                  ( -0.8660254 -0.5000000  0.0000000 )
                  (  0.0000000  0.0000000  1.0000000 )

[...]

 cryst.   s( 9) = (     0         -1          0      )    f =(  0.0000000 )
                  (    -1          0          0      )       (  0.0000000 )
                  (     0          0         -1      )       (  0.5000000 )

 cart.    s( 9) = (  0.5000000 -0.8660254  0.0000000 )    f =(  0.0000000 )
                  ( -0.8660254 -0.5000000  0.0000000 )       (  0.0000000 )
                  (  0.0000000  0.0000000 -1.0000000 )       (  0.7766254 )

[...]

 cryst.   s(10) = (     1          1          0      )    f =(  0.0000000 )
                  (     0         -1          0      )       ( -0.0000010 )
                  (     0          0         -1      )       (  0.5000000 )

 cart.    s(10) = (  0.5000000  0.8660254  0.0000000 )    f =(  0.0000005 )
                  (  0.8660254 -0.5000000  0.0000000 )       ( -0.0000009 )
                  (  0.0000000  0.0000000 -1.0000000 )       (  0.7766254 )

[...]

 cryst.   s(11) = (    -1         -1          0      )
                  (     0          1          0      )
                  (     0          0         -1      )

 cart.    s(11) = ( -0.5000000 -0.8660254  0.0000000 )
                  ( -0.8660254  0.5000000  0.0000000 )
                  (  0.0000000  0.0000000 -1.0000000 )

      isym = 12     180 deg rotation - cryst. axis [1,1,0]

[...]

      isym = 13     inversion

[...]

      isym = 14     inv. 180 deg rotation - cart. axis [0,0,1]

[...]

      isym = 16     inv. 180 deg rotation - cart. axis [1,0,0]

[...]

      isym = 17     inv.  60 deg rotation - cryst. axis [0,0,1]

[...]

 cryst.   s(22) = (    -1         -1          0      )    f =(  0.0000000 )
                  (     0          1          0      )       ( -0.0000010 )
                  (     0          0          1      )       ( -0.5000000 )

 cart.    s(22) = ( -0.5000000 -0.8660254  0.0000000 )    f =(  0.0000005 )
                  ( -0.8660254  0.5000000  0.0000000 )       ( -0.0000009 )
                  (  0.0000000  0.0000000  1.0000000 )       ( -0.7766254 )

[...]

      isym = 24     inv. 180 deg rotation - cryst. axis [1,1,0]

 cryst.   s(24) = (     0         -1          0      )
                  (    -1          0          0      )
                  (     0          0          1      )

 cart.    s(24) = (  0.5000000 -0.8660254  0.0000000 )
                  ( -0.8660254 -0.5000000  0.0000000 )
                  (  0.0000000  0.0000000  1.0000000 )

   Cartesian axes

     site n.     atom                  positions (alat units)
         1           Zr  tau(   1) = (  -0.0000005   0.5773506   0.6840905  )
         2           Zr  tau(   2) = (   0.5000005   0.2886748   0.8691603  )
         3           Zr  tau(   3) = (   0.5000005   0.2886748   1.4607159  )
         4           Zr  tau(   4) = (  -0.0000005   0.5773506   0.0925349  )
         5           V   tau(   5) = (   0.7458460   0.1467359   0.3883127  )
         6           V   tau(   6) = (   0.4999995   0.5725545   0.3883127  )
         7           V   tau(   7) = (   0.2541530   0.1467359   0.3883127  )
         8           V   tau(   8) = (  -0.2458460   0.7192895   1.1649381  )
         9           V   tau(   9) = (   0.0000005   0.2934709   1.1649381  )
        10           V   tau(  10) = (   0.2458470   0.7192895   1.1649381  )
        11           Ru  tau(  11) = (   0.0000000   0.0000000   0.7766254  )
        12           Ru  tau(  12) = (   0.0000000   0.0000000   0.0000000  )

   Crystallographic axes

     site n.     atom                  positions (cryst. coord.)
         1           Zr  tau(   1) = (  0.3333330  0.6666670  0.4404250  )
         2           Zr  tau(   2) = (  0.6666670  0.3333330  0.5595750  )
         3           Zr  tau(   3) = (  0.6666670  0.3333330  0.9404250  )
         4           Zr  tau(   4) = (  0.3333330  0.6666670  0.0595750  )
         5           V   tau(   5) = (  0.8305640  0.1694360  0.2500000  )
         6           V   tau(   6) = (  0.8305640  0.6611290  0.2500000  )
         7           V   tau(   7) = (  0.3388710  0.1694360  0.2500000  )
         8           V   tau(   8) = (  0.1694360  0.8305640  0.7500000  )
         9           V   tau(   9) = (  0.1694360  0.3388710  0.7500000  )
        10           V   tau(  10) = (  0.6611290  0.8305640  0.7500000  )
        11           Ru  tau(  11) = (  0.0000000  0.0000000  0.5000000  )
        12           Ru  tau(  12) = (  0.0000000  0.0000000  0.0000000  )

     number of k points=     1  Methfessel-Paxton smearing, width (Ry)=  0.0010
                       cart. coord. in units 2pi/alat
        k(    1) = (   0.0000000   0.0000000   0.0000000), wk =   2.0000000

                       cryst. coord.
        k(    1) = (   0.0000000   0.0000000   0.0000000), wk =   2.0000000

     Check: negative core charge=   -0.000007

     Initial potential from superposition of free atoms

     starting charge     157.9829, renormalised to     158.0000

     negative rho (up, down):  2.488E-01 0.000E+00
     Starting wfcs are  132 randomized atomic wfcs

     Self-consistent Calculation

     iteration #  1     ecut=    30.00 Ry     beta= 0.70
     Davidson diagonalization with overlap

     ethr =  1.00E-02,  avg # of iterations =  2.0

     Threshold (ethr) on eigenvalues was too large:
     Diagonalizing with lowered threshold

     Davidson diagonalization with overlap

[...]

     negative rho (up, down):  2.581E-01 0.000E+00

     total energy              =   -1643.37781022 Ry
     estimated scf accuracy    <       1.59925817 Ry

[...]

     total energy              =   -1644.35761824 Ry
     estimated scf accuracy    <       0.00000140 Ry

     iteration # 22     ecut=    30.00 Ry     beta= 0.70
     Davidson diagonalization with overlap

     ethr =  8.88E-10,  avg # of iterations =  1.0

[...]

     End of self-consistent calculation

          k = 0.0000 0.0000 0.0000 (  1889 PWs)   bands (ev):

   -55.8413 -55.8407 -47.7965 -47.7953 -47.6960 -47.6956 -47.6955 -47.6953
   -31.7759 -31.7459 -31.7085 -31.6769 -25.8674 -25.8673 -25.8603 -25.8602
   -25.7981 -25.7961 -21.9226 -21.8877 -21.7852 -21.7850 -21.7814 -21.7814
   -21.5959 -21.5645 -21.5105 -21.5104 -21.4958 -21.4957 -21.4713 -21.4688
   -21.2685 -21.2684 -21.2658 -21.2658 -10.0341 -10.0221  -9.9533  -9.9533
    -9.9223  -9.9223  -9.7051  -9.7050  -9.6589  -9.6589  -9.6236  -9.6236
    10.0279  12.2779  12.4446  12.4992  13.0118  13.0118  13.2331  13.5839
    13.7387  13.7387  13.8927  13.8927  14.1697  14.1697  14.3272  14.3272
    14.3811  14.5969  15.1250  15.1251  15.4288  15.4289  15.4661  15.4661
    15.5404  15.8295  16.1178  16.1178  16.1258  16.1259  16.5699  16.7401
    16.7401  17.2220  17.2220  17.3407  17.4210  17.5451  17.5451  17.6150
    17.6150  17.6776  17.6777  17.6932  17.8434  17.9337  18.1238

     occupation numbers
     1.0000   1.0000   1.0000   1.0000   1.0000   1.0000   1.0000   1.0000
     1.0000   1.0000   1.0000   1.0000   1.0000   1.0000   1.0000   1.0000
     1.0000   1.0000   1.0000   1.0000   1.0000   1.0000   1.0000   1.0000
     1.0000   1.0000   1.0000   1.0000   1.0000   1.0000   1.0000   1.0000
     1.0000   1.0000   1.0000   1.0000   1.0000   1.0000   1.0000   1.0000
     1.0000   1.0000   1.0000   1.0000   1.0000   1.0000   1.0000   1.0000
     1.0000   1.0000   1.0000   1.0000   1.0000   1.0000   1.0000   1.0000
     1.0000   1.0000   1.0000   1.0000   1.0000   1.0000   1.0000   1.0000
     1.0000   1.0000   1.0000   1.0000   1.0000   1.0000   1.0000   1.0000
     1.0000   1.0000   1.0000   1.0000   1.0000   1.0000   1.0000  -0.0000
    -0.0000  -0.0000  -0.0000  -0.0000  -0.0000  -0.0000  -0.0000  -0.0000
    -0.0000  -0.0000  -0.0000  -0.0000  -0.0000  -0.0000  -0.0000

     the Fermi energy is    16.6649 ev

!    total energy              =   -1644.35761812 Ry
     estimated scf accuracy    <       0.00000024 Ry
     smearing contrib. (-TS)   =       0.00000000 Ry
     internal energy E=F+TS    =   -1644.35761812 Ry

     The total energy is F=E-TS. E is the sum of the following terms:
     one-electron contribution =    -519.96722646 Ry
     hartree contribution      =     332.75713382 Ry
     xc contribution           =    -228.49752893 Ry
     ewald contribution        =   -1228.64999654 Ry

     convergence has been achieved in  22 iterations

     negative rho (up, down):  2.616E-01 0.000E+00

     Forces acting on atoms (cartesian axes, Ry/au):

     atom    1 type  1   force =     0.00000000   -0.00000000    0.08405977
     atom    2 type  1   force =     0.00000000    0.00000000   -0.08405977
     atom    3 type  1   force =    -0.00000000    0.00000000    0.08405977
     atom    4 type  1   force =     0.00000000    0.00000000   -0.08405977
     atom    5 type  2   force =     0.00148259   -0.00085598    0.00000000
     atom    6 type  2   force =    -0.00000000    0.00171195    0.00000000
     atom    7 type  2   force =    -0.00148259   -0.00085598   -0.00000000
     atom    8 type  2   force =    -0.00148259    0.00085598   -0.00000000
     atom    9 type  2   force =     0.00000000   -0.00171195   -0.00000000
     atom   10 type  2   force =     0.00148259    0.00085598    0.00000000
     atom   11 type  3   force =    -0.00000000   -0.00000000    0.00000000
     atom   12 type  3   force =     0.00000000    0.00000000    0.00000000
     The non-local contrib.  to forces
     atom    1 type  1   force =    -0.00000000   -0.00000000   -0.05157002
     atom    2 type  1   force =     0.00000000   -0.00000000    0.05157002
     atom    3 type  1   force =     0.00000000   -0.00000000   -0.05157002
     atom    4 type  1   force =     0.00000000    0.00000000    0.05157002
     atom    5 type  2   force =    -0.04526999    0.02613664    0.00000000
     atom    6 type  2   force =     0.00000000   -0.05227328    0.00000000
     atom    7 type  2   force =     0.04526999    0.02613664    0.00000000
     atom    8 type  2   force =     0.04526999   -0.02613664    0.00000000
     atom    9 type  2   force =    -0.00000000    0.05227328   -0.00000000
     atom   10 type  2   force =    -0.04526999   -0.02613664   -0.00000000
     atom   11 type  3   force =    -0.00000000   -0.00000000    0.00000000
     atom   12 type  3   force =     0.00000000   -0.00000000    0.00000000
     The ionic contribution  to forces
     atom    1 type  1   force =     0.00004215   -0.00002433   -1.44658786
     atom    2 type  1   force =    -0.00004215    0.00002433    1.44658786
     atom    3 type  1   force =    -0.00004215    0.00002433   -1.44658786
     atom    4 type  1   force =     0.00004215   -0.00002433    1.44658786
     atom    5 type  2   force =    -5.52287439    3.18863300    0.00000000
     atom    6 type  2   force =    -0.00003343   -6.37731134    0.00000000
     atom    7 type  2   force =     5.52289690    3.18868464    0.00000000
     atom    8 type  2   force =     5.52287439   -3.18863300   -0.00000000
     atom    9 type  2   force =     0.00003343    6.37731134   -0.00000000
     atom   10 type  2   force =    -5.52289690   -3.18868464   -0.00000000
     atom   11 type  3   force =    -0.00000000   -0.00000000    0.00000000
     atom   12 type  3   force =    -0.00000000   -0.00000000   -0.00000000
     The local contribution  to forces
     atom    1 type  1   force =    -0.00012449    0.00016591    1.57959116
     atom    2 type  1   force =    -0.00000194   -0.00002728   -1.57997586
     atom    3 type  1   force =    -0.00000043   -0.00001694    1.57988858
     atom    4 type  1   force =    -0.00012017    0.00016017   -1.57951179
     atom    5 type  2   force =     5.56201509   -3.21128556    0.00015014
     atom    6 type  2   force =     0.00006199    6.42266655    0.00014416
     atom    7 type  2   force =    -5.56203627   -3.21136313    0.00014747
     atom    8 type  2   force =    -5.56201669    3.21128570   -0.00013560
     atom    9 type  2   force =    -0.00006056   -6.42255335   -0.00012259
     atom   10 type  2   force =     5.56199855    3.21134283   -0.00011989
     atom   11 type  3   force =     0.00029105   -0.00033390   -0.00061395
     atom   12 type  3   force =     0.00029569   -0.00033138    0.00059546
     The core correction contribution to forces
     atom    1 type  1   force =    -0.00000047    0.00000137    0.00243321
     atom    2 type  1   force =     0.00000021   -0.00000080   -0.00243343
     atom    3 type  1   force =     0.00000019   -0.00000061    0.00243298
     atom    4 type  1   force =    -0.00000045    0.00000122   -0.00243253
     atom    5 type  2   force =     0.00753729   -0.00434994    0.00000070
     atom    6 type  2   force =     0.00000064    0.00870522    0.00000048
     atom    7 type  2   force =    -0.00753834   -0.00435116    0.00000049
     atom    8 type  2   force =    -0.00753989    0.00435155   -0.00000063
     atom    9 type  2   force =    -0.00000098   -0.00870444   -0.00000048
     atom   10 type  2   force =     0.00753888    0.00435181   -0.00000006
     atom   11 type  3   force =     0.00000000    0.00000000    0.00000000
     atom   12 type  3   force =     0.00000000    0.00000000    0.00000000
     The Hubbard contrib.    to forces
     atom    1 type  1   force =     0.00000000    0.00000000    0.00000000
     atom    2 type  1   force =     0.00000000    0.00000000    0.00000000
     atom    3 type  1   force =     0.00000000    0.00000000    0.00000000
     atom    4 type  1   force =     0.00000000    0.00000000    0.00000000
     atom    5 type  2   force =     0.00000000    0.00000000    0.00000000
     atom    6 type  2   force =     0.00000000    0.00000000    0.00000000
     atom    7 type  2   force =     0.00000000    0.00000000    0.00000000
     atom    8 type  2   force =     0.00000000    0.00000000    0.00000000
     atom    9 type  2   force =     0.00000000    0.00000000    0.00000000
     atom   10 type  2   force =     0.00000000    0.00000000    0.00000000
     atom   11 type  3   force =     0.00000000    0.00000000    0.00000000
     atom   12 type  3   force =     0.00000000    0.00000000    0.00000000
     The SCF correction term to forces
     atom    1 type  1   force =     0.00007261   -0.00012636    0.00019654
     atom    2 type  1   force =     0.00004523   -0.00000405    0.00017174
     atom    3 type  1   force =     0.00004356   -0.00001065   -0.00010515
     atom    4 type  1   force =     0.00007030   -0.00012142   -0.00025142
     atom    5 type  2   force =     0.00006780    0.00003495   -0.00013776
     atom    6 type  2   force =    -0.00002966   -0.00008359   -0.00013502
     atom    7 type  2   force =    -0.00006970    0.00005909   -0.00013878
     atom    8 type  2   force =    -0.00009075   -0.00001406    0.00012836
     atom    9 type  2   force =     0.00002096   -0.00005116    0.00011882
     atom   10 type  2   force =     0.00012605   -0.00001457    0.00011723
     atom   11 type  3   force =    -0.00027995    0.00032870    0.00059579
     atom   12 type  3   force =    -0.00027887    0.00033007   -0.00057504

     Total force =     0.168172     Total SCF correction =     0.001182

     Computing stress (Cartesian axis) and pressure

     negative rho (up, down):  2.616E-01 0.000E+00
          total   stress  (Ry/bohr**3)                   (kbar)     P=     -113.95
  -0.00143931  -0.00000000   0.00000000         -211.73       -0.00        0.00
  -0.00000000  -0.00143931   0.00000000           -0.00     -211.73        0.00
   0.00000000   0.00000000   0.00055475            0.00        0.00       81.61

     kinetic stress (kbar)  32635.87      0.00      0.00
                                0.00  32635.87      0.00
                                0.00      0.00  33113.25

     local   stress (kbar)   2629.37      0.03     -0.00
                                0.03   2629.40      0.00
                               -0.00      0.00  -6834.63

     nonloc. stress (kbar)   7610.27      0.00      0.00
                                0.00   7610.27      0.00
                                0.00      0.00   7491.12

     hartree stress (kbar)  10805.29     -0.03      0.00
                               -0.03  10805.39     -0.00
                                0.00     -0.00  14540.22

     exc-cor stress (kbar)  -3082.38     -0.00      0.00
                               -0.00  -3082.38      0.00
                                0.00      0.00  -3075.57

     corecor stress (kbar)  -4431.43      0.00     -0.00
                                0.00  -4431.43      0.00
                               -0.00      0.00  -4429.23

     ewald   stress (kbar) -46378.79     -0.01     -0.00
                               -0.01 -46378.80     -0.00
                               -0.00     -0.00 -40723.57

     hubbard stress (kbar)      0.00      0.00      0.00
                                0.00      0.00      0.00
                                0.00      0.00      0.00

     DFT-D   stress (kbar)      0.00      0.00      0.00
                                0.00      0.00      0.00
                                0.00      0.00      0.00

     XDM     stress (kbar)      0.00      0.00      0.00
                                0.00      0.00      0.00
                                0.00      0.00      0.00

     dft-nl  stress (kbar)      0.00      0.00      0.00
                                0.00      0.00      0.00
                                0.00      0.00      0.00

     TS-vdW  stress (kbar)      0.00      0.00      0.00
                                0.00      0.00      0.00
                                0.00      0.00      0.00

[...]

                                0.00      0.00      0.00

     Writing all to output data dir new_calculations/myprefix.save/

     General routines

     Parallel routines

   This run was terminated on:   6:47: 4  20May2023

   JOB DONE.