     Program PWSCF v.7.0 starts on 21May2023 at  6:15:32

     Reading input from espresso_10086.pwi
Warning: card &CELL ignored
Warning: card / ignored

     Current dimensions of program PWSCF are:
     Max number of different atomic species (ntypx) = 10
     Max number of k-points (npk) =  40000
     Max angular momentum in pseudopotentials (lmaxx) =  4

     gamma-point specific algorithms are used
     Message from routine setup:
     using ibrav=0 with symmetry is DISCOURAGED, use correct ibrav instead

     Subspace diagonalization in iterative solution of the eigenvalue problem:
     a serial algorithm will be used

     Using Slab Decomposition

     bravais-lattice index     =            0
     lattice parameter (alat)  =       8.1212  a.u.
     unit-cell volume          =     245.7487 (a.u.)^3
     number of atoms/cell      =            4
     number of atomic types    =            2
     number of electrons       =        32.00
     number of Kohn-Sham states=           20
     kinetic-energy cutoff     =      30.0000  Ry
     charge density cutoff     =     240.0000  Ry
     scf convergence threshold =      1.0E-06
     mixing beta               =       0.7000
     number of iterations used =            8  plain     mixing
     Exchange-correlation=  SLA  PW   PBX  PBC
                           (   1   4   3   4   0   0   0)

     celldm(1)=   8.121192  celldm(2)=   0.000000  celldm(3)=   0.000000
     celldm(4)=   0.000000  celldm(5)=   0.000000  celldm(6)=   0.000000

     crystal axes: (cart. coord. in units of alat)
               a(1) = (   1.000000   0.000000   0.000000 )
               a(2) = (  -0.747683   0.664056   0.000000 )
               a(3) = (   0.000000   0.000000   0.690919 )

     reciprocal axes: (cart. coord. in units 2 pi/alat)
               b(1) = (  1.000000  1.125933  0.000000 )
               b(2) = (  0.000000  1.505897  0.000000 )
               b(3) = (  0.000000  0.000000  1.447348 )

     PseudoPot. # 1 for V  read from file:
     /home/pragov/projects/rrg-bengioy-ad/pragov/crystal_structure_design/SSSP/v_pbe_v1.4.uspp.F.UPF
     MD5 check sum: 22b79981416ebb76fdaf5b1b8640f6fb
     Pseudo is Ultrasoft + core correction, Zval = 13.0
     Generated by new atomic code, or converted to UPF format
     Using radial grid of  853 points,  6 beta functions with:
                l(1) =   0
                l(2) =   0
                l(3) =   1
                l(4) =   1
                l(5) =   2
                l(6) =   2
     Q(r) pseudized with  8 coefficients,  rinner =    1.100   1.100   1.100
                                                       1.100   1.100

     PseudoPot. # 2 for B  read from file:
     /home/pragov/projects/rrg-bengioy-ad/pragov/crystal_structure_design/SSSP/b_pbe_v1.4.uspp.F.UPF
     MD5 check sum: cc6de2960df11db49a60e589f9ebb39b
     Pseudo is Ultrasoft + core correction, Zval =  3.0
     Generated by new atomic code, or converted to UPF format
     Using radial grid of  781 points,  4 beta functions with:
                l(1) =   0
                l(2) =   0
                l(3) =   1
                l(4) =   1
     Q(r) pseudized with  8 coefficients,  rinner =    1.100   1.100   1.100

     atomic species   valence    mass     pseudopotential
        V             13.00    50.94150     V ( 1.00)
        B              3.00    10.81000     B ( 1.00)

      4 Sym. Ops., with inversion, found ( 2 have fractional translation)

                                    s                        frac. trans.

      isym =  1     identity

 cryst.   s( 1) = (     1          0          0      )
                  (     0          1          0      )
                  (     0          0          1      )

 cart.    s( 1) = (  1.0000000 -0.0000000  0.0000000 )
                  (  0.0000000  1.0000000  0.0000000 )
                  (  0.0000000  0.0000000  1.0000000 )

      isym =  2     180 deg rotation - cart. axis [0,0,1]

 cryst.   s( 2) = (    -1          0          0      )    f =( -0.0000000 )
                  (     0         -1          0      )       ( -0.0000000 )
                  (     0          0          1      )       ( -0.5000000 )

 cart.    s( 2) = ( -1.0000000  0.0000000  0.0000000 )    f =( -0.0000000 )
                  (  0.0000000 -1.0000000  0.0000000 )       ( -0.0000000 )
                  (  0.0000000  0.0000000  1.0000000 )       ( -0.3454594 )

      isym =  3     inversion

 cryst.   s( 3) = (    -1          0          0      )
                  (     0         -1          0      )
                  (     0          0         -1      )

 cart.    s( 3) = ( -1.0000000  0.0000000  0.0000000 )
                  (  0.0000000 -1.0000000  0.0000000 )
                  (  0.0000000  0.0000000 -1.0000000 )

      isym =  4     inv. 180 deg rotation - cart. axis [0,0,1]

 cryst.   s( 4) = (     1          0          0      )    f =(  0.0000000 )
                  (     0          1          0      )       (  0.0000000 )
                  (     0          0         -1      )       (  0.5000000 )

 cart.    s( 4) = (  1.0000000 -0.0000000  0.0000000 )    f =(  0.0000000 )
                  (  0.0000000  1.0000000  0.0000000 )       (  0.0000000 )
                  (  0.0000000  0.0000000 -1.0000000 )       (  0.3454594 )

   Cartesian axes

     site n.     atom                  positions (alat units)
         1           V   tau(   1) = (  -0.4895936   0.5659917   0.1727297  )
         2           V   tau(   2) = (   0.7419110   0.0980645   0.5181891  )
         3           B   tau(   3) = (   0.0169233   0.3735336   0.1727297  )
         4           B   tau(   4) = (   0.2353941   0.2905226   0.5181891  )

   Crystallographic axes

     site n.     atom                  positions (cryst. coord.)
         1           V   tau(   1) = (  0.1476750  0.8523250  0.2500000  )
         2           V   tau(   2) = (  0.8523250  0.1476750  0.7500000  )
         3           B   tau(   3) = (  0.4374970  0.5625030  0.2500000  )
         4           B   tau(   4) = (  0.5625030  0.4374970  0.7500000  )

     number of k points=     1  Methfessel-Paxton smearing, width (Ry)=  0.0010
                       cart. coord. in units 2pi/alat
        k(    1) = (   0.0000000   0.0000000   0.0000000), wk =   2.0000000

                       cryst. coord.
        k(    1) = (   0.0000000   0.0000000   0.0000000), wk =   2.0000000

     Check: negative core charge=   -0.000007

     Initial potential from superposition of free atoms

     starting charge      31.9970, renormalised to      32.0000
     Starting wfcs are   28 randomized atomic wfcs

     Self-consistent Calculation

     iteration #  1     ecut=    30.00 Ry     beta= 0.70
     Davidson diagonalization with overlap

     ethr =  1.00E-02,  avg # of iterations =  2.0

     negative rho (up, down):  2.241E-03 0.000E+00

     total energy              =    -302.36007797 Ry
     estimated scf accuracy    <       0.71985701 Ry

[...]

     total energy              =    -302.71730027 Ry
     estimated scf accuracy    <       0.00010634 Ry

     iteration # 14     ecut=    30.00 Ry     beta= 0.70
     Davidson diagonalization with overlap

     ethr =  8.58E-08,  avg # of iterations =  1.0

[...]

     End of self-consistent calculation

          k = 0.0000 0.0000 0.0000 (   329 PWs)   bands (ev):

   -46.9919 -46.8359 -21.2874 -21.1675 -21.0179 -20.6506 -20.2917 -20.1017
     4.4852  10.0428  13.5360  14.1621  14.2074  14.4134  16.4964  17.2936
    17.3055  17.8881  18.4860  18.7597

     occupation numbers
     1.0000   1.0000   1.0000   1.0000   1.0000   1.0000   1.0000   1.0000
     1.0000   1.0000   1.0000   1.0000   1.0000   1.0000   1.0000   0.8331
     0.1669  -0.0000  -0.0000  -0.0000

     the Fermi energy is    17.2996 ev

!    total energy              =    -302.71730200 Ry
     estimated scf accuracy    <       0.00000018 Ry
     smearing contrib. (-TS)   =      -0.00028896 Ry
     internal energy E=F+TS    =    -302.71701305 Ry

     The total energy is F=E-TS. E is the sum of the following terms:
     one-electron contribution =     -91.48744601 Ry
     hartree contribution      =      63.46797314 Ry
     xc contribution           =     -45.59158426 Ry
     ewald contribution        =    -229.10595592 Ry

     convergence has been achieved in  14 iterations

     negative rho (up, down):  1.590E-03 0.000E+00

     Forces acting on atoms (cartesian axes, Ry/au):

     atom    1 type  1   force =    -0.15533520    0.05902102   -0.00000000
     atom    2 type  1   force =     0.15533520   -0.05902102   -0.00000000
     atom    3 type  2   force =     0.23057261   -0.08760701    0.00000000
     atom    4 type  2   force =    -0.23057261    0.08760701    0.00000000
     The non-local contrib.  to forces
     atom    1 type  1   force =    -0.28179754    0.10707570    0.00000000
     atom    2 type  1   force =     0.28179754   -0.10707570   -0.00000000
     atom    3 type  2   force =     0.00566287   -0.00214308   -0.00000000
     atom    4 type  2   force =    -0.00566287    0.00214308    0.00000000
     The ionic contribution  to forces
     atom    1 type  1   force =    -1.10452920    0.41968116    0.00000000
     atom    2 type  1   force =     1.10452920   -0.41968116    0.00000000
     atom    3 type  2   force =     0.23805262   -0.09045139   -0.00000000
     atom    4 type  2   force =    -0.23805262    0.09045139   -0.00000000
     The local contribution  to forces
     atom    1 type  1   force =     1.21126962   -0.46021266    0.00005353
     atom    2 type  1   force =    -1.21144320    0.46029587    0.00012740
     atom    3 type  2   force =    -0.01722147    0.00652566   -0.00000901
     atom    4 type  2   force =     0.01734992   -0.00659953   -0.00000851
     The core correction contribution to forces
     atom    1 type  1   force =     0.01991378   -0.00756650    0.00000655
     atom    2 type  1   force =    -0.01991052    0.00756675    0.00000555
     atom    3 type  2   force =     0.00409525   -0.00155709    0.00000030
     atom    4 type  2   force =    -0.00409585    0.00155609    0.00000021
     The Hubbard contrib.    to forces
     atom    1 type  1   force =     0.00000000    0.00000000    0.00000000
     atom    2 type  1   force =     0.00000000    0.00000000    0.00000000
     atom    3 type  2   force =     0.00000000    0.00000000    0.00000000
     atom    4 type  2   force =     0.00000000    0.00000000    0.00000000
     The SCF correction term to forces
     atom    1 type  1   force =    -0.00020666    0.00005667    0.00002875
     atom    2 type  1   force =     0.00034739   -0.00011344   -0.00005523
     atom    3 type  2   force =    -0.00000748    0.00000328    0.00000381
     atom    4 type  2   force =    -0.00010202    0.00004037   -0.00000225

     Total force =     0.420598     Total SCF correction =     0.000442

     Computing stress (Cartesian axis) and pressure

     negative rho (up, down):  1.590E-03 0.000E+00
          total   stress  (Ry/bohr**3)                   (kbar)     P=       28.58
   0.00059197   0.00020034   0.00000000           87.08       29.47        0.00
   0.00020034   0.00104327   0.00000000           29.47      153.47        0.00
   0.00000000   0.00000000  -0.00105243            0.00        0.00     -154.82

     kinetic stress (kbar)  32429.04    664.30      0.00
                              664.30  33924.91      0.00
                                0.00      0.00  32109.15

     local   stress (kbar)   8576.13   -146.09     -0.32
                             -146.09   8247.23     -0.83
                               -0.32     -0.83  10066.94

     nonloc. stress (kbar)   -170.88    -69.41      0.00
                              -69.41   -327.16      0.00
                                0.00      0.00   -739.64

     hartree stress (kbar)  12745.63     13.28      0.09
                               13.28  12775.49      0.28
                                0.09      0.28  12470.79

     exc-cor stress (kbar)  -4264.87      7.11      0.00
                                7.11  -4248.85      0.00
                                0.00      0.00  -4266.06

     corecor stress (kbar)  -4037.40     -2.76     -0.00
                               -2.76  -4043.61     -0.01
                               -0.00     -0.01  -4018.38

     ewald   stress (kbar) -45190.58   -436.96      0.00
                             -436.96 -46174.55      0.00
                                0.00      0.00 -45777.63

     hubbard stress (kbar)      0.00      0.00      0.00
                                0.00      0.00      0.00
                                0.00      0.00      0.00

     DFT-D   stress (kbar)      0.00      0.00      0.00
                                0.00      0.00      0.00
                                0.00      0.00      0.00

     XDM     stress (kbar)      0.00      0.00      0.00
                                0.00      0.00      0.00
                                0.00      0.00      0.00

     dft-nl  stress (kbar)      0.00      0.00      0.00
                                0.00      0.00      0.00
                                0.00      0.00      0.00

     TS-vdW  stress (kbar)      0.00      0.00      0.00
                                0.00      0.00      0.00
                                0.00      0.00      0.00

[...]

                                0.00      0.00      0.00

     Writing all to output data dir new_calculations/myprefix.save/

     General routines

     Parallel routines

   This run was terminated on:   6:15:40  21May2023

   JOB DONE.