     Program PWSCF v.7.0 starts on 20May2023 at 13:45:13

     Reading input from espresso_17388.pwi
Warning: card &CELL ignored
Warning: card / ignored

     Current dimensions of program PWSCF are:
     Max number of different atomic species (ntypx) = 10
     Max number of k-points (npk) =  40000
     Max angular momentum in pseudopotentials (lmaxx) =  4
     file O.pbe-n-kjpaw_psl.0.1.UPF: wavefunction(s)  2P renormalized

     gamma-point specific algorithms are used
     Message from routine setup:
     using ibrav=0 with symmetry is DISCOURAGED, use correct ibrav instead

     Subspace diagonalization in iterative solution of the eigenvalue problem:
     a serial algorithm will be used

     Using Slab Decomposition

     bravais-lattice index     =            0
     lattice parameter (alat)  =       9.1988  a.u.
     unit-cell volume          =    1031.8399 (a.u.)^3
     number of atoms/cell      =           12
     number of atomic types    =            4
     number of electrons       =        75.00
     number of Kohn-Sham states=           46
     kinetic-energy cutoff     =      30.0000  Ry
     charge density cutoff     =     240.0000  Ry
     scf convergence threshold =      1.0E-06
     mixing beta               =       0.7000
     number of iterations used =            8  plain     mixing
     Exchange-correlation= SLA  PW   PBX  PBC
                           (   1   4   3   4   0   0   0)

     celldm(1)=   9.198755  celldm(2)=   0.000000  celldm(3)=   0.000000
     celldm(4)=   0.000000  celldm(5)=   0.000000  celldm(6)=   0.000000

     crystal axes: (cart. coord. in units of alat)
               a(1) = (   1.000000   0.000000   0.000000 )
               a(2) = (   0.391868   0.920022   0.000000 )
               a(3) = (   0.102148   0.067520   1.440878 )

     reciprocal axes: (cart. coord. in units 2 pi/alat)
               b(1) = (  1.000000 -0.425933 -0.050934 )
               b(2) = (  0.000000  1.086931 -0.050934 )
               b(3) = (  0.000000  0.000000  0.694021 )

     PseudoPot. # 1 for Li read from file:
     /home/pragov/projects/rrg-bengioy-ad/pragov/crystal_structure_design/SSSP/li_pbe_v1.4.uspp.F.UPF
     MD5 check sum: e912e257baa3777c20ea3d68f190483c
     Pseudo is Ultrasoft, Zval =  3.0
     Generated by new atomic code, or converted to UPF format
     Using radial grid of  751 points,  5 beta functions with:
                l(1) =   0
                l(2) =   0
                l(3) =   0
                l(4) =   1
                l(5) =   1
     Q(r) pseudized with 10 coefficients,  rinner =    1.150   1.150   1.150

     PseudoPot. # 2 for P  read from file:
     /home/pragov/projects/rrg-bengioy-ad/pragov/crystal_structure_design/SSSP/P.pbe-n-rrkjus_psl.1.0.0.UPF
     MD5 check sum: 8b930f418f0a4573dca56cd030ffe088
     Pseudo is Ultrasoft + core correction, Zval =  5.0
     Generated using "atomic" code by A. Dal Corso  v.5.1
     Using radial grid of 1147 points,  6 beta functions with:
                l(1) =   0
                l(2) =   0
                l(3) =   1
                l(4) =   1
                l(5) =   2
                l(6) =   2
     Q(r) pseudized with 0 coefficients

     PseudoPot. # 3 for W  read from file:
     /home/pragov/projects/rrg-bengioy-ad/pragov/crystal_structure_design/SSSP/W_pbe_v1.2.uspp.F.UPF
     MD5 check sum: 9c083fa34c2a2ea0f02f1f893e16e1c8
     Pseudo is Ultrasoft + core correction, Zval = 14.0
     Generated by new atomic code, or converted to UPF format
     Using radial grid of  923 points,  8 beta functions with:
                l(1) =   0
                l(2) =   0
                l(3) =   0
                l(4) =   1
                l(5) =   1
                l(6) =   2
                l(7) =   2
                l(8) =   3
     Q(r) pseudized with  6 coefficients,  rinner =    1.350   1.350   1.350
                                                       1.350   1.350   1.350
                                                       1.350

     PseudoPot. # 4 for O  read from file:
     /home/pragov/projects/rrg-bengioy-ad/pragov/crystal_structure_design/SSSP/O.pbe-n-kjpaw_psl.0.1.UPF
     MD5 check sum: 0234752ac141de4415c5fc33072bef88
     Pseudo is Projector augmented-wave + core cor, Zval =  6.0
     Generated using "atomic" code by A. Dal Corso  v.5.0.99 svn rev. 10869
     Shape of augmentation charge: BESSEL
     Using radial grid of 1095 points,  4 beta functions with:
                l(1) =   0
                l(2) =   0
                l(3) =   1
                l(4) =   1
     Q(r) pseudized with 0 coefficients

     atomic species   valence    mass     pseudopotential
        Li             3.00     6.94000     Li( 1.00)
        P              5.00    30.97376     P ( 1.00)
        W             14.00   183.84000     W ( 1.00)
        O              6.00    15.99900     O ( 1.00)

      2 Sym. Ops., with inversion, found

                                    s                        frac. trans.

      isym =  1     identity

 cryst.   s( 1) = (     1          0          0      )
                  (     0          1          0      )
                  (     0          0          1      )

 cart.    s( 1) = (  1.0000000 -0.0000000 -0.0000000 )
                  (  0.0000000  1.0000000 -0.0000000 )
                  (  0.0000000  0.0000000  1.0000000 )

      isym =  2     inversion

 cryst.   s( 2) = (    -1          0          0      )
                  (     0         -1          0      )
                  (     0          0         -1      )

 cart.    s( 2) = ( -1.0000000  0.0000000  0.0000000 )
                  (  0.0000000 -1.0000000  0.0000000 )
                  (  0.0000000  0.0000000 -1.0000000 )

   Cartesian axes

     site n.     atom                  positions (alat units)
         1           Li  tau(   1) = (   0.0000000   0.0000000   0.0000000  )
         2           P   tau(   2) = (   0.9482705   0.6268048   0.3903035  )
         3           P   tau(   3) = (   0.5457452   0.3607364   1.0505743  )
         4           W   tau(   4) = (   0.0510740   0.0337598   0.7204389  )
         5           O   tau(   5) = (   1.1106957   0.7341675   0.6510318  )
         6           O   tau(   6) = (   1.0714716   0.7082404   0.1248780  )
         7           O   tau(   7) = (   0.9335619   0.3047537   0.4290531  )
         8           O   tau(   8) = (   0.6462127   0.7394740   0.4290531  )
         9           O   tau(   9) = (   0.8478030   0.2480672   1.0118247  )
        10           O   tau(  10) = (   0.5604538   0.6827875   1.0118247  )
        11           O   tau(  11) = (   0.4225441   0.2793008   1.3159998  )
        12           O   tau(  12) = (   0.3833200   0.2533737   0.7898460  )

   Crystallographic axes

     site n.     atom                  positions (cryst. coord.)
         1           Li  tau(   1) = (  0.0000000  0.0000000  0.0000000  )
         2           P   tau(   2) = (  0.6614140  0.6614140  0.2708790  )
         3           P   tau(   3) = (  0.3385860  0.3385860  0.7291210  )
         4           W   tau(   4) = (  0.0000000 -0.0000000  0.5000000  )
         5           O   tau(   5) = (  0.7648300  0.7648300  0.4518300  )
         6           O   tau(   6) = (  0.7634480  0.7634480  0.0866680  )
         7           O   tau(   7) = (  0.7819040  0.3093930  0.2977720  )
         8           O   tau(   8) = (  0.3093930  0.7819040  0.2977720  )
         9           O   tau(   9) = (  0.6906070  0.2180960  0.7022280  )
        10           O   tau(  10) = (  0.2180960  0.6906070  0.7022280  )
        11           O   tau(  11) = (  0.2365520  0.2365520  0.9133320  )
        12           O   tau(  12) = (  0.2351700  0.2351700  0.5481700  )

     number of k points=     1  Methfessel-Paxton smearing, width (Ry)=  0.0010
                       cart. coord. in units 2pi/alat
        k(    1) = (   0.0000000   0.0000000   0.0000000), wk =   2.0000000

                       cryst. coord.
        k(    1) = (   0.0000000   0.0000000   0.0000000), wk =   2.0000000

     Check: negative core charge=   -0.000012

     Initial potential from superposition of free atoms

     starting charge      74.4486, renormalised to      75.0000

     negative rho (up, down):  6.264E-02 0.000E+00
     Starting wfcs are   58 randomized atomic wfcs
     Checking if some PAW data can be deallocated...

     Self-consistent Calculation

     iteration #  1     ecut=    30.00 Ry     beta= 0.70
     Davidson diagonalization with overlap

     ethr =  1.00E-02,  avg # of iterations =  3.0

     negative rho (up, down):  5.965E-02 0.000E+00

     total energy              =    -533.44975872 Ry
     estimated scf accuracy    <       3.21555484 Ry

[...]

     total energy              =    -535.03226187 Ry
     estimated scf accuracy    <       0.00000105 Ry

     iteration # 13     ecut=    30.00 Ry     beta= 0.70
     Davidson diagonalization with overlap

     ethr =  1.40E-09,  avg # of iterations =  2.0

[...]

     End of self-consistent calculation

          k = 0.0000 0.0000 0.0000 (  1426 PWs)   bands (ev):

   -70.8438 -38.9203 -35.3664 -34.8188 -34.7825 -16.8337 -16.3037 -14.5891
   -14.2699 -14.1106 -14.0165 -13.6101 -13.3725  -5.0673  -3.8603  -3.1123
    -2.7686  -1.9034  -1.2288  -1.0510  -0.9783  -0.4707   0.0209   0.4248
     0.8815   1.4016   1.6299   2.1143   2.2249   2.2701   2.4616   2.6878
     3.1572   3.1871   3.2086   3.6756   4.0654   6.0872   6.3528   6.4946
     9.6323  10.1012  10.9251  12.6091  12.9436  13.4325

     occupation numbers
     1.0000   1.0000   1.0000   1.0000   1.0000   1.0000   1.0000   1.0000
     1.0000   1.0000   1.0000   1.0000   1.0000   1.0000   1.0000   1.0000
     1.0000   1.0000   1.0000   1.0000   1.0000   1.0000   1.0000   1.0000
     1.0000   1.0000   1.0000   1.0000   1.0000   1.0000   1.0000   1.0000
     1.0000   1.0000   1.0000   1.0000   1.0000   0.5000  -0.0000  -0.0000
    -0.0000  -0.0000  -0.0000  -0.0000  -0.0000  -0.0000

     the Fermi energy is     6.0872 ev

!    total energy              =    -535.03226207 Ry
     estimated scf accuracy    <       0.00000010 Ry
     smearing contrib. (-TS)   =      -0.00028209 Ry
     internal energy E=F+TS    =    -535.03197997 Ry

     The total energy is F=E-TS. E is the sum of the following terms:
     one-electron contribution =    -254.44085320 Ry
     hartree contribution      =     160.27291594 Ry
     xc contribution           =    -113.55215168 Ry
     ewald contribution        =    -251.20392716 Ry
     one-center paw contrib.   =     -76.10796387 Ry
      -> PAW hartree energy AE =     251.31873660 Ry
      -> PAW hartree energy PS =    -250.41532353 Ry
      -> PAW xc energy AE      =    -139.52609009 Ry
      -> PAW xc energy PS      =      62.51471315 Ry
      -> total E_H with PAW    =     161.17632902 Ry
      -> total E_XC with PAW   =    -190.56352863 Ry

     convergence has been achieved in  13 iterations

     negative rho (up, down):  6.063E-02 0.000E+00

     Forces acting on atoms (cartesian axes, Ry/au):

     atom    1 type  1   force =     0.00000000    0.00000000    0.00000000
     atom    2 type  2   force =    -0.03586832   -0.02370637   -0.01689760
     atom    3 type  2   force =     0.03586832    0.02370637    0.01689760
     atom    4 type  3   force =     0.00000000    0.00000000    0.00000000
     atom    5 type  4   force =     0.05564375    0.03678429    0.06455185
     atom    6 type  4   force =     0.01956500    0.01292585   -0.01865222
     atom    7 type  4   force =     0.00792087   -0.01725010    0.00981026
     atom    8 type  4   force =    -0.01276925    0.01404503    0.00980656
     atom    9 type  4   force =     0.01276925   -0.01404503   -0.00980656
     atom   10 type  4   force =    -0.00792087    0.01725010   -0.00981026
     atom   11 type  4   force =    -0.01956500   -0.01292585    0.01865222
     atom   12 type  4   force =    -0.05564375   -0.03678429   -0.06455185
     The non-local contrib.  to forces
     atom    1 type  1   force =     0.00000000    0.00000000    0.00000000
     atom    2 type  2   force =    -0.12714874   -0.08403928    0.21763743
     atom    3 type  2   force =     0.12714874    0.08403928   -0.21763743
     atom    4 type  3   force =     0.00000000    0.00000000    0.00000000
     atom    5 type  4   force =     0.04159945    0.02750026   -1.28257608
     atom    6 type  4   force =    -0.62674907   -0.41427494    1.82330267
     atom    7 type  4   force =     0.30244008    1.16096006    0.46594621
     atom    8 type  4   force =     1.18661550   -0.17669302    0.46594211
     atom    9 type  4   force =    -1.18661550    0.17669302   -0.46594211
     atom   10 type  4   force =    -0.30244008   -1.16096006   -0.46594621
     atom   11 type  4   force =     0.62674907    0.41427494   -1.82330267
     atom   12 type  4   force =    -0.04159945   -0.02750026    1.28257608
     The ionic contribution  to forces
     atom    1 type  1   force =     0.00000000    0.00000000   -0.00000000
     atom    2 type  2   force =    -0.59446577   -0.39294061   -5.18581214
     atom    3 type  2   force =     0.59446577    0.39294060    5.18581214
     atom    4 type  3   force =    -0.00000000   -0.00000000    0.00000000
     atom    5 type  4   force =    -3.31413676   -2.19063733    2.55098286
     atom    6 type  4   force =     1.60884560    1.06344351  -10.03529020
     atom    7 type  4   force =    -3.00068700   -1.06752371  -10.26313034
     atom    8 type  4   force =    -2.15801715   -2.34236873  -10.26313034
     atom    9 type  4   force =     2.15801716    2.34236873   10.26313034
     atom   10 type  4   force =     3.00068700    1.06752371   10.26313034
     atom   11 type  4   force =    -1.60884560   -1.06344351   10.03529020
     atom   12 type  4   force =     3.31413676    2.19063733   -2.55098286
     The local contribution  to forces
     atom    1 type  1   force =    -0.00001585   -0.00000766    0.00001606
     atom    2 type  2   force =     0.67715329    0.44759202    4.96645854
     atom    3 type  2   force =    -0.67724134   -0.44768575   -4.96663292
     atom    4 type  3   force =     0.00021611    0.00018373   -0.00002833
     atom    5 type  4   force =     3.32882714    2.20034174   -1.21599663
     atom    6 type  4   force =    -0.96756820   -0.63956283    8.20880133
     atom    7 type  4   force =     2.70874299   -0.10025228    9.81150045
     atom    8 type  4   force =     0.96924333    2.53137943    9.81148013
     atom    9 type  4   force =    -0.96922220   -2.53141222   -9.81149758
     atom   10 type  4   force =    -2.70877956    0.10026919   -9.81150751
     atom   11 type  4   force =     0.96758753    0.63957741   -8.20878682
     atom   12 type  4   force =    -3.32882599   -2.20032765    1.21593533
     The core correction contribution to forces
     atom    1 type  1   force =     0.00000000    0.00000000    0.00000000
     atom    2 type  2   force =     0.00851652    0.00562915   -0.01534693
     atom    3 type  2   force =    -0.00851619   -0.00562890    0.01535143
     atom    4 type  3   force =     0.00000932    0.00000707    0.00000202
     atom    5 type  4   force =    -0.00060174   -0.00039773    0.01200935
     atom    6 type  4   force =     0.00506040    0.00334491   -0.01552291
     atom    7 type  4   force =    -0.00256877   -0.01042092   -0.00452133
     atom    8 type  4   force =    -0.01059397    0.00172036   -0.00452153
     atom    9 type  4   force =     0.01059370   -0.00172043    0.00452183
     atom   10 type  4   force =     0.00256847    0.01042075    0.00452205
     atom   11 type  4   force =    -0.00506031   -0.00334473    0.01552358
     atom   12 type  4   force =     0.00060132    0.00039758   -0.01200832
     The Hubbard contrib.    to forces
     atom    1 type  1   force =     0.00000000    0.00000000    0.00000000
     atom    2 type  2   force =     0.00000000    0.00000000    0.00000000
     atom    3 type  2   force =     0.00000000    0.00000000    0.00000000
     atom    4 type  3   force =     0.00000000    0.00000000    0.00000000
     atom    5 type  4   force =     0.00000000    0.00000000    0.00000000
     atom    6 type  4   force =     0.00000000    0.00000000    0.00000000
     atom    7 type  4   force =     0.00000000    0.00000000    0.00000000
     atom    8 type  4   force =     0.00000000    0.00000000    0.00000000
     atom    9 type  4   force =     0.00000000    0.00000000    0.00000000
     atom   10 type  4   force =     0.00000000    0.00000000    0.00000000
     atom   11 type  4   force =     0.00000000    0.00000000    0.00000000
     atom   12 type  4   force =     0.00000000    0.00000000    0.00000000
     The SCF correction term to forces
     atom    1 type  1   force =     0.00001740    0.00000696   -0.00001948
     atom    2 type  2   force =     0.00007314    0.00005168    0.00019746
     atom    3 type  2   force =     0.00000808    0.00004048    0.00003636
     atom    4 type  3   force =    -0.00028706   -0.00024689    0.00003388
     atom    5 type  4   force =    -0.00004005   -0.00001686    0.00015881
     atom    6 type  4   force =    -0.00001383   -0.00001369    0.00006768
     atom    7 type  4   force =    -0.00001635   -0.00001828    0.00003201
     atom    8 type  4   force =    -0.00002285    0.00000084    0.00004453
     atom    9 type  4   force =    -0.00000978    0.00001972   -0.00001072
     atom   10 type  4   force =     0.00003339   -0.00000852    0.00000780
     atom   11 type  4   force =     0.00001420    0.00002117   -0.00006129
     atom   12 type  4   force =     0.00004791    0.00001452   -0.00004562

     Total force =     0.158500     Total SCF correction =     0.000492

     Computing stress (Cartesian axis) and pressure

     negative rho (up, down):  6.063E-02 0.000E+00
          total   stress  (Ry/bohr**3)                   (kbar)     P=     -382.88
  -0.00286049  -0.00026752   0.00015860         -420.79      -39.35       23.33
  -0.00026752  -0.00263259   0.00010483          -39.35     -387.27       15.42
   0.00015860   0.00010483  -0.00231530           23.33       15.42     -340.59

     kinetic stress (kbar)  18918.29   -195.04     89.96
                             -195.04  19084.47     59.46
                               89.96     59.46  18967.83

     local   stress (kbar) -17271.67     93.24   1092.45
                               93.24 -17351.11    722.11
                             1092.45    722.11    913.20

     nonloc. stress (kbar)    544.19     25.29    -37.26
                               25.29    522.64    -24.63
                              -37.26    -24.63    541.91

     hartree stress (kbar)  10394.48   -128.52   -347.34
                             -128.52  10503.96   -229.59
                             -347.34   -229.59   1951.00

     exc-cor stress (kbar)    144.18      0.13     -2.54
                                0.13    144.07     -1.68
                               -2.54     -1.68    148.29

     corecor stress (kbar)  -4492.33      4.09      3.06
                                4.09  -4495.82      2.03
                                3.06      2.03  -4503.16

     ewald   stress (kbar)  -8657.94    161.47   -775.00
                              161.47  -8795.49   -512.27
                             -775.00   -512.27 -18359.66

     hubbard stress (kbar)      0.00      0.00      0.00
                                0.00      0.00      0.00
                                0.00      0.00      0.00

     DFT-D   stress (kbar)      0.00      0.00      0.00
                                0.00      0.00      0.00
                                0.00      0.00      0.00

     XDM     stress (kbar)      0.00      0.00      0.00
                                0.00      0.00      0.00
                                0.00      0.00      0.00

     dft-nl  stress (kbar)      0.00      0.00      0.00
                                0.00      0.00      0.00
                                0.00      0.00      0.00

     TS-vdW  stress (kbar)      0.00      0.00      0.00
                                0.00      0.00      0.00
                                0.00      0.00      0.00

[...]

                                0.00      0.00      0.00

     Writing all to output data dir new_calculations/myprefix.save/

     General routines

     Parallel routines

     PAW routines

   This run was terminated on:  13:45:31  20May2023

   JOB DONE.