     Program PWSCF v.7.0 starts on 21May2023 at 12:20:26

     Reading input from espresso_21899.pwi
Warning: card &CELL ignored
Warning: card / ignored

     Current dimensions of program PWSCF are:
     Max number of different atomic species (ntypx) = 10
     Max number of k-points (npk) =  40000
     Max angular momentum in pseudopotentials (lmaxx) =  4
     file O.pbe-n-kjpaw_psl.0.1.UPF: wavefunction(s)  2P renormalized

     gamma-point specific algorithms are used

     Subspace diagonalization in iterative solution of the eigenvalue problem:
     a serial algorithm will be used

     Using Slab Decomposition

     bravais-lattice index     =            0
     lattice parameter (alat)  =      10.9038  a.u.
     unit-cell volume          =    1823.6834 (a.u.)^3
     number of atoms/cell      =           20
     number of atomic types    =            4
     number of electrons       =       154.00
     number of Kohn-Sham states=           92
     kinetic-energy cutoff     =      30.0000  Ry
     charge density cutoff     =     240.0000  Ry
     scf convergence threshold =      1.0E-06
     mixing beta               =       0.7000
     number of iterations used =            8  plain     mixing
     Exchange-correlation= SLA  PW   PBX  PBC
                           (   1   4   3   4   0   0   0)

     celldm(1)=  10.903837  celldm(2)=   0.000000  celldm(3)=   0.000000
     celldm(4)=   0.000000  celldm(5)=   0.000000  celldm(6)=   0.000000

     crystal axes: (cart. coord. in units of alat)
               a(1) = (   1.000000   0.000000   0.000000 )
               a(2) = (   0.000003   0.999828   0.000000 )
               a(3) = (  -0.000004  -0.004368   1.406974 )

     reciprocal axes: (cart. coord. in units 2 pi/alat)
               b(1) = (  1.000000 -0.000003  0.000003 )
               b(2) = (  0.000000  1.000172  0.003105 )
               b(3) = (  0.000000  0.000000  0.710745 )

     PseudoPot. # 1 for Sr read from file:
     /home/pragov/projects/rrg-bengioy-ad/pragov/crystal_structure_design/SSSP/Sr_pbe_v1.uspp.F.UPF
     MD5 check sum: 6b418c05fbe9db5448babca5e47b7a5b
     Pseudo is Ultrasoft + core correction, Zval = 10.0
     Generated by new atomic code, or converted to UPF format
     Using radial grid of  883 points,  6 beta functions with:
                l(1) =   0
                l(2) =   0
                l(3) =   1
                l(4) =   1
                l(5) =   2
                l(6) =   2
     Q(r) pseudized with  6 coefficients,  rinner =    1.400   1.400   1.400
                                                       1.400   1.400

     PseudoPot. # 2 for Mn read from file:
     /home/pragov/projects/rrg-bengioy-ad/pragov/crystal_structure_design/SSSP/mn_pbe_v1.5.uspp.F.UPF
     MD5 check sum: 82ef2b46521d7a7d9e736dc3972e4928
     Pseudo is Ultrasoft + core correction, Zval = 15.0
     Generated by new atomic code, or converted to UPF format
     Using radial grid of  859 points,  6 beta functions with:
                l(1) =   0
                l(2) =   0
                l(3) =   1
                l(4) =   1
                l(5) =   2
                l(6) =   2
     Q(r) pseudized with  8 coefficients,  rinner =    0.950   0.950   0.950
                                                       0.950   0.950

     PseudoPot. # 3 for Te read from file:
     /home/pragov/projects/rrg-bengioy-ad/pragov/crystal_structure_design/SSSP/Te_pbe_v1.uspp.F.UPF
     MD5 check sum: c319670d6894cc26e93307826a071b75
     Pseudo is Ultrasoft + core correction, Zval =  6.0
     Generated by new atomic code, or converted to UPF format
     Using radial grid of  891 points,  5 beta functions with:
                l(1) =   0
                l(2) =   0
                l(3) =   1
                l(4) =   1
                l(5) =   2
     Q(r) pseudized with  6 coefficients,  rinner =    1.800   1.800   1.800
                                                       1.800   1.800

     PseudoPot. # 4 for O  read from file:
     /home/pragov/projects/rrg-bengioy-ad/pragov/crystal_structure_design/SSSP/O.pbe-n-kjpaw_psl.0.1.UPF
     MD5 check sum: 0234752ac141de4415c5fc33072bef88
     Pseudo is Projector augmented-wave + core cor, Zval =  6.0
     Generated using "atomic" code by A. Dal Corso  v.5.0.99 svn rev. 10869
     Shape of augmentation charge: BESSEL
     Using radial grid of 1095 points,  4 beta functions with:
                l(1) =   0
                l(2) =   0
                l(3) =   1
                l(4) =   1
     Q(r) pseudized with 0 coefficients

     atomic species   valence    mass     pseudopotential
        Sr            10.00    87.62000     Sr( 1.00)
        Mn            15.00    54.93804     Mn( 1.00)
        Te             6.00   127.60000     Te( 1.00)
        O              6.00    15.99900     O ( 1.00)

     No symmetry found

                                    s                        frac. trans.

      isym =  1     identity

 cryst.   s( 1) = (     1          0          0      )
                  (     0          1          0      )
                  (     0          0          1      )

 cart.    s( 1) = (  1.0000000 -0.0000000 -0.0000000 )
                  (  0.0000000  1.0000000  0.0000000 )
                  (  0.0000000  0.0000000  1.0000000 )

   Cartesian axes

     site n.     atom                  positions (alat units)
         1           Sr  tau(   1) = (   0.5242151   0.9917608   1.0557045  )
         2           Sr  tau(   2) = (   0.4756989   0.0036868   0.3512510  )
         3           Sr  tau(   3) = (   0.0243114   0.5014311   1.0547280  )
         4           Sr  tau(   4) = (   0.9758166   0.4940546   0.3522120  )
         5           Mn  tau(   5) = (   0.4998137   0.4999893   0.0002603  )
         6           Mn  tau(   6) = (   0.0000858  -0.0021829   0.7035164  )
         7           Te  tau(   7) = (   0.9999550   0.9954567   1.4069372  )
         8           Te  tau(   8) = (   0.5000465   0.4976952   0.7035235  )
         9           O   tau(   9) = (   0.7923653   0.7303364   1.3598626  )
        10           O   tau(  10) = (   0.2077488   0.2651254   0.0470379  )
        11           O   tau(  11) = (   0.2922603   0.7628676   0.7505445  )
        12           O   tau(  12) = (   0.7076508   0.2326191   0.6563814  )
        13           O   tau(  13) = (   0.9878908   0.0603897   1.0734731  )
        14           O   tau(  14) = (   0.0121152   0.9350958   0.3335470  )
        15           O   tau(  15) = (   0.4879063   0.4329801   1.0369397  )
        16           O   tau(  16) = (   0.5121028   0.5624489   0.3698948  )
        17           O   tau(  17) = (   0.2672165   0.7906090   1.3589087  )
        18           O   tau(  18) = (   0.7328506   0.2047886   0.0480467  )
        19           O   tau(  19) = (   0.7671521   0.7025509   0.7515407  )
        20           O   tau(  20) = (   0.2327890   0.2929017   0.6554289  )

   Crystallographic axes

     site n.     atom                  positions (cryst. coord.)
         1           Sr  tau(   1) = (  0.5242150  0.9952090  0.7503370  )
         2           Sr  tau(   2) = (  0.4757000  0.0047780  0.2496500  )
         3           Sr  tau(   3) = (  0.0243130  0.5047920  0.7496430  )
         4           Sr  tau(   4) = (  0.9758160  0.4952330  0.2503330  )
         5           Mn  tau(   5) = (  0.4998120  0.5000760  0.0001850  )
         6           Mn  tau(   6) = (  0.0000880  0.0000010  0.5000210  )
         7           Te  tau(   7) = (  0.9999560  0.9999960  0.9999740  )
         8           Te  tau(   8) = (  0.5000470  0.4999650  0.5000260  )
         9           O   tau(   9) = (  0.7923670  0.7346840  0.9665160  )
        10           O   tau(  10) = (  0.2077480  0.2653170  0.0334320  )
        11           O   tau(  11) = (  0.2922600  0.7653290  0.5334460  )
        12           O   tau(  12) = (  0.7076520  0.2346970  0.4665200  )
        13           O   tau(  13) = (  0.9878940  0.0637330  0.7629660  )
        14           O   tau(  14) = (  0.0121130  0.9362920  0.2370670  )
        15           O   tau(  15) = (  0.4879080  0.4362740  0.7370000  )
        16           O   tau(  16) = (  0.5121020  0.5636940  0.2629010  )
        17           O   tau(  17) = (  0.2672180  0.7949640  0.9658380  )
        18           O   tau(  18) = (  0.7328500  0.2049730  0.0341490  )
        19           O   tau(  19) = (  0.7671520  0.7050050  0.5341540  )
        20           O   tau(  20) = (  0.2327900  0.2949870  0.4658430  )

     number of k points=     1  Methfessel-Paxton smearing, width (Ry)=  0.0010
                       cart. coord. in units 2pi/alat
        k(    1) = (   0.0000000   0.0000000   0.0000000), wk =   2.0000000

                       cryst. coord.
        k(    1) = (   0.0000000   0.0000000   0.0000000), wk =   2.0000000

     Check: negative core charge=   -0.000014

     Initial potential from superposition of free atoms

     starting charge     152.8648, renormalised to     154.0000

     negative rho (up, down):  2.566E-01 0.000E+00
     Starting wfcs are  134 randomized atomic wfcs
     Checking if some PAW data can be deallocated...

     Self-consistent Calculation

     iteration #  1     ecut=    30.00 Ry     beta= 0.70
     Davidson diagonalization with overlap

     ethr =  1.00E-02,  avg # of iterations =  2.0

     negative rho (up, down):  2.598E-01 0.000E+00

     total energy              =   -1251.84902017 Ry
     estimated scf accuracy    <       6.49132746 Ry

[...]

     total energy              =   -1255.68050735 Ry
     estimated scf accuracy    <       0.00000219 Ry

     iteration # 20     ecut=    30.00 Ry     beta= 0.70
     Davidson diagonalization with overlap

     ethr =  1.42E-09,  avg # of iterations =  1.0

[...]

     End of self-consistent calculation

          k = 0.0000 0.0000 0.0000 (  2546 PWs)   bands (ev):

   -68.8880 -68.8869 -37.8700 -37.8654 -37.5565 -37.5462 -37.4644 -37.4543
   -24.2948 -24.2807 -24.2680 -24.2570 -10.8591 -10.8472  -9.0901  -9.0207
    -8.8294  -8.8292  -8.7996  -8.7121  -8.4964  -8.2445  -8.0733  -8.0434
    -6.3620  -6.3443  -6.3327  -6.3315  -6.2558  -6.2544  -6.2536  -6.2420
    -6.1476  -6.0603  -5.9956  -5.9673  -1.4634  -0.8768   3.0885   3.1122
     3.1700   3.2232   3.2362   3.4586   4.6519   4.7640   5.3911   5.4440
     5.5237   5.6705   5.7523   5.7984   6.0591   6.1803   6.2229   6.2947
     6.7637   6.8393   6.8859   6.9211   7.1814   7.2461   7.2834   7.3221
     7.3245   7.5912   7.6183   7.6699   7.6867   7.8740   7.9217   7.9873
     9.5943  10.0844  10.1039  10.2903  10.3270  10.4024  10.4337  10.5529
    11.5278  11.6958  11.7114  13.4628  14.1657  14.2902  14.3667  14.4283
    14.6345  14.7838  15.2311  15.8257

     occupation numbers
     1.0000   1.0000   1.0000   1.0000   1.0000   1.0000   1.0000   1.0000
     1.0000   1.0000   1.0000   1.0000   1.0000   1.0000   1.0000   1.0000
     1.0000   1.0000   1.0000   1.0000   1.0000   1.0000   1.0000   1.0000
     1.0000   1.0000   1.0000   1.0000   1.0000   1.0000   1.0000   1.0000
     1.0000   1.0000   1.0000   1.0000   1.0000   1.0000   1.0000   1.0000
     1.0000   1.0000   1.0000   1.0000   1.0000   1.0000   1.0000   1.0000
     1.0000   1.0000   1.0000   1.0000   1.0000   1.0000   1.0000   1.0000
     1.0000   1.0000   1.0000   1.0000   1.0000   1.0000   1.0000   1.0000
     1.0000   1.0000   1.0000   1.0000   1.0000   1.0000   1.0000   1.0000
     1.0000   1.0000   1.0000   1.0000   1.0003  -0.0003  -0.0000  -0.0000
    -0.0000  -0.0000  -0.0000  -0.0000  -0.0000  -0.0000  -0.0000  -0.0000
    -0.0000  -0.0000  -0.0000  -0.0000

     the Fermi energy is    10.3647 ev

!    total energy              =   -1255.68050721 Ry
     estimated scf accuracy    <       0.00000035 Ry
     smearing contrib. (-TS)   =       0.00000375 Ry
     internal energy E=F+TS    =   -1255.68051096 Ry

     The total energy is F=E-TS. E is the sum of the following terms:
     one-electron contribution =    -406.76898307 Ry
     hartree contribution      =     292.32393604 Ry
     xc contribution           =    -245.03331439 Ry
     ewald contribution        =    -781.92398259 Ry
     one-center paw contrib.   =    -114.27816696 Ry
      -> PAW hartree energy AE =     353.98162387 Ry
      -> PAW hartree energy PS =    -352.73042975 Ry
      -> PAW xc energy AE      =    -205.81786803 Ry
      -> PAW xc energy PS      =      90.28850696 Ry
      -> total E_H with PAW    =     293.57513016 Ry
      -> total E_XC with PAW   =    -360.56267546 Ry

     convergence has been achieved in  20 iterations

     negative rho (up, down):  2.680E-01 0.000E+00

     Forces acting on atoms (cartesian axes, Ry/au):

     atom    1 type  1   force =     0.00992401   -0.01122068    0.00289913
     atom    2 type  1   force =    -0.00983085    0.01128167   -0.00287841
     atom    3 type  1   force =     0.00983127    0.01123577   -0.00276674
     atom    4 type  1   force =    -0.00993716   -0.01126913    0.00276698
     atom    5 type  2   force =     0.00035928   -0.00010811   -0.00033771
     atom    6 type  2   force =    -0.00011273    0.00000808   -0.00013956
     atom    7 type  3   force =     0.00037857   -0.00004218    0.00051851
     atom    8 type  3   force =    -0.00046795    0.00028806   -0.00041449
     atom    9 type  4   force =    -0.07393983   -0.08382205   -0.02769871
     atom   10 type  4   force =     0.07367698    0.08363198    0.02794730
     atom   11 type  4   force =    -0.07359782    0.08349934    0.02776046
     atom   12 type  4   force =     0.07396969   -0.08390454   -0.02787258
     atom   13 type  4   force =    -0.00616139    0.01962413   -0.11337791
     atom   14 type  4   force =     0.00632181   -0.01954886    0.11280738
     atom   15 type  4   force =    -0.00640708   -0.01960998    0.11327452
     atom   16 type  4   force =     0.00609916    0.01961727   -0.11288924
     atom   17 type  4   force =     0.09212811   -0.06370422   -0.02713889
     atom   18 type  4   force =    -0.09245442    0.06389500    0.02753280
     atom   19 type  4   force =     0.09237325    0.06387510    0.02731519
     atom   20 type  4   force =    -0.09215293   -0.06372666   -0.02730803
     The non-local contrib.  to forces
     atom    1 type  1   force =    -0.00676552    0.00716668    0.00148452
     atom    2 type  1   force =     0.00683829   -0.00715838   -0.00147972
     atom    3 type  1   force =    -0.00684218   -0.00715744   -0.00139367
     atom    4 type  1   force =     0.00674976    0.00714139    0.00136652
     atom    5 type  2   force =    -0.00049298    0.00028080   -0.00008442
     atom    6 type  2   force =     0.00013939    0.00016765    0.00030646
     atom    7 type  3   force =    -0.00061323   -0.00016679   -0.00047491
     atom    8 type  3   force =     0.00048742   -0.00043164    0.00059384
     atom    9 type  4   force =     0.28544675    0.46395512    0.22314551
     atom   10 type  4   force =    -0.28466071   -0.46031636   -0.22243248
     atom   11 type  4   force =     0.28454268   -0.46081170   -0.22258388
     atom   12 type  4   force =    -0.28565281    0.46336962    0.22319084
     atom   13 type  4   force =     0.04253208   -0.33728337    0.46705347
     atom   14 type  4   force =    -0.04206270    0.33675453   -0.46656546
     atom   15 type  4   force =     0.04184504    0.33689395   -0.46940790
     atom   16 type  4   force =    -0.04259888   -0.33705137    0.46432149
     atom   17 type  4   force =    -0.54259489    0.21860974    0.20357689
     atom   18 type  4   force =     0.54408304   -0.22129872   -0.20311615
     atom   19 type  4   force =    -0.54364351   -0.22083890   -0.20340602
     atom   20 type  4   force =     0.54317314    0.21903480    0.20340988
     The ionic contribution  to forces
     atom    1 type  1   force =    -0.82380502    0.41003775   -0.10034140
     atom    2 type  1   force =     0.83906192   -0.40705248    0.10426400
     atom    3 type  1   force =    -0.84006064   -0.40962488    0.10395944
     atom    4 type  1   force =     0.82087539    0.40650005   -0.10107160
     atom    5 type  2   force =     0.02634289   -0.00749100   -0.03424595
     atom    6 type  2   force =    -0.01724872    0.00233899    0.00465113
     atom    7 type  3   force =     0.00061285    0.00106448    0.00137415
     atom    8 type  3   force =    -0.00013672    0.00322034   -0.00047483
     atom    9 type  4   force =     2.06309481    1.06075073   -0.46898335
     atom   10 type  4   force =    -2.08089553   -1.08534014    0.45699721
     atom   11 type  4   force =     2.07978206   -1.08087140    0.46455907
     atom   12 type  4   force =    -2.06464841    1.06578907   -0.46218708
     atom   13 type  4   force =     0.32340717    1.12303094    2.46146491
     atom   14 type  4   force =    -0.33397320   -1.11911937   -2.46530135
     atom   15 type  4   force =     0.33641665   -1.11897693   -2.43922832
     atom   16 type  4   force =    -0.32028924    1.12357160    2.48723341
     atom   17 type  4   force =    -1.21805813    2.12672980   -0.56275422
     atom   18 type  4   force =     1.20636452   -2.10455756    0.54762591
     atom   19 type  4   force =    -1.21078062   -2.11061309    0.55596479
     atom   20 type  4   force =     1.21393797    2.12061312   -0.55350590
     The local contribution  to forces
     atom    1 type  1   force =     0.83970915   -0.42798947    0.10233181
     atom    2 type  1   force =    -0.85493957    0.42506907   -0.10623702
     atom    3 type  1   force =     0.85589963    0.42758122   -0.10498254
     atom    4 type  1   force =    -0.83673549   -0.42448287    0.10212188
     atom    5 type  2   force =    -0.02557436    0.00712288    0.03403740
     atom    6 type  2   force =     0.01699958   -0.00247820   -0.00509157
     atom    7 type  3   force =     0.00044159   -0.00092169   -0.00032383
     atom    8 type  3   force =    -0.00085620   -0.00246459   -0.00058133
     atom    9 type  4   force =    -2.42060200   -1.60466620    0.22098174
     atom   10 type  4   force =     2.43735704    1.62546712   -0.20945277
     atom   11 type  4   force =    -2.43589378    1.62102355   -0.21693810
     atom   12 type  4   force =     2.42224156   -1.60888655    0.21385540
     atom   13 type  4   force =    -0.37150941   -0.77018911   -3.03798902
     atom   14 type  4   force =     0.38176884    0.76688585    3.04076525
     atom   15 type  4   force =    -0.38398739    0.76661155    3.01883604
     atom   16 type  4   force =     0.36829854   -0.77104798   -3.06141127
     atom   17 type  4   force =     1.84777613   -2.40805793    0.33461910
     atom   18 type  4   force =    -1.83788446    2.38873716   -0.31954808
     atom   19 type  4   force =     1.84173199    2.39398347   -0.32762060
     atom   20 type  4   force =    -1.84420135   -2.40204763    0.32516388
     The core correction contribution to forces
     atom    1 type  1   force =     0.00080811   -0.00041932   -0.00008130
     atom    2 type  1   force =    -0.00081100    0.00041895    0.00008116
     atom    3 type  1   force =     0.00081054    0.00041882    0.00007636
     atom    4 type  1   force =    -0.00080605   -0.00041790   -0.00007541
     atom    5 type  2   force =     0.00006620   -0.00002617   -0.00005628
     atom    6 type  2   force =    -0.00003217   -0.00000575   -0.00001539
     atom    7 type  3   force =    -0.00005664   -0.00001522   -0.00005349
     atom    8 type  3   force =     0.00004799   -0.00004302    0.00005394
     atom    9 type  4   force =    -0.00193639   -0.00396733   -0.00278561
     atom   10 type  4   force =     0.00193372    0.00393156    0.00277932
     atom   11 type  4   force =    -0.00193212    0.00393666    0.00277797
     atom   12 type  4   force =     0.00193829   -0.00395930   -0.00278239
     atom   13 type  4   force =    -0.00064405    0.00410993   -0.00343092
     atom   14 type  4   force =     0.00063908   -0.00410575    0.00343091
     atom   15 type  4   force =    -0.00063555   -0.00410547    0.00347128
     atom   16 type  4   force =     0.00064387    0.00410815   -0.00342814
     atom   17 type  4   force =     0.00502910   -0.00110815   -0.00247614
     atom   18 type  4   force =    -0.00503906    0.00113240    0.00247011
     atom   19 type  4   force =     0.00503480    0.00112883    0.00248334
     atom   20 type  4   force =    -0.00503362   -0.00111154   -0.00248329
     The Hubbard contrib.    to forces
     atom    1 type  1   force =     0.00000000    0.00000000    0.00000000
     atom    2 type  1   force =     0.00000000    0.00000000    0.00000000
     atom    3 type  1   force =     0.00000000    0.00000000    0.00000000
     atom    4 type  1   force =     0.00000000    0.00000000    0.00000000
     atom    5 type  2   force =     0.00000000    0.00000000    0.00000000
     atom    6 type  2   force =     0.00000000    0.00000000    0.00000000
     atom    7 type  3   force =     0.00000000    0.00000000    0.00000000
     atom    8 type  3   force =     0.00000000    0.00000000    0.00000000
     atom    9 type  4   force =     0.00000000    0.00000000    0.00000000
     atom   10 type  4   force =     0.00000000    0.00000000    0.00000000
     atom   11 type  4   force =     0.00000000    0.00000000    0.00000000
     atom   12 type  4   force =     0.00000000    0.00000000    0.00000000
     atom   13 type  4   force =     0.00000000    0.00000000    0.00000000
     atom   14 type  4   force =     0.00000000    0.00000000    0.00000000
     atom   15 type  4   force =     0.00000000    0.00000000    0.00000000
     atom   16 type  4   force =     0.00000000    0.00000000    0.00000000
     atom   17 type  4   force =     0.00000000    0.00000000    0.00000000
     atom   18 type  4   force =     0.00000000    0.00000000    0.00000000
     atom   19 type  4   force =     0.00000000    0.00000000    0.00000000
     atom   20 type  4   force =     0.00000000    0.00000000    0.00000000
     The SCF correction term to forces
     atom    1 type  1   force =    -0.00002293   -0.00001607   -0.00049420
     atom    2 type  1   force =     0.00001928    0.00000476    0.00049347
     atom    3 type  1   force =     0.00002369    0.00001829   -0.00042602
     atom    4 type  1   force =    -0.00002098   -0.00000956    0.00042589
     atom    5 type  2   force =     0.00001731    0.00000563    0.00001185
     atom    6 type  2   force =     0.00002898   -0.00001436    0.00001012
     atom    7 type  3   force =    -0.00000622   -0.00000272   -0.00000311
     atom    8 type  3   force =    -0.00001066    0.00000722   -0.00000581
     atom    9 type  4   force =     0.00005677    0.00010589   -0.00005669
     atom   10 type  4   force =    -0.00005777   -0.00010996    0.00005631
     atom   11 type  4   force =    -0.00009689    0.00022248   -0.00005429
     atom   12 type  4   force =     0.00009082   -0.00021714    0.00005096
     atom   13 type  4   force =     0.00005260   -0.00004401   -0.00047604
     atom   14 type  4   force =    -0.00005043    0.00003613    0.00047835
     atom   15 type  4   force =    -0.00004607   -0.00003284   -0.00039629
     atom   16 type  4   force =     0.00004466    0.00003712    0.00039557
     atom   17 type  4   force =    -0.00002432    0.00012257   -0.00010422
     atom   18 type  4   force =     0.00002133   -0.00011803    0.00010132
     atom   19 type  4   force =     0.00003037    0.00021504   -0.00010602
     atom   20 type  4   force =    -0.00002930   -0.00021516    0.00010771

     Total force =     0.400023     Total SCF correction =     0.001401

     Computing stress (Cartesian axis) and pressure

     negative rho (up, down):  2.680E-01 0.000E+00
          total   stress  (Ry/bohr**3)                   (kbar)     P=     -302.16
  -0.00174375   0.00000003   0.00000035         -256.51        0.00        0.05
   0.00000003  -0.00186115  -0.00001695            0.00     -273.78       -2.49
   0.00000035  -0.00001695  -0.00255723            0.05       -2.49     -376.18

     kinetic stress (kbar)  20679.10     -0.06     -0.11
                               -0.06  20729.46     -4.75
                               -0.11     -4.75  20370.24

     local   stress (kbar)  -9173.14      0.17      0.62
                                0.17 -10195.78    229.77
                                0.62    229.77  -9649.38

     nonloc. stress (kbar)   7219.32     -0.05     -0.10
                               -0.05   7196.71     11.06
                               -0.10     11.06   7133.13

     hartree stress (kbar)   7649.15     -0.07     -0.24
                               -0.07   8025.07   -126.92
                               -0.24   -126.92   7905.72

     exc-cor stress (kbar)    736.42     -0.00     -0.00
                               -0.00    739.43      0.18
                               -0.00      0.18    738.53

     corecor stress (kbar)  -5980.13      0.00      0.00
                                0.00  -5979.91     -0.38
                                0.00     -0.38  -5977.52

     ewald   stress (kbar) -21387.22      0.01     -0.12
                                0.01 -20788.78   -111.44
                               -0.12   -111.44 -20896.90

     hubbard stress (kbar)      0.00      0.00      0.00
                                0.00      0.00      0.00
                                0.00      0.00      0.00

     DFT-D   stress (kbar)      0.00      0.00      0.00
                                0.00      0.00      0.00
                                0.00      0.00      0.00

     XDM     stress (kbar)      0.00      0.00      0.00
                                0.00      0.00      0.00
                                0.00      0.00      0.00

     dft-nl  stress (kbar)      0.00      0.00      0.00
                                0.00      0.00      0.00
                                0.00      0.00      0.00

     TS-vdW  stress (kbar)      0.00      0.00      0.00
                                0.00      0.00      0.00
                                0.00      0.00      0.00

[...]

                                0.00      0.00      0.00

     Writing all to output data dir new_calculations/myprefix.save/

     General routines

     Parallel routines

     PAW routines

   This run was terminated on:  12:21: 1  21May2023

   JOB DONE.