     Program PWSCF v.7.0 starts on 21May2023 at  0:31: 3

     Reading input from espresso_19604.pwi
Warning: card &CELL ignored
Warning: card / ignored

     Current dimensions of program PWSCF are:
     Max number of different atomic species (ntypx) = 10
     Max number of k-points (npk) =  40000
     Max angular momentum in pseudopotentials (lmaxx) =  4
     file Al.pbe-n-kjpaw_psl.1.0.0.UPF: wavefunction(s)  3S 3P renormalized

     gamma-point specific algorithms are used
     Message from routine setup:
     using ibrav=0 with symmetry is DISCOURAGED, use correct ibrav instead

     Subspace diagonalization in iterative solution of the eigenvalue problem:
     a serial algorithm will be used

     Using Slab Decomposition

     bravais-lattice index     =            0
     lattice parameter (alat)  =       8.2955  a.u.
     unit-cell volume          =    1543.9995 (a.u.)^3
     number of atoms/cell      =           12
     number of atomic types    =            3
     number of electrons       =       176.00
     number of Kohn-Sham states=          106
     kinetic-energy cutoff     =      30.0000  Ry
     charge density cutoff     =     240.0000  Ry
     scf convergence threshold =      1.0E-06
     mixing beta               =       0.7000
     number of iterations used =            8  plain     mixing
     Exchange-correlation=  SLA  PW   PBX  PBC
                           (   1   4   3   4   0   0   0)

     celldm(1)=   8.295505  celldm(2)=   0.000000  celldm(3)=   0.000000
     celldm(4)=   0.000000  celldm(5)=   0.000000  celldm(6)=   0.000000

     crystal axes: (cart. coord. in units of alat)
               a(1) = (   1.000000   0.000000   0.000000 )
               a(2) = (   0.000000   1.544458   0.000000 )
               a(3) = (   0.000000   0.000000   1.751228 )

     reciprocal axes: (cart. coord. in units 2 pi/alat)
               b(1) = (  1.000000  0.000000  0.000000 )
               b(2) = (  0.000000  0.647476  0.000000 )
               b(3) = (  0.000000  0.000000  0.571028 )

     PseudoPot. # 1 for Lu read from file:
     /home/pragov/projects/rrg-bengioy-ad/pragov/crystal_structure_design/SSSP/Lu.GGA-PBE-paw-v1.0.UPF
     MD5 check sum: 9ceca61ee0c17e9380a83635bfffa61d
     Pseudo is Projector augmented-wave + core cor, Zval = 25.0
     Generated using ATOMPAW code
     Shape of augmentation charge: BESSEL
     Using radial grid of 1118 points,  8 beta functions with:
                l(1) =   0
                l(2) =   0
                l(3) =   1
                l(4) =   1
                l(5) =   2
                l(6) =   2
                l(7) =   3
                l(8) =   3
     Q(r) pseudized with 0 coefficients

     PseudoPot. # 2 for Al read from file:
     /home/pragov/projects/rrg-bengioy-ad/pragov/crystal_structure_design/SSSP/Al.pbe-n-kjpaw_psl.1.0.0.UPF
     MD5 check sum: cfc449ca30b5f3223ec38ddd88ac046d
     Pseudo is Projector augmented-wave + core cor, Zval =  3.0
     Generated using "atomic" code by A. Dal Corso  v.5.1
     Shape of augmentation charge: PSQ
     Using radial grid of 1135 points,  6 beta functions with:
                l(1) =   0
                l(2) =   0
                l(3) =   1
                l(4) =   1
                l(5) =   2
                l(6) =   2
     Q(r) pseudized with 0 coefficients

     PseudoPot. # 3 for Pt read from file:
     /home/pragov/projects/rrg-bengioy-ad/pragov/crystal_structure_design/SSSP/pt_pbe_v1.4.uspp.F.UPF
     MD5 check sum: f09d6de1a584b5a045c4fc126da2d0c4
     Pseudo is Ultrasoft + core correction, Zval = 16.0
     Generated by new atomic code, or converted to UPF format
     Using radial grid of  985 points,  6 beta functions with:
                l(1) =   0
                l(2) =   0
                l(3) =   1
                l(4) =   1
                l(5) =   2
                l(6) =   2
     Q(r) pseudized with  8 coefficients,  rinner =    1.300   1.300   1.300
                                                       1.300   1.300

     atomic species   valence    mass     pseudopotential
        Lu            25.00   174.96680     Lu( 1.00)
        Al             3.00    26.98154     Al( 1.00)
        Pt            16.00   195.08400     Pt( 1.00)

      8 Sym. Ops., with inversion, found ( 6 have fractional translation)

                                    s                        frac. trans.

      isym =  1     identity

 cryst.   s( 1) = (     1          0          0      )
                  (     0          1          0      )
                  (     0          0          1      )

 cart.    s( 1) = (  1.0000000  0.0000000  0.0000000 )
                  (  0.0000000  1.0000000  0.0000000 )
                  (  0.0000000  0.0000000  1.0000000 )

      isym =  2     180 deg rotation - cart. axis [0,0,1]

 cryst.   s( 2) = (    -1          0          0      )    f =(  0.0000000 )
                  (     0         -1          0      )       (  0.5000000 )
                  (     0          0          1      )       (  0.5000000 )

 cart.    s( 2) = ( -1.0000000  0.0000000  0.0000000 )    f =(  0.0000000 )
                  (  0.0000000 -1.0000000  0.0000000 )       (  0.7722288 )
                  (  0.0000000  0.0000000  1.0000000 )       (  0.8756140 )

[...]

      isym =  4     180 deg rotation - cart. axis [1,0,0]

[...]

      isym =  5     inversion

 cryst.   s( 5) = (    -1          0          0      )
                  (     0         -1          0      )
                  (     0          0         -1      )

 cart.    s( 5) = ( -1.0000000  0.0000000  0.0000000 )
                  (  0.0000000 -1.0000000  0.0000000 )
                  (  0.0000000  0.0000000 -1.0000000 )

      isym =  6     inv. 180 deg rotation - cart. axis [0,0,1]

[...]

      isym =  8     inv. 180 deg rotation - cart. axis [1,0,0]

 cryst.   s( 8) = (    -1          0          0      )    f =(  0.5000000 )
                  (     0          1          0      )       (  0.0000000 )
                  (     0          0          1      )       (  0.0000000 )

 cart.    s( 8) = ( -1.0000000  0.0000000  0.0000000 )    f =(  0.5000000 )
                  (  0.0000000  1.0000000  0.0000000 )       (  0.0000000 )
                  (  0.0000000  0.0000000  1.0000000 )       (  0.0000000 )

   Cartesian axes

     site n.     atom                  positions (alat units)
         1           Lu  tau(   1) = (   0.2500000   0.0482751   1.1909016  )
         2           Lu  tau(   2) = (   0.2500000   0.8205040   1.4359405  )
         3           Lu  tau(   3) = (   0.7500000   1.4961826   0.5603264  )
         4           Lu  tau(   4) = (   0.7500000   0.7239537   0.3152876  )
         5           Al  tau(   5) = (   0.2500000   0.2261117   0.1095743  )
         6           Al  tau(   6) = (   0.2500000   0.9983405   0.7660397  )
         7           Al  tau(   7) = (   0.7500000   1.3183460   1.6416537  )
         8           Al  tau(   8) = (   0.7500000   0.5461171   0.9851884  )
         9           Pt  tau(   9) = (   0.2500000   0.4192693   0.6687310  )
        10           Pt  tau(  10) = (   0.2500000   1.1914981   0.2068831  )
        11           Pt  tau(  11) = (   0.7500000   1.1251884   1.0824971  )
        12           Pt  tau(  12) = (   0.7500000   0.3529595   1.5443450  )

   Crystallographic axes

     site n.     atom                  positions (cryst. coord.)
         1           Lu  tau(   1) = (  0.2500000  0.0312570  0.6800380  )
         2           Lu  tau(   2) = (  0.2500000  0.5312570  0.8199620  )
         3           Lu  tau(   3) = (  0.7500000  0.9687430  0.3199620  )
         4           Lu  tau(   4) = (  0.7500000  0.4687430  0.1800380  )
         5           Al  tau(   5) = (  0.2500000  0.1464020  0.0625700  )
         6           Al  tau(   6) = (  0.2500000  0.6464020  0.4374300  )
         7           Al  tau(   7) = (  0.7500000  0.8535980  0.9374300  )
         8           Al  tau(   8) = (  0.7500000  0.3535980  0.5625700  )
         9           Pt  tau(   9) = (  0.2500000  0.2714670  0.3818640  )
        10           Pt  tau(  10) = (  0.2500000  0.7714670  0.1181360  )
        11           Pt  tau(  11) = (  0.7500000  0.7285330  0.6181360  )
        12           Pt  tau(  12) = (  0.7500000  0.2285330  0.8818640  )

     number of k points=     1  Methfessel-Paxton smearing, width (Ry)=  0.0010
                       cart. coord. in units 2pi/alat
        k(    1) = (   0.0000000   0.0000000   0.0000000), wk =   2.0000000

                       cryst. coord.
        k(    1) = (   0.0000000   0.0000000   0.0000000), wk =   2.0000000

     Initial potential from superposition of free atoms

     starting charge     173.9757, renormalised to     176.0000

     negative rho (up, down):  7.611E-01 0.000E+00
     Starting wfcs are  192 randomized atomic wfcs
     Checking if some PAW data can be deallocated...

     Self-consistent Calculation

     iteration #  1     ecut=    30.00 Ry     beta= 0.70
     Davidson diagonalization with overlap

     ethr =  1.00E-02,  avg # of iterations =  2.0

     negative rho (up, down):  6.891E-01 0.000E+00

     total energy              =   -5319.33419872 Ry
     estimated scf accuracy    <       5.51893921 Ry

[...]

     total energy              =   -5322.40063786 Ry
     estimated scf accuracy    <       0.00000155 Ry

     iteration # 12     ecut=    30.00 Ry     beta= 0.70
     Davidson diagonalization with overlap

     ethr =  8.81E-10,  avg # of iterations =  2.0

[...]

     End of self-consistent calculation

          k = 0.0000 0.0000 0.0000 (  2161 PWs)   bands (ev):

   -40.4915 -40.4862 -40.4857 -40.4780 -37.8301 -37.8296 -37.8290 -37.8288
   -37.6403 -37.6395 -37.6393 -37.6387 -37.5165 -37.5156 -37.5146 -37.5142
   -11.3838 -11.3732 -11.3333 -11.3299 -11.2264 -11.2223 -11.1861 -11.1706
   -10.9991 -10.9829 -10.9366 -10.9162   6.2950   8.1919   9.0663   9.3909
     9.6639  10.5884  10.5944  10.6460  10.7547  10.7619  10.7973  10.7991
    10.8043  10.8048  10.8139  10.8195  10.8203  10.8461  10.8552  10.8560
    10.8563  10.8633  10.8790  10.8909  10.9018  10.9037  10.9063  10.9081
    10.9214  10.9221  10.9262  10.9324  10.9482  10.9584  10.9832  11.0535
    11.2416  11.2897  11.3569  11.3783  11.4434  11.4859  11.6370  11.6795
    11.7326  11.8052  11.8761  11.8851  12.0186  12.0767  12.2435  12.2963
    12.6063  12.7925  13.6344  14.5519  15.0301  15.0803  15.1861  15.2373
    16.6919  16.8518  16.9764  17.0273  17.3426  17.3942  17.4034  18.1105
    18.2674  18.4223  18.7591  18.9740  19.2004  19.5345  20.1719  20.1967
    20.2932  20.3165

     occupation numbers
     1.0000   1.0000   1.0000   1.0000   1.0000   1.0000   1.0000   1.0000
     1.0000   1.0000   1.0000   1.0000   1.0000   1.0000   1.0000   1.0000
     1.0000   1.0000   1.0000   1.0000   1.0000   1.0000   1.0000   1.0000
     1.0000   1.0000   1.0000   1.0000   1.0000   1.0000   1.0000   1.0000
     1.0000   1.0000   1.0000   1.0000   1.0000   1.0000   1.0000   1.0000
     1.0000   1.0000   1.0000   1.0000   1.0000   1.0000   1.0000   1.0000
     1.0000   1.0000   1.0000   1.0000   1.0000   1.0000   1.0000   1.0000
     1.0000   1.0000   1.0000   1.0000   1.0000   1.0000   1.0000   1.0000
     1.0000   1.0000   1.0000   1.0000   1.0000   1.0000   1.0000   1.0000
     1.0000   1.0000   1.0000   1.0000   1.0000   1.0000   1.0000   1.0000
     1.0000   1.0000   1.0000   1.0000   1.0000   1.0000   1.0000   1.0000
    -0.0000  -0.0000  -0.0000  -0.0000  -0.0000  -0.0000  -0.0000  -0.0000
    -0.0000  -0.0000  -0.0000  -0.0000  -0.0000  -0.0000  -0.0000  -0.0000
    -0.0000  -0.0000

     the Fermi energy is    15.6807 ev

!    total energy              =   -5322.40063805 Ry
     estimated scf accuracy    <       0.00000013 Ry
     smearing contrib. (-TS)   =       0.00000000 Ry
     internal energy E=F+TS    =   -5322.40063805 Ry

     The total energy is F=E-TS. E is the sum of the following terms:
     one-electron contribution =   -1999.80121522 Ry
     hartree contribution      =     951.07313609 Ry
     xc contribution           =    -403.83676461 Ry
     ewald contribution        =   -1767.28779609 Ry
     one-center paw contrib.   =   -2102.54799822 Ry
      -> PAW hartree energy AE =    1972.24366577 Ry
      -> PAW hartree energy PS =   -1698.81115326 Ry
      -> PAW xc energy AE      =   -2543.81769236 Ry
      -> PAW xc energy PS      =     167.83718163 Ry
      -> total E_H with PAW    =    1224.50564860 Ry
      -> total E_XC with PAW   =   -2779.81727534 Ry

     convergence has been achieved in  12 iterations

     negative rho (up, down):  7.105E-01 0.000E+00

     Forces acting on atoms (cartesian axes, Ry/au):

     atom    1 type  1   force =     0.00000000   -0.02083287    0.01521879
     atom    2 type  1   force =     0.00000000   -0.02083287   -0.01521879
     atom    3 type  1   force =     0.00000000    0.02083287   -0.01521879
     atom    4 type  1   force =     0.00000000    0.02083287    0.01521879
     atom    5 type  2   force =     0.00000000   -0.02616385    0.05381832
     atom    6 type  2   force =     0.00000000   -0.02616385   -0.05381832
     atom    7 type  2   force =     0.00000000    0.02616385   -0.05381832
     atom    8 type  2   force =     0.00000000    0.02616385    0.05381832
     atom    9 type  3   force =     0.00000000   -0.01223105   -0.01228018
     atom   10 type  3   force =     0.00000000   -0.01223105    0.01228018
     atom   11 type  3   force =     0.00000000    0.01223105    0.01228018
     atom   12 type  3   force =    -0.00000000    0.01223105   -0.01228018
     The non-local contrib.  to forces
     atom    1 type  1   force =     0.00000000   -0.00042491    0.04013902
     atom    2 type  1   force =     0.00000000   -0.00042491   -0.04013902
     atom    3 type  1   force =     0.00000000    0.00042491   -0.04013902
     atom    4 type  1   force =     0.00000000    0.00042491    0.04013902
     atom    5 type  2   force =    -0.00000000    0.01623103   -0.02664073
     atom    6 type  2   force =     0.00000000    0.01623103    0.02664073
     atom    7 type  2   force =    -0.00000000   -0.01623103    0.02664073
     atom    8 type  2   force =     0.00000000   -0.01623103   -0.02664073
     atom    9 type  3   force =     0.00000000    0.03255009    0.03363295
     atom   10 type  3   force =     0.00000000    0.03255009   -0.03363295
     atom   11 type  3   force =     0.00000000   -0.03255009   -0.03363295
     atom   12 type  3   force =    -0.00000000   -0.03255009    0.03363295
     The ionic contribution  to forces
     atom    1 type  1   force =    -0.00000000   -1.05818859    8.75362948
     atom    2 type  1   force =     0.00000000   -1.05818859   -8.75362948
     atom    3 type  1   force =     0.00000000    1.05818859   -8.75362948
     atom    4 type  1   force =     0.00000000    1.05818859    8.75362948
     atom    5 type  2   force =     0.00000000   -0.86195726   -0.32505404
     atom    6 type  2   force =     0.00000000   -0.86195726    0.32505404
     atom    7 type  2   force =     0.00000000    0.86195726    0.32505404
     atom    8 type  2   force =     0.00000000    0.86195726   -0.32505404
     atom    9 type  3   force =    -0.00000000    9.17426342    0.79993443
     atom   10 type  3   force =     0.00000000    9.17426342   -0.79993443
     atom   11 type  3   force =    -0.00000000   -9.17426342   -0.79993443
     atom   12 type  3   force =     0.00000000   -9.17426342    0.79993443
     The local contribution  to forces
     atom    1 type  1   force =    -0.00015384    1.03851605   -8.77645860
     atom    2 type  1   force =    -0.00007927    1.03755831    8.77870651
     atom    3 type  1   force =     0.00012582   -1.03877717    8.77658940
     atom    4 type  1   force =     0.00006805   -1.03822814   -8.77826650
     atom    5 type  2   force =    -0.00000294    0.82222995    0.40206083
     atom    6 type  2   force =    -0.00000164    0.82221975   -0.40214220
     atom    7 type  2   force =     0.00000174   -0.82219917   -0.40207695
     atom    8 type  2   force =     0.00000262   -0.82218808    0.40218664
     atom    9 type  3   force =    -0.00003448   -9.22641455   -0.83008883
     atom   10 type  3   force =    -0.00001056   -9.22672940    0.82964333
     atom   11 type  3   force =     0.00002170    9.22639885    0.82979651
     atom   12 type  3   force =     0.00003990    9.22693121   -0.82950249
     The core correction contribution to forces
     atom    1 type  1   force =    -0.00000000   -0.00000059    0.00000297
     atom    2 type  1   force =    -0.00000000   -0.00000060   -0.00000296
     atom    3 type  1   force =     0.00000000    0.00000059   -0.00000297
     atom    4 type  1   force =     0.00000000    0.00000059    0.00000297
     atom    5 type  2   force =     0.00000012   -0.00266564    0.00337205
     atom    6 type  2   force =     0.00000004   -0.00266632   -0.00337193
     atom    7 type  2   force =     0.00000005    0.00266512   -0.00337199
     atom    8 type  2   force =    -0.00000007    0.00266771    0.00337254
     atom    9 type  3   force =    -0.00000070    0.00778034   -0.01566953
     atom   10 type  3   force =     0.00000028    0.00776448    0.01566384
     atom   11 type  3   force =    -0.00000020   -0.00778150    0.01566722
     atom   12 type  3   force =     0.00000043   -0.00776280   -0.01566166
     The Hubbard contrib.    to forces
     atom    1 type  1   force =     0.00000000    0.00000000    0.00000000
     atom    2 type  1   force =     0.00000000    0.00000000    0.00000000
     atom    3 type  1   force =     0.00000000    0.00000000    0.00000000
     atom    4 type  1   force =     0.00000000    0.00000000    0.00000000
     atom    5 type  2   force =     0.00000000    0.00000000    0.00000000
     atom    6 type  2   force =     0.00000000    0.00000000    0.00000000
     atom    7 type  2   force =     0.00000000    0.00000000    0.00000000
     atom    8 type  2   force =     0.00000000    0.00000000    0.00000000
     atom    9 type  3   force =     0.00000000    0.00000000    0.00000000
     atom   10 type  3   force =     0.00000000    0.00000000    0.00000000
     atom   11 type  3   force =     0.00000000    0.00000000    0.00000000
     atom   12 type  3   force =     0.00000000    0.00000000    0.00000000
     The SCF correction term to forces
     atom    1 type  1   force =     0.00018940   -0.00073210   -0.00225574
     atom    2 type  1   force =     0.00010697    0.00029745   -0.00042993
     atom    3 type  1   force =    -0.00016913    0.00105969    0.00215871
     atom    4 type  1   force =    -0.00009073    0.00046047   -0.00020521
     atom    5 type  2   force =     0.00000278    0.00000833    0.00008256
     atom    6 type  2   force =     0.00000226    0.00000437    0.00000820
     atom    7 type  2   force =    -0.00000166   -0.00004469   -0.00006610
     atom    8 type  2   force =    -0.00000243   -0.00001999   -0.00004325
     atom    9 type  3   force =     0.00003628   -0.00037857   -0.00006489
     atom   10 type  3   force =     0.00000510   -0.00012072    0.00053400
     atom   11 type  3   force =    -0.00002255    0.00039157    0.00039681
     atom   12 type  3   force =    -0.00003989   -0.00009754   -0.00070112

     Total force =     0.134863     Total SCF correction =     0.003647

     Computing stress (Cartesian axis) and pressure

     negative rho (up, down):  7.105E-01 0.000E+00
          total   stress  (Ry/bohr**3)                   (kbar)     P=      -56.88
  -0.00061133   0.00000000   0.00000000          -89.93        0.00        0.00
   0.00000000   0.00021205   0.00000000            0.00       31.19        0.00
   0.00000000   0.00000000  -0.00076061            0.00        0.00     -111.89

     kinetic stress (kbar)  21479.96      0.00      0.00
                                0.00  21555.29      0.00
                                0.00      0.00  21309.79

     local   stress (kbar)  -2783.63     -0.00     -0.00
                               -0.00    384.86     -0.13
                               -0.00     -0.13   7469.54

     nonloc. stress (kbar)  11980.81      0.00      0.00
                                0.00  12064.29      0.00
                                0.00      0.00  11967.81

     hartree stress (kbar)  32483.61      0.00      0.00
                                0.00  30728.32      0.12
                                0.00      0.12  27401.89

     exc-cor stress (kbar)   5775.63      0.00     -0.00
                                0.00   5774.31     -0.00
                               -0.00     -0.00   5773.45

     corecor stress (kbar) -15055.10     -0.00      0.00
                               -0.00 -15051.17     -0.00
                                0.00     -0.00 -15051.36

     ewald   stress (kbar) -53971.22      0.00     -0.00
                                0.00 -55424.70      0.00
                               -0.00      0.00 -58983.02

     hubbard stress (kbar)      0.00      0.00      0.00
                                0.00      0.00      0.00
                                0.00      0.00      0.00

     DFT-D   stress (kbar)      0.00      0.00      0.00
                                0.00      0.00      0.00
                                0.00      0.00      0.00

     XDM     stress (kbar)      0.00      0.00      0.00
                                0.00      0.00      0.00
                                0.00      0.00      0.00

     dft-nl  stress (kbar)      0.00      0.00      0.00
                                0.00      0.00      0.00
                                0.00      0.00      0.00

     TS-vdW  stress (kbar)      0.00      0.00      0.00
                                0.00      0.00      0.00
                                0.00      0.00      0.00

[...]

                                0.00      0.00      0.00

     Writing all to output data dir new_calculations/myprefix.save/

     General routines

     Parallel routines

     PAW routines

   This run was terminated on:   0:32:43  21May2023

   JOB DONE.