     Program PWSCF v.7.0 starts on 20May2023 at  9:37:21

     Reading input from espresso_16220.pwi
Warning: card &CELL ignored
Warning: card / ignored

     Current dimensions of program PWSCF are:
     Max number of different atomic species (ntypx) = 10
     Max number of k-points (npk) =  40000
     Max angular momentum in pseudopotentials (lmaxx) =  4
     file Nb.pbe-spn-kjpaw_psl.0.3.0.UPF: wavefunction(s)  4S 4P renormalized
     file O.pbe-n-kjpaw_psl.0.1.UPF: wavefunction(s)  2P renormalized

     gamma-point specific algorithms are used
     Message from routine setup:
     using ibrav=0 with symmetry is DISCOURAGED, use correct ibrav instead

     Subspace diagonalization in iterative solution of the eigenvalue problem:
     a serial algorithm will be used

     Using Slab Decomposition

     bravais-lattice index     =            0
     lattice parameter (alat)  =      14.7897  a.u.
     unit-cell volume          =    1385.8368 (a.u.)^3
     number of atoms/cell      =           14
     number of atomic types    =            2
     number of electrons       =       112.00
     number of Kohn-Sham states=           67
     kinetic-energy cutoff     =      30.0000  Ry
     charge density cutoff     =     240.0000  Ry
     scf convergence threshold =      1.0E-06
     mixing beta               =       0.7000
     number of iterations used =            8  plain     mixing
     Exchange-correlation= SLA  PW   PBX  PBC
                           (   1   4   3   4   0   0   0)

     celldm(1)=  14.789715  celldm(2)=   0.000000  celldm(3)=   0.000000
     celldm(4)=   0.000000  celldm(5)=   0.000000  celldm(6)=   0.000000

     crystal axes: (cart. coord. in units of alat)
               a(1) = (   1.000000   0.000000   0.000000 )
               a(2) = (   0.000000   0.492833   0.000000 )
               a(3) = (   0.001822   0.000000   0.869226 )

     reciprocal axes: (cart. coord. in units 2 pi/alat)
               b(1) = (  1.000000  0.000000 -0.002096 )
               b(2) = (  0.000000  2.029084  0.000000 )
               b(3) = (  0.000000  0.000000  1.150449 )

     PseudoPot. # 1 for Nb read from file:
     /home/pragov/projects/rrg-bengioy-ad/pragov/crystal_structure_design/SSSP/Nb.pbe-spn-kjpaw_psl.0.3.0.UPF
     MD5 check sum: 411d72ad547312f8017e2943ceca08cc
     Pseudo is Projector augmented-wave + core cor, Zval = 13.0
     Generated using "atomic" code by A. Dal Corso  v.5.0.99 svn rev. 10869
     Shape of augmentation charge: PSQ
     Using radial grid of 1227 points,  6 beta functions with:
                l(1) =   0
                l(2) =   0
                l(3) =   1
                l(4) =   1
                l(5) =   2
                l(6) =   2
     Q(r) pseudized with 0 coefficients

     PseudoPot. # 2 for O  read from file:
     /home/pragov/projects/rrg-bengioy-ad/pragov/crystal_structure_design/SSSP/O.pbe-n-kjpaw_psl.0.1.UPF
     MD5 check sum: 0234752ac141de4415c5fc33072bef88
     Pseudo is Projector augmented-wave + core cor, Zval =  6.0
     Generated using "atomic" code by A. Dal Corso  v.5.0.99 svn rev. 10869
     Shape of augmentation charge: BESSEL
     Using radial grid of 1095 points,  4 beta functions with:
                l(1) =   0
                l(2) =   0
                l(3) =   1
                l(4) =   1
     Q(r) pseudized with 0 coefficients

     atomic species   valence    mass     pseudopotential
        Nb            13.00    92.90637     Nb( 1.00)
        O              6.00    15.99900     O ( 1.00)

      4 Sym. Ops., with inversion, found ( 2 have fractional translation)

                                    s                        frac. trans.

      isym =  1     identity

 cryst.   s( 1) = (     1          0          0      )
                  (     0          1          0      )
                  (     0          0          1      )

 cart.    s( 1) = (  1.0000000  0.0000000  0.0000000 )
                  (  0.0000000  1.0000000  0.0000000 )
                  (  0.0000000  0.0000000  1.0000000 )

      isym =  2     180 deg rotation - cart. axis [0,1,0]

 cryst.   s( 2) = (    -1          0          0      )    f =( -0.0000000 )
                  (     0          1          0      )       ( -0.5000000 )
                  (     0          0         -1      )       (  0.0000000 )

 cart.    s( 2) = ( -1.0000000  0.0000000 -0.0000000 )    f =( -0.0000000 )
                  (  0.0000000  1.0000000  0.0000000 )       ( -0.2464167 )
                  (  0.0000000  0.0000000 -1.0000000 )       (  0.0000000 )

      isym =  3     inversion

 cryst.   s( 3) = (    -1          0          0      )
                  (     0         -1          0      )
                  (     0          0         -1      )

 cart.    s( 3) = ( -1.0000000  0.0000000 -0.0000000 )
                  (  0.0000000 -1.0000000  0.0000000 )
                  (  0.0000000  0.0000000 -1.0000000 )

      isym =  4     inv. 180 deg rotation - cart. axis [0,1,0]

 cryst.   s( 4) = (     1          0          0      )    f =(  0.0000000 )
                  (     0         -1          0      )       (  0.5000000 )
                  (     0          0          1      )       (  0.0000000 )

 cart.    s( 4) = (  1.0000000  0.0000000  0.0000000 )    f =(  0.0000000 )
                  (  0.0000000 -1.0000000  0.0000000 )       (  0.2464167 )
                  (  0.0000000  0.0000000  1.0000000 )       (  0.0000000 )

   Cartesian axes

     site n.     atom                  positions (alat units)
         1           Nb  tau(   1) = (   0.0953778   0.1232083   0.6998633  )
         2           Nb  tau(   2) = (   0.2771974   0.1232083   0.2330316  )
         3           Nb  tau(   3) = (   0.7246244   0.3696250   0.6361942  )
         4           Nb  tau(   4) = (   0.9064440   0.3696250   0.1693626  )
         5           O   tau(   5) = (   0.0327144   0.3696250   0.7440243  )
         6           O   tau(   6) = (   0.1753668   0.1232083   0.4813364  )
         7           O   tau(   7) = (   0.1876526   0.3696250   0.2221567  )
         8           O   tau(   8) = (   0.2862621   0.1232083   0.8426779  )
         9           O   tau(   9) = (   0.4941383   0.1232083   0.2763834  )
        10           O   tau(  10) = (   0.5076835   0.3696250   0.5928424  )
        11           O   tau(  11) = (   0.7155596   0.3696250   0.0265479  )
        12           O   tau(  12) = (   0.8141692   0.1232083   0.6470691  )
        13           O   tau(  13) = (   0.8264550   0.3696250   0.3878894  )
        14           O   tau(  14) = (   0.9691074   0.1232083   0.1252015  )

   Crystallographic axes

     site n.     atom                  positions (cryst. coord.)
         1           Nb  tau(   1) = (  0.0939110  0.2500000  0.8051570  )
         2           Nb  tau(   2) = (  0.2767090  0.2500000  0.2680910  )
         3           Nb  tau(   3) = (  0.7232910  0.7500000  0.7319090  )
         4           Nb  tau(   4) = (  0.9060890  0.7500000  0.1948430  )
         5           O   tau(   5) = (  0.0311550  0.7500000  0.8559620  )
         6           O   tau(   6) = (  0.1743580  0.2500000  0.5537530  )
         7           O   tau(   7) = (  0.1871870  0.7500000  0.2555800  )
         8           O   tau(   8) = (  0.2844960  0.2500000  0.9694580  )
         9           O   tau(   9) = (  0.4935590  0.2500000  0.3179650  )
        10           O   tau(  10) = (  0.5064410  0.7500000  0.6820350  )
        11           O   tau(  11) = (  0.7155040  0.7500000  0.0305420  )
        12           O   tau(  12) = (  0.8128130  0.2500000  0.7444200  )
        13           O   tau(  13) = (  0.8256420  0.7500000  0.4462470  )
        14           O   tau(  14) = (  0.9688450  0.2500000  0.1440380  )

     number of k points=     1  Methfessel-Paxton smearing, width (Ry)=  0.0010
                       cart. coord. in units 2pi/alat
        k(    1) = (   0.0000000   0.0000000   0.0000000), wk =   2.0000000

                       cryst. coord.
        k(    1) = (   0.0000000   0.0000000   0.0000000), wk =   2.0000000

     Check: negative core charge=   -0.000021

     Initial potential from superposition of free atoms

     starting charge     111.9915, renormalised to     112.0000
     Starting wfcs are   80 randomized atomic wfcs
     Checking if some PAW data can be deallocated...

     Self-consistent Calculation

     iteration #  1     ecut=    30.00 Ry     beta= 0.70
     Davidson diagonalization with overlap

     ethr =  1.00E-02,  avg # of iterations =  2.0

     total energy              =   -1749.09870340 Ry
     estimated scf accuracy    <       8.75102148 Ry

[...]

     total energy              =   -1754.01287904 Ry
     estimated scf accuracy    <       0.00000971 Ry

     iteration # 15     ecut=    30.00 Ry     beta= 0.70
     Davidson diagonalization with overlap

     ethr =  8.67E-09,  avg # of iterations =  4.0

     End of self-consistent calculation

          k = 0.0000 0.0000 0.0000 (  1924 PWs)   bands (ev):

   -49.4241 -49.4174 -48.7841 -48.7830 -25.7503 -25.7117 -25.5444 -25.5168
   -25.5164 -25.4849 -25.0344 -25.0216 -24.9528 -24.9492 -24.9031 -24.9019
   -12.0679 -11.6352 -11.3187 -11.2411 -11.1432 -10.9341 -10.6537 -10.6038
    -9.1352  -8.9954   0.6378   1.0652   1.1747   1.2636   1.4340   1.6959
     2.1092   2.4149   2.4252   2.6733   2.7727   3.0211   3.0622   3.2912
     3.3337   3.4402   3.5071   3.9055   3.9658   4.0873   4.2490   4.3310
     4.5490   4.7539   5.0037   5.0235   5.3196   5.4103   5.4228   5.5894
     7.8721   7.8745   9.6059   9.6503   9.7149  10.1494  10.5254  10.6339
    10.7089  10.8898  11.2816

     occupation numbers
     1.0000   1.0000   1.0000   1.0000   1.0000   1.0000   1.0000   1.0000
     1.0000   1.0000   1.0000   1.0000   1.0000   1.0000   1.0000   1.0000
     1.0000   1.0000   1.0000   1.0000   1.0000   1.0000   1.0000   1.0000
     1.0000   1.0000   1.0000   1.0000   1.0000   1.0000   1.0000   1.0000
     1.0000   1.0000   1.0000   1.0000   1.0000   1.0000   1.0000   1.0000
     1.0000   1.0000   1.0000   1.0000   1.0000   1.0000   1.0000   1.0000
     1.0000   1.0000   1.0000   1.0000   1.0000   1.0000   1.0000   1.0000
    -0.0000  -0.0000  -0.0000  -0.0000  -0.0000  -0.0000  -0.0000  -0.0000
    -0.0000  -0.0000  -0.0000

     the Fermi energy is     7.6065 ev

!    total energy              =   -1754.01288035 Ry

     total all-electron energy =    -32065.309709 Ry
     estimated scf accuracy    <       0.00000048 Ry
     smearing contrib. (-TS)   =       0.00000000 Ry
     internal energy E=F+TS    =   -1754.01288035 Ry

     The total energy is F=E-TS. E is the sum of the following terms:
     one-electron contribution =    -411.96131270 Ry
     hartree contribution      =     258.30620579 Ry
     xc contribution           =    -189.32296239 Ry
     ewald contribution        =    -481.85810506 Ry
     one-center paw contrib.   =    -929.17670600 Ry
      -> PAW hartree energy AE =     563.03074341 Ry
      -> PAW hartree energy PS =    -560.51615415 Ry
      -> PAW xc energy AE      =   -1114.52092647 Ry
      -> PAW xc energy PS      =     182.82963120 Ry
      -> total E_H with PAW    =     260.82079506 Ry
      -> total E_XC with PAW   =   -1121.01425766 Ry

     convergence has been achieved in  15 iterations

     Forces acting on atoms (cartesian axes, Ry/au):

     atom    1 type  1   force =     0.18383179   -0.00000000   -0.11562995
     atom    2 type  1   force =     0.17608013    0.00000000    0.03069264
     atom    3 type  1   force =    -0.17608013    0.00000000   -0.03069264
     atom    4 type  1   force =    -0.18383179    0.00000000    0.11562995
     atom    5 type  2   force =    -0.16655514    0.00000000    0.11966570
     atom    6 type  2   force =     0.00688453    0.00000000   -0.01069518
     atom    7 type  2   force =    -0.16826129    0.00000000   -0.00759560
     atom    8 type  2   force =    -0.03298129    0.00000000   -0.00295322
     atom    9 type  2   force =    -0.04011177    0.00000000   -0.00828953
     atom   10 type  2   force =     0.04011177    0.00000000    0.00828953
     atom   11 type  2   force =     0.03298129    0.00000000    0.00295322
     atom   12 type  2   force =     0.16826129    0.00000000    0.00759560
     atom   13 type  2   force =    -0.00688453    0.00000000    0.01069518
     atom   14 type  2   force =     0.16655514    0.00000000   -0.11966570
     The non-local contrib.  to forces
     atom    1 type  1   force =    -0.20229054    0.00000000    0.20961950
     atom    2 type  1   force =    -0.03152882   -0.00000000    0.03911682
     atom    3 type  1   force =     0.03152882    0.00000000   -0.03911682
     atom    4 type  1   force =     0.20229054    0.00000000   -0.20961950
     atom    5 type  2   force =     0.70409590    0.00000000   -0.54226810
     atom    6 type  2   force =    -0.13183621    0.00000000    0.33613819
     atom    7 type  2   force =     0.63783921    0.00000000    0.03015312
     atom    8 type  2   force =    -0.88032095    0.00000000    0.21237753
     atom    9 type  2   force =    -1.18934409    0.00000000   -0.26025651
     atom   10 type  2   force =     1.18934409    0.00000000    0.26025651
     atom   11 type  2   force =     0.88032095    0.00000000   -0.21237753
     atom   12 type  2   force =    -0.63783921    0.00000000   -0.03015312
     atom   13 type  2   force =     0.13183621    0.00000000   -0.33613819
     atom   14 type  2   force =    -0.70409590    0.00000000    0.54226810
     The ionic contribution  to forces
     atom    1 type  1   force =     9.80536566   -0.00000000   -7.35041341
     atom    2 type  1   force =    13.72632415    0.00000000    4.29897320
     atom    3 type  1   force =   -13.72632415   -0.00000000   -4.29897321
     atom    4 type  1   force =    -9.80536565    0.00000000    7.35041341
     atom    5 type  2   force =     3.49360871   -0.00000000   -2.64664375
     atom    6 type  2   force =     6.20034134    0.00000000   -2.27325502
     atom    7 type  2   force =     6.34687704    0.00000000    3.13087558
     atom    8 type  2   force =    15.81672106    0.00000000   -3.72830336
     atom    9 type  2   force =    12.34440293   -0.00000000    2.31914992
     atom   10 type  2   force =   -12.34440293   -0.00000000   -2.31914992
     atom   11 type  2   force =   -15.81672106    0.00000000    3.72830336
     atom   12 type  2   force =    -6.34687704    0.00000000   -3.13087558
     atom   13 type  2   force =    -6.20034134    0.00000000    2.27325502
     atom   14 type  2   force =    -3.49360871    0.00000000    2.64664375
     The local contribution  to forces
     atom    1 type  1   force =    -9.42898789   -0.00000257    7.03935438
     atom    2 type  1   force =   -13.51132161    0.00000264   -4.30336730
     atom    3 type  1   force =    13.51242595   -0.00000837    4.30347230
     atom    4 type  1   force =     9.42818388   -0.00000242   -7.03931094
     atom    5 type  2   force =    -4.35539804    0.00000055    3.30146827
     atom    6 type  2   force =    -6.06229428    0.00000154    1.92802457
     atom    7 type  2   force =    -7.14434207   -0.00000702   -3.16780686
     atom    8 type  2   force =   -14.97629760    0.00000261    3.51542076
     atom    9 type  2   force =   -11.20323648    0.00000703   -2.06892775
     atom   10 type  2   force =    11.20390761   -0.00000404    2.06893442
     atom   11 type  2   force =    14.97630507   -0.00000143   -3.51561465
     atom   12 type  2   force =     7.14416348    0.00000879    3.16784710
     atom   13 type  2   force =     6.06206648    0.00000288   -1.92773989
     atom   14 type  2   force =     4.35502141    0.00000308   -3.30165327
     The core correction contribution to forces
     atom    1 type  1   force =     0.00994998    0.00000001   -0.01509903
     atom    2 type  1   force =    -0.00649246    0.00000016   -0.00334114
     atom    3 type  1   force =     0.00650926    0.00000010    0.00334512
     atom    4 type  1   force =    -0.00994986   -0.00000031    0.01511087
     atom    5 type  2   force =    -0.00903199   -0.00000004    0.00671578
     atom    6 type  2   force =     0.00066939    0.00000002   -0.00175602
     atom    7 type  2   force =    -0.00847246   -0.00000005   -0.00049071
     atom    8 type  2   force =     0.00715828    0.00000002   -0.00244853
     atom    9 type  2   force =     0.00837198    0.00000008    0.00192472
     atom   10 type  2   force =    -0.00837121   -0.00000002   -0.00192425
     atom   11 type  2   force =    -0.00715962   -0.00000002    0.00244801
     atom   12 type  2   force =     0.00847255    0.00000007    0.00049157
     atom   13 type  2   force =    -0.00066958    0.00000002    0.00175668
     atom   14 type  2   force =     0.00903335    0.00000001   -0.00671612
     The Hubbard contrib.    to forces
     atom    1 type  1   force =     0.00000000    0.00000000    0.00000000
     atom    2 type  1   force =     0.00000000    0.00000000    0.00000000
     atom    3 type  1   force =     0.00000000    0.00000000    0.00000000
     atom    4 type  1   force =     0.00000000    0.00000000    0.00000000
     atom    5 type  2   force =     0.00000000    0.00000000    0.00000000
     atom    6 type  2   force =     0.00000000    0.00000000    0.00000000
     atom    7 type  2   force =     0.00000000    0.00000000    0.00000000
     atom    8 type  2   force =     0.00000000    0.00000000    0.00000000
     atom    9 type  2   force =     0.00000000    0.00000000    0.00000000
     atom   10 type  2   force =     0.00000000    0.00000000    0.00000000
     atom   11 type  2   force =     0.00000000    0.00000000    0.00000000
     atom   12 type  2   force =     0.00000000    0.00000000    0.00000000
     atom   13 type  2   force =     0.00000000    0.00000000    0.00000000
     atom   14 type  2   force =     0.00000000    0.00000000    0.00000000
     The SCF correction term to forces
     atom    1 type  1   force =    -0.00012574    0.00000299    0.00101273
     atom    2 type  1   force =    -0.00086742   -0.00000465   -0.00068490
     atom    3 type  1   force =    -0.00018628    0.00000961    0.00058403
     atom    4 type  1   force =     0.00108898    0.00000087   -0.00085978
     atom    5 type  2   force =     0.00023986   -0.00000074    0.00039906
     atom    6 type  2   force =     0.00002890   -0.00000146    0.00015216
     atom    7 type  2   force =    -0.00016250    0.00000468   -0.00031043
     atom    8 type  2   force =    -0.00028173   -0.00000144   -0.00000090
     atom    9 type  2   force =    -0.00029909   -0.00000267   -0.00016808
     atom   10 type  2   force =    -0.00035876    0.00000103    0.00018460
     atom   11 type  2   force =     0.00019628    0.00000127    0.00019276
     atom   12 type  2   force =     0.00034204   -0.00000763    0.00030193
     atom   13 type  2   force =     0.00024834   -0.00000155   -0.00043938
     atom   14 type  2   force =     0.00027458   -0.00000121   -0.00020261

     Total force =     0.552226     Total SCF correction =     0.002438

     Computing stress (Cartesian axis) and pressure

          total   stress  (Ry/bohr**3)                   (kbar)     P=     -393.10
  -0.00254196   0.00000000  -0.00019789         -373.94        0.00      -29.11
   0.00000000  -0.00256812   0.00000000            0.00     -377.78        0.00
  -0.00019789   0.00000000  -0.00290664          -29.11        0.00     -427.58

     kinetic stress (kbar)  24508.38      0.00     66.56
                                0.00  24008.62      0.00
                               66.56      0.00  24232.40

     local   stress (kbar)  -5765.64      0.00  -5494.66
                                0.00 -24675.54     -0.00
                            -5494.66     -0.00 -24850.96

     nonloc. stress (kbar)   6591.58      0.00    -41.74
                                0.00   6828.78      0.00
                              -41.74      0.00   6659.68

     hartree stress (kbar)   3089.95     -0.00   2217.82
                               -0.00  12330.90      0.00
                             2217.82      0.00  11998.07

     exc-cor stress (kbar)   1916.30     -0.00      3.67
                               -0.00   1904.16      0.00
                                3.67      0.00   1913.68

     corecor stress (kbar)  -6905.15      0.00      0.57
                                0.00  -6910.74      0.00
                                0.57      0.00  -6905.04

     ewald   stress (kbar) -23809.35     -0.00   3218.68
                               -0.00 -13863.96      0.00
                             3218.68      0.00 -13475.41

     hubbard stress (kbar)      0.00      0.00      0.00
                                0.00      0.00      0.00
                                0.00      0.00      0.00

     DFT-D   stress (kbar)      0.00      0.00      0.00
                                0.00      0.00      0.00
                                0.00      0.00      0.00

     XDM     stress (kbar)      0.00      0.00      0.00
                                0.00      0.00      0.00
                                0.00      0.00      0.00

     dft-nl  stress (kbar)      0.00      0.00      0.00
                                0.00      0.00      0.00
                                0.00      0.00      0.00

     TS-vdW  stress (kbar)      0.00      0.00      0.00
                                0.00      0.00      0.00
                                0.00      0.00      0.00

[...]

                                0.00      0.00      0.00

     Writing all to output data dir new_calculations/myprefix.save/

     General routines

     Parallel routines

     PAW routines

   This run was terminated on:   9:37:51  20May2023

   JOB DONE.