     Program PWSCF v.7.0 starts on 21May2023 at  8:19:20

     Reading input from espresso_25403.pwi
Warning: card &CELL ignored
Warning: card / ignored

     Current dimensions of program PWSCF are:
     Max number of different atomic species (ntypx) = 10
     Max number of k-points (npk) =  40000
     Max angular momentum in pseudopotentials (lmaxx) =  4
     file Al.pbe-n-kjpaw_psl.1.0.0.UPF: wavefunction(s)  3S 3P renormalized

     gamma-point specific algorithms are used
     Message from routine setup:
     using ibrav=0 with symmetry is DISCOURAGED, use correct ibrav instead

     Subspace diagonalization in iterative solution of the eigenvalue problem:
     a serial algorithm will be used

     Using Slab Decomposition

     bravais-lattice index     =            0
     lattice parameter (alat)  =      12.8937  a.u.
     unit-cell volume          =    1441.0128 (a.u.)^3
     number of atoms/cell      =           10
     number of atomic types    =            3
     number of electrons       =       118.00
     number of Kohn-Sham states=           71
     kinetic-energy cutoff     =      30.0000  Ry
     charge density cutoff     =     240.0000  Ry
     scf convergence threshold =      1.0E-06
     mixing beta               =       0.7000
     number of iterations used =            8  plain     mixing
     Exchange-correlation= PBE
                           (   1   4   3   4   0   0   0)

     celldm(1)=  12.893656  celldm(2)=   0.000000  celldm(3)=   0.000000
     celldm(4)=   0.000000  celldm(5)=   0.000000  celldm(6)=   0.000000

     crystal axes: (cart. coord. in units of alat)
               a(1) = (   1.000000   0.000000   0.000000 )
               a(2) = (   0.000000   1.000000   0.000000 )
               a(3) = (   0.000000   0.000000   0.672264 )

     reciprocal axes: (cart. coord. in units 2 pi/alat)
               b(1) = (  1.000000  0.000000  0.000000 )
               b(2) = (  0.000000  1.000000  0.000000 )
               b(3) = (  0.000000  0.000000  1.487512 )

     PseudoPot. # 1 for Yb read from file:
     /home/pragov/projects/rrg-bengioy-ad/pragov/crystal_structure_design/SSSP/Yb.GGA-PBE-paw-v1.0.UPF
     MD5 check sum: 43b6465ad8021f06e3edb42ae292e187
     Pseudo is Projector augmented-wave + core cor, Zval = 24.0
     Generated using ATOMPAW code
     Shape of augmentation charge: BESSEL
     Using radial grid of 1117 points,  8 beta functions with:
                l(1) =   0
                l(2) =   0
                l(3) =   1
                l(4) =   1
                l(5) =   2
                l(6) =   2
                l(7) =   3
                l(8) =   3
     Q(r) pseudized with 0 coefficients

     PseudoPot. # 2 for Al read from file:
     /home/pragov/projects/rrg-bengioy-ad/pragov/crystal_structure_design/SSSP/Al.pbe-n-kjpaw_psl.1.0.0.UPF
     MD5 check sum: cfc449ca30b5f3223ec38ddd88ac046d
     Pseudo is Projector augmented-wave + core cor, Zval =  3.0
     Generated using "atomic" code by A. Dal Corso  v.5.1
     Shape of augmentation charge: PSQ
     Using radial grid of 1135 points,  6 beta functions with:
                l(1) =   0
                l(2) =   0
                l(3) =   1
                l(4) =   1
                l(5) =   2
                l(6) =   2
     Q(r) pseudized with 0 coefficients

     PseudoPot. # 3 for Si read from file:
     /home/pragov/projects/rrg-bengioy-ad/pragov/crystal_structure_design/SSSP/Si.pbe-n-rrkjus_psl.1.0.0.UPF
     MD5 check sum: 0b0bb1205258b0d07b9f9672cf965d36
     Pseudo is Ultrasoft + core correction, Zval =  4.0
     Generated using "atomic" code by A. Dal Corso  v.5.1
     Using radial grid of 1141 points,  6 beta functions with:
                l(1) =   0
                l(2) =   0
                l(3) =   1
                l(4) =   1
                l(5) =   2
                l(6) =   2
     Q(r) pseudized with 0 coefficients

     atomic species   valence    mass     pseudopotential
        Yb            24.00   173.05400     Yb( 1.00)
        Al             3.00    26.98154     Al( 1.00)
        Si             4.00    28.08500     Si( 1.00)

     16 Sym. Ops., with inversion, found ( 8 have fractional translation)

                                    s                        frac. trans.

      isym =  1     identity

 cryst.   s( 1) = (     1          0          0      )
                  (     0          1          0      )
                  (     0          0          1      )

 cart.    s( 1) = (  1.0000000  0.0000000  0.0000000 )
                  (  0.0000000  1.0000000  0.0000000 )
                  (  0.0000000  0.0000000  1.0000000 )

      isym =  2     180 deg rotation - cart. axis [0,0,1]

[...]

 cryst.   s( 3) = (    -1          0          0      )    f =(  0.5000000 )
                  (     0          1          0      )       ( -0.5000000 )
                  (     0          0         -1      )       (  0.0000000 )

 cart.    s( 3) = ( -1.0000000  0.0000000  0.0000000 )    f =(  0.5000000 )
                  (  0.0000000  1.0000000  0.0000000 )       ( -0.5000000 )
                  (  0.0000000  0.0000000 -1.0000000 )       (  0.0000000 )

[...]

 cryst.   s( 6) = (     0         -1          0      )    f =(  0.5000000 )
                  (    -1          0          0      )       (  0.5000000 )
                  (     0          0         -1      )       (  0.0000000 )

 cart.    s( 6) = (  0.0000000 -1.0000000  0.0000000 )    f =(  0.5000000 )
                  ( -1.0000000  0.0000000  0.0000000 )       (  0.5000000 )
                  (  0.0000000  0.0000000 -1.0000000 )       (  0.0000000 )

[...]

      isym =  8      90 deg rotation - cart. axis [0,0,1]

[...]

      isym =  9     inversion

 cryst.   s( 9) = (    -1          0          0      )
                  (     0         -1          0      )
                  (     0          0         -1      )

 cart.    s( 9) = ( -1.0000000  0.0000000  0.0000000 )
                  (  0.0000000 -1.0000000  0.0000000 )
                  (  0.0000000  0.0000000 -1.0000000 )

      isym = 10     inv. 180 deg rotation - cart. axis [0,0,1]

 cryst.   s(10) = (     1          0          0      )
                  (     0          1          0      )
                  (     0          0         -1      )

 cart.    s(10) = (  1.0000000  0.0000000  0.0000000 )
                  (  0.0000000  1.0000000  0.0000000 )
                  (  0.0000000  0.0000000 -1.0000000 )

[...]

 cryst.   s(11) = (     1          0          0      )    f =(  0.5000000 )
                  (     0         -1          0      )       (  0.5000000 )
                  (     0          0          1      )       (  0.0000000 )

 cart.    s(11) = (  1.0000000  0.0000000  0.0000000 )    f =(  0.5000000 )
                  (  0.0000000 -1.0000000  0.0000000 )       (  0.5000000 )
                  (  0.0000000  0.0000000  1.0000000 )       (  0.0000000 )

[...]

 cryst.   s(14) = (     0          1          0      )    f =(  0.5000000 )
                  (     1          0          0      )       ( -0.5000000 )
                  (     0          0          1      )       (  0.0000000 )

 cart.    s(14) = (  0.0000000  1.0000000  0.0000000 )    f =(  0.5000000 )
                  (  1.0000000  0.0000000  0.0000000 )       ( -0.5000000 )
                  (  0.0000000  0.0000000  1.0000000 )       (  0.0000000 )

[...]

      isym = 16     inv.  90 deg rotation - cart. axis [0,0,1]

 cryst.   s(16) = (     0         -1          0      )
                  (     1          0          0      )
                  (     0          0         -1      )

 cart.    s(16) = (  0.0000000  1.0000000  0.0000000 )
                  ( -1.0000000  0.0000000  0.0000000 )
                  (  0.0000000  0.0000000 -1.0000000 )

   Cartesian axes

     site n.     atom                  positions (alat units)
         1           Yb  tau(   1) = (   0.3253280   0.8253280   0.3361318  )
         2           Yb  tau(   2) = (   0.8253280   0.6746720   0.3361318  )
         3           Yb  tau(   3) = (   0.1746720   0.3253280   0.3361318  )
         4           Yb  tau(   4) = (   0.6746720   0.1746720   0.3361318  )
         5           Al  tau(   5) = (   0.5000000   0.5000000   0.0000000  )
         6           Al  tau(   6) = (   0.0000000   0.0000000   0.0000000  )
         7           Si  tau(   7) = (   0.6237940   0.8762060   0.0000000  )
         8           Si  tau(   8) = (   0.8762060   0.3762060   0.0000000  )
         9           Si  tau(   9) = (   0.3762060   0.1237940   0.0000000  )
        10           Si  tau(  10) = (   0.1237940   0.6237940   0.0000000  )

   Crystallographic axes

     site n.     atom                  positions (cryst. coord.)
         1           Yb  tau(   1) = (  0.3253280  0.8253280  0.5000000  )
         2           Yb  tau(   2) = (  0.8253280  0.6746720  0.5000000  )
         3           Yb  tau(   3) = (  0.1746720  0.3253280  0.5000000  )
         4           Yb  tau(   4) = (  0.6746720  0.1746720  0.5000000  )
         5           Al  tau(   5) = (  0.5000000  0.5000000  0.0000000  )
         6           Al  tau(   6) = (  0.0000000  0.0000000  0.0000000  )
         7           Si  tau(   7) = (  0.6237940  0.8762060  0.0000000  )
         8           Si  tau(   8) = (  0.8762060  0.3762060  0.0000000  )
         9           Si  tau(   9) = (  0.3762060  0.1237940  0.0000000  )
        10           Si  tau(  10) = (  0.1237940  0.6237940  0.0000000  )

     number of k points=     1  Methfessel-Paxton smearing, width (Ry)=  0.0010
                       cart. coord. in units 2pi/alat
        k(    1) = (   0.0000000   0.0000000   0.0000000), wk =   2.0000000

                       cryst. coord.
        k(    1) = (   0.0000000   0.0000000   0.0000000), wk =   2.0000000

     Initial potential from superposition of free atoms

     starting charge     117.9771, renormalised to     118.0000
     Starting wfcs are  152 randomized atomic wfcs
     Checking if some PAW data can be deallocated...

     Self-consistent Calculation

     iteration #  1     ecut=    30.00 Ry     beta= 0.70
     Davidson diagonalization with overlap

     ethr =  1.00E-02,  avg # of iterations =  4.0

     total energy              =   -4167.51964450 Ry
     estimated scf accuracy    <       1.58832772 Ry

[...]

     c_bands:  1 eigenvalues not converged
     ethr =  1.35E-03,  avg # of iterations = 20.0

[...]

     total energy              =   -4169.33835232 Ry
     estimated scf accuracy    <       0.00000221 Ry

     iteration # 21     ecut=    30.00 Ry     beta= 0.70
     Davidson diagonalization with overlap

     ethr =  1.87E-09,  avg # of iterations =  2.0

     End of self-consistent calculation

          k = 0.0000 0.0000 0.0000 (  2016 PWs)   bands (ev):

   -39.9810 -39.9623 -39.9616 -39.9613 -12.5622 -12.4057 -12.3869 -12.3869
   -12.3075 -12.1619 -12.1263 -12.1262 -12.1037 -12.0375 -12.0374 -12.0341
     0.9629   2.7944   4.4053   4.4054   5.5103   6.6359   7.7125   7.7126
     8.1634   8.9654   9.4577  10.1703  10.5834  10.5835  10.8789  10.9947
    11.0518  11.0532  11.0534  11.0999  11.1374  11.1375  11.1497  11.1588
    11.2015  11.2213  11.2339  11.2561  11.2561  11.2701  11.2803  11.2805
    11.2867  11.3127  11.3467  11.3469  11.3558  11.3599  11.3601  11.3777
    11.3975  11.5034  11.5034  11.9388  12.2247  12.2247  12.3809  12.9462
    13.8757  13.9816  14.7233  14.8354  14.8354  15.2001  15.2002

     occupation numbers
     1.0000   1.0000   1.0000   1.0000   1.0000   1.0000   1.0000   1.0000
     1.0000   1.0000   1.0000   1.0000   1.0000   1.0000   1.0000   1.0000
     1.0000   1.0000   1.0000   1.0000   1.0000   1.0000   1.0000   1.0000
     1.0000   1.0000   1.0000   1.0000   1.0000   1.0000   1.0000   1.0000
     1.0000   1.0000   1.0000   1.0000   1.0000   1.0000   1.0000   1.0000
     1.0000   1.0000   1.0000   1.0000   1.0000   1.0000   1.0000   1.0000
     1.0000   1.0000   1.0000   1.0000   1.0000   1.0000   1.0000   1.0000
     1.0000   1.0000   1.0000  -0.0000  -0.0000  -0.0000  -0.0000  -0.0000
    -0.0000  -0.0000  -0.0000  -0.0000  -0.0000  -0.0000  -0.0000

     the Fermi energy is    11.8705 ev

!    total energy              =   -4169.33835154 Ry
     estimated scf accuracy    <       0.00000070 Ry
     smearing contrib. (-TS)   =       0.00000000 Ry
     internal energy E=F+TS    =   -4169.33835154 Ry

     The total energy is F=E-TS. E is the sum of the following terms:
     one-electron contribution =   -1709.85318216 Ry
     hartree contribution      =     776.10375453 Ry
     xc contribution           =    -182.33726268 Ry
     ewald contribution        =   -1045.53658675 Ry
     one-center paw contrib.   =   -2007.71507448 Ry
      -> PAW hartree energy AE =    1804.79464794 Ry
      -> PAW hartree energy PS =   -1552.89778428 Ry
      -> PAW xc energy AE      =   -2411.97951308 Ry
      -> PAW xc energy PS      =     152.36757494 Ry
      -> total E_H with PAW    =    1028.00061819 Ry
      -> total E_XC with PAW   =   -2441.94920081 Ry

     convergence has been achieved in  21 iterations

     Forces acting on atoms (cartesian axes, Ry/au):

     atom    1 type  1   force =    -0.00688846   -0.00688846    0.00000000
     atom    2 type  1   force =    -0.00688846    0.00688846    0.00000000
     atom    3 type  1   force =     0.00688846   -0.00688846   -0.00000000
     atom    4 type  1   force =     0.00688846    0.00688846    0.00000000
     atom    5 type  2   force =     0.00000000    0.00000000    0.00000000
     atom    6 type  2   force =     0.00000000    0.00000000    0.00000000
     atom    7 type  3   force =     0.03545449   -0.03545449    0.00000000
     atom    8 type  3   force =    -0.03545449   -0.03545449   -0.00000000
     atom    9 type  3   force =    -0.03545449    0.03545449    0.00000000
     atom   10 type  3   force =     0.03545449    0.03545449   -0.00000000
     The non-local contrib.  to forces
     atom    1 type  1   force =     0.00723558    0.00723558    0.00000000
     atom    2 type  1   force =     0.00723558   -0.00723558    0.00000000
     atom    3 type  1   force =    -0.00723558    0.00723558   -0.00000000
     atom    4 type  1   force =    -0.00723558   -0.00723558   -0.00000000
     atom    5 type  2   force =     0.00000000    0.00000000    0.00000000
     atom    6 type  2   force =     0.00000000    0.00000000    0.00000000
     atom    7 type  3   force =    -0.01474016    0.01474016    0.00000000
     atom    8 type  3   force =     0.01474016    0.01474016    0.00000000
     atom    9 type  3   force =     0.01474016   -0.01474016   -0.00000000
     atom   10 type  3   force =    -0.01474016   -0.01474016   -0.00000000
     The ionic contribution  to forces
     atom    1 type  1   force =    -3.56082384   -3.56082384    0.00000000
     atom    2 type  1   force =    -3.56082384    3.56082384   -0.00000000
     atom    3 type  1   force =     3.56082384   -3.56082384   -0.00000000
     atom    4 type  1   force =     3.56082384    3.56082384   -0.00000000
     atom    5 type  2   force =    -0.00000000   -0.00000000   -0.00000000
     atom    6 type  2   force =     0.00000000    0.00000000   -0.00000000
     atom    7 type  3   force =     0.67558282   -0.67558282    0.00000000
     atom    8 type  3   force =    -0.67558282   -0.67558282    0.00000000
     atom    9 type  3   force =    -0.67558282    0.67558282    0.00000000
     atom   10 type  3   force =     0.67558282    0.67558282    0.00000000
     The local contribution  to forces
     atom    1 type  1   force =     3.54736313    3.54685399   -0.00069805
     atom    2 type  1   force =     3.54617637   -3.54638668    0.00023606
     atom    3 type  1   force =    -3.54789145    3.54698064   -0.00071828
     atom    4 type  1   force =    -3.54518122   -3.54679769   -0.00047580
     atom    5 type  2   force =     0.00016517   -0.00002928    0.00000142
     atom    6 type  2   force =    -0.00020739   -0.00001839    0.00001363
     atom    7 type  3   force =    -0.62651716    0.62675709    0.00000744
     atom    8 type  3   force =     0.62650845    0.62675327    0.00000895
     atom    9 type  3   force =     0.62700470   -0.62668224    0.00002325
     atom   10 type  3   force =    -0.62693587   -0.62676167    0.00001563
     The core correction contribution to forces
     atom    1 type  1   force =     0.00000015    0.00000015   -0.00000000
     atom    2 type  1   force =     0.00000014   -0.00000014    0.00000000
     atom    3 type  1   force =    -0.00000015    0.00000014   -0.00000000
     atom    4 type  1   force =    -0.00000014   -0.00000015   -0.00000000
     atom    5 type  2   force =     0.00000005   -0.00000076   -0.00000047
     atom    6 type  2   force =    -0.00000171    0.00000066    0.00000034
     atom    7 type  3   force =     0.00137147   -0.00136779   -0.00000048
     atom    8 type  3   force =    -0.00137159   -0.00137018    0.00000010
     atom    9 type  3   force =    -0.00136601    0.00137089    0.00000036
     atom   10 type  3   force =     0.00136737    0.00136751    0.00000029
     The Hubbard contrib.    to forces
     atom    1 type  1   force =     0.00000000    0.00000000    0.00000000
     atom    2 type  1   force =     0.00000000    0.00000000    0.00000000
     atom    3 type  1   force =     0.00000000    0.00000000    0.00000000
     atom    4 type  1   force =     0.00000000    0.00000000    0.00000000
     atom    5 type  2   force =     0.00000000    0.00000000    0.00000000
     atom    6 type  2   force =     0.00000000    0.00000000    0.00000000
     atom    7 type  3   force =     0.00000000    0.00000000    0.00000000
     atom    8 type  3   force =     0.00000000    0.00000000    0.00000000
     atom    9 type  3   force =     0.00000000    0.00000000    0.00000000
     atom   10 type  3   force =     0.00000000    0.00000000    0.00000000
     The SCF correction term to forces
     atom    1 type  1   force =    -0.00069698   -0.00021758    0.00080409
     atom    2 type  1   force =     0.00056642   -0.00033107   -0.00029686
     atom    3 type  1   force =     0.00133234   -0.00027422    0.00074246
     atom    4 type  1   force =    -0.00164178    0.00005203    0.00056502
     atom    5 type  2   force =    -0.00016733    0.00002517   -0.00000275
     atom    6 type  2   force =     0.00018665    0.00002808   -0.00001070
     atom    7 type  3   force =    -0.00021168    0.00001313   -0.00000779
     atom    8 type  3   force =     0.00024085   -0.00001937   -0.00000567
     atom    9 type  3   force =    -0.00022632   -0.00006383   -0.00001586
     atom   10 type  3   force =     0.00016292   -0.00001683   -0.00001333

     Total force =     0.102156     Total SCF correction =     0.002714

     Computing stress (Cartesian axis) and pressure

          total   stress  (Ry/bohr**3)                   (kbar)     P=      -99.35
  -0.00135855   0.00000000   0.00000000         -199.85        0.00        0.00
   0.00000000  -0.00135855   0.00000000            0.00     -199.85        0.00
   0.00000000   0.00000000   0.00069093            0.00        0.00      101.64

     kinetic stress (kbar)   6360.45      0.00      0.00
                                0.00   6360.45      0.00
                                0.00      0.00   6998.06

     local   stress (kbar) -11763.62     -0.10     -0.00
                               -0.10 -11763.60     -0.01
                               -0.00     -0.01  16440.36

     nonloc. stress (kbar)  10215.74      0.00      0.00
                                0.00  10215.74      0.00
                                0.00      0.00  10438.67

     hartree stress (kbar)  31019.91      0.08      0.00
                                0.08  31019.89      0.00
                                0.00      0.00  17188.37

     exc-cor stress (kbar)  -3758.18      0.00      0.00
                                0.00  -3758.18      0.00
                                0.00      0.00  -3751.41

     corecor stress (kbar)  -1672.64     -0.00     -0.00
                               -0.00  -1672.64     -0.00
                               -0.00     -0.00  -1682.34

     ewald   stress (kbar) -30601.51     -0.00     -0.00
                               -0.00 -30601.51     -0.00
                               -0.00     -0.00 -45530.07

     hubbard stress (kbar)      0.00      0.00      0.00
                                0.00      0.00      0.00
                                0.00      0.00      0.00

     DFT-D   stress (kbar)      0.00      0.00      0.00
                                0.00      0.00      0.00
                                0.00      0.00      0.00

     XDM     stress (kbar)      0.00      0.00      0.00
                                0.00      0.00      0.00
                                0.00      0.00      0.00

     dft-nl  stress (kbar)      0.00      0.00      0.00
                                0.00      0.00      0.00
                                0.00      0.00      0.00

     TS-vdW  stress (kbar)      0.00      0.00      0.00
                                0.00      0.00      0.00
                                0.00      0.00      0.00

[...]

                                0.00      0.00      0.00

     Writing all to output data dir new_calculations/myprefix.save/

     General routines

     Parallel routines

     PAW routines

   This run was terminated on:   8:20:11  21May2023

   JOB DONE.