     Program PWSCF v.7.0 starts on 20May2023 at 11: 3:43

     Reading input from espresso_10333.pwi
Warning: card &CELL ignored
Warning: card / ignored

     Current dimensions of program PWSCF are:
     Max number of different atomic species (ntypx) = 10
     Max number of k-points (npk) =  40000
     Max angular momentum in pseudopotentials (lmaxx) =  4
     file K.pbe-spn-kjpaw_psl.1.0.0.UPF: wavefunction(s)  3S renormalized

     gamma-point specific algorithms are used
     Message from routine setup:
     using ibrav=0 with symmetry is DISCOURAGED, use correct ibrav instead

     Subspace diagonalization in iterative solution of the eigenvalue problem:
     a serial algorithm will be used

     Using Slab Decomposition

     bravais-lattice index     =            0
     lattice parameter (alat)  =      10.6919  a.u.
     unit-cell volume          =    2342.3352 (a.u.)^3
     number of atoms/cell      =           14
     number of atomic types    =            4
     number of electrons       =       122.00
     number of Kohn-Sham states=           73
     kinetic-energy cutoff     =      30.0000  Ry
     charge density cutoff     =     240.0000  Ry
     scf convergence threshold =      1.0E-06
     mixing beta               =       0.7000
     number of iterations used =            8  plain     mixing
     Exchange-correlation=  SLA  PW   PBX  PBC
                           (   1   4   3   4   0   0   0)

     celldm(1)=  10.691908  celldm(2)=   0.000000  celldm(3)=   0.000000
     celldm(4)=   0.000000  celldm(5)=   0.000000  celldm(6)=   0.000000

     crystal axes: (cart. coord. in units of alat)
               a(1) = (   1.000000   0.000000   0.000000 )
               a(2) = (   0.000000   1.220806   0.000000 )
               a(3) = (   0.000000   0.400511   1.569773 )

     reciprocal axes: (cart. coord. in units 2 pi/alat)
               b(1) = (  1.000000  0.000000  0.000000 )
               b(2) = (  0.000000  0.819131 -0.208992 )
               b(3) = (  0.000000  0.000000  0.637035 )

     PseudoPot. # 1 for K  read from file:
     /home/pragov/projects/rrg-bengioy-ad/pragov/crystal_structure_design/SSSP/K.pbe-spn-kjpaw_psl.1.0.0.UPF
     MD5 check sum: 7d58810084cac21f60fbe77ea2b688fd
     Pseudo is Projector augmented-wave + core cor, Zval =  9.0
     Generated using "atomic" code by A. Dal Corso  v.5.1
     Shape of augmentation charge: PSQ
     Using radial grid of 1165 points,  6 beta functions with:
                l(1) =   0
                l(2) =   0
                l(3) =   1
                l(4) =   1
                l(5) =   2
                l(6) =   2
     Q(r) pseudized with 0 coefficients

     PseudoPot. # 2 for Yb read from file:
     /home/pragov/projects/rrg-bengioy-ad/pragov/crystal_structure_design/SSSP/Yb.GGA-PBE-paw-v1.0.UPF
     MD5 check sum: 43b6465ad8021f06e3edb42ae292e187
     Pseudo is Projector augmented-wave + core cor, Zval = 24.0
     Generated using ATOMPAW code
     Shape of augmentation charge: BESSEL
     Using radial grid of 1117 points,  8 beta functions with:
                l(1) =   0
                l(2) =   0
                l(3) =   1
                l(4) =   1
                l(5) =   2
                l(6) =   2
                l(7) =   3
                l(8) =   3
     Q(r) pseudized with 0 coefficients

     PseudoPot. # 3 for Si read from file:
     /home/pragov/projects/rrg-bengioy-ad/pragov/crystal_structure_design/SSSP/Si.pbe-n-rrkjus_psl.1.0.0.UPF
     MD5 check sum: 0b0bb1205258b0d07b9f9672cf965d36
     Pseudo is Ultrasoft + core correction, Zval =  4.0
     Generated using "atomic" code by A. Dal Corso  v.5.1
     Using radial grid of 1141 points,  6 beta functions with:
                l(1) =   0
                l(2) =   0
                l(3) =   1
                l(4) =   1
                l(5) =   2
                l(6) =   2
     Q(r) pseudized with 0 coefficients

     PseudoPot. # 4 for S  read from file:
     /home/pragov/projects/rrg-bengioy-ad/pragov/crystal_structure_design/SSSP/s_pbe_v1.4.uspp.F.UPF
     MD5 check sum: 88d86576ff6df21479756cfb9bdac1df
     Pseudo is Ultrasoft + core correction, Zval =  6.0
     Generated by new atomic code, or converted to UPF format
     Using radial grid of  907 points,  6 beta functions with:
                l(1) =   0
                l(2) =   0
                l(3) =   1
                l(4) =   1
                l(5) =   2
                l(6) =   2
     Q(r) pseudized with  8 coefficients,  rinner =    1.300   1.300   1.300
                                                       1.300   1.300

     atomic species   valence    mass     pseudopotential
        K              9.00    39.09830     K ( 1.00)
        Yb            24.00   173.05400     Yb( 1.00)
        Si             4.00    28.08500     Si( 1.00)
        S              6.00    32.06000     S ( 1.00)

      4 Sym. Ops., with inversion, found ( 2 have fractional translation)

                                    s                        frac. trans.

      isym =  1     identity

 cryst.   s( 1) = (     1          0          0      )
                  (     0          1          0      )
                  (     0          0          1      )

 cart.    s( 1) = (  1.0000000  0.0000000  0.0000000 )
                  (  0.0000000  1.0000000 -0.0000000 )
                  (  0.0000000  0.0000000  1.0000000 )

      isym =  2     180 deg rotation - cart. axis [1,0,0]

 cryst.   s( 2) = (     1          0          0      )    f =( -0.5000000 )
                  (     0         -1          0      )       ( -0.0000000 )
                  (     0          0         -1      )       ( -0.0000000 )

 cart.    s( 2) = (  1.0000000  0.0000000  0.0000000 )    f =( -0.5000000 )
                  (  0.0000000 -1.0000000  0.0000000 )       ( -0.0000000 )
                  (  0.0000000  0.0000000 -1.0000000 )       ( -0.0000000 )

      isym =  3     inversion

 cryst.   s( 3) = (    -1          0          0      )
                  (     0         -1          0      )
                  (     0          0         -1      )

 cart.    s( 3) = ( -1.0000000  0.0000000  0.0000000 )
                  (  0.0000000 -1.0000000  0.0000000 )
                  (  0.0000000  0.0000000 -1.0000000 )

      isym =  4     inv. 180 deg rotation - cart. axis [1,0,0]

 cryst.   s( 4) = (    -1          0          0      )    f =(  0.5000000 )
                  (     0          1          0      )       (  0.0000000 )
                  (     0          0          1      )       (  0.0000000 )

 cart.    s( 4) = ( -1.0000000  0.0000000  0.0000000 )    f =(  0.5000000 )
                  (  0.0000000  1.0000000 -0.0000000 )       (  0.0000000 )
                  (  0.0000000  0.0000000  1.0000000 )       (  0.0000000 )

   Cartesian axes

     site n.     atom                  positions (alat units)
         1           K   tau(   1) = (   0.2500000   0.9204273   0.0660764  )
         2           K   tau(   2) = (   0.7500000   0.7008893   1.5036961  )
         3           Yb  tau(   3) = (   0.2500000   1.1348872   0.8728987  )
         4           Yb  tau(   4) = (   0.7500000   0.4864294   0.6968738  )
         5           Si  tau(   5) = (   0.7500000   1.0507351   0.5126720  )
         6           Si  tau(   6) = (   0.2500000   0.5705816   1.0571005  )
         7           S   tau(   7) = (   0.7500000   0.7646351   0.2793222  )
         8           S   tau(   8) = (   0.2500000   0.8566815   1.2904503  )
         9           S   tau(   9) = (   0.2500000   0.6538866   0.6958755  )
        10           S   tau(  10) = (   0.7500000   0.9674301   0.8738971  )
        11           S   tau(  11) = (   0.0093560   1.3245700   0.4391125  )
        12           S   tau(  12) = (   0.5093560   0.2967467   1.1306601  )
        13           S   tau(  13) = (   0.4906440   1.3245700   0.4391125  )
        14           S   tau(  14) = (   0.9906440   0.2967467   1.1306601  )

   Crystallographic axes

     site n.     atom                  positions (cryst. coord.)
         1           K   tau(   1) = (  0.2500000  0.7401410  0.0420930  )
         2           K   tau(   2) = (  0.7500000  0.2598590  0.9579070  )
         3           Yb  tau(   3) = (  0.2500000  0.7471920  0.5560670  )
         4           Yb  tau(   4) = (  0.7500000  0.2528080  0.4439330  )
         5           Si  tau(   5) = (  0.7500000  0.7535450  0.3265900  )
         6           Si  tau(   6) = (  0.2500000  0.2464550  0.6734100  )
         7           S   tau(   7) = (  0.7500000  0.5679600  0.1779380  )
         8           S   tau(   8) = (  0.2500000  0.4320400  0.8220620  )
         9           S   tau(   9) = (  0.2500000  0.3901860  0.4432970  )
        10           S   tau(  10) = (  0.7500000  0.6098140  0.5567030  )
        11           S   tau(  11) = (  0.0093560  0.9932250  0.2797300  )
        12           S   tau(  12) = (  0.5093560  0.0067750  0.7202700  )
        13           S   tau(  13) = (  0.4906440  0.9932250  0.2797300  )
        14           S   tau(  14) = (  0.9906440  0.0067750  0.7202700  )

     number of k points=     1  Methfessel-Paxton smearing, width (Ry)=  0.0010
                       cart. coord. in units 2pi/alat
        k(    1) = (   0.0000000   0.0000000   0.0000000), wk =   2.0000000

                       cryst. coord.
        k(    1) = (   0.0000000   0.0000000   0.0000000), wk =   2.0000000

     Check: negative core charge=   -0.000002

     Initial potential from superposition of free atoms

     starting charge     121.9529, renormalised to     122.0000
     Starting wfcs are  120 randomized atomic wfcs
     Checking if some PAW data can be deallocated...

     Self-consistent Calculation

     iteration #  1     ecut=    30.00 Ry     beta= 0.70
     Davidson diagonalization with overlap

     ethr =  1.00E-02,  avg # of iterations =  3.0

     Threshold (ethr) on eigenvalues was too large:
     Diagonalizing with lowered threshold

     Davidson diagonalization with overlap

[...]

     total energy              =   -2463.83404105 Ry
     estimated scf accuracy    <       1.12851731 Ry

[...]

     total energy              =   -2464.78538492 Ry
     estimated scf accuracy    <       0.00000290 Ry

     iteration # 53     ecut=    30.00 Ry     beta= 0.70
     Davidson diagonalization with overlap

     ethr =  1.31E-09,  avg # of iterations =  1.0

     End of self-consistent calculation

          k = 0.0000 0.0000 0.0000 (  3243 PWs)   bands (ev):

   -44.5286 -44.5281 -23.8717 -23.8668 -16.9188 -16.9107 -16.8903 -16.8700
   -16.8281 -16.7929  -8.1355  -7.9512  -7.4907  -7.3812  -7.3804  -7.3770
    -7.3291  -7.2535  -6.4430  -6.3400  -6.0202  -6.0142  -5.3355  -5.3137
    -1.1940  -1.0226   0.8051   1.1632   1.7574   1.8290   1.9989   2.2573
     2.7398   2.8100   3.1445   3.5031   3.6747   3.7269   3.9523   3.9901
     4.4113   4.4189   4.6493   4.6978   4.9212   5.3203   7.1047   7.1113
     7.1123   7.1157   7.1340   7.2204   7.2602   7.3021   7.3122   7.3394
     7.3431   7.3520   7.3623   7.3711   7.5626   7.5780   8.6026   8.7953
     9.2137   9.5522   9.5982   9.8237  10.2419  10.6116  10.9242  10.9709
    10.9921

     occupation numbers
     1.0000   1.0000   1.0000   1.0000   1.0000   1.0000   1.0000   1.0000
     1.0000   1.0000   1.0000   1.0000   1.0000   1.0000   1.0000   1.0000
     1.0000   1.0000   1.0000   1.0000   1.0000   1.0000   1.0000   1.0000
     1.0000   1.0000   1.0000   1.0000   1.0000   1.0000   1.0000   1.0000
     1.0000   1.0000   1.0000   1.0000   1.0000   1.0000   1.0000   1.0000
     1.0000   1.0000   1.0000   1.0000   1.0000   1.0000   1.0000   1.0000
     1.0000   1.0000   1.0000   1.0000   1.0000   1.0000   1.0000   1.0000
     1.0000   1.0000   1.0000   1.0000   0.9044   0.0956  -0.0000  -0.0000
    -0.0000  -0.0000  -0.0000  -0.0000  -0.0000  -0.0000  -0.0000  -0.0000
    -0.0000

     the Fermi energy is     7.5703 ev

!    total energy              =   -2464.78538471 Ry
     estimated scf accuracy    <       0.00000018 Ry
     smearing contrib. (-TS)   =      -0.00014672 Ry
     internal energy E=F+TS    =   -2464.78523799 Ry

     The total energy is F=E-TS. E is the sum of the following terms:
     one-electron contribution =   -1155.83410993 Ry
     hartree contribution      =     558.01275258 Ry
     xc contribution           =    -179.37901618 Ry
     ewald contribution        =    -608.49421719 Ry
     one-center paw contrib.   =   -1079.09064727 Ry
      -> PAW hartree energy AE =     975.68738145 Ry
      -> PAW hartree energy PS =    -848.17210895 Ry
      -> PAW xc energy AE      =   -1302.20626822 Ry
      -> PAW xc energy PS      =      95.60034846 Ry
      -> total E_H with PAW    =     685.52802508 Ry
      -> total E_XC with PAW   =   -1385.98493595 Ry

     convergence has been achieved in  53 iterations

     Forces acting on atoms (cartesian axes, Ry/au):

     atom    1 type  1   force =    -0.00000000    0.00280188   -0.00141163
     atom    2 type  1   force =    -0.00000000   -0.00280188    0.00141163
     atom    3 type  2   force =     0.00000000    0.05644419   -0.00124665
     atom    4 type  2   force =     0.00000000   -0.05644419    0.00124665
     atom    5 type  3   force =     0.00000000    0.01848920   -0.00957116
     atom    6 type  3   force =     0.00000000   -0.01848920    0.00957116
     atom    7 type  4   force =     0.00000000    0.00168425   -0.00066544
     atom    8 type  4   force =     0.00000000   -0.00168425    0.00066544
     atom    9 type  4   force =     0.00000000    0.01799942   -0.00023477
     atom   10 type  4   force =     0.00000000   -0.01799942    0.00023477
     atom   11 type  4   force =    -0.03707183   -0.00994552    0.01879847
     atom   12 type  4   force =    -0.03707183    0.00994552   -0.01879847
     atom   13 type  4   force =     0.03707183   -0.00994552    0.01879847
     atom   14 type  4   force =     0.03707183    0.00994552   -0.01879847
     The non-local contrib.  to forces
     atom    1 type  1   force =     0.00000000   -0.00992579    0.01857557
     atom    2 type  1   force =     0.00000000    0.00992579   -0.01857557
     atom    3 type  2   force =     0.00000000   -0.00073996    0.02572434
     atom    4 type  2   force =     0.00000000    0.00073996   -0.02572434
     atom    5 type  3   force =     0.00000000    0.05584469   -0.03137375
     atom    6 type  3   force =     0.00000000   -0.05584469    0.03137375
     atom    7 type  4   force =    -0.00000000    0.11342504    0.10943519
     atom    8 type  4   force =    -0.00000000   -0.11342504   -0.10943519
     atom    9 type  4   force =     0.00000000   -0.04080598    0.13933346
     atom   10 type  4   force =    -0.00000000    0.04080598   -0.13933346
     atom   11 type  4   force =    -0.11362312   -0.14344159    0.10392042
     atom   12 type  4   force =    -0.11362312    0.14344159   -0.10392042
     atom   13 type  4   force =     0.11362312   -0.14344159    0.10392042
     atom   14 type  4   force =     0.11362312    0.14344159   -0.10392042
     The ionic contribution  to forces
     atom    1 type  1   force =    -0.00000000   -0.32043164   -2.28670553
     atom    2 type  1   force =    -0.00000000    0.32043164    2.28670553
     atom    3 type  2   force =    -0.00000000   -0.06004799    9.77920832
     atom    4 type  2   force =    -0.00000000    0.06004799   -9.77920832
     atom    5 type  3   force =     0.00000000   -0.02234366   -5.52694646
     atom    6 type  3   force =     0.00000000    0.02234366    5.52694646
     atom    7 type  4   force =     0.00000000    0.73494551  -10.92230718
     atom    8 type  4   force =    -0.00000000   -0.73494551   10.92230718
     atom    9 type  4   force =    -0.00000000   -0.90997652   -6.39188020
     atom   10 type  4   force =    -0.00000000    0.90997652    6.39188020
     atom   11 type  4   force =     1.56915667    0.36364078  -11.29430172
     atom   12 type  4   force =     1.56915667   -0.36364078   11.29430172
     atom   13 type  4   force =    -1.56915667    0.36364078  -11.29430172
     atom   14 type  4   force =    -1.56915667   -0.36364078   11.29430172
     The local contribution  to forces
     atom    1 type  1   force =     0.00000080    0.33299375    2.26719993
     atom    2 type  1   force =     0.00000054   -0.33296857   -2.26707044
     atom    3 type  2   force =     0.00001697    0.11746777   -9.80632457
     atom    4 type  2   force =     0.00001239   -0.11756047    9.80601375
     atom    5 type  3   force =    -0.00000102   -0.00908629    5.54517872
     atom    6 type  3   force =    -0.00000027    0.00915805   -5.54520965
     atom    7 type  4   force =    -0.00000095   -0.84126950   10.81725787
     atom    8 type  4   force =     0.00000018    0.84127419  -10.81724159
     atom    9 type  4   force =    -0.00000040    0.96672737    6.25871350
     atom   10 type  4   force =    -0.00000058   -0.96670265   -6.25875966
     atom   11 type  4   force =    -1.49835044   -0.23745758   11.21455538
     atom   12 type  4   force =    -1.49842185    0.23741560  -11.21456222
     atom   13 type  4   force =     1.49835005   -0.23745915   11.21455695
     atom   14 type  4   force =     1.49842066    0.23741678  -11.21456091
     The core correction contribution to forces
     atom    1 type  1   force =     0.00000000    0.00027668   -0.00043969
     atom    2 type  1   force =     0.00000001   -0.00027661    0.00043978
     atom    3 type  2   force =     0.00000000    0.00000066   -0.00000042
     atom    4 type  2   force =     0.00000000   -0.00000066    0.00000042
     atom    5 type  3   force =    -0.00000005   -0.00581266    0.00347458
     atom    6 type  3   force =     0.00000002    0.00581307   -0.00347467
     atom    7 type  4   force =    -0.00000002   -0.00534923   -0.00514143
     atom    8 type  4   force =    -0.00000001    0.00534900    0.00514171
     atom    9 type  4   force =    -0.00000002    0.00202538   -0.00644506
     atom   10 type  4   force =    -0.00000000   -0.00202532    0.00644514
     atom   11 type  4   force =     0.00579796    0.00725259   -0.00549572
     atom   12 type  4   force =     0.00579554   -0.00725357    0.00549593
     atom   13 type  4   force =    -0.00579798    0.00725252   -0.00549572
     atom   14 type  4   force =    -0.00579564   -0.00725351    0.00549592
     The Hubbard contrib.    to forces
     atom    1 type  1   force =     0.00000000    0.00000000    0.00000000
     atom    2 type  1   force =     0.00000000    0.00000000    0.00000000
     atom    3 type  2   force =     0.00000000    0.00000000    0.00000000
     atom    4 type  2   force =     0.00000000    0.00000000    0.00000000
     atom    5 type  3   force =     0.00000000    0.00000000    0.00000000
     atom    6 type  3   force =     0.00000000    0.00000000    0.00000000
     atom    7 type  4   force =     0.00000000    0.00000000    0.00000000
     atom    8 type  4   force =     0.00000000    0.00000000    0.00000000
     atom    9 type  4   force =     0.00000000    0.00000000    0.00000000
     atom   10 type  4   force =     0.00000000    0.00000000    0.00000000
     atom   11 type  4   force =     0.00000000    0.00000000    0.00000000
     atom   12 type  4   force =     0.00000000    0.00000000    0.00000000
     atom   13 type  4   force =     0.00000000    0.00000000    0.00000000
     atom   14 type  4   force =     0.00000000    0.00000000    0.00000000
     The SCF correction term to forces
     atom    1 type  1   force =    -0.00000083   -0.00011005   -0.00003809
     atom    2 type  1   force =    -0.00000053    0.00008693   -0.00008386
     atom    3 type  2   force =    -0.00002501   -0.00020361    0.00015430
     atom    4 type  2   force =    -0.00001048    0.00036168    0.00017375
     atom    5 type  3   force =     0.00000077   -0.00010327    0.00009335
     atom    6 type  3   force =     0.00000043    0.00005031   -0.00006713
     atom    7 type  4   force =     0.00000084   -0.00006969    0.00009267
     atom    8 type  4   force =     0.00000006    0.00006100   -0.00010412
     atom    9 type  4   force =     0.00000010    0.00002828    0.00004363
     atom   10 type  4   force =     0.00000058   -0.00005483    0.00000266
     atom   11 type  4   force =    -0.00003462    0.00004962    0.00012366
     atom   12 type  4   force =     0.00000222   -0.00002826   -0.00010974
     atom   13 type  4   force =     0.00003452    0.00005086    0.00012291
     atom   14 type  4   force =    -0.00000127   -0.00002932   -0.00011061

     Total force =     0.123380     Total SCF correction =     0.000616

     Computing stress (Cartesian axis) and pressure

          total   stress  (Ry/bohr**3)                   (kbar)     P=       12.36
   0.00059941   0.00000000   0.00000000           88.18        0.00        0.00
   0.00000000  -0.00021504   0.00003018            0.00      -31.63        4.44
   0.00000000   0.00003018  -0.00013240            0.00        4.44      -19.48

     kinetic stress (kbar)   6574.37      0.00      0.00
                                0.00   6389.26      2.18
                                0.00      2.18   6441.68

     local   stress (kbar) -16584.09     -0.00     -0.00
                               -0.00 -19009.76    -54.92
                               -0.00    -54.92  10739.35

     nonloc. stress (kbar)   5803.08      0.00      0.00
                                0.00   5825.78     -0.08
                                0.00     -0.08   5815.62

     hartree stress (kbar)  15728.56     -0.00      0.00
                               -0.00  16720.12     11.03
                                0.00     11.03   2596.06

     exc-cor stress (kbar)   -176.47      0.00     -0.00
                                0.00   -176.40      0.45
                               -0.00      0.45   -177.75

     corecor stress (kbar)  -2751.47      0.00      0.00
                                0.00  -2752.11     -0.55
                                0.00     -0.55  -2753.66

     ewald   stress (kbar)  -8505.80     -0.00      0.00
                               -0.00  -7028.53     46.33
                                0.00     46.33 -22680.78

     hubbard stress (kbar)      0.00      0.00      0.00
                                0.00      0.00      0.00
                                0.00      0.00      0.00

     DFT-D   stress (kbar)      0.00      0.00      0.00
                                0.00      0.00      0.00
                                0.00      0.00      0.00

     XDM     stress (kbar)      0.00      0.00      0.00
                                0.00      0.00      0.00
                                0.00      0.00      0.00

     dft-nl  stress (kbar)      0.00      0.00      0.00
                                0.00      0.00      0.00
                                0.00      0.00      0.00

     TS-vdW  stress (kbar)      0.00      0.00      0.00
                                0.00      0.00      0.00
                                0.00      0.00      0.00

[...]

                                0.00      0.00      0.00

     Writing all to output data dir new_calculations/myprefix.save/

     General routines

     Parallel routines

     PAW routines

   This run was terminated on:  11: 6:31  20May2023

   JOB DONE.