     Program PWSCF v.7.0 starts on 21May2023 at  7:47:34

     Reading input from espresso_26543.pwi
Warning: card &CELL ignored
Warning: card / ignored

     Current dimensions of program PWSCF are:
     Max number of different atomic species (ntypx) = 10
     Max number of k-points (npk) =  40000
     Max angular momentum in pseudopotentials (lmaxx) =  4

     gamma-point specific algorithms are used
     Message from routine setup:
     using ibrav=0 with symmetry is DISCOURAGED, use correct ibrav instead

     Subspace diagonalization in iterative solution of the eigenvalue problem:
     a serial algorithm will be used

     Using Slab Decomposition

     bravais-lattice index     =            0
     lattice parameter (alat)  =      15.5315  a.u.
     unit-cell volume          =    2884.1763 (a.u.)^3
     number of atoms/cell      =           20
     number of atomic types    =            3
     number of electrons       =       288.00
     number of Kohn-Sham states=          173
     kinetic-energy cutoff     =      30.0000  Ry
     charge density cutoff     =     240.0000  Ry
     scf convergence threshold =      1.0E-06
     mixing beta               =       0.7000
     number of iterations used =            8  plain     mixing
     Exchange-correlation=  SLA  PW   PBX  PBC
                           (   1   4   3   4   0   0   0)

     celldm(1)=  15.531542  celldm(2)=   0.000000  celldm(3)=   0.000000
     celldm(4)=   0.000000  celldm(5)=   0.000000  celldm(6)=   0.000000

     crystal axes: (cart. coord. in units of alat)
               a(1) = (   1.000000   0.000000   0.000000 )
               a(2) = (  -0.333333   0.942809   0.000000 )
               a(3) = (  -0.333333  -0.471405   0.816497 )

     reciprocal axes: (cart. coord. in units 2 pi/alat)
               b(1) = (  1.000000  0.353553  0.612372 )
               b(2) = (  0.000000  1.060660  0.612372 )
               b(3) = (  0.000000  0.000000  1.224745 )

     PseudoPot. # 1 for Zr read from file:
     /home/pragov/projects/rrg-bengioy-ad/pragov/crystal_structure_design/SSSP/Zr_pbe_v1.uspp.F.UPF
     MD5 check sum: 5db81b1e868ab7776c4564c113de050b
     Pseudo is Ultrasoft + core correction, Zval = 12.0
     Generated by new atomic code, or converted to UPF format
     Using radial grid of  887 points,  6 beta functions with:
                l(1) =   0
                l(2) =   0
                l(3) =   1
                l(4) =   1
                l(5) =   2
                l(6) =   2
     Q(r) pseudized with  6 coefficients,  rinner =    1.200   1.200   1.200
                                                       1.200   1.200

     PseudoPot. # 2 for Sb read from file:
     /home/pragov/projects/rrg-bengioy-ad/pragov/crystal_structure_design/SSSP/sb_pbe_v1.4.uspp.F.UPF
     MD5 check sum: 9bc50dfb53373b713f5709b9110fe27f
     Pseudo is Ultrasoft + core correction, Zval = 15.0
     Generated by new atomic code, or converted to UPF format
     Using radial grid of  891 points,  6 beta functions with:
                l(1) =   0
                l(2) =   0
                l(3) =   1
                l(4) =   1
                l(5) =   2
                l(6) =   2
     Q(r) pseudized with  8 coefficients,  rinner =    1.350   1.350   1.350
                                                       1.350   1.350

     PseudoPot. # 3 for Pt read from file:
     /home/pragov/projects/rrg-bengioy-ad/pragov/crystal_structure_design/SSSP/pt_pbe_v1.4.uspp.F.UPF
     MD5 check sum: f09d6de1a584b5a045c4fc126da2d0c4
     Pseudo is Ultrasoft + core correction, Zval = 16.0
     Generated by new atomic code, or converted to UPF format
     Using radial grid of  985 points,  6 beta functions with:
                l(1) =   0
                l(2) =   0
                l(3) =   1
                l(4) =   1
                l(5) =   2
                l(6) =   2
     Q(r) pseudized with  8 coefficients,  rinner =    1.300   1.300   1.300
                                                       1.300   1.300

     atomic species   valence    mass     pseudopotential
        Zr            12.00    91.22400     Zr( 1.00)
        Sb            15.00   121.76000     Sb( 1.00)
        Pt            16.00   195.08400     Pt( 1.00)

      2 Sym. Ops. (no inversion) found ( 1 have fractional translation)

                                    s                        frac. trans.

      isym =  1     identity

 cryst.   s( 1) = (     1          0          0      )
                  (     0          1          0      )
                  (     0          0          1      )

 cart.    s( 1) = (  1.0000000 -0.0000000  0.0000000 )
                  (  0.0000000  1.0000000  0.0000000 )
                  (  0.0000000  0.0000000  1.0000000 )

      isym =  2     inv. 180 deg rotation - cart. axis [0,0,1]

 cryst.   s( 2) = (     1          0          0      )    f =(  0.5000000 )
                  (     0          1          0      )       ( -0.0000000 )
                  (    -1         -1         -1      )       (  0.0000000 )

 cart.    s( 2) = (  1.0000000 -0.0000000 -0.0000000 )    f =(  0.5000000 )
                  (  0.0000000  1.0000000 -0.0000000 )       ( -0.0000000 )
                  (  0.0000000  0.0000000 -1.0000000 )       (  0.0000000 )

   Cartesian axes

     site n.     atom                  positions (alat units)
         1           Zr  tau(   1) = (   0.4166667   0.2357023   0.2041241  )
         2           Zr  tau(   2) = (   0.5833333  -0.2357023   0.6123724  )
         3           Zr  tau(   3) = (   0.0833333  -0.0589256   0.5103104  )
         4           Zr  tau(   4) = (  -0.4166667   0.2946278   0.7144345  )
         5           Zr  tau(   5) = (  -0.0833333   0.4124790   0.3061862  )
         6           Zr  tau(   6) = (   0.4166667   0.7660323   0.1020621  )
         7           Sb  tau(   7) = (   0.0616323   0.0871613   0.1509678  )
         8           Sb  tau(   8) = (   0.1484363   0.4714045   0.0000000  )
         9           Sb  tau(   9) = (   0.7282990   0.0613797   0.4082483  )
        10           Sb  tau(  10) = (   0.2282990   0.3228635   0.5592161  )
        11           Sb  tau(  11) = (   0.3949657  -0.1485410   0.2572805  )
        12           Sb  tau(  12) = (   0.6484363   0.4714045   0.0000000  )
        13           Sb  tau(  13) = (   0.2282990  -0.3842432   0.6655288  )
        14           Sb  tau(  14) = (  -0.4383677   0.5327842   0.4082483  )
        15           Pt  tau(  15) = (  -0.2500000   0.7071068   0.2041241  )
        16           Pt  tau(  16) = (  -0.0833333   0.2357023   0.6123724  )
        17           Pt  tau(  17) = (   0.7500000   0.1767767   0.1020621  )
        18           Pt  tau(  18) = (   0.2500000   0.5303301   0.3061862  )
        19           Pt  tau(  19) = (  -0.0833333  -0.2946278   0.7144345  )
        20           Pt  tau(  20) = (   0.4166667   0.0589256   0.5103104  )

   Crystallographic axes

     site n.     atom                  positions (cryst. coord.)
         1           Zr  tau(   1) = (  0.6250000  0.3750000  0.2500000  )
         2           Zr  tau(   2) = (  0.8750000  0.1250000  0.7500000  )
         3           Zr  tau(   3) = (  0.3750000  0.2500000  0.6250000  )
         4           Zr  tau(   4) = (  0.1250000  0.7500000  0.8750000  )
         5           Zr  tau(   5) = (  0.2500000  0.6250000  0.3750000  )
         6           Zr  tau(   6) = (  0.7500000  0.8750000  0.1250000  )
         7           Sb  tau(   7) = (  0.1848970  0.1848970  0.1848970  )
         8           Sb  tau(   8) = (  0.3151030  0.5000000  0.0000000  )
         9           Sb  tau(   9) = (  1.0000000  0.3151030  0.5000000  )
        10           Sb  tau(  10) = (  0.6848970  0.6848970  0.6848970  )
        11           Sb  tau(  11) = (  0.5000000  0.0000000  0.3151030  )
        12           Sb  tau(  12) = (  0.8151030  0.5000000  0.0000000  )
        13           Sb  tau(  13) = (  0.5000000 -0.0000000  0.8151030  )
        14           Sb  tau(  14) = (  0.0000000  0.8151030  0.5000000  )
        15           Pt  tau(  15) = (  0.1250000  0.8750000  0.2500000  )
        16           Pt  tau(  16) = (  0.3750000  0.6250000  0.7500000  )
        17           Pt  tau(  17) = (  0.8750000  0.2500000  0.1250000  )
        18           Pt  tau(  18) = (  0.6250000  0.7500000  0.3750000  )
        19           Pt  tau(  19) = (  0.2500000  0.1250000  0.8750000  )
        20           Pt  tau(  20) = (  0.7500000  0.3750000  0.6250000  )

     number of k points=     1  Methfessel-Paxton smearing, width (Ry)=  0.0010
                       cart. coord. in units 2pi/alat
        k(    1) = (   0.0000000   0.0000000   0.0000000), wk =   2.0000000

                       cryst. coord.
        k(    1) = (   0.0000000   0.0000000   0.0000000), wk =   2.0000000

     Check: negative core charge=   -0.000004

     Initial potential from superposition of free atoms

     starting charge     276.9869, renormalised to     288.0000

     negative rho (up, down):  1.582E+00 0.000E+00
     Starting wfcs are  222 randomized atomic wfcs

     Self-consistent Calculation

     iteration #  1     ecut=    30.00 Ry     beta= 0.70
     Davidson diagonalization with overlap

     ethr =  1.00E-02,  avg # of iterations =  8.0

     negative rho (up, down):  6.955E-01 0.000E+00

     total energy              =   -3303.45360356 Ry
     estimated scf accuracy    <      59.10026910 Ry

[...]

     total energy              =   -3342.75014496 Ry
     estimated scf accuracy    <       0.00000232 Ry

     iteration # 21     ecut=    30.00 Ry     beta= 0.70
     Davidson diagonalization with overlap

     ethr =  8.04E-10,  avg # of iterations =  2.0

[...]

     End of self-consistent calculation

          k = 0.0000 0.0000 0.0000 (  4004 PWs)   bands (ev):

   -44.3214 -40.6551 -39.9679 -38.4880 -38.1175 -37.9378 -37.8474 -37.7850
   -37.5609 -37.4218 -37.3337 -37.2541 -37.1765 -37.1397 -36.8984 -36.7988
   -36.5242 -36.3884 -36.0239 -35.8290 -35.5366 -35.2808 -34.8297 -34.5442
   -15.8040 -14.9325 -14.1371 -13.9829 -13.8324 -13.2145 -13.1454 -12.8631
   -12.6304 -12.5463 -12.4831 -12.3091 -12.3067 -12.2118 -12.1674 -12.0946
   -12.0822 -12.0409 -11.9573 -11.9048 -11.8364 -11.7771 -11.6215 -11.5744
   -11.4878 -11.4674 -11.4242 -11.3699 -11.2479 -11.1750 -11.0959 -11.0735
   -10.9836 -10.9049 -10.8096 -10.7991 -10.6867 -10.6388 -10.5011 -10.3852
   -10.3450 -10.2325 -10.0594 -10.0032  -9.9009  -9.7069  -9.6406  -9.6029
    -9.4642  -9.3145  -9.0627  -8.8874  -8.7594  -8.6421  -8.4088  -8.3004
    -8.0755  -7.8386   2.5638   2.8809   5.0420   5.1375   5.5678   5.7584
     5.9848   6.0323   6.1737   7.2343   7.9055   8.1082   8.5173   8.7739
     9.2591   9.4626   9.5872   9.7509   9.9021  10.0493  10.0908  10.1837
    10.2960  10.3494  10.5400  10.5462  10.6723  10.7543  10.8494  10.9583
    10.9706  11.0760  11.2116  11.2907  11.3481  11.5460  11.5824  11.6046
    11.7570  11.8373  11.8744  11.9567  12.0588  12.1398  12.2854  12.4515
    12.5390  12.7370  12.8990  13.1477  13.4736  13.8002  13.9326  14.0585
    14.1417  14.3550  14.3659  14.5903  14.7018  14.7903  15.0222  15.0450
    15.1183  15.2244  15.2844  15.5393  15.8176  16.0333  16.3129  16.5562
    16.8279  17.0719  17.0835  17.2783  17.3181  17.4233  17.6047  17.7322
    17.7918  17.8239  17.9117  18.0003  18.1181  18.2039  18.3117  18.4299
    18.4753  18.6564  18.8418  18.9760  19.1130

     occupation numbers
     1.0000   1.0000   1.0000   1.0000   1.0000   1.0000   1.0000   1.0000
     1.0000   1.0000   1.0000   1.0000   1.0000   1.0000   1.0000   1.0000
     1.0000   1.0000   1.0000   1.0000   1.0000   1.0000   1.0000   1.0000
     1.0000   1.0000   1.0000   1.0000   1.0000   1.0000   1.0000   1.0000
     1.0000   1.0000   1.0000   1.0000   1.0000   1.0000   1.0000   1.0000
     1.0000   1.0000   1.0000   1.0000   1.0000   1.0000   1.0000   1.0000
     1.0000   1.0000   1.0000   1.0000   1.0000   1.0000   1.0000   1.0000
     1.0000   1.0000   1.0000   1.0000   1.0000   1.0000   1.0000   1.0000
     1.0000   1.0000   1.0000   1.0000   1.0000   1.0000   1.0000   1.0000
     1.0000   1.0000   1.0000   1.0000   1.0000   1.0000   1.0000   1.0000
     1.0000   1.0000   1.0000   1.0000   1.0000   1.0000   1.0000   1.0000
     1.0000   1.0000   1.0000   1.0000   1.0000   1.0000   1.0000   1.0000
     1.0000   1.0000   1.0000   1.0000   1.0000   1.0000   1.0000   1.0000
     1.0000   1.0000   1.0000   1.0000   1.0000   1.0000   1.0000   1.0000
     1.0000   1.0000   1.0000   1.0000   1.0000   1.0000   1.0000   1.0000
     1.0000   1.0000   1.0000   1.0000   1.0000   1.0000   1.0000   1.0000
     1.0000   1.0000   1.0000   1.0000   1.0000   1.0000   1.0000   1.0000
     1.0000   1.0000   1.0000   1.0000   1.0000   1.0000   1.0000   1.0005
    -0.0005  -0.0000  -0.0000  -0.0000  -0.0000  -0.0000  -0.0000  -0.0000
    -0.0000  -0.0000  -0.0000  -0.0000  -0.0000  -0.0000  -0.0000  -0.0000
    -0.0000  -0.0000  -0.0000  -0.0000  -0.0000  -0.0000  -0.0000  -0.0000
    -0.0000  -0.0000  -0.0000  -0.0000  -0.0000

     the Fermi energy is    15.0817 ev

!    total energy              =   -3342.75014486 Ry
     estimated scf accuracy    <       0.00000057 Ry
     smearing contrib. (-TS)   =       0.00000538 Ry
     internal energy E=F+TS    =   -3342.75015024 Ry

     The total energy is F=E-TS. E is the sum of the following terms:
     one-electron contribution =    -948.66160002 Ry
     hartree contribution      =     661.94228266 Ry
     xc contribution           =    -806.03230743 Ry
     ewald contribution        =   -2249.99852545 Ry

     convergence has been achieved in  21 iterations

     negative rho (up, down):  5.585E-01 0.000E+00

     Forces acting on atoms (cartesian axes, Ry/au):

     atom    1 type  1   force =    -0.03802363    0.02738335    0.13418414
     atom    2 type  1   force =    -0.03802363    0.02738335   -0.13418414
     atom    3 type  1   force =     0.04045915    0.02782410    0.03579985
     atom    4 type  1   force =    -0.03170082   -0.05665256    0.14084071
     atom    5 type  1   force =     0.04045915    0.02782410   -0.03579985
     atom    6 type  1   force =    -0.03170082   -0.05665256   -0.14084071
     atom    7 type  2   force =     0.06423767   -0.08201078    0.08204300
     atom    8 type  2   force =    -0.05084201   -0.02945502   -0.08957826
     atom    9 type  2   force =     0.06086460    0.01667508    0.15891174
     atom   10 type  2   force =     0.04543792   -0.16049192   -0.01794751
     atom   11 type  2   force =     0.04543792   -0.16049192    0.01794751
     atom   12 type  2   force =    -0.05084201   -0.02945502    0.08957826
     atom   13 type  2   force =     0.06423767   -0.08201078   -0.08204300
     atom   14 type  2   force =     0.06086460    0.01667508   -0.15891174
     atom   15 type  3   force =    -0.03061970    0.02769347    0.03293631
     atom   16 type  3   force =    -0.03061970    0.02769347   -0.03293631
     atom   17 type  3   force =    -0.04274006    0.11792499    0.09217494
     atom   18 type  3   force =    -0.01707312    0.11110930    0.05896789
     atom   19 type  3   force =    -0.04274006    0.11792499   -0.09217494
     atom   20 type  3   force =    -0.01707312    0.11110930   -0.05896789
     The non-local contrib.  to forces
     atom    1 type  1   force =    -0.01209163    0.05555311    0.17121120
     atom    2 type  1   force =    -0.01209163    0.05555311   -0.17121120
     atom    3 type  1   force =     0.04683371   -0.00330703    0.00384625
     atom    4 type  1   force =    -0.00788868   -0.08684837    0.07756765
     atom    5 type  1   force =     0.04683371   -0.00330703   -0.00384625
     atom    6 type  1   force =    -0.00788868   -0.08684837   -0.07756765
     atom    7 type  2   force =    -0.04218388   -0.21551947   -0.05307911
     atom    8 type  2   force =     0.35682030   -0.17296572   -0.05895101
     atom    9 type  2   force =    -0.16293474    0.32195501    0.01651026
     atom   10 type  2   force =    -0.20518014   -0.18640440   -0.37426495
     atom   11 type  2   force =    -0.20518014   -0.18640440    0.37426495
     atom   12 type  2   force =     0.35682030   -0.17296572    0.05895101
     atom   13 type  2   force =    -0.04218388   -0.21551947    0.05307911
     atom   14 type  2   force =    -0.16293474    0.32195501   -0.01651026
     atom   15 type  3   force =     0.00108231    0.12076185    0.04453001
     atom   16 type  3   force =     0.00108231    0.12076185   -0.04453001
     atom   17 type  3   force =    -0.05784644    0.10055620    0.08516993
     atom   18 type  3   force =    -0.03011985    0.10637460    0.04885304
     atom   19 type  3   force =    -0.05784644    0.10055620   -0.08516993
     atom   20 type  3   force =    -0.03011985    0.10637460   -0.04885304
     The ionic contribution  to forces
     atom    1 type  1   force =    -0.00000000    0.00000000   -0.00000000
     atom    2 type  1   force =     0.00000000   -0.00000000   -0.00000000
     atom    3 type  1   force =     0.00000000   -0.00000000   -0.00000000
     atom    4 type  1   force =    -0.00000000   -0.00000000   -0.00000000
     atom    5 type  1   force =    -0.00000000   -0.00000000   -0.00000000
     atom    6 type  1   force =    -0.00000000    0.00000000   -0.00000000
     atom    7 type  2   force =     1.53230530    2.16700693    3.75336610
     atom    8 type  2   force =    -4.59691588    0.00000000    0.00000001
     atom    9 type  2   force =     1.53230530   -4.33401386    0.00000000
     atom   10 type  2   force =     1.53230530    2.16700693    3.75336611
     atom   11 type  2   force =     1.53230529    2.16700693   -3.75336610
     atom   12 type  2   force =    -4.59691588    0.00000001    0.00000000
     atom   13 type  2   force =     1.53230530    2.16700693   -3.75336610
     atom   14 type  2   force =     1.53230529   -4.33401386    0.00000001
     atom   15 type  3   force =     0.00000000   -0.00000000   -0.00000000
     atom   16 type  3   force =    -0.00000000   -0.00000000   -0.00000000
     atom   17 type  3   force =    -0.00000000   -0.00000000   -0.00000000
     atom   18 type  3   force =    -0.00000000   -0.00000000   -0.00000000
     atom   19 type  3   force =    -0.00000000   -0.00000000   -0.00000000
     atom   20 type  3   force =    -0.00000000   -0.00000000   -0.00000000
     The local contribution  to forces
     atom    1 type  1   force =    -0.08747259   -0.07176058   -0.08825229
     atom    2 type  1   force =     0.05024962    0.01140126   -0.01794614
     atom    3 type  1   force =     0.04268227    0.05312572    0.10153738
     atom    4 type  1   force =     0.00496169    0.08619378    0.06167031
     atom    5 type  1   force =    -0.04657374    0.02887104    0.05288925
     atom    6 type  1   force =    -0.04659128   -0.01368268   -0.06708837
     atom    7 type  2   force =    -1.54922901   -1.84029494   -3.80244813
     atom    8 type  2   force =     4.11959425    0.16873757   -0.26505943
     atom    9 type  2   force =    -1.18351744    3.99630954    0.08439303
     atom   10 type  2   force =    -1.34571362   -2.34151674   -3.34514290
     atom   11 type  2   force =    -1.21836436   -1.91641492    3.45216555
     atom   12 type  2   force =     4.30914333    0.08089769   -0.18181902
     atom   13 type  2   force =    -1.28941955   -2.24009677    3.41945972
     atom   14 type  2   force =    -1.43118354    4.05855338   -0.19360592
     atom   15 type  3   force =    -0.04087346   -0.11138911   -0.05569999
     atom   16 type  3   force =    -0.02166244   -0.05316496   -0.01369455
     atom   17 type  3   force =    -0.00706647    0.04286450   -0.05880087
     atom   18 type  3   force =    -0.00074617   -0.01548190   -0.00077696
     atom   19 type  3   force =     0.05629710   -0.03111126   -0.07941143
     atom   20 type  3   force =     0.03123125    0.02824546   -0.03658646
     The core correction contribution to forces
     atom    1 type  1   force =    -0.00340575   -0.00255792   -0.00507552
     atom    2 type  1   force =     0.00586015    0.01154834   -0.00050934
     atom    3 type  1   force =     0.00578773    0.00336729    0.02744447
     atom    4 type  1   force =     0.00660938   -0.00140962    0.01763409
     atom    5 type  1   force =     0.00183040   -0.01835069    0.01256803
     atom    6 type  1   force =     0.00478168   -0.00493624    0.01924544
     atom    7 type  2   force =    -0.00550173    0.02812292   -0.02819016
     atom    8 type  2   force =    -0.02116006    0.02856846   -0.01513612
     atom    9 type  2   force =     0.00970350   -0.00422702    0.00046647
     atom   10 type  2   force =    -0.00313022   -0.04202066   -0.00079305
     atom   11 type  2   force =     0.01906727    0.02286244   -0.00456162
     atom   12 type  2   force =    -0.01138603    0.01381853   -0.03640875
     atom   13 type  2   force =     0.00907264   -0.01022504   -0.01430963
     atom   14 type  2   force =     0.00695404    0.01286336   -0.00630963
     atom   15 type  3   force =     0.01120186   -0.02056543   -0.00322612
     atom   16 type  3   force =     0.00547336    0.00449061   -0.02317022
     atom   17 type  3   force =    -0.01000428    0.01316672   -0.00426900
     atom   18 type  3   force =    -0.00098116   -0.01387305    0.00655259
     atom   19 type  3   force =     0.00889306    0.01480681    0.00191016
     atom   20 type  3   force =     0.01308720    0.01512027    0.02258386
     The Hubbard contrib.    to forces
     atom    1 type  1   force =     0.00000000    0.00000000    0.00000000
     atom    2 type  1   force =     0.00000000    0.00000000    0.00000000
     atom    3 type  1   force =     0.00000000    0.00000000    0.00000000
     atom    4 type  1   force =     0.00000000    0.00000000    0.00000000
     atom    5 type  1   force =     0.00000000    0.00000000    0.00000000
     atom    6 type  1   force =     0.00000000    0.00000000    0.00000000
     atom    7 type  2   force =     0.00000000    0.00000000    0.00000000
     atom    8 type  2   force =     0.00000000    0.00000000    0.00000000
     atom    9 type  2   force =     0.00000000    0.00000000    0.00000000
     atom   10 type  2   force =     0.00000000    0.00000000    0.00000000
     atom   11 type  2   force =     0.00000000    0.00000000    0.00000000
     atom   12 type  2   force =     0.00000000    0.00000000    0.00000000
     atom   13 type  2   force =     0.00000000    0.00000000    0.00000000
     atom   14 type  2   force =     0.00000000    0.00000000    0.00000000
     atom   15 type  3   force =     0.00000000    0.00000000    0.00000000
     atom   16 type  3   force =     0.00000000    0.00000000    0.00000000
     atom   17 type  3   force =     0.00000000    0.00000000    0.00000000
     atom   18 type  3   force =     0.00000000    0.00000000    0.00000000
     atom   19 type  3   force =     0.00000000    0.00000000    0.00000000
     atom   20 type  3   force =     0.00000000    0.00000000    0.00000000
     The SCF correction term to forces
     atom    1 type  1   force =     0.00036308   -0.00012145    0.00043663
     atom    2 type  1   force =    -0.00038572    0.00028058   -0.00038156
     atom    3 type  1   force =     0.00042439    0.00030613    0.00003981
     atom    4 type  1   force =    -0.00033347   -0.00059702   -0.00018274
     atom    5 type  1   force =     0.00017260    0.00007254   -0.00034283
     atom    6 type  1   force =     0.00002050   -0.00004684    0.00041848
     atom    7 type  2   force =    -0.00040452    0.00002029    0.00016461
     atom    8 type  2   force =    -0.00026971    0.00020170    0.00016399
     atom    9 type  2   force =    -0.00083576   -0.00097186   -0.00059471
     atom   10 type  2   force =     0.00061573   -0.00023946   -0.00000171
     atom   11 type  2   force =     0.00122351    0.00027020    0.00055574
     atom   12 type  2   force =    -0.00034188   -0.00007280   -0.00054930
     atom   13 type  2   force =     0.00078745    0.00060681    0.00086421
     atom   14 type  2   force =    -0.00105994    0.00007022   -0.00062262
     atom   15 type  3   force =    -0.00102471    0.00005174   -0.00038665
     atom   16 type  3   force =     0.00055414   -0.00042984    0.00073939
     atom   17 type  3   force =    -0.00060998   -0.00038039   -0.00039277
     atom   18 type  3   force =     0.00048234    0.00087724    0.00014243
     atom   19 type  3   force =    -0.00022391    0.00052097    0.00002861
     atom   20 type  3   force =     0.00009277   -0.00028886   -0.00030903

     Total force =     0.595847     Total SCF correction =     0.003818

     Computing stress (Cartesian axis) and pressure

     negative rho (up, down):  5.585E-01 0.000E+00
          total   stress  (Ry/bohr**3)                   (kbar)     P=      312.99
  -0.00216233   0.00096527   0.00000000         -318.09      142.00        0.00
   0.00096527   0.00345056  -0.00000000          142.00      507.60       -0.00
   0.00000000  -0.00000000   0.00509481            0.00       -0.00      749.47

     kinetic stress (kbar)  27943.28    121.81     -0.00
                              121.81  28606.54     -0.00
                               -0.00     -0.00  28599.87

     local   stress (kbar)   4616.06    -21.64     -3.97
                              -21.64   4652.05     -3.08
                               -3.97     -3.08   4857.56

     nonloc. stress (kbar)   2303.75     18.12     -0.00
                               18.12   2367.95     -0.00
                               -0.00     -0.00   2465.25

     hartree stress (kbar)  11245.77     19.78     27.17
                               19.78  11288.47      8.69
                               27.17      8.69  11227.59

     exc-cor stress (kbar)  14950.33      0.59      0.65
                                0.59  14951.25     -0.64
                                0.65     -0.64  14949.04

     corecor stress (kbar) -23124.16      3.33      8.01
                                3.33 -23105.55     -0.21
                                8.01     -0.21 -23096.72

     ewald   stress (kbar) -38253.12     -0.00     -0.00
                               -0.00 -38253.12     -0.00
                               -0.00     -0.00 -38253.12

     hubbard stress (kbar)      0.00      0.00      0.00
                                0.00      0.00      0.00
                                0.00      0.00      0.00

     DFT-D   stress (kbar)      0.00      0.00      0.00
                                0.00      0.00      0.00
                                0.00      0.00      0.00

     XDM     stress (kbar)      0.00      0.00      0.00
                                0.00      0.00      0.00
                                0.00      0.00      0.00

     dft-nl  stress (kbar)      0.00      0.00      0.00
                                0.00      0.00      0.00
                                0.00      0.00      0.00

     TS-vdW  stress (kbar)      0.00      0.00      0.00
                                0.00      0.00      0.00
                                0.00      0.00      0.00

[...]

                                0.00      0.00      0.00

     Writing all to output data dir new_calculations/myprefix.save/

     General routines

     Parallel routines

   This run was terminated on:   7:49: 1  21May2023

   JOB DONE.