     Program PWSCF v.7.0 starts on 20May2023 at 18:30:46

     Reading input from espresso_9569.pwi
Warning: card &CELL ignored
Warning: card / ignored

     Current dimensions of program PWSCF are:
     Max number of different atomic species (ntypx) = 10
     Max number of k-points (npk) =  40000
     Max angular momentum in pseudopotentials (lmaxx) =  4

     gamma-point specific algorithms are used
     Message from routine setup:
     using ibrav=0 with symmetry is DISCOURAGED, use correct ibrav instead

     Subspace diagonalization in iterative solution of the eigenvalue problem:
     a serial algorithm will be used

     Using Slab Decomposition

     bravais-lattice index     =            0
     lattice parameter (alat)  =      13.5553  a.u.
     unit-cell volume          =    3132.8916 (a.u.)^3
     number of atoms/cell      =           13
     number of atomic types    =            4
     number of electrons       =       132.00
     number of Kohn-Sham states=           79
     kinetic-energy cutoff     =      30.0000  Ry
     charge density cutoff     =     240.0000  Ry
     scf convergence threshold =      1.0E-06
     mixing beta               =       0.7000
     number of iterations used =            8  plain     mixing
     Exchange-correlation=  SLA  PW   PBX  PBC
                           (   1   4   3   4   0   0   0)

     celldm(1)=  13.555257  celldm(2)=   0.000000  celldm(3)=   0.000000
     celldm(4)=   0.000000  celldm(5)=   0.000000  celldm(6)=   0.000000

     crystal axes: (cart. coord. in units of alat)
               a(1) = (   1.000000   0.000000   0.000000 )
               a(2) = (   0.459478   0.888189   0.000000 )
               a(3) = (   0.433092   0.263566   1.416174 )

     reciprocal axes: (cart. coord. in units 2 pi/alat)
               b(1) = (  1.000000 -0.517319 -0.209540 )
               b(2) = (  0.000000  1.125886 -0.209540 )
               b(3) = (  0.000000  0.000000  0.706128 )

     PseudoPot. # 1 for Rb read from file:
     /home/pragov/projects/rrg-bengioy-ad/pragov/crystal_structure_design/SSSP/Rb_ONCV_PBE-1.0.oncvpsp.upf
     MD5 check sum: 55a5172d6bfbce6759a58e35d43f6aa9
     Pseudo is Norm-conserving, Zval =  9.0
     Generated using ONCVPSP code by D. R. Hamann
     Using radial grid of 2308 points,  6 beta functions with:
                l(1) =   0
                l(2) =   0
                l(3) =   1
                l(4) =   1
                l(5) =   2
                l(6) =   2

     PseudoPot. # 2 for Hg read from file:
     /home/pragov/projects/rrg-bengioy-ad/pragov/crystal_structure_design/SSSP/Hg_ONCV_PBE-1.0.oncvpsp.upf
     MD5 check sum: dd5a8773074bfcf4280086d4d95875c4
     Pseudo is Norm-conserving, Zval = 20.0
     Generated using ONCVPSP code by D. R. Hamann
     Using radial grid of 1262 points,  8 beta functions with:
                l(1) =   0
                l(2) =   0
                l(3) =   1
                l(4) =   1
                l(5) =   2
                l(6) =   2
                l(7) =   3
                l(8) =   3

     PseudoPot. # 3 for Pd read from file:
     /home/pragov/projects/rrg-bengioy-ad/pragov/crystal_structure_design/SSSP/Pd_ONCV_PBE-1.0.oncvpsp.upf
     MD5 check sum: eb77f42b51d86fb18e25f68156a31cf1
     Pseudo is Norm-conserving, Zval = 18.0
     Generated using ONCVPSP code by D. R. Hamann
     Using radial grid of 1410 points,  6 beta functions with:
                l(1) =   0
                l(2) =   0
                l(3) =   1
                l(4) =   1
                l(5) =   2
                l(6) =   2

     PseudoPot. # 4 for Br read from file:
     /home/pragov/projects/rrg-bengioy-ad/pragov/crystal_structure_design/SSSP/br_pbe_v1.4.uspp.F.UPF
     MD5 check sum: d3ffb7b29f6225aa16fe06858fb2a80b
     Pseudo is Ultrasoft + core correction, Zval =  7.0
     Generated by new atomic code, or converted to UPF format
     Using radial grid of  879 points,  6 beta functions with:
                l(1) =   0
                l(2) =   0
                l(3) =   1
                l(4) =   1
                l(5) =   2
                l(6) =   2
     Q(r) pseudized with  8 coefficients,  rinner =    1.100   1.100   1.100
                                                       1.100   1.100

     atomic species   valence    mass     pseudopotential
        Rb             9.00    85.46780     Rb( 1.00)
        Hg            20.00   200.59200     Hg( 1.00)
        Pd            18.00   106.42000     Pd( 1.00)
        Br             7.00    79.90400     Br( 1.00)

      2 Sym. Ops., with inversion, found

                                    s                        frac. trans.

      isym =  1     identity

 cryst.   s( 1) = (     1          0          0      )
                  (     0          1          0      )
                  (     0          0          1      )

 cart.    s( 1) = (  1.0000000  0.0000000 -0.0000000 )
                  (  0.0000000  1.0000000  0.0000000 )
                  (  0.0000000  0.0000000  1.0000000 )

      isym =  2     inversion

 cryst.   s( 2) = (    -1          0          0      )
                  (     0         -1          0      )
                  (     0          0         -1      )

 cart.    s( 2) = ( -1.0000000 -0.0000000  0.0000000 )
                  (  0.0000000 -1.0000000 -0.0000000 )
                  (  0.0000000  0.0000000 -1.0000000 )

   Cartesian axes

     site n.     atom                  positions (alat units)
         1           Rb  tau(   1) = (   0.9521734   0.5794610   0.2359600  )
         2           Rb  tau(   2) = (   0.9403966   0.5722940   1.1802136  )
         3           Hg  tau(   3) = (   1.4359649   0.8738804   0.5548427  )
         4           Hg  tau(   4) = (   0.4566051   0.2778747   0.8613310  )
         5           Pd  tau(   5) = (   0.0000000   0.0000000   0.0000000  )
         6           Br  tau(   6) = (   1.1690068   0.7114186   0.7072555  )
         7           Br  tau(   7) = (   0.4504685   0.5977899   0.1874787  )
         8           Br  tau(   8) = (   1.6377432   0.9966759   0.9815145  )
         9           Br  tau(   9) = (   0.2548268   0.1550791   0.4346591  )
        10           Br  tau(  10) = (   0.7235632   0.4403364   0.7089181  )
        11           Br  tau(  11) = (   1.4421015   0.5539651   1.2286949  )
        12           Br  tau(  12) = (   1.1546392   1.0263247   1.2286949  )
        13           Br  tau(  13) = (   0.7379308   0.1254303   0.1874787  )

   Crystallographic axes

     site n.     atom                  positions (cryst. coord.)
         1           Rb  tau(   1) = (  0.6029640  0.6029640  0.1666180  )
         2           Rb  tau(   2) = (  0.3970360  0.3970360  0.8333820  )
         3           Hg  tau(   3) = (  0.8676280  0.8676280  0.3917900  )
         4           Hg  tau(   4) = (  0.1323720  0.1323720  0.6082100  )
         5           Pd  tau(   5) = (  0.0000000  0.0000000  0.0000000  )
         6           Br  tau(   6) = (  0.6527780  0.6527780  0.4994130  )
         7           Br  tau(   7) = (  0.1019360  0.6337590  0.1323840  )
         8           Br  tau(   8) = (  0.9164770  0.9164770  0.6930750  )
         9           Br  tau(   9) = (  0.0835230  0.0835230  0.3069250  )
        10           Br  tau(  10) = (  0.3472220  0.3472220  0.5005870  )
        11           Br  tau(  11) = (  0.8980640  0.3662410  0.8676160  )
        12           Br  tau(  12) = (  0.3662410  0.8980640  0.8676160  )
        13           Br  tau(  13) = (  0.6337590  0.1019360  0.1323840  )

     number of k points=     1  Methfessel-Paxton smearing, width (Ry)=  0.0010
                       cart. coord. in units 2pi/alat
        k(    1) = (   0.0000000   0.0000000   0.0000000), wk =   2.0000000

                       cryst. coord.
        k(    1) = (   0.0000000   0.0000000   0.0000000), wk =   2.0000000

     Check: negative core charge=   -0.000001

     Initial potential from superposition of free atoms

     starting charge     131.9498, renormalised to     132.0000
     Starting wfcs are   72 randomized atomic wfcs +    7 random wfcs

     Self-consistent Calculation

     iteration #  1     ecut=    30.00 Ry     beta= 0.70
     Davidson diagonalization with overlap

     ethr =  1.00E-02,  avg # of iterations =  5.0

     Threshold (ethr) on eigenvalues was too large:
     Diagonalizing with lowered threshold

     Davidson diagonalization with overlap

[...]

     total energy              =   -1345.84487267 Ry
     estimated scf accuracy    <       0.80383937 Ry

[...]

     total energy              =   -1346.22703745 Ry
     estimated scf accuracy    <       0.00000280 Ry

     iteration # 12     ecut=    30.00 Ry     beta= 0.70
     Davidson diagonalization with overlap

     ethr =  2.12E-09,  avg # of iterations =  3.0

     End of self-consistent calculation

          k = 0.0000 0.0000 0.0000 (  4336 PWs)   bands (ev):

  -112.2750-112.2744 -80.8978 -60.2853 -60.2846 -60.0500 -60.0467 -60.0186
   -60.0174 -46.6115 -46.5901 -45.6474 -22.4569 -22.4555 -11.2819 -11.1155
   -10.9549 -10.8941 -10.6648 -10.3607 -10.2871 -10.2253  -6.5764  -6.5749
    -6.5695  -6.5590  -6.5514  -6.5363  -3.7256  -3.6096  -3.0740  -3.0555
    -3.0325  -3.0001  -2.6183  -2.6106  -2.6020  -2.5885  -0.9275  -0.9133
    -0.6434  -0.3759   0.0547   0.1520   0.3142   0.8048   0.8139   0.8533
     0.8731   1.2722   1.2897   1.2914   1.4032   1.5629   1.6162   1.6968
     1.7118   1.9047   2.1667   2.1959   2.5277   2.7376   2.7832   3.0432
     3.1331   3.1720   4.7503   5.1521   5.5569   7.9922   8.1271   8.2473
     8.4596   8.5601   8.7206   9.1171   9.2912   9.8735  10.1361

     occupation numbers
     1.0000   1.0000   1.0000   1.0000   1.0000   1.0000   1.0000   1.0000
     1.0000   1.0000   1.0000   1.0000   1.0000   1.0000   1.0000   1.0000
     1.0000   1.0000   1.0000   1.0000   1.0000   1.0000   1.0000   1.0000
     1.0000   1.0000   1.0000   1.0000   1.0000   1.0000   1.0000   1.0000
     1.0000   1.0000   1.0000   1.0000   1.0000   1.0000   1.0000   1.0000
     1.0000   1.0000   1.0000   1.0000   1.0000   1.0000   1.0000   1.0000
     1.0000   1.0000   1.0000   1.0000   1.0000   1.0000   1.0000   1.0000
     1.0000   1.0000   1.0000   1.0000   1.0000   1.0000   1.0000   1.0000
     1.0000   1.0000  -0.0000  -0.0000  -0.0000  -0.0000  -0.0000  -0.0000
    -0.0000  -0.0000  -0.0000  -0.0000  -0.0000  -0.0000  -0.0000

     the Fermi energy is     4.5213 ev

!    total energy              =   -1346.22703800 Ry
     estimated scf accuracy    <       0.00000013 Ry
     smearing contrib. (-TS)   =       0.00000000 Ry
     internal energy E=F+TS    =   -1346.22703800 Ry

     The total energy is F=E-TS. E is the sum of the following terms:
     one-electron contribution =    -872.85797039 Ry
     hartree contribution      =     457.90104825 Ry
     xc contribution           =    -303.57128995 Ry
     ewald contribution        =    -627.69882592 Ry

     convergence has been achieved in  12 iterations

     Forces acting on atoms (cartesian axes, Ry/au):

     atom    1 type  1   force =    -0.00071328   -0.00043535    0.00275642
     atom    2 type  1   force =     0.00071328    0.00043535   -0.00275642
     atom    3 type  2   force =     0.00115206    0.00070651    0.00295024
     atom    4 type  2   force =    -0.00115206   -0.00070651   -0.00295024
     atom    5 type  3   force =     0.00000000    0.00000000    0.00000000
     atom    6 type  4   force =     0.00687255    0.00418146   -0.00294762
     atom    7 type  4   force =     0.00267259    0.00503779   -0.01256842
     atom    8 type  4   force =     0.00829706    0.00505139   -0.01061972
     atom    9 type  4   force =    -0.00829706   -0.00505139    0.01061972
     atom   10 type  4   force =    -0.00687255   -0.00418146    0.00294762
     atom   11 type  4   force =    -0.00267259   -0.00503779    0.01256842
     atom   12 type  4   force =    -0.00570191   -0.00005893    0.01257110
     atom   13 type  4   force =     0.00570191    0.00005893   -0.01257110
     The non-local contrib.  to forces
     atom    1 type  1   force =    -0.00244231   -0.00148553    0.01462695
     atom    2 type  1   force =     0.00244231    0.00148553   -0.01462695
     atom    3 type  2   force =    -0.02179555   -0.01325884   -0.01554770
     atom    4 type  2   force =     0.02179555    0.01325884    0.01554770
     atom    5 type  3   force =     0.00000000    0.00000000    0.00000000
     atom    6 type  4   force =    -0.04774883   -0.02905691    0.02798763
     atom    7 type  4   force =     0.00378489   -0.04256635    0.00969016
     atom    8 type  4   force =    -0.04938415   -0.03005328    0.01743522
     atom    9 type  4   force =     0.04938415    0.03005328   -0.01743522
     atom   10 type  4   force =     0.04774883    0.02905691   -0.02798763
     atom   11 type  4   force =    -0.00378489    0.04256635   -0.00969016
     atom   12 type  4   force =     0.03607257   -0.02291859   -0.00968741
     atom   13 type  4   force =    -0.03607257    0.02291859    0.00968741
     The ionic contribution  to forces
     atom    1 type  1   force =    -0.02988812   -0.01818891   -0.14918259
     atom    2 type  1   force =     0.02988812    0.01818891    0.14918259
     atom    3 type  2   force =    -0.52242859   -0.31793263    4.15527963
     atom    4 type  2   force =     0.52242859    0.31793263   -4.15527963
     atom    5 type  3   force =    -0.00000000   -0.00000000    0.00000000
     atom    6 type  4   force =    -6.96422751   -4.23819676    3.41626794
     atom    7 type  4   force =    -0.23731549  -10.13241711    1.81636037
     atom    8 type  4   force =    -7.32891853   -4.46013555    4.27317372
     atom    9 type  4   force =     7.32891853    4.46013555   -4.27317372
     atom   10 type  4   force =     6.96422751    4.23819676   -3.41626794
     atom   11 type  4   force =     0.23731549   10.13241711   -1.81636037
     atom   12 type  4   force =     9.10854650   -4.44483700   -1.81636037
     atom   13 type  4   force =    -9.10854650    4.44483700    1.81636037
     The local contribution  to forces
     atom    1 type  1   force =     0.03164691    0.01926720    0.13751524
     atom    2 type  1   force =    -0.03164543   -0.01926990   -0.13720588
     atom    3 type  2   force =     0.54525693    0.33182725   -4.13746190
     atom    4 type  2   force =    -0.54552268   -0.33198306    4.13568289
     atom    5 type  3   force =    -0.00023695   -0.00009097    0.00118812
     atom    6 type  4   force =     7.04366645    4.28653946   -3.46254505
     atom    7 type  4   force =     0.23518780   10.20158848   -1.84635611
     atom    8 type  4   force =     7.41395828    4.51189646   -4.31279046
     atom    9 type  4   force =    -7.41390055   -4.51185627    4.31256656
     atom   10 type  4   force =    -7.04365642   -4.28654104    3.46200162
     atom   11 type  4   force =    -0.23520088  -10.20163041    1.84675350
     atom   12 type  4   force =    -9.16903966    4.47852069    1.84676568
     atom   13 type  4   force =     9.16900380   -4.47850978   -1.84636043
     The core correction contribution to forces
     atom    1 type  1   force =     0.00000000    0.00000000    0.00000000
     atom    2 type  1   force =     0.00000000    0.00000000    0.00000000
     atom    3 type  2   force =     0.00000000    0.00000000    0.00000000
     atom    4 type  2   force =     0.00000000    0.00000000    0.00000000
     atom    5 type  3   force =     0.00000000    0.00000000    0.00000000
     atom    6 type  4   force =    -0.02482878   -0.01511024    0.01508148
     atom    7 type  4   force =     0.00098977   -0.02151123    0.00791977
     atom    8 type  4   force =    -0.02735439   -0.01664733    0.01143155
     atom    9 type  4   force =     0.02735249    0.01664584   -0.01143167
     atom   10 type  4   force =     0.02482883    0.01510948   -0.01508003
     atom   11 type  4   force =    -0.00099119    0.02151633   -0.00791506
     atom   12 type  4   force =     0.01865586   -0.01076753   -0.00791543
     atom   13 type  4   force =    -0.01865194    0.01076184    0.00791882
     The Hubbard contrib.    to forces
     atom    1 type  1   force =     0.00000000    0.00000000    0.00000000
     atom    2 type  1   force =     0.00000000    0.00000000    0.00000000
     atom    3 type  2   force =     0.00000000    0.00000000    0.00000000
     atom    4 type  2   force =     0.00000000    0.00000000    0.00000000
     atom    5 type  3   force =     0.00000000    0.00000000    0.00000000
     atom    6 type  4   force =     0.00000000    0.00000000    0.00000000
     atom    7 type  4   force =     0.00000000    0.00000000    0.00000000
     atom    8 type  4   force =     0.00000000    0.00000000    0.00000000
     atom    9 type  4   force =     0.00000000    0.00000000    0.00000000
     atom   10 type  4   force =     0.00000000    0.00000000    0.00000000
     atom   11 type  4   force =     0.00000000    0.00000000    0.00000000
     atom   12 type  4   force =     0.00000000    0.00000000    0.00000000
     atom   13 type  4   force =     0.00000000    0.00000000    0.00000000
     The SCF correction term to forces
     atom    1 type  1   force =    -0.00002983   -0.00002890   -0.00022418
     atom    2 type  1   force =     0.00002820    0.00003001   -0.00012716
     atom    3 type  2   force =     0.00008640    0.00005655    0.00082014
     atom    4 type  2   force =     0.00011362    0.00007091    0.00123871
     atom    5 type  3   force =     0.00023883    0.00008766   -0.00126061
     atom    6 type  4   force =     0.00001586    0.00000975    0.00027722
     atom    7 type  4   force =     0.00002889   -0.00007464   -0.00019936
     atom    8 type  4   force =     0.00000257   -0.00000547    0.00013477
     atom    9 type  4   force =    -0.00004496   -0.00002634    0.00009830
     atom   10 type  4   force =    -0.00001664    0.00000027    0.00029845
     atom   11 type  4   force =    -0.00000783    0.00007418   -0.00023624
     atom   12 type  4   force =     0.00004525   -0.00003934   -0.00023729
     atom   13 type  4   force =    -0.00004847    0.00006845   -0.00018318

     Total force =     0.036889     Total SCF correction =     0.002089

     Computing stress (Cartesian axis) and pressure

          total   stress  (Ry/bohr**3)                   (kbar)     P=     -172.72
  -0.00117112  -0.00002746   0.00000233         -172.28       -4.04        0.34
  -0.00002746  -0.00114271   0.00000142           -4.04     -168.10        0.21
   0.00000233   0.00000142  -0.00120848            0.34        0.21     -177.77

     kinetic stress (kbar)  11558.47    -49.46    190.52
                              -49.46  11609.65    115.95
                              190.52    115.95  11672.68

     local   stress (kbar)  -5489.19  -1827.22   3097.94
                            -1827.22  -3598.67   1885.30
                             3097.94   1885.30 -10761.82

     nonloc. stress (kbar)   -146.08     11.24    -33.66
                               11.24   -157.71    -20.49
                              -33.66    -20.49   -165.34

     hartree stress (kbar)   6452.29    610.83  -1069.20
                              610.83   5820.30   -650.68
                            -1069.20   -650.68   9228.18

     exc-cor stress (kbar)   5363.42      1.78     -2.63
                                1.78   5361.59     -1.60
                               -2.63     -1.60   5361.50

     corecor stress (kbar)  -7716.40      2.29     -3.71
                                2.29  -7718.77     -2.26
                               -3.71     -2.26  -7718.61

     ewald   stress (kbar) -10194.79   1246.52  -2178.91
                             1246.52 -11484.48  -1326.01
                            -2178.91  -1326.01  -7794.36

     hubbard stress (kbar)      0.00      0.00      0.00
                                0.00      0.00      0.00
                                0.00      0.00      0.00

     DFT-D   stress (kbar)      0.00      0.00      0.00
                                0.00      0.00      0.00
                                0.00      0.00      0.00

     XDM     stress (kbar)      0.00      0.00      0.00
                                0.00      0.00      0.00
                                0.00      0.00      0.00

     dft-nl  stress (kbar)      0.00      0.00      0.00
                                0.00      0.00      0.00
                                0.00      0.00      0.00

     TS-vdW  stress (kbar)      0.00      0.00      0.00
                                0.00      0.00      0.00
                                0.00      0.00      0.00

[...]

                                0.00      0.00      0.00

     Writing all to output data dir new_calculations/myprefix.save/

     General routines

     Parallel routines

   This run was terminated on:  18:31:17  20May2023

   JOB DONE.