     Program PWSCF v.7.0 starts on 20May2023 at 10:39: 9

     Reading input from espresso_13318.pwi
Warning: card &CELL ignored
Warning: card / ignored

     Current dimensions of program PWSCF are:
     Max number of different atomic species (ntypx) = 10
     Max number of k-points (npk) =  40000
     Max angular momentum in pseudopotentials (lmaxx) =  4
     file Ba.pbe-spn-kjpaw_psl.1.0.0.UPF: wavefunction(s)  5S 6S renormalized
     file O.pbe-n-kjpaw_psl.0.1.UPF: wavefunction(s)  2P renormalized

     gamma-point specific algorithms are used
     Message from routine setup:
     using ibrav=0 with symmetry is DISCOURAGED, use correct ibrav instead

     Subspace diagonalization in iterative solution of the eigenvalue problem:
     a serial algorithm will be used

     Using Slab Decomposition

     bravais-lattice index     =            0
     lattice parameter (alat)  =      22.5828  a.u.
     unit-cell volume          =    1843.7430 (a.u.)^3
     number of atoms/cell      =           20
     number of atomic types    =            4
     number of electrons       =       128.00
     number of Kohn-Sham states=           77
     kinetic-energy cutoff     =      30.0000  Ry
     charge density cutoff     =     240.0000  Ry
     scf convergence threshold =      1.0E-06
     mixing beta               =       0.7000
     number of iterations used =            8  plain     mixing
     Exchange-correlation= SLA  PW   PBX  PBC
                           (   1   4   3   4   0   0   0)

     celldm(1)=  22.582822  celldm(2)=   0.000000  celldm(3)=   0.000000
     celldm(4)=   0.000000  celldm(5)=   0.000000  celldm(6)=   0.000000

     crystal axes: (cart. coord. in units of alat)
               a(1) = (   1.000000   0.000000   0.000000 )
               a(2) = (   0.904480   0.426515   0.000000 )
               a(3) = (   0.904480   0.202562   0.375345 )

     reciprocal axes: (cart. coord. in units 2 pi/alat)
               b(1) = (  1.000000 -2.120628 -1.265294 )
               b(2) = (  0.000000  2.344581 -1.265294 )
               b(3) = (  0.000000  0.000000  2.664213 )

     PseudoPot. # 1 for Ba read from file:
     /home/pragov/projects/rrg-bengioy-ad/pragov/crystal_structure_design/SSSP/Ba.pbe-spn-kjpaw_psl.1.0.0.UPF
     MD5 check sum: c432291d3e53af55f19d5e8866385beb
     Pseudo is Projector augmented-wave + core cor, Zval = 10.0
     Generated using "atomic" code by A. Dal Corso  v.5.1
     Shape of augmentation charge: PSQ
     Using radial grid of 1251 points,  7 beta functions with:
                l(1) =   0
                l(2) =   0
                l(3) =   0
                l(4) =   1
                l(5) =   1
                l(6) =   2
                l(7) =   2
     Q(r) pseudized with 0 coefficients

     PseudoPot. # 2 for Zr read from file:
     /home/pragov/projects/rrg-bengioy-ad/pragov/crystal_structure_design/SSSP/Zr_pbe_v1.uspp.F.UPF
     MD5 check sum: 5db81b1e868ab7776c4564c113de050b
     Pseudo is Ultrasoft + core correction, Zval = 12.0
     Generated by new atomic code, or converted to UPF format
     Using radial grid of  887 points,  6 beta functions with:
                l(1) =   0
                l(2) =   0
                l(3) =   1
                l(4) =   1
                l(5) =   2
                l(6) =   2
     Q(r) pseudized with  6 coefficients,  rinner =    1.200   1.200   1.200
                                                       1.200   1.200

     PseudoPot. # 3 for B  read from file:
     /home/pragov/projects/rrg-bengioy-ad/pragov/crystal_structure_design/SSSP/b_pbe_v1.4.uspp.F.UPF
     MD5 check sum: cc6de2960df11db49a60e589f9ebb39b
     Pseudo is Ultrasoft + core correction, Zval =  3.0
     Generated by new atomic code, or converted to UPF format
     Using radial grid of  781 points,  4 beta functions with:
                l(1) =   0
                l(2) =   0
                l(3) =   1
                l(4) =   1
     Q(r) pseudized with  8 coefficients,  rinner =    1.100   1.100   1.100

     PseudoPot. # 4 for O  read from file:
     /home/pragov/projects/rrg-bengioy-ad/pragov/crystal_structure_design/SSSP/O.pbe-n-kjpaw_psl.0.1.UPF
     MD5 check sum: 0234752ac141de4415c5fc33072bef88
     Pseudo is Projector augmented-wave + core cor, Zval =  6.0
     Generated using "atomic" code by A. Dal Corso  v.5.0.99 svn rev. 10869
     Shape of augmentation charge: BESSEL
     Using radial grid of 1095 points,  4 beta functions with:
                l(1) =   0
                l(2) =   0
                l(3) =   1
                l(4) =   1
     Q(r) pseudized with 0 coefficients

     atomic species   valence    mass     pseudopotential
        Ba            10.00   137.32700     Ba( 1.00)
        Zr            12.00    91.22400     Zr( 1.00)
        B              3.00    10.81000     B ( 1.00)
        O              6.00    15.99900     O ( 1.00)

      2 Sym. Ops., with inversion, found

                                    s                        frac. trans.

      isym =  1     identity

 cryst.   s( 1) = (     1          0          0      )
                  (     0          1          0      )
                  (     0          0          1      )

 cart.    s( 1) = (  1.0000000  0.0000000 -0.0000000 )
                  (  0.0000000  1.0000000 -0.0000000 )
                  (  0.0000000  0.0000000  1.0000000 )

      isym =  2     inversion

 cryst.   s( 2) = (    -1          0          0      )
                  (     0         -1          0      )
                  (     0          0         -1      )

 cart.    s( 2) = ( -1.0000000 -0.0000000  0.0000000 )
                  (  0.0000000 -1.0000000  0.0000000 )
                  (  0.0000000  0.0000000 -1.0000000 )

   Cartesian axes

     site n.     atom                  positions (alat units)
         1           Ba  tau(   1) = (   2.1067205   0.4718078   0.2815090  )
         2           Ba  tau(   2) = (   0.7022402   0.1572693   0.0938363  )
         3           Zr  tau(   3) = (   0.0000000   0.0000000   0.0000000  )
         4           Zr  tau(   4) = (   1.4044803   0.3145385   0.1876727  )
         5           B   tau(   5) = (   1.7727659   0.3970175   0.2368846  )
         6           B   tau(   6) = (   2.4406750   0.5465982   0.3261334  )
         7           B   tau(   7) = (   1.0361947   0.2320596   0.1384608  )
         8           B   tau(   8) = (   0.3682856   0.0824789   0.0492119  )
         9           O   tau(   9) = (   1.2900444   0.3998457   0.0832981  )
        10           O   tau(  10) = (   1.7418404   0.5031098   0.2709708  )
        11           O   tau(  11) = (   1.0189162   0.2538999   0.2507029  )
        12           O   tau(  12) = (   1.7790788   0.3111229   0.3140605  )
        13           O   tau(  13) = (   1.5189162   0.2292314   0.2920472  )
        14           O   tau(  14) = (   1.0298818   0.3179542   0.0612849  )
        15           O   tau(  15) = (   1.0671202   0.1259673   0.1043745  )
        16           O   tau(  16) = (   1.3373601   0.1628614   0.1263878  )
        17           O   tau(  17) = (   1.4716005   0.4662157   0.2489576  )
        18           O   tau(  18) = (   1.5298818   0.3169128   0.0630302  )
        19           O   tau(  19) = (   1.2790788   0.3121643   0.3123151  )
        20           O   tau(  20) = (   1.7900444   0.3751772   0.1246424  )

   Crystallographic axes

     site n.     atom                  positions (cryst. coord.)
         1           Ba  tau(   1) = (  0.7500000  0.7500000  0.7500000  )
         2           Ba  tau(   2) = (  0.2500000  0.2500000  0.2500000  )
         3           Zr  tau(   3) = (  0.0000000  0.0000000  0.0000000  )
         4           Zr  tau(   4) = (  0.5000000  0.5000000  0.5000000  )
         5           B   tau(   5) = (  0.6311110  0.6311110  0.6311110  )
         6           B   tau(   6) = (  0.8688890  0.8688890  0.8688890  )
         7           B   tau(   7) = (  0.3688890  0.3688890  0.3688890  )
         8           B   tau(   8) = (  0.1311110  0.1311110  0.1311110  )
         9           O   tau(   9) = (  0.3367240  0.8320740  0.2219240  )
        10           O   tau(  10) = (  0.3320740  0.8367240  0.7219240  )
        11           O   tau(  11) = (  0.1632760  0.2780760  0.6679260  )
        12           O   tau(  12) = (  0.7219240  0.3320740  0.8367240  )
        13           O   tau(  13) = (  0.6632760  0.1679260  0.7780760  )
        14           O   tau(  14) = (  0.2780760  0.6679260  0.1632760  )
        15           O   tau(  15) = (  0.6679260  0.1632760  0.2780760  )
        16           O   tau(  16) = (  0.8320740  0.2219240  0.3367240  )
        17           O   tau(  17) = (  0.1679260  0.7780760  0.6632760  )
        18           O   tau(  18) = (  0.7780760  0.6632760  0.1679260  )
        19           O   tau(  19) = (  0.2219240  0.3367240  0.8320740  )
        20           O   tau(  20) = (  0.8367240  0.7219240  0.3320740  )

     number of k points=     1  Methfessel-Paxton smearing, width (Ry)=  0.0010
                       cart. coord. in units 2pi/alat
        k(    1) = (   0.0000000   0.0000000   0.0000000), wk =   2.0000000

                       cryst. coord.
        k(    1) = (   0.0000000   0.0000000   0.0000000), wk =   2.0000000

     Check: negative core charge=   -0.000012

     Initial potential from superposition of free atoms

     starting charge     127.9605, renormalised to     128.0000

     negative rho (up, down):  1.211E-01 0.000E+00
     Starting wfcs are  100 randomized atomic wfcs
     Checking if some PAW data can be deallocated...

     Self-consistent Calculation

     iteration #  1     ecut=    30.00 Ry     beta= 0.70
     Davidson diagonalization with overlap

     ethr =  1.00E-02,  avg # of iterations =  4.0

     negative rho (up, down):  1.430E-01 0.000E+00

     total energy              =   -1595.66154310 Ry
     estimated scf accuracy    <       4.95603437 Ry

[...]

     total energy              =   -1597.87010698 Ry
     estimated scf accuracy    <       0.00000992 Ry

     iteration # 14     ecut=    30.00 Ry     beta= 0.70
     Davidson diagonalization with overlap

     ethr =  7.75E-09,  avg # of iterations =  2.0

[...]

     End of self-consistent calculation

          k = 0.0000 0.0000 0.0000 (  2582 PWs)   bands (ev):

   -42.1655 -42.1640 -20.3989 -20.3946 -20.2604 -20.2604 -20.2590 -20.2589
   -19.2482 -19.2416 -12.6685 -12.6609 -12.2167 -12.2146 -11.2509 -11.2504
   -11.1923 -11.1919 -10.8735 -10.8731 -10.8107 -10.8102  -4.4479  -4.4479
    -4.4358  -4.4358  -4.4264  -4.3928  -0.2983  -0.1909   0.4844   0.5240
     0.7792   0.7793   0.9212   0.9213   1.2803   1.7506   1.7506   1.9490
     1.9613   1.9613   2.4240   3.2150   3.2151   3.2414   3.4849   3.4850
     4.5056   4.5060   4.8312   4.8315   4.9037   4.9038   5.1208   5.1210
     5.2585   5.2588   5.4226   5.4228   5.9158   5.9968   6.0965   6.2106
    10.0056  10.1075  10.4323  10.4323  10.4895  10.4895  11.0302  11.4323
    12.5691  12.6163  12.9101  13.1232  13.4163

     occupation numbers
     1.0000   1.0000   1.0000   1.0000   1.0000   1.0000   1.0000   1.0000
     1.0000   1.0000   1.0000   1.0000   1.0000   1.0000   1.0000   1.0000
     1.0000   1.0000   1.0000   1.0000   1.0000   1.0000   1.0000   1.0000
     1.0000   1.0000   1.0000   1.0000   1.0000   1.0000   1.0000   1.0000
     1.0000   1.0000   1.0000   1.0000   1.0000   1.0000   1.0000   1.0000
     1.0000   1.0000   1.0000   1.0000   1.0000   1.0000   1.0000   1.0000
     1.0000   1.0000   1.0000   1.0000   1.0000   1.0000   1.0000   1.0000
     1.0000   1.0000   1.0000   1.0000   1.0000   1.0000   1.0000   1.0000
    -0.0000  -0.0000  -0.0000  -0.0000  -0.0000  -0.0000  -0.0000  -0.0000
    -0.0000  -0.0000  -0.0000  -0.0000  -0.0000

     the Fermi energy is     6.5706 ev

!    total energy              =   -1597.87010725 Ry
     estimated scf accuracy    <       0.00000097 Ry
     smearing contrib. (-TS)   =       0.00000000 Ry
     internal energy E=F+TS    =   -1597.87010725 Ry

     The total energy is F=E-TS. E is the sum of the following terms:
     one-electron contribution =    -254.28441108 Ry
     hartree contribution      =     197.25451588 Ry
     xc contribution           =    -178.25309550 Ry
     ewald contribution        =    -498.58825394 Ry
     one-center paw contrib.   =    -863.99886262 Ry
      -> PAW hartree energy AE =     433.82440138 Ry
      -> PAW hartree energy PS =    -432.19325036 Ry
      -> PAW xc energy AE      =    -997.62792118 Ry
      -> PAW xc energy PS      =     131.99790754 Ry
      -> total E_H with PAW    =     198.88566690 Ry
      -> total E_XC with PAW   =   -1043.88310914 Ry

     convergence has been achieved in  14 iterations

     negative rho (up, down):  1.313E-01 0.000E+00

     Forces acting on atoms (cartesian axes, Ry/au):

     atom    1 type  1   force =    -0.00003083    0.00000703   -0.00002540
     atom    2 type  1   force =     0.00003083   -0.00000703    0.00002540
     atom    3 type  2   force =     0.00000000    0.00000000    0.00000000
     atom    4 type  2   force =     0.00000000    0.00000000    0.00000000
     atom    5 type  3   force =     0.01516254    0.00339675    0.00201789
     atom    6 type  3   force =    -0.01515483   -0.00341007   -0.00202055
     atom    7 type  3   force =    -0.01516254   -0.00339675   -0.00201789
     atom    8 type  3   force =     0.01515483    0.00341007    0.00202055
     atom    9 type  4   force =     0.00387635   -0.01162137   -0.01954934
     atom   10 type  4   force =    -0.00146975    0.01217543   -0.01955134
     atom   11 type  4   force =    -0.00383974    0.02274710    0.00096016
     atom   12 type  4   force =    -0.00620167    0.00970024    0.02000279
     atom   13 type  4   force =    -0.00387635    0.01162137    0.01954934
     atom   14 type  4   force =     0.00620167   -0.00970024   -0.02000279
     atom   15 type  4   force =     0.00146975   -0.01217543    0.01955134
     atom   16 type  4   force =    -0.00146815   -0.01141574    0.02000733
     atom   17 type  4   force =     0.00146815    0.01141574   -0.02000733
     atom   18 type  4   force =     0.00618972   -0.02221308    0.00096321
     atom   19 type  4   force =    -0.00618972    0.02221308   -0.00096321
     atom   20 type  4   force =     0.00383974   -0.02274710   -0.00096016
     The non-local contrib.  to forces
     atom    1 type  1   force =    -0.00035631    0.00023144   -0.00017156
     atom    2 type  1   force =     0.00035631   -0.00023144    0.00017156
     atom    3 type  2   force =     0.00000000    0.00000000    0.00000000
     atom    4 type  2   force =     0.00000000    0.00000000    0.00000000
     atom    5 type  3   force =     0.04013655    0.00898127    0.00534137
     atom    6 type  3   force =    -0.04012715   -0.00903307   -0.00535531
     atom    7 type  3   force =    -0.04013655   -0.00898127   -0.00534137
     atom    8 type  3   force =     0.04012715    0.00903307    0.00535531
     atom    9 type  4   force =     0.04999574    1.05078979   -0.11696889
     atom   10 type  4   force =     0.49340686   -0.92897395   -0.11691564
     atom   11 type  4   force =    -0.05008644   -0.39609622   -0.98015965
     atom   12 type  4   force =     0.21425122    0.70255806   -0.76202593
     atom   13 type  4   force =    -0.04999574   -1.05078979    0.11696889
     atom   14 type  4   force =    -0.21425122   -0.70255806    0.76202593
     atom   15 type  4   force =    -0.49340686    0.92897395    0.11691564
     atom   16 type  4   force =     0.49341388   -0.54413886   -0.76205380
     atom   17 type  4   force =    -0.49341388    0.54413886    0.76205380
     atom   18 type  4   force =    -0.21419992    0.33691695   -0.98022682
     atom   19 type  4   force =     0.21419992   -0.33691695    0.98022682
     atom   20 type  4   force =     0.05008644    0.39609622    0.98015965
     The ionic contribution  to forces
     atom    1 type  1   force =     0.00000003   -0.00000012   -0.00000000
     atom    2 type  1   force =    -0.00000003    0.00000012   -0.00000000
     atom    3 type  2   force =    -0.00000000    0.00000000    0.00000000
     atom    4 type  2   force =     0.00000000   -0.00000000    0.00000000
     atom    5 type  3   force =    -0.68148691   -0.15262119   -0.09106268
     atom    6 type  3   force =     0.68148677    0.15262180    0.09106268
     atom    7 type  3   force =     0.68148691    0.15262118    0.09106268
     atom    8 type  3   force =    -0.68148677   -0.15262180   -0.09106268
     atom    9 type  4   force =    -3.91153998   -2.86307300   -1.48545616
     atom   10 type  4   force =    -4.75905558    0.92126111   -1.48545616
     atom   11 type  4   force =     3.91154021    2.66698039    1.81410749
     atom   12 type  4   force =    -4.67541871   -1.24317051    1.51621205
     atom   13 type  4   force =     3.91153998    2.86307300    1.48545616
     atom   14 type  4   force =     4.67541871    1.24317051   -1.51621205
     atom   15 type  4   force =     4.75905558   -0.92126111    1.48545616
     atom   16 type  4   force =    -4.75905549   -0.86971482    1.51621205
     atom   17 type  4   force =     4.75905549    0.86971482   -1.51621205
     atom   18 type  4   force =     4.67541927   -0.74389911    1.81410749
     atom   19 type  4   force =    -4.67541927    0.74389911   -1.81410749
     atom   20 type  4   force =    -3.91154021   -2.66698039   -1.81410749
     The local contribution  to forces
     atom    1 type  1   force =     0.00070128   -0.00082243    0.00000848
     atom    2 type  1   force =     0.00030628   -0.00027535   -0.00016598
     atom    3 type  2   force =    -0.00099064   -0.00019288   -0.00010760
     atom    4 type  2   force =     0.00092195    0.00024976    0.00016096
     atom    5 type  3   force =     0.65798322    0.14731772    0.08786328
     atom    6 type  3   force =    -0.65782248   -0.14742132   -0.08791274
     atom    7 type  3   force =    -0.65831873   -0.14742678   -0.08791969
     atom    8 type  3   force =     0.65816681    0.14749651    0.08792418
     atom    9 type  4   force =     3.86573567    1.81000252    1.58200693
     atom   10 type  4   force =     4.26815019    0.01178259    1.58204139
     atom   11 type  4   force =    -3.86597709   -2.25182849   -0.84134758
     atom   12 type  4   force =     4.45662358    0.55607069   -0.74096700
     atom   13 type  4   force =    -3.86513135   -1.80986979   -1.58193425
     atom   14 type  4   force =    -4.45718596   -0.55621577    0.74088528
     atom   15 type  4   force =    -4.26868736   -0.01192092   -1.58208429
     atom   16 type  4   force =     4.26838958    1.39772397   -0.74102537
     atom   17 type  4   force =    -4.26779116   -1.39759516    0.74108338
     atom   18 type  4   force =    -4.45621565    0.38801878   -0.84143839
     atom   19 type  4   force =     4.45684681   -0.38788850    0.84150314
     atom   20 type  4   force =     3.86536760    2.25167783    0.84127660
     The core correction contribution to forces
     atom    1 type  1   force =     0.00000796   -0.00000894   -0.00000308
     atom    2 type  1   force =     0.00001131   -0.00001046    0.00000121
     atom    3 type  2   force =    -0.00001102   -0.00000227   -0.00000109
     atom    4 type  2   force =     0.00000976    0.00000286    0.00000186
     atom    5 type  3   force =    -0.00154679   -0.00034610   -0.00020551
     atom    6 type  3   force =     0.00154640    0.00034857    0.00020622
     atom    7 type  3   force =     0.00154586    0.00034589    0.00020598
     atom    8 type  3   force =    -0.00154571   -0.00034768   -0.00020640
     atom    9 type  4   force =    -0.00009099   -0.00925415    0.00092699
     atom   10 type  4   force =    -0.00402762    0.00833118    0.00092687
     atom   11 type  4   force =     0.00009213    0.00357923    0.00858278
     atom   12 type  4   force =    -0.00160812   -0.00603442    0.00689204
     atom   13 type  4   force =     0.00008881    0.00925472   -0.00092749
     atom   14 type  4   force =     0.00160978    0.00603414   -0.00689118
     atom   15 type  4   force =     0.00402975   -0.00832985   -0.00092616
     atom   16 type  4   force =    -0.00402952    0.00477228    0.00689158
     atom   17 type  4   force =     0.00402839   -0.00477281   -0.00689254
     atom   18 type  4   force =     0.00160800   -0.00319896    0.00858401
     atom   19 type  4   force =    -0.00160911    0.00319821   -0.00858415
     atom   20 type  4   force =    -0.00009029   -0.00357906   -0.00858343
     The Hubbard contrib.    to forces
     atom    1 type  1   force =     0.00000000    0.00000000    0.00000000
     atom    2 type  1   force =     0.00000000    0.00000000    0.00000000
     atom    3 type  2   force =     0.00000000    0.00000000    0.00000000
     atom    4 type  2   force =     0.00000000    0.00000000    0.00000000
     atom    5 type  3   force =     0.00000000    0.00000000    0.00000000
     atom    6 type  3   force =     0.00000000    0.00000000    0.00000000
     atom    7 type  3   force =     0.00000000    0.00000000    0.00000000
     atom    8 type  3   force =     0.00000000    0.00000000    0.00000000
     atom    9 type  4   force =     0.00000000    0.00000000    0.00000000
     atom   10 type  4   force =     0.00000000    0.00000000    0.00000000
     atom   11 type  4   force =     0.00000000    0.00000000    0.00000000
     atom   12 type  4   force =     0.00000000    0.00000000    0.00000000
     atom   13 type  4   force =     0.00000000    0.00000000    0.00000000
     atom   14 type  4   force =     0.00000000    0.00000000    0.00000000
     atom   15 type  4   force =     0.00000000    0.00000000    0.00000000
     atom   16 type  4   force =     0.00000000    0.00000000    0.00000000
     atom   17 type  4   force =     0.00000000    0.00000000    0.00000000
     atom   18 type  4   force =     0.00000000    0.00000000    0.00000000
     atom   19 type  4   force =     0.00000000    0.00000000    0.00000000
     atom   20 type  4   force =     0.00000000    0.00000000    0.00000000
     The SCF correction term to forces
     atom    1 type  1   force =     0.00006296    0.00010414    0.00007402
     atom    2 type  1   force =    -0.00019632    0.00000715   -0.00004813
     atom    3 type  2   force =     0.00097524    0.00018986    0.00010374
     atom    4 type  2   force =    -0.00094856   -0.00025438   -0.00016020
     atom    5 type  3   force =     0.00006750    0.00006326    0.00008466
     atom    6 type  3   force =    -0.00023433    0.00008514   -0.00002258
     atom    7 type  3   force =     0.00025100    0.00004244   -0.00002228
     atom    8 type  3   force =    -0.00010261   -0.00013883    0.00000896
     atom    9 type  4   force =    -0.00029387   -0.00007865   -0.00006693
     atom   10 type  4   force =     0.00013898   -0.00018596   -0.00012803
     atom   11 type  4   force =     0.00065941    0.00011833   -0.00022795
     atom   12 type  4   force =     0.00003268    0.00027394   -0.00007917
     atom   13 type  4   force =    -0.00044784   -0.00003888   -0.00002270
     atom   14 type  4   force =     0.00069269   -0.00013352    0.00021845
     atom   15 type  4   force =     0.00056122    0.00040206    0.00020978
     atom   16 type  4   force =    -0.00024885   -0.00007770   -0.00004975
     atom   17 type  4   force =    -0.00047293   -0.00008935   -0.00007254
     atom   18 type  4   force =    -0.00048383   -0.00008102   -0.00006699
     atom   19 type  4   force =    -0.00026992   -0.00010906   -0.00000543
     atom   20 type  4   force =     0.00008416    0.00004445    0.00028942

     Total force =     0.085872     Total SCF correction =     0.002230

     Computing stress (Cartesian axis) and pressure

     negative rho (up, down):  1.313E-01 0.000E+00
          total   stress  (Ry/bohr**3)                   (kbar)     P=     -307.58
  -0.00214717  -0.00001969  -0.00001149         -315.86       -2.90       -1.69
  -0.00001969  -0.00206400  -0.00000275           -2.90     -303.63       -0.40
  -0.00001149  -0.00000275  -0.00206151           -1.69       -0.40     -303.26

     kinetic stress (kbar)  16789.51     46.60     27.83
                               46.60  16591.83      6.22
                               27.83      6.22  16585.09

     local   stress (kbar)  -1435.54   3140.28   1873.75
                             3140.28 -14754.36    419.59
                             1873.75    419.59 -15207.33

     nonloc. stress (kbar)   5372.83     -8.38     -5.00
                               -8.38   5408.37     -1.12
                               -5.00     -1.12   5409.58

     hartree stress (kbar)   2101.94  -1093.36   -652.42
                            -1093.36   6739.25   -146.08
                             -652.42   -146.08   6896.98

     exc-cor stress (kbar)   -180.38     -6.72     -4.01
                               -6.72   -151.86     -0.90
                               -4.01     -0.90   -150.89

     corecor stress (kbar)  -3710.79      2.89      1.73
                                2.89  -3723.06      0.39
                                1.73      0.39  -3723.48

     ewald   stress (kbar) -19253.42  -2084.20  -1243.56
                            -2084.20 -10413.80   -278.50
                            -1243.56   -278.50 -10113.20

     hubbard stress (kbar)      0.00      0.00      0.00
                                0.00      0.00      0.00
                                0.00      0.00      0.00

     DFT-D   stress (kbar)      0.00      0.00      0.00
                                0.00      0.00      0.00
                                0.00      0.00      0.00

     XDM     stress (kbar)      0.00      0.00      0.00
                                0.00      0.00      0.00
                                0.00      0.00      0.00

     dft-nl  stress (kbar)      0.00      0.00      0.00
                                0.00      0.00      0.00
                                0.00      0.00      0.00

     TS-vdW  stress (kbar)      0.00      0.00      0.00
                                0.00      0.00      0.00
                                0.00      0.00      0.00

[...]

                                0.00      0.00      0.00

     Writing all to output data dir new_calculations/myprefix.save/

     General routines

     Parallel routines

     PAW routines

   This run was terminated on:  10:39:58  20May2023

   JOB DONE.