     Program PWSCF v.7.0 starts on 21May2023 at  5:11:56

     Reading input from espresso_19756.pwi
Warning: card &CELL ignored
Warning: card / ignored

     Current dimensions of program PWSCF are:
     Max number of different atomic species (ntypx) = 10
     Max number of k-points (npk) =  40000
     Max angular momentum in pseudopotentials (lmaxx) =  4
     file Ga.pbe-dn-kjpaw_psl.1.0.0.UPF: wavefunction(s)  4S renormalized

     gamma-point specific algorithms are used
     Message from routine setup:
     using ibrav=0 with symmetry is DISCOURAGED, use correct ibrav instead

     Subspace diagonalization in iterative solution of the eigenvalue problem:
     a serial algorithm will be used

     Using Slab Decomposition

     bravais-lattice index     =            0
     lattice parameter (alat)  =       8.9136  a.u.
     unit-cell volume          =     500.7795 (a.u.)^3
     number of atoms/cell      =            4
     number of atomic types    =            3
     number of electrons       =        51.00
     number of Kohn-Sham states=           31
     kinetic-energy cutoff     =      30.0000  Ry
     charge density cutoff     =     240.0000  Ry
     scf convergence threshold =      1.0E-06
     mixing beta               =       0.7000
     number of iterations used =            8  plain     mixing
     Exchange-correlation=  SLA  PW   PBX  PBC
                           (   1   4   3   4   0   0   0)

     celldm(1)=   8.913614  celldm(2)=   0.000000  celldm(3)=   0.000000
     celldm(4)=   0.000000  celldm(5)=   0.000000  celldm(6)=   0.000000

     crystal axes: (cart. coord. in units of alat)
               a(1) = (   1.000000   0.000000   0.000000 )
               a(2) = (   0.500000   0.866025   0.000000 )
               a(3) = (   0.500000   0.288675   0.816497 )

     reciprocal axes: (cart. coord. in units 2 pi/alat)
               b(1) = (  1.000000 -0.577350 -0.408248 )
               b(2) = (  0.000000  1.154701 -0.408248 )
               b(3) = (  0.000000  0.000000  1.224745 )

     PseudoPot. # 1 for Sc read from file:
     /home/pragov/projects/rrg-bengioy-ad/pragov/crystal_structure_design/SSSP/Sc_ONCV_PBE-1.0.oncvpsp.upf
     MD5 check sum: e21af8023abb52e52cb7cd3133e4a229
     Pseudo is Norm-conserving, Zval = 11.0
     Generated using ONCVPSP code by D. R. Hamann
     Using radial grid of 1662 points,  6 beta functions with:
                l(1) =   0
                l(2) =   0
                l(3) =   1
                l(4) =   1
                l(5) =   2
                l(6) =   2

     PseudoPot. # 2 for Ga read from file:
     /home/pragov/projects/rrg-bengioy-ad/pragov/crystal_structure_design/SSSP/Ga.pbe-dn-kjpaw_psl.1.0.0.UPF
     MD5 check sum: a27b4342b1af7e5f338de752e9ed7044
     Pseudo is Projector augmented-wave + core cor, Zval = 13.0
     Generated using "atomic" code by A. Dal Corso  v.5.1
     Shape of augmentation charge: PSQ
     Using radial grid of 1205 points,  6 beta functions with:
                l(1) =   0
                l(2) =   0
                l(3) =   1
                l(4) =   1
                l(5) =   2
                l(6) =   2
     Q(r) pseudized with 0 coefficients

     PseudoPot. # 3 for Pt read from file:
     /home/pragov/projects/rrg-bengioy-ad/pragov/crystal_structure_design/SSSP/pt_pbe_v1.4.uspp.F.UPF
     MD5 check sum: f09d6de1a584b5a045c4fc126da2d0c4
     Pseudo is Ultrasoft + core correction, Zval = 16.0
     Generated by new atomic code, or converted to UPF format
     Using radial grid of  985 points,  6 beta functions with:
                l(1) =   0
                l(2) =   0
                l(3) =   1
                l(4) =   1
                l(5) =   2
                l(6) =   2
     Q(r) pseudized with  8 coefficients,  rinner =    1.300   1.300   1.300
                                                       1.300   1.300

     atomic species   valence    mass     pseudopotential
        Sc            11.00    44.95591     Sc( 1.00)
        Ga            13.00    69.72300     Ga( 1.00)
        Pt            16.00   195.08400     Pt( 1.00)

     12 Sym. Ops., with inversion, found

                                    s                        frac. trans.

      isym =  1     identity

 cryst.   s( 1) = (     1          0          0      )
                  (     0          1          0      )
                  (     0          0          1      )

 cart.    s( 1) = (  1.0000000  0.0000000  0.0000000 )
                  (  0.0000000  1.0000000  0.0000000 )
                  (  0.0000000  0.0000000  1.0000000 )

      isym =  2     180 deg rotation - cart. axis [1,0,0]

[...]

      isym =  3     120 deg rotation - cryst. axis [0,0,1]

[...]

      isym =  6     180 deg rotation - cryst. axis [1,1,0]

[...]

      isym =  7     inversion

[...]

      isym =  8     inv. 180 deg rotation - cart. axis [1,0,0]

[...]

      isym =  9     inv. 120 deg rotation - cryst. axis [0,0,1]

 cryst.   s( 9) = (     1         -1          0      )
                  (     1          0          0      )
                  (     1          0         -1      )

 cart.    s( 9) = (  0.5000000  0.8660254  0.0000000 )
                  ( -0.8660254  0.5000000  0.0000000 )
                  (  0.0000000  0.0000000 -1.0000000 )

[...]

 cryst.   s(10) = (     0          1          0      )
                  (    -1          1          0      )
                  (     0          1         -1      )

 cart.    s(10) = (  0.5000000 -0.8660254 -0.0000000 )
                  (  0.8660254  0.5000000  0.0000000 )
                  (  0.0000000  0.0000000 -1.0000000 )

[...]

      isym = 12     inv. 180 deg rotation - cryst. axis [1,1,0]

 cryst.   s(12) = (     1         -1          0      )
                  (     0         -1          0      )
                  (     0         -1          1      )

 cart.    s(12) = (  0.5000000 -0.8660254 -0.0000000 )
                  ( -0.8660254 -0.5000000 -0.0000000 )
                  (  0.0000000  0.0000000  1.0000000 )

   Cartesian axes

     site n.     atom                  positions (alat units)
         1           Sc  tau(   1) = (   0.5000000   0.2886751   0.2041241  )
         2           Sc  tau(   2) = (   1.5000000   0.8660254   0.6123724  )
         3           Ga  tau(   3) = (   1.0000000   0.5773503   0.4082483  )
         4           Pt  tau(   4) = (   0.0000000   0.0000000   0.0000000  )

   Crystallographic axes

     site n.     atom                  positions (cryst. coord.)
         1           Sc  tau(   1) = (  0.2500000  0.2500000  0.2500000  )
         2           Sc  tau(   2) = (  0.7500000  0.7500000  0.7500000  )
         3           Ga  tau(   3) = (  0.5000000  0.5000000  0.5000000  )
         4           Pt  tau(   4) = (  0.0000000  0.0000000  0.0000000  )

     number of k points=     1  Methfessel-Paxton smearing, width (Ry)=  0.0010
                       cart. coord. in units 2pi/alat
        k(    1) = (   0.0000000   0.0000000   0.0000000), wk =   2.0000000

                       cryst. coord.
        k(    1) = (   0.0000000   0.0000000   0.0000000), wk =   2.0000000

     Check: negative core charge=   -0.000002

     Initial potential from superposition of free atoms

     starting charge      50.4918, renormalised to      51.0000

     negative rho (up, down):  1.871E-01 0.000E+00
     Starting wfcs are   41 randomized atomic wfcs
     Checking if some PAW data can be deallocated...

     Self-consistent Calculation

     iteration #  1     ecut=    30.00 Ry     beta= 0.70
     Davidson diagonalization with overlap

     ethr =  1.00E-02,  avg # of iterations =  2.0

     negative rho (up, down):  1.682E-01 0.000E+00

     total energy              =    -671.44694037 Ry
     estimated scf accuracy    <       1.90358210 Ry

[...]

     total energy              =    -672.64789798 Ry
     estimated scf accuracy    <       0.00000152 Ry

     iteration # 11     ecut=    30.00 Ry     beta= 0.70
     Davidson diagonalization with overlap

     ethr =  2.99E-09,  avg # of iterations =  6.0

[...]

     End of self-consistent calculation

          k = 0.0000 0.0000 0.0000 (   706 PWs)   bands (ev):

   -39.5024 -39.5024 -39.5023 -35.6829 -35.6349 -14.3420 -14.3420 -14.3419
   -14.1986 -14.1986 -14.1985  -0.4631  -0.4631  -0.4631  -0.4401  -0.4401
     5.1644   9.8689   9.8689  10.0022  10.0022  10.0022  11.8713  11.8713
    11.8713  13.6680  15.0084  15.0085  17.0733  17.0733  17.0733

     occupation numbers
     1.0000   1.0000   1.0000   1.0000   1.0000   1.0000   1.0000   1.0000
     1.0000   1.0000   1.0000   1.0000   1.0000   1.0000   1.0000   1.0000
     1.0000   1.0000   1.0000   1.0000   1.0000   1.0000   1.0000   1.0000
     1.0000   0.5000  -0.0000  -0.0000  -0.0000  -0.0000  -0.0000

     the Fermi energy is    13.6680 ev

!    total energy              =    -672.64789869 Ry
     estimated scf accuracy    <       0.00000014 Ry
     smearing contrib. (-TS)   =      -0.00028209 Ry
     internal energy E=F+TS    =    -672.64761660 Ry

     The total energy is F=E-TS. E is the sum of the following terms:
     one-electron contribution =    -187.67574163 Ry
     hartree contribution      =     125.55353349 Ry
     xc contribution           =    -118.97324698 Ry
     ewald contribution        =    -380.65294259 Ry
     one-center paw contrib.   =    -110.89921890 Ry
      -> PAW hartree energy AE =     143.05059760 Ry
      -> PAW hartree energy PS =    -140.78697139 Ry
      -> PAW xc energy AE      =    -150.94044000 Ry
      -> PAW xc energy PS      =      37.77759489 Ry
      -> total E_H with PAW    =     127.81715971 Ry
      -> total E_XC with PAW   =    -232.13609209 Ry

     convergence has been achieved in  11 iterations

     negative rho (up, down):  1.758E-01 0.000E+00

     Forces acting on atoms (cartesian axes, Ry/au):

     atom    1 type  1   force =     0.00000000    0.00000000   -0.00000005
     atom    2 type  1   force =     0.00000000    0.00000000    0.00000005
     atom    3 type  2   force =     0.00000000    0.00000000    0.00000000
     atom    4 type  3   force =     0.00000000    0.00000000    0.00000000
     The non-local contrib.  to forces
     atom    1 type  1   force =     0.00000000    0.00000000    0.00000138
     atom    2 type  1   force =     0.00000000    0.00000000   -0.00000138
     atom    3 type  2   force =     0.00000000   -0.00000000   -0.00000000
     atom    4 type  3   force =     0.00000000    0.00000000   -0.00000000
     The ionic contribution  to forces
     atom    1 type  1   force =    -0.00000000   -0.00000000   -0.00000000
     atom    2 type  1   force =     0.00000000    0.00000000   -0.00000000
     atom    3 type  2   force =    -0.00000000   -0.00000000    0.00000000
     atom    4 type  3   force =    -0.00000000    0.00000000   -0.00000000
     The local contribution  to forces
     atom    1 type  1   force =    -0.00000787   -0.00001723    0.00006552
     atom    2 type  1   force =    -0.00003478    0.00000851    0.00004860
     atom    3 type  2   force =    -0.00033084    0.00016842    0.00032616
     atom    4 type  3   force =     0.00001824    0.00004931   -0.00022644
     The core correction contribution to forces
     atom    1 type  1   force =     0.00000000    0.00000000    0.00000000
     atom    2 type  1   force =     0.00000000    0.00000000    0.00000000
     atom    3 type  2   force =    -0.00000964    0.00000468    0.00000877
     atom    4 type  3   force =     0.00000053    0.00000219   -0.00000408
     The Hubbard contrib.    to forces
     atom    1 type  1   force =     0.00000000    0.00000000    0.00000000
     atom    2 type  1   force =     0.00000000    0.00000000    0.00000000
     atom    3 type  2   force =     0.00000000    0.00000000    0.00000000
     atom    4 type  3   force =     0.00000000    0.00000000    0.00000000
     The SCF correction term to forces
     atom    1 type  1   force =     0.00001227    0.00001724   -0.00008205
     atom    2 type  1   force =     0.00004386   -0.00001064   -0.00006227
     atom    3 type  2   force =     0.00054707   -0.00027377   -0.00053949
     atom    4 type  3   force =    -0.00002427   -0.00004537    0.00024941

     Total force =     0.000000     Total SCF correction =     0.000862
     SCF correction compared to forces is large: reduce conv_thr to get better values

     Computing stress (Cartesian axis) and pressure

     negative rho (up, down):  1.758E-01 0.000E+00
          total   stress  (Ry/bohr**3)                   (kbar)     P=     -198.73
  -0.00135089   0.00000000   0.00000000         -198.72        0.00        0.00
   0.00000000  -0.00135089  -0.00000000            0.00     -198.72       -0.00
   0.00000000  -0.00000000  -0.00135103            0.00       -0.00     -198.74

     kinetic stress (kbar)  26594.44      0.00      0.00
                                0.00  26594.44      0.00
                                0.00      0.00  26594.43

     local   stress (kbar)   8997.18      0.01     -0.00
                                0.01   8997.16      0.01
                               -0.00      0.01   8997.15

     nonloc. stress (kbar)  -3186.23     -0.00      0.00
                               -0.00  -3186.23     -0.00
                                0.00     -0.00  -3186.24

     hartree stress (kbar)  12293.87     -0.00      0.00
                               -0.00  12293.88     -0.00
                                0.00     -0.00  12293.88

     exc-cor stress (kbar)   7955.21     -0.00      0.00
                               -0.00   7955.21     -0.00
                                0.00     -0.00   7955.21

     corecor stress (kbar) -15580.64     -0.00      0.00
                               -0.00 -15580.64      0.00
                                0.00      0.00 -15580.64

     ewald   stress (kbar) -37272.55     -0.00      0.00
                               -0.00 -37272.55     -0.00
                                0.00     -0.00 -37272.55

     hubbard stress (kbar)      0.00      0.00      0.00
                                0.00      0.00      0.00
                                0.00      0.00      0.00

     DFT-D   stress (kbar)      0.00      0.00      0.00
                                0.00      0.00      0.00
                                0.00      0.00      0.00

     XDM     stress (kbar)      0.00      0.00      0.00
                                0.00      0.00      0.00
                                0.00      0.00      0.00

     dft-nl  stress (kbar)      0.00      0.00      0.00
                                0.00      0.00      0.00
                                0.00      0.00      0.00

     TS-vdW  stress (kbar)      0.00      0.00      0.00
                                0.00      0.00      0.00
                                0.00      0.00      0.00

[...]

                                0.00      0.00      0.00

     Writing all to output data dir new_calculations/myprefix.save/

     General routines

     Parallel routines

     PAW routines

   This run was terminated on:   5:12: 3  21May2023

   JOB DONE.