     Program PWSCF v.7.0 starts on 21May2023 at 19:11:55

     Reading input from espresso_19961.pwi
Warning: card &CELL ignored
Warning: card / ignored

     Current dimensions of program PWSCF are:
     Max number of different atomic species (ntypx) = 10
     Max number of k-points (npk) =  40000
     Max angular momentum in pseudopotentials (lmaxx) =  4
     file O.pbe-n-kjpaw_psl.0.1.UPF: wavefunction(s)  2P renormalized

     gamma-point specific algorithms are used
     Message from routine setup:
     using ibrav=0 with symmetry is DISCOURAGED, use correct ibrav instead

     Subspace diagonalization in iterative solution of the eigenvalue problem:
     a serial algorithm will be used

     Using Slab Decomposition

     bravais-lattice index     =            0
     lattice parameter (alat)  =       6.7183  a.u.
     unit-cell volume          =     854.0922 (a.u.)^3
     number of atoms/cell      =            6
     number of atomic types    =            3
     number of electrons       =        56.00
     number of Kohn-Sham states=           34
     kinetic-energy cutoff     =      30.0000  Ry
     charge density cutoff     =     240.0000  Ry
     scf convergence threshold =      1.0E-06
     mixing beta               =       0.7000
     number of iterations used =            8  plain     mixing
     Exchange-correlation= SLA  PW   PBX  PBC
                           (   1   4   3   4   0   0   0)

     celldm(1)=   6.718275  celldm(2)=   0.000000  celldm(3)=   0.000000
     celldm(4)=   0.000000  celldm(5)=   0.000000  celldm(6)=   0.000000

     crystal axes: (cart. coord. in units of alat)
               a(1) = (   1.000000   0.000000   0.000000 )
               a(2) = (  -0.500000   0.866025   0.000000 )
               a(3) = (   0.000000   0.000000   3.252377 )

     reciprocal axes: (cart. coord. in units 2 pi/alat)
               b(1) = (  1.000000  0.577350  0.000000 )
               b(2) = (  0.000000  1.154701  0.000000 )
               b(3) = (  0.000000  0.000000  0.307467 )

     PseudoPot. # 1 for Na read from file:
     /home/pragov/projects/rrg-bengioy-ad/pragov/crystal_structure_design/SSSP/na_pbe_v1.5.uspp.F.UPF
     MD5 check sum: 44600605ef58000f06b90626533354dc
     Pseudo is Ultrasoft, Zval =  9.0
     Generated by new atomic code, or converted to UPF format
     Using radial grid of  819 points,  5 beta functions with:
                l(1) =   0
                l(2) =   0
                l(3) =   1
                l(4) =   1
                l(5) =   2
     Q(r) pseudized with  8 coefficients,  rinner =    1.250   1.250   1.250
                                                       1.250   1.250

     PseudoPot. # 2 for Tl read from file:
     /home/pragov/projects/rrg-bengioy-ad/pragov/crystal_structure_design/SSSP/Tl_pbe_v1.2.uspp.F.UPF
     MD5 check sum: b76cf1f7e72655a2b2c53cf6385d7059
     Pseudo is Ultrasoft + core correction, Zval = 13.0
     Generated by new atomic code, or converted to UPF format
     Using radial grid of  899 points,  6 beta functions with:
                l(1) =   0
                l(2) =   0
                l(3) =   1
                l(4) =   1
                l(5) =   2
                l(6) =   2
     Q(r) pseudized with  6 coefficients,  rinner =    1.100   1.100   1.100
                                                       1.100   1.100

     PseudoPot. # 3 for O  read from file:
     /home/pragov/projects/rrg-bengioy-ad/pragov/crystal_structure_design/SSSP/O.pbe-n-kjpaw_psl.0.1.UPF
     MD5 check sum: 0234752ac141de4415c5fc33072bef88
     Pseudo is Projector augmented-wave + core cor, Zval =  6.0
     Generated using "atomic" code by A. Dal Corso  v.5.0.99 svn rev. 10869
     Shape of augmentation charge: BESSEL
     Using radial grid of 1095 points,  4 beta functions with:
                l(1) =   0
                l(2) =   0
                l(3) =   1
                l(4) =   1
     Q(r) pseudized with 0 coefficients

     atomic species   valence    mass     pseudopotential
        Na             9.00    22.98977     Na( 1.00)
        Tl            13.00   204.38000     Tl( 1.00)
        O              6.00    15.99900     O ( 1.00)

     12 Sym. Ops. (no inversion) found ( 6 have fractional translation)

                                    s                        frac. trans.

      isym =  1     identity

 cryst.   s( 1) = (     1          0          0      )
                  (     0          1          0      )
                  (     0          0          1      )

 cart.    s( 1) = (  1.0000000 -0.0000000  0.0000000 )
                  (  0.0000000  1.0000000  0.0000000 )
                  (  0.0000000  0.0000000  1.0000000 )

      isym =  2     180 deg rotation - cart. axis [0,0,1]

 cryst.   s( 2) = (    -1          0          0      )    f =( -0.0000000 )
                  (     0         -1          0      )       (  0.0000000 )
                  (     0          0          1      )       ( -0.5000000 )

 cart.    s( 2) = ( -1.0000000  0.0000000  0.0000000 )    f =( -0.0000000 )
                  (  0.0000000 -1.0000000  0.0000000 )       (  0.0000000 )
                  (  0.0000000  0.0000000  1.0000000 )       ( -1.6261883 )

      isym =  3      60 deg rotation - cryst. axis [0,0,1]

[...]

      isym =  6     120 deg rotation - cryst. axis [0,0,-1]

[...]

      isym =  7     inv. 180 deg rotation - cart. axis [0,1,0]

[...]

      isym =  8     inv. 180 deg rotation - cart. axis [1,0,0]

 cryst.   s( 8) = (    -1          0          0      )
                  (     1          1          0      )
                  (     0          0          1      )

 cart.    s( 8) = ( -1.0000000  0.0000001  0.0000000 )
                  (  0.0000000  1.0000000  0.0000000 )
                  (  0.0000000  0.0000000  1.0000000 )

      isym =  9     inv. 180 deg rotation - cryst. axis [1,-1,0]

 cryst.   s( 9) = (     0          1          0      )    f =( -0.0000000 )
                  (     1          0          0      )       ( -0.0000000 )
                  (     0          0          1      )       ( -0.5000000 )

 cart.    s( 9) = ( -0.5000000  0.8660254  0.0000000 )    f =( -0.0000000 )
                  (  0.8660254  0.5000000  0.0000000 )       ( -0.0000000 )
                  (  0.0000000  0.0000000  1.0000000 )       ( -1.6261883 )

[...]

 cryst.   s(10) = (    -1         -1          0      )    f =( -0.0000000 )
                  (     0          1          0      )       ( -0.0000010 )
                  (     0          0          1      )       ( -0.5000000 )

 cart.    s(10) = ( -0.5000000 -0.8660253  0.0000000 )    f =(  0.0000005 )
                  ( -0.8660254  0.5000000  0.0000000 )       ( -0.0000009 )
                  (  0.0000000  0.0000000  1.0000000 )       ( -1.6261883 )

[...]

 cryst.   s(11) = (     1          1          0      )
                  (     0         -1          0      )
                  (     0          0          1      )

 cart.    s(11) = (  0.5000000  0.8660253  0.0000000 )
                  (  0.8660254 -0.5000000  0.0000000 )
                  (  0.0000000  0.0000000  1.0000000 )

      isym = 12     inv. 180 deg rotation - cryst. axis [1,1,0]

 cryst.   s(12) = (     0         -1          0      )
                  (    -1          0          0      )
                  (     0          0          1      )

 cart.    s(12) = (  0.5000000 -0.8660254  0.0000000 )
                  ( -0.8660254 -0.5000000  0.0000000 )
                  (  0.0000000  0.0000000  1.0000000 )

   Cartesian axes

     site n.     atom                  positions (alat units)
         1           Na  tau(   1) = (  -0.0000005   0.5773506   1.2825974  )
         2           Na  tau(   2) = (   0.5000005   0.2886749   2.9087857  )
         3           Tl  tau(   3) = (   0.5000005   0.2886749   2.0007775  )
         4           Tl  tau(   4) = (  -0.0000005   0.5773506   0.3745892  )
         5           O   tau(   5) = (   0.0000000   0.0000000   1.5951899  )
         6           O   tau(   6) = (   0.0000000   0.0000000   3.2213781  )

   Crystallographic axes

     site n.     atom                  positions (cryst. coord.)
         1           Na  tau(   1) = (  0.3333330  0.6666670  0.3943570  )
         2           Na  tau(   2) = (  0.6666670  0.3333330  0.8943570  )
         3           Tl  tau(   3) = (  0.6666670  0.3333330  0.6151740  )
         4           Tl  tau(   4) = (  0.3333330  0.6666670  0.1151740  )
         5           O   tau(   5) = (  0.0000000  0.0000000  0.4904690  )
         6           O   tau(   6) = (  0.0000000  0.0000000  0.9904690  )

     number of k points=     1  Methfessel-Paxton smearing, width (Ry)=  0.0010
                       cart. coord. in units 2pi/alat
        k(    1) = (   0.0000000   0.0000000   0.0000000), wk =   2.0000000

                       cryst. coord.
        k(    1) = (   0.0000000   0.0000000   0.0000000), wk =   2.0000000

     Check: negative core charge=   -0.000009

     Initial potential from superposition of free atoms

     starting charge      55.9777, renormalised to      56.0000

     negative rho (up, down):  9.649E-02 0.000E+00
     Starting wfcs are   36 randomized atomic wfcs
     Checking if some PAW data can be deallocated...

     Self-consistent Calculation

     iteration #  1     ecut=    30.00 Ry     beta= 0.70
     Davidson diagonalization with overlap

     ethr =  1.00E-02,  avg # of iterations =  3.0

     negative rho (up, down):  1.016E-01 0.000E+00

     total energy              =    -562.49612101 Ry
     estimated scf accuracy    <       2.68569886 Ry

[...]

     total energy              =    -563.95911526 Ry
     estimated scf accuracy    <       0.00000359 Ry

     iteration # 31     ecut=    30.00 Ry     beta= 0.70
     Davidson diagonalization with overlap

     ethr =  6.40E-09,  avg # of iterations =  1.0

[...]

     End of self-consistent calculation

          k = 0.0000 0.0000 0.0000 (  1181 PWs)   bands (ev):

   -44.7243 -44.6842 -16.7448 -16.7050 -16.5775 -16.5775 -16.5369 -16.5369
    -9.3720  -9.3138  -6.1904  -6.1608  -6.1608  -6.1507  -6.1216  -6.1216
    -5.8775  -5.8775  -5.8380  -5.8380  -1.2615  -1.1369   4.5534   5.7110
     6.1318   6.1318   6.1966   6.1966   6.2202   8.2218  10.5740  12.7436
    14.5994  14.6029

     occupation numbers
     1.0000   1.0000   1.0000   1.0000   1.0000   1.0000   1.0000   1.0000
     1.0000   1.0000   1.0000   1.0000   1.0000   1.0000   1.0000   1.0000
     1.0000   1.0000   1.0000   1.0000   1.0000   1.0000   1.0000   1.0000
     1.0000   1.0000   1.0036   1.0031  -0.0068  -0.0000  -0.0000  -0.0000
    -0.0000  -0.0000

     the Fermi energy is     6.2083 ev

!    total energy              =    -563.95911490 Ry
     estimated scf accuracy    <       0.00000041 Ry
     smearing contrib. (-TS)   =       0.00019701 Ry
     internal energy E=F+TS    =    -563.95931191 Ry

     The total energy is F=E-TS. E is the sum of the following terms:
     one-electron contribution =    -259.90697017 Ry
     hartree contribution      =     162.41092190 Ry
     xc contribution           =    -167.94276823 Ry
     ewald contribution        =    -279.50326857 Ry
     one-center paw contrib.   =     -19.01722685 Ry
      -> PAW hartree energy AE =      59.72423539 Ry
      -> PAW hartree energy PS =     -59.49659066 Ry
      -> PAW xc energy AE      =     -34.40471838 Ry
      -> PAW xc energy PS      =      15.15984679 Ry
      -> total E_H with PAW    =     162.63856664 Ry
      -> total E_XC with PAW   =    -187.18763981 Ry

     convergence has been achieved in  31 iterations

     negative rho (up, down):  1.063E-01 0.000E+00

     Forces acting on atoms (cartesian axes, Ry/au):

     atom    1 type  1   force =    -0.00000000   -0.00000000    0.02958226
     atom    2 type  1   force =     0.00000000    0.00000000    0.02958226
     atom    3 type  2   force =     0.00000000    0.00000000    0.05385906
     atom    4 type  2   force =    -0.00000000   -0.00000000    0.05385906
     atom    5 type  3   force =    -0.00000000   -0.00000000   -0.08344132
     atom    6 type  3   force =     0.00000000    0.00000000   -0.08344132
     The non-local contrib.  to forces
     atom    1 type  1   force =     0.00000000    0.00000000   -0.29625674
     atom    2 type  1   force =     0.00000000   -0.00000000   -0.29625674
     atom    3 type  2   force =     0.00000000    0.00000000   -0.21429665
     atom    4 type  2   force =     0.00000000    0.00000000   -0.21429665
     atom    5 type  3   force =     0.00000000   -0.00000000    0.06184973
     atom    6 type  3   force =     0.00000000    0.00000000    0.06184973
     The ionic contribution  to forces
     atom    1 type  1   force =     0.00000825   -0.00000477  -10.13745752
     atom    2 type  1   force =    -0.00000825    0.00000477  -10.13745752
     atom    3 type  2   force =    -0.00000754    0.00000435   12.76828382
     atom    4 type  2   force =     0.00000754   -0.00000435   12.76828382
     atom    5 type  3   force =    -0.00000074    0.00000043   -2.63082630
     atom    6 type  3   force =     0.00000074   -0.00000043   -2.63082630
     The local contribution  to forces
     atom    1 type  1   force =    -0.00001315    0.00000237   10.45800838
     atom    2 type  1   force =    -0.00006037    0.00007137   10.46769906
     atom    3 type  2   force =    -0.00000849   -0.00001233  -12.52670011
     atom    4 type  2   force =     0.00013684   -0.00012413  -12.52423719
     atom    5 type  3   force =    -0.00023860   -0.00012732    2.48921802
     atom    6 type  3   force =     0.00123414   -0.00090880    2.48135983
     The core correction contribution to forces
     atom    1 type  1   force =     0.00000000    0.00000000    0.00000000
     atom    2 type  1   force =     0.00000000    0.00000000    0.00000000
     atom    3 type  2   force =    -0.00000205   -0.00000022    0.02572668
     atom    4 type  2   force =     0.00001354   -0.00001065    0.02572736
     atom    5 type  3   force =    -0.00000285   -0.00000159    0.00020709
     atom    6 type  3   force =     0.00001519   -0.00001143    0.00009535
     The Hubbard contrib.    to forces
     atom    1 type  1   force =     0.00000000    0.00000000    0.00000000
     atom    2 type  1   force =     0.00000000    0.00000000    0.00000000
     atom    3 type  2   force =     0.00000000    0.00000000    0.00000000
     atom    4 type  2   force =     0.00000000    0.00000000    0.00000000
     atom    5 type  3   force =     0.00000000    0.00000000    0.00000000
     atom    6 type  3   force =     0.00000000    0.00000000    0.00000000
     The SCF correction term to forces
     atom    1 type  1   force =     0.00001173   -0.00000170   -0.00014749
     atom    2 type  1   force =     0.00004531   -0.00006076    0.00096286
     atom    3 type  2   force =     0.00001045    0.00000511    0.00140719
     atom    4 type  2   force =    -0.00009167    0.00009067   -0.00225041
     atom    5 type  3   force =     0.00005945    0.00004274    0.00019627
     atom    6 type  3   force =    -0.00028339    0.00020356   -0.00007634

     Total force =     0.146549     Total SCF correction =     0.002861

     Computing stress (Cartesian axis) and pressure

     negative rho (up, down):  1.063E-01 0.000E+00
          total   stress  (Ry/bohr**3)                   (kbar)     P=     -217.82
  -0.00212130   0.00000000   0.00000000         -312.05        0.00        0.00
   0.00000000  -0.00212130   0.00000000            0.00     -312.05        0.00
   0.00000000   0.00000000  -0.00019963            0.00        0.00      -29.37

     kinetic stress (kbar)  10915.93     -0.00      0.00
                               -0.00  10915.93      0.00
                                0.00      0.00  10644.60

     local   stress (kbar)   2948.18     -0.17      0.08
                               -0.17   2947.79     -0.08
                                0.08     -0.08  22288.90

     nonloc. stress (kbar)  -8448.56      0.00      0.00
                                0.00  -8448.55      0.00
                                0.00      0.00  -8346.81

     hartree stress (kbar)  12285.16      0.04     -0.05
                                0.04  12285.24      0.05
                               -0.05      0.05   3402.54

     exc-cor stress (kbar)  11510.36      0.00     -0.00
                                0.00  11510.37      0.00
                               -0.00      0.00  11506.06

     corecor stress (kbar) -16809.13     -0.00      0.00
                               -0.00 -16809.13     -0.00
                                0.00     -0.00 -16811.94

     ewald   stress (kbar) -12713.85     -0.01     -0.00
                               -0.01 -12713.86      0.00
                               -0.00      0.00 -22712.70

     hubbard stress (kbar)      0.00      0.00      0.00
                                0.00      0.00      0.00
                                0.00      0.00      0.00

     DFT-D   stress (kbar)      0.00      0.00      0.00
                                0.00      0.00      0.00
                                0.00      0.00      0.00

     XDM     stress (kbar)      0.00      0.00      0.00
                                0.00      0.00      0.00
                                0.00      0.00      0.00

     dft-nl  stress (kbar)      0.00      0.00      0.00
                                0.00      0.00      0.00
                                0.00      0.00      0.00

     TS-vdW  stress (kbar)      0.00      0.00      0.00
                                0.00      0.00      0.00
                                0.00      0.00      0.00

[...]

                                0.00      0.00      0.00

     Writing all to output data dir new_calculations/myprefix.save/

     General routines

     Parallel routines

     PAW routines

   This run was terminated on:  19:12:31  21May2023

   JOB DONE.