     Program PWSCF v.7.0 starts on 20May2023 at 10:21:39

     Reading input from espresso_16260.pwi
Warning: card &CELL ignored
Warning: card / ignored

     Current dimensions of program PWSCF are:
     Max number of different atomic species (ntypx) = 10
     Max number of k-points (npk) =  40000
     Max angular momentum in pseudopotentials (lmaxx) =  4

     gamma-point specific algorithms are used
     Message from routine setup:
     using ibrav=0 with symmetry is DISCOURAGED, use correct ibrav instead

     Subspace diagonalization in iterative solution of the eigenvalue problem:
     a serial algorithm will be used

     Using Slab Decomposition

     bravais-lattice index     =            0
     lattice parameter (alat)  =       5.9695  a.u.
     unit-cell volume          =    1174.6537 (a.u.)^3
     number of atoms/cell      =           14
     number of atomic types    =            3
     number of electrons       =       106.00
     number of Kohn-Sham states=           64
     kinetic-energy cutoff     =      30.0000  Ry
     charge density cutoff     =     240.0000  Ry
     scf convergence threshold =      1.0E-06
     mixing beta               =       0.7000
     number of iterations used =            8  plain     mixing
     Exchange-correlation=  SLA  PW   PBX  PBC
                           (   1   4   3   4   0   0   0)

     celldm(1)=   5.969452  celldm(2)=   0.000000  celldm(3)=   0.000000
     celldm(4)=   0.000000  celldm(5)=   0.000000  celldm(6)=   0.000000

     crystal axes: (cart. coord. in units of alat)
               a(1) = (   1.000000   0.000000   0.000000 )
               a(2) = (   0.000000   1.684747   0.000000 )
               a(3) = (   0.000000   1.311325   3.277719 )

     reciprocal axes: (cart. coord. in units 2 pi/alat)
               b(1) = (  1.000000  0.000000  0.000000 )
               b(2) = (  0.000000  0.593561 -0.237467 )
               b(3) = (  0.000000  0.000000  0.305090 )

     PseudoPot. # 1 for Li read from file:
     /home/pragov/projects/rrg-bengioy-ad/pragov/crystal_structure_design/SSSP/li_pbe_v1.4.uspp.F.UPF
     MD5 check sum: e912e257baa3777c20ea3d68f190483c
     Pseudo is Ultrasoft, Zval =  3.0
     Generated by new atomic code, or converted to UPF format
     Using radial grid of  751 points,  5 beta functions with:
                l(1) =   0
                l(2) =   0
                l(3) =   0
                l(4) =   1
                l(5) =   1
     Q(r) pseudized with 10 coefficients,  rinner =    1.150   1.150   1.150

     PseudoPot. # 2 for Ag read from file:
     /home/pragov/projects/rrg-bengioy-ad/pragov/crystal_structure_design/SSSP/Ag_ONCV_PBE-1.0.oncvpsp.upf
     MD5 check sum: 94f47bd0669c641108e45594df92fabc
     Pseudo is Norm-conserving, Zval = 19.0
     Generated using ONCVPSP code by D. R. Hamann
     Using radial grid of 1398 points,  6 beta functions with:
                l(1) =   0
                l(2) =   0
                l(3) =   1
                l(4) =   1
                l(5) =   2
                l(6) =   2

     PseudoPot. # 3 for F  read from file:
     /home/pragov/projects/rrg-bengioy-ad/pragov/crystal_structure_design/SSSP/f_pbe_v1.4.uspp.F.UPF
     MD5 check sum: 4c38b6a325caf53ec0e86aed9459de46
     Pseudo is Ultrasoft, Zval =  7.0
     Generated by new atomic code, or converted to UPF format
     Using radial grid of  799 points,  4 beta functions with:
                l(1) =   0
                l(2) =   0
                l(3) =   1
                l(4) =   1
     Q(r) pseudized with  8 coefficients,  rinner =    0.950   0.950   0.950

     atomic species   valence    mass     pseudopotential
        Li             3.00     6.94000     Li( 1.00)
        Ag            19.00   107.86820     Ag( 1.00)
        F              7.00    18.99840     F ( 1.00)

      4 Sym. Ops., with inversion, found ( 2 have fractional translation)

                                    s                        frac. trans.

      isym =  1     identity

 cryst.   s( 1) = (     1          0          0      )
                  (     0          1          0      )
                  (     0          0          1      )

 cart.    s( 1) = (  1.0000000  0.0000000  0.0000000 )
                  (  0.0000000  1.0000000 -0.0000000 )
                  (  0.0000000  0.0000000  1.0000000 )

      isym =  2     180 deg rotation - cart. axis [1,0,0]

 cryst.   s( 2) = (     1          0          0      )    f =(  0.0000000 )
                  (     0         -1          0      )       (  0.0000000 )
                  (     0          0         -1      )       ( -0.5000000 )

 cart.    s( 2) = (  1.0000000  0.0000000  0.0000000 )    f =(  0.0000000 )
                  (  0.0000000 -1.0000000  0.0000000 )       ( -0.6556627 )
                  (  0.0000000  0.0000000 -1.0000000 )       ( -1.6388593 )

      isym =  3     inversion

 cryst.   s( 3) = (    -1          0          0      )
                  (     0         -1          0      )
                  (     0          0         -1      )

 cart.    s( 3) = ( -1.0000000  0.0000000  0.0000000 )
                  (  0.0000000 -1.0000000  0.0000000 )
                  (  0.0000000  0.0000000 -1.0000000 )

      isym =  4     inv. 180 deg rotation - cart. axis [1,0,0]

 cryst.   s( 4) = (    -1          0          0      )    f =(  0.0000000 )
                  (     0          1          0      )       (  0.0000000 )
                  (     0          0          1      )       ( -0.5000000 )

 cart.    s( 4) = ( -1.0000000  0.0000000  0.0000000 )    f =(  0.0000000 )
                  (  0.0000000  1.0000000 -0.0000000 )       ( -0.6556627 )
                  (  0.0000000  0.0000000  1.0000000 )       ( -1.6388593 )

   Cartesian axes

     site n.     atom                  positions (alat units)
         1           Li  tau(   1) = (   0.1562830   2.6197968   3.0900103  )
         2           Li  tau(   2) = (   0.1562830   1.0319386   1.8265677  )
         3           Li  tau(   3) = (   0.8437170   1.9641341   1.4511509  )
         4           Li  tau(   4) = (   0.8437170   0.3762759   0.1877084  )
         5           Ag  tau(   5) = (   0.3486600   1.1702050   0.8194297  )
         6           Ag  tau(   6) = (   0.6513400   1.8258677   2.4582890  )
         7           F   tau(   7) = (   0.6589610   2.3455336   2.8704523  )
         8           F   tau(   8) = (   0.8514670   0.8694670   1.2966688  )
         9           F   tau(   9) = (   0.6589610   1.3062017   2.0461257  )
        10           F   tau(  10) = (   0.8514670   1.4709430   0.3421906  )
        11           F   tau(  11) = (   0.1485330   1.5251297   2.9355281  )
        12           F   tau(  12) = (   0.3410390   1.6898710   1.2315930  )
        13           F   tau(  13) = (   0.1485330   2.1266056   1.9810499  )
        14           F   tau(  14) = (   0.3410390   0.6505391   0.4072664  )

   Crystallographic axes

     site n.     atom                  positions (cryst. coord.)
         1           Li  tau(   1) = (  0.1562830  0.8212320  0.9427320  )
         2           Li  tau(   2) = (  0.1562830  0.1787680  0.5572680  )
         3           Li  tau(   3) = (  0.8437170  0.8212320  0.4427320  )
         4           Li  tau(   4) = (  0.8437170  0.1787680  0.0572680  )
         5           Ag  tau(   5) = (  0.3486600  0.5000000  0.2500000  )
         6           Ag  tau(   6) = (  0.6513400  0.5000000  0.7500000  )
         7           F   tau(   7) = (  0.6589610  0.7105780  0.8757470  )
         8           F   tau(   8) = (  0.8514670  0.2081650  0.3956010  )
         9           F   tau(   9) = (  0.6589610  0.2894220  0.6242530  )
        10           F   tau(  10) = (  0.8514670  0.7918350  0.1043990  )
        11           F   tau(  11) = (  0.1485330  0.2081650  0.8956010  )
        12           F   tau(  12) = (  0.3410390  0.7105780  0.3757470  )
        13           F   tau(  13) = (  0.1485330  0.7918350  0.6043990  )
        14           F   tau(  14) = (  0.3410390  0.2894220  0.1242530  )

     number of k points=     1  Methfessel-Paxton smearing, width (Ry)=  0.0010
                       cart. coord. in units 2pi/alat
        k(    1) = (   0.0000000   0.0000000   0.0000000), wk =   2.0000000

                       cryst. coord.
        k(    1) = (   0.0000000   0.0000000   0.0000000), wk =   2.0000000

     Initial potential from superposition of free atoms

     starting charge     104.1964, renormalised to     106.0000
     Starting wfcs are   72 randomized atomic wfcs

     Self-consistent Calculation

     iteration #  1     ecut=    30.00 Ry     beta= 0.70
     Davidson diagonalization with overlap

     ethr =  1.00E-02,  avg # of iterations =  6.0

     total energy              =   -1020.14978252 Ry
     estimated scf accuracy    <       2.40701805 Ry

[...]

     total energy              =   -1021.43886517 Ry
     estimated scf accuracy    <       0.00006064 Ry

     iteration # 44     ecut=    30.00 Ry     beta= 0.70
     Davidson diagonalization with overlap

     ethr =  5.72E-08,  avg # of iterations =  1.0

     End of self-consistent calculation

          k = 0.0000 0.0000 0.0000 (  1627 PWs)   bands (ev):

   -88.3720 -88.3719 -51.7084 -51.7072 -51.1911 -51.1899 -51.1881 -51.1877
   -39.7728 -39.7721 -39.7596 -39.7591 -18.2062 -18.0924 -18.0744 -17.9750
   -17.7504 -17.7337 -17.6448 -17.6071  -1.7965  -1.6630  -1.2789  -0.9982
    -0.7420  -0.5570  -0.4458  -0.4397  -0.1087   0.0142   0.1022   0.2212
     0.2258   0.3560   0.6655   0.7648   0.7806   0.8058   0.9468   1.2205
     1.2464   1.2929   1.3979   1.4083   1.4971   1.5043   1.6765   1.8441
     1.8564   1.9490   2.8702   2.9156   3.1095   3.1558   7.0512   8.1314
    10.3483  11.9245  12.0781  12.7454  13.2059  13.2647  13.7371  13.9671

     occupation numbers
     1.0000   1.0000   1.0000   1.0000   1.0000   1.0000   1.0000   1.0000
     1.0000   1.0000   1.0000   1.0000   1.0000   1.0000   1.0000   1.0000
     1.0000   1.0000   1.0000   1.0000   1.0000   1.0000   1.0000   1.0000
     1.0000   1.0000   1.0000   1.0000   1.0000   1.0000   1.0000   1.0000
     1.0000   1.0000   1.0000   1.0000   1.0000   1.0000   1.0000   1.0000
     1.0000   1.0000   1.0000   1.0000   1.0000   1.0000   1.0000   1.0000
     1.0000   1.0000   1.0000   1.0000   1.0186  -0.0186  -0.0000  -0.0000
    -0.0000  -0.0000  -0.0000  -0.0000  -0.0000  -0.0000  -0.0000  -0.0000

     the Fermi energy is     3.1327 ev

!    total energy              =   -1021.43886491 Ry
     estimated scf accuracy    <       0.00000044 Ry
     smearing contrib. (-TS)   =       0.00015001 Ry
     internal energy E=F+TS    =   -1021.43901492 Ry

     The total energy is F=E-TS. E is the sum of the following terms:
     one-electron contribution =    -644.03506605 Ry
     hartree contribution      =     358.71200989 Ry
     xc contribution           =    -142.92723463 Ry
     ewald contribution        =    -593.18872414 Ry

     convergence has been achieved in  44 iterations

     Forces acting on atoms (cartesian axes, Ry/au):

     atom    1 type  1   force =    -0.00406156   -0.01781956   -0.01862688
     atom    2 type  1   force =    -0.00406156    0.01781956    0.01862688
     atom    3 type  1   force =     0.00406156   -0.01781956   -0.01862688
     atom    4 type  1   force =     0.00406156    0.01781956    0.01862688
     atom    5 type  2   force =     0.00156957    0.00000000    0.00000000
     atom    6 type  2   force =    -0.00156957    0.00000000    0.00000000
     atom    7 type  3   force =    -0.00172601    0.00162262   -0.00061669
     atom    8 type  3   force =     0.00496179   -0.01652459    0.01540827
     atom    9 type  3   force =    -0.00172601   -0.00162262    0.00061669
     atom   10 type  3   force =     0.00496179    0.01652459   -0.01540827
     atom   11 type  3   force =    -0.00496179   -0.01652459    0.01540827
     atom   12 type  3   force =     0.00172601    0.00162262   -0.00061669
     atom   13 type  3   force =    -0.00496179    0.01652459   -0.01540827
     atom   14 type  3   force =     0.00172601   -0.00162262    0.00061669
     The non-local contrib.  to forces
     atom    1 type  1   force =     0.03608760   -0.05194994    0.00261122
     atom    2 type  1   force =     0.03608760    0.05194994   -0.00261122
     atom    3 type  1   force =    -0.03608760   -0.05194994    0.00261122
     atom    4 type  1   force =    -0.03608760    0.05194994   -0.00261122
     atom    5 type  2   force =     0.01455845    0.00000000    0.00000000
     atom    6 type  2   force =    -0.01455845    0.00000000    0.00000000
     atom    7 type  3   force =    -0.00569408   -0.40035738   -0.28923662
     atom    8 type  3   force =     0.09793655    0.08362535   -0.15412966
     atom    9 type  3   force =    -0.00569408    0.40035738    0.28923662
     atom   10 type  3   force =     0.09793655   -0.08362535    0.15412966
     atom   11 type  3   force =    -0.09793655    0.08362535   -0.15412966
     atom   12 type  3   force =     0.00569408   -0.40035738   -0.28923662
     atom   13 type  3   force =    -0.09793655   -0.08362535    0.15412966
     atom   14 type  3   force =     0.00569408    0.40035738    0.28923662
     The ionic contribution  to forces
     atom    1 type  1   force =     0.51077072   -0.01862094   -0.31280504
     atom    2 type  1   force =     0.51077072    0.01862094    0.31280504
     atom    3 type  1   force =    -0.51077072   -0.01862094   -0.31280504
     atom    4 type  1   force =    -0.51077072    0.01862094    0.31280504
     atom    5 type  2   force =     0.37300800    0.00000000   -0.00000000
     atom    6 type  2   force =    -0.37300800   -0.00000000   -0.00000000
     atom    7 type  3   force =    -0.03948082    8.51503984    4.93110881
     atom    8 type  3   force =    -0.66669141   -5.47662038    6.84968974
     atom    9 type  3   force =    -0.03948082   -8.51503984   -4.93110881
     atom   10 type  3   force =    -0.66669141    5.47662038   -6.84968975
     atom   11 type  3   force =     0.66669141   -5.47662038    6.84968975
     atom   12 type  3   force =     0.03948082    8.51503984    4.93110881
     atom   13 type  3   force =     0.66669141    5.47662038   -6.84968974
     atom   14 type  3   force =     0.03948082   -8.51503984   -4.93110881
     The local contribution  to forces
     atom    1 type  1   force =    -0.55091789    0.05275194    0.29120313
     atom    2 type  1   force =    -0.55091327   -0.05272615   -0.29118063
     atom    3 type  1   force =     0.55091836    0.05274220    0.29191925
     atom    4 type  1   force =     0.55092464   -0.05276511   -0.29195383
     atom    5 type  2   force =    -0.38599109    0.00005335   -0.00020980
     atom    6 type  2   force =     0.38599257   -0.00005929    0.00026648
     atom    7 type  3   force =     0.04344653   -8.11336003   -4.64321324
     atom    8 type  3   force =     0.57375575    5.37620720   -6.67927844
     atom    9 type  3   force =     0.04344478    8.11336320    4.64331180
     atom   10 type  3   force =     0.57369996   -5.37620684    6.67921144
     atom   11 type  3   force =    -0.57372755    5.37671008   -6.68109849
     atom   12 type  3   force =    -0.04344989   -8.11276471   -4.64178480
     atom   13 type  3   force =    -0.57375397   -5.37669245    6.68113984
     atom   14 type  3   force =    -0.04344800    8.11275626    4.64168722
     The core correction contribution to forces
     atom    1 type  1   force =     0.00000000    0.00000000    0.00000000
     atom    2 type  1   force =     0.00000000    0.00000000    0.00000000
     atom    3 type  1   force =     0.00000000    0.00000000    0.00000000
     atom    4 type  1   force =     0.00000000    0.00000000    0.00000000
     atom    5 type  2   force =     0.00000000    0.00000000    0.00000000
     atom    6 type  2   force =     0.00000000    0.00000000    0.00000000
     atom    7 type  3   force =     0.00000000    0.00000000    0.00000000
     atom    8 type  3   force =     0.00000000    0.00000000    0.00000000
     atom    9 type  3   force =     0.00000000    0.00000000    0.00000000
     atom   10 type  3   force =     0.00000000    0.00000000    0.00000000
     atom   11 type  3   force =     0.00000000    0.00000000    0.00000000
     atom   12 type  3   force =     0.00000000    0.00000000    0.00000000
     atom   13 type  3   force =     0.00000000    0.00000000    0.00000000
     atom   14 type  3   force =     0.00000000    0.00000000    0.00000000
     The Hubbard contrib.    to forces
     atom    1 type  1   force =     0.00000000    0.00000000    0.00000000
     atom    2 type  1   force =     0.00000000    0.00000000    0.00000000
     atom    3 type  1   force =     0.00000000    0.00000000    0.00000000
     atom    4 type  1   force =     0.00000000    0.00000000    0.00000000
     atom    5 type  2   force =     0.00000000    0.00000000    0.00000000
     atom    6 type  2   force =     0.00000000    0.00000000    0.00000000
     atom    7 type  3   force =     0.00000000    0.00000000    0.00000000
     atom    8 type  3   force =     0.00000000    0.00000000    0.00000000
     atom    9 type  3   force =     0.00000000    0.00000000    0.00000000
     atom   10 type  3   force =     0.00000000    0.00000000    0.00000000
     atom   11 type  3   force =     0.00000000    0.00000000    0.00000000
     atom   12 type  3   force =     0.00000000    0.00000000    0.00000000
     atom   13 type  3   force =     0.00000000    0.00000000    0.00000000
     atom   14 type  3   force =     0.00000000    0.00000000    0.00000000
     The SCF correction term to forces
     atom    1 type  1   force =    -0.00000120   -0.00000167    0.00030075
     atom    2 type  1   force =    -0.00000504   -0.00002351   -0.00032157
     atom    3 type  1   force =     0.00000231    0.00000973   -0.00028842
     atom    4 type  1   force =    -0.00000322    0.00001170    0.00032296
     atom    5 type  2   force =    -0.00000683   -0.00006275    0.00022441
     atom    6 type  2   force =     0.00000328    0.00006878   -0.00029774
     atom    7 type  3   force =     0.00000178    0.00024778    0.00068180
     atom    8 type  3   force =    -0.00003213    0.00019548   -0.00077593
     atom    9 type  3   force =     0.00000408   -0.00025535   -0.00079520
     atom   10 type  3   force =     0.00000330   -0.00020863    0.00087157
     atom   11 type  3   force =     0.00001394   -0.00016917    0.00084580
     atom   12 type  3   force =    -0.00000024   -0.00024369   -0.00066012
     atom   13 type  3   force =     0.00002791    0.00016973   -0.00092266
     atom   14 type  3   force =    -0.00000024    0.00025461    0.00077530

     Total force =     0.069952     Total SCF correction =     0.002446

     Computing stress (Cartesian axis) and pressure

          total   stress  (Ry/bohr**3)                   (kbar)     P=     -444.38
  -0.00258188   0.00000000   0.00000000         -379.81        0.00        0.00
   0.00000000  -0.00310307  -0.00009754            0.00     -456.48      -14.35
   0.00000000  -0.00009754  -0.00337755            0.00      -14.35     -496.85

     kinetic stress (kbar)  29565.54      0.00      0.00
                                0.00  28700.80   -350.03
                                0.00   -350.03  28820.29

     local   stress (kbar) -23456.63     -0.06      0.08
                               -0.06  -4647.95  -5254.47
                                0.08  -5254.47 -12412.99

     nonloc. stress (kbar)   -498.55      0.00      0.00
                                0.00   -483.36     43.71
                                0.00     43.71   -514.75

     hartree stress (kbar)  19433.60      0.02     -0.03
                                0.02  10938.46   1962.13
                               -0.03   1962.13  14550.42

     exc-cor stress (kbar)  -5680.81      0.00     -0.00
                                0.00  -5680.24      4.30
                               -0.00      4.30  -5680.34

     corecor stress (kbar)      0.00      0.00      0.00
                                0.00      0.00      0.00
                                0.00      0.00      0.00

     ewald   stress (kbar) -19742.96     -0.00      0.00
                               -0.00 -29284.20   3580.01
                                0.00   3580.01 -25259.47

     hubbard stress (kbar)      0.00      0.00      0.00
                                0.00      0.00      0.00
                                0.00      0.00      0.00

     DFT-D   stress (kbar)      0.00      0.00      0.00
                                0.00      0.00      0.00
                                0.00      0.00      0.00

     XDM     stress (kbar)      0.00      0.00      0.00
                                0.00      0.00      0.00
                                0.00      0.00      0.00

     dft-nl  stress (kbar)      0.00      0.00      0.00
                                0.00      0.00      0.00
                                0.00      0.00      0.00

     TS-vdW  stress (kbar)      0.00      0.00      0.00
                                0.00      0.00      0.00
                                0.00      0.00      0.00

[...]

                                0.00      0.00      0.00

     Writing all to output data dir new_calculations/myprefix.save/

     General routines

     Parallel routines

   This run was terminated on:  10:22: 7  20May2023

   JOB DONE.