     Program PWSCF v.7.0 starts on 21May2023 at 12:49:38

     Reading input from espresso_22755.pwi
Warning: card &CELL ignored
Warning: card / ignored

     Current dimensions of program PWSCF are:
     Max number of different atomic species (ntypx) = 10
     Max number of k-points (npk) =  40000
     Max angular momentum in pseudopotentials (lmaxx) =  4

     gamma-point specific algorithms are used
     Message from routine setup:
     using ibrav=0 with symmetry is DISCOURAGED, use correct ibrav instead

     Subspace diagonalization in iterative solution of the eigenvalue problem:
     a serial algorithm will be used

     Using Slab Decomposition

     bravais-lattice index     =            0
     lattice parameter (alat)  =      10.9773  a.u.
     unit-cell volume          =     961.0950 (a.u.)^3
     number of atoms/cell      =            9
     number of atomic types    =            3
     number of electrons       =        61.00
     number of Kohn-Sham states=           37
     kinetic-energy cutoff     =      30.0000  Ry
     charge density cutoff     =     240.0000  Ry
     scf convergence threshold =      1.0E-06
     mixing beta               =       0.7000
     number of iterations used =            8  plain     mixing
     Exchange-correlation=  SLA  PW   PBX  PBC
                           (   1   4   3   4   0   0   0)

     celldm(1)=  10.977294  celldm(2)=   0.000000  celldm(3)=   0.000000
     celldm(4)=   0.000000  celldm(5)=   0.000000  celldm(6)=   0.000000

     crystal axes: (cart. coord. in units of alat)
               a(1) = (   1.000000   0.000000   0.000000 )
               a(2) = (  -0.500000   0.866025   0.000000 )
               a(3) = (   0.000000   0.000000   0.838977 )

     reciprocal axes: (cart. coord. in units 2 pi/alat)
               b(1) = (  1.000000  0.577350  0.000000 )
               b(2) = (  0.000000  1.154700  0.000000 )
               b(3) = (  0.000000  0.000000  1.191928 )

     PseudoPot. # 1 for Li read from file:
     /home/pragov/projects/rrg-bengioy-ad/pragov/crystal_structure_design/SSSP/li_pbe_v1.4.uspp.F.UPF
     MD5 check sum: e912e257baa3777c20ea3d68f190483c
     Pseudo is Ultrasoft, Zval =  3.0
     Generated by new atomic code, or converted to UPF format
     Using radial grid of  751 points,  5 beta functions with:
                l(1) =   0
                l(2) =   0
                l(3) =   0
                l(4) =   1
                l(5) =   1
     Q(r) pseudized with 10 coefficients,  rinner =    1.150   1.150   1.150

     PseudoPot. # 2 for V  read from file:
     /home/pragov/projects/rrg-bengioy-ad/pragov/crystal_structure_design/SSSP/v_pbe_v1.4.uspp.F.UPF
     MD5 check sum: 22b79981416ebb76fdaf5b1b8640f6fb
     Pseudo is Ultrasoft + core correction, Zval = 13.0
     Generated by new atomic code, or converted to UPF format
     Using radial grid of  853 points,  6 beta functions with:
                l(1) =   0
                l(2) =   0
                l(3) =   1
                l(4) =   1
                l(5) =   2
                l(6) =   2
     Q(r) pseudized with  8 coefficients,  rinner =    1.100   1.100   1.100
                                                       1.100   1.100

     PseudoPot. # 3 for F  read from file:
     /home/pragov/projects/rrg-bengioy-ad/pragov/crystal_structure_design/SSSP/f_pbe_v1.4.uspp.F.UPF
     MD5 check sum: 4c38b6a325caf53ec0e86aed9459de46
     Pseudo is Ultrasoft, Zval =  7.0
     Generated by new atomic code, or converted to UPF format
     Using radial grid of  799 points,  4 beta functions with:
                l(1) =   0
                l(2) =   0
                l(3) =   1
                l(4) =   1
     Q(r) pseudized with  8 coefficients,  rinner =    0.950   0.950   0.950

     atomic species   valence    mass     pseudopotential
        Li             3.00     6.94000     Li( 1.00)
        V             13.00    50.94150     V ( 1.00)
        F              7.00    18.99840     F ( 1.00)

     12 Sym. Ops., with inversion, found

                                    s                        frac. trans.

      isym =  1     identity

 cryst.   s( 1) = (     1          0          0      )
                  (     0          1          0      )
                  (     0          0          1      )

 cart.    s( 1) = (  1.0000000 -0.0000000  0.0000000 )
                  (  0.0000000  1.0000000  0.0000000 )
                  (  0.0000000  0.0000000  1.0000000 )

      isym =  2     180 deg rotation - cart. axis [1,0,0]

[...]

      isym =  3     120 deg rotation - cryst. axis [0,0,1]

[...]

      isym =  6     180 deg rotation - cryst. axis [1,1,0]

[...]

      isym =  7     inversion

[...]

      isym =  8     inv. 180 deg rotation - cart. axis [1,0,0]

[...]

      isym =  9     inv. 120 deg rotation - cryst. axis [0,0,1]

 cryst.   s( 9) = (     0         -1          0      )
                  (     1          1          0      )
                  (     0          0         -1      )

 cart.    s( 9) = (  0.4999999  0.8660254  0.0000000 )
                  ( -0.8660254  0.5000001  0.0000000 )
                  (  0.0000000  0.0000000 -1.0000000 )

[...]

 cryst.   s(10) = (     1          1          0      )
                  (    -1          0          0      )
                  (     0          0         -1      )

 cart.    s(10) = (  0.5000001 -0.8660254  0.0000000 )
                  (  0.8660254  0.4999999  0.0000000 )
                  (  0.0000000  0.0000000 -1.0000000 )

[...]

      isym = 12     inv. 180 deg rotation - cryst. axis [1,1,0]

 cryst.   s(12) = (     0         -1          0      )
                  (    -1          0          0      )
                  (     0          0          1      )

 cart.    s(12) = (  0.4999999 -0.8660254  0.0000000 )
                  ( -0.8660254 -0.4999999  0.0000000 )
                  (  0.0000000  0.0000000  1.0000000 )

   Cartesian axes

     site n.     atom                  positions (alat units)
         1           Li  tau(   1) = (  -0.0000005   0.5773506   0.5973815  )
         2           Li  tau(   2) = (   0.5000005   0.2886749   0.2415950  )
         3           V   tau(   3) = (   0.0000000   0.0000000   0.0000000  )
         4           F   tau(   4) = (  -0.2683069   0.7322574   0.6527321  )
         5           F   tau(   5) = (   0.4999995   0.5984903   0.1862444  )
         6           F   tau(   6) = (   0.2316920   0.1337680   0.1862444  )
         7           F   tau(   7) = (   0.2683081   0.7322574   0.6527321  )
         8           F   tau(   8) = (   0.0000005   0.2675352   0.6527321  )
         9           F   tau(   9) = (   0.7683070   0.1337680   0.1862444  )

   Crystallographic axes

     site n.     atom                  positions (cryst. coord.)
         1           Li  tau(   1) = (  0.3333330  0.6666670  0.7120360  )
         2           Li  tau(   2) = (  0.6666670  0.3333330  0.2879640  )
         3           V   tau(   3) = (  0.0000000  0.0000000  0.0000000  )
         4           F   tau(   4) = (  0.1544620  0.8455380  0.7780100  )
         5           F   tau(   5) = (  0.8455380  0.6910770  0.2219900  )
         6           F   tau(   6) = (  0.3089230  0.1544620  0.2219900  )
         7           F   tau(   7) = (  0.6910770  0.8455380  0.7780100  )
         8           F   tau(   8) = (  0.1544620  0.3089230  0.7780100  )
         9           F   tau(   9) = (  0.8455380  0.1544620  0.2219900  )

     number of k points=     1  Methfessel-Paxton smearing, width (Ry)=  0.0010
                       cart. coord. in units 2pi/alat
        k(    1) = (   0.0000000   0.0000000   0.0000000), wk =   2.0000000

                       cryst. coord.
        k(    1) = (   0.0000000   0.0000000   0.0000000), wk =   2.0000000

     Check: negative core charge=   -0.000002

     Initial potential from superposition of free atoms

     starting charge      60.0973, renormalised to      61.0000

     negative rho (up, down):  1.352E-03 0.000E+00
     Starting wfcs are   44 randomized atomic wfcs

     Self-consistent Calculation

     iteration #  1     ecut=    30.00 Ry     beta= 0.70
     Davidson diagonalization with overlap

     ethr =  1.00E-02,  avg # of iterations =  2.0

     negative rho (up, down):  2.546E-03 0.000E+00

     total energy              =    -463.97057684 Ry
     estimated scf accuracy    <       3.67925277 Ry

[...]

     ethr =  3.69E-05,  avg # of iterations =  1.0
     Minimization algorithm failed to find Fermi energy: reverting to bisection
     Possible cause: smearing is larger than the electronic band-gap.

[...]

     ethr =  5.31E-06,  avg # of iterations =  2.0

[...]

     total energy              =    -466.49456765 Ry
     estimated scf accuracy    <       0.00000133 Ry

     iteration # 22     ecut=    30.00 Ry     beta= 0.70
     Davidson diagonalization with overlap

     ethr =  2.17E-09,  avg # of iterations =  1.0
     Minimization algorithm failed to find Fermi energy: reverting to bisection
     Possible cause: smearing is larger than the electronic band-gap.

[...]

     End of self-consistent calculation

          k = 0.0000 0.0000 0.0000 (  1341 PWs)   bands (ev):

   -65.0707 -43.3285 -43.3281 -38.9133 -38.9132 -38.7673 -22.0962 -21.6988
   -21.6988 -21.5939 -21.5938 -21.5220  -4.9743  -4.9742  -4.9298  -4.3686
    -4.0330  -4.0329  -3.9981  -3.8621  -3.8621  -2.7834  -2.7834  -2.5712
    -2.5712  -2.4746  -2.2985  -2.0633  -2.0633  -1.9260   1.6474   1.6500
     1.6501   3.9436   3.9436   5.1696   8.9989

     occupation numbers
     1.0000   1.0000   1.0000   1.0000   1.0000   1.0000   1.0000   1.0000
     1.0000   1.0000   1.0000   1.0000   1.0000   1.0000   1.0000   1.0000
     1.0000   1.0000   1.0000   1.0000   1.0000   1.0000   1.0000   1.0000
     1.0000   1.0000   1.0000   1.0000   1.0000   1.0000   0.2483   0.1265
     0.1252  -0.0000  -0.0000  -0.0000  -0.0000

     the Fermi energy is     1.6431 ev

!    total energy              =    -466.49456761 Ry
     estimated scf accuracy    <       0.00000030 Ry
     smearing contrib. (-TS)   =      -0.00041677 Ry
     internal energy E=F+TS    =    -466.49415084 Ry

     The total energy is F=E-TS. E is the sum of the following terms:
     one-electron contribution =    -401.63892273 Ry
     hartree contribution      =     219.36623862 Ry
     xc contribution           =     -82.48081564 Ry
     ewald contribution        =    -201.74065110 Ry

     convergence has been achieved in  22 iterations

     negative rho (up, down):  1.812E-03 0.000E+00

     Forces acting on atoms (cartesian axes, Ry/au):

     atom    1 type  1   force =     0.00000000    0.00000000    0.00786412
     atom    2 type  1   force =     0.00000000    0.00000000   -0.00786412
     atom    3 type  2   force =     0.00000000    0.00000000    0.00000000
     atom    4 type  3   force =    -0.01471263    0.00849434    0.01561464
     atom    5 type  3   force =     0.00000000    0.01698868   -0.01561464
     atom    6 type  3   force =    -0.01471263   -0.00849434   -0.01561464
     atom    7 type  3   force =     0.01471263    0.00849434    0.01561464
     atom    8 type  3   force =     0.00000000   -0.01698868    0.01561464
     atom    9 type  3   force =     0.01471263   -0.00849434   -0.01561464
     The non-local contrib.  to forces
     atom    1 type  1   force =     0.00000000    0.00000000   -0.06905368
     atom    2 type  1   force =     0.00000000    0.00000000    0.06905368
     atom    3 type  2   force =     0.00000000   -0.00000000    0.00000000
     atom    4 type  3   force =    -0.34378902    0.19848670    0.53936134
     atom    5 type  3   force =     0.00000000    0.39697335   -0.53936134
     atom    6 type  3   force =    -0.34378902   -0.19848665   -0.53936134
     atom    7 type  3   force =     0.34378902    0.19848665    0.53936134
     atom    8 type  3   force =    -0.00000000   -0.39697335    0.53936134
     atom    9 type  3   force =     0.34378902   -0.19848670   -0.53936134
     The ionic contribution  to forces
     atom    1 type  1   force =     0.00002592   -0.00001496   -1.98150083
     atom    2 type  1   force =    -0.00002592    0.00001496    1.98150083
     atom    3 type  2   force =    -0.00000000   -0.00000000    0.00000000
     atom    4 type  3   force =     9.66500622   -5.58009440   -7.77395131
     atom    5 type  3   force =    -0.00002245  -11.16026810    7.77401845
     atom    6 type  3   force =     9.66506486    5.58015280    7.77401845
     atom    7 type  3   force =    -9.66506486   -5.58015280   -7.77401845
     atom    8 type  3   force =     0.00002245   11.16026810   -7.77401845
     atom    9 type  3   force =    -9.66500622    5.58009440    7.77395131
     The local contribution  to forces
     atom    1 type  1   force =     0.00000650   -0.00000789    2.05841938
     atom    2 type  1   force =    -0.00000714    0.00000770   -2.05841823
     atom    3 type  2   force =     0.00000194    0.00000437   -0.00001113
     atom    4 type  3   force =    -9.33599722    5.38996181    7.25018151
     atom    5 type  3   force =     0.00007797   10.78032960   -7.25031175
     atom    6 type  3   force =    -9.33612743   -5.39012509   -7.25032182
     atom    7 type  3   force =     9.33612792    5.39012620    7.25032070
     atom    8 type  3   force =    -0.00007759  -10.78033150    7.25031180
     atom    9 type  3   force =     9.33599764   -5.38996107   -7.25018284
     The core correction contribution to forces
     atom    1 type  1   force =     0.00000000    0.00000000    0.00000000
     atom    2 type  1   force =     0.00000000    0.00000000    0.00000000
     atom    3 type  2   force =     0.00000018   -0.00000002   -0.00000023
     atom    4 type  3   force =     0.00000000    0.00000000    0.00000000
     atom    5 type  3   force =     0.00000000    0.00000000    0.00000000
     atom    6 type  3   force =     0.00000000    0.00000000    0.00000000
     atom    7 type  3   force =     0.00000000    0.00000000    0.00000000
     atom    8 type  3   force =     0.00000000    0.00000000    0.00000000
     atom    9 type  3   force =     0.00000000    0.00000000    0.00000000
     The Hubbard contrib.    to forces
     atom    1 type  1   force =     0.00000000    0.00000000    0.00000000
     atom    2 type  1   force =     0.00000000    0.00000000    0.00000000
     atom    3 type  2   force =     0.00000000    0.00000000    0.00000000
     atom    4 type  3   force =     0.00000000    0.00000000    0.00000000
     atom    5 type  3   force =     0.00000000    0.00000000    0.00000000
     atom    6 type  3   force =     0.00000000    0.00000000    0.00000000
     atom    7 type  3   force =     0.00000000    0.00000000    0.00000000
     atom    8 type  3   force =     0.00000000    0.00000000    0.00000000
     atom    9 type  3   force =     0.00000000    0.00000000    0.00000000
     The SCF correction term to forces
     atom    1 type  1   force =    -0.00002418    0.00001866   -0.00000077
     atom    2 type  1   force =     0.00002461   -0.00001851   -0.00000042
     atom    3 type  2   force =    -0.00000413   -0.00000293    0.00001491
     atom    4 type  3   force =     0.00004756    0.00012523    0.00003873
     atom    5 type  3   force =    -0.00004038   -0.00003736    0.00006981
     atom    6 type  3   force =     0.00015198   -0.00001915    0.00003607
     atom    7 type  3   force =    -0.00015166    0.00001909   -0.00003396
     atom    8 type  3   force =     0.00003837    0.00003737   -0.00006935
     atom    9 type  3   force =    -0.00004907   -0.00012515   -0.00003627

     Total force =     0.057605     Total SCF correction =     0.000325

     Computing stress (Cartesian axis) and pressure

     negative rho (up, down):  1.812E-03 0.000E+00
          total   stress  (Ry/bohr**3)                   (kbar)     P=     -132.73
  -0.00082759   0.00000000   0.00000000         -121.74        0.00        0.00
   0.00000000  -0.00082759   0.00000000            0.00     -121.74        0.00
   0.00000000   0.00000000  -0.00105173            0.00        0.00     -154.71

     kinetic stress (kbar)  15291.32     -0.00      0.00
                               -0.00  15291.32      0.00
                                0.00      0.00  15393.99

     local   stress (kbar) -12849.83     -0.21     -0.72
                               -0.21 -12851.14     -0.16
                               -0.72     -0.16 -13054.18

     nonloc. stress (kbar)    551.79     -0.00      0.00
                               -0.00    551.79      0.00
                                0.00      0.00    564.11

     hartree stress (kbar)  10940.74      0.15      0.27
                                0.15  10941.16     -0.00
                                0.27     -0.00  11694.26

     exc-cor stress (kbar)  -3597.13      0.00      0.00
                                0.00  -3597.12      0.00
                                0.00      0.00  -3602.09

     corecor stress (kbar)   -395.99     -0.00     -0.01
                               -0.00   -396.00     -0.00
                               -0.01     -0.00   -396.81

     ewald   stress (kbar) -10062.20      0.00      0.00
                                0.00 -10062.20     -0.00
                                0.00     -0.00 -10754.00

     hubbard stress (kbar)      0.00      0.00      0.00
                                0.00      0.00      0.00
                                0.00      0.00      0.00

     DFT-D   stress (kbar)      0.00      0.00      0.00
                                0.00      0.00      0.00
                                0.00      0.00      0.00

     XDM     stress (kbar)      0.00      0.00      0.00
                                0.00      0.00      0.00
                                0.00      0.00      0.00

     dft-nl  stress (kbar)      0.00      0.00      0.00
                                0.00      0.00      0.00
                                0.00      0.00      0.00

     TS-vdW  stress (kbar)      0.00      0.00      0.00
                                0.00      0.00      0.00
                                0.00      0.00      0.00

[...]

                                0.00      0.00      0.00

     Writing all to output data dir new_calculations/myprefix.save/

     General routines

     Parallel routines

   This run was terminated on:  12:49:49  21May2023

   JOB DONE.