     Program PWSCF v.7.0 starts on 20May2023 at  4:13:17

     Reading input from espresso_11061.pwi
Warning: card &CELL ignored
Warning: card / ignored

     Current dimensions of program PWSCF are:
     Max number of different atomic species (ntypx) = 10
     Max number of k-points (npk) =  40000
     Max angular momentum in pseudopotentials (lmaxx) =  4
     file K.pbe-spn-kjpaw_psl.1.0.0.UPF: wavefunction(s)  3S renormalized

     gamma-point specific algorithms are used
     Message from routine setup:
     using ibrav=0 with symmetry is DISCOURAGED, use correct ibrav instead

     Subspace diagonalization in iterative solution of the eigenvalue problem:
     a serial algorithm will be used

     Using Slab Decomposition

     bravais-lattice index     =            0
     lattice parameter (alat)  =      12.7607  a.u.
     unit-cell volume          =    1856.6417 (a.u.)^3
     number of atoms/cell      =           10
     number of atomic types    =            3
     number of electrons       =        85.00
     number of Kohn-Sham states=           52
     kinetic-energy cutoff     =      30.0000  Ry
     charge density cutoff     =     240.0000  Ry
     scf convergence threshold =      1.0E-06
     mixing beta               =       0.7000
     number of iterations used =            8  plain     mixing
     Exchange-correlation=  SLA  PW   PBX  PBC
                           (   1   4   3   4   0   0   0)

     celldm(1)=  12.760716  celldm(2)=   0.000000  celldm(3)=   0.000000
     celldm(4)=   0.000000  celldm(5)=   0.000000  celldm(6)=   0.000000

     crystal axes: (cart. coord. in units of alat)
               a(1) = (   1.000000   0.000000   0.000000 )
               a(2) = (  -0.406342   1.134680   0.000000 )
               a(3) = (   0.202944  -0.563869   0.787462 )

     reciprocal axes: (cart. coord. in units 2 pi/alat)
               b(1) = (  1.000000  0.358111 -0.001290 )
               b(2) = (  0.000000  0.881306  0.631067 )
               b(3) = (  0.000000  0.000000  1.269903 )

     PseudoPot. # 1 for K  read from file:
     /home/pragov/projects/rrg-bengioy-ad/pragov/crystal_structure_design/SSSP/K.pbe-spn-kjpaw_psl.1.0.0.UPF
     MD5 check sum: 7d58810084cac21f60fbe77ea2b688fd
     Pseudo is Projector augmented-wave + core cor, Zval =  9.0
     Generated using "atomic" code by A. Dal Corso  v.5.1
     Shape of augmentation charge: PSQ
     Using radial grid of 1165 points,  6 beta functions with:
                l(1) =   0
                l(2) =   0
                l(3) =   1
                l(4) =   1
                l(5) =   2
                l(6) =   2
     Q(r) pseudized with 0 coefficients

     PseudoPot. # 2 for Ru read from file:
     /home/pragov/projects/rrg-bengioy-ad/pragov/crystal_structure_design/SSSP/Ru_ONCV_PBE-1.0.oncvpsp.upf
     MD5 check sum: be037bb81c227cfb9b1461a9f099f4bd
     Pseudo is Norm-conserving, Zval = 16.0
     Generated using ONCVPSP code by D. R. Hamann
     Using radial grid of 1458 points,  6 beta functions with:
                l(1) =   0
                l(2) =   0
                l(3) =   1
                l(4) =   1
                l(5) =   2
                l(6) =   2

     PseudoPot. # 3 for F  read from file:
     /home/pragov/projects/rrg-bengioy-ad/pragov/crystal_structure_design/SSSP/f_pbe_v1.4.uspp.F.UPF
     MD5 check sum: 4c38b6a325caf53ec0e86aed9459de46
     Pseudo is Ultrasoft, Zval =  7.0
     Generated by new atomic code, or converted to UPF format
     Using radial grid of  799 points,  4 beta functions with:
                l(1) =   0
                l(2) =   0
                l(3) =   1
                l(4) =   1
     Q(r) pseudized with  8 coefficients,  rinner =    0.950   0.950   0.950

     atomic species   valence    mass     pseudopotential
        K              9.00    39.09830     K ( 1.00)
        Ru            16.00   101.07000     Ru( 1.00)
        F              7.00    18.99840     F ( 1.00)

      2 Sym. Ops., with inversion, found

                                    s                        frac. trans.

      isym =  1     identity

 cryst.   s( 1) = (     1          0          0      )
                  (     0          1          0      )
                  (     0          0          1      )

 cart.    s( 1) = (  1.0000000 -0.0000000 -0.0000000 )
                  (  0.0000000  1.0000000  0.0000000 )
                  (  0.0000000  0.0000000  1.0000000 )

      isym =  2     inversion

 cryst.   s( 2) = (    -1          0          0      )
                  (     0         -1          0      )
                  (     0          0         -1      )

 cart.    s( 2) = ( -1.0000000  0.0000000  0.0000000 )
                  (  0.0000000 -1.0000000 -0.0000000 )
                  (  0.0000000  0.0000000 -1.0000000 )

   Cartesian axes

     site n.     atom                  positions (alat units)
         1           K   tau(   1) = (   0.5000000   0.0000000   0.0000000  )
         2           K   tau(   2) = (   0.8983010   0.2854056   0.3937310  )
         3           K   tau(   3) = (   0.1014719  -0.2819345   0.3937310  )
         4           Ru  tau(   4) = (   0.0000000   0.0000000   0.0000000  )
         5           F   tau(   5) = (   0.8126821  -0.0817946   0.2236817  )
         6           F   tau(   6) = (  -0.0160802   0.6526058   0.5637802  )
         7           F   tau(   7) = (   0.6095401   0.4819394   0.5674600  )
         8           F   tau(   8) = (   0.1870618   0.0888717   0.2200019  )
         9           F   tau(   9) = (  -0.2510250   0.8751663   0.0023309  )
        10           F   tau(  10) = (   1.0476269  -0.3043552   0.7851310  )

   Crystallographic axes

     site n.     atom                  positions (cryst. coord.)
         1           K   tau(   1) = (  0.5000000  0.0000000  0.0000000  )
         2           K   tau(   2) = (  1.0000000  0.5000000  0.5000000  )
         3           K   tau(   3) = (  0.0000000 -0.0000000  0.5000000  )
         4           Ru  tau(   4) = (  0.0000000  0.0000000  0.0000000  )
         5           F   tau(   5) = (  0.7831020  0.0690720  0.2840540  )
         6           F   tau(   6) = (  0.2168980  0.9309280  0.7159460  )
         7           F   tau(   7) = (  0.7813960  0.7828410  0.7206190  )
         8           F   tau(   8) = (  0.2186040  0.2171590  0.2793810  )
         9           F   tau(   9) = (  0.0623790  0.7727600  0.0029600  )
        10           F   tau(  10) = (  0.9376210  0.2272400  0.9970400  )

     number of k points=     1  Methfessel-Paxton smearing, width (Ry)=  0.0010
                       cart. coord. in units 2pi/alat
        k(    1) = (   0.0000000   0.0000000   0.0000000), wk =   2.0000000

                       cryst. coord.
        k(    1) = (   0.0000000   0.0000000   0.0000000), wk =   2.0000000

     Check: negative core charge=   -0.000003

     Initial potential from superposition of free atoms

     starting charge      84.9430, renormalised to      85.0000
     Starting wfcs are   58 randomized atomic wfcs
     Checking if some PAW data can be deallocated...

     Self-consistent Calculation

     iteration #  1     ecut=    30.00 Ry     beta= 0.70
     Davidson diagonalization with overlap

     ethr =  1.00E-02,  avg # of iterations =  4.0

     total energy              =    -819.33154982 Ry
     estimated scf accuracy    <       1.22026851 Ry

[...]

     negative rho (up, down):  3.615E-08 0.000E+00

[...]

     negative rho (up, down):  7.660E-08 0.000E+00

[...]

     ethr =  5.26E-06,  avg # of iterations =  1.0
     Minimization algorithm failed to find Fermi energy: reverting to bisection
     Possible cause: smearing is larger than the electronic band-gap.

[...]

     ethr =  2.10E-06,  avg # of iterations =  1.0

[...]

     total energy              =    -819.88806992 Ry
     estimated scf accuracy    <       0.00000366 Ry

     iteration # 26     ecut=    30.00 Ry     beta= 0.70
     Davidson diagonalization with overlap

     ethr =  4.31E-09,  avg # of iterations =  1.0
     Minimization algorithm failed to find Fermi energy: reverting to bisection
     Possible cause: smearing is larger than the electronic band-gap.

     End of self-consistent calculation

          k = 0.0000 0.0000 0.0000 (  2572 PWs)   bands (ev):

   -71.2945 -41.2812 -41.2564 -41.2192 -27.7537 -27.7044 -27.6882 -21.3861
   -21.2109 -21.1621 -21.1384 -21.1190 -21.0104 -11.3312 -11.3190 -11.2864
   -11.2405 -11.2234 -11.2101 -11.1505 -11.1483 -11.0957  -4.2905  -4.2530
    -4.1075  -3.7568  -3.7150  -3.4516  -3.0628  -3.0292  -2.9436  -2.4068
    -2.3273  -2.2894  -2.1420  -2.1296  -2.0756  -2.0523  -2.0002  -1.9576
     1.5688   1.5693   1.5716   3.9161   3.9359   4.1742   7.3109   7.3430
     7.9840   8.0573   8.4472   8.5622

     occupation numbers
     1.0000   1.0000   1.0000   1.0000   1.0000   1.0000   1.0000   1.0000
     1.0000   1.0000   1.0000   1.0000   1.0000   1.0000   1.0000   1.0000
     1.0000   1.0000   1.0000   1.0000   1.0000   1.0000   1.0000   1.0000
     1.0000   1.0000   1.0000   1.0000   1.0000   1.0000   1.0000   1.0000
     1.0000   1.0000   1.0000   1.0000   1.0000   1.0000   1.0000   1.0000
     0.8820   0.8627   0.7553  -0.0000  -0.0000  -0.0000  -0.0000  -0.0000
    -0.0000  -0.0000  -0.0000  -0.0000

     the Fermi energy is     1.5759 ev

!    total energy              =    -819.88806991 Ry
     estimated scf accuracy    <       0.00000011 Ry
     smearing contrib. (-TS)   =      -0.00041781 Ry
     internal energy E=F+TS    =    -819.88765210 Ry

     The total energy is F=E-TS. E is the sum of the following terms:
     one-electron contribution =    -711.18485812 Ry
     hartree contribution      =     383.57137208 Ry
     xc contribution           =    -109.83863574 Ry
     ewald contribution        =    -216.18335030 Ry
     one-center paw contrib.   =    -166.25218002 Ry
      -> PAW hartree energy AE =     113.33760404 Ry
      -> PAW hartree energy PS =    -112.70651518 Ry
      -> PAW xc energy AE      =    -198.68654657 Ry
      -> PAW xc energy PS      =      31.80327769 Ry
      -> total E_H with PAW    =     384.20246094 Ry
      -> total E_XC with PAW   =    -276.72190462 Ry

     convergence has been achieved in  26 iterations

     Forces acting on atoms (cartesian axes, Ry/au):

     atom    1 type  1   force =     0.00000000    0.00000000    0.00000000
     atom    2 type  1   force =     0.00000000    0.00000000    0.00000000
     atom    3 type  1   force =     0.00000000    0.00000000    0.00000000
     atom    4 type  2   force =     0.00000000    0.00000000    0.00000000
     atom    5 type  3   force =     0.00324842    0.00175751   -0.00442073
     atom    6 type  3   force =    -0.00324842   -0.00175751    0.00442073
     atom    7 type  3   force =     0.00239718    0.00255723    0.00342466
     atom    8 type  3   force =    -0.00239718   -0.00255723   -0.00342466
     atom    9 type  3   force =    -0.00387463    0.00921453   -0.00053014
     atom   10 type  3   force =     0.00387463   -0.00921453    0.00053014
     The non-local contrib.  to forces
     atom    1 type  1   force =     0.00000000    0.00000000    0.00000000
     atom    2 type  1   force =     0.00000000    0.00000000    0.00000000
     atom    3 type  1   force =     0.00000000    0.00000000    0.00000000
     atom    4 type  2   force =     0.00000000    0.00000000    0.00000000
     atom    5 type  3   force =     0.52905618    0.27190203   -0.58592610
     atom    6 type  3   force =    -0.52905618   -0.27190203    0.58592610
     atom    7 type  3   force =     0.53281177    0.29693493    0.58305686
     atom    8 type  3   force =    -0.53281177   -0.29693493   -0.58305686
     atom    9 type  3   force =    -0.40198596    0.76702708    0.00032257
     atom   10 type  3   force =     0.40198596   -0.76702708   -0.00032257
     The ionic contribution  to forces
     atom    1 type  1   force =     0.00000000    0.00000000   -0.00000000
     atom    2 type  1   force =     0.00000000   -0.00000000   -0.00000000
     atom    3 type  1   force =     0.00000000    0.00000000   -0.00000000
     atom    4 type  2   force =    -0.00000000    0.00000000    0.00000000
     atom    5 type  3   force =   -13.17930337   -7.95993308   13.40180078
     atom    6 type  3   force =    13.17930337    7.95993308  -13.40180078
     atom    7 type  3   force =   -13.24911240   -8.45335030  -13.23588443
     atom    8 type  3   force =    13.24911240    8.45335030   13.23588443
     atom    9 type  3   force =     8.33113489  -18.69171265    0.04108757
     atom   10 type  3   force =    -8.33113489   18.69171265   -0.04108757
     The local contribution  to forces
     atom    1 type  1   force =     0.00000012   -0.00000028   -0.00000007
     atom    2 type  1   force =    -0.00000031    0.00000008    0.00000055
     atom    3 type  1   force =     0.00000016   -0.00000016   -0.00000029
     atom    4 type  2   force =     0.00000021   -0.00000209   -0.00000171
     atom    5 type  3   force =    12.65351612    7.68980505  -12.82034014
     atom    6 type  3   force =   -12.65351631   -7.68980538   12.82034002
     atom    7 type  3   force =    12.71867826    8.15903837   12.65627404
     atom    8 type  3   force =   -12.71867797   -8.15903855  -12.65627390
     atom    9 type  3   force =    -7.93292466   17.93388319   -0.04190267
     atom   10 type  3   force =     7.93292441  -17.93388289    0.04190250
     The core correction contribution to forces
     atom    1 type  1   force =     0.00000000    0.00000000    0.00000000
     atom    2 type  1   force =    -0.00000000   -0.00000001   -0.00000000
     atom    3 type  1   force =     0.00000000    0.00000000   -0.00000000
     atom    4 type  2   force =     0.00000000    0.00000000    0.00000000
     atom    5 type  3   force =     0.00000000    0.00000000    0.00000000
     atom    6 type  3   force =     0.00000000    0.00000000    0.00000000
     atom    7 type  3   force =     0.00000000    0.00000000    0.00000000
     atom    8 type  3   force =     0.00000000    0.00000000    0.00000000
     atom    9 type  3   force =     0.00000000    0.00000000    0.00000000
     atom   10 type  3   force =     0.00000000    0.00000000    0.00000000
     The Hubbard contrib.    to forces
     atom    1 type  1   force =     0.00000000    0.00000000    0.00000000
     atom    2 type  1   force =     0.00000000    0.00000000    0.00000000
     atom    3 type  1   force =     0.00000000    0.00000000    0.00000000
     atom    4 type  2   force =     0.00000000    0.00000000    0.00000000
     atom    5 type  3   force =     0.00000000    0.00000000    0.00000000
     atom    6 type  3   force =     0.00000000    0.00000000    0.00000000
     atom    7 type  3   force =     0.00000000    0.00000000    0.00000000
     atom    8 type  3   force =     0.00000000    0.00000000    0.00000000
     atom    9 type  3   force =     0.00000000    0.00000000    0.00000000
     atom   10 type  3   force =     0.00000000    0.00000000    0.00000000
     The SCF correction term to forces
     atom    1 type  1   force =    -0.00000008    0.00000033   -0.00000005
     atom    2 type  1   force =     0.00000042    0.00000002   -0.00000067
     atom    3 type  1   force =    -0.00000030    0.00000018    0.00000033
     atom    4 type  2   force =    -0.00000022    0.00000225    0.00000186
     atom    5 type  3   force =    -0.00002052   -0.00001642    0.00004481
     atom    6 type  3   force =     0.00002069    0.00001686   -0.00004454
     atom    7 type  3   force =     0.00001956   -0.00006566   -0.00002176
     atom    8 type  3   force =    -0.00001983    0.00006606    0.00002170
     atom    9 type  3   force =    -0.00009891    0.00001706   -0.00003758
     atom   10 type  3   force =     0.00009914   -0.00001706    0.00003781

     Total force =     0.017743     Total SCF correction =     0.000197

     Computing stress (Cartesian axis) and pressure

          total   stress  (Ry/bohr**3)                   (kbar)     P=      -66.12
  -0.00044920   0.00000256  -0.00000171          -66.08        0.38       -0.25
   0.00000256  -0.00042825  -0.00000008            0.38      -63.00       -0.01
  -0.00000171  -0.00000008  -0.00047097           -0.25       -0.01      -69.28

     kinetic stress (kbar)  12458.09     18.21     -2.19
                               18.21  12472.42     -3.76
                               -2.19     -3.76  12452.26

     local   stress (kbar) -17891.92   8166.16     -2.39
                             8166.16  -7103.84   -102.53
                               -2.39   -102.53 -24374.10

     nonloc. stress (kbar)   2192.22      2.58     -0.21
                                2.58   2196.99     -0.03
                               -0.21     -0.03   2190.73

     hartree stress (kbar)  10729.69  -3650.27      0.18
                            -3650.27   5977.98     38.88
                                0.18     38.88  13683.39

     exc-cor stress (kbar)  -2042.72     -1.73      0.01
                               -1.73  -2045.25      0.09
                                0.01      0.09  -2041.90

     corecor stress (kbar)   -641.29      0.06     -0.00
                                0.06   -641.18     -0.00
                               -0.00     -0.00   -641.32

     ewald   stress (kbar)  -4870.15  -4534.64      4.34
                            -4534.64 -10920.11     67.35
                                4.34     67.35  -1338.34

     hubbard stress (kbar)      0.00      0.00      0.00
                                0.00      0.00      0.00
                                0.00      0.00      0.00

     DFT-D   stress (kbar)      0.00      0.00      0.00
                                0.00      0.00      0.00
                                0.00      0.00      0.00

     XDM     stress (kbar)      0.00      0.00      0.00
                                0.00      0.00      0.00
                                0.00      0.00      0.00

     dft-nl  stress (kbar)      0.00      0.00      0.00
                                0.00      0.00      0.00
                                0.00      0.00      0.00

     TS-vdW  stress (kbar)      0.00      0.00      0.00
                                0.00      0.00      0.00
                                0.00      0.00      0.00

[...]

                                0.00      0.00      0.00

     Writing all to output data dir new_calculations/myprefix.save/

     General routines

     Parallel routines

     PAW routines

   This run was terminated on:   4:15: 1  20May2023

   JOB DONE.