     Program PWSCF v.7.0 starts on 20May2023 at 12:23:28

     Reading input from espresso_10380.pwi
Warning: card &CELL ignored
Warning: card / ignored

     Current dimensions of program PWSCF are:
     Max number of different atomic species (ntypx) = 10
     Max number of k-points (npk) =  40000
     Max angular momentum in pseudopotentials (lmaxx) =  4

     gamma-point specific algorithms are used
     Message from routine setup:
     using ibrav=0 with symmetry is DISCOURAGED, use correct ibrav instead

     Subspace diagonalization in iterative solution of the eigenvalue problem:
     a serial algorithm will be used

     Using Slab Decomposition

     bravais-lattice index     =            0
     lattice parameter (alat)  =      14.6427  a.u.
     unit-cell volume          =    2219.9714 (a.u.)^3
     number of atoms/cell      =           10
     number of atomic types    =            4
     number of electrons       =        94.00
     number of Kohn-Sham states=           56
     kinetic-energy cutoff     =      30.0000  Ry
     charge density cutoff     =     240.0000  Ry
     scf convergence threshold =      1.0E-06
     mixing beta               =       0.7000
     number of iterations used =            8  plain     mixing
     Exchange-correlation=  SLA  PW   PBX  PBC
                           (   1   4   3   4   0   0   0)

     celldm(1)=  14.642687  celldm(2)=   0.000000  celldm(3)=   0.000000
     celldm(4)=   0.000000  celldm(5)=   0.000000  celldm(6)=   0.000000

     crystal axes: (cart. coord. in units of alat)
               a(1) = (   1.000000   0.000000   0.000000 )
               a(2) = (   0.500000   0.866025   0.000000 )
               a(3) = (   0.500000   0.288675   0.816497 )

     reciprocal axes: (cart. coord. in units 2 pi/alat)
               b(1) = (  1.000000 -0.577350 -0.408248 )
               b(2) = (  0.000000  1.154701 -0.408248 )
               b(3) = (  0.000000  0.000000  1.224745 )

     PseudoPot. # 1 for Cs read from file:
     /home/pragov/projects/rrg-bengioy-ad/pragov/crystal_structure_design/SSSP/Cs_pbe_v1.uspp.F.UPF
     MD5 check sum: 3476d69cb178dfad3ffaa59df4e07ca4
     Pseudo is Ultrasoft + core correction, Zval =  9.0
     Generated by new atomic code, or converted to UPF format
     Using radial grid of  905 points,  6 beta functions with:
                l(1) =   0
                l(2) =   0
                l(3) =   1
                l(4) =   1
                l(5) =   2
                l(6) =   2
     Q(r) pseudized with  6 coefficients,  rinner =    1.500   1.500   1.500
                                                       1.500   1.500

     PseudoPot. # 2 for Ag read from file:
     /home/pragov/projects/rrg-bengioy-ad/pragov/crystal_structure_design/SSSP/Ag_ONCV_PBE-1.0.oncvpsp.upf
     MD5 check sum: 94f47bd0669c641108e45594df92fabc
     Pseudo is Norm-conserving, Zval = 19.0
     Generated using ONCVPSP code by D. R. Hamann
     Using radial grid of 1398 points,  6 beta functions with:
                l(1) =   0
                l(2) =   0
                l(3) =   1
                l(4) =   1
                l(5) =   2
                l(6) =   2

     PseudoPot. # 3 for Bi read from file:
     /home/pragov/projects/rrg-bengioy-ad/pragov/crystal_structure_design/SSSP/Bi_pbe_v1.uspp.F.UPF
     MD5 check sum: cceb9f28ec65b6d7ff33140f5b0b1758
     Pseudo is Ultrasoft + core correction, Zval = 15.0
     Generated by new atomic code, or converted to UPF format
     Using radial grid of  899 points,  6 beta functions with:
                l(1) =   0
                l(2) =   0
                l(3) =   1
                l(4) =   1
                l(5) =   2
                l(6) =   2
     Q(r) pseudized with  6 coefficients,  rinner =    1.000   1.000   1.000
                                                       1.000   1.000

     PseudoPot. # 4 for Cl read from file:
     /home/pragov/projects/rrg-bengioy-ad/pragov/crystal_structure_design/SSSP/cl_pbe_v1.4.uspp.F.UPF
     MD5 check sum: fc6f6913ecf08c9257cb748ef0700058
     Pseudo is Ultrasoft + core correction, Zval =  7.0
     Generated by new atomic code, or converted to UPF format
     Using radial grid of  909 points,  6 beta functions with:
                l(1) =   0
                l(2) =   0
                l(3) =   1
                l(4) =   1
                l(5) =   2
                l(6) =   2
     Q(r) pseudized with  8 coefficients,  rinner =    1.300   1.300   1.300
                                                       1.300   1.300

     atomic species   valence    mass     pseudopotential
        Cs             9.00   132.90545     Cs( 1.00)
        Ag            19.00   107.86820     Ag( 1.00)
        Bi            15.00   208.98040     Bi( 1.00)
        Cl             7.00    35.45000     Cl( 1.00)

     12 Sym. Ops., with inversion, found

                                    s                        frac. trans.

      isym =  1     identity

 cryst.   s( 1) = (     1          0          0      )
                  (     0          1          0      )
                  (     0          0          1      )

 cart.    s( 1) = (  1.0000000  0.0000000  0.0000000 )
                  (  0.0000000  1.0000000  0.0000000 )
                  (  0.0000000  0.0000000  1.0000000 )

      isym =  2     180 deg rotation - cart. axis [1,0,0]

[...]

      isym =  3     120 deg rotation - cryst. axis [0,0,1]

[...]

      isym =  6     180 deg rotation - cryst. axis [1,1,0]

[...]

      isym =  7     inversion

[...]

      isym =  8     inv. 180 deg rotation - cart. axis [1,0,0]

[...]

      isym =  9     inv. 120 deg rotation - cryst. axis [0,0,1]

 cryst.   s( 9) = (     1         -1          0      )
                  (     1          0          0      )
                  (     1          0         -1      )

 cart.    s( 9) = (  0.5000000  0.8660254 -0.0000000 )
                  ( -0.8660254  0.5000000 -0.0000000 )
                  (  0.0000000  0.0000000 -1.0000000 )

[...]

 cryst.   s(10) = (     0          1          0      )
                  (    -1          1          0      )
                  (     0          1         -1      )

 cart.    s(10) = (  0.5000000 -0.8660254  0.0000000 )
                  (  0.8660254  0.5000000 -0.0000000 )
                  (  0.0000000  0.0000000 -1.0000000 )

[...]

      isym = 12     inv. 180 deg rotation - cryst. axis [1,1,0]

 cryst.   s(12) = (     1         -1          0      )
                  (     0         -1          0      )
                  (     0         -1          1      )

 cart.    s(12) = (  0.5000000 -0.8660254  0.0000000 )
                  ( -0.8660254 -0.5000000  0.0000000 )
                  (  0.0000000  0.0000000  1.0000000 )

   Cartesian axes

     site n.     atom                  positions (alat units)
         1           Cs  tau(   1) = (   1.5000000   0.8660254   0.6123724  )
         2           Cs  tau(   2) = (   0.5000000   0.2886751   0.2041241  )
         3           Ag  tau(   3) = (   1.0000000   0.5773503   0.4082483  )
         4           Bi  tau(   4) = (   0.0000000   0.0000000   0.0000000  )
         5           Cl  tau(   5) = (   1.0000000   0.2876509   0.2033999  )
         6           Cl  tau(   6) = (   0.7491130   0.4325006   0.6130967  )
         7           Cl  tau(   7) = (   1.0000000   0.8670496   0.6130967  )
         8           Cl  tau(   8) = (   0.7491130   0.7221999   0.2033999  )
         9           Cl  tau(   9) = (   1.2508870   0.4325006   0.6130967  )
        10           Cl  tau(  10) = (   1.2508870   0.7221999   0.2033999  )

   Crystallographic axes

     site n.     atom                  positions (cryst. coord.)
         1           Cs  tau(   1) = (  0.7500000  0.7500000  0.7500000  )
         2           Cs  tau(   2) = (  0.2500000  0.2500000  0.2500000  )
         3           Ag  tau(   3) = (  0.5000000  0.5000000  0.5000000  )
         4           Bi  tau(   4) = (  0.0000000  0.0000000  0.0000000  )
         5           Cl  tau(   5) = (  0.7508870  0.2491130  0.2491130  )
         6           Cl  tau(   6) = (  0.2491130  0.2491130  0.7508870  )
         7           Cl  tau(   7) = (  0.2491130  0.7508870  0.7508870  )
         8           Cl  tau(   8) = (  0.2491130  0.7508870  0.2491130  )
         9           Cl  tau(   9) = (  0.7508870  0.2491130  0.7508870  )
        10           Cl  tau(  10) = (  0.7508870  0.7508870  0.2491130  )

     number of k points=     1  Methfessel-Paxton smearing, width (Ry)=  0.0010
                       cart. coord. in units 2pi/alat
        k(    1) = (   0.0000000   0.0000000   0.0000000), wk =   2.0000000

                       cryst. coord.
        k(    1) = (   0.0000000   0.0000000   0.0000000), wk =   2.0000000

     Check: negative core charge=   -0.000002

     Initial potential from superposition of free atoms

     starting charge      92.9208, renormalised to      94.0000

     negative rho (up, down):  1.317E-01 0.000E+00
     Starting wfcs are   69 randomized atomic wfcs

     Self-consistent Calculation

     iteration #  1     ecut=    30.00 Ry     beta= 0.70
     Davidson diagonalization with overlap

     ethr =  1.00E-02,  avg # of iterations =  3.0

     Threshold (ethr) on eigenvalues was too large:
     Diagonalizing with lowered threshold

     Davidson diagonalization with overlap

[...]

     negative rho (up, down):  1.305E-01 0.000E+00

     total energy              =    -798.91761245 Ry
     estimated scf accuracy    <       0.44434148 Ry

[...]

     total energy              =    -799.06240237 Ry
     estimated scf accuracy    <       0.00000583 Ry

     iteration #  7     ecut=    30.00 Ry     beta= 0.70
     Davidson diagonalization with overlap

     ethr =  6.20E-09,  avg # of iterations =  6.0

[...]

     End of self-consistent calculation

          k = 0.0000 0.0000 0.0000 (  3092 PWs)   bands (ev):

   -86.7530 -49.8299 -49.8299 -49.8299 -19.3319 -19.3319 -19.3167 -19.3167
   -19.3166 -16.5899 -16.5816 -10.6781 -10.0032 -10.0030 -10.0029  -9.7930
    -9.7928  -6.2771  -3.4937  -3.4937  -3.4937  -3.4208  -3.4208  -3.4208
    -0.1293  -0.1292  -0.1291   0.6336   0.6337   1.1130   1.1130   1.1131
     1.3785   2.1245   2.1245   2.1246   2.2736   2.2736   2.2736   2.3488
     2.3488   2.3488   2.6112   2.6113   2.6113   3.5029   3.5029   6.6810
     6.6810   6.6811   8.0430   8.9915   8.9915   9.3805  10.1540  10.1540

     occupation numbers
     1.0000   1.0000   1.0000   1.0000   1.0000   1.0000   1.0000   1.0000
     1.0000   1.0000   1.0000   1.0000   1.0000   1.0000   1.0000   1.0000
     1.0000   1.0000   1.0000   1.0000   1.0000   1.0000   1.0000   1.0000
     1.0000   1.0000   1.0000   1.0000   1.0000   1.0000   1.0000   1.0000
     1.0000   1.0000   1.0000   1.0000   1.0000   1.0000   1.0000   1.0000
     1.0000   1.0000   1.0000   1.0000   1.0000   1.0000   1.0000  -0.0000
    -0.0000  -0.0000  -0.0000  -0.0000  -0.0000  -0.0000  -0.0000  -0.0000

     the Fermi energy is     4.2163 ev

!    total energy              =    -799.06240670 Ry
     estimated scf accuracy    <       0.00000056 Ry
     smearing contrib. (-TS)   =       0.00000000 Ry
     internal energy E=F+TS    =    -799.06240670 Ry

     The total energy is F=E-TS. E is the sum of the following terms:
     one-electron contribution =    -404.70302209 Ry
     hartree contribution      =     235.96773897 Ry
     xc contribution           =    -209.21601293 Ry
     ewald contribution        =    -421.11111065 Ry

     convergence has been achieved in   7 iterations

     negative rho (up, down):  1.274E-01 0.000E+00

     Forces acting on atoms (cartesian axes, Ry/au):

     atom    1 type  1   force =    -0.00000000    0.00000000   -0.00001030
     atom    2 type  1   force =     0.00000000    0.00000000    0.00001030
     atom    3 type  2   force =     0.00000000    0.00000000   -0.00000000
     atom    4 type  3   force =     0.00000000    0.00000000   -0.00000000
     atom    5 type  4   force =     0.00000000   -0.02058269   -0.01455522
     atom    6 type  4   force =    -0.01782513   -0.01029135    0.01455522
     atom    7 type  4   force =     0.00000000    0.02058269    0.01455522
     atom    8 type  4   force =    -0.01782513    0.01029135   -0.01455522
     atom    9 type  4   force =     0.01782513   -0.01029135    0.01455522
     atom   10 type  4   force =     0.01782513    0.01029135   -0.01455522
     The non-local contrib.  to forces
     atom    1 type  1   force =     0.00000000    0.00000000    0.00001553
     atom    2 type  1   force =     0.00000000    0.00000000   -0.00001553
     atom    3 type  2   force =     0.00000000    0.00000000    0.00000000
     atom    4 type  3   force =    -0.00000000   -0.00000000    0.00000000
     atom    5 type  4   force =    -0.00000000   -0.07480399   -0.05291358
     atom    6 type  4   force =    -0.06478215   -0.03740199    0.05291358
     atom    7 type  4   force =     0.00000000    0.07480399    0.05291358
     atom    8 type  4   force =    -0.06478215    0.03740199   -0.05291358
     atom    9 type  4   force =     0.06478215   -0.03740199    0.05291358
     atom   10 type  4   force =     0.06478215    0.03740199   -0.05291358
     The ionic contribution  to forces
     atom    1 type  1   force =    -0.00000000   -0.00000000    0.00000000
     atom    2 type  1   force =     0.00000000    0.00000000   -0.00000000
     atom    3 type  2   force =    -0.00000000   -0.00000000    0.00000000
     atom    4 type  3   force =    -0.00000000    0.00000000   -0.00000000
     atom    5 type  4   force =     0.00000000   -1.15308373   -0.81535332
     atom    6 type  4   force =    -0.99859980   -0.57654186    0.81535332
     atom    7 type  4   force =     0.00000000    1.15308373    0.81535332
     atom    8 type  4   force =    -0.99859980    0.57654186   -0.81535332
     atom    9 type  4   force =     0.99859980   -0.57654186    0.81535332
     atom   10 type  4   force =     0.99859980    0.57654186   -0.81535332
     The local contribution  to forces
     atom    1 type  1   force =     0.00008603    0.00008474   -0.00003463
     atom    2 type  1   force =    -0.00001072   -0.00000837    0.00006472
     atom    3 type  2   force =    -0.00002423   -0.00000938   -0.00005617
     atom    4 type  3   force =    -0.00002918    0.00000475   -0.00002536
     atom    5 type  4   force =     0.00000269    1.20639047    0.85313335
     atom    6 type  4   force =     1.04484784    0.60318089   -0.85311986
     atom    7 type  4   force =    -0.00004015   -1.20641010   -0.85314290
     atom    8 type  4   force =     1.04484182   -0.60319483    0.85313834
     atom    9 type  4   force =    -1.04479578    0.60315778   -0.85309478
     atom   10 type  4   force =    -1.04486175   -0.60322482    0.85315950
     The core correction contribution to forces
     atom    1 type  1   force =     0.00000447    0.00000347   -0.00000098
     atom    2 type  1   force =    -0.00000271   -0.00000149    0.00000419
     atom    3 type  2   force =     0.00000000    0.00000000    0.00000000
     atom    4 type  3   force =    -0.00000055    0.00000004    0.00000083
     atom    5 type  4   force =    -0.00000023    0.00150415    0.00106466
     atom    6 type  4   force =     0.00130321    0.00075163   -0.00106402
     atom    7 type  4   force =    -0.00000070   -0.00150482   -0.00106592
     atom    8 type  4   force =     0.00130393   -0.00075195    0.00106567
     atom    9 type  4   force =    -0.00130346    0.00075166   -0.00106457
     atom   10 type  4   force =    -0.00130396   -0.00075341    0.00106598
     The Hubbard contrib.    to forces
     atom    1 type  1   force =     0.00000000    0.00000000    0.00000000
     atom    2 type  1   force =     0.00000000    0.00000000    0.00000000
     atom    3 type  2   force =     0.00000000    0.00000000    0.00000000
     atom    4 type  3   force =     0.00000000    0.00000000    0.00000000
     atom    5 type  4   force =     0.00000000    0.00000000    0.00000000
     atom    6 type  4   force =     0.00000000    0.00000000    0.00000000
     atom    7 type  4   force =     0.00000000    0.00000000    0.00000000
     atom    8 type  4   force =     0.00000000    0.00000000    0.00000000
     atom    9 type  4   force =     0.00000000    0.00000000    0.00000000
     atom   10 type  4   force =     0.00000000    0.00000000    0.00000000
     The SCF correction term to forces
     atom    1 type  1   force =    -0.00003757   -0.00004883    0.00002367
     atom    2 type  1   force =     0.00000587    0.00001767   -0.00002917
     atom    3 type  2   force =     0.00002629    0.00000392    0.00007046
     atom    4 type  3   force =     0.00004356   -0.00000577    0.00001089
     atom    5 type  4   force =    -0.00000533   -0.00061694   -0.00050399
     atom    6 type  4   force =    -0.00057533   -0.00028926    0.00047382
     atom    7 type  4   force =     0.00002327    0.00062252    0.00049406
     atom    8 type  4   force =    -0.00056808    0.00030377   -0.00048221
     atom    9 type  4   force =     0.00054605   -0.00027584    0.00046510
     atom   10 type  4   force =     0.00058452    0.00031285   -0.00049031

     Total force =     0.061750     Total SCF correction =     0.001959

     Computing stress (Cartesian axis) and pressure

     negative rho (up, down):  1.274E-01 0.000E+00
          total   stress  (Ry/bohr**3)                   (kbar)     P=      -65.35
  -0.00044426   0.00000000  -0.00000000          -65.35        0.00       -0.00
   0.00000000  -0.00044426   0.00000000            0.00      -65.35        0.00
   0.00000000   0.00000000  -0.00044423            0.00        0.00      -65.35

     kinetic stress (kbar)   8890.42     -0.00     -0.00
                               -0.00   8890.42     -0.00
                               -0.00     -0.00   8890.43

     local   stress (kbar)  -8369.55      0.00     -0.01
                                0.00  -8369.57     -0.02
                               -0.01     -0.02  -8369.56

     nonloc. stress (kbar)   6106.79     -0.00      0.00
                                0.00   6106.79     -0.00
                               -0.00     -0.00   6106.79

     hartree stress (kbar)   5212.08     -0.00      0.00
                               -0.00   5212.10      0.01
                                0.00      0.01   5212.08

     exc-cor stress (kbar)   5232.49     -0.00      0.00
                               -0.00   5232.49      0.00
                                0.00      0.00   5232.49

     corecor stress (kbar)  -7836.02     -0.00     -0.00
                               -0.00  -7836.02     -0.00
                               -0.00     -0.00  -7836.02

     ewald   stress (kbar)  -9301.56      0.00     -0.00
                                0.00  -9301.56      0.00
                               -0.00      0.00  -9301.56

     hubbard stress (kbar)      0.00      0.00      0.00
                                0.00      0.00      0.00
                                0.00      0.00      0.00

     DFT-D   stress (kbar)      0.00      0.00      0.00
                                0.00      0.00      0.00
                                0.00      0.00      0.00

     XDM     stress (kbar)      0.00      0.00      0.00
                                0.00      0.00      0.00
                                0.00      0.00      0.00

     dft-nl  stress (kbar)      0.00      0.00      0.00
                                0.00      0.00      0.00
                                0.00      0.00      0.00

     TS-vdW  stress (kbar)      0.00      0.00      0.00
                                0.00      0.00      0.00
                                0.00      0.00      0.00

[...]

                                0.00      0.00      0.00

     Writing all to output data dir new_calculations/myprefix.save/

     General routines

     Parallel routines

   This run was terminated on:  12:23:50  20May2023

   JOB DONE.