     Program PWSCF v.7.0 starts on 20May2023 at 17: 2:35

     Reading input from espresso_16500.pwi
Warning: card &CELL ignored
Warning: card / ignored

     Current dimensions of program PWSCF are:
     Max number of different atomic species (ntypx) = 10
     Max number of k-points (npk) =  40000
     Max angular momentum in pseudopotentials (lmaxx) =  4
     file Pb.pbe-dn-kjpaw_psl.0.2.2.UPF: wavefunction(s)  6S renormalized
     file O.pbe-n-kjpaw_psl.0.1.UPF: wavefunction(s)  2P renormalized

     gamma-point specific algorithms are used
     Message from routine setup:
     using ibrav=0 with symmetry is DISCOURAGED, use correct ibrav instead

     Subspace diagonalization in iterative solution of the eigenvalue problem:
     a serial algorithm will be used

     Using Slab Decomposition

     bravais-lattice index     =            0
     lattice parameter (alat)  =      12.7716  a.u.
     unit-cell volume          =    1007.3820 (a.u.)^3
     number of atoms/cell      =            8
     number of atomic types    =            3
     number of electrons       =        90.00
     number of Kohn-Sham states=           54
     kinetic-energy cutoff     =      30.0000  Ry
     charge density cutoff     =     240.0000  Ry
     scf convergence threshold =      1.0E-06
     mixing beta               =       0.7000
     number of iterations used =            8  plain     mixing
     Exchange-correlation= SLA  PW   PBX  PBC
                           (   1   4   3   4   0   0   0)

     celldm(1)=  12.771566  celldm(2)=   0.000000  celldm(3)=   0.000000
     celldm(4)=   0.000000  celldm(5)=   0.000000  celldm(6)=   0.000000

     crystal axes: (cart. coord. in units of alat)
               a(1) = (   1.000000   0.000000   0.000000 )
               a(2) = (   0.861226   0.508223   0.000000 )
               a(3) = (   0.135740   0.037065   0.951498 )

     reciprocal axes: (cart. coord. in units 2 pi/alat)
               b(1) = (  1.000000 -1.694584 -0.076648 )
               b(2) = (  0.000000  1.967642 -0.076648 )
               b(3) = (  0.000000  0.000000  1.050974 )

     PseudoPot. # 1 for Ag read from file:
     /home/pragov/projects/rrg-bengioy-ad/pragov/crystal_structure_design/SSSP/Ag_ONCV_PBE-1.0.oncvpsp.upf
     MD5 check sum: 94f47bd0669c641108e45594df92fabc
     Pseudo is Norm-conserving, Zval = 19.0
     Generated using ONCVPSP code by D. R. Hamann
     Using radial grid of 1398 points,  6 beta functions with:
                l(1) =   0
                l(2) =   0
                l(3) =   1
                l(4) =   1
                l(5) =   2
                l(6) =   2

     PseudoPot. # 2 for Pb read from file:
     /home/pragov/projects/rrg-bengioy-ad/pragov/crystal_structure_design/SSSP/Pb.pbe-dn-kjpaw_psl.0.2.2.UPF
     MD5 check sum: 9d431e6316058b74ade52399a6cf67da
     Pseudo is Projector augmented-wave + core cor, Zval = 14.0
     Generated using "atomic" code by A. Dal Corso  v.5.0.99 svn rev. 10869
     Shape of augmentation charge: PSQ
     Using radial grid of 1281 points,  6 beta functions with:
                l(1) =   0
                l(2) =   0
                l(3) =   1
                l(4) =   1
                l(5) =   2
                l(6) =   2
     Q(r) pseudized with 0 coefficients

     PseudoPot. # 3 for O  read from file:
     /home/pragov/projects/rrg-bengioy-ad/pragov/crystal_structure_design/SSSP/O.pbe-n-kjpaw_psl.0.1.UPF
     MD5 check sum: 0234752ac141de4415c5fc33072bef88
     Pseudo is Projector augmented-wave + core cor, Zval =  6.0
     Generated using "atomic" code by A. Dal Corso  v.5.0.99 svn rev. 10869
     Shape of augmentation charge: BESSEL
     Using radial grid of 1095 points,  4 beta functions with:
                l(1) =   0
                l(2) =   0
                l(3) =   1
                l(4) =   1
     Q(r) pseudized with 0 coefficients

     atomic species   valence    mass     pseudopotential
        Ag            19.00   107.86820     Ag( 1.00)
        Pb            14.00   207.20000     Pb( 1.00)
        O              6.00    15.99900     O ( 1.00)

      2 Sym. Ops., with inversion, found

                                    s                        frac. trans.

      isym =  1     identity

 cryst.   s( 1) = (     1          0          0      )
                  (     0          1          0      )
                  (     0          0          1      )

 cart.    s( 1) = (  1.0000000  0.0000000 -0.0000000 )
                  (  0.0000000  1.0000000  0.0000000 )
                  (  0.0000000  0.0000000  1.0000000 )

      isym =  2     inversion

 cryst.   s( 2) = (    -1          0          0      )
                  (     0         -1          0      )
                  (     0          0         -1      )

 cart.    s( 2) = ( -1.0000000 -0.0000000  0.0000000 )
                  (  0.0000000 -1.0000000 -0.0000000 )
                  (  0.0000000  0.0000000 -1.0000000 )

   Cartesian axes

     site n.     atom                  positions (alat units)
         1           Ag  tau(   1) = (   1.4218374   0.3882440   0.1858532  )
         2           Ag  tau(   2) = (   0.5751281   0.1570433   0.7656447  )
         3           Pb  tau(   3) = (   0.9306129   0.2541113   0.0000000  )
         4           Pb  tau(   4) = (   0.0678699   0.0185324   0.4757490  )
         5           O   tau(   5) = (   1.7212352   0.4699970   0.1621153  )
         6           O   tau(   6) = (   0.8677294   0.2369404   0.7021455  )
         7           O   tau(   7) = (   1.1292361   0.3083469   0.2493524  )
         8           O   tau(   8) = (   0.2757304   0.0752904   0.7893827  )

   Crystallographic axes

     site n.     atom                  positions (cryst. coord.)
         1           Ag  tau(   1) = (  0.7496800  0.7496800  0.1953270  )
         2           Ag  tau(   2) = (  0.2503200  0.2503200  0.8046730  )
         3           Pb  tau(   3) = (  0.5000000  0.5000000  0.0000000  )
         4           Pb  tau(   4) = ( -0.0000000  0.0000000  0.5000000  )
         5           O   tau(   5) = (  0.9123600  0.9123600  0.1703790  )
         6           O   tau(   6) = (  0.4123960  0.4123960  0.7379370  )
         7           O   tau(   7) = (  0.5876040  0.5876040  0.2620630  )
         8           O   tau(   8) = (  0.0876400  0.0876400  0.8296210  )

     number of k points=     1  Methfessel-Paxton smearing, width (Ry)=  0.0010
                       cart. coord. in units 2pi/alat
        k(    1) = (   0.0000000   0.0000000   0.0000000), wk =   2.0000000

                       cryst. coord.
        k(    1) = (   0.0000000   0.0000000   0.0000000), wk =   2.0000000

     Check: negative core charge=   -0.000008

     Initial potential from superposition of free atoms

     starting charge      89.9947, renormalised to      90.0000
     Starting wfcs are   54 randomized atomic wfcs
     Checking if some PAW data can be deallocated...

     Self-consistent Calculation

     iteration #  1     ecut=    30.00 Ry     beta= 0.70
     Davidson diagonalization with overlap

     ethr =  1.00E-02,  avg # of iterations =  2.0

     total energy              =   -2480.28366816 Ry
     estimated scf accuracy    <       2.03911238 Ry

[...]

     total energy              =   -2481.34272129 Ry
     estimated scf accuracy    <       0.00000337 Ry

     iteration # 12     ecut=    30.00 Ry     beta= 0.70
     Davidson diagonalization with overlap

     ethr =  3.75E-09,  avg # of iterations =  3.0

     End of self-consistent calculation

          k = 0.0000 0.0000 0.0000 (  1394 PWs)   bands (ev):

   -83.0138 -83.0121 -46.1849 -46.1823 -46.0033 -45.9896 -45.9887 -45.9597
   -10.0552  -9.6304  -9.0910  -8.7157  -8.5827  -8.4743  -8.4601  -8.4404
    -8.4203  -7.9961  -7.9672  -7.9393  -7.8099  -6.5142   0.0096   1.0307
     2.9545   3.9674   4.7219   5.2818   5.3228   5.4017   5.5194   5.7240
     5.7765   5.7875   6.0128   6.1357   6.4121   6.5869   6.6006   6.6659
     6.8307   7.0949   7.5191   7.7635   7.7695   9.1540  10.5270  11.7190
    11.9452  12.4334  14.2055  15.0474  15.2912  16.9926

     occupation numbers
     1.0000   1.0000   1.0000   1.0000   1.0000   1.0000   1.0000   1.0000
     1.0000   1.0000   1.0000   1.0000   1.0000   1.0000   1.0000   1.0000
     1.0000   1.0000   1.0000   1.0000   1.0000   1.0000   1.0000   1.0000
     1.0000   1.0000   1.0000   1.0000   1.0000   1.0000   1.0000   1.0000
     1.0000   1.0000   1.0000   1.0000   1.0000   1.0000   1.0000   1.0000
     1.0000   1.0000   1.0000   1.0000   1.0000  -0.0000  -0.0000  -0.0000
    -0.0000  -0.0000  -0.0000  -0.0000  -0.0000  -0.0000

     the Fermi energy is     8.5109 ev

!    total energy              =   -2481.34272164 Ry
     estimated scf accuracy    <       0.00000040 Ry
     smearing contrib. (-TS)   =       0.00000000 Ry
     internal energy E=F+TS    =   -2481.34272164 Ry

     The total energy is F=E-TS. E is the sum of the following terms:
     one-electron contribution =    -489.77892703 Ry
     hartree contribution      =     294.36225809 Ry
     xc contribution           =    -172.53061046 Ry
     ewald contribution        =    -618.26152039 Ry
     one-center paw contrib.   =   -1495.13392185 Ry
      -> PAW hartree energy AE =     305.41834229 Ry
      -> PAW hartree energy PS =    -304.67784511 Ry
      -> PAW xc energy AE      =   -1612.65961134 Ry
      -> PAW xc energy PS      =     116.78519230 Ry
      -> total E_H with PAW    =     295.10275528 Ry
      -> total E_XC with PAW   =   -1668.40502950 Ry

     convergence has been achieved in  12 iterations

     Forces acting on atoms (cartesian axes, Ry/au):

     atom    1 type  1   force =     0.00486298    0.00133087   -0.02626955
     atom    2 type  1   force =    -0.00486298   -0.00133087    0.02626955
     atom    3 type  2   force =     0.00000000    0.00000000    0.00000000
     atom    4 type  2   force =     0.00000000    0.00000000    0.00000000
     atom    5 type  3   force =     0.01255430    0.00342736    0.06016738
     atom    6 type  3   force =     0.02985422    0.00815171   -0.04534057
     atom    7 type  3   force =    -0.02985422   -0.00815171    0.04534057
     atom    8 type  3   force =    -0.01255430   -0.00342736   -0.06016738
     The non-local contrib.  to forces
     atom    1 type  1   force =    -0.03253852   -0.00888239    0.06736943
     atom    2 type  1   force =     0.03253852    0.00888239   -0.06736943
     atom    3 type  2   force =     0.00000000    0.00000000    0.00000000
     atom    4 type  2   force =     0.00000000    0.00000000    0.00000000
     atom    5 type  3   force =    -0.35626908   -0.09727661   -0.14855263
     atom    6 type  3   force =    -0.32873274   -0.08976239    0.34435501
     atom    7 type  3   force =     0.32873274    0.08976239   -0.34435501
     atom    8 type  3   force =     0.35626908    0.09727661    0.14855263
     The ionic contribution  to forces
     atom    1 type  1   force =     2.34922130    0.64147358   19.36098857
     atom    2 type  1   force =    -2.34922130   -0.64147358  -19.36098857
     atom    3 type  2   force =     0.00000000    0.00000000    0.00000000
     atom    4 type  2   force =    -0.00000000   -0.00000000   -0.00000000
     atom    5 type  3   force =     2.19502695    0.59936958    5.15827250
     atom    6 type  3   force =     1.93675641    0.52884676   -6.31297630
     atom    7 type  3   force =    -1.93675641   -0.52884675    6.31297630
     atom    8 type  3   force =    -2.19502695   -0.59936958   -5.15827250
     The local contribution  to forces
     atom    1 type  1   force =    -2.31200210   -0.63131763  -19.45407976
     atom    2 type  1   force =     2.31271671    0.63151697   19.45414923
     atom    3 type  2   force =    -0.00027937   -0.00008989    0.00034064
     atom    4 type  2   force =    -0.00028431   -0.00007027   -0.00021490
     atom    5 type  3   force =    -1.83127029   -0.50004107   -4.95043529
     atom    6 type  3   force =    -1.58320011   -0.43230543    5.92722330
     atom    7 type  3   force =     1.58308044    0.43227853   -5.92725115
     atom    8 type  3   force =     1.83127771    0.50004535    4.95046571
     The core correction contribution to forces
     atom    1 type  1   force =     0.00000000    0.00000000    0.00000000
     atom    2 type  1   force =     0.00000000    0.00000000    0.00000000
     atom    3 type  2   force =    -0.00000032   -0.00000039   -0.00000027
     atom    4 type  2   force =    -0.00000188   -0.00000021   -0.00000024
     atom    5 type  3   force =     0.00534892    0.00146051    0.00123487
     atom    6 type  3   force =     0.00519957    0.00141978   -0.00411143
     atom    7 type  3   force =    -0.00519876   -0.00141952    0.00411073
     atom    8 type  3   force =    -0.00534814   -0.00146034   -0.00123556
     The Hubbard contrib.    to forces
     atom    1 type  1   force =     0.00000000    0.00000000    0.00000000
     atom    2 type  1   force =     0.00000000    0.00000000    0.00000000
     atom    3 type  2   force =     0.00000000    0.00000000    0.00000000
     atom    4 type  2   force =     0.00000000    0.00000000    0.00000000
     atom    5 type  3   force =     0.00000000    0.00000000    0.00000000
     atom    6 type  3   force =     0.00000000    0.00000000    0.00000000
     atom    7 type  3   force =     0.00000000    0.00000000    0.00000000
     atom    8 type  3   force =     0.00000000    0.00000000    0.00000000
     The SCF correction term to forces
     atom    1 type  1   force =     0.00010668    0.00004227   -0.00054721
     atom    2 type  1   force =    -0.00097254   -0.00027170    0.00047890
     atom    3 type  2   force =     0.00030225    0.00009978   -0.00035897
     atom    4 type  2   force =     0.00029749    0.00007826    0.00026835
     atom    5 type  3   force =    -0.00025339   -0.00007954   -0.00038917
     atom    6 type  3   force =    -0.00015614   -0.00004148    0.00015353
     atom    7 type  3   force =     0.00030054    0.00007917   -0.00015562
     atom    8 type  3   force =     0.00030283    0.00008614    0.00028523

     Total force =     0.122625     Total SCF correction =     0.001591

     Computing stress (Cartesian axis) and pressure

          total   stress  (Ry/bohr**3)                   (kbar)     P=     -597.95
  -0.00406530   0.00006875  -0.00028187         -598.03       10.11      -41.46
   0.00006875  -0.00429825  -0.00007698           10.11     -632.29      -11.32
  -0.00028187  -0.00007698  -0.00383074          -41.46      -11.32     -563.52

     kinetic stress (kbar)  31218.78   -257.36      7.36
                             -257.36  32091.20      2.03
                                7.36      2.03  31554.58

     local   stress (kbar) -23755.68  -3841.06   2636.64
                            -3841.06 -10737.69    719.96
                             2636.64    719.96   3600.19

     nonloc. stress (kbar)    155.24     61.59    -21.96
                               61.59    -53.62     -6.02
                              -21.96     -6.02     42.90

     hartree stress (kbar)  20081.22   1540.26  -1148.71
                             1540.26  14861.02   -313.67
                            -1148.71   -313.67   8042.63

     exc-cor stress (kbar)   2417.01      2.28     -0.01
                                2.28   2409.27     -0.00
                               -0.01     -0.00   2406.94

     corecor stress (kbar)  -8613.14      0.94     -0.96
                                0.94  -8616.34     -0.26
                               -0.96     -0.26  -8615.42

     ewald   stress (kbar) -22101.47   2503.46  -1513.83
                             2503.46 -30586.12   -413.36
                            -1513.83   -413.36 -37595.35

     hubbard stress (kbar)      0.00      0.00      0.00
                                0.00      0.00      0.00
                                0.00      0.00      0.00

     DFT-D   stress (kbar)      0.00      0.00      0.00
                                0.00      0.00      0.00
                                0.00      0.00      0.00

     XDM     stress (kbar)      0.00      0.00      0.00
                                0.00      0.00      0.00
                                0.00      0.00      0.00

     dft-nl  stress (kbar)      0.00      0.00      0.00
                                0.00      0.00      0.00
                                0.00      0.00      0.00

     TS-vdW  stress (kbar)      0.00      0.00      0.00
                                0.00      0.00      0.00
                                0.00      0.00      0.00

[...]

                                0.00      0.00      0.00

     Writing all to output data dir new_calculations/myprefix.save/

     General routines

     Parallel routines

     PAW routines

   This run was terminated on:  17: 2:50  20May2023

   JOB DONE.