     Program PWSCF v.7.0 starts on 21May2023 at  8:53:24

     Reading input from espresso_25424.pwi
Warning: card &CELL ignored
Warning: card / ignored

     Current dimensions of program PWSCF are:
     Max number of different atomic species (ntypx) = 10
     Max number of k-points (npk) =  40000
     Max angular momentum in pseudopotentials (lmaxx) =  4
     file Ba.pbe-spn-kjpaw_psl.1.0.0.UPF: wavefunction(s)  5S 6S renormalized
     file O.pbe-n-kjpaw_psl.0.1.UPF: wavefunction(s)  2P renormalized

     gamma-point specific algorithms are used
     Message from routine setup:
     using ibrav=0 with symmetry is DISCOURAGED, use correct ibrav instead

     Subspace diagonalization in iterative solution of the eigenvalue problem:
     a serial algorithm will be used

     Using Slab Decomposition

     bravais-lattice index     =            0
     lattice parameter (alat)  =      13.3247  a.u.
     unit-cell volume          =    4027.4641 (a.u.)^3
     number of atoms/cell      =           20
     number of atomic types    =            3
     number of electrons       =       160.00
     number of Kohn-Sham states=           96
     kinetic-energy cutoff     =      30.0000  Ry
     charge density cutoff     =     240.0000  Ry
     scf convergence threshold =      1.0E-06
     mixing beta               =       0.7000
     number of iterations used =            8  plain     mixing
     Exchange-correlation= SLA  PW   PBX  PBC
                           (   1   4   3   4   0   0   0)

     celldm(1)=  13.324729  celldm(2)=   0.000000  celldm(3)=   0.000000
     celldm(4)=   0.000000  celldm(5)=   0.000000  celldm(6)=   0.000000

     crystal axes: (cart. coord. in units of alat)
               a(1) = (   1.000000   0.000000   0.000000 )
               a(2) = (   0.000000   1.043392   0.000000 )
               a(3) = (   0.000000   0.000000   1.631582 )

     reciprocal axes: (cart. coord. in units 2 pi/alat)
               b(1) = (  1.000000  0.000000  0.000000 )
               b(2) = (  0.000000  0.958412  0.000000 )
               b(3) = (  0.000000  0.000000  0.612902 )

     PseudoPot. # 1 for Cs read from file:
     /home/pragov/projects/rrg-bengioy-ad/pragov/crystal_structure_design/SSSP/Cs_pbe_v1.uspp.F.UPF
     MD5 check sum: 3476d69cb178dfad3ffaa59df4e07ca4
     Pseudo is Ultrasoft + core correction, Zval =  9.0
     Generated by new atomic code, or converted to UPF format
     Using radial grid of  905 points,  6 beta functions with:
                l(1) =   0
                l(2) =   0
                l(3) =   1
                l(4) =   1
                l(5) =   2
                l(6) =   2
     Q(r) pseudized with  6 coefficients,  rinner =    1.500   1.500   1.500
                                                       1.500   1.500

     PseudoPot. # 2 for Ba read from file:
     /home/pragov/projects/rrg-bengioy-ad/pragov/crystal_structure_design/SSSP/Ba.pbe-spn-kjpaw_psl.1.0.0.UPF
     MD5 check sum: c432291d3e53af55f19d5e8866385beb
     Pseudo is Projector augmented-wave + core cor, Zval = 10.0
     Generated using "atomic" code by A. Dal Corso  v.5.1
     Shape of augmentation charge: PSQ
     Using radial grid of 1251 points,  7 beta functions with:
                l(1) =   0
                l(2) =   0
                l(3) =   0
                l(4) =   1
                l(5) =   1
                l(6) =   2
                l(7) =   2
     Q(r) pseudized with 0 coefficients

     PseudoPot. # 3 for O  read from file:
     /home/pragov/projects/rrg-bengioy-ad/pragov/crystal_structure_design/SSSP/O.pbe-n-kjpaw_psl.0.1.UPF
     MD5 check sum: 0234752ac141de4415c5fc33072bef88
     Pseudo is Projector augmented-wave + core cor, Zval =  6.0
     Generated using "atomic" code by A. Dal Corso  v.5.0.99 svn rev. 10869
     Shape of augmentation charge: BESSEL
     Using radial grid of 1095 points,  4 beta functions with:
                l(1) =   0
                l(2) =   0
                l(3) =   1
                l(4) =   1
     Q(r) pseudized with 0 coefficients

     atomic species   valence    mass     pseudopotential
        Cs             9.00   132.90545     Cs( 1.00)
        Ba            10.00   137.32700     Ba( 1.00)
        O              6.00    15.99900     O ( 1.00)

      8 Sym. Ops., with inversion, found ( 6 have fractional translation)

                                    s                        frac. trans.

      isym =  1     identity

 cryst.   s( 1) = (     1          0          0      )
                  (     0          1          0      )
                  (     0          0          1      )

 cart.    s( 1) = (  1.0000000  0.0000000  0.0000000 )
                  (  0.0000000  1.0000000  0.0000000 )
                  (  0.0000000  0.0000000  1.0000000 )

      isym =  2     180 deg rotation - cart. axis [0,0,1]

 cryst.   s( 2) = (    -1          0          0      )    f =(  0.5000000 )
                  (     0         -1          0      )       (  0.0000000 )
                  (     0          0          1      )       ( -0.5000000 )

 cart.    s( 2) = ( -1.0000000  0.0000000  0.0000000 )    f =(  0.5000000 )
                  (  0.0000000 -1.0000000  0.0000000 )       (  0.0000000 )
                  (  0.0000000  0.0000000  1.0000000 )       ( -0.8157910 )

[...]

      isym =  4     180 deg rotation - cart. axis [1,0,0]

[...]

      isym =  5     inversion

 cryst.   s( 5) = (    -1          0          0      )
                  (     0         -1          0      )
                  (     0          0         -1      )

 cart.    s( 5) = ( -1.0000000  0.0000000  0.0000000 )
                  (  0.0000000 -1.0000000  0.0000000 )
                  (  0.0000000  0.0000000 -1.0000000 )

      isym =  6     inv. 180 deg rotation - cart. axis [0,0,1]

[...]

      isym =  8     inv. 180 deg rotation - cart. axis [1,0,0]

 cryst.   s( 8) = (    -1          0          0      )    f =(  0.0000000 )
                  (     0          1          0      )       (  0.5000000 )
                  (     0          0          1      )       (  0.0000000 )

 cart.    s( 8) = ( -1.0000000  0.0000000  0.0000000 )    f =(  0.0000000 )
                  (  0.0000000  1.0000000  0.0000000 )       (  0.5216961 )
                  (  0.0000000  0.0000000  1.0000000 )       (  0.0000000 )

   Cartesian axes

     site n.     atom                  positions (alat units)
         1           Cs  tau(   1) = (   0.4124760   0.6226621   0.2595945  )
         2           Cs  tau(   2) = (   0.5875240   0.1009659   0.2595945  )
         3           Cs  tau(   3) = (   0.0875240   0.1009659   0.5561965  )
         4           Cs  tau(   4) = (   0.9124760   0.6226621   0.5561965  )
         5           Cs  tau(   5) = (   0.0875240   0.4207302   1.0753855  )
         6           Cs  tau(   6) = (   0.9124760   0.9424263   1.0753855  )
         7           Cs  tau(   7) = (   0.4124760   0.9424263   1.3719875  )
         8           Cs  tau(   8) = (   0.5875240   0.4207302   1.3719875  )
         9           Ba  tau(   9) = (   0.0267060   0.2608481   0.0000000  )
        10           Ba  tau(  10) = (   0.9732940   0.7825442   0.0000000  )
        11           Ba  tau(  11) = (   0.4732940   0.7825442   0.8157910  )
        12           Ba  tau(  12) = (   0.5267060   0.2608481   0.8157910  )
        13           O   tau(  13) = (   0.1930800   1.0177540   0.1726671  )
        14           O   tau(  14) = (   0.8069200   0.4960579   0.1726671  )
        15           O   tau(  15) = (   0.3069200   0.4960579   0.6431239  )
        16           O   tau(  16) = (   0.6930800   1.0177540   0.6431239  )
        17           O   tau(  17) = (   0.3069200   0.0256382   0.9884581  )
        18           O   tau(  18) = (   0.6930800   0.5473344   0.9884581  )
        19           O   tau(  19) = (   0.1930800   0.5473344   1.4589149  )
        20           O   tau(  20) = (   0.8069200   0.0256382   1.4589149  )

   Crystallographic axes

     site n.     atom                  positions (cryst. coord.)
         1           Cs  tau(   1) = (  0.4124760  0.5967670  0.1591060  )
         2           Cs  tau(   2) = (  0.5875240  0.0967670  0.1591060  )
         3           Cs  tau(   3) = (  0.0875240  0.0967670  0.3408940  )
         4           Cs  tau(   4) = (  0.9124760  0.5967670  0.3408940  )
         5           Cs  tau(   5) = (  0.0875240  0.4032330  0.6591060  )
         6           Cs  tau(   6) = (  0.9124760  0.9032330  0.6591060  )
         7           Cs  tau(   7) = (  0.4124760  0.9032330  0.8408940  )
         8           Cs  tau(   8) = (  0.5875240  0.4032330  0.8408940  )
         9           Ba  tau(   9) = (  0.0267060  0.2500000  0.0000000  )
        10           Ba  tau(  10) = (  0.9732940  0.7500000  0.0000000  )
        11           Ba  tau(  11) = (  0.4732940  0.7500000  0.5000000  )
        12           Ba  tau(  12) = (  0.5267060  0.2500000  0.5000000  )
        13           O   tau(  13) = (  0.1930800  0.9754280  0.1058280  )
        14           O   tau(  14) = (  0.8069200  0.4754280  0.1058280  )
        15           O   tau(  15) = (  0.3069200  0.4754280  0.3941720  )
        16           O   tau(  16) = (  0.6930800  0.9754280  0.3941720  )
        17           O   tau(  17) = (  0.3069200  0.0245720  0.6058280  )
        18           O   tau(  18) = (  0.6930800  0.5245720  0.6058280  )
        19           O   tau(  19) = (  0.1930800  0.5245720  0.8941720  )
        20           O   tau(  20) = (  0.8069200  0.0245720  0.8941720  )

     number of k points=     1  Methfessel-Paxton smearing, width (Ry)=  0.0010
                       cart. coord. in units 2pi/alat
        k(    1) = (   0.0000000   0.0000000   0.0000000), wk =   2.0000000

                       cryst. coord.
        k(    1) = (   0.0000000   0.0000000   0.0000000), wk =   2.0000000

     Check: negative core charge=   -0.000005

     Initial potential from superposition of free atoms

     starting charge     159.6169, renormalised to     160.0000
     Starting wfcs are  156 randomized atomic wfcs
     Checking if some PAW data can be deallocated...

     Self-consistent Calculation

     iteration #  1     ecut=    30.00 Ry     beta= 0.70
     Davidson diagonalization with overlap

     ethr =  1.00E-02,  avg # of iterations =  6.0

     total energy              =   -2578.68352566 Ry
     estimated scf accuracy    <       8.27825944 Ry

[...]

     total energy              =   -2583.13318348 Ry
     estimated scf accuracy    <       0.00000158 Ry

     iteration # 31     ecut=    30.00 Ry     beta= 0.70
     Davidson diagonalization with overlap

     ethr =  9.90E-10,  avg # of iterations =  2.0

     End of self-consistent calculation

          k = 0.0000 0.0000 0.0000 (  5590 PWs)   bands (ev):

   -19.4758 -19.4747 -19.3203 -19.3199 -15.1973 -15.1421 -15.1049 -15.0462
   -15.0300 -15.0129 -14.9618 -14.9506  -9.0181  -8.9855  -8.8313  -8.8246
    -8.7694  -8.7301  -8.4809  -8.4008  -4.8442  -4.8342  -4.8068  -4.7961
    -4.6567  -4.6017  -4.5761  -4.5365  -4.4724  -4.4592  -4.0576  -4.0574
    -2.6838  -2.6369  -2.5633  -2.5110  -2.3977  -2.2328  -2.1781  -2.1635
    -2.0704  -2.0172  -1.8793  -1.8271  -1.7761  -1.6937  -1.6560  -1.6478
    -1.6354  -1.5883  -1.5604  -1.5429  -1.4745  -1.4311  -1.4044  -1.3649
     5.2357   5.2915   5.3415   5.4545   5.5257   5.5601   5.5839   5.6044
     5.7930   5.7956   5.8219   5.8415   5.8790   5.9261   6.0241   6.0699
     6.0716   6.0994   6.1140   6.1407   6.1883   6.2073   6.6258   6.6707
     8.0870   9.3229   9.3856   9.4994   9.8463   9.8478  10.1733  10.1800
    10.2304  10.3660  10.4629  10.4833  10.5676  10.8612  10.8955  10.8993

     occupation numbers
     1.0000   1.0000   1.0000   1.0000   1.0000   1.0000   1.0000   1.0000
     1.0000   1.0000   1.0000   1.0000   1.0000   1.0000   1.0000   1.0000
     1.0000   1.0000   1.0000   1.0000   1.0000   1.0000   1.0000   1.0000
     1.0000   1.0000   1.0000   1.0000   1.0000   1.0000   1.0000   1.0000
     1.0000   1.0000   1.0000   1.0000   1.0000   1.0000   1.0000   1.0000
     1.0000   1.0000   1.0000   1.0000   1.0000   1.0000   1.0000   1.0000
     1.0000   1.0000   1.0000   1.0000   1.0000   1.0000   1.0000   1.0000
     1.0000   1.0000   1.0000   1.0000   1.0000   1.0000   1.0000   1.0000
     1.0000   1.0000   1.0000   1.0000   1.0000   1.0000   1.0000   1.0000
     1.0000   1.0000   1.0000   1.0000   1.0000   1.0000   1.0000   1.0000
    -0.0000  -0.0000  -0.0000  -0.0000  -0.0000  -0.0000  -0.0000  -0.0000
    -0.0000  -0.0000  -0.0000  -0.0000  -0.0000  -0.0000  -0.0000  -0.0000

     the Fermi energy is     7.2045 ev

!    total energy              =   -2583.13318326 Ry
     estimated scf accuracy    <       0.00000082 Ry
     smearing contrib. (-TS)   =       0.00000000 Ry
     internal energy E=F+TS    =   -2583.13318326 Ry

     The total energy is F=E-TS. E is the sum of the following terms:
     one-electron contribution =    -183.39285083 Ry
     hartree contribution      =     176.04014523 Ry
     xc contribution           =    -383.47079341 Ry
     ewald contribution        =    -616.24909658 Ry
     one-center paw contrib.   =   -1576.06058768 Ry
      -> PAW hartree energy AE =     340.28622647 Ry
      -> PAW hartree energy PS =    -339.09872051 Ry
      -> PAW xc energy AE      =   -1712.41994866 Ry
      -> PAW xc energy PS      =     135.17185502 Ry
      -> total E_H with PAW    =     177.22765120 Ry
      -> total E_XC with PAW   =   -1960.71888706 Ry

     convergence has been achieved in  31 iterations

     Forces acting on atoms (cartesian axes, Ry/au):

     atom    1 type  1   force =     0.00133209    0.00426674    0.00308298
     atom    2 type  1   force =    -0.00133209    0.00426674    0.00308298
     atom    3 type  1   force =    -0.00133209    0.00426674   -0.00308298
     atom    4 type  1   force =     0.00133209    0.00426674   -0.00308298
     atom    5 type  1   force =    -0.00133209   -0.00426674    0.00308298
     atom    6 type  1   force =     0.00133209   -0.00426674    0.00308298
     atom    7 type  1   force =     0.00133209   -0.00426674   -0.00308298
     atom    8 type  1   force =    -0.00133209   -0.00426674   -0.00308298
     atom    9 type  2   force =    -0.00481309   -0.00000000   -0.00000000
     atom   10 type  2   force =     0.00481309    0.00000000    0.00000000
     atom   11 type  2   force =     0.00481309    0.00000000   -0.00000000
     atom   12 type  2   force =    -0.00481309   -0.00000000    0.00000000
     atom   13 type  3   force =    -0.00021315   -0.00308980   -0.00106689
     atom   14 type  3   force =     0.00021315   -0.00308980   -0.00106689
     atom   15 type  3   force =     0.00021315   -0.00308980    0.00106689
     atom   16 type  3   force =    -0.00021315   -0.00308980    0.00106689
     atom   17 type  3   force =     0.00021315    0.00308980   -0.00106689
     atom   18 type  3   force =    -0.00021315    0.00308980   -0.00106689
     atom   19 type  3   force =    -0.00021315    0.00308980    0.00106689
     atom   20 type  3   force =     0.00021315    0.00308980    0.00106689
     The non-local contrib.  to forces
     atom    1 type  1   force =    -0.00805210   -0.00797672   -0.00734731
     atom    2 type  1   force =     0.00805210   -0.00797672   -0.00734731
     atom    3 type  1   force =     0.00805210   -0.00797672    0.00734731
     atom    4 type  1   force =    -0.00805210   -0.00797672    0.00734731
     atom    5 type  1   force =     0.00805210    0.00797672   -0.00734731
     atom    6 type  1   force =    -0.00805210    0.00797672   -0.00734731
     atom    7 type  1   force =    -0.00805210    0.00797672    0.00734731
     atom    8 type  1   force =     0.00805210    0.00797672    0.00734731
     atom    9 type  2   force =     0.02987429    0.00000000   -0.00000000
     atom   10 type  2   force =    -0.02987429    0.00000000    0.00000000
     atom   11 type  2   force =    -0.02987429    0.00000000   -0.00000000
     atom   12 type  2   force =     0.02987429    0.00000000    0.00000000
     atom   13 type  3   force =    -0.08077885    0.00687802   -0.05854963
     atom   14 type  3   force =     0.08077885    0.00687802   -0.05854963
     atom   15 type  3   force =     0.08077885    0.00687802    0.05854963
     atom   16 type  3   force =    -0.08077885    0.00687802    0.05854963
     atom   17 type  3   force =     0.08077885   -0.00687802   -0.05854963
     atom   18 type  3   force =    -0.08077885   -0.00687802   -0.05854963
     atom   19 type  3   force =    -0.08077885   -0.00687802    0.05854963
     atom   20 type  3   force =     0.08077885   -0.00687802    0.05854963
     The ionic contribution  to forces
     atom    1 type  1   force =     0.45530007    0.00212881   -0.10719945
     atom    2 type  1   force =    -0.45530007    0.00212881   -0.10719945
     atom    3 type  1   force =    -0.45530007    0.00212881    0.10719945
     atom    4 type  1   force =     0.45530007    0.00212881    0.10719945
     atom    5 type  1   force =    -0.45530007   -0.00212881   -0.10719945
     atom    6 type  1   force =     0.45530007   -0.00212881   -0.10719945
     atom    7 type  1   force =     0.45530007   -0.00212881    0.10719945
     atom    8 type  1   force =    -0.45530007   -0.00212881    0.10719945
     atom    9 type  2   force =     2.02783848   -0.00000000   -0.00000000
     atom   10 type  2   force =    -2.02783848    0.00000000   -0.00000000
     atom   11 type  2   force =    -2.02783848    0.00000000    0.00000000
     atom   12 type  2   force =     2.02783848   -0.00000000    0.00000000
     atom   13 type  3   force =     2.13598704    0.01653243    1.93225495
     atom   14 type  3   force =    -2.13598704    0.01653243    1.93225495
     atom   15 type  3   force =    -2.13598704    0.01653243   -1.93225495
     atom   16 type  3   force =     2.13598704    0.01653243   -1.93225495
     atom   17 type  3   force =    -2.13598704   -0.01653243    1.93225495
     atom   18 type  3   force =     2.13598704   -0.01653243    1.93225495
     atom   19 type  3   force =     2.13598704   -0.01653243   -1.93225495
     atom   20 type  3   force =    -2.13598704   -0.01653243   -1.93225495
     The local contribution  to forces
     atom    1 type  1   force =    -0.44726181    0.00971126    0.11629528
     atom    2 type  1   force =     0.44727263    0.00970388    0.11630976
     atom    3 type  1   force =     0.44726333    0.00970384   -0.11629910
     atom    4 type  1   force =    -0.44727602    0.00971856   -0.11630660
     atom    5 type  1   force =     0.44726977   -0.00971698    0.11630269
     atom    6 type  1   force =    -0.44727039   -0.00969980    0.11629221
     atom    7 type  1   force =    -0.44726857   -0.00970624   -0.11629819
     atom    8 type  1   force =     0.44726231   -0.00971213   -0.11628801
     atom    9 type  2   force =    -2.06121602   -0.00082082    0.00039447
     atom   10 type  2   force =     2.06194535    0.00047308    0.00002313
     atom   11 type  2   force =     2.06227393    0.00037788    0.00019733
     atom   12 type  2   force =    -2.06210463    0.00055057   -0.00000217
     atom   13 type  3   force =    -2.05587938   -0.02648932   -1.87509272
     atom   14 type  3   force =     2.05588100   -0.02649356   -1.87508978
     atom   15 type  3   force =     2.05588507   -0.02650139    1.87508906
     atom   16 type  3   force =    -2.05588161   -0.02649565    1.87509073
     atom   17 type  3   force =     2.05589207    0.02649361   -1.87509722
     atom   18 type  3   force =    -2.05588782    0.02650064   -1.87510115
     atom   19 type  3   force =    -2.05588151    0.02649815    1.87509614
     atom   20 type  3   force =     2.05587885    0.02649668    1.87509647
     The core correction contribution to forces
     atom    1 type  1   force =     0.00135226    0.00040499    0.00132789
     atom    2 type  1   force =    -0.00135139    0.00040527    0.00132774
     atom    3 type  1   force =    -0.00135134    0.00040550   -0.00132724
     atom    4 type  1   force =     0.00135224    0.00040501   -0.00132748
     atom    5 type  1   force =    -0.00135212   -0.00040477    0.00132762
     atom    6 type  1   force =     0.00135203   -0.00040496    0.00132755
     atom    7 type  1   force =     0.00135141   -0.00040551   -0.00132822
     atom    8 type  1   force =    -0.00135200   -0.00040470   -0.00132770
     atom    9 type  2   force =    -0.00062302   -0.00001364    0.00000386
     atom   10 type  2   force =     0.00063309    0.00000935    0.00000017
     atom   11 type  2   force =     0.00063708    0.00000622    0.00000099
     atom   12 type  2   force =    -0.00063599    0.00001010    0.00000041
     atom   13 type  3   force =     0.00046079   -0.00000345    0.00031751
     atom   14 type  3   force =    -0.00046074   -0.00000346    0.00031757
     atom   15 type  3   force =    -0.00046075   -0.00000346   -0.00031746
     atom   16 type  3   force =     0.00046073   -0.00000346   -0.00031759
     atom   17 type  3   force =    -0.00046076    0.00000338    0.00031751
     atom   18 type  3   force =     0.00046062    0.00000354    0.00031754
     atom   19 type  3   force =     0.00046075    0.00000352   -0.00031755
     atom   20 type  3   force =    -0.00046079    0.00000347   -0.00031755
     The Hubbard contrib.    to forces
     atom    1 type  1   force =     0.00000000    0.00000000    0.00000000
     atom    2 type  1   force =     0.00000000    0.00000000    0.00000000
     atom    3 type  1   force =     0.00000000    0.00000000    0.00000000
     atom    4 type  1   force =     0.00000000    0.00000000    0.00000000
     atom    5 type  1   force =     0.00000000    0.00000000    0.00000000
     atom    6 type  1   force =     0.00000000    0.00000000    0.00000000
     atom    7 type  1   force =     0.00000000    0.00000000    0.00000000
     atom    8 type  1   force =     0.00000000    0.00000000    0.00000000
     atom    9 type  2   force =     0.00000000    0.00000000    0.00000000
     atom   10 type  2   force =     0.00000000    0.00000000    0.00000000
     atom   11 type  2   force =     0.00000000    0.00000000    0.00000000
     atom   12 type  2   force =     0.00000000    0.00000000    0.00000000
     atom   13 type  3   force =     0.00000000    0.00000000    0.00000000
     atom   14 type  3   force =     0.00000000    0.00000000    0.00000000
     atom   15 type  3   force =     0.00000000    0.00000000    0.00000000
     atom   16 type  3   force =     0.00000000    0.00000000    0.00000000
     atom   17 type  3   force =     0.00000000    0.00000000    0.00000000
     atom   18 type  3   force =     0.00000000    0.00000000    0.00000000
     atom   19 type  3   force =     0.00000000    0.00000000    0.00000000
     atom   20 type  3   force =     0.00000000    0.00000000    0.00000000
     The SCF correction term to forces
     atom    1 type  1   force =    -0.00000440   -0.00000312    0.00000904
     atom    2 type  1   force =    -0.00000199    0.00000563   -0.00000581
     atom    3 type  1   force =     0.00000775    0.00000859    0.00000175
     atom    4 type  1   force =     0.00000956   -0.00000913    0.00000724
     atom    5 type  1   force =    -0.00000408    0.00000813   -0.00000154
     atom    6 type  1   force =     0.00000438   -0.00000971    0.00000766
     atom    7 type  1   force =    -0.00000150   -0.00000513   -0.00000831
     atom    8 type  1   force =     0.00000331    0.00000486   -0.00001604
     atom    9 type  2   force =    -0.00009355    0.00011638   -0.00006507
     atom   10 type  2   force =     0.00000302   -0.00005641   -0.00001022
     atom   11 type  2   force =    -0.00005470   -0.00008126   -0.00001803
     atom   12 type  2   force =     0.00000752   -0.00003930    0.00001099
     atom   13 type  3   force =    -0.00000052   -0.00000524    0.00000187
     atom   14 type  3   force =     0.00000019   -0.00000243    0.00000162
     atom   15 type  3   force =    -0.00000172    0.00000448    0.00000225
     atom   16 type  3   force =     0.00000144   -0.00000146   -0.00000207
     atom   17 type  3   force =    -0.00000863    0.00000072    0.00000779
     atom   18 type  3   force =     0.00000114   -0.00000121    0.00000704
     atom   19 type  3   force =     0.00000015    0.00000098   -0.00000926
     atom   20 type  3   force =     0.00000168    0.00000012   -0.00000793

     Total force =     0.020356     Total SCF correction =     0.000208

     Computing stress (Cartesian axis) and pressure

          total   stress  (Ry/bohr**3)                   (kbar)     P=      -91.36
  -0.00058890   0.00000000   0.00000000          -86.63        0.00        0.00
   0.00000000  -0.00063785   0.00000000            0.00      -93.83        0.00
   0.00000000   0.00000000  -0.00063638            0.00        0.00      -93.61

     kinetic stress (kbar)   7313.26      0.00      0.00
                                0.00   7309.64      0.00
                                0.00      0.00   7284.72

     local   stress (kbar)  -5265.22      0.00      0.00
                                0.00  -7044.10      0.00
                                0.00      0.00  -4478.05

     nonloc. stress (kbar)   5819.08      0.00      0.00
                                0.00   5818.04      0.00
                                0.00      0.00   5817.17

     hartree stress (kbar)   2003.83     -0.00     -0.00
                               -0.00   2682.91      0.00
                               -0.00      0.00   1743.21

     exc-cor stress (kbar)   6750.62      0.00     -0.00
                                0.00   6752.72      0.00
                               -0.00      0.00   6749.54

     corecor stress (kbar)  -9007.74     -0.00      0.00
                               -0.00  -9007.61      0.00
                                0.00      0.00  -9007.31

     ewald   stress (kbar)  -7700.47     -0.00      0.00
                               -0.00  -6605.43     -0.00
                                0.00     -0.00  -8202.90

     hubbard stress (kbar)      0.00      0.00      0.00
                                0.00      0.00      0.00
                                0.00      0.00      0.00

     DFT-D   stress (kbar)      0.00      0.00      0.00
                                0.00      0.00      0.00
                                0.00      0.00      0.00

     XDM     stress (kbar)      0.00      0.00      0.00
                                0.00      0.00      0.00
                                0.00      0.00      0.00

     dft-nl  stress (kbar)      0.00      0.00      0.00
                                0.00      0.00      0.00
                                0.00      0.00      0.00

     TS-vdW  stress (kbar)      0.00      0.00      0.00
                                0.00      0.00      0.00
                                0.00      0.00      0.00

[...]

                                0.00      0.00      0.00

     Writing all to output data dir new_calculations/myprefix.save/

     General routines

     Parallel routines

     PAW routines

   This run was terminated on:   8:56:10  21May2023

   JOB DONE.