     Program PWSCF v.7.0 starts on 21May2023 at  4: 2:55

     Reading input from espresso_25307.pwi
Warning: card &CELL ignored
Warning: card / ignored

     Current dimensions of program PWSCF are:
     Max number of different atomic species (ntypx) = 10
     Max number of k-points (npk) =  40000
     Max angular momentum in pseudopotentials (lmaxx) =  4
     file Ba.pbe-spn-kjpaw_psl.1.0.0.UPF: wavefunction(s)  5S 6S renormalized

     gamma-point specific algorithms are used
     Message from routine setup:
     using ibrav=0 with symmetry is DISCOURAGED, use correct ibrav instead

     Subspace diagonalization in iterative solution of the eigenvalue problem:
     a serial algorithm will be used

     Using Slab Decomposition

     bravais-lattice index     =            0
     lattice parameter (alat)  =      17.4268  a.u.
     unit-cell volume          =    3460.2091 (a.u.)^3
     number of atoms/cell      =           12
     number of atomic types    =            3
     number of electrons       =        96.00
     number of Kohn-Sham states=           58
     kinetic-energy cutoff     =      30.0000  Ry
     charge density cutoff     =     240.0000  Ry
     scf convergence threshold =      1.0E-06
     mixing beta               =       0.7000
     number of iterations used =            8  plain     mixing
     Exchange-correlation= SLA  PW   PBX  PBC
                           (   1   4   3   4   0   0   0)

     celldm(1)=  17.426812  celldm(2)=   0.000000  celldm(3)=   0.000000
     celldm(4)=   0.000000  celldm(5)=   0.000000  celldm(6)=   0.000000

     crystal axes: (cart. coord. in units of alat)
               a(1) = (   1.000000   0.000000   0.000000 )
               a(2) = (  -0.348791   0.937200   0.000000 )
               a(3) = (   0.269467   0.387809   0.697615 )

     reciprocal axes: (cart. coord. in units 2 pi/alat)
               b(1) = (  1.000000  0.372163 -0.593156 )
               b(2) = (  0.000000  1.067008 -0.593156 )
               b(3) = (  0.000000  0.000000  1.433455 )

     PseudoPot. # 1 for Ba read from file:
     /home/pragov/projects/rrg-bengioy-ad/pragov/crystal_structure_design/SSSP/Ba.pbe-spn-kjpaw_psl.1.0.0.UPF
     MD5 check sum: c432291d3e53af55f19d5e8866385beb
     Pseudo is Projector augmented-wave + core cor, Zval = 10.0
     Generated using "atomic" code by A. Dal Corso  v.5.1
     Shape of augmentation charge: PSQ
     Using radial grid of 1251 points,  7 beta functions with:
                l(1) =   0
                l(2) =   0
                l(3) =   0
                l(4) =   1
                l(5) =   1
                l(6) =   2
                l(7) =   2
     Q(r) pseudized with 0 coefficients

     PseudoPot. # 2 for Ca read from file:
     /home/pragov/projects/rrg-bengioy-ad/pragov/crystal_structure_design/SSSP/Ca_pbe_v1.uspp.F.UPF
     MD5 check sum: 403a4c14b9e4d4dfdc3024c9a3812218
     Pseudo is Ultrasoft + core correction, Zval = 10.0
     Generated by new atomic code, or converted to UPF format
     Using radial grid of  845 points,  6 beta functions with:
                l(1) =   0
                l(2) =   0
                l(3) =   1
                l(4) =   1
                l(5) =   2
                l(6) =   2
     Q(r) pseudized with  8 coefficients,  rinner =    1.500   1.500   1.500
                                                       1.500   1.500

     PseudoPot. # 3 for I  read from file:
     /home/pragov/projects/rrg-bengioy-ad/pragov/crystal_structure_design/SSSP/I.pbe-n-kjpaw_psl.0.2.UPF
     MD5 check sum: d4ef18d9c8f18dc85e5843bca1e50dc0
     Pseudo is Projector augmented-wave + core cor, Zval =  7.0
     Generated using "atomic" code by A. Dal Corso  v.5.0.99 svn rev. 10869
     Shape of augmentation charge: PSQ
     Using radial grid of 1247 points,  4 beta functions with:
                l(1) =   0
                l(2) =   0
                l(3) =   1
                l(4) =   1
     Q(r) pseudized with 0 coefficients

     atomic species   valence    mass     pseudopotential
        Ba            10.00   137.32700     Ba( 1.00)
        Ca            10.00    40.07800     Ca( 1.00)
        I              7.00   126.90447     I ( 1.00)

      2 Sym. Ops., with inversion, found

                                    s                        frac. trans.

      isym =  1     identity

 cryst.   s( 1) = (     1          0          0      )
                  (     0          1          0      )
                  (     0          0          1      )

 cart.    s( 1) = (  1.0000000  0.0000000  0.0000000 )
                  (  0.0000000  1.0000000  0.0000000 )
                  (  0.0000000  0.0000000  1.0000000 )

      isym =  2     inversion

 cryst.   s( 2) = (    -1          0          0      )
                  (     0         -1          0      )
                  (     0          0         -1      )

 cart.    s( 2) = ( -1.0000000 -0.0000000 -0.0000000 )
                  (  0.0000000 -1.0000000 -0.0000000 )
                  (  0.0000000  0.0000000 -1.0000000 )

   Cartesian axes

     site n.     atom                  positions (alat units)
         1           Ba  tau(   1) = (   0.7092222   0.6333302   0.5232115  )
         2           Ba  tau(   2) = (   0.2114535   0.6916790   0.1744038  )
         3           Ca  tau(   3) = (  -0.2781887   1.0319043   0.1744038  )
         4           Ca  tau(   4) = (   1.1988644   0.2931049   0.5232115  )
         5           I   tau(   5) = (   0.5727041   1.0011922   0.5014626  )
         6           I   tau(   6) = (   0.9558853   0.4295021   0.2933814  )
         7           I   tau(   7) = (   0.3168454   0.6329679   0.5449603  )
         8           I   tau(   8) = (   0.7168170   0.0854421   0.0554262  )
         9           I   tau(   9) = (   0.2038586   1.2395670   0.6421891  )
        10           I   tau(  10) = (   0.6038302   0.6920412   0.1526550  )
        11           I   tau(  11) = (  -0.0352096   0.8955071   0.4042339  )
        12           I   tau(  12) = (   0.3479715   0.3238170   0.1961527  )

   Crystallographic axes

     site n.     atom                  positions (cryst. coord.)
         1           Ba  tau(   1) = (  0.6345780  0.3654220  0.7500000  )
         2           Ba  tau(   2) = (  0.3654220  0.6345780  0.2500000  )
         3           Ca  tau(   3) = (  0.0023990  0.9976010  0.2500000  )
         4           Ca  tau(   4) = (  0.9976010  0.0023990  0.7500000  )
         5           I   tau(   5) = (  0.6478650  0.7708340  0.7188240  )
         6           I   tau(   6) = (  0.9417090  0.2842610  0.4205490  )
         7           I   tau(   7) = (  0.2291660  0.3521350  0.7811760  )
         8           I   tau(   8) = (  0.7157390  0.0582910  0.0794510  )
         9           I   tau(   9) = (  0.2842610  0.9417090  0.9205490  )
        10           I   tau(  10) = (  0.7708340  0.6478650  0.2188240  )
        11           I   tau(  11) = (  0.0582910  0.7157390  0.5794510  )
        12           I   tau(  12) = (  0.3521350  0.2291660  0.2811760  )

     number of k points=     1  Methfessel-Paxton smearing, width (Ry)=  0.0010
                       cart. coord. in units 2pi/alat
        k(    1) = (   0.0000000   0.0000000   0.0000000), wk =   2.0000000

                       cryst. coord.
        k(    1) = (   0.0000000   0.0000000   0.0000000), wk =   2.0000000

     Check: negative core charge=   -0.000001

     Initial potential from superposition of free atoms

     starting charge      95.9545, renormalised to      96.0000
     Starting wfcs are   62 randomized atomic wfcs
     Checking if some PAW data can be deallocated...

     Self-consistent Calculation

     iteration #  1     ecut=    30.00 Ry     beta= 0.70
     Davidson diagonalization with overlap

     ethr =  1.00E-02,  avg # of iterations =  5.0

     Threshold (ethr) on eigenvalues was too large:
     Diagonalizing with lowered threshold

     Davidson diagonalization with overlap

[...]

     negative rho (up, down):  7.910E-02 0.000E+00

     total energy              =   -4054.90856766 Ry
     estimated scf accuracy    <       0.28624668 Ry

[...]

     negative rho (up, down):  3.799E-03 0.000E+00

[...]

     total energy              =   -4054.94124786 Ry
     estimated scf accuracy    <       0.00001012 Ry

     iteration # 13     ecut=    30.00 Ry     beta= 0.70
     Davidson diagonalization with overlap

     ethr =  1.05E-08,  avg # of iterations =  3.0

     End of self-consistent calculation

          k = 0.0000 0.0000 0.0000 (  4800 PWs)   bands (ev):

   -37.2532 -37.2482 -23.4944 -23.4927 -18.3085 -18.2274 -18.2083 -18.2008
   -18.1968 -18.1897  -8.8213  -8.8186  -8.7986  -8.7846  -8.7678  -8.6947
    -8.1277  -7.6584  -7.6192  -7.5932  -7.5700  -7.4407  -7.3302  -7.3284
     0.3250   0.8017   1.0890   1.1777   1.3778   1.5045   1.5161   1.6096
     1.6427   1.7978   1.8663   2.0064   2.3677   2.3842   2.5058   2.6687
     2.7465   2.7585   2.8376   3.0201   3.1120   3.1280   3.2435   3.3807
     6.2405   7.2748   7.3497   7.5105   7.5278   7.7349   7.7711   7.8086
     7.8238   7.9885

     occupation numbers
     1.0000   1.0000   1.0000   1.0000   1.0000   1.0000   1.0000   1.0000
     1.0000   1.0000   1.0000   1.0000   1.0000   1.0000   1.0000   1.0000
     1.0000   1.0000   1.0000   1.0000   1.0000   1.0000   1.0000   1.0000
     1.0000   1.0000   1.0000   1.0000   1.0000   1.0000   1.0000   1.0000
     1.0000   1.0000   1.0000   1.0000   1.0000   1.0000   1.0000   1.0000
     1.0000   1.0000   1.0000   1.0000   1.0000   1.0000   1.0000   1.0000
    -0.0000  -0.0000  -0.0000  -0.0000  -0.0000  -0.0000  -0.0000  -0.0000
    -0.0000  -0.0000

     the Fermi energy is     5.2799 ev

!    total energy              =   -4054.94124797 Ry
     estimated scf accuracy    <       0.00000058 Ry
     smearing contrib. (-TS)   =       0.00000000 Ry
     internal energy E=F+TS    =   -4054.94124797 Ry

     The total energy is F=E-TS. E is the sum of the following terms:
     one-electron contribution =    -122.57855374 Ry
     hartree contribution      =      97.13767227 Ry
     xc contribution           =    -398.48886260 Ry
     ewald contribution        =    -316.89949639 Ry
     one-center paw contrib.   =   -3314.11200750 Ry
      -> PAW hartree energy AE =     135.17451007 Ry
      -> PAW hartree energy PS =    -135.44805703 Ry
      -> PAW xc energy AE      =   -3676.09032373 Ry
      -> PAW xc energy PS      =     362.25186318 Ry
      -> total E_H with PAW    =      96.86412531 Ry
      -> total E_XC with PAW   =   -3712.32732315 Ry

     convergence has been achieved in  13 iterations

     Forces acting on atoms (cartesian axes, Ry/au):

     atom    1 type  1   force =    -0.00183565    0.00123629   -0.00001659
     atom    2 type  1   force =     0.00183565   -0.00123629    0.00001659
     atom    3 type  2   force =    -0.00267142    0.00186684   -0.00000146
     atom    4 type  2   force =     0.00267142   -0.00186684    0.00000146
     atom    5 type  3   force =    -0.00359053    0.00357520    0.00192858
     atom    6 type  3   force =    -0.00109814    0.00424588    0.00232807
     atom    7 type  3   force =    -0.00460254    0.00211642   -0.00192795
     atom    8 type  3   force =    -0.00436682   -0.00045525   -0.00233119
     atom    9 type  3   force =     0.00436682    0.00045525    0.00233119
     atom   10 type  3   force =     0.00460254   -0.00211642    0.00192795
     atom   11 type  3   force =     0.00109814   -0.00424588   -0.00232807
     atom   12 type  3   force =     0.00359053   -0.00357520   -0.00192858
     The non-local contrib.  to forces
     atom    1 type  1   force =     0.00997966   -0.00717207    0.00001713
     atom    2 type  1   force =    -0.00997966    0.00717207   -0.00001713
     atom    3 type  2   force =    -0.00294875    0.00205476   -0.00000608
     atom    4 type  2   force =     0.00294875   -0.00205476    0.00000608
     atom    5 type  3   force =     0.06698833    0.00435698    0.00765145
     atom    6 type  3   force =     0.04902821    0.00170863    0.03183783
     atom    7 type  3   force =     0.01928528   -0.06430418   -0.00764357
     atom    8 type  3   force =     0.01549561   -0.04654697   -0.03183970
     atom    9 type  3   force =    -0.01549561    0.04654697    0.03183970
     atom   10 type  3   force =    -0.01928528    0.06430418    0.00764357
     atom   11 type  3   force =    -0.04902821   -0.00170863   -0.03183783
     atom   12 type  3   force =    -0.06698833   -0.00435698   -0.00765145
     The ionic contribution  to forces
     atom    1 type  1   force =     0.97250094   -0.67573715    0.00000000
     atom    2 type  1   force =    -0.97250093    0.67573715   -0.00000000
     atom    3 type  2   force =    -0.82038802    0.57004229   -0.00000000
     atom    4 type  2   force =     0.82038802   -0.57004229    0.00000000
     atom    5 type  3   force =    -3.58619253   -0.67980880    0.69078061
     atom    6 type  3   force =    -3.18661526    1.23446275   -1.71177166
     atom    7 type  3   force =    -0.61371527    3.59809261   -0.69078061
     atom    8 type  3   force =    -2.26840241    2.55592754    1.71177166
     atom    9 type  3   force =     2.26840241   -2.55592754   -1.71177166
     atom   10 type  3   force =     0.61371527   -3.59809261    0.69078061
     atom   11 type  3   force =     3.18661525   -1.23446275    1.71177166
     atom   12 type  3   force =     3.58619253    0.67980880   -0.69078061
     The local contribution  to forces
     atom    1 type  1   force =    -0.98322636    0.68434128    0.00005734
     atom    2 type  1   force =     0.98376181   -0.68277229    0.00006340
     atom    3 type  2   force =     0.82163040   -0.57086967   -0.00001535
     atom    4 type  2   force =    -0.82161636    0.57088781    0.00001956
     atom    5 type  3   force =     3.52527220    0.68011468   -0.69523164
     atom    6 type  3   force =     3.14070842   -1.23255018    1.68783341
     atom    7 type  3   force =     0.59218381   -3.54110682    0.69524892
     atom    8 type  3   force =     2.25057824   -2.51356825   -1.68784439
     atom    9 type  3   force =    -2.25058492    2.51357705    1.68783044
     atom   10 type  3   force =    -0.59219604    3.54109918   -0.69526320
     atom   11 type  3   force =    -3.14069126    1.23254747   -1.68783168
     atom   12 type  3   force =    -3.52527069   -0.68011238    0.69523208
     The core correction contribution to forces
     atom    1 type  1   force =    -0.00078797    0.00056803   -0.00000372
     atom    2 type  1   force =     0.00079890   -0.00053687   -0.00000456
     atom    3 type  2   force =    -0.00076019    0.00052868   -0.00000008
     atom    4 type  2   force =     0.00076034   -0.00052848    0.00000040
     atom    5 type  3   force =    -0.00971846   -0.00114673   -0.00114671
     atom    6 type  3   force =    -0.00424263    0.00078508   -0.00550944
     atom    7 type  3   force =    -0.00231725    0.00950651    0.00114598
     atom    8 type  3   force =    -0.00221734    0.00370228    0.00550571
     atom    9 type  3   force =     0.00221791   -0.00370068   -0.00550780
     atom   10 type  3   force =     0.00231523   -0.00950670   -0.00114777
     atom   11 type  3   force =     0.00424540   -0.00078515    0.00550875
     atom   12 type  3   force =     0.00971899    0.00114649    0.00114603
     The Hubbard contrib.    to forces
     atom    1 type  1   force =     0.00000000    0.00000000    0.00000000
     atom    2 type  1   force =     0.00000000    0.00000000    0.00000000
     atom    3 type  2   force =     0.00000000    0.00000000    0.00000000
     atom    4 type  2   force =     0.00000000    0.00000000    0.00000000
     atom    5 type  3   force =     0.00000000    0.00000000    0.00000000
     atom    6 type  3   force =     0.00000000    0.00000000    0.00000000
     atom    7 type  3   force =     0.00000000    0.00000000    0.00000000
     atom    8 type  3   force =     0.00000000    0.00000000    0.00000000
     atom    9 type  3   force =     0.00000000    0.00000000    0.00000000
     atom   10 type  3   force =     0.00000000    0.00000000    0.00000000
     atom   11 type  3   force =     0.00000000    0.00000000    0.00000000
     atom   12 type  3   force =     0.00000000    0.00000000    0.00000000
     The SCF correction term to forces
     atom    1 type  1   force =    -0.00006022   -0.00006451   -0.00004810
     atom    2 type  1   force =    -0.00000277   -0.00013708    0.00001412
     atom    3 type  2   force =    -0.00020007    0.00011385    0.00002065
     atom    4 type  2   force =     0.00019546   -0.00012605   -0.00002398
     atom    5 type  3   force =     0.00005968    0.00005676   -0.00012773
     atom    6 type  3   force =     0.00002985   -0.00016125   -0.00006463
     atom    7 type  3   force =    -0.00004097   -0.00007206    0.00009785
     atom    8 type  3   force =     0.00017505    0.00003407    0.00007615
     atom    9 type  3   force =    -0.00017701   -0.00003666   -0.00005888
     atom   10 type  3   force =     0.00005151    0.00007918   -0.00008874
     atom   11 type  3   force =    -0.00003630    0.00016234    0.00005847
     atom   12 type  3   force =    -0.00006222   -0.00006343    0.00012277

     Total force =     0.015726     Total SCF correction =     0.000594

     Computing stress (Cartesian axis) and pressure

          total   stress  (Ry/bohr**3)                   (kbar)     P=       -0.87
   0.00000988   0.00000074  -0.00000494            1.45        0.11       -0.73
   0.00000074   0.00001043  -0.00000710            0.11        1.53       -1.04
  -0.00000494  -0.00000710  -0.00003801           -0.73       -1.04       -5.59

     kinetic stress (kbar)   3615.09     -6.31     -1.80
                               -6.31   3610.39     -2.60
                               -1.80     -2.60   3589.11

     local   stress (kbar)   1316.71   -757.39    197.70
                             -757.39    752.97    284.52
                              197.70    284.52   -280.73

     nonloc. stress (kbar)    388.90      0.71      1.05
                                0.71    389.43      1.51
                                1.05      1.51    389.31

     hartree stress (kbar)   1048.20    348.11    -52.64
                              348.11   1307.30    -75.75
                              -52.64    -75.75   1774.15

     exc-cor stress (kbar)  12191.05     -0.31     -0.57
                               -0.31  12190.83     -0.82
                               -0.57     -0.82  12190.43

     corecor stress (kbar) -13667.69      0.22     -0.16
                                0.22 -13667.53     -0.23
                               -0.16     -0.23 -13668.06

     ewald   stress (kbar)  -4890.80    415.07   -144.30
                              415.07  -4581.86   -207.67
                             -144.30   -207.67  -3999.80

     hubbard stress (kbar)      0.00      0.00      0.00
                                0.00      0.00      0.00
                                0.00      0.00      0.00

     DFT-D   stress (kbar)      0.00      0.00      0.00
                                0.00      0.00      0.00
                                0.00      0.00      0.00

     XDM     stress (kbar)      0.00      0.00      0.00
                                0.00      0.00      0.00
                                0.00      0.00      0.00

     dft-nl  stress (kbar)      0.00      0.00      0.00
                                0.00      0.00      0.00
                                0.00      0.00      0.00

     TS-vdW  stress (kbar)      0.00      0.00      0.00
                                0.00      0.00      0.00
                                0.00      0.00      0.00

[...]

                                0.00      0.00      0.00

     Writing all to output data dir new_calculations/myprefix.save/

     General routines

     Parallel routines

     PAW routines

   This run was terminated on:   4: 4:30  21May2023

   JOB DONE.