     Program PWSCF v.7.0 starts on 20May2023 at 10:58:23

     Reading input from espresso_19239.pwi
Warning: card &CELL ignored
Warning: card / ignored

     Current dimensions of program PWSCF are:
     Max number of different atomic species (ntypx) = 10
     Max number of k-points (npk) =  40000
     Max angular momentum in pseudopotentials (lmaxx) =  4
     file Ga.pbe-dn-kjpaw_psl.1.0.0.UPF: wavefunction(s)  4S renormalized

     gamma-point specific algorithms are used
     Message from routine setup:
     using ibrav=0 with symmetry is DISCOURAGED, use correct ibrav instead

     Subspace diagonalization in iterative solution of the eigenvalue problem:
     a serial algorithm will be used

     Using Slab Decomposition

     bravais-lattice index     =            0
     lattice parameter (alat)  =      12.1202  a.u.
     unit-cell volume          =     698.2036 (a.u.)^3
     number of atoms/cell      =            5
     number of atomic types    =            2
     number of electrons       =        61.00
     number of Kohn-Sham states=           37
     kinetic-energy cutoff     =      30.0000  Ry
     charge density cutoff     =     240.0000  Ry
     scf convergence threshold =      1.0E-06
     mixing beta               =       0.7000
     number of iterations used =            8  plain     mixing
     Exchange-correlation= SLA  PW   PBX  PBC
                           (   1   4   3   4   0   0   0)

     celldm(1)=  12.120246  celldm(2)=   0.000000  celldm(3)=   0.000000
     celldm(4)=   0.000000  celldm(5)=   0.000000  celldm(6)=   0.000000

     crystal axes: (cart. coord. in units of alat)
               a(1) = (   1.000000   0.000000   0.000000 )
               a(2) = (   0.555314   0.831641   0.000000 )
               a(3) = (  -0.777657  -0.415820   0.471533 )

     reciprocal axes: (cart. coord. in units 2 pi/alat)
               b(1) = (  1.000000 -0.667732  1.060372 )
               b(2) = (  0.000000  1.202442  1.060372 )
               b(3) = (  0.000000  0.000000  2.120743 )

     PseudoPot. # 1 for Na read from file:
     /home/pragov/projects/rrg-bengioy-ad/pragov/crystal_structure_design/SSSP/na_pbe_v1.5.uspp.F.UPF
     MD5 check sum: 44600605ef58000f06b90626533354dc
     Pseudo is Ultrasoft, Zval =  9.0
     Generated by new atomic code, or converted to UPF format
     Using radial grid of  819 points,  5 beta functions with:
                l(1) =   0
                l(2) =   0
                l(3) =   1
                l(4) =   1
                l(5) =   2
     Q(r) pseudized with  8 coefficients,  rinner =    1.250   1.250   1.250
                                                       1.250   1.250

     PseudoPot. # 2 for Ga read from file:
     /home/pragov/projects/rrg-bengioy-ad/pragov/crystal_structure_design/SSSP/Ga.pbe-dn-kjpaw_psl.1.0.0.UPF
     MD5 check sum: a27b4342b1af7e5f338de752e9ed7044
     Pseudo is Projector augmented-wave + core cor, Zval = 13.0
     Generated using "atomic" code by A. Dal Corso  v.5.1
     Shape of augmentation charge: PSQ
     Using radial grid of 1205 points,  6 beta functions with:
                l(1) =   0
                l(2) =   0
                l(3) =   1
                l(4) =   1
                l(5) =   2
                l(6) =   2
     Q(r) pseudized with 0 coefficients

     atomic species   valence    mass     pseudopotential
        Na             9.00    22.98977     Na( 1.00)
        Ga            13.00    69.72300     Ga( 1.00)

      4 Sym. Ops., with inversion, found

                                    s                        frac. trans.

      isym =  1     identity

 cryst.   s( 1) = (     1          0          0      )
                  (     0          1          0      )
                  (     0          0          1      )

 cart.    s( 1) = (  1.0000000 -0.0000000  0.0000000 )
                  (  0.0000000  1.0000000  0.0000000 )
                  (  0.0000000  0.0000000  1.0000000 )

      isym =  2     180 deg rotation - cart. axis [0,0,1]

[...]

      isym =  3     inversion

[...]

      isym =  4     inv. 180 deg rotation - cart. axis [0,0,1]

 cryst.   s( 4) = (     1          0          0      )
                  (     0          1          0      )
                  (    -1         -1         -1      )

 cart.    s( 4) = (  1.0000000 -0.0000000 -0.0000000 )
                  (  0.0000000  1.0000000 -0.0000000 )
                  (  0.0000000  0.0000000 -1.0000000 )

   Cartesian axes

     site n.     atom                  positions (alat units)
         1           Na  tau(   1) = (   0.0000000   0.0000000   0.0000000  )
         2           Ga  tau(   2) = (   0.2776568   0.4158205   0.2357664  )
         3           Ga  tau(   3) = (   0.9495968   0.5077584   0.0000000  )
         4           Ga  tau(   4) = (   0.5000000   0.0000000   0.2357664  )
         5           Ga  tau(   5) = (   0.6057169   0.3238826   0.0000000  )

   Crystallographic axes

     site n.     atom                  positions (cryst. coord.)
         1           Na  tau(   1) = (  0.0000000  0.0000000  0.0000000  )
         2           Ga  tau(   2) = (  0.2500000  0.7500000  0.5000000  )
         3           Ga  tau(   3) = (  0.6105500  0.6105500  0.0000000  )
         4           Ga  tau(   4) = (  0.7500000  0.2500000  0.5000000  )
         5           Ga  tau(   5) = (  0.3894500  0.3894500  0.0000000  )

     number of k points=     1  Methfessel-Paxton smearing, width (Ry)=  0.0010
                       cart. coord. in units 2pi/alat
        k(    1) = (   0.0000000   0.0000000   0.0000000), wk =   2.0000000

                       cryst. coord.
        k(    1) = (   0.0000000   0.0000000   0.0000000), wk =   2.0000000

     Check: negative core charge=   -0.000002

     Initial potential from superposition of free atoms

     starting charge      60.9819, renormalised to      61.0000
     Starting wfcs are   41 randomized atomic wfcs
     Checking if some PAW data can be deallocated...

     Self-consistent Calculation

     iteration #  1     ecut=    30.00 Ry     beta= 0.70
     Davidson diagonalization with overlap

     ethr =  1.00E-02,  avg # of iterations =  4.0

     Threshold (ethr) on eigenvalues was too large:
     Diagonalizing with lowered threshold

     Davidson diagonalization with overlap

[...]

     total energy              =   -1206.51786042 Ry
     estimated scf accuracy    <       0.20037801 Ry

[...]

     total energy              =   -1206.57799215 Ry
     estimated scf accuracy    <       0.00004752 Ry

     iteration # 11     ecut=    30.00 Ry     beta= 0.70
     Davidson diagonalization with overlap

     ethr =  5.96E-08,  avg # of iterations =  1.0

     End of self-consistent calculation

          k = 0.0000 0.0000 0.0000 (   976 PWs)   bands (ev):

   -45.9464 -17.8533 -17.8532 -17.8384  -7.6979  -7.5533  -7.5532  -7.4200
    -7.4004  -7.3909  -7.3870  -7.3869  -7.3548  -7.3229  -5.6136  -5.5741
    -5.5643  -5.5642  -5.5556  -5.4888  -5.4793  -5.4793  -5.3438  -5.2424
    -2.2451   2.3099   2.7716   6.7647   6.9001   6.9001   8.5264   8.5264
    10.4760  10.4959  10.7460  14.8446  14.8447

     occupation numbers
     1.0000   1.0000   1.0000   1.0000   1.0000   1.0000   1.0000   1.0000
     1.0000   1.0000   1.0000   1.0000   1.0000   1.0000   1.0000   1.0000
     1.0000   1.0000   1.0000   1.0000   1.0000   1.0000   1.0000   1.0000
     1.0000   1.0000   1.0000   1.0000   1.0000   1.0000   0.2518   0.2482
    -0.0000  -0.0000  -0.0000  -0.0000  -0.0000

     the Fermi energy is     8.5222 ev

!    total energy              =   -1206.57799347 Ry
     estimated scf accuracy    <       0.00000081 Ry
     smearing contrib. (-TS)   =      -0.00041261 Ry
     internal energy E=F+TS    =   -1206.57758087 Ry

     The total energy is F=E-TS. E is the sum of the following terms:
     one-electron contribution =    -502.29846481 Ry
     hartree contribution      =     306.33347999 Ry
     xc contribution           =    -166.86077293 Ry
     ewald contribution        =    -400.07969767 Ry
     one-center paw contrib.   =    -443.67212543 Ry
      -> PAW hartree energy AE =     568.48087266 Ry
      -> PAW hartree energy PS =    -559.52481991 Ry
      -> PAW xc energy AE      =    -603.52774720 Ry
      -> PAW xc energy PS      =     150.89956902 Ry
      -> total E_H with PAW    =     315.28953274 Ry
      -> total E_XC with PAW   =    -619.48895112 Ry

     convergence has been achieved in  11 iterations

     Forces acting on atoms (cartesian axes, Ry/au):

     atom    1 type  1   force =     0.00000000    0.00000000    0.00000000
     atom    2 type  2   force =     0.00000000    0.00000000   -0.00015212
     atom    3 type  2   force =     0.06828947    0.03640870   -0.00000000
     atom    4 type  2   force =     0.00000000    0.00000000    0.00015212
     atom    5 type  2   force =    -0.06828947   -0.03640870    0.00000000
     The non-local contrib.  to forces
     atom    1 type  1   force =     0.00000000    0.00000000    0.00000000
     atom    2 type  2   force =     0.00000000    0.00000000   -0.00006411
     atom    3 type  2   force =    -0.01779779   -0.00960368    0.00000000
     atom    4 type  2   force =     0.00000000    0.00000000    0.00006411
     atom    5 type  2   force =     0.01779779    0.00960368   -0.00000000
     The ionic contribution  to forces
     atom    1 type  1   force =     0.00000000   -0.00000000   -0.00000000
     atom    2 type  2   force =    -0.00000000    0.00000000    0.00000000
     atom    3 type  2   force =    -7.04797778   -3.76862064    0.00000000
     atom    4 type  2   force =     0.00000000   -0.00000000    0.00000000
     atom    5 type  2   force =     7.04797778    3.76862064   -0.00000000
     The local contribution  to forces
     atom    1 type  1   force =     0.00022566    0.00002092    0.00005335
     atom    2 type  2   force =    -0.00047268   -0.00031016    0.00007182
     atom    3 type  2   force =     7.14110795    3.81849189   -0.00007920
     atom    4 type  2   force =    -0.00136130   -0.00069928    0.00003195
     atom    5 type  2   force =    -7.14067451   -3.81824887    0.00006324
     The core correction contribution to forces
     atom    1 type  1   force =     0.00000000    0.00000000    0.00000000
     atom    2 type  2   force =    -0.00001811   -0.00001034    0.00000279
     atom    3 type  2   force =    -0.00616572   -0.00329506   -0.00000118
     atom    4 type  2   force =     0.00000635    0.00000232    0.00000098
     atom    5 type  2   force =     0.00616607    0.00329479    0.00000028
     The Hubbard contrib.    to forces
     atom    1 type  1   force =     0.00000000    0.00000000    0.00000000
     atom    2 type  2   force =     0.00000000    0.00000000    0.00000000
     atom    3 type  2   force =     0.00000000    0.00000000    0.00000000
     atom    4 type  2   force =     0.00000000    0.00000000    0.00000000
     atom    5 type  2   force =     0.00000000    0.00000000    0.00000000
     The SCF correction term to forces
     atom    1 type  1   force =    -0.00039344   -0.00023811   -0.00002562
     atom    2 type  2   force =     0.00077578    0.00038078   -0.00014164
     atom    3 type  2   force =    -0.00093721   -0.00061885    0.00004872
     atom    4 type  2   force =     0.00115930    0.00054933    0.00007606
     atom    5 type  2   force =     0.00038337    0.00026601   -0.00008565

     Total force =     0.109445     Total SCF correction =     0.002030

     Computing stress (Cartesian axis) and pressure

          total   stress  (Ry/bohr**3)                   (kbar)     P=      113.63
   0.00053298  -0.00022353  -0.00000000           78.40      -32.88       -0.00
  -0.00022353   0.00083123  -0.00000000          -32.88      122.28       -0.00
  -0.00000000  -0.00000000   0.00095319           -0.00       -0.00      140.22

     kinetic stress (kbar)  10602.94   -100.76     -0.00
                             -100.76  10737.46     -0.00
                               -0.00     -0.00  10790.94

     local   stress (kbar)  11701.13   2231.95      0.88
                             2231.95   8720.44     -1.58
                                0.88     -1.58   7530.81

     nonloc. stress (kbar)  -5815.64    -51.69      0.00
                              -51.69  -5746.60      0.00
                                0.00      0.00  -5719.48

     hartree stress (kbar)  20186.18  -1243.32     -0.57
                            -1243.32  21846.59      1.01
                               -0.57      1.01  22508.88

     exc-cor stress (kbar)   4665.47     -1.43     -0.01
                               -1.43   4667.38      0.01
                               -0.01      0.01   4668.11

     corecor stress (kbar) -12234.70      2.03      0.01
                                2.03 -12237.41     -0.01
                                0.01     -0.01 -12238.47

     ewald   stress (kbar) -29026.98   -869.66     -0.00
                             -869.66 -27865.58      0.00
                               -0.00      0.00 -27400.56

     hubbard stress (kbar)      0.00      0.00      0.00
                                0.00      0.00      0.00
                                0.00      0.00      0.00

     DFT-D   stress (kbar)      0.00      0.00      0.00
                                0.00      0.00      0.00
                                0.00      0.00      0.00

     XDM     stress (kbar)      0.00      0.00      0.00
                                0.00      0.00      0.00
                                0.00      0.00      0.00

     dft-nl  stress (kbar)      0.00      0.00      0.00
                                0.00      0.00      0.00
                                0.00      0.00      0.00

     TS-vdW  stress (kbar)      0.00      0.00      0.00
                                0.00      0.00      0.00
                                0.00      0.00      0.00

[...]

                                0.00      0.00      0.00

     Writing all to output data dir new_calculations/myprefix.save/

     General routines

     Parallel routines

     PAW routines

   This run was terminated on:  10:58:55  20May2023

   JOB DONE.