     Program PWSCF v.7.0 starts on 20May2023 at 13: 5:55

     Reading input from espresso_19290.pwi
Warning: card &CELL ignored
Warning: card / ignored

     Current dimensions of program PWSCF are:
     Max number of different atomic species (ntypx) = 10
     Max number of k-points (npk) =  40000
     Max angular momentum in pseudopotentials (lmaxx) =  4

     gamma-point specific algorithms are used
     Message from routine setup:
     using ibrav=0 with symmetry is DISCOURAGED, use correct ibrav instead

     Subspace diagonalization in iterative solution of the eigenvalue problem:
     a serial algorithm will be used

     Using Slab Decomposition

     bravais-lattice index     =            0
     lattice parameter (alat)  =      13.8712  a.u.
     unit-cell volume          =    1659.3677 (a.u.)^3
     number of atoms/cell      =           10
     number of atomic types    =            3
     number of electrons       =        84.00
     number of Kohn-Sham states=           50
     kinetic-energy cutoff     =      30.0000  Ry
     charge density cutoff     =     240.0000  Ry
     scf convergence threshold =      1.0E-06
     mixing beta               =       0.7000
     number of iterations used =            8  plain     mixing
     Exchange-correlation=  SLA  PW   PBX  PBC
                           (   1   4   3   4   0   0   0)

     celldm(1)=  13.871233  celldm(2)=   0.000000  celldm(3)=   0.000000
     celldm(4)=   0.000000  celldm(5)=   0.000000  celldm(6)=   0.000000

     crystal axes: (cart. coord. in units of alat)
               a(1) = (   1.000000   0.000000   0.000000 )
               a(2) = (   0.576230   0.817287   0.000000 )
               a(3) = (   0.576230   0.298780   0.760716 )

     reciprocal axes: (cart. coord. in units 2 pi/alat)
               b(1) = (  1.000000 -0.705053 -0.480567 )
               b(2) = (  0.000000  1.223560 -0.480567 )
               b(3) = (  0.000000  0.000000  1.314551 )

     PseudoPot. # 1 for Ca read from file:
     /home/pragov/projects/rrg-bengioy-ad/pragov/crystal_structure_design/SSSP/Ca_pbe_v1.uspp.F.UPF
     MD5 check sum: 403a4c14b9e4d4dfdc3024c9a3812218
     Pseudo is Ultrasoft + core correction, Zval = 10.0
     Generated by new atomic code, or converted to UPF format
     Using radial grid of  845 points,  6 beta functions with:
                l(1) =   0
                l(2) =   0
                l(3) =   1
                l(4) =   1
                l(5) =   2
                l(6) =   2
     Q(r) pseudized with  8 coefficients,  rinner =    1.500   1.500   1.500
                                                       1.500   1.500

     PseudoPot. # 2 for Sn read from file:
     /home/pragov/projects/rrg-bengioy-ad/pragov/crystal_structure_design/SSSP/Sn_pbe_v1.uspp.F.UPF
     MD5 check sum: 4cf58ce39ec5d5d420df3dd08604eb00
     Pseudo is Ultrasoft + core correction, Zval = 14.0
     Generated by new atomic code, or converted to UPF format
     Using radial grid of  891 points,  6 beta functions with:
                l(1) =   0
                l(2) =   0
                l(3) =   1
                l(4) =   1
                l(5) =   2
                l(6) =   2
     Q(r) pseudized with  6 coefficients,  rinner =    1.200   1.200   1.200
                                                       1.200   1.200

     PseudoPot. # 3 for S  read from file:
     /home/pragov/projects/rrg-bengioy-ad/pragov/crystal_structure_design/SSSP/s_pbe_v1.4.uspp.F.UPF
     MD5 check sum: 88d86576ff6df21479756cfb9bdac1df
     Pseudo is Ultrasoft + core correction, Zval =  6.0
     Generated by new atomic code, or converted to UPF format
     Using radial grid of  907 points,  6 beta functions with:
                l(1) =   0
                l(2) =   0
                l(3) =   1
                l(4) =   1
                l(5) =   2
                l(6) =   2
     Q(r) pseudized with  8 coefficients,  rinner =    1.300   1.300   1.300
                                                       1.300   1.300

     atomic species   valence    mass     pseudopotential
        Ca            10.00    40.07800     Ca( 1.00)
        Sn            14.00   118.71000     Sn( 1.00)
        S              6.00    32.06000     S ( 1.00)

      2 Sym. Ops., with inversion, found

                                    s                        frac. trans.

      isym =  1     identity

 cryst.   s( 1) = (     1          0          0      )
                  (     0          1          0      )
                  (     0          0          1      )

 cart.    s( 1) = (  1.0000000  0.0000000 -0.0000000 )
                  (  0.0000000  1.0000000 -0.0000000 )
                  (  0.0000000  0.0000000  1.0000000 )

      isym =  2     inversion

 cryst.   s( 2) = (    -1          0          0      )
                  (     0         -1          0      )
                  (     0          0         -1      )

 cart.    s( 2) = ( -1.0000000 -0.0000000  0.0000000 )
                  (  0.0000000 -1.0000000  0.0000000 )
                  (  0.0000000  0.0000000 -1.0000000 )

   Cartesian axes

     site n.     atom                  positions (alat units)
         1           Ca  tau(   1) = (   1.3770045   0.7139871   0.4866568  )
         2           Ca  tau(   2) = (   0.7754563   0.4020799   0.2740594  )
         3           Sn  tau(   3) = (   1.8174023   0.9423367   0.6423008  )
         4           Sn  tau(   4) = (   0.3350585   0.1737303   0.1184154  )
         5           S   tau(   5) = (   0.9137444   0.6525507   0.0256445  )
         6           S   tau(   6) = (   1.0598487   0.1594144   0.3357330  )
         7           S   tau(   7) = (   0.7410044   0.5955740   0.5980074  )
         8           S   tau(   8) = (   1.2387164   0.4635164   0.7350717  )
         9           S   tau(   9) = (   1.0926122   0.9566526   0.4249832  )
        10           S   tau(  10) = (   1.4114564   0.5204930   0.1627088  )

   Crystallographic axes

     site n.     atom                  positions (cryst. coord.)
         1           Ca  tau(   1) = (  0.6397350  0.6397350  0.6397350  )
         2           Ca  tau(   2) = (  0.3602650  0.3602650  0.3602650  )
         3           Sn  tau(   3) = (  0.8443370  0.8443370  0.8443370  )
         4           Sn  tau(   4) = (  0.1556630  0.1556630  0.1556630  )
         5           S   tau(   5) = (  0.4413380  0.7861110  0.0337110  )
         6           S   tau(   6) = (  0.7861110  0.0337110  0.4413380  )
         7           S   tau(   7) = (  0.0337110  0.4413380  0.7861110  )
         8           S   tau(   8) = (  0.5586620  0.2138890  0.9662890  )
         9           S   tau(   9) = (  0.2138890  0.9662890  0.5586620  )
        10           S   tau(  10) = (  0.9662890  0.5586620  0.2138890  )

     number of k points=     1  Methfessel-Paxton smearing, width (Ry)=  0.0010
                       cart. coord. in units 2pi/alat
        k(    1) = (   0.0000000   0.0000000   0.0000000), wk =   2.0000000

                       cryst. coord.
        k(    1) = (   0.0000000   0.0000000   0.0000000), wk =   2.0000000

     Check: negative core charge=   -0.000001

     Initial potential from superposition of free atoms

     starting charge      81.9888, renormalised to      84.0000
     Starting wfcs are   62 randomized atomic wfcs

     Self-consistent Calculation

     iteration #  1     ecut=    30.00 Ry     beta= 0.70
     Davidson diagonalization with overlap

     ethr =  1.00E-02,  avg # of iterations =  3.0

     total energy              =    -621.06340221 Ry
     estimated scf accuracy    <       1.05425893 Ry

[...]

     total energy              =    -621.52337518 Ry
     estimated scf accuracy    <       0.00000187 Ry

     iteration #  9     ecut=    30.00 Ry     beta= 0.70
     Davidson diagonalization with overlap

     ethr =  2.22E-09,  avg # of iterations =  2.0

     End of self-consistent calculation

          k = 0.0000 0.0000 0.0000 (  2315 PWs)   bands (ev):

   -33.9629 -33.9575 -15.5470 -15.5470 -15.5343 -15.5343 -15.4971 -15.4881
   -15.4881 -15.4839 -15.4786 -15.4786 -15.0230 -15.0230 -14.9948 -14.9812
   -14.9770 -14.9770  -7.2167  -5.6853  -5.5584  -5.5583  -5.1420  -5.1419
    -1.7197  -0.1542   1.7589   2.0799   2.0799   2.6057   2.6057   4.0338
     4.2010   4.7051   4.7051   4.7143   4.7143   5.1052   5.1052   5.1688
     5.3200   5.3200   6.9505   7.8693   9.6887   9.8167   9.8167  10.0637
    10.0704  10.0704

     occupation numbers
     1.0000   1.0000   1.0000   1.0000   1.0000   1.0000   1.0000   1.0000
     1.0000   1.0000   1.0000   1.0000   1.0000   1.0000   1.0000   1.0000
     1.0000   1.0000   1.0000   1.0000   1.0000   1.0000   1.0000   1.0000
     1.0000   1.0000   1.0000   1.0000   1.0000   1.0000   1.0000   1.0000
     1.0000   1.0000   1.0000   1.0000   1.0000   1.0000   1.0000   1.0000
     1.0000   1.0000  -0.0000  -0.0000  -0.0000  -0.0000  -0.0000  -0.0000
    -0.0000  -0.0000

     the Fermi energy is     6.0529 ev

!    total energy              =    -621.52337543 Ry
     estimated scf accuracy    <       0.00000030 Ry
     smearing contrib. (-TS)   =       0.00000000 Ry
     internal energy E=F+TS    =    -621.52337543 Ry

     The total energy is F=E-TS. E is the sum of the following terms:
     one-electron contribution =    -238.54626732 Ry
     hartree contribution      =     157.48461928 Ry
     xc contribution           =    -170.00442316 Ry
     ewald contribution        =    -370.45730422 Ry

     convergence has been achieved in   9 iterations

     Forces acting on atoms (cartesian axes, Ry/au):

     atom    1 type  1   force =     0.00542630    0.00280608    0.00190729
     atom    2 type  1   force =    -0.00542630   -0.00280608   -0.00190729
     atom    3 type  2   force =    -0.01159332   -0.00603439   -0.00408749
     atom    4 type  2   force =     0.01159332    0.00603439    0.00408749
     atom    5 type  3   force =     0.00207290   -0.01689945    0.01992702
     atom    6 type  3   force =    -0.01261591    0.02272605    0.00335822
     atom    7 type  3   force =     0.01130990   -0.00543547   -0.02301624
     atom    8 type  3   force =    -0.00207290    0.01689945   -0.01992702
     atom    9 type  3   force =     0.01261591   -0.02272605   -0.00335822
     atom   10 type  3   force =    -0.01130990    0.00543547    0.02301624
     The non-local contrib.  to forces
     atom    1 type  1   force =    -0.00418956   -0.00217287   -0.00148861
     atom    2 type  1   force =     0.00418956    0.00217287    0.00148861
     atom    3 type  2   force =    -0.00706809   -0.00368349   -0.00249594
     atom    4 type  2   force =     0.00706809    0.00368349    0.00249594
     atom    5 type  3   force =     0.08536093    0.17307574   -0.05494452
     atom    6 type  3   force =     0.19064170   -0.06211096   -0.00780484
     atom    7 type  3   force =     0.05908761    0.06279008    0.18120127
     atom    8 type  3   force =    -0.08536093   -0.17307574    0.05494452
     atom    9 type  3   force =    -0.19064170    0.06211096    0.00780484
     atom   10 type  3   force =    -0.05908761   -0.06279008   -0.18120127
     The ionic contribution  to forces
     atom    1 type  1   force =    -1.93526115   -1.00344754   -0.68395376
     atom    2 type  1   force =     1.93526115    1.00344754    0.68395376
     atom    3 type  2   force =     2.81736347    1.46082387    0.99570312
     atom    4 type  2   force =    -2.81736347   -1.46082387   -0.99570312
     atom    5 type  3   force =    -3.35116436   -1.96869698    0.95761460
     atom    6 type  3   force =    -3.54003292    0.30478660   -1.84346531
     atom    7 type  3   force =    -1.79077678   -2.83775915   -2.18250713
     atom    8 type  3   force =     3.35116436    1.96869698   -0.95761460
     atom    9 type  3   force =     3.54003291   -0.30478660    1.84346531
     atom   10 type  3   force =     1.79077678    2.83775915    2.18250713
     The local contribution  to forces
     atom    1 type  1   force =     1.94447866    1.00825977    0.68726577
     atom    2 type  1   force =    -1.94455349   -1.00823984   -0.68712136
     atom    3 type  2   force =    -2.82186988   -1.46310956   -0.99734415
     atom    4 type  2   force =     2.82189164    1.46316781    0.99729757
     atom    5 type  3   force =     3.27281336    1.78866851   -0.88573933
     atom    6 type  3   force =     3.34771822   -0.22333965    1.85415463
     atom    7 type  3   force =     1.74652984    2.77307335    1.98868998
     atom    8 type  3   force =    -3.27281761   -1.78870697    0.88576800
     atom    9 type  3   force =    -3.34779315    0.22338780   -1.85414229
     atom   10 type  3   force =    -1.74654389   -2.77307182   -1.98857186
     The core correction contribution to forces
     atom    1 type  1   force =     0.00020279    0.00010616    0.00007270
     atom    2 type  1   force =    -0.00020293   -0.00010432   -0.00007085
     atom    3 type  2   force =    -0.00001261   -0.00000396   -0.00000154
     atom    4 type  2   force =     0.00000887    0.00000511    0.00000552
     atom    5 type  3   force =    -0.00455129   -0.00957158    0.00305166
     atom    6 type  3   force =    -0.01044700    0.00349845    0.00055545
     atom    7 type  3   force =    -0.00316036   -0.00333934   -0.01002104
     atom    8 type  3   force =     0.00455057    0.00956923   -0.00305001
     atom    9 type  3   force =     0.01044190   -0.00349601   -0.00055568
     atom   10 type  3   force =     0.00315962    0.00334260    0.01002833
     The Hubbard contrib.    to forces
     atom    1 type  1   force =     0.00000000    0.00000000    0.00000000
     atom    2 type  1   force =     0.00000000    0.00000000    0.00000000
     atom    3 type  2   force =     0.00000000    0.00000000    0.00000000
     atom    4 type  2   force =     0.00000000    0.00000000    0.00000000
     atom    5 type  3   force =     0.00000000    0.00000000    0.00000000
     atom    6 type  3   force =     0.00000000    0.00000000    0.00000000
     atom    7 type  3   force =     0.00000000    0.00000000    0.00000000
     atom    8 type  3   force =     0.00000000    0.00000000    0.00000000
     atom    9 type  3   force =     0.00000000    0.00000000    0.00000000
     atom   10 type  3   force =     0.00000000    0.00000000    0.00000000
     The SCF correction term to forces
     atom    1 type  1   force =     0.00020098    0.00008198   -0.00000601
     atom    2 type  1   force =    -0.00011517   -0.00006092   -0.00017465
     atom    3 type  2   force =    -0.00002182   -0.00005538    0.00008942
     atom    4 type  2   force =    -0.00002743    0.00000771    0.00002997
     atom    5 type  3   force =    -0.00039469   -0.00039593   -0.00003291
     atom    6 type  3   force =    -0.00053656   -0.00009399   -0.00009071
     atom    7 type  3   force =    -0.00037509   -0.00017331   -0.00032263
     atom    8 type  3   force =     0.00038177    0.00039515    0.00004754
     atom    9 type  3   force =     0.00053531    0.00007219    0.00006061
     atom   10 type  3   force =     0.00038050    0.00022272    0.00031059

     Total force =     0.067669     Total SCF correction =     0.001375

     Computing stress (Cartesian axis) and pressure

          total   stress  (Ry/bohr**3)                   (kbar)     P=        3.61
   0.00004365   0.00001852   0.00001260            6.42        2.72        1.85
   0.00001852   0.00001760   0.00000653            2.72        2.59        0.96
   0.00001260   0.00000653   0.00001244            1.85        0.96        1.83

     kinetic stress (kbar)   7695.57     19.10     13.02
                               19.10   7668.64      6.75
                               13.02      6.75   7663.34

     local   stress (kbar)  -2078.44    761.39    518.96
                              761.39  -3152.06    269.08
                              518.96    269.08  -3363.45

     nonloc. stress (kbar)   4566.49      1.36      0.92
                                1.36   4564.58      0.48
                                0.92      0.48   4564.20

     hartree stress (kbar)   4311.31   -331.62   -226.03
                             -331.62   4778.92   -117.20
                             -226.03   -117.20   4870.99

     exc-cor stress (kbar)   4398.02     -0.31     -0.21
                               -0.31   4398.46     -0.11
                               -0.21     -0.11   4398.54

     corecor stress (kbar)  -7477.97     -0.38     -0.26
                               -0.38  -7477.43     -0.13
                               -0.26     -0.13  -7477.33

     ewald   stress (kbar) -11408.55   -446.81   -304.55
                             -446.81 -10778.50   -157.91
                             -304.55   -157.91 -10654.46

     hubbard stress (kbar)      0.00      0.00      0.00
                                0.00      0.00      0.00
                                0.00      0.00      0.00

     DFT-D   stress (kbar)      0.00      0.00      0.00
                                0.00      0.00      0.00
                                0.00      0.00      0.00

     XDM     stress (kbar)      0.00      0.00      0.00
                                0.00      0.00      0.00
                                0.00      0.00      0.00

     dft-nl  stress (kbar)      0.00      0.00      0.00
                                0.00      0.00      0.00
                                0.00      0.00      0.00

     TS-vdW  stress (kbar)      0.00      0.00      0.00
                                0.00      0.00      0.00
                                0.00      0.00      0.00

[...]

                                0.00      0.00      0.00

     Writing all to output data dir new_calculations/myprefix.save/

     General routines

     Parallel routines

   This run was terminated on:  13: 6:55  20May2023

   JOB DONE.