     Program PWSCF v.7.0 starts on 21May2023 at  4:52:52

     Reading input from espresso_5930.pwi
Warning: card &CELL ignored
Warning: card / ignored

     Current dimensions of program PWSCF are:
     Max number of different atomic species (ntypx) = 10
     Max number of k-points (npk) =  40000
     Max angular momentum in pseudopotentials (lmaxx) =  4
     file O.pbe-n-kjpaw_psl.0.1.UPF: wavefunction(s)  2P renormalized

     gamma-point specific algorithms are used
     Message from routine setup:
     using ibrav=0 with symmetry is DISCOURAGED, use correct ibrav instead

     Subspace diagonalization in iterative solution of the eigenvalue problem:
     a serial algorithm will be used

     Using Slab Decomposition

     bravais-lattice index     =            0
     lattice parameter (alat)  =      12.3120  a.u.
     unit-cell volume          =    1160.1069 (a.u.)^3
     number of atoms/cell      =           14
     number of atomic types    =            3
     number of electrons       =        96.00
     number of Kohn-Sham states=           58
     kinetic-energy cutoff     =      30.0000  Ry
     charge density cutoff     =     240.0000  Ry
     scf convergence threshold =      1.0E-06
     mixing beta               =       0.7000
     number of iterations used =            8  plain     mixing
     Exchange-correlation= SLA  PW   PBX  PBC
                           (   1   4   3   4   0   0   0)

     celldm(1)=  12.312029  celldm(2)=   0.000000  celldm(3)=   0.000000
     celldm(4)=   0.000000  celldm(5)=   0.000000  celldm(6)=   0.000000

     crystal axes: (cart. coord. in units of alat)
               a(1) = (   1.000000   0.000000   0.000000 )
               a(2) = (   0.000000   1.000000   0.000000 )
               a(3) = (   0.000000   0.000000   0.621597 )

     reciprocal axes: (cart. coord. in units 2 pi/alat)
               b(1) = (  1.000000  0.000000  0.000000 )
               b(2) = (  0.000000  1.000000  0.000000 )
               b(3) = (  0.000000  0.000000  1.608758 )

     PseudoPot. # 1 for Ta read from file:
     /home/pragov/projects/rrg-bengioy-ad/pragov/crystal_structure_design/SSSP/Ta_pbe_v1.uspp.F.UPF
     MD5 check sum: f8bbe9446314a3b8ea5d9f3e3836c939
     Pseudo is Ultrasoft + core correction, Zval = 13.0
     Generated by new atomic code, or converted to UPF format
     Using radial grid of  921 points,  7 beta functions with:
                l(1) =   0
                l(2) =   0
                l(3) =   1
                l(4) =   1
                l(5) =   2
                l(6) =   2
                l(7) =   3
     Q(r) pseudized with  6 coefficients,  rinner =    1.300   1.300   1.300
                                                       1.300   1.300   1.300
                                                       1.300

     PseudoPot. # 2 for P  read from file:
     /home/pragov/projects/rrg-bengioy-ad/pragov/crystal_structure_design/SSSP/P.pbe-n-rrkjus_psl.1.0.0.UPF
     MD5 check sum: 8b930f418f0a4573dca56cd030ffe088
     Pseudo is Ultrasoft + core correction, Zval =  5.0
     Generated using "atomic" code by A. Dal Corso  v.5.1
     Using radial grid of 1147 points,  6 beta functions with:
                l(1) =   0
                l(2) =   0
                l(3) =   1
                l(4) =   1
                l(5) =   2
                l(6) =   2
     Q(r) pseudized with 0 coefficients

     PseudoPot. # 3 for O  read from file:
     /home/pragov/projects/rrg-bengioy-ad/pragov/crystal_structure_design/SSSP/O.pbe-n-kjpaw_psl.0.1.UPF
     MD5 check sum: 0234752ac141de4415c5fc33072bef88
     Pseudo is Projector augmented-wave + core cor, Zval =  6.0
     Generated using "atomic" code by A. Dal Corso  v.5.0.99 svn rev. 10869
     Shape of augmentation charge: BESSEL
     Using radial grid of 1095 points,  4 beta functions with:
                l(1) =   0
                l(2) =   0
                l(3) =   1
                l(4) =   1
     Q(r) pseudized with 0 coefficients

     atomic species   valence    mass     pseudopotential
        Ta            13.00   180.94788     Ta( 1.00)
        P              5.00    30.97376     P ( 1.00)
        O              6.00    15.99900     O ( 1.00)

     16 Sym. Ops., with inversion, found ( 8 have fractional translation)

                                    s                        frac. trans.

      isym =  1     identity

 cryst.   s( 1) = (     1          0          0      )
                  (     0          1          0      )
                  (     0          0          1      )

 cart.    s( 1) = (  1.0000000  0.0000000  0.0000000 )
                  (  0.0000000  1.0000000  0.0000000 )
                  (  0.0000000  0.0000000  1.0000000 )

      isym =  2     180 deg rotation - cart. axis [0,0,1]

[...]

 cryst.   s( 3) = (    -1          0          0      )    f =(  0.5000000 )
                  (     0          1          0      )       ( -0.5000000 )
                  (     0          0         -1      )       (  0.0000000 )

 cart.    s( 3) = ( -1.0000000  0.0000000  0.0000000 )    f =(  0.5000000 )
                  (  0.0000000  1.0000000  0.0000000 )       ( -0.5000000 )
                  (  0.0000000  0.0000000 -1.0000000 )       (  0.0000000 )

[...]

 cryst.   s( 6) = (     0         -1          0      )
                  (    -1          0          0      )
                  (     0          0         -1      )

 cart.    s( 6) = (  0.0000000 -1.0000000  0.0000000 )
                  ( -1.0000000  0.0000000  0.0000000 )
                  (  0.0000000  0.0000000 -1.0000000 )

[...]

      isym =  8      90 deg rotation - cart. axis [0,0,1]

[...]

      isym =  9     inversion

 cryst.   s( 9) = (    -1          0          0      )    f =(  0.5000000 )
                  (     0         -1          0      )       (  0.5000000 )
                  (     0          0         -1      )       (  0.0000000 )

 cart.    s( 9) = ( -1.0000000  0.0000000  0.0000000 )    f =(  0.5000000 )
                  (  0.0000000 -1.0000000  0.0000000 )       (  0.5000000 )
                  (  0.0000000  0.0000000 -1.0000000 )       (  0.0000000 )

      isym = 10     inv. 180 deg rotation - cart. axis [0,0,1]

 cryst.   s(10) = (     1          0          0      )    f =(  0.5000000 )
                  (     0          1          0      )       ( -0.5000000 )
                  (     0          0         -1      )       (  0.0000000 )

 cart.    s(10) = (  1.0000000  0.0000000  0.0000000 )    f =(  0.5000000 )
                  (  0.0000000  1.0000000  0.0000000 )       ( -0.5000000 )
                  (  0.0000000  0.0000000 -1.0000000 )       (  0.0000000 )

[...]

 cryst.   s(11) = (     1          0          0      )
                  (     0         -1          0      )
                  (     0          0          1      )

 cart.    s(11) = (  1.0000000  0.0000000  0.0000000 )
                  (  0.0000000 -1.0000000  0.0000000 )
                  (  0.0000000  0.0000000  1.0000000 )

[...]

 cryst.   s(14) = (     0          1          0      )    f =(  0.5000000 )
                  (     1          0          0      )       ( -0.5000000 )
                  (     0          0          1      )       (  0.0000000 )

 cart.    s(14) = (  0.0000000  1.0000000  0.0000000 )    f =(  0.5000000 )
                  (  1.0000000  0.0000000  0.0000000 )       ( -0.5000000 )
                  (  0.0000000  0.0000000  1.0000000 )       (  0.0000000 )

[...]

      isym = 16     inv.  90 deg rotation - cart. axis [0,0,1]

 cryst.   s(16) = (     0         -1          0      )
                  (     1          0          0      )
                  (     0          0         -1      )

 cart.    s(16) = (  0.0000000  1.0000000  0.0000000 )
                  ( -1.0000000  0.0000000  0.0000000 )
                  (  0.0000000  0.0000000 -1.0000000 )

   Cartesian axes

     site n.     atom                  positions (alat units)
         1           Ta  tau(   1) = (   0.5000000   0.0000000   0.1465776  )
         2           Ta  tau(   2) = (   0.0000000   0.5000000   0.4750197  )
         3           P   tau(   3) = (   0.0000000   0.0000000   0.3107987  )
         4           P   tau(   4) = (   0.5000000   0.5000000   0.3107987  )
         5           O   tau(   5) = (   0.1945560   0.0000000   0.1767301  )
         6           O   tau(   6) = (   0.5000000   0.3054440   0.1767301  )
         7           O   tau(   7) = (   0.0000000   0.5000000   0.1337329  )
         8           O   tau(   8) = (   0.5000000   0.0000000   0.4878644  )
         9           O   tau(   9) = (   0.5000000   0.6945560   0.1767301  )
        10           O   tau(  10) = (   0.8054440   0.0000000   0.1767301  )
        11           O   tau(  11) = (   0.6945560   0.5000000   0.4448673  )
        12           O   tau(  12) = (   0.0000000   0.8054440   0.4448673  )
        13           O   tau(  13) = (   0.0000000   0.1945560   0.4448673  )
        14           O   tau(  14) = (   0.3054440   0.5000000   0.4448673  )

   Crystallographic axes

     site n.     atom                  positions (cryst. coord.)
         1           Ta  tau(   1) = (  0.5000000  0.0000000  0.2358080  )
         2           Ta  tau(   2) = (  0.0000000  0.5000000  0.7641920  )
         3           P   tau(   3) = (  0.0000000  0.0000000  0.5000000  )
         4           P   tau(   4) = (  0.5000000  0.5000000  0.5000000  )
         5           O   tau(   5) = (  0.1945560  0.0000000  0.2843160  )
         6           O   tau(   6) = (  0.5000000  0.3054440  0.2843160  )
         7           O   tau(   7) = (  0.0000000  0.5000000  0.2151440  )
         8           O   tau(   8) = (  0.5000000  0.0000000  0.7848560  )
         9           O   tau(   9) = (  0.5000000  0.6945560  0.2843160  )
        10           O   tau(  10) = (  0.8054440  0.0000000  0.2843160  )
        11           O   tau(  11) = (  0.6945560  0.5000000  0.7156840  )
        12           O   tau(  12) = (  0.0000000  0.8054440  0.7156840  )
        13           O   tau(  13) = (  0.0000000  0.1945560  0.7156840  )
        14           O   tau(  14) = (  0.3054440  0.5000000  0.7156840  )

     number of k points=     1  Methfessel-Paxton smearing, width (Ry)=  0.0010
                       cart. coord. in units 2pi/alat
        k(    1) = (   0.0000000   0.0000000   0.0000000), wk =   2.0000000

                       cryst. coord.
        k(    1) = (   0.0000000   0.0000000   0.0000000), wk =   2.0000000

     Check: negative core charge=   -0.000010

     Initial potential from superposition of free atoms

     starting charge      95.9974, renormalised to      96.0000

     negative rho (up, down):  1.882E-01 0.000E+00
     Starting wfcs are   74 randomized atomic wfcs
     Checking if some PAW data can be deallocated...

     Self-consistent Calculation

     iteration #  1     ecut=    30.00 Ry     beta= 0.70
     Davidson diagonalization with overlap

     ethr =  1.00E-02,  avg # of iterations =  2.0

     negative rho (up, down):  1.891E-01 0.000E+00

     total energy              =    -726.14746275 Ry
     estimated scf accuracy    <       4.63645552 Ry

[...]

     total energy              =    -728.36290283 Ry
     estimated scf accuracy    <       0.00000933 Ry

     iteration # 11     ecut=    30.00 Ry     beta= 0.70
     Davidson diagonalization with overlap

     ethr =  9.72E-09,  avg # of iterations =  2.0

[...]

     End of self-consistent calculation

          k = 0.0000 0.0000 0.0000 (  1617 PWs)   bands (ev):

   -62.1584 -62.1578 -28.7110 -28.7109 -28.7096 -28.7096 -28.4832 -28.4827
   -15.3597 -15.2157 -12.7503 -12.5989 -12.5780 -12.5778 -12.5278 -12.5277
    -9.3649  -9.3593  -3.7000  -3.5032  -1.4774  -1.3922   0.4154   0.4155
     0.6082   0.6083   1.2470   1.8947   2.2596   2.4866   2.4866   3.2546
     3.2998   3.2998   3.3968   3.5846   3.7468   3.7468   3.7669   3.7669
     3.9382   5.4475   5.9031   5.9031   5.9604   6.0054   6.0814   6.0814
     9.7738  10.0241  10.0241  10.0666  10.0667  10.3441  11.6254  11.6576
    12.7356  12.9174

     occupation numbers
     1.0000   1.0000   1.0000   1.0000   1.0000   1.0000   1.0000   1.0000
     1.0000   1.0000   1.0000   1.0000   1.0000   1.0000   1.0000   1.0000
     1.0000   1.0000   1.0000   1.0000   1.0000   1.0000   1.0000   1.0000
     1.0000   1.0000   1.0000   1.0000   1.0000   1.0000   1.0000   1.0000
     1.0000   1.0000   1.0000   1.0000   1.0000   1.0000   1.0000   1.0000
     1.0000   1.0000   1.0000   1.0000   1.0000   1.0000   1.0000   1.0000
    -0.0000  -0.0000  -0.0000  -0.0000  -0.0000  -0.0000  -0.0000  -0.0000
    -0.0000  -0.0000

     the Fermi energy is     8.3442 ev

!    total energy              =    -728.36290425 Ry
     estimated scf accuracy    <       0.00000098 Ry
     smearing contrib. (-TS)   =       0.00000000 Ry
     internal energy E=F+TS    =    -728.36290425 Ry

     The total energy is F=E-TS. E is the sum of the following terms:
     one-electron contribution =    -223.77292487 Ry
     hartree contribution      =     159.49870535 Ry
     xc contribution           =    -168.43600266 Ry
     ewald contribution        =    -400.58654620 Ry
     one-center paw contrib.   =     -95.06613588 Ry
      -> PAW hartree energy AE =     316.26210442 Ry
      -> PAW hartree energy PS =    -315.07168685 Ry
      -> PAW xc energy AE      =    -174.71981275 Ry
      -> PAW xc energy PS      =      78.46325930 Ry
      -> total E_H with PAW    =     160.68912292 Ry
      -> total E_XC with PAW   =    -264.69255611 Ry

     convergence has been achieved in  11 iterations

     negative rho (up, down):  1.938E-01 0.000E+00

     Forces acting on atoms (cartesian axes, Ry/au):

     atom    1 type  1   force =     0.00000000    0.00000000   -0.35091654
     atom    2 type  1   force =     0.00000000    0.00000000    0.35091654
     atom    3 type  2   force =     0.00000000    0.00000000   -0.00000000
     atom    4 type  2   force =     0.00000000    0.00000000    0.00000000
     atom    5 type  3   force =     0.01764957    0.00000000    0.03538718
     atom    6 type  3   force =     0.00000000   -0.01764957    0.03538718
     atom    7 type  3   force =     0.00000000    0.00000000   -0.18801226
     atom    8 type  3   force =     0.00000000    0.00000000    0.18801226
     atom    9 type  3   force =     0.00000000    0.01764957    0.03538718
     atom   10 type  3   force =    -0.01764957   -0.00000000    0.03538718
     atom   11 type  3   force =     0.01764957    0.00000000   -0.03538718
     atom   12 type  3   force =    -0.00000000   -0.01764957   -0.03538718
     atom   13 type  3   force =     0.00000000    0.01764957   -0.03538718
     atom   14 type  3   force =    -0.01764957    0.00000000   -0.03538718
     The non-local contrib.  to forces
     atom    1 type  1   force =     0.00000000    0.00000000    0.19222523
     atom    2 type  1   force =     0.00000000    0.00000000   -0.19222523
     atom    3 type  2   force =     0.00000000    0.00000000   -0.00000000
     atom    4 type  2   force =     0.00000000    0.00000000    0.00000000
     atom    5 type  3   force =    -0.78417414    0.00000000    1.03545010
     atom    6 type  3   force =     0.00000000    0.78417414    1.03545010
     atom    7 type  3   force =     0.00000000    0.00000000   -0.61231379
     atom    8 type  3   force =     0.00000000    0.00000000    0.61231379
     atom    9 type  3   force =     0.00000000   -0.78417414    1.03545010
     atom   10 type  3   force =     0.78417414    0.00000000    1.03545010
     atom   11 type  3   force =    -0.78417414   -0.00000000   -1.03545010
     atom   12 type  3   force =     0.00000000    0.78417414   -1.03545010
     atom   13 type  3   force =     0.00000000   -0.78417414   -1.03545010
     atom   14 type  3   force =     0.78417414    0.00000000   -1.03545010
     The ionic contribution  to forces
     atom    1 type  1   force =     0.00000000    0.00000000    0.69849203
     atom    2 type  1   force =     0.00000000    0.00000000   -0.69849203
     atom    3 type  2   force =     0.00000000    0.00000000   -0.00000000
     atom    4 type  2   force =    -0.00000000   -0.00000000    0.00000000
     atom    5 type  3   force =    -1.58276527    0.00000000   -3.55939788
     atom    6 type  3   force =    -0.00000000    1.58276527   -3.55939788
     atom    7 type  3   force =     0.00000000    0.00000000    3.90143677
     atom    8 type  3   force =     0.00000000    0.00000000   -3.90143677
     atom    9 type  3   force =    -0.00000000   -1.58276527   -3.55939788
     atom   10 type  3   force =     1.58276527    0.00000000   -3.55939788
     atom   11 type  3   force =    -1.58276527   -0.00000000    3.55939788
     atom   12 type  3   force =     0.00000000    1.58276527    3.55939788
     atom   13 type  3   force =     0.00000000   -1.58276527    3.55939788
     atom   14 type  3   force =     1.58276527   -0.00000000    3.55939788
     The local contribution  to forces
     atom    1 type  1   force =     0.00020646   -0.00023179   -1.26736956
     atom    2 type  1   force =    -0.00018862    0.00007332    1.26728207
     atom    3 type  2   force =    -0.00008107   -0.00003522    0.00000123
     atom    4 type  2   force =     0.00007349    0.00006671   -0.00001080
     atom    5 type  3   force =     2.37730674   -0.00006828    2.56819014
     atom    6 type  3   force =     0.00009650   -2.37696770    2.56809451
     atom    7 type  3   force =    -0.00009539    0.00003664   -3.48101384
     atom    8 type  3   force =     0.00005325   -0.00010310    3.48118790
     atom    9 type  3   force =     0.00007731    2.37703705    2.56806585
     atom   10 type  3   force =    -2.37734900   -0.00005972    2.56819757
     atom   11 type  3   force =     2.37696409    0.00005950   -2.56813764
     atom   12 type  3   force =    -0.00006973   -2.37727682   -2.56826043
     atom   13 type  3   force =    -0.00007618    2.37726411   -2.56822449
     atom   14 type  3   force =    -2.37690596    0.00007240   -2.56813114
     The core correction contribution to forces
     atom    1 type  1   force =     0.00000473   -0.00000608    0.02530345
     atom    2 type  1   force =    -0.00000401    0.00000296   -0.02530023
     atom    3 type  2   force =     0.00000170   -0.00000089    0.00000072
     atom    4 type  2   force =    -0.00000105   -0.00000330    0.00000238
     atom    5 type  3   force =     0.00729679   -0.00000004   -0.00893286
     atom    6 type  3   force =     0.00000018   -0.00729755   -0.00893333
     atom    7 type  3   force =     0.00000008   -0.00000023    0.00422220
     atom    8 type  3   force =    -0.00000031   -0.00000004   -0.00422253
     atom    9 type  3   force =    -0.00000010    0.00729667   -0.00893273
     atom   10 type  3   force =    -0.00729630    0.00000006   -0.00893228
     atom   11 type  3   force =     0.00729773   -0.00000011    0.00893293
     atom   12 type  3   force =     0.00000017   -0.00729719    0.00893248
     atom   13 type  3   force =     0.00000020    0.00729748    0.00893297
     atom   14 type  3   force =    -0.00729828   -0.00000000    0.00893349
     The Hubbard contrib.    to forces
     atom    1 type  1   force =     0.00000000    0.00000000    0.00000000
     atom    2 type  1   force =     0.00000000    0.00000000    0.00000000
     atom    3 type  2   force =     0.00000000    0.00000000    0.00000000
     atom    4 type  2   force =     0.00000000    0.00000000    0.00000000
     atom    5 type  3   force =     0.00000000    0.00000000    0.00000000
     atom    6 type  3   force =     0.00000000    0.00000000    0.00000000
     atom    7 type  3   force =     0.00000000    0.00000000    0.00000000
     atom    8 type  3   force =     0.00000000    0.00000000    0.00000000
     atom    9 type  3   force =     0.00000000    0.00000000    0.00000000
     atom   10 type  3   force =     0.00000000    0.00000000    0.00000000
     atom   11 type  3   force =     0.00000000    0.00000000    0.00000000
     atom   12 type  3   force =     0.00000000    0.00000000    0.00000000
     atom   13 type  3   force =     0.00000000    0.00000000    0.00000000
     atom   14 type  3   force =     0.00000000    0.00000000    0.00000000
     The SCF correction term to forces
     atom    1 type  1   force =    -0.00027123    0.00030977    0.00043986
     atom    2 type  1   force =     0.00024128   -0.00009573   -0.00034048
     atom    3 type  2   force =     0.00011206    0.00003186    0.00002318
     atom    4 type  2   force =    -0.00010009   -0.00012771    0.00005496
     atom    5 type  3   force =    -0.00004984    0.00006290    0.00007832
     atom    6 type  3   force =    -0.00009181   -0.00035416    0.00015247
     atom    7 type  3   force =     0.00011337   -0.00005448   -0.00035969
     atom    8 type  3   force =    -0.00008996    0.00010907    0.00015377
     atom    9 type  3   force =    -0.00008432    0.00025335    0.00020050
     atom   10 type  3   force =     0.00012458    0.00005995    0.00010546
     atom   11 type  3   force =     0.00036646   -0.00006598   -0.00012562
     atom   12 type  3   force =     0.00008365   -0.00000017   -0.00004568
     atom   13 type  3   force =     0.00009102    0.00001974   -0.00003839
     atom   14 type  3   force =    -0.00044289   -0.00007495   -0.00009458

     Total force =     0.574014     Total SCF correction =     0.001214

     Computing stress (Cartesian axis) and pressure

     negative rho (up, down):  1.938E-01 0.000E+00
          total   stress  (Ry/bohr**3)                   (kbar)     P=     -347.38
  -0.00322034   0.00000000   0.00000000         -473.73        0.00        0.00
   0.00000000  -0.00322034   0.00000000            0.00     -473.73        0.00
   0.00000000   0.00000000  -0.00064363            0.00        0.00      -94.68

     kinetic stress (kbar)  22212.36      0.00      0.00
                                0.00  22212.36      0.00
                                0.00      0.00  22941.66

     local   stress (kbar)  -5519.63      0.00     -0.01
                                0.00  -5519.68      0.00
                               -0.01      0.00  -6092.78

     nonloc. stress (kbar)  -1660.47      0.00      0.00
                                0.00  -1660.47      0.00
                                0.00      0.00  -1684.23

     hartree stress (kbar)   6610.47     -0.00      0.01
                               -0.00   6610.50     -0.01
                                0.01     -0.01   7003.95

     exc-cor stress (kbar)   2880.65     -0.00     -0.00
                               -0.00   2880.65      0.00
                               -0.00      0.00   2880.24

     corecor stress (kbar)  -8112.27      0.00      0.00
                                0.00  -8112.27      0.00
                                0.00      0.00  -8117.61

     ewald   stress (kbar) -16884.84      0.00     -0.00
                                0.00 -16884.84      0.00
                               -0.00      0.00 -17025.92

     hubbard stress (kbar)      0.00      0.00      0.00
                                0.00      0.00      0.00
                                0.00      0.00      0.00

     DFT-D   stress (kbar)      0.00      0.00      0.00
                                0.00      0.00      0.00
                                0.00      0.00      0.00

     XDM     stress (kbar)      0.00      0.00      0.00
                                0.00      0.00      0.00
                                0.00      0.00      0.00

     dft-nl  stress (kbar)      0.00      0.00      0.00
                                0.00      0.00      0.00
                                0.00      0.00      0.00

     TS-vdW  stress (kbar)      0.00      0.00      0.00
                                0.00      0.00      0.00
                                0.00      0.00      0.00

[...]

                                0.00      0.00      0.00

     Writing all to output data dir new_calculations/myprefix.save/

     General routines

     Parallel routines

     PAW routines

   This run was terminated on:   4:53:41  21May2023

   JOB DONE.