     Program PWSCF v.7.0 starts on 21May2023 at  5:50:53

     Reading input from espresso_26467.pwi
Warning: card &CELL ignored
Warning: card / ignored

     Current dimensions of program PWSCF are:
     Max number of different atomic species (ntypx) = 10
     Max number of k-points (npk) =  40000
     Max angular momentum in pseudopotentials (lmaxx) =  4
     file Al.pbe-n-kjpaw_psl.1.0.0.UPF: wavefunction(s)  3S 3P renormalized

     gamma-point specific algorithms are used
     Message from routine setup:
     using ibrav=0 with symmetry is DISCOURAGED, use correct ibrav instead

     Subspace diagonalization in iterative solution of the eigenvalue problem:
     a serial algorithm will be used

     Using Slab Decomposition

     bravais-lattice index     =            0
     lattice parameter (alat)  =       5.2086  a.u.
     unit-cell volume          =     412.0441 (a.u.)^3
     number of atoms/cell      =            4
     number of atomic types    =            3
     number of electrons       =        31.00
     number of Kohn-Sham states=           20
     kinetic-energy cutoff     =      30.0000  Ry
     charge density cutoff     =     240.0000  Ry
     scf convergence threshold =      1.0E-06
     mixing beta               =       0.7000
     number of iterations used =            8  plain     mixing
     Exchange-correlation=  SLA  PW   PBX  PBC
                           (   1   4   3   4   0   0   0)

     celldm(1)=   5.208578  celldm(2)=   0.000000  celldm(3)=   0.000000
     celldm(4)=   0.000000  celldm(5)=   0.000000  celldm(6)=   0.000000

     crystal axes: (cart. coord. in units of alat)
               a(1) = (   1.000000   0.000000   0.000000 )
               a(2) = (   0.000000   1.000000   0.000000 )
               a(3) = (   0.000000   0.000000   2.915991 )

     reciprocal axes: (cart. coord. in units 2 pi/alat)
               b(1) = (  1.000000  0.000000  0.000000 )
               b(2) = (  0.000000  1.000000  0.000000 )
               b(3) = (  0.000000  0.000000  0.342937 )

     PseudoPot. # 1 for Ti read from file:
     /home/pragov/projects/rrg-bengioy-ad/pragov/crystal_structure_design/SSSP/ti_pbe_v1.4.uspp.F.UPF
     MD5 check sum: 88a00a6731bd790ddea75d31a80cb452
     Pseudo is Ultrasoft + core correction, Zval = 12.0
     Generated by new atomic code, or converted to UPF format
     Using radial grid of  851 points,  6 beta functions with:
                l(1) =   0
                l(2) =   0
                l(3) =   1
                l(4) =   1
                l(5) =   2
                l(6) =   2
     Q(r) pseudized with  6 coefficients,  rinner =    1.000   1.000   1.000
                                                       1.000   1.000

     PseudoPot. # 2 for Al read from file:
     /home/pragov/projects/rrg-bengioy-ad/pragov/crystal_structure_design/SSSP/Al.pbe-n-kjpaw_psl.1.0.0.UPF
     MD5 check sum: cfc449ca30b5f3223ec38ddd88ac046d
     Pseudo is Projector augmented-wave + core cor, Zval =  3.0
     Generated using "atomic" code by A. Dal Corso  v.5.1
     Shape of augmentation charge: PSQ
     Using radial grid of 1135 points,  6 beta functions with:
                l(1) =   0
                l(2) =   0
                l(3) =   1
                l(4) =   1
                l(5) =   2
                l(6) =   2
     Q(r) pseudized with 0 coefficients

     PseudoPot. # 3 for V  read from file:
     /home/pragov/projects/rrg-bengioy-ad/pragov/crystal_structure_design/SSSP/v_pbe_v1.4.uspp.F.UPF
     MD5 check sum: 22b79981416ebb76fdaf5b1b8640f6fb
     Pseudo is Ultrasoft + core correction, Zval = 13.0
     Generated by new atomic code, or converted to UPF format
     Using radial grid of  853 points,  6 beta functions with:
                l(1) =   0
                l(2) =   0
                l(3) =   1
                l(4) =   1
                l(5) =   2
                l(6) =   2
     Q(r) pseudized with  8 coefficients,  rinner =    1.100   1.100   1.100
                                                       1.100   1.100

     atomic species   valence    mass     pseudopotential
        Ti            12.00    47.86700     Ti( 1.00)
        Al             3.00    26.98154     Al( 1.00)
        V             13.00    50.94150     V ( 1.00)

     16 Sym. Ops., with inversion, found

                                    s                        frac. trans.

      isym =  1     identity

 cryst.   s( 1) = (     1          0          0      )
                  (     0          1          0      )
                  (     0          0          1      )

 cart.    s( 1) = (  1.0000000  0.0000000  0.0000000 )
                  (  0.0000000  1.0000000  0.0000000 )
                  (  0.0000000  0.0000000  1.0000000 )

      isym =  2     180 deg rotation - cart. axis [0,0,1]

[...]

      isym =  8      90 deg rotation - cart. axis [0,0,1]

[...]

      isym =  9     inversion

 cryst.   s( 9) = (    -1          0          0      )
                  (     0         -1          0      )
                  (     0          0         -1      )

 cart.    s( 9) = ( -1.0000000  0.0000000  0.0000000 )
                  (  0.0000000 -1.0000000  0.0000000 )
                  (  0.0000000  0.0000000 -1.0000000 )

      isym = 10     inv. 180 deg rotation - cart. axis [0,0,1]

 cryst.   s(10) = (     1          0          0      )
                  (     0          1          0      )
                  (     0          0         -1      )

 cart.    s(10) = (  1.0000000  0.0000000  0.0000000 )
                  (  0.0000000  1.0000000  0.0000000 )
                  (  0.0000000  0.0000000 -1.0000000 )

[...]

      isym = 16     inv.  90 deg rotation - cart. axis [0,0,1]

 cryst.   s(16) = (     0         -1          0      )
                  (     1          0          0      )
                  (     0          0         -1      )

 cart.    s(16) = (  0.0000000  1.0000000  0.0000000 )
                  ( -1.0000000  0.0000000  0.0000000 )
                  (  0.0000000  0.0000000 -1.0000000 )

   Cartesian axes

     site n.     atom                  positions (alat units)
         1           Ti  tau(   1) = (   0.0000000   0.0000000   0.0000000  )
         2           Al  tau(   2) = (   0.5000000   0.5000000   0.7585016  )
         3           Al  tau(   3) = (   0.5000000   0.5000000   2.1574889  )
         4           V   tau(   4) = (   0.0000000   0.0000000   1.4579953  )

   Crystallographic axes

     site n.     atom                  positions (cryst. coord.)
         1           Ti  tau(   1) = (  0.0000000  0.0000000  0.0000000  )
         2           Al  tau(   2) = (  0.5000000  0.5000000  0.2601180  )
         3           Al  tau(   3) = (  0.5000000  0.5000000  0.7398820  )
         4           V   tau(   4) = (  0.0000000  0.0000000  0.5000000  )

     number of k points=     1  Methfessel-Paxton smearing, width (Ry)=  0.0010
                       cart. coord. in units 2pi/alat
        k(    1) = (   0.0000000   0.0000000   0.0000000), wk =   2.0000000

                       cryst. coord.
        k(    1) = (   0.0000000   0.0000000   0.0000000), wk =   2.0000000

     Check: negative core charge=   -0.000004

     Initial potential from superposition of free atoms

     starting charge      29.9941, renormalised to      31.0000

     negative rho (up, down):  3.086E-03 0.000E+00
     Starting wfcs are   28 randomized atomic wfcs
     Checking if some PAW data can be deallocated...

     Self-consistent Calculation

     iteration #  1     ecut=    30.00 Ry     beta= 0.70
     Davidson diagonalization with overlap

     ethr =  1.00E-02,  avg # of iterations =  4.0

     negative rho (up, down):  4.971E-03 0.000E+00

     total energy              =    -287.44333782 Ry
     estimated scf accuracy    <      69.27917736 Ry

[...]

     total energy              =    -344.17628780 Ry
     estimated scf accuracy    <       0.00001517 Ry

     iteration # 65     ecut=    30.00 Ry     beta= 0.70
     Davidson diagonalization with overlap

     ethr =  3.91E-08,  avg # of iterations =  2.0

[...]

     End of self-consistent calculation

          k = 0.0000 0.0000 0.0000 (   584 PWs)   bands (ev):

   -52.1171 -42.8470 -26.2210 -25.6494 -25.6483 -19.4019 -18.7268 -18.7268
     1.7298   3.0630   6.5036  10.0755  10.6279  10.9759  12.6819  12.6838
    12.8643  12.8649  15.5158  15.5164

     occupation numbers
     1.0000   1.0000   1.0000   1.0000   1.0000   1.0000   1.0000   1.0000
     1.0000   1.0000   1.0000   1.0000   1.0000   1.0000   0.7994   0.7006
    -0.0000  -0.0000  -0.0000  -0.0000

     the Fermi energy is    12.6871 ev

!    total energy              =    -344.17628774 Ry
     estimated scf accuracy    <       0.00000025 Ry
     smearing contrib. (-TS)   =      -0.00040580 Ry
     internal energy E=F+TS    =    -344.17588194 Ry

     The total energy is F=E-TS. E is the sum of the following terms:
     one-electron contribution =    -137.83398701 Ry
     hartree contribution      =      80.47113043 Ry
     xc contribution           =     -43.17618179 Ry
     ewald contribution        =    -174.27400099 Ry
     one-center paw contrib.   =     -69.36284258 Ry
      -> PAW hartree energy AE =       2.76170063 Ry
      -> PAW hartree energy PS =      -2.75209249 Ry
      -> PAW xc energy AE      =     -73.16436055 Ry
      -> PAW xc energy PS      =       3.79190983 Ry
      -> total E_H with PAW    =      80.48073858 Ry
      -> total E_XC with PAW   =    -112.54863251 Ry

     convergence has been achieved in  65 iterations

     negative rho (up, down):  3.548E-03 0.000E+00

     Forces acting on atoms (cartesian axes, Ry/au):

     atom    1 type  1   force =     0.00000000    0.00000000    0.00000000
     atom    2 type  2   force =     0.00000000    0.00000000   -0.05613195
     atom    3 type  2   force =     0.00000000    0.00000000    0.05613195
     atom    4 type  3   force =     0.00000000    0.00000000    0.00000000
     The non-local contrib.  to forces
     atom    1 type  1   force =     0.00000000    0.00000000    0.00000000
     atom    2 type  2   force =     0.00000000    0.00000000    0.00141838
     atom    3 type  2   force =     0.00000000    0.00000000   -0.00141838
     atom    4 type  3   force =     0.00000000    0.00000000    0.00000000
     The ionic contribution  to forces
     atom    1 type  1   force =    -0.00000000   -0.00000000   -0.00000000
     atom    2 type  2   force =     0.00000000    0.00000000   -1.31152922
     atom    3 type  2   force =     0.00000000    0.00000000    1.31152922
     atom    4 type  3   force =    -0.00000000   -0.00000000    0.00000000
     The local contribution  to forces
     atom    1 type  1   force =    -0.00000726    0.00001102   -0.00010399
     atom    2 type  2   force =    -0.00000105    0.00000018    1.25409591
     atom    3 type  2   force =    -0.00000091   -0.00000004   -1.25408814
     atom    4 type  3   force =    -0.00001098    0.00000187    0.00004235
     The core correction contribution to forces
     atom    1 type  1   force =    -0.00000020    0.00000017    0.00000197
     atom    2 type  2   force =    -0.00000018    0.00000006    0.00014140
     atom    3 type  2   force =    -0.00000011   -0.00000001   -0.00014211
     atom    4 type  3   force =    -0.00000012    0.00000002    0.00000135
     The Hubbard contrib.    to forces
     atom    1 type  1   force =     0.00000000    0.00000000    0.00000000
     atom    2 type  2   force =     0.00000000    0.00000000    0.00000000
     atom    3 type  2   force =     0.00000000    0.00000000    0.00000000
     atom    4 type  3   force =     0.00000000    0.00000000    0.00000000
     The SCF correction term to forces
     atom    1 type  1   force =     0.00001231   -0.00000761    0.00012762
     atom    2 type  2   force =    -0.00000009    0.00000008   -0.00025830
     atom    3 type  2   force =    -0.00000023    0.00000000    0.00025148
     atom    4 type  3   force =     0.00000950   -0.00000316   -0.00006668

     Total force =     0.079383     Total SCF correction =     0.000389

     Computing stress (Cartesian axis) and pressure

     negative rho (up, down):  3.548E-03 0.000E+00
          total   stress  (Ry/bohr**3)                   (kbar)     P=      -46.82
  -0.00464510   0.00000000   0.00000000         -683.32        0.00        0.00
   0.00000000  -0.00464510   0.00000000            0.00     -683.32        0.00
   0.00000000   0.00000000   0.00833539            0.00        0.00     1226.18

     kinetic stress (kbar)  15097.92      0.00      0.00
                                0.00  15097.92      0.00
                                0.00      0.00  16245.66

     local   stress (kbar) -11882.39     -0.30      0.01
                               -0.30 -11886.36      0.00
                                0.01      0.00  16485.65

     nonloc. stress (kbar)   2539.59      0.00      0.00
                                0.00   2539.59      0.00
                                0.00      0.00   2853.69

     hartree stress (kbar)  14164.55      0.07     -0.00
                                0.07  14166.19     -0.00
                               -0.00     -0.00    398.50

     exc-cor stress (kbar)  -1642.77      0.00     -0.00
                                0.00  -1642.75     -0.00
                               -0.00     -0.00  -1654.53

     corecor stress (kbar)  -2925.89     -0.01      0.00
                               -0.01  -2925.92      0.00
                                0.00      0.00  -2951.03

     ewald   stress (kbar) -16033.15     -0.00      0.00
                               -0.00 -16033.15      0.00
                                0.00      0.00 -30151.77

     hubbard stress (kbar)      0.00      0.00      0.00
                                0.00      0.00      0.00
                                0.00      0.00      0.00

     DFT-D   stress (kbar)      0.00      0.00      0.00
                                0.00      0.00      0.00
                                0.00      0.00      0.00

     XDM     stress (kbar)      0.00      0.00      0.00
                                0.00      0.00      0.00
                                0.00      0.00      0.00

     dft-nl  stress (kbar)      0.00      0.00      0.00
                                0.00      0.00      0.00
                                0.00      0.00      0.00

     TS-vdW  stress (kbar)      0.00      0.00      0.00
                                0.00      0.00      0.00
                                0.00      0.00      0.00

[...]

                                0.00      0.00      0.00

     Writing all to output data dir new_calculations/myprefix.save/

     General routines

     Parallel routines

     PAW routines

   This run was terminated on:   5:51:14  21May2023

   JOB DONE.