     Program PWSCF v.7.0 starts on 20May2023 at 15:33: 4

     Reading input from espresso_18408.pwi
Warning: card &CELL ignored
Warning: card / ignored

     Current dimensions of program PWSCF are:
     Max number of different atomic species (ntypx) = 10
     Max number of k-points (npk) =  40000
     Max angular momentum in pseudopotentials (lmaxx) =  4
     file O.pbe-n-kjpaw_psl.0.1.UPF: wavefunction(s)  2P renormalized

     gamma-point specific algorithms are used
     Message from routine setup:
     using ibrav=0 with symmetry is DISCOURAGED, use correct ibrav instead

     Subspace diagonalization in iterative solution of the eigenvalue problem:
     a serial algorithm will be used

     Using Slab Decomposition

     bravais-lattice index     =            0
     lattice parameter (alat)  =       9.0357  a.u.
     unit-cell volume          =    1084.8518 (a.u.)^3
     number of atoms/cell      =           16
     number of atomic types    =            4
     number of electrons       =        72.00
     number of Kohn-Sham states=           43
     kinetic-energy cutoff     =      30.0000  Ry
     charge density cutoff     =     240.0000  Ry
     scf convergence threshold =      1.0E-06
     mixing beta               =       0.7000
     number of iterations used =            8  plain     mixing
     Exchange-correlation= SLA  PW   PBX  PBC
                           (   1   4   3   4   0   0   0)

     celldm(1)=   9.035690  celldm(2)=   0.000000  celldm(3)=   0.000000
     celldm(4)=   0.000000  celldm(5)=   0.000000  celldm(6)=   0.000000

     crystal axes: (cart. coord. in units of alat)
               a(1) = (   1.000000   0.000000   0.000000 )
               a(2) = (   0.000000   1.094090   0.000000 )
               a(3) = (   0.000000   0.000000   1.344106 )

     reciprocal axes: (cart. coord. in units 2 pi/alat)
               b(1) = (  1.000000  0.000000  0.000000 )
               b(2) = (  0.000000  0.914002  0.000000 )
               b(3) = (  0.000000  0.000000  0.743989 )

     PseudoPot. # 1 for Li read from file:
     /home/pragov/projects/rrg-bengioy-ad/pragov/crystal_structure_design/SSSP/li_pbe_v1.4.uspp.F.UPF
     MD5 check sum: e912e257baa3777c20ea3d68f190483c
     Pseudo is Ultrasoft, Zval =  3.0
     Generated by new atomic code, or converted to UPF format
     Using radial grid of  751 points,  5 beta functions with:
                l(1) =   0
                l(2) =   0
                l(3) =   0
                l(4) =   1
                l(5) =   1
     Q(r) pseudized with 10 coefficients,  rinner =    1.150   1.150   1.150

     PseudoPot. # 2 for Si read from file:
     /home/pragov/projects/rrg-bengioy-ad/pragov/crystal_structure_design/SSSP/Si.pbe-n-rrkjus_psl.1.0.0.UPF
     MD5 check sum: 0b0bb1205258b0d07b9f9672cf965d36
     Pseudo is Ultrasoft + core correction, Zval =  4.0
     Generated using "atomic" code by A. Dal Corso  v.5.1
     Using radial grid of 1141 points,  6 beta functions with:
                l(1) =   0
                l(2) =   0
                l(3) =   1
                l(4) =   1
                l(5) =   2
                l(6) =   2
     Q(r) pseudized with 0 coefficients

     PseudoPot. # 3 for N  read from file:
     /home/pragov/projects/rrg-bengioy-ad/pragov/crystal_structure_design/SSSP/N.pbe-n-radius_5.UPF
     MD5 check sum: 16739722b17309cd8fe442a2ace49922
     Pseudo is Ultrasoft + core correction, Zval =  5.0
     Generated using "atomic" code by A. Dal Corso  v.5.1
     Using radial grid of 1085 points,  4 beta functions with:
                l(1) =   0
                l(2) =   0
                l(3) =   1
                l(4) =   1
     Q(r) pseudized with 0 coefficients

     PseudoPot. # 4 for O  read from file:
     /home/pragov/projects/rrg-bengioy-ad/pragov/crystal_structure_design/SSSP/O.pbe-n-kjpaw_psl.0.1.UPF
     MD5 check sum: 0234752ac141de4415c5fc33072bef88
     Pseudo is Projector augmented-wave + core cor, Zval =  6.0
     Generated using "atomic" code by A. Dal Corso  v.5.0.99 svn rev. 10869
     Shape of augmentation charge: BESSEL
     Using radial grid of 1095 points,  4 beta functions with:
                l(1) =   0
                l(2) =   0
                l(3) =   1
                l(4) =   1
     Q(r) pseudized with 0 coefficients

     atomic species   valence    mass     pseudopotential
        Li             3.00     6.94000     Li( 1.00)
        Si             4.00    28.08500     Si( 1.00)
        N              5.00    14.00700     N ( 1.00)
        O              6.00    15.99900     O ( 1.00)

      4 Sym. Ops. (no inversion) found ( 3 have fractional translation)

                                    s                        frac. trans.

      isym =  1     identity

 cryst.   s( 1) = (     1          0          0      )
                  (     0          1          0      )
                  (     0          0          1      )

 cart.    s( 1) = (  1.0000000  0.0000000  0.0000000 )
                  (  0.0000000  1.0000000  0.0000000 )
                  (  0.0000000  0.0000000  1.0000000 )

      isym =  2     180 deg rotation - cart. axis [1,0,0]

 cryst.   s( 2) = (     1          0          0      )    f =( -0.5000000 )
                  (     0         -1          0      )       (  0.0000000 )
                  (     0          0         -1      )       (  0.0000000 )

 cart.    s( 2) = (  1.0000000  0.0000000  0.0000000 )    f =( -0.5000000 )
                  (  0.0000000 -1.0000000  0.0000000 )       (  0.0000000 )
                  (  0.0000000  0.0000000 -1.0000000 )       (  0.0000000 )

      isym =  3     inv. 180 deg rotation - cart. axis [0,0,1]

[...]

      isym =  4     inv. 180 deg rotation - cart. axis [0,1,0]

 cryst.   s( 4) = (     1          0          0      )    f =( -0.5000000 )
                  (     0         -1          0      )       (  0.5000000 )
                  (     0          0          1      )       (  0.0000000 )

 cart.    s( 4) = (  1.0000000  0.0000000  0.0000000 )    f =( -0.5000000 )
                  (  0.0000000 -1.0000000  0.0000000 )       (  0.5470449 )
                  (  0.0000000  0.0000000  1.0000000 )       (  0.0000000 )

   Cartesian axes

     site n.     atom                  positions (alat units)
         1           Li  tau(   1) = (   0.9991340   0.6533391   0.5184472  )
         2           Li  tau(   2) = (   0.4991340   0.4407508   0.8256587  )
         3           Li  tau(   3) = (   0.4991340   0.9877958   0.5184472  )
         4           Li  tau(   4) = (   0.9991340   0.1062941   0.8256587  )
         5           Si  tau(   5) = (   0.5117390   0.4584784   0.1613814  )
         6           Si  tau(   6) = (   0.5117390   1.0055233   1.1827245  )
         7           Si  tau(   7) = (   0.0117390   0.0885666   0.1613814  )
         8           Si  tau(   8) = (   0.0117390   0.6356115   1.1827245  )
         9           N   tau(   9) = (   0.1478900   0.4273887   0.1134909  )
        10           N   tau(  10) = (   0.6478900   0.6667012   1.2306150  )
        11           N   tau(  11) = (   0.6478900   0.1196562   0.1134909  )
        12           N   tau(  12) = (   0.1478900   0.9744337   1.2306150  )
        13           O   tau(  13) = (   0.5912360   0.0420634   0.8811945  )
        14           O   tau(  14) = (   0.0912360   0.5049816   0.8811945  )
        15           O   tau(  15) = (   0.0912360   1.0520265   0.4629114  )
        16           O   tau(  16) = (   0.5912360   0.5891083   0.4629114  )

   Crystallographic axes

     site n.     atom                  positions (cryst. coord.)
         1           Li  tau(   1) = (  0.9991340  0.5971530  0.3857190  )
         2           Li  tau(   2) = (  0.4991340  0.4028470  0.6142810  )
         3           Li  tau(   3) = (  0.4991340  0.9028470  0.3857190  )
         4           Li  tau(   4) = (  0.9991340  0.0971530  0.6142810  )
         5           Si  tau(   5) = (  0.5117390  0.4190500  0.1200660  )
         6           Si  tau(   6) = (  0.5117390  0.9190500  0.8799340  )
         7           Si  tau(   7) = (  0.0117390  0.0809500  0.1200660  )
         8           Si  tau(   8) = (  0.0117390  0.5809500  0.8799340  )
         9           N   tau(   9) = (  0.1478900  0.3906340  0.0844360  )
        10           N   tau(  10) = (  0.6478900  0.6093660  0.9155640  )
        11           N   tau(  11) = (  0.6478900  0.1093660  0.0844360  )
        12           N   tau(  12) = (  0.1478900  0.8906340  0.9155640  )
        13           O   tau(  13) = (  0.5912360  0.0384460  0.6555990  )
        14           O   tau(  14) = (  0.0912360  0.4615540  0.6555990  )
        15           O   tau(  15) = (  0.0912360  0.9615540  0.3444010  )
        16           O   tau(  16) = (  0.5912360  0.5384460  0.3444010  )

     number of k points=     1  Methfessel-Paxton smearing, width (Ry)=  0.0010
                       cart. coord. in units 2pi/alat
        k(    1) = (   0.0000000   0.0000000   0.0000000), wk =   2.0000000

                       cryst. coord.
        k(    1) = (   0.0000000   0.0000000   0.0000000), wk =   2.0000000

     Check: negative core charge=   -0.000008

     Initial potential from superposition of free atoms

     starting charge      70.1948, renormalised to      72.0000
     Starting wfcs are   68 randomized atomic wfcs
     Checking if some PAW data can be deallocated...

     Self-consistent Calculation

     iteration #  1     ecut=    30.00 Ry     beta= 0.70
     Davidson diagonalization with overlap

     ethr =  1.00E-02,  avg # of iterations =  5.0

     total energy              =    -351.19030866 Ry
     estimated scf accuracy    <       2.58115212 Ry

[...]

     total energy              =    -352.33210785 Ry
     estimated scf accuracy    <       0.00000117 Ry

     iteration # 10     ecut=    30.00 Ry     beta= 0.70
     Davidson diagonalization with overlap

     ethr =  1.62E-09,  avg # of iterations =  3.0

     End of self-consistent calculation

          k = 0.0000 0.0000 0.0000 (  1506 PWs)   bands (ev):

   -37.5883 -37.5683 -37.5641 -37.5628 -12.7306 -12.1005 -12.0397 -11.9722
   -10.7708  -9.0395  -8.8126  -8.7885  -2.8803  -1.8045  -1.5974  -0.3492
     0.0233   0.0769   1.1861   1.2037   1.3847   1.8672   2.1920   2.4950
     2.5731   2.7311   3.0808   3.4802   3.6880   3.7032   4.0069   4.2608
     4.2979   4.3169   4.4241   4.8863  10.2806  11.5684  11.8356  12.4587
    13.0233  13.2408  13.5953

     occupation numbers
     1.0000   1.0000   1.0000   1.0000   1.0000   1.0000   1.0000   1.0000
     1.0000   1.0000   1.0000   1.0000   1.0000   1.0000   1.0000   1.0000
     1.0000   1.0000   1.0000   1.0000   1.0000   1.0000   1.0000   1.0000
     1.0000   1.0000   1.0000   1.0000   1.0000   1.0000   1.0000   1.0000
     1.0000   1.0000   1.0000   1.0000  -0.0000  -0.0000  -0.0000  -0.0000
    -0.0000  -0.0000  -0.0000

     the Fermi energy is     7.2994 ev

!    total energy              =    -352.33210798 Ry
     estimated scf accuracy    <       0.00000018 Ry
     smearing contrib. (-TS)   =       0.00000000 Ry
     internal energy E=F+TS    =    -352.33210798 Ry

     The total energy is F=E-TS. E is the sum of the following terms:
     one-electron contribution =     -84.40227214 Ry
     hartree contribution      =      77.27641478 Ry
     xc contribution           =     -91.55948158 Ry
     ewald contribution        =    -215.59207801 Ry
     one-center paw contrib.   =     -38.05469103 Ry
      -> PAW hartree energy AE =     123.76983225 Ry
      -> PAW hartree energy PS =    -123.32523389 Ry
      -> PAW xc energy AE      =     -69.46438163 Ry
      -> PAW xc energy PS      =      30.96509224 Ry
      -> total E_H with PAW    =      77.72101313 Ry
      -> total E_XC with PAW   =    -130.05877097 Ry

     convergence has been achieved in  10 iterations

     Forces acting on atoms (cartesian axes, Ry/au):

     atom    1 type  1   force =     0.00646794   -0.00826519    0.00049899
     atom    2 type  1   force =     0.00646794    0.00826519   -0.00049899
     atom    3 type  1   force =     0.00646794    0.00826519    0.00049899
     atom    4 type  1   force =     0.00646794   -0.00826519   -0.00049899
     atom    5 type  2   force =     0.00356642    0.00048959    0.01878759
     atom    6 type  2   force =     0.00356642    0.00048959   -0.01878759
     atom    7 type  2   force =     0.00356642   -0.00048959    0.01878759
     atom    8 type  2   force =     0.00356642   -0.00048959   -0.01878759
     atom    9 type  3   force =     0.00150324   -0.00103199    0.03446055
     atom   10 type  3   force =     0.00150324    0.00103199   -0.03446055
     atom   11 type  3   force =     0.00150324    0.00103199    0.03446055
     atom   12 type  3   force =     0.00150324   -0.00103199   -0.03446055
     atom   13 type  4   force =    -0.01153761   -0.00570573    0.00864542
     atom   14 type  4   force =    -0.01153761    0.00570573    0.00864542
     atom   15 type  4   force =    -0.01153761    0.00570573   -0.00864542
     atom   16 type  4   force =    -0.01153761   -0.00570573   -0.00864542
     The non-local contrib.  to forces
     atom    1 type  1   force =     0.03705930   -0.03324617   -0.03470731
     atom    2 type  1   force =     0.03705930    0.03324617    0.03470731
     atom    3 type  1   force =     0.03705930    0.03324617   -0.03470731
     atom    4 type  1   force =     0.03705930   -0.03324617    0.03470731
     atom    5 type  2   force =    -0.01036623   -0.01527680   -0.05063942
     atom    6 type  2   force =    -0.01036623   -0.01527680    0.05063942
     atom    7 type  2   force =    -0.01036623    0.01527680   -0.05063942
     atom    8 type  2   force =    -0.01036623    0.01527680    0.05063942
     atom    9 type  3   force =     0.16585808   -0.25493801   -0.40812841
     atom   10 type  3   force =     0.16585808    0.25493801    0.40812841
     atom   11 type  3   force =     0.16585808    0.25493801   -0.40812841
     atom   12 type  3   force =     0.16585808   -0.25493801    0.40812841
     atom   13 type  4   force =    -0.26125002   -0.41417746    1.02389687
     atom   14 type  4   force =    -0.26125002    0.41417746    1.02389687
     atom   15 type  4   force =    -0.26125002    0.41417746   -1.02389687
     atom   16 type  4   force =    -0.26125002   -0.41417746   -1.02389687
     The ionic contribution  to forces
     atom    1 type  1   force =     0.32592377   -0.27900816   -0.01109523
     atom    2 type  1   force =     0.32592377    0.27900816    0.01109523
     atom    3 type  1   force =     0.32592377    0.27900816   -0.01109523
     atom    4 type  1   force =     0.32592377   -0.27900816    0.01109523
     atom    5 type  2   force =    -0.31773529   -0.28552045   -0.14077176
     atom    6 type  2   force =    -0.31773529   -0.28552045    0.14077176
     atom    7 type  2   force =    -0.31773529    0.28552045   -0.14077176
     atom    8 type  2   force =    -0.31773529    0.28552045    0.14077176
     atom    9 type  3   force =    -0.48817026    0.66637766    1.56333265
     atom   10 type  3   force =    -0.48817026   -0.66637766   -1.56333265
     atom   11 type  3   force =    -0.48817026   -0.66637766    1.56333265
     atom   12 type  3   force =    -0.48817026    0.66637766   -1.56333265
     atom   13 type  4   force =     0.47998179    0.80674877   -3.33449368
     atom   14 type  4   force =     0.47998179   -0.80674877   -3.33449368
     atom   15 type  4   force =     0.47998179   -0.80674877    3.33449368
     atom   16 type  4   force =     0.47998179    0.80674877    3.33449368
     The local contribution  to forces
     atom    1 type  1   force =    -0.35651704    0.30396954    0.04622746
     atom    2 type  1   force =    -0.35651439   -0.30399605   -0.04621348
     atom    3 type  1   force =    -0.35650845   -0.30396973    0.04622535
     atom    4 type  1   force =    -0.35652605    0.30400116   -0.04622736
     atom    5 type  2   force =     0.32942352    0.29752608    0.19976032
     atom    6 type  2   force =     0.32944949    0.29755707   -0.19977682
     atom    7 type  2   force =     0.32939230   -0.29750611    0.19980682
     atom    8 type  2   force =     0.32940442   -0.29757960   -0.19978787
     atom    9 type  3   force =     0.32500693   -0.41444664   -1.12410816
     atom   10 type  3   force =     0.32501517    0.41440420    1.12411079
     atom   11 type  3   force =     0.32501497    0.41447237   -1.12414255
     atom   12 type  3   force =     0.32505833   -0.41444538    1.12410413
     atom   13 type  4   force =    -0.23260949   -0.40192319    2.32855340
     atom   14 type  4   force =    -0.23261849    0.40195436    2.32857105
     atom   15 type  4   force =    -0.23261877    0.40196511   -2.32857252
     atom   16 type  4   force =    -0.23262237   -0.40197809   -2.32858518
     The core correction contribution to forces
     atom    1 type  1   force =     0.00000000    0.00000000    0.00000000
     atom    2 type  1   force =     0.00000000    0.00000000    0.00000000
     atom    3 type  1   force =     0.00000000    0.00000000    0.00000000
     atom    4 type  1   force =     0.00000000    0.00000000    0.00000000
     atom    5 type  2   force =     0.00223722    0.00373791    0.01029392
     atom    6 type  2   force =     0.00223445    0.00373747   -0.01029307
     atom    7 type  2   force =     0.00223896   -0.00373906    0.01029374
     atom    8 type  2   force =     0.00224042   -0.00373369   -0.01029272
     atom    9 type  3   force =    -0.00121744    0.00195472    0.00320304
     atom   10 type  3   force =    -0.00121724   -0.00195425   -0.00320316
     atom   11 type  3   force =    -0.00121746   -0.00195432    0.00320256
     atom   12 type  3   force =    -0.00121700    0.00195474   -0.00320335
     atom   13 type  4   force =     0.00229997    0.00359333   -0.00891938
     atom   14 type  4   force =     0.00229998   -0.00359303   -0.00891932
     atom   15 type  4   force =     0.00229996   -0.00359364    0.00891935
     atom   16 type  4   force =     0.00229992    0.00359342    0.00891935
     The Hubbard contrib.    to forces
     atom    1 type  1   force =     0.00000000    0.00000000    0.00000000
     atom    2 type  1   force =     0.00000000    0.00000000    0.00000000
     atom    3 type  1   force =     0.00000000    0.00000000    0.00000000
     atom    4 type  1   force =     0.00000000    0.00000000    0.00000000
     atom    5 type  2   force =     0.00000000    0.00000000    0.00000000
     atom    6 type  2   force =     0.00000000    0.00000000    0.00000000
     atom    7 type  2   force =     0.00000000    0.00000000    0.00000000
     atom    8 type  2   force =     0.00000000    0.00000000    0.00000000
     atom    9 type  3   force =     0.00000000    0.00000000    0.00000000
     atom   10 type  3   force =     0.00000000    0.00000000    0.00000000
     atom   11 type  3   force =     0.00000000    0.00000000    0.00000000
     atom   12 type  3   force =     0.00000000    0.00000000    0.00000000
     atom   13 type  4   force =     0.00000000    0.00000000    0.00000000
     atom   14 type  4   force =     0.00000000    0.00000000    0.00000000
     atom   15 type  4   force =     0.00000000    0.00000000    0.00000000
     atom   16 type  4   force =     0.00000000    0.00000000    0.00000000
     The SCF correction term to forces
     atom    1 type  1   force =    -0.00000880    0.00002250    0.00007266
     atom    2 type  1   force =    -0.00000945    0.00000920   -0.00008841
     atom    3 type  1   force =    -0.00001811   -0.00002157    0.00007522
     atom    4 type  1   force =     0.00000687   -0.00001483   -0.00007619
     atom    5 type  2   force =    -0.00000764    0.00002768    0.00015028
     atom    6 type  2   force =    -0.00004689   -0.00000409   -0.00012390
     atom    7 type  2   force =     0.00003776   -0.00005600    0.00010295
     atom    8 type  2   force =     0.00003289    0.00004919   -0.00011269
     atom    9 type  3   force =    -0.00000361    0.00003254    0.00016985
     atom   10 type  3   force =     0.00001169    0.00003395   -0.00017786
     atom   11 type  3   force =     0.00000952   -0.00004374    0.00017563
     atom   12 type  3   force =    -0.00001709    0.00002166   -0.00015538
     atom   13 type  4   force =     0.00002175    0.00004528   -0.00038980
     atom   14 type  4   force =     0.00005101   -0.00005652   -0.00040144
     atom   15 type  4   force =     0.00004106   -0.00012194    0.00041077
     atom   16 type  4   force =     0.00004302    0.00011539    0.00043387

     Total force =     0.087352     Total SCF correction =     0.000964

     Computing stress (Cartesian axis) and pressure

          total   stress  (Ry/bohr**3)                   (kbar)     P=     -234.95
  -0.00196963   0.00000000   0.00000000         -289.74        0.00        0.00
   0.00000000  -0.00158053   0.00000000            0.00     -232.50        0.00
   0.00000000   0.00000000  -0.00124133            0.00        0.00     -182.61

     kinetic stress (kbar)  12864.98      0.00      0.00
                                0.00  12952.28      0.00
                                0.00      0.00  12922.28

     local   stress (kbar)  -6517.92      0.00      0.00
                                0.00  -5840.99      0.00
                                0.00      0.00  -6235.65

     nonloc. stress (kbar)   2629.16      0.00      0.00
                                0.00   2641.92      0.00
                                0.00      0.00   2662.90

     hartree stress (kbar)   3726.29     -0.00      0.00
                               -0.00   3409.99     -0.00
                                0.00     -0.00   3342.34

     exc-cor stress (kbar)   -942.46      0.00      0.00
                                0.00   -943.85     -0.00
                                0.00     -0.00   -938.90

     corecor stress (kbar)  -2397.22     -0.00      0.00
                               -0.00  -2399.18     -0.00
                                0.00     -0.00  -2406.70

     ewald   stress (kbar)  -9652.57      0.00     -0.00
                                0.00 -10052.69     -0.00
                               -0.00     -0.00  -9528.86

     hubbard stress (kbar)      0.00      0.00      0.00
                                0.00      0.00      0.00
                                0.00      0.00      0.00

     DFT-D   stress (kbar)      0.00      0.00      0.00
                                0.00      0.00      0.00
                                0.00      0.00      0.00

     XDM     stress (kbar)      0.00      0.00      0.00
                                0.00      0.00      0.00
                                0.00      0.00      0.00

     dft-nl  stress (kbar)      0.00      0.00      0.00
                                0.00      0.00      0.00
                                0.00      0.00      0.00

     TS-vdW  stress (kbar)      0.00      0.00      0.00
                                0.00      0.00      0.00
                                0.00      0.00      0.00

[...]

                                0.00      0.00      0.00

     Writing all to output data dir new_calculations/myprefix.save/

     General routines

     Parallel routines

     PAW routines

   This run was terminated on:  15:33:18  20May2023

   JOB DONE.