     Program PWSCF v.7.0 starts on 21May2023 at 10:28:56

     Reading input from espresso_24622.pwi
Warning: card &CELL ignored
Warning: card / ignored

     Current dimensions of program PWSCF are:
     Max number of different atomic species (ntypx) = 10
     Max number of k-points (npk) =  40000
     Max angular momentum in pseudopotentials (lmaxx) =  4
     file K.pbe-spn-kjpaw_psl.1.0.0.UPF: wavefunction(s)  3S renormalized
     file O.pbe-n-kjpaw_psl.0.1.UPF: wavefunction(s)  2P renormalized

     gamma-point specific algorithms are used
     Message from routine setup:
     using ibrav=0 with symmetry is DISCOURAGED, use correct ibrav instead

     Subspace diagonalization in iterative solution of the eigenvalue problem:
     a serial algorithm will be used

     Using Slab Decomposition

     bravais-lattice index     =            0
     lattice parameter (alat)  =       9.9642  a.u.
     unit-cell volume          =    1580.4618 (a.u.)^3
     number of atoms/cell      =           17
     number of atomic types    =            5
     number of electrons       =       109.00
     number of Kohn-Sham states=           66
     kinetic-energy cutoff     =      30.0000  Ry
     charge density cutoff     =     240.0000  Ry
     scf convergence threshold =      1.0E-06
     mixing beta               =       0.7000
     number of iterations used =            8  plain     mixing
     Exchange-correlation= SLA  PW   PBX  PBC
                           (   1   4   3   4   0   0   0)

     celldm(1)=   9.964179  celldm(2)=   0.000000  celldm(3)=   0.000000
     celldm(4)=   0.000000  celldm(5)=   0.000000  celldm(6)=   0.000000

     crystal axes: (cart. coord. in units of alat)
               a(1) = (   1.000000   0.000000   0.000000 )
               a(2) = (  -0.304404   1.216639   0.000000 )
               a(3) = (  -0.154380  -0.476128   1.313099 )

     reciprocal axes: (cart. coord. in units 2 pi/alat)
               b(1) = (  1.000000  0.250201  0.208292 )
               b(2) = (  0.000000  0.821936  0.298033 )
               b(3) = (  0.000000  0.000000  0.761557 )

     PseudoPot. # 1 for K  read from file:
     /home/pragov/projects/rrg-bengioy-ad/pragov/crystal_structure_design/SSSP/K.pbe-spn-kjpaw_psl.1.0.0.UPF
     MD5 check sum: 7d58810084cac21f60fbe77ea2b688fd
     Pseudo is Projector augmented-wave + core cor, Zval =  9.0
     Generated using "atomic" code by A. Dal Corso  v.5.1
     Shape of augmentation charge: PSQ
     Using radial grid of 1165 points,  6 beta functions with:
                l(1) =   0
                l(2) =   0
                l(3) =   1
                l(4) =   1
                l(5) =   2
                l(6) =   2
     Q(r) pseudized with 0 coefficients

     PseudoPot. # 2 for Co read from file:
     /home/pragov/projects/rrg-bengioy-ad/pragov/crystal_structure_design/SSSP/Co_pbe_v1.2.uspp.F.UPF
     MD5 check sum: 5f91765df6ddd3222702df6e7b74a16d
     Pseudo is Ultrasoft + core correction, Zval = 17.0
     Generated by new atomic code, or converted to UPF format
     Using radial grid of  863 points,  6 beta functions with:
                l(1) =   0
                l(2) =   0
                l(3) =   1
                l(4) =   1
                l(5) =   2
                l(6) =   2
     Q(r) pseudized with  8 coefficients,  rinner =    1.200   1.200   1.200
                                                       1.200   1.200

     PseudoPot. # 3 for H  read from file:
     /home/pragov/projects/rrg-bengioy-ad/pragov/crystal_structure_design/SSSP/H.pbe-rrkjus_psl.1.0.0.UPF
     MD5 check sum: f52b6d4d1c606e5624b1dc7b2218f220
     Pseudo is Ultrasoft, Zval =  1.0
     Generated using "atomic" code by A. Dal Corso  v.5.1
     Using radial grid of  929 points,  2 beta functions with:
                l(1) =   0
                l(2) =   0
     Q(r) pseudized with 0 coefficients

     PseudoPot. # 4 for S  read from file:
     /home/pragov/projects/rrg-bengioy-ad/pragov/crystal_structure_design/SSSP/s_pbe_v1.4.uspp.F.UPF
     MD5 check sum: 88d86576ff6df21479756cfb9bdac1df
     Pseudo is Ultrasoft + core correction, Zval =  6.0
     Generated by new atomic code, or converted to UPF format
     Using radial grid of  907 points,  6 beta functions with:
                l(1) =   0
                l(2) =   0
                l(3) =   1
                l(4) =   1
                l(5) =   2
                l(6) =   2
     Q(r) pseudized with  8 coefficients,  rinner =    1.300   1.300   1.300
                                                       1.300   1.300

     PseudoPot. # 5 for O  read from file:
     /home/pragov/projects/rrg-bengioy-ad/pragov/crystal_structure_design/SSSP/O.pbe-n-kjpaw_psl.0.1.UPF
     MD5 check sum: 0234752ac141de4415c5fc33072bef88
     Pseudo is Projector augmented-wave + core cor, Zval =  6.0
     Generated using "atomic" code by A. Dal Corso  v.5.0.99 svn rev. 10869
     Shape of augmentation charge: BESSEL
     Using radial grid of 1095 points,  4 beta functions with:
                l(1) =   0
                l(2) =   0
                l(3) =   1
                l(4) =   1
     Q(r) pseudized with 0 coefficients

     atomic species   valence    mass     pseudopotential
        K              9.00    39.09830     K ( 1.00)
        Co            17.00    58.93319     Co( 1.00)
        H              1.00     1.00800     H ( 1.00)
        S              6.00    32.06000     S ( 1.00)
        O              6.00    15.99900     O ( 1.00)

      2 Sym. Ops., with inversion, found

                                    s                        frac. trans.

      isym =  1     identity

 cryst.   s( 1) = (     1          0          0      )
                  (     0          1          0      )
                  (     0          0          1      )

 cart.    s( 1) = (  1.0000000  0.0000000 -0.0000000 )
                  (  0.0000000  1.0000000  0.0000000 )
                  (  0.0000000  0.0000000  1.0000000 )

      isym =  2     inversion

 cryst.   s( 2) = (    -1          0          0      )
                  (     0         -1          0      )
                  (     0          0         -1      )

 cart.    s( 2) = ( -1.0000000 -0.0000000  0.0000000 )
                  (  0.0000000 -1.0000000 -0.0000000 )
                  (  0.0000000  0.0000000 -1.0000000 )

   Cartesian axes

     site n.     atom                  positions (alat units)
         1           K   tau(   1) = (   0.0489632   0.6940408   0.3591169  )
         2           K   tau(   2) = (   0.4922522   0.0464702   0.9539824  )
         3           Co  tau(   3) = (   0.0000000   0.0000000   0.0000000  )
         4           H   tau(   4) = (   0.8398420  -0.0947719   0.3918538  )
         5           H   tau(   5) = (  -0.2986266   0.8352828   0.9212455  )
         6           S   tau(   6) = (   0.5256547   0.2478532   0.2851343  )
         7           S   tau(   7) = (   0.0155607   0.4926578   1.0279650  )
         8           O   tau(   8) = (  -0.3046258   1.0697559   0.3036503  )
         9           O   tau(   9) = (   0.8458412  -0.3292450   1.0094490  )
        10           O   tau(  10) = (   0.7643561   0.2675678   0.1137065  )
        11           O   tau(  11) = (  -0.2231407   0.4729431   1.1993928  )
        12           O   tau(  12) = (   0.0132393   0.2674490   0.8652458  )
        13           O   tau(  13) = (   0.5279762   0.4730620   0.4478535  )
        14           O   tau(  14) = (   0.3013599   0.2566730   0.1122766  )
        15           O   tau(  15) = (   0.2398556   0.4838379   1.2008227  )
        16           O   tau(  16) = (   0.5404289   0.0081998   0.4312481  )
        17           O   tau(  17) = (   0.0007866   0.7323111   0.8818512  )

   Crystallographic axes

     site n.     atom                  positions (cryst. coord.)
         1           K   tau(   1) = (  0.2974140  0.6774860  0.2734880  )
         2           K   tau(   2) = (  0.7025860  0.3225140  0.7265120  )
         3           Co  tau(   3) = (  0.0000000  0.0000000  0.0000000  )
         4           H   tau(   4) = (  0.8977500  0.0388890  0.2984190  )
         5           H   tau(   5) = (  0.1022500  0.9611110  0.7015810  )
         6           S   tau(   6) = (  0.6470590  0.2886990  0.2171460  )
         7           S   tau(   7) = (  0.3529410  0.7113010  0.7828540  )
         8           O   tau(   8) = (  0.0262760  0.9697690  0.2312470  )
         9           O   tau(   9) = (  0.9737240  0.0302310  0.7687530  )
        10           O   tau(  10) = (  0.8549860  0.2538120  0.0865940  )
        11           O   tau(  11) = (  0.1450140  0.7461880  0.9134060  )
        12           O   tau(  12) = (  0.2603790  0.4776980  0.6589340  )
        13           O   tau(  13) = (  0.7396210  0.5223020  0.3410660  )
        14           O   tau(  14) = (  0.3889660  0.2444310  0.0855050  )
        15           O   tau(  15) = (  0.6110340  0.7555690  0.9144950  )
        16           O   tau(  16) = (  0.6323060  0.1352660  0.3284200  )
        17           O   tau(  17) = (  0.3676940  0.8647340  0.6715800  )

     number of k points=     1  Methfessel-Paxton smearing, width (Ry)=  0.0010
                       cart. coord. in units 2pi/alat
        k(    1) = (   0.0000000   0.0000000   0.0000000), wk =   2.0000000

                       cryst. coord.
        k(    1) = (   0.0000000   0.0000000   0.0000000), wk =   2.0000000

     Check: negative core charge=   -0.000014

     Initial potential from superposition of free atoms

     starting charge     107.9622, renormalised to     109.0000
     Starting wfcs are   79 randomized atomic wfcs
     Checking if some PAW data can be deallocated...

     Self-consistent Calculation

     iteration #  1     ecut=    30.00 Ry     beta= 0.70
     Davidson diagonalization with overlap

     ethr =  1.00E-02,  avg # of iterations =  7.0

     total energy              =    -988.60392847 Ry
     estimated scf accuracy    <       4.46984425 Ry

[...]

     total energy              =    -991.15591738 Ry
     estimated scf accuracy    <       0.00000419 Ry

     iteration # 12     ecut=    30.00 Ry     beta= 0.70
     Davidson diagonalization with overlap

     ethr =  3.85E-09,  avg # of iterations =  4.0

     End of self-consistent calculation

          k = 0.0000 0.0000 0.0000 (  2191 PWs)   bands (ev):

   -92.6617 -56.1085 -55.9509 -55.5325 -24.6687 -24.6621 -20.4614 -20.3960
   -16.5580 -16.5273 -16.3518 -16.3077 -16.1545 -16.1014 -15.2199 -14.9492
    -8.2226  -8.1978  -8.1920  -8.1729  -8.1553  -8.1541  -6.6344  -6.3308
    -4.3829  -3.7675  -3.7672  -3.6154  -3.2092  -3.0310  -2.9054  -2.4257
    -1.2377  -0.9095  -0.6955  -0.6759  -0.3335  -0.2403  -0.0155   0.0807
     0.0812   0.3826   0.5946   0.7567   1.1312   1.4078   1.6328   1.6859
     1.7788   2.0262   2.0715   2.1629   2.3149   2.8202   3.2942   3.5163
     4.9896   8.0793  10.3778  10.4505  10.7331  11.2366  11.2547  11.3782
    11.4327  11.5666

     occupation numbers
     1.0000   1.0000   1.0000   1.0000   1.0000   1.0000   1.0000   1.0000
     1.0000   1.0000   1.0000   1.0000   1.0000   1.0000   1.0000   1.0000
     1.0000   1.0000   1.0000   1.0000   1.0000   1.0000   1.0000   1.0000
     1.0000   1.0000   1.0000   1.0000   1.0000   1.0000   1.0000   1.0000
     1.0000   1.0000   1.0000   1.0000   1.0000   1.0000   1.0000   1.0000
     1.0000   1.0000   1.0000   1.0000   1.0000   1.0000   1.0000   1.0000
     1.0000   1.0000   1.0000   1.0000   1.0000   1.0000   0.5000  -0.0000
    -0.0000  -0.0000  -0.0000  -0.0000  -0.0000  -0.0000  -0.0000  -0.0000
    -0.0000  -0.0000

     the Fermi energy is     3.2942 ev

!    total energy              =    -991.15591815 Ry
     estimated scf accuracy    <       0.00000033 Ry
     smearing contrib. (-TS)   =      -0.00028209 Ry
     internal energy E=F+TS    =    -991.15563606 Ry

     The total energy is F=E-TS. E is the sum of the following terms:
     one-electron contribution =    -618.94762163 Ry
     hartree contribution      =     356.59827154 Ry
     xc contribution           =    -148.38904048 Ry
     ewald contribution        =    -374.34344772 Ry
     one-center paw contrib.   =    -206.07379777 Ry
      -> PAW hartree energy AE =     383.02663651 Ry
      -> PAW hartree energy PS =    -381.55659968 Ry
      -> PAW xc energy AE      =    -305.90550125 Ry
      -> PAW xc energy PS      =      98.36166665 Ry
      -> total E_H with PAW    =     358.06830837 Ry
      -> total E_XC with PAW   =    -355.93287508 Ry

     convergence has been achieved in  12 iterations

     Forces acting on atoms (cartesian axes, Ry/au):

     atom    1 type  1   force =    -0.00172240    0.00355888   -0.00026119
     atom    2 type  1   force =     0.00172240   -0.00355888    0.00026119
     atom    3 type  2   force =     0.00000000    0.00000000    0.00000000
     atom    4 type  3   force =     0.00340008   -0.00493417   -0.00082570
     atom    5 type  3   force =    -0.00340008    0.00493417    0.00082570
     atom    6 type  4   force =     0.04847047   -0.03105117    0.02238545
     atom    7 type  4   force =    -0.04847047    0.03105117   -0.02238545
     atom    8 type  5   force =     0.01017531   -0.01403564    0.00240802
     atom    9 type  5   force =    -0.01017531    0.01403564   -0.00240802
     atom   10 type  5   force =    -0.01489312   -0.00302380   -0.00141177
     atom   11 type  5   force =     0.01489312    0.00302380    0.00141177
     atom   12 type  5   force =     0.00536490   -0.00718501    0.00833496
     atom   13 type  5   force =    -0.00536490    0.00718501   -0.00833496
     atom   14 type  5   force =    -0.04568425   -0.01901995   -0.02890812
     atom   15 type  5   force =     0.04568425    0.01901995    0.02890812
     atom   16 type  5   force =    -0.01628070    0.00897360   -0.00163645
     atom   17 type  5   force =     0.01628070   -0.00897360    0.00163645
     The non-local contrib.  to forces
     atom    1 type  1   force =     0.01618786   -0.01891310   -0.00126889
     atom    2 type  1   force =    -0.01618786    0.01891310    0.00126889
     atom    3 type  2   force =     0.00000000    0.00000000    0.00000000
     atom    4 type  3   force =     0.08331667   -0.02623052   -0.04746950
     atom    5 type  3   force =    -0.08331667    0.02623052    0.04746950
     atom    6 type  4   force =     0.05469844   -0.01518245   -0.18543658
     atom    7 type  4   force =    -0.05469844    0.01518245    0.18543658
     atom    8 type  5   force =    -1.44631335    0.88552588   -0.02985517
     atom    9 type  5   force =     1.44631335   -0.88552588    0.02985517
     atom   10 type  5   force =    -1.28963993   -0.85062292    0.97448971
     atom   11 type  5   force =     1.28963993    0.85062292   -0.97448971
     atom   12 type  5   force =     0.06836889    1.81650778    1.37928021
     atom   13 type  5   force =    -0.06836889   -1.81650778   -1.37928021
     atom   14 type  5   force =     1.38363487   -0.60946575    1.26267809
     atom   15 type  5   force =    -1.38363487    0.60946575   -1.26267809
     atom   16 type  5   force =     0.04243909    1.78308064   -1.15173907
     atom   17 type  5   force =    -0.04243909   -1.78308064    1.15173907
     The ionic contribution  to forces
     atom    1 type  1   force =     1.02290828   -0.29294470    4.45052262
     atom    2 type  1   force =    -1.02290828    0.29294470   -4.45052262
     atom    3 type  2   force =    -0.00000000    0.00000000   -0.00000000
     atom    4 type  3   force =    -1.98153036   -0.26172429    3.37206348
     atom    5 type  3   force =     1.98153036    0.26172429   -3.37206348
     atom    6 type  4   force =    -0.78017062    2.87100166    4.63550308
     atom    7 type  4   force =     0.78017062   -2.87100166   -4.63550308
     atom    8 type  5   force =     2.28070680   -9.47689138   17.51298146
     atom    9 type  5   force =    -2.28070680    9.47689138  -17.51298146
     atom   10 type  5   force =     0.17045293   11.56341282   -0.20038407
     atom   11 type  5   force =    -0.17045293  -11.56341282    0.20038406
     atom   12 type  5   force =     0.12134186  -10.12397902   -9.00814365
     atom   13 type  5   force =    -0.12134186   10.12397902    9.00814365
     atom   14 type  5   force =    -1.78165287    8.72690829   -2.17713111
     atom   15 type  5   force =     1.78165287   -8.72690829    2.17713111
     atom   16 type  5   force =    -0.91148376   -8.77949972   11.08713627
     atom   17 type  5   force =     0.91148376    8.77949972  -11.08713627
     The local contribution  to forces
     atom    1 type  1   force =    -1.03989847    0.31438614   -4.44972786
     atom    2 type  1   force =     1.04000598   -0.31451153    4.44983530
     atom    3 type  2   force =     0.00002382    0.00016926   -0.00044911
     atom    4 type  3   force =     1.90152863    0.28303643   -3.32536239
     atom    5 type  3   force =    -1.90160753   -0.28301045    3.32540650
     atom    6 type  4   force =     0.77878196   -2.88883657   -4.44101823
     atom    7 type  4   force =    -0.77882487    2.88883202    4.44101737
     atom    8 type  5   force =    -0.83871502    8.58618965  -17.48063529
     atom    9 type  5   force =     0.83862171   -8.58612561   17.48065392
     atom   10 type  5   force =     1.09244549  -10.72514882   -0.76663437
     atom   11 type  5   force =    -1.09239886   10.72521500    0.76650058
     atom   12 type  5   force =    -0.18360781    8.31589552    7.64913684
     atom   13 type  5   force =     0.18360187   -8.31585184   -7.64908431
     atom   14 type  5   force =     0.36397934   -8.14358257    0.89668701
     atom   15 type  5   force =    -0.36401054    8.14356186   -0.89678839
     atom   16 type  5   force =     0.85319347    7.02075779   -9.94715551
     atom   17 type  5   force =    -0.85315913   -7.02078726    9.94721866
     The core correction contribution to forces
     atom    1 type  1   force =    -0.00080511    0.00093131    0.00021899
     atom    2 type  1   force =     0.00080620   -0.00093270   -0.00021693
     atom    3 type  2   force =     0.00000005    0.00000004   -0.00000106
     atom    4 type  3   force =     0.00000000    0.00000000    0.00000000
     atom    5 type  3   force =     0.00000000    0.00000000    0.00000000
     atom    6 type  4   force =    -0.00475901    0.00184322    0.01343765
     atom    7 type  4   force =     0.00475936   -0.00184436   -0.01343720
     atom    8 type  5   force =     0.01434532   -0.00885371    0.00018194
     atom    9 type  5   force =    -0.01434414    0.00885339   -0.00018229
     atom   10 type  5   force =     0.01188883    0.00950933   -0.00896564
     atom   11 type  5   force =    -0.01188886   -0.00950866    0.00896556
     atom   12 type  5   force =    -0.00075305   -0.01570564   -0.01206366
     atom   13 type  5   force =     0.00075317    0.01570560    0.01206357
     atom   14 type  5   force =    -0.01172106    0.00713980   -0.01121534
     atom   15 type  5   force =     0.01172134   -0.00714014    0.01121503
     atom   16 type  5   force =    -0.00040561   -0.01558886    0.01030354
     atom   17 type  5   force =     0.00040551    0.01558892   -0.01030354
     The Hubbard contrib.    to forces
     atom    1 type  1   force =     0.00000000    0.00000000    0.00000000
     atom    2 type  1   force =     0.00000000    0.00000000    0.00000000
     atom    3 type  2   force =     0.00000000    0.00000000    0.00000000
     atom    4 type  3   force =     0.00000000    0.00000000    0.00000000
     atom    5 type  3   force =     0.00000000    0.00000000    0.00000000
     atom    6 type  4   force =     0.00000000    0.00000000    0.00000000
     atom    7 type  4   force =     0.00000000    0.00000000    0.00000000
     atom    8 type  5   force =     0.00000000    0.00000000    0.00000000
     atom    9 type  5   force =     0.00000000    0.00000000    0.00000000
     atom   10 type  5   force =     0.00000000    0.00000000    0.00000000
     atom   11 type  5   force =     0.00000000    0.00000000    0.00000000
     atom   12 type  5   force =     0.00000000    0.00000000    0.00000000
     atom   13 type  5   force =     0.00000000    0.00000000    0.00000000
     atom   14 type  5   force =     0.00000000    0.00000000    0.00000000
     atom   15 type  5   force =     0.00000000    0.00000000    0.00000000
     atom   16 type  5   force =     0.00000000    0.00000000    0.00000000
     atom   17 type  5   force =     0.00000000    0.00000000    0.00000000
     The SCF correction term to forces
     atom    1 type  1   force =    -0.00010373    0.00009230    0.00000525
     atom    2 type  1   force =     0.00001757    0.00002063   -0.00009217
     atom    3 type  2   force =    -0.00002446   -0.00011857    0.00036391
     atom    4 type  3   force =     0.00007189   -0.00001040   -0.00005147
     atom    5 type  3   force =    -0.00001950   -0.00000481    0.00001899
     atom    6 type  4   force =    -0.00007562    0.00012170   -0.00009958
     atom    7 type  4   force =     0.00012753   -0.00011855    0.00010178
     atom    8 type  5   force =     0.00020311   -0.00002225   -0.00029234
     atom    9 type  5   force =    -0.00000787   -0.00007380    0.00021922
     atom   10 type  5   force =    -0.00004323   -0.00015729    0.00008762
     atom   11 type  5   force =    -0.00000895    0.00012426    0.00005630
     atom   12 type  5   force =     0.00002069    0.00009261    0.00012172
     atom   13 type  5   force =    -0.00000350   -0.00014373   -0.00018114
     atom   14 type  5   force =     0.00008010   -0.00002979    0.00007302
     atom   15 type  5   force =    -0.00003992    0.00003069    0.00002826
     atom   16 type  5   force =    -0.00003295    0.00023182   -0.00017844
     atom   17 type  5   force =    -0.00001940   -0.00018626    0.00012177

     Total force =     0.127976     Total SCF correction =     0.000848

     Computing stress (Cartesian axis) and pressure

          total   stress  (Ry/bohr**3)                   (kbar)     P=     -345.73
  -0.00224888  -0.00013607  -0.00000258         -330.82      -20.02       -0.38
  -0.00013607  -0.00243593  -0.00007697          -20.02     -358.34      -11.32
  -0.00000258  -0.00007697  -0.00236580           -0.38      -11.32     -348.02

     kinetic stress (kbar)  17295.53     29.97     67.53
                               29.97  17288.46    -19.99
                               67.53    -19.99  17333.76

     local   stress (kbar) -27477.62   3827.54   1861.16
                             3827.54 -15010.46  -2762.99
                             1861.16  -2762.99 -10820.23

     nonloc. stress (kbar)   4777.60    -27.23      7.94
                              -27.23   4793.66      0.90
                                7.94      0.90   4733.88

     hartree stress (kbar)  15678.39  -1433.03   -740.65
                            -1433.03   9790.95   1374.72
                             -740.65   1374.72   7721.86

     exc-cor stress (kbar)  -2268.09     -5.71     -2.72
                               -5.71  -2270.31     -1.37
                               -2.72     -1.37  -2268.82

     corecor stress (kbar)  -1830.25      0.63     -1.20
                                0.63  -1832.53     -0.69
                               -1.20     -0.69  -1830.09

     ewald   stress (kbar)  -6506.38  -2412.19  -1192.44
                            -2412.19 -13118.10   1398.10
                            -1192.44   1398.10 -15218.39

     hubbard stress (kbar)      0.00      0.00      0.00
                                0.00      0.00      0.00
                                0.00      0.00      0.00

     DFT-D   stress (kbar)      0.00      0.00      0.00
                                0.00      0.00      0.00
                                0.00      0.00      0.00

     XDM     stress (kbar)      0.00      0.00      0.00
                                0.00      0.00      0.00
                                0.00      0.00      0.00

     dft-nl  stress (kbar)      0.00      0.00      0.00
                                0.00      0.00      0.00
                                0.00      0.00      0.00

     TS-vdW  stress (kbar)      0.00      0.00      0.00
                                0.00      0.00      0.00
                                0.00      0.00      0.00

[...]

                                0.00      0.00      0.00

     Writing all to output data dir new_calculations/myprefix.save/

     General routines

     Parallel routines

     PAW routines

   This run was terminated on:  10:29:22  21May2023

   JOB DONE.