     Program PWSCF v.7.0 starts on 20May2023 at  3:51:52

     Reading input from espresso_19017.pwi
Warning: card &CELL ignored
Warning: card / ignored

     Current dimensions of program PWSCF are:
     Max number of different atomic species (ntypx) = 10
     Max number of k-points (npk) =  40000
     Max angular momentum in pseudopotentials (lmaxx) =  4
     file Fe.pbe-spn-kjpaw_psl.0.2.1.UPF: wavefunction(s)  3D renormalized
     file O.pbe-n-kjpaw_psl.0.1.UPF: wavefunction(s)  2P renormalized

     gamma-point specific algorithms are used

     Subspace diagonalization in iterative solution of the eigenvalue problem:
     a serial algorithm will be used

     Using Slab Decomposition

     bravais-lattice index     =            0
     lattice parameter (alat)  =      11.2098  a.u.
     unit-cell volume          =    1938.0420 (a.u.)^3
     number of atoms/cell      =           16
     number of atomic types    =            3
     number of electrons       =       148.00
     number of Kohn-Sham states=           89
     kinetic-energy cutoff     =      30.0000  Ry
     charge density cutoff     =     240.0000  Ry
     scf convergence threshold =      1.0E-06
     mixing beta               =       0.7000
     number of iterations used =            8  plain     mixing
     Exchange-correlation= SLA  PW   PBX  PBC
                           (   1   4   3   4   0   0   0)

     celldm(1)=  11.209801  celldm(2)=   0.000000  celldm(3)=   0.000000
     celldm(4)=   0.000000  celldm(5)=   0.000000  celldm(6)=   0.000000

     crystal axes: (cart. coord. in units of alat)
               a(1) = (   1.000000   0.000000   0.000000 )
               a(2) = (   0.000005   1.368933   0.000000 )
               a(3) = (  -0.000002   0.000001   1.005049 )

     reciprocal axes: (cart. coord. in units 2 pi/alat)
               b(1) = (  1.000000 -0.000003  0.000002 )
               b(2) = (  0.000000  0.730496 -0.000000 )
               b(3) = (  0.000000  0.000000  0.994976 )

     PseudoPot. # 1 for Rb read from file:
     /home/pragov/projects/rrg-bengioy-ad/pragov/crystal_structure_design/SSSP/Rb_ONCV_PBE-1.0.oncvpsp.upf
     MD5 check sum: 55a5172d6bfbce6759a58e35d43f6aa9
     Pseudo is Norm-conserving, Zval =  9.0
     Generated using ONCVPSP code by D. R. Hamann
     Using radial grid of 2308 points,  6 beta functions with:
                l(1) =   0
                l(2) =   0
                l(3) =   1
                l(4) =   1
                l(5) =   2
                l(6) =   2

     PseudoPot. # 2 for Fe read from file:
     /home/pragov/projects/rrg-bengioy-ad/pragov/crystal_structure_design/SSSP/Fe.pbe-spn-kjpaw_psl.0.2.1.UPF
     MD5 check sum: e86618425769142926afa95317d90200
     Pseudo is Projector augmented-wave + core cor, Zval = 16.0
     Generated using "atomic" code by A. Dal Corso  v.5.0.99 svn rev. 10869
     Shape of augmentation charge: PSQ
     Using radial grid of 1191 points,  6 beta functions with:
                l(1) =   0
                l(2) =   0
                l(3) =   1
                l(4) =   1
                l(5) =   2
                l(6) =   2
     Q(r) pseudized with 0 coefficients

     PseudoPot. # 3 for O  read from file:
     /home/pragov/projects/rrg-bengioy-ad/pragov/crystal_structure_design/SSSP/O.pbe-n-kjpaw_psl.0.1.UPF
     MD5 check sum: 0234752ac141de4415c5fc33072bef88
     Pseudo is Projector augmented-wave + core cor, Zval =  6.0
     Generated using "atomic" code by A. Dal Corso  v.5.0.99 svn rev. 10869
     Shape of augmentation charge: BESSEL
     Using radial grid of 1095 points,  4 beta functions with:
                l(1) =   0
                l(2) =   0
                l(3) =   1
                l(4) =   1
     Q(r) pseudized with 0 coefficients

     atomic species   valence    mass     pseudopotential
        Rb             9.00    85.46780     Rb( 1.00)
        Fe            16.00    55.84500     Fe( 1.00)
        O              6.00    15.99900     O ( 1.00)

     No symmetry found

                                    s                        frac. trans.

      isym =  1     identity

 cryst.   s( 1) = (     1          0          0      )
                  (     0          1          0      )
                  (     0          0          1      )

 cart.    s( 1) = (  1.0000000 -0.0000000  0.0000000 )
                  (  0.0000000  1.0000000  0.0000000 )
                  (  0.0000000  0.0000000  1.0000000 )

   Cartesian axes

     site n.     atom                  positions (alat units)
         1           Rb  tau(   1) = (   0.0141788   0.8519091   0.0638297  )
         2           Rb  tau(   2) = (   0.5141788   0.1674413   0.4386939  )
         3           Rb  tau(   3) = (   0.0141791   1.2014925   0.5663311  )
         4           Rb  tau(   4) = (   0.5141772   0.5170261   0.9412425  )
         5           Fe  tau(   5) = (   0.0007878   0.5115419   0.5496975  )
         6           Fe  tau(   6) = (   0.5007885   1.1960087   0.9578741  )
         7           Fe  tau(   7) = (   0.0007895   0.1729264   0.0471629  )
         8           Fe  tau(   8) = (   0.5007912   0.8573905   0.4553646  )
         9           O   tau(   9) = (   0.7029472   0.0667998   0.0071017  )
        10           O   tau(  10) = (   0.2029497   0.7512667   0.4954229  )
        11           O   tau(  11) = (   0.7029102   0.6176917   0.5096272  )
        12           O   tau(  12) = (   0.2029128   1.3021586   0.9979464  )
        13           O   tau(  13) = (   0.5422280   0.9503984   0.1523916  )
        14           O   tau(  14) = (   0.0422253   0.2659305   0.3501330  )
        15           O   tau(  15) = (   0.5422317   1.1029772   0.6548779  )
        16           O   tau(  16) = (   0.0422300   0.4185121   0.8526957  )

   Crystallographic axes

     site n.     atom                  positions (cryst. coord.)
         1           Rb  tau(   1) = (  0.0141760  0.6223160  0.0635090  )
         2           Rb  tau(   2) = (  0.5141790  0.1223150  0.4364900  )
         3           Rb  tau(   3) = (  0.0141760  0.8776850  0.5634860  )
         4           Rb  tau(   4) = (  0.5141770  0.3776850  0.9365140  )
         5           Fe  tau(   5) = (  0.0007870  0.3736790  0.5469360  )
         6           Fe  tau(   6) = (  0.5007860  0.8736790  0.9530620  )
         7           Fe  tau(   7) = (  0.0007890  0.1263220  0.0469260  )
         8           Fe  tau(   8) = (  0.5007890  0.6263200  0.4530770  )
         9           O   tau(   9) = (  0.7029470  0.0487970  0.0070660  )
        10           O   tau(  10) = (  0.2029480  0.5487970  0.4929340  )
        11           O   tau(  11) = (  0.7029090  0.4512210  0.5070670  )
        12           O   tau(  12) = (  0.2029100  0.9512210  0.9929330  )
        13           O   tau(  13) = (  0.5422250  0.6942620  0.1516260  )
        14           O   tau(  14) = (  0.0422250  0.1942610  0.3483740  )
        15           O   tau(  15) = (  0.5422290  0.8057200  0.6515880  )
        16           O   tau(  16) = (  0.0422300  0.3057210  0.8484120  )

     number of k points=     1  Methfessel-Paxton smearing, width (Ry)=  0.0010
                       cart. coord. in units 2pi/alat
        k(    1) = (   0.0000000   0.0000000   0.0000000), wk =   2.0000000

                       cryst. coord.
        k(    1) = (   0.0000000   0.0000000   0.0000000), wk =   2.0000000

     Check: negative core charge=   -0.000099

     Initial potential from superposition of free atoms

     starting charge     147.8992, renormalised to     148.0000
     Starting wfcs are  104 randomized atomic wfcs
     Checking if some PAW data can be deallocated...

     Self-consistent Calculation

     iteration #  1     ecut=    30.00 Ry     beta= 0.70
     Davidson diagonalization with overlap

     ethr =  1.00E-02,  avg # of iterations =  4.0

     total energy              =   -1842.57465722 Ry
     estimated scf accuracy    <       3.53065266 Ry

[...]

     negative rho (up, down):  4.324E-07 0.000E+00

[...]

     total energy              =   -1844.63977797 Ry
     estimated scf accuracy    <       0.00000580 Ry

     iteration # 23     ecut=    30.00 Ry     beta= 0.70
     Davidson diagonalization with overlap

     ethr =  3.17E-09,  avg # of iterations =  2.0

     End of self-consistent calculation

          k = 0.0000 0.0000 0.0000 (  2704 PWs)   bands (ev):

   -80.4865 -80.4851 -80.4805 -80.4788 -46.1914 -46.1902 -46.1733 -46.1706
   -46.0676 -46.0656 -46.0510 -46.0483 -46.0318 -46.0256 -46.0189 -46.0056
   -20.1950 -20.1169 -20.1130 -20.0369 -11.4813 -11.2665 -11.2460 -10.9981
   -10.9720 -10.9701 -10.9547 -10.9507  -4.6270  -4.5822  -4.5506  -4.4744
    -4.4301  -4.2764  -4.1858  -4.0904  -4.0535  -4.0347  -3.9792  -3.9703
     1.3679   1.7508   1.8019   2.1192   2.1642   2.1801   2.1870   2.2452
     2.4421   2.5605   2.6661   2.7951   3.2110   3.2180   3.2422   3.2872
     3.3402   3.5178   3.5301   4.0296   4.0564   4.4074   4.5087   4.7013
     5.5743   5.7372   5.9721   6.2015   6.3896   6.4661   6.4981   6.6066
     6.7536   6.9202   7.2622   7.3539   7.6259   7.8914   7.9127   8.2489
     8.3564   8.7212   8.8493   8.8674   9.0215  11.5635  11.5785  11.8544
    12.2514

     occupation numbers
     1.0000   1.0000   1.0000   1.0000   1.0000   1.0000   1.0000   1.0000
     1.0000   1.0000   1.0000   1.0000   1.0000   1.0000   1.0000   1.0000
     1.0000   1.0000   1.0000   1.0000   1.0000   1.0000   1.0000   1.0000
     1.0000   1.0000   1.0000   1.0000   1.0000   1.0000   1.0000   1.0000
     1.0000   1.0000   1.0000   1.0000   1.0000   1.0000   1.0000   1.0000
     1.0000   1.0000   1.0000   1.0000   1.0000   1.0000   1.0000   1.0000
     1.0000   1.0000   1.0000   1.0000   1.0000   1.0000   1.0000   1.0000
     1.0000   1.0000   1.0000   1.0000   1.0000   1.0000   1.0000   1.0000
     1.0000   1.0000   1.0000   1.0000   1.0000   1.0000   1.0000   1.0000
     1.0000   1.0000  -0.0000  -0.0000  -0.0000  -0.0000  -0.0000  -0.0000
    -0.0000  -0.0000  -0.0000  -0.0000  -0.0000  -0.0000  -0.0000  -0.0000
    -0.0000

     the Fermi energy is     7.1193 ev

!    total energy              =   -1844.63977865 Ry
     estimated scf accuracy    <       0.00000068 Ry
     smearing contrib. (-TS)   =       0.00000000 Ry
     internal energy E=F+TS    =   -1844.63977865 Ry

     The total energy is F=E-TS. E is the sum of the following terms:
     one-electron contribution =   -1080.25149800 Ry
     hartree contribution      =     599.80118745 Ry
     xc contribution           =    -227.37260469 Ry
     ewald contribution        =    -756.28394650 Ry
     one-center paw contrib.   =    -380.53291693 Ry
      -> PAW hartree energy AE =    1066.57155674 Ry
      -> PAW hartree energy PS =   -1062.63975903 Ry
      -> PAW xc energy AE      =    -580.22694524 Ry
      -> PAW xc energy PS      =     195.76223061 Ry
      -> total E_H with PAW    =     603.73298516 Ry
      -> total E_XC with PAW   =    -611.83731932 Ry

     convergence has been achieved in  23 iterations

     Forces acting on atoms (cartesian axes, Ry/au):

     atom    1 type  1   force =    -0.00308213   -0.00476645   -0.00374316
     atom    2 type  1   force =    -0.00307577   -0.00470312    0.00372496
     atom    3 type  1   force =    -0.00306502    0.00470781   -0.00369994
     atom    4 type  1   force =    -0.00309199    0.00477610    0.00373756
     atom    5 type  2   force =    -0.00194623   -0.01013552   -0.00395751
     atom    6 type  2   force =    -0.00134443   -0.00676697    0.00257953
     atom    7 type  2   force =    -0.00142986    0.00675311   -0.00253947
     atom    8 type  2   force =    -0.00186889    0.01013289    0.00397486
     atom    9 type  3   force =     0.01197313   -0.00233185    0.00337764
     atom   10 type  3   force =     0.01199473   -0.00251285   -0.00290461
     atom   11 type  3   force =     0.01222891    0.00236400    0.00294834
     atom   12 type  3   force =     0.01208667    0.00228391   -0.00341454
     atom   13 type  3   force =    -0.00708191    0.01282360    0.00611315
     atom   14 type  3   force =    -0.00760816    0.01297220   -0.00632639
     atom   15 type  3   force =    -0.00759182   -0.01284316    0.00643471
     atom   16 type  3   force =    -0.00709722   -0.01275371   -0.00630511
     The non-local contrib.  to forces
     atom    1 type  1   force =    -0.00182297    0.00774464   -0.02544558
     atom    2 type  1   force =    -0.00184445    0.00765823    0.02549386
     atom    3 type  1   force =    -0.00184712   -0.00767259   -0.02549399
     atom    4 type  1   force =    -0.00181984   -0.00774269    0.02543999
     atom    5 type  2   force =    -0.00734525   -0.01022249    0.00308842
     atom    6 type  2   force =    -0.00769689   -0.00801669   -0.00411263
     atom    7 type  2   force =    -0.00784029    0.00799053    0.00411586
     atom    8 type  2   force =    -0.00727560    0.01033567   -0.00295401
     atom    9 type  3   force =     0.22561046   -0.28277389   -0.07061851
     atom   10 type  3   force =     0.22632142   -0.28617075    0.06955174
     atom   11 type  3   force =     0.22619892    0.28630789   -0.06957992
     atom   12 type  3   force =     0.22538113    0.28297841    0.07061058
     atom   13 type  3   force =    -0.19698325    0.37335275    0.21982091
     atom   14 type  3   force =    -0.19349449    0.37345300   -0.22155849
     atom   15 type  3   force =    -0.19346666   -0.37355913    0.22132788
     atom   16 type  3   force =    -0.19706630   -0.37348934   -0.21970828
     The ionic contribution  to forces
     atom    1 type  1   force =    -0.75138995    0.45617442   -1.63511901
     atom    2 type  1   force =    -0.75153424    0.45611884    1.63517900
     atom    3 type  1   force =    -0.75138140   -0.45598987   -1.63358569
     atom    4 type  1   force =    -0.75142604   -0.45600230    1.63363643
     atom    5 type  2   force =     0.86003645   -0.10781513    0.68538361
     atom    6 type  2   force =     0.86007425   -0.10775305   -0.68533371
     atom    7 type  2   force =     0.86001225    0.10780739    0.68525856
     atom    8 type  2   force =     0.86002486    0.10813921   -0.68579188
     atom    9 type  3   force =    -3.24199074    4.43071714    0.16624918
     atom   10 type  3   force =    -3.24223917    4.43077099   -0.16631493
     atom   11 type  3   force =    -3.23327132   -4.43747780    0.16818616
     atom   12 type  3   force =    -3.23367219   -4.43716662   -0.16812988
     atom   13 type  3   force =     3.12880223   -5.26549525   -3.44743780
     atom   14 type  3   force =     3.12888567   -5.26554410    3.44793112
     atom   15 type  3   force =     3.12953699    5.27180284   -3.43992038
     atom   16 type  3   force =     3.12953235    5.27171330    3.43980921
     The local contribution  to forces
     atom    1 type  1   force =     0.74963965   -0.46840019    1.65686406
     atom    2 type  1   force =     0.74982736   -0.46879949   -1.65700484
     atom    3 type  1   force =     0.74965494    0.46809924    1.65533617
     atom    4 type  1   force =     0.74966420    0.46875430   -1.65531444
     atom    5 type  2   force =    -0.85761409    0.10697406   -0.69604823
     atom    6 type  2   force =    -0.85687673    0.10690731    0.69537950
     atom    7 type  2   force =    -0.85722102   -0.10803910   -0.69504940
     atom    8 type  2   force =    -0.85797632   -0.10605684    0.69629791
     atom    9 type  3   force =     3.03045685   -4.15384274   -0.09328336
     atom   10 type  3   force =     3.03074520   -4.14988266    0.09499562
     atom   11 type  3   force =     3.02111146    4.15741672   -0.09689346
     atom   12 type  3   force =     3.02291629    4.15941777    0.09523087
     atom   13 type  3   force =    -2.94173848    4.90946242    3.23648126
     atom   14 type  3   force =    -2.94565317    4.90926026   -3.23536354
     atom   15 type  3   force =    -2.94640769   -4.91582724    3.22752392
     atom   16 type  3   force =    -2.94228300   -4.91533364   -3.22867154
     The core correction contribution to forces
     atom    1 type  1   force =     0.00000000    0.00000000    0.00000000
     atom    2 type  1   force =     0.00000000    0.00000000    0.00000000
     atom    3 type  1   force =     0.00000000    0.00000000    0.00000000
     atom    4 type  1   force =     0.00000000    0.00000000    0.00000000
     atom    5 type  2   force =     0.00265438    0.00166335    0.00311217
     atom    6 type  2   force =     0.00285288    0.00175567   -0.00368457
     atom    7 type  2   force =     0.00285084   -0.00175748    0.00368056
     atom    8 type  2   force =     0.00265094   -0.00166180   -0.00310722
     atom    9 type  3   force =    -0.00279176    0.00321827    0.00113667
     atom   10 type  3   force =    -0.00281412    0.00335720   -0.00112070
     atom   11 type  3   force =    -0.00281718   -0.00335534    0.00111964
     atom   12 type  3   force =    -0.00279412   -0.00321648   -0.00113469
     atom   13 type  3   force =     0.00226804   -0.00442577   -0.00251337
     atom   14 type  3   force =     0.00223126   -0.00447672    0.00255453
     atom   15 type  3   force =     0.00223097    0.00447489   -0.00255574
     atom   16 type  3   force =     0.00226866    0.00442352    0.00251539
     The Hubbard contrib.    to forces
     atom    1 type  1   force =     0.00000000    0.00000000    0.00000000
     atom    2 type  1   force =     0.00000000    0.00000000    0.00000000
     atom    3 type  1   force =     0.00000000    0.00000000    0.00000000
     atom    4 type  1   force =     0.00000000    0.00000000    0.00000000
     atom    5 type  2   force =     0.00000000    0.00000000    0.00000000
     atom    6 type  2   force =     0.00000000    0.00000000    0.00000000
     atom    7 type  2   force =     0.00000000    0.00000000    0.00000000
     atom    8 type  2   force =     0.00000000    0.00000000    0.00000000
     atom    9 type  3   force =     0.00000000    0.00000000    0.00000000
     atom   10 type  3   force =     0.00000000    0.00000000    0.00000000
     atom   11 type  3   force =     0.00000000    0.00000000    0.00000000
     atom   12 type  3   force =     0.00000000    0.00000000    0.00000000
     atom   13 type  3   force =     0.00000000    0.00000000    0.00000000
     atom   14 type  3   force =     0.00000000    0.00000000    0.00000000
     atom   15 type  3   force =     0.00000000    0.00000000    0.00000000
     atom   16 type  3   force =     0.00000000    0.00000000    0.00000000
     The SCF correction term to forces
     atom    1 type  1   force =    -0.00000231   -0.00028725   -0.00004488
     atom    2 type  1   force =    -0.00001789    0.00031735    0.00005470
     atom    3 type  1   force =     0.00001511    0.00026909    0.00004133
     atom    4 type  1   force =    -0.00000376   -0.00023516   -0.00002666
     atom    5 type  2   force =    -0.00017118   -0.00073725    0.00050427
     atom    6 type  2   force =    -0.00019139    0.00033785    0.00032870
     atom    7 type  2   force =     0.00027490    0.00074983   -0.00054728
     atom    8 type  2   force =     0.00021378   -0.00062529   -0.00047217
     atom    9 type  3   force =     0.00019486    0.00034743   -0.00010858
     atom   10 type  3   force =    -0.00051205   -0.00058957   -0.00001859
     atom   11 type  3   force =     0.00051357   -0.00052941    0.00011368
     atom   12 type  3   force =    -0.00023788    0.00026889    0.00000634
     atom   13 type  3   force =     0.00007609   -0.00007250   -0.00024009
     atom   14 type  3   force =    -0.00007087    0.00027781    0.00010774
     atom   15 type  3   force =     0.00002111    0.00026353    0.00005679
     atom   16 type  3   force =    -0.00004238   -0.00006948   -0.00025212

     Total force =     0.047078     Total SCF correction =     0.002185

     Computing stress (Cartesian axis) and pressure

          total   stress  (Ry/bohr**3)                   (kbar)     P=     -424.18
  -0.00279402  -0.00000008   0.00000026         -411.01       -0.01        0.04
  -0.00000008  -0.00280280  -0.00000008           -0.01     -412.31       -0.01
   0.00000026  -0.00000008  -0.00305374            0.04       -0.01     -449.22

     kinetic stress (kbar)  19594.96     -0.01      0.00
                               -0.01  19557.22      0.49
                                0.00      0.49  19530.33

     local   stress (kbar)  -4700.54      0.33      0.09
                                0.33  -4589.24     -1.61
                                0.09     -1.61  -5523.62

     nonloc. stress (kbar)  -5958.95      0.01      0.02
                                0.01  -5916.32      0.10
                                0.02      0.10  -5945.24

     hartree stress (kbar)  15049.34     -0.09     -0.05
                               -0.09  14981.94      0.89
                               -0.05      0.89  15496.01

     exc-cor stress (kbar)  -2251.29     -0.00     -0.00
                               -0.00  -2250.55      0.03
                               -0.00      0.03  -2251.04

     corecor stress (kbar)  -2896.35     -0.00      0.00
                               -0.00  -2898.47     -0.02
                                0.00     -0.02  -2895.76

     ewald   stress (kbar) -19248.17     -0.26     -0.02
                               -0.26 -19296.88      0.11
                               -0.02      0.11 -18859.89

     hubbard stress (kbar)      0.00      0.00      0.00
                                0.00      0.00      0.00
                                0.00      0.00      0.00

     DFT-D   stress (kbar)      0.00      0.00      0.00
                                0.00      0.00      0.00
                                0.00      0.00      0.00

     XDM     stress (kbar)      0.00      0.00      0.00
                                0.00      0.00      0.00
                                0.00      0.00      0.00

     dft-nl  stress (kbar)      0.00      0.00      0.00
                                0.00      0.00      0.00
                                0.00      0.00      0.00

     TS-vdW  stress (kbar)      0.00      0.00      0.00
                                0.00      0.00      0.00
                                0.00      0.00      0.00

[...]

                                0.00      0.00      0.00

     Writing all to output data dir new_calculations/myprefix.save/

     General routines

     Parallel routines

     PAW routines

   This run was terminated on:   3:53:49  20May2023

   JOB DONE.