     Program PWSCF v.7.0 starts on 20May2023 at 13:59:41

     Reading input from espresso_5468.pwi
Warning: card &CELL ignored
Warning: card / ignored

     Current dimensions of program PWSCF are:
     Max number of different atomic species (ntypx) = 10
     Max number of k-points (npk) =  40000
     Max angular momentum in pseudopotentials (lmaxx) =  4

     gamma-point specific algorithms are used
     Message from routine setup:
     using ibrav=0 with symmetry is DISCOURAGED, use correct ibrav instead

     Subspace diagonalization in iterative solution of the eigenvalue problem:
     a serial algorithm will be used

     Using Slab Decomposition

     bravais-lattice index     =            0
     lattice parameter (alat)  =      18.5789  a.u.
     unit-cell volume          =    3881.8359 (a.u.)^3
     number of atoms/cell      =           18
     number of atomic types    =            3
     number of electrons       =       214.00
     number of Kohn-Sham states=          128
     kinetic-energy cutoff     =      30.0000  Ry
     charge density cutoff     =     240.0000  Ry
     scf convergence threshold =      1.0E-06
     mixing beta               =       0.7000
     number of iterations used =            8  plain     mixing
     Exchange-correlation=  SLA  PW   PBX  PBC
                           (   1   4   3   4   0   0   0)

     celldm(1)=  18.578937  celldm(2)=   0.000000  celldm(3)=   0.000000
     celldm(4)=   0.000000  celldm(5)=   0.000000  celldm(6)=   0.000000

     crystal axes: (cart. coord. in units of alat)
               a(1) = (   1.000000   0.000000   0.000000 )
               a(2) = (  -0.500000   0.866025   0.000000 )
               a(3) = (   0.000000   0.000000   0.698947 )

     reciprocal axes: (cart. coord. in units 2 pi/alat)
               b(1) = (  1.000000  0.577350  0.000000 )
               b(2) = (  0.000000  1.154701  0.000000 )
               b(3) = (  0.000000  0.000000  1.430725 )

     PseudoPot. # 1 for La read from file:
     /home/pragov/projects/rrg-bengioy-ad/pragov/crystal_structure_design/SSSP/La.GGA-PBE-paw-v1.0.UPF
     MD5 check sum: 436541e95c1ad8901025bd0b0ed42ae2
     Pseudo is Projector augmented-wave + core cor, Zval = 11.0
     Generated using ATOMPAW code
     Shape of augmentation charge: BESSEL
     Using radial grid of 1101 points,  8 beta functions with:
                l(1) =   0
                l(2) =   0
                l(3) =   1
                l(4) =   1
                l(5) =   2
                l(6) =   2
                l(7) =   3
                l(8) =   3
     Q(r) pseudized with 0 coefficients

     PseudoPot. # 2 for Bi read from file:
     /home/pragov/projects/rrg-bengioy-ad/pragov/crystal_structure_design/SSSP/Bi_pbe_v1.uspp.F.UPF
     MD5 check sum: cceb9f28ec65b6d7ff33140f5b0b1758
     Pseudo is Ultrasoft + core correction, Zval = 15.0
     Generated by new atomic code, or converted to UPF format
     Using radial grid of  899 points,  6 beta functions with:
                l(1) =   0
                l(2) =   0
                l(3) =   1
                l(4) =   1
                l(5) =   2
                l(6) =   2
     Q(r) pseudized with  6 coefficients,  rinner =    1.000   1.000   1.000
                                                       1.000   1.000

     PseudoPot. # 3 for Br read from file:
     /home/pragov/projects/rrg-bengioy-ad/pragov/crystal_structure_design/SSSP/br_pbe_v1.4.uspp.F.UPF
     MD5 check sum: d3ffb7b29f6225aa16fe06858fb2a80b
     Pseudo is Ultrasoft + core correction, Zval =  7.0
     Generated by new atomic code, or converted to UPF format
     Using radial grid of  879 points,  6 beta functions with:
                l(1) =   0
                l(2) =   0
                l(3) =   1
                l(4) =   1
                l(5) =   2
                l(6) =   2
     Q(r) pseudized with  8 coefficients,  rinner =    1.100   1.100   1.100
                                                       1.100   1.100

     atomic species   valence    mass     pseudopotential
        La            11.00   138.90547     La( 1.00)
        Bi            15.00   208.98040     Bi( 1.00)
        Br             7.00    79.90400     Br( 1.00)

     24 Sym. Ops., with inversion, found (12 have fractional translation)

                                    s                        frac. trans.

      isym =  1     identity

 cryst.   s( 1) = (     1          0          0      )
                  (     0          1          0      )
                  (     0          0          1      )

 cart.    s( 1) = (  1.0000000 -0.0000000  0.0000000 )
                  (  0.0000000  1.0000000  0.0000000 )
                  (  0.0000000  0.0000000  1.0000000 )

      isym =  2     180 deg rotation - cart. axis [0,0,1]

 cryst.   s( 2) = (    -1          0          0      )    f =(  0.0000000 )
                  (     0         -1          0      )       (  0.0000000 )
                  (     0          0          1      )       ( -0.5000000 )

 cart.    s( 2) = ( -1.0000000  0.0000000  0.0000000 )    f =(  0.0000000 )
                  (  0.0000000 -1.0000000  0.0000000 )       (  0.0000000 )
                  (  0.0000000  0.0000000  1.0000000 )       ( -0.3494733 )

[...]

      isym =  4     180 deg rotation - cart. axis [1,0,0]

[...]

      isym =  5      60 deg rotation - cryst. axis [0,0,1]

[...]

 cryst.   s( 6) = (     0         -1          0      )    f =( -0.0000000 )
                  (     1          1          0      )       (  0.0000000 )
                  (     0          0          1      )       ( -0.5000000 )

 cart.    s( 6) = (  0.5000000  0.8660254  0.0000000 )    f =( -0.0000000 )
                  ( -0.8660254  0.5000000  0.0000000 )       (  0.0000000 )
                  (  0.0000000  0.0000000  1.0000000 )       ( -0.3494733 )

[...]

 cryst.   s( 9) = (     0         -1          0      )
                  (    -1          0          0      )
                  (     0          0         -1      )

 cart.    s( 9) = (  0.5000000 -0.8660254  0.0000000 )
                  ( -0.8660254 -0.5000000  0.0000000 )
                  (  0.0000000  0.0000000 -1.0000000 )

[...]

 cryst.   s(10) = (     1          1          0      )
                  (     0         -1          0      )
                  (     0          0         -1      )

 cart.    s(10) = (  0.5000000  0.8660254  0.0000000 )
                  (  0.8660254 -0.5000000  0.0000000 )
                  (  0.0000000  0.0000000 -1.0000000 )

[...]

 cryst.   s(11) = (    -1         -1          0      )    f =(  0.0000000 )
                  (     0          1          0      )       ( -0.0000000 )
                  (     0          0         -1      )       ( -0.5000000 )

 cart.    s(11) = ( -0.5000000 -0.8660254  0.0000000 )    f =(  0.0000000 )
                  ( -0.8660254  0.5000000  0.0000000 )       ( -0.0000000 )
                  (  0.0000000  0.0000000 -1.0000000 )       ( -0.3494733 )

      isym = 12     180 deg rotation - cryst. axis [1,1,0]

[...]

      isym = 13     inversion

[...]

      isym = 14     inv. 180 deg rotation - cart. axis [0,0,1]

[...]

      isym = 16     inv. 180 deg rotation - cart. axis [1,0,0]

[...]

      isym = 17     inv.  60 deg rotation - cryst. axis [0,0,1]

[...]

 cryst.   s(22) = (    -1         -1          0      )
                  (     0          1          0      )
                  (     0          0          1      )

 cart.    s(22) = ( -0.5000000 -0.8660254  0.0000000 )
                  ( -0.8660254  0.5000000  0.0000000 )
                  (  0.0000000  0.0000000  1.0000000 )

[...]

      isym = 24     inv. 180 deg rotation - cryst. axis [1,1,0]

 cryst.   s(24) = (     0         -1          0      )    f =(  0.0000000 )
                  (    -1          0          0      )       (  0.0000000 )
                  (     0          0          1      )       ( -0.5000000 )

 cart.    s(24) = (  0.5000000 -0.8660254  0.0000000 )    f =(  0.0000000 )
                  ( -0.8660254 -0.5000000  0.0000000 )       (  0.0000000 )
                  (  0.0000000  0.0000000  1.0000000 )       ( -0.3494733 )

   Cartesian axes

     site n.     atom                  positions (alat units)
         1           La  tau(   1) = (   0.7276580   0.0000000   0.5242099  )
         2           La  tau(   2) = (  -0.1361710   0.2358551   0.1747366  )
         3           La  tau(   3) = (   0.3638290   0.6301703   0.1747366  )
         4           La  tau(   4) = (  -0.0000005   0.5773506   0.3494733  )
         5           La  tau(   5) = (  -0.0000005   0.5773506   0.0000000  )
         6           La  tau(   6) = (   0.5000005   0.2886748   0.3494733  )
         7           La  tau(   7) = (   0.5000005   0.2886748   0.0000000  )
         8           La  tau(   8) = (   0.2723420   0.0000000   0.1747366  )
         9           La  tau(   9) = (   0.1361710   0.2358551   0.5242099  )
        10           La  tau(  10) = (   0.6361710   0.6301703   0.5242099  )
        11           Bi  tau(  11) = (   0.3834840   0.0000000   0.5242099  )
        12           Bi  tau(  12) = (   0.6165160   0.0000000   0.1747366  )
        13           Bi  tau(  13) = (  -0.3082580   0.5339185   0.1747366  )
        14           Bi  tau(  14) = (   0.3082580   0.5339185   0.5242099  )
        15           Bi  tau(  15) = (   0.8082580   0.3321069   0.5242099  )
        16           Bi  tau(  16) = (   0.1917420   0.3321069   0.1747366  )
        17           Br  tau(  17) = (   0.0000000   0.0000000   0.3494733  )
        18           Br  tau(  18) = (   0.0000000   0.0000000   0.0000000  )

   Crystallographic axes

     site n.     atom                  positions (cryst. coord.)
         1           La  tau(   1) = (  0.7276580  0.0000000  0.7500000  )
         2           La  tau(   2) = ( -0.0000000  0.2723420  0.2500000  )
         3           La  tau(   3) = (  0.7276580  0.7276580  0.2500000  )
         4           La  tau(   4) = (  0.3333330  0.6666670  0.5000000  )
         5           La  tau(   5) = (  0.3333330  0.6666670  0.0000000  )
         6           La  tau(   6) = (  0.6666670  0.3333330  0.5000000  )
         7           La  tau(   7) = (  0.6666670  0.3333330  0.0000000  )
         8           La  tau(   8) = (  0.2723420  0.0000000  0.2500000  )
         9           La  tau(   9) = (  0.2723420  0.2723420  0.7500000  )
        10           La  tau(  10) = (  1.0000000  0.7276580  0.7500000  )
        11           Bi  tau(  11) = (  0.3834840  0.0000000  0.7500000  )
        12           Bi  tau(  12) = (  0.6165160  0.0000000  0.2500000  )
        13           Bi  tau(  13) = (  0.0000000  0.6165160  0.2500000  )
        14           Bi  tau(  14) = (  0.6165160  0.6165160  0.7500000  )
        15           Bi  tau(  15) = (  1.0000000  0.3834840  0.7500000  )
        16           Bi  tau(  16) = (  0.3834840  0.3834840  0.2500000  )
        17           Br  tau(  17) = (  0.0000000  0.0000000  0.5000000  )
        18           Br  tau(  18) = (  0.0000000  0.0000000  0.0000000  )

     number of k points=     1  Methfessel-Paxton smearing, width (Ry)=  0.0010
[...]

     negative rho (up, down):  2.636E-01 0.000E+00

     total energy              =   -5785.57817295 Ry
     estimated scf accuracy    <       5.09682249 Ry

[...]

     c_bands:  4 eigenvalues not converged
     ethr =  2.46E-06,  avg # of iterations = 20.0

[...]

     total energy              =   -5788.97485898 Ry
     estimated scf accuracy    <       0.00000114 Ry

     iteration # 32     ecut=    30.00 Ry     beta= 0.70
     Davidson diagonalization with overlap

     ethr =  5.34E-10,  avg # of iterations =  7.0

[...]

     End of self-consistent calculation

          k = 0.0000 0.0000 0.0000 (  5394 PWs)   bands (ev):

   -21.3548 -21.3404 -21.3402 -21.3297 -21.3293 -21.3280 -20.8809 -20.8786
   -20.7145 -20.7139 -10.3617 -10.3616 -10.3534 -10.3528 -10.3527 -10.3493
   -10.3415 -10.3407 -10.3406 -10.3255 -10.3254 -10.3229 -10.3228 -10.3221
   -10.3218 -10.3217 -10.3191 -10.3190 -10.2884 -10.2883 -10.2847 -10.2846
   -10.2841 -10.2827 -10.2813 -10.2812 -10.2791 -10.2779 -10.2756 -10.2754
    -6.3846  -5.8288  -5.4025  -5.3569  -5.2687  -5.2686  -5.2030  -5.2028
    -5.1497  -5.1496  -5.1269  -5.0466  -5.0466  -5.0401  -5.0399  -5.0381
    -5.0380  -4.9943  -4.9566  -4.8097  -4.5515  -4.5515  -4.5380  -4.5380
    -4.5380  -4.4014  -4.4014  -4.3972  -4.3971  -4.3903  -3.8311  -3.8277
     1.0813   1.5354   1.5355   1.6750   1.6751   1.6808   5.0604   5.8885
     5.8885   6.2809   6.2809   7.7478   8.8010   8.8324   9.2044   9.2044
     9.2877   9.2877   9.3110   9.4229   9.4229   9.4248   9.4249  10.4454
    10.4888  10.4888  10.6676  10.6677  11.0024  11.2240  11.3147  11.5085
    11.5086  11.5889  11.5889  11.5920  11.9058  12.6912  12.6913  12.7198
    12.8898  12.8944  12.8944  13.0359  13.1048  13.1049  13.1859  13.1861
    13.1910  13.1911  13.2222  13.2475  13.2493  13.2512  13.2519  13.3187

     occupation numbers
     1.0000   1.0000   1.0000   1.0000   1.0000   1.0000   1.0000   1.0000
     1.0000   1.0000   1.0000   1.0000   1.0000   1.0000   1.0000   1.0000
     1.0000   1.0000   1.0000   1.0000   1.0000   1.0000   1.0000   1.0000
     1.0000   1.0000   1.0000   1.0000   1.0000   1.0000   1.0000   1.0000
     1.0000   1.0000   1.0000   1.0000   1.0000   1.0000   1.0000   1.0000
     1.0000   1.0000   1.0000   1.0000   1.0000   1.0000   1.0000   1.0000
     1.0000   1.0000   1.0000   1.0000   1.0000   1.0000   1.0000   1.0000
     1.0000   1.0000   1.0000   1.0000   1.0000   1.0000   1.0000   1.0000
     1.0000   1.0000   1.0000   1.0000   1.0000   1.0000   1.0000   1.0000
     1.0000   1.0000   1.0000   1.0000   1.0000   1.0000   1.0000   1.0000
     1.0000   1.0000   1.0000   1.0000   1.0000   1.0000   1.0000   1.0000
     1.0000   1.0000   1.0000   1.0000   1.0000   1.0000   1.0000   1.0000
     1.0000   1.0000   1.0000   1.0000   1.0000   1.0000   1.0000   1.0000
     1.0000   0.7289   0.7267   0.5445  -0.0000  -0.0000  -0.0000  -0.0000
    -0.0000  -0.0000  -0.0000  -0.0000  -0.0000  -0.0000  -0.0000  -0.0000
    -0.0000  -0.0000  -0.0000  -0.0000  -0.0000  -0.0000  -0.0000  -0.0000

     the Fermi energy is    11.5927 ev

!    total energy              =   -5788.97485872 Ry
     estimated scf accuracy    <       0.00000058 Ry
     smearing contrib. (-TS)   =      -0.00071872 Ry
     internal energy E=F+TS    =   -5788.97414000 Ry

     The total energy is F=E-TS. E is the sum of the following terms:
     one-electron contribution =    -324.16463174 Ry
     hartree contribution      =     293.33222952 Ry
     xc contribution           =    -528.15225338 Ry
     ewald contribution        =   -1249.37007783 Ry
     one-center paw contrib.   =   -3980.61940657 Ry
      -> PAW hartree energy AE =     350.95424964 Ry
      -> PAW hartree energy PS =    -351.29926507 Ry
      -> PAW xc energy AE      =   -4053.48603478 Ry
      -> PAW xc energy PS      =      73.21164364 Ry
      -> total E_H with PAW    =     292.98721409 Ry
      -> total E_XC with PAW   =   -4508.42664452 Ry

     convergence has been achieved in  32 iterations

     negative rho (up, down):  2.766E-01 0.000E+00

     Forces acting on atoms (cartesian axes, Ry/au):

     atom    1 type  1   force =     0.03792143   -0.00000000   -0.00000000
     atom    2 type  1   force =     0.01896072   -0.03284092   -0.00000000
     atom    3 type  1   force =     0.01896072    0.03284092    0.00000000
     atom    4 type  1   force =     0.00000000    0.00000000    0.00000000
     atom    5 type  1   force =     0.00000000   -0.00000000    0.00000000
     atom    6 type  1   force =    -0.00000000   -0.00000000    0.00000000
     atom    7 type  1   force =     0.00000000   -0.00000000    0.00000000
     atom    8 type  1   force =    -0.03792143    0.00000000    0.00000000
     atom    9 type  1   force =    -0.01896072   -0.03284092    0.00000000
     atom   10 type  1   force =    -0.01896072    0.03284092   -0.00000000
     atom   11 type  2   force =     0.02361063   -0.00000000    0.00000000
     atom   12 type  2   force =    -0.02361063    0.00000000   -0.00000000
     atom   13 type  2   force =     0.01180531   -0.02044740    0.00000000
     atom   14 type  2   force =    -0.01180531   -0.02044740   -0.00000000
     atom   15 type  2   force =    -0.01180531    0.02044740   -0.00000000
     atom   16 type  2   force =     0.01180531    0.02044740    0.00000000
     atom   17 type  3   force =     0.00000000   -0.00000000    0.00000000
     atom   18 type  3   force =     0.00000000   -0.00000000    0.00000000
     The non-local contrib.  to forces
     atom    1 type  1   force =    -0.10945187    0.00000000    0.00000000
     atom    2 type  1   force =    -0.05472593    0.09478810   -0.00000000
     atom    3 type  1   force =    -0.05472593   -0.09478810    0.00000000
     atom    4 type  1   force =     0.00000000    0.00000000   -0.00000000
     atom    5 type  1   force =    -0.00000000    0.00000000   -0.00000000
     atom    6 type  1   force =     0.00000000    0.00000000    0.00000000
     atom    7 type  1   force =     0.00000000    0.00000000    0.00000000
     atom    8 type  1   force =     0.10945187   -0.00000000   -0.00000000
     atom    9 type  1   force =     0.05472593    0.09478810    0.00000000
     atom   10 type  1   force =     0.05472593   -0.09478810    0.00000000
     atom   11 type  2   force =    -0.09059660    0.00000000   -0.00000000
     atom   12 type  2   force =     0.09059660   -0.00000000    0.00000000
     atom   13 type  2   force =    -0.04529830    0.07845896    0.00000000
     atom   14 type  2   force =     0.04529830    0.07845896   -0.00000000
     atom   15 type  2   force =     0.04529830   -0.07845896   -0.00000000
     atom   16 type  2   force =    -0.04529830   -0.07845896    0.00000000
     atom   17 type  3   force =     0.00000000    0.00000000    0.00000000
     atom   18 type  3   force =     0.00000000   -0.00000000    0.00000000
     The ionic contribution  to forces
     atom    1 type  1   force =     2.27617851   -0.00002873    0.00000000
     atom    2 type  1   force =     1.13811413   -1.97121406   -0.00000000
     atom    3 type  1   force =     1.13806434    1.97118524   -0.00000000
     atom    4 type  1   force =     0.00006450   -0.00003724   -0.00000000
     atom    5 type  1   force =     0.00006450   -0.00003724    0.00000000
     atom    6 type  1   force =    -0.00006450    0.00003724    0.00000000
     atom    7 type  1   force =    -0.00006450    0.00003724   -0.00000000
     atom    8 type  1   force =    -2.27617851    0.00002874   -0.00000000
     atom    9 type  1   force =    -1.13806434   -1.97118524    0.00000000
     atom   10 type  1   force =    -1.13811413    1.97121406   -0.00000000
     atom   11 type  2   force =    -2.13552814    0.00003744   -0.00000000
     atom   12 type  2   force =     2.13552814   -0.00003744   -0.00000000
     atom   13 type  2   force =    -1.06779648    1.84940290   -0.00000000
     atom   14 type  2   force =     1.06773164    1.84936544    0.00000000
     atom   15 type  2   force =     1.06779648   -1.84940290    0.00000000
     atom   16 type  2   force =    -1.06773164   -1.84936544   -0.00000000
     atom   17 type  3   force =    -0.00000000   -0.00000000   -0.00000000
     atom   18 type  3   force =    -0.00000000   -0.00000000    0.00000000
     The local contribution  to forces
     atom    1 type  1   force =    -2.12924691   -0.00005195   -0.00003045
     atom    2 type  1   force =    -1.06486579    1.84385434   -0.00000158
     atom    3 type  1   force =    -1.06446375   -1.84429341    0.00001458
     atom    4 type  1   force =     0.00002548    0.00011046   -0.00025332
     atom    5 type  1   force =     0.00000761    0.00013518    0.00025839
     atom    6 type  1   force =    -0.00051932    0.00006678   -0.00022921
     atom    7 type  1   force =    -0.00052308    0.00007602    0.00024107
     atom    8 type  1   force =     2.12909064    0.00041663    0.00002986
     atom    9 type  1   force =     1.06532076    1.84351496   -0.00002672
     atom   10 type  1   force =     1.06435182   -1.84396995   -0.00001479
     atom   11 type  2   force =     2.24380592    0.00100186   -0.00002162
     atom   12 type  2   force =    -2.24492658    0.00022699    0.00003946
     atom   13 type  2   force =     1.12161227   -1.94357143    0.00002919
     atom   14 type  2   force =    -1.12174477   -1.94438288   -0.00004236
     atom   15 type  2   force =    -1.12267836    1.94380702   -0.00002635
     atom   16 type  2   force =     1.12351387    1.94314515    0.00005133
     atom   17 type  3   force =     0.00035653   -0.00006012   -0.00003697
     atom   18 type  3   force =     0.00035494   -0.00006424    0.00004251
     The core correction contribution to forces
     atom    1 type  1   force =     0.00022366    0.00000000   -0.00000001
     atom    2 type  1   force =     0.00011169   -0.00019369   -0.00000000
     atom    3 type  1   force =     0.00011182    0.00019366    0.00000000
     atom    4 type  1   force =    -0.00000001   -0.00000004   -0.00000005
     atom    5 type  1   force =    -0.00000002   -0.00000002    0.00000006
     atom    6 type  1   force =     0.00000002    0.00000006   -0.00000005
     atom    7 type  1   force =     0.00000002    0.00000006    0.00000006
     atom    8 type  1   force =    -0.00022374   -0.00000005    0.00000001
     atom    9 type  1   force =    -0.00011184   -0.00019375   -0.00000001
     atom   10 type  1   force =    -0.00011188    0.00019364   -0.00000000
     atom   11 type  2   force =     0.00551181   -0.00000068    0.00000042
     atom   12 type  2   force =    -0.00551304    0.00000125    0.00000039
     atom   13 type  2   force =     0.00275694   -0.00477331    0.00000021
     atom   14 type  2   force =    -0.00275627   -0.00477749   -0.00000102
     atom   15 type  2   force =    -0.00275567    0.00477552   -0.00000008
     atom   16 type  2   force =     0.00275884    0.00477561    0.00000026
     atom   17 type  3   force =    -0.00000085   -0.00000205   -0.00000042
     atom   18 type  3   force =    -0.00000100   -0.00000070    0.00000032
     The Hubbard contrib.    to forces
     atom    1 type  1   force =     0.00000000    0.00000000    0.00000000
     atom    2 type  1   force =     0.00000000    0.00000000    0.00000000
     atom    3 type  1   force =     0.00000000    0.00000000    0.00000000
     atom    4 type  1   force =     0.00000000    0.00000000    0.00000000
     atom    5 type  1   force =     0.00000000    0.00000000    0.00000000
     atom    6 type  1   force =     0.00000000    0.00000000    0.00000000
     atom    7 type  1   force =     0.00000000    0.00000000    0.00000000
     atom    8 type  1   force =     0.00000000    0.00000000    0.00000000
     atom    9 type  1   force =     0.00000000    0.00000000    0.00000000
     atom   10 type  1   force =     0.00000000    0.00000000    0.00000000
     atom   11 type  2   force =     0.00000000    0.00000000    0.00000000
     atom   12 type  2   force =     0.00000000    0.00000000    0.00000000
     atom   13 type  2   force =     0.00000000    0.00000000    0.00000000
     atom   14 type  2   force =     0.00000000    0.00000000    0.00000000
     atom   15 type  2   force =     0.00000000    0.00000000    0.00000000
     atom   16 type  2   force =     0.00000000    0.00000000    0.00000000
     atom   17 type  3   force =     0.00000000    0.00000000    0.00000000
     atom   18 type  3   force =     0.00000000    0.00000000    0.00000000
     The SCF correction term to forces
     atom    1 type  1   force =     0.00023775    0.00007462    0.00001510
     atom    2 type  1   force =     0.00019738   -0.00008517   -0.00000044
     atom    3 type  1   force =    -0.00000774    0.00058210   -0.00000443
     atom    4 type  1   force =    -0.00009049   -0.00010587    0.00023973
     atom    5 type  1   force =    -0.00007871   -0.00011621   -0.00023884
     atom    6 type  1   force =     0.00058686   -0.00006149    0.00020485
     atom    7 type  1   force =     0.00059728   -0.00008780   -0.00021472
     atom    8 type  1   force =    -0.00008728   -0.00047429   -0.00001574
     atom    9 type  1   force =    -0.00083902    0.00023062    0.00001072
     atom   10 type  1   force =     0.00010667    0.00009945    0.00001067
     atom   11 type  2   force =     0.00044354   -0.00099309    0.00003697
     atom   12 type  2   force =     0.00065787   -0.00018975   -0.00005678
     atom   13 type  2   force =     0.00054184    0.00006298   -0.00004456
     atom   14 type  2   force =    -0.00031900    0.00088492    0.00003287
     atom   15 type  2   force =     0.00058998   -0.00026275    0.00003596
     atom   16 type  2   force =    -0.00139837    0.00029313   -0.00004321
     atom   17 type  3   force =    -0.00040409    0.00006347    0.00004090
     atom   18 type  3   force =    -0.00039451    0.00006065   -0.00003767

     Total force =     0.109421     Total SCF correction =     0.002837

     Computing stress (Cartesian axis) and pressure

     negative rho (up, down):  2.766E-01 0.000E+00
          total   stress  (Ry/bohr**3)                   (kbar)     P=        4.50
   0.00001848  -0.00000000   0.00000000            2.72       -0.00        0.00
  -0.00000000   0.00001848   0.00000000           -0.00        2.72        0.00
   0.00000000   0.00000000   0.00005472            0.00        0.00        8.05

     kinetic stress (kbar)   7190.64     -0.00      0.00
                               -0.00   7190.64      0.00
                                0.00      0.00   7184.02

     local   stress (kbar)  -1868.05      0.12      0.00
                                0.12  -1868.19      0.00
                                0.00      0.00   -699.43

     nonloc. stress (kbar)   9831.28     -0.00      0.00
                               -0.00   9831.28      0.00
                                0.00      0.00   9825.37

     hartree stress (kbar)   3816.63     -0.07     -0.00
                               -0.07   3816.69     -0.00
                               -0.00     -0.00   3482.73

     exc-cor stress (kbar)   8986.66     -0.00     -0.00
                               -0.00   8986.66      0.00
                               -0.00      0.00   8984.56

     corecor stress (kbar) -12443.97      0.00     -0.00
                                0.00 -12443.97     -0.00
                               -0.00     -0.00 -12444.24

     ewald   stress (kbar) -15510.43      0.01     -0.00
                                0.01 -15510.42     -0.00
                               -0.00     -0.00 -16324.96

     hubbard stress (kbar)      0.00      0.00      0.00
                                0.00      0.00      0.00
                                0.00      0.00      0.00

     DFT-D   stress (kbar)      0.00      0.00      0.00
                                0.00      0.00      0.00
                                0.00      0.00      0.00

     XDM     stress (kbar)      0.00      0.00      0.00
                                0.00      0.00      0.00
                                0.00      0.00      0.00

     dft-nl  stress (kbar)      0.00      0.00      0.00
                                0.00      0.00      0.00
                                0.00      0.00      0.00

     TS-vdW  stress (kbar)      0.00      0.00      0.00
                                0.00      0.00      0.00
                                0.00      0.00      0.00

[...]

                                0.00      0.00      0.00

     Writing all to output data dir new_calculations/myprefix.save/

     General routines

     Parallel routines

     PAW routines

   This run was terminated on:  14: 4:27  20May2023

   JOB DONE.