     Program PWSCF v.7.0 starts on 21May2023 at 12:36:33

     Reading input from espresso_21909.pwi
Warning: card &CELL ignored
Warning: card / ignored

     Current dimensions of program PWSCF are:
     Max number of different atomic species (ntypx) = 10
     Max number of k-points (npk) =  40000
     Max angular momentum in pseudopotentials (lmaxx) =  4

     gamma-point specific algorithms are used
     Message from routine setup:
     using ibrav=0 with symmetry is DISCOURAGED, use correct ibrav instead

     Subspace diagonalization in iterative solution of the eigenvalue problem:
     a serial algorithm will be used

     Using Slab Decomposition

     bravais-lattice index     =            0
     lattice parameter (alat)  =      14.7250  a.u.
     unit-cell volume          =    2257.6276 (a.u.)^3
     number of atoms/cell      =           10
     number of atomic types    =            4
     number of electrons       =        85.00
     number of Kohn-Sham states=           52
     kinetic-energy cutoff     =      30.0000  Ry
     charge density cutoff     =     240.0000  Ry
     scf convergence threshold =      1.0E-06
     mixing beta               =       0.7000
     number of iterations used =            8  plain     mixing
     Exchange-correlation=  SLA  PW   PBX  PBC
                           (   1   4   3   4   0   0   0)

     celldm(1)=  14.725016  celldm(2)=   0.000000  celldm(3)=   0.000000
     celldm(4)=   0.000000  celldm(5)=   0.000000  celldm(6)=   0.000000

     crystal axes: (cart. coord. in units of alat)
               a(1) = (   1.000000   0.000000   0.000000 )
               a(2) = (   0.500000   0.866025   0.000000 )
               a(3) = (   0.500000   0.288675   0.816497 )

     reciprocal axes: (cart. coord. in units 2 pi/alat)
               b(1) = (  1.000000 -0.577350 -0.408248 )
               b(2) = (  0.000000  1.154701 -0.408248 )
               b(3) = (  0.000000  0.000000  1.224745 )

     PseudoPot. # 1 for Cs read from file:
     /home/pragov/projects/rrg-bengioy-ad/pragov/crystal_structure_design/SSSP/Cs_pbe_v1.uspp.F.UPF
     MD5 check sum: 3476d69cb178dfad3ffaa59df4e07ca4
     Pseudo is Ultrasoft + core correction, Zval =  9.0
     Generated by new atomic code, or converted to UPF format
     Using radial grid of  905 points,  6 beta functions with:
                l(1) =   0
                l(2) =   0
                l(3) =   1
                l(4) =   1
                l(5) =   2
                l(6) =   2
     Q(r) pseudized with  6 coefficients,  rinner =    1.500   1.500   1.500
                                                       1.500   1.500

     PseudoPot. # 2 for Na read from file:
     /home/pragov/projects/rrg-bengioy-ad/pragov/crystal_structure_design/SSSP/na_pbe_v1.5.uspp.F.UPF
     MD5 check sum: 44600605ef58000f06b90626533354dc
     Pseudo is Ultrasoft, Zval =  9.0
     Generated by new atomic code, or converted to UPF format
     Using radial grid of  819 points,  5 beta functions with:
                l(1) =   0
                l(2) =   0
                l(3) =   1
                l(4) =   1
                l(5) =   2
     Q(r) pseudized with  8 coefficients,  rinner =    1.250   1.250   1.250
                                                       1.250   1.250

     PseudoPot. # 3 for Sm read from file:
     /home/pragov/projects/rrg-bengioy-ad/pragov/crystal_structure_design/SSSP/Sm.GGA-PBE-paw-v1.0.UPF
     MD5 check sum: 886f70968969f895acf876f5617e0641
     Pseudo is Projector augmented-wave + core cor, Zval = 16.0
     Generated using ATOMPAW code
     Shape of augmentation charge: BESSEL
     Using radial grid of 1107 points,  8 beta functions with:
                l(1) =   0
                l(2) =   0
                l(3) =   1
                l(4) =   1
                l(5) =   2
                l(6) =   2
                l(7) =   3
                l(8) =   3
     Q(r) pseudized with 0 coefficients

     PseudoPot. # 4 for Cl read from file:
     /home/pragov/projects/rrg-bengioy-ad/pragov/crystal_structure_design/SSSP/cl_pbe_v1.4.uspp.F.UPF
     MD5 check sum: fc6f6913ecf08c9257cb748ef0700058
     Pseudo is Ultrasoft + core correction, Zval =  7.0
     Generated by new atomic code, or converted to UPF format
     Using radial grid of  909 points,  6 beta functions with:
                l(1) =   0
                l(2) =   0
                l(3) =   1
                l(4) =   1
                l(5) =   2
                l(6) =   2
     Q(r) pseudized with  8 coefficients,  rinner =    1.300   1.300   1.300
                                                       1.300   1.300

     atomic species   valence    mass     pseudopotential
        Cs             9.00   132.90545     Cs( 1.00)
        Na             9.00    22.98977     Na( 1.00)
        Sm            16.00   150.36000     Sm( 1.00)
        Cl             7.00    35.45000     Cl( 1.00)

     12 Sym. Ops., with inversion, found

                                    s                        frac. trans.

      isym =  1     identity

 cryst.   s( 1) = (     1          0          0      )
                  (     0          1          0      )
                  (     0          0          1      )

 cart.    s( 1) = (  1.0000000  0.0000000  0.0000000 )
                  (  0.0000000  1.0000000  0.0000000 )
                  (  0.0000000  0.0000000  1.0000000 )

      isym =  2     180 deg rotation - cart. axis [1,0,0]

[...]

      isym =  3     120 deg rotation - cryst. axis [0,0,1]

[...]

      isym =  6     180 deg rotation - cryst. axis [1,1,0]

[...]

      isym =  7     inversion

[...]

      isym =  8     inv. 180 deg rotation - cart. axis [1,0,0]

[...]

      isym =  9     inv. 120 deg rotation - cryst. axis [0,0,1]

 cryst.   s( 9) = (     1         -1          0      )
                  (     1          0          0      )
                  (     1          0         -1      )

 cart.    s( 9) = (  0.5000000  0.8660254 -0.0000000 )
                  ( -0.8660254  0.5000000 -0.0000000 )
                  (  0.0000000  0.0000000 -1.0000000 )

[...]

 cryst.   s(10) = (     0          1          0      )
                  (    -1          1          0      )
                  (     0          1         -1      )

 cart.    s(10) = (  0.5000000 -0.8660254  0.0000000 )
                  (  0.8660254  0.5000000 -0.0000000 )
                  (  0.0000000  0.0000000 -1.0000000 )

[...]

      isym = 12     inv. 180 deg rotation - cryst. axis [1,1,0]

 cryst.   s(12) = (     1         -1          0      )
                  (     0         -1          0      )
                  (     0         -1          1      )

 cart.    s(12) = (  0.5000000 -0.8660254  0.0000000 )
                  ( -0.8660254 -0.5000000  0.0000000 )
                  (  0.0000000  0.0000000  1.0000000 )

   Cartesian axes

     site n.     atom                  positions (alat units)
         1           Cs  tau(   1) = (   1.5000000   0.8660254   0.6123724  )
         2           Cs  tau(   2) = (   0.5000000   0.2886751   0.2041241  )
         3           Na  tau(   3) = (   1.0000000   0.5773503   0.4082483  )
         4           Sm  tau(   4) = (   0.0000000   0.0000000   0.0000000  )
         5           Cl  tau(   5) = (   1.0000000   0.2832007   0.2002531  )
         6           Cl  tau(   6) = (   0.7452590   0.4302755   0.6162434  )
         7           Cl  tau(   7) = (   1.0000000   0.8714998   0.6162434  )
         8           Cl  tau(   8) = (   0.7452590   0.7244251   0.2002531  )
         9           Cl  tau(   9) = (   1.2547410   0.4302755   0.6162434  )
        10           Cl  tau(  10) = (   1.2547410   0.7244251   0.2002531  )

   Crystallographic axes

     site n.     atom                  positions (cryst. coord.)
         1           Cs  tau(   1) = (  0.7500000  0.7500000  0.7500000  )
         2           Cs  tau(   2) = (  0.2500000  0.2500000  0.2500000  )
         3           Na  tau(   3) = (  0.5000000  0.5000000  0.5000000  )
         4           Sm  tau(   4) = (  0.0000000  0.0000000  0.0000000  )
         5           Cl  tau(   5) = (  0.7547410  0.2452590  0.2452590  )
         6           Cl  tau(   6) = (  0.2452590  0.2452590  0.7547410  )
         7           Cl  tau(   7) = (  0.2452590  0.7547410  0.7547410  )
         8           Cl  tau(   8) = (  0.2452590  0.7547410  0.2452590  )
         9           Cl  tau(   9) = (  0.7547410  0.2452590  0.7547410  )
        10           Cl  tau(  10) = (  0.7547410  0.7547410  0.2452590  )

     number of k points=     1  Methfessel-Paxton smearing, width (Ry)=  0.0010
                       cart. coord. in units 2pi/alat
        k(    1) = (   0.0000000   0.0000000   0.0000000), wk =   2.0000000

                       cryst. coord.
        k(    1) = (   0.0000000   0.0000000   0.0000000), wk =   2.0000000

     Initial potential from superposition of free atoms

     starting charge      84.9093, renormalised to      85.0000

     negative rho (up, down):  9.236E-02 0.000E+00
     Starting wfcs are   87 randomized atomic wfcs
     Checking if some PAW data can be deallocated...

     Self-consistent Calculation

     iteration #  1     ecut=    30.00 Ry     beta= 0.70
     Davidson diagonalization with overlap

     ethr =  1.00E-02,  avg # of iterations =  3.0

     Threshold (ethr) on eigenvalues was too large:
     Diagonalizing with lowered threshold

     Davidson diagonalization with overlap

[...]

     negative rho (up, down):  9.556E-02 0.000E+00

     total energy              =   -1026.31115163 Ry
     estimated scf accuracy    <       0.39516561 Ry

[...]

     ethr =  2.06E-04,  avg # of iterations =  1.0
     Minimization algorithm failed to find Fermi energy: reverting to bisection
     Possible cause: smearing is larger than the electronic band-gap.

[...]

     ethr =  2.65E-07,  avg # of iterations =  1.0

[...]

     total energy              =   -1026.55810643 Ry
     estimated scf accuracy    <       0.00005346 Ry

     iteration # 42     ecut=    30.00 Ry     beta= 0.70
     Davidson diagonalization with overlap

     ethr =  3.21E-09,  avg # of iterations =  1.0
     Minimization algorithm failed to find Fermi energy: reverting to bisection
     Possible cause: smearing is larger than the electronic band-gap.

[...]

     End of self-consistent calculation

          k = 0.0000 0.0000 0.0000 (  3116 PWs)   bands (ev):

   -47.4770 -35.5502 -19.3859 -19.3859 -19.3859 -17.4309 -17.4236 -15.3540
   -15.3539 -15.3538 -10.7944 -10.5316 -10.5316 -10.3441 -10.3441 -10.3441
    -4.3236  -4.3236  -4.3236  -4.2488  -4.2488  -4.2488  -0.4445   0.5499
     0.5499   0.5949   0.5949   0.5949   0.6552   0.6552   0.6553   1.3715
     1.3715   1.3715   1.5901   1.5901   1.5902   1.8813   1.8813   1.8813
     3.8815   3.8815   3.8815   4.1242   4.1242   4.1266   4.3795   7.0872
     7.4270   7.4270   7.4272   8.1922

     occupation numbers
     1.0000   1.0000   1.0000   1.0000   1.0000   1.0000   1.0000   1.0000
     1.0000   1.0000   1.0000   1.0000   1.0000   1.0000   1.0000   1.0000
     1.0000   1.0000   1.0000   1.0000   1.0000   1.0000   1.0000   1.0000
     1.0000   1.0000   1.0000   1.0000   1.0000   1.0000   1.0000   1.0000
     1.0000   1.0000   1.0000   1.0000   1.0000   1.0000   1.0000   1.0000
     0.8341   0.8337   0.8322  -0.0000  -0.0000  -0.0000  -0.0000  -0.0000
    -0.0000  -0.0000  -0.0000  -0.0000

     the Fermi energy is     3.8874 ev

!    total energy              =   -1026.55810662 Ry
     estimated scf accuracy    <       0.00000042 Ry
     smearing contrib. (-TS)   =      -0.00043272 Ry
     internal energy E=F+TS    =   -1026.55767390 Ry

     The total energy is F=E-TS. E is the sum of the following terms:
     one-electron contribution =    -263.14813900 Ry
     hartree contribution      =     167.43957801 Ry
     xc contribution           =    -150.02530767 Ry
     ewald contribution        =    -331.12300892 Ry
     one-center paw contrib.   =    -449.70079632 Ry
      -> PAW hartree energy AE =     127.58938996 Ry
      -> PAW hartree energy PS =    -124.61561434 Ry
      -> PAW xc energy AE      =    -469.53541214 Ry
      -> PAW xc energy PS      =      16.86084020 Ry
      -> total E_H with PAW    =     170.41335363 Ry
      -> total E_XC with PAW   =    -602.69987961 Ry

     convergence has been achieved in  42 iterations

     negative rho (up, down):  9.170E-02 0.000E+00

     Forces acting on atoms (cartesian axes, Ry/au):

     atom    1 type  1   force =     0.00000000    0.00000000   -0.00000531
     atom    2 type  1   force =     0.00000000    0.00000000    0.00000531
     atom    3 type  2   force =    -0.00000000   -0.00000000    0.00000000
     atom    4 type  3   force =    -0.00000000    0.00000000    0.00000000
     atom    5 type  4   force =     0.00000000   -0.00716203   -0.00506417
     atom    6 type  4   force =    -0.00620250   -0.00358102    0.00506417
     atom    7 type  4   force =     0.00000000    0.00716203    0.00506417
     atom    8 type  4   force =    -0.00620250    0.00358102   -0.00506417
     atom    9 type  4   force =     0.00620250   -0.00358102    0.00506417
     atom   10 type  4   force =     0.00620250    0.00358102   -0.00506417
     The non-local contrib.  to forces
     atom    1 type  1   force =     0.00000000    0.00000000   -0.00000427
     atom    2 type  1   force =     0.00000000    0.00000000    0.00000427
     atom    3 type  2   force =    -0.00000000   -0.00000000    0.00000000
     atom    4 type  3   force =     0.00000000   -0.00000000   -0.00000000
     atom    5 type  4   force =     0.00000000   -0.01919241   -0.01356942
     atom    6 type  4   force =    -0.01662112   -0.00959621    0.01356942
     atom    7 type  4   force =     0.00000000    0.01919241    0.01356942
     atom    8 type  4   force =    -0.01662112    0.00959621   -0.01356942
     atom    9 type  4   force =     0.01662112   -0.00959621    0.01356942
     atom   10 type  4   force =     0.01662112    0.00959621   -0.01356942
     The ionic contribution  to forces
     atom    1 type  1   force =     0.00000000   -0.00000000   -0.00000000
     atom    2 type  1   force =     0.00000000    0.00000000    0.00000000
     atom    3 type  2   force =     0.00000000   -0.00000000   -0.00000000
     atom    4 type  3   force =    -0.00000000    0.00000000    0.00000000
     atom    5 type  4   force =    -0.00000000    3.03065959    2.14299995
     atom    6 type  4   force =     2.62462820    1.51532980   -2.14299995
     atom    7 type  4   force =    -0.00000000   -3.03065959   -2.14299995
     atom    8 type  4   force =     2.62462820   -1.51532980    2.14299995
     atom    9 type  4   force =    -2.62462820    1.51532980   -2.14299995
     atom   10 type  4   force =    -2.62462820   -1.51532980    2.14299995
     The local contribution  to forces
     atom    1 type  1   force =    -0.00000040   -0.00000480   -0.00002917
     atom    2 type  1   force =    -0.00000075    0.00000703    0.00003046
     atom    3 type  2   force =    -0.00000036    0.00000020    0.00000019
     atom    4 type  3   force =     0.00000082   -0.00000021   -0.00000237
     atom    5 type  4   force =     0.00000107   -3.01832282   -2.13422120
     atom    6 type  4   force =    -2.61394026   -1.50914608    2.13419980
     atom    7 type  4   force =    -0.00000132    3.01832337    2.13422220
     atom    8 type  4   force =    -2.61394705    1.50914962   -2.13420335
     atom    9 type  4   force =     2.61394639   -1.50914880    2.13420351
     atom   10 type  4   force =     2.61394012    1.50914537   -2.13420015
     The core correction contribution to forces
     atom    1 type  1   force =    -0.00000020    0.00000057    0.00000033
     atom    2 type  1   force =    -0.00000013    0.00000009    0.00000006
     atom    3 type  2   force =     0.00000000    0.00000000    0.00000000
     atom    4 type  3   force =     0.00000000   -0.00000000   -0.00000000
     atom    5 type  4   force =    -0.00000001   -0.00032330   -0.00022858
     atom    6 type  4   force =    -0.00027999   -0.00016166    0.00022860
     atom    7 type  4   force =    -0.00000002    0.00032331    0.00022860
     atom    8 type  4   force =    -0.00028006    0.00016169   -0.00022860
     atom    9 type  4   force =     0.00028001   -0.00016163    0.00022857
     atom   10 type  4   force =     0.00027996    0.00016165   -0.00022859
     The Hubbard contrib.    to forces
     atom    1 type  1   force =     0.00000000    0.00000000    0.00000000
     atom    2 type  1   force =     0.00000000    0.00000000    0.00000000
     atom    3 type  2   force =     0.00000000    0.00000000    0.00000000
     atom    4 type  3   force =     0.00000000    0.00000000    0.00000000
     atom    5 type  4   force =     0.00000000    0.00000000    0.00000000
     atom    6 type  4   force =     0.00000000    0.00000000    0.00000000
     atom    7 type  4   force =     0.00000000    0.00000000    0.00000000
     atom    8 type  4   force =     0.00000000    0.00000000    0.00000000
     atom    9 type  4   force =     0.00000000    0.00000000    0.00000000
     atom   10 type  4   force =     0.00000000    0.00000000    0.00000000
     The SCF correction term to forces
     atom    1 type  1   force =    -0.00000037    0.00000606    0.00002870
     atom    2 type  1   force =     0.00000038   -0.00000591   -0.00002858
     atom    3 type  2   force =    -0.00000016    0.00000023    0.00000008
     atom    4 type  3   force =    -0.00000078    0.00000080    0.00000152
     atom    5 type  4   force =    -0.00000109    0.00001753   -0.00004446
     atom    6 type  4   force =     0.00001106   -0.00000697    0.00006587
     atom    7 type  4   force =     0.00000099   -0.00001775    0.00004438
     atom    8 type  4   force =     0.00001625    0.00000354   -0.00006299
     atom    9 type  4   force =    -0.00001615   -0.00000362    0.00006294
     atom   10 type  4   force =    -0.00001077    0.00000735   -0.00006578

     Total force =     0.021486     Total SCF correction =     0.000154

     Computing stress (Cartesian axis) and pressure

     negative rho (up, down):  9.170E-02 0.000E+00
          total   stress  (Ry/bohr**3)                   (kbar)     P=       15.20
   0.00010293  -0.00000000  -0.00000000           15.14       -0.00       -0.00
  -0.00000000   0.00010293   0.00000000           -0.00       15.14        0.00
   0.00000000   0.00000000   0.00010423            0.00        0.00       15.33

     kinetic stress (kbar)   5555.72     -0.00      0.00
                               -0.00   5555.72     -0.00
                                0.00     -0.00   5555.84

     local   stress (kbar)  -2865.33      0.00     -0.02
                                0.00  -2865.54      0.01
                               -0.02      0.01  -2866.35

     nonloc. stress (kbar)   2911.78     -0.00     -0.00
                                0.00   2911.78      0.00
                               -0.00     -0.00   2912.51

     hartree stress (kbar)   3636.62     -0.00      0.01
                               -0.00   3636.69      0.00
                                0.01      0.00   3636.91

     exc-cor stress (kbar)   2560.35     -0.00      0.00
                               -0.00   2560.35      0.00
                                0.00      0.00   2560.35

     corecor stress (kbar)  -4592.03      0.00     -0.00
                                0.00  -4592.03      0.00
                               -0.00      0.00  -4592.03

     ewald   stress (kbar)  -7191.90     -0.00     -0.00
                               -0.00  -7191.90      0.00
                               -0.00      0.00  -7191.90

     hubbard stress (kbar)      0.00      0.00      0.00
                                0.00      0.00      0.00
                                0.00      0.00      0.00

     DFT-D   stress (kbar)      0.00      0.00      0.00
                                0.00      0.00      0.00
                                0.00      0.00      0.00

     XDM     stress (kbar)      0.00      0.00      0.00
                                0.00      0.00      0.00
                                0.00      0.00      0.00

     dft-nl  stress (kbar)      0.00      0.00      0.00
                                0.00      0.00      0.00
                                0.00      0.00      0.00

     TS-vdW  stress (kbar)      0.00      0.00      0.00
                                0.00      0.00      0.00
                                0.00      0.00      0.00

[...]

                                0.00      0.00      0.00

     Writing all to output data dir new_calculations/myprefix.save/

     General routines

     Parallel routines

     PAW routines

   This run was terminated on:  12:37:59  21May2023

   JOB DONE.