     Program PWSCF v.7.0 starts on 20May2023 at 19:43: 5

     Reading input from espresso_22179.pwi
Warning: card &CELL ignored
Warning: card / ignored

     Current dimensions of program PWSCF are:
     Max number of different atomic species (ntypx) = 10
     Max number of k-points (npk) =  40000
     Max angular momentum in pseudopotentials (lmaxx) =  4

     gamma-point specific algorithms are used
     Message from routine setup:
     using ibrav=0 with symmetry is DISCOURAGED, use correct ibrav instead

     Subspace diagonalization in iterative solution of the eigenvalue problem:
     a serial algorithm will be used

     Using Slab Decomposition

     bravais-lattice index     =            0
     lattice parameter (alat)  =      13.9351  a.u.
     unit-cell volume          =    3001.5598 (a.u.)^3
     number of atoms/cell      =           20
     number of atomic types    =            3
     number of electrons       =       268.00
     number of Kohn-Sham states=          161
     kinetic-energy cutoff     =      30.0000  Ry
     charge density cutoff     =     240.0000  Ry
     scf convergence threshold =      1.0E-06
     mixing beta               =       0.7000
     number of iterations used =            8  plain     mixing
     Exchange-correlation=  SLA  PW   PBX  PBC
                           (   1   4   3   4   0   0   0)

     celldm(1)=  13.935074  celldm(2)=   0.000000  celldm(3)=   0.000000
     celldm(4)=   0.000000  celldm(5)=   0.000000  celldm(6)=   0.000000

     crystal axes: (cart. coord. in units of alat)
               a(1) = (   1.000000   0.000000   0.000000 )
               a(2) = (  -0.442687   0.896676   0.000000 )
               a(3) = (   0.000000   0.000000   1.237039 )

     reciprocal axes: (cart. coord. in units 2 pi/alat)
               b(1) = (  1.000000  0.493697  0.000000 )
               b(2) = (  0.000000  1.115230  0.000000 )
               b(3) = (  0.000000  0.000000  0.808382 )

     PseudoPot. # 1 for Ag read from file:
     /home/pragov/projects/rrg-bengioy-ad/pragov/crystal_structure_design/SSSP/Ag_ONCV_PBE-1.0.oncvpsp.upf
     MD5 check sum: 94f47bd0669c641108e45594df92fabc
     Pseudo is Norm-conserving, Zval = 19.0
     Generated using ONCVPSP code by D. R. Hamann
     Using radial grid of 1398 points,  6 beta functions with:
                l(1) =   0
                l(2) =   0
                l(3) =   1
                l(4) =   1
                l(5) =   2
                l(6) =   2

     PseudoPot. # 2 for Sb read from file:
     /home/pragov/projects/rrg-bengioy-ad/pragov/crystal_structure_design/SSSP/sb_pbe_v1.4.uspp.F.UPF
     MD5 check sum: 9bc50dfb53373b713f5709b9110fe27f
     Pseudo is Ultrasoft + core correction, Zval = 15.0
     Generated by new atomic code, or converted to UPF format
     Using radial grid of  891 points,  6 beta functions with:
                l(1) =   0
                l(2) =   0
                l(3) =   1
                l(4) =   1
                l(5) =   2
                l(6) =   2
     Q(r) pseudized with  8 coefficients,  rinner =    1.350   1.350   1.350
                                                       1.350   1.350

     PseudoPot. # 3 for S  read from file:
     /home/pragov/projects/rrg-bengioy-ad/pragov/crystal_structure_design/SSSP/s_pbe_v1.4.uspp.F.UPF
     MD5 check sum: 88d86576ff6df21479756cfb9bdac1df
     Pseudo is Ultrasoft + core correction, Zval =  6.0
     Generated by new atomic code, or converted to UPF format
     Using radial grid of  907 points,  6 beta functions with:
                l(1) =   0
                l(2) =   0
                l(3) =   1
                l(4) =   1
                l(5) =   2
                l(6) =   2
     Q(r) pseudized with  8 coefficients,  rinner =    1.300   1.300   1.300
                                                       1.300   1.300

     atomic species   valence    mass     pseudopotential
        Ag            19.00   107.86820     Ag( 1.00)
        Sb            15.00   121.76000     Sb( 1.00)
        S              6.00    32.06000     S ( 1.00)

      2 Sym. Ops. (no inversion) found ( 1 have fractional translation)

                                    s                        frac. trans.

      isym =  1     identity

 cryst.   s( 1) = (     1          0          0      )
                  (     0          1          0      )
                  (     0          0          1      )

 cart.    s( 1) = (  1.0000000 -0.0000000  0.0000000 )
                  (  0.0000000  1.0000000  0.0000000 )
                  (  0.0000000  0.0000000  1.0000000 )

      isym =  2     180 deg rotation - cart. axis [0,0,1]

 cryst.   s( 2) = (    -1          0          0      )    f =( -0.0000000 )
                  (     0         -1          0      )       (  0.0000000 )
                  (     0          0          1      )       (  0.5000000 )

 cart.    s( 2) = ( -1.0000000  0.0000000  0.0000000 )    f =( -0.0000000 )
                  (  0.0000000 -1.0000000  0.0000000 )       (  0.0000000 )
                  (  0.0000000  0.0000000  1.0000000 )       (  0.6185195 )

   Cartesian axes

     site n.     atom                  positions (alat units)
         1           Ag  tau(   1) = (   0.2024753   0.1182115   1.0146343  )
         2           Ag  tau(   2) = (   0.5520228   0.5120793   0.6294587  )
         3           Ag  tau(   3) = (   0.2147963   0.7216765   0.0109391  )
         4           Ag  tau(   4) = (   0.3425171   0.1749998   0.6294587  )
         5           Ag  tau(   5) = (   0.5409489   0.6627909   1.0146343  )
         6           Ag  tau(   6) = (   0.0163644   0.2338855   0.3961147  )
         7           Ag  tau(   7) = (   0.8019523   0.1230930   0.8386704  )
         8           Ag  tau(   8) = (  -0.2446390   0.7735833   0.2201509  )
         9           Ag  tau(   9) = (   0.0052905   0.3845970   0.0109391  )
        10           Ag  tau(  10) = (   0.3548380   0.7784648   0.3961147  )
        11           Sb  tau(  11) = (   0.0261677   0.6052682   0.7638234  )
        12           Sb  tau(  12) = (   0.5311456   0.2914082   0.1453038  )
        13           S   tau(  13) = (   0.0767670   0.8658199   0.9675822  )
        14           S   tau(  14) = (   0.4805463   0.0308564   0.3490627  )
        15           S   tau(  15) = (   0.3040537   0.4325531   0.8623671  )
        16           S   tau(  16) = (   0.2532596   0.4641233   0.2438476  )
        17           S   tau(  17) = (  -0.4162927   0.8802717   0.6314936  )
        18           S   tau(  18) = (   0.9736060   0.0164047   0.0129741  )
        19           S   tau(  19) = (  -0.1850632   0.4445542   0.9675822  )
        20           S   tau(  20) = (   0.7423765   0.4521222   0.3490627  )

   Crystallographic axes

     site n.     atom                  positions (cryst. coord.)
         1           Ag  tau(   1) = (  0.2608360  0.1318330  0.8202120  )
         2           Ag  tau(   2) = (  0.8048350  0.5710860  0.5088430  )
         3           Ag  tau(   3) = (  0.5710860  0.8048350  0.0088430  )
         4           Ag  tau(   4) = (  0.4289140  0.1951650  0.5088430  )
         5           Ag  tau(   5) = (  0.8681670  0.7391640  0.8202120  )
         6           Ag  tau(   6) = (  0.1318330  0.2608360  0.3202120  )
         7           Ag  tau(   7) = (  0.8627230  0.1372770  0.6779660  )
         8           Ag  tau(   8) = (  0.1372770  0.8627230  0.1779660  )
         9           Ag  tau(   9) = (  0.1951650  0.4289140  0.0088430  )
        10           Ag  tau(  10) = (  0.7391640  0.8681670  0.3202120  )
        11           Sb  tau(  11) = (  0.3249870  0.6750130  0.6174610  )
        12           Sb  tau(  12) = (  0.6750130  0.3249870  0.1174610  )
        13           S   tau(  13) = (  0.5042200  0.9655880  0.7821760  )
        14           S   tau(  14) = (  0.4957800  0.0344120  0.2821760  )
        15           S   tau(  15) = (  0.5176040  0.4823960  0.6971220  )
        16           S   tau(  16) = (  0.4823960  0.5176040  0.1971220  )
        17           S   tau(  17) = (  0.0182950  0.9817050  0.5104880  )
        18           S   tau(  18) = (  0.9817050  0.0182950  0.0104880  )
        19           S   tau(  19) = (  0.0344120  0.4957800  0.7821760  )
        20           S   tau(  20) = (  0.9655880  0.5042200  0.2821760  )

     number of k points=     1  Methfessel-Paxton smearing, width (Ry)=  0.0010
                       cart. coord. in units 2pi/alat
        k(    1) = (   0.0000000   0.0000000   0.0000000), wk =   2.0000000

                       cryst. coord.
        k(    1) = (   0.0000000   0.0000000   0.0000000), wk =   2.0000000

     Check: negative core charge=   -0.000003

     Initial potential from superposition of free atoms

     starting charge     265.9968, renormalised to     268.0000
     Starting wfcs are  150 randomized atomic wfcs +   11 random wfcs

     Self-consistent Calculation

     iteration #  1     ecut=    30.00 Ry     beta= 0.70
     Davidson diagonalization with overlap

     ethr =  1.00E-02,  avg # of iterations =  6.0

     Threshold (ethr) on eigenvalues was too large:
     Diagonalizing with lowered threshold

     Davidson diagonalization with overlap

[...]

     total energy              =   -3433.15761221 Ry
     estimated scf accuracy    <       0.87216054 Ry

[...]

     total energy              =   -3433.44202828 Ry
     estimated scf accuracy    <       0.00000134 Ry

     iteration # 11     ecut=    30.00 Ry     beta= 0.70
     Davidson diagonalization with overlap

     ethr =  5.02E-10,  avg # of iterations =  2.0

     End of self-consistent calculation

          k = 0.0000 0.0000 0.0000 (  4164 PWs)   bands (ev):

   -82.7927 -82.7920 -82.7905 -82.7898 -82.7661 -82.7649 -82.7649 -82.7638
   -82.5677 -82.5675 -45.8986 -45.8959 -45.8849 -45.8843 -45.8660 -45.8649
   -45.8580 -45.8568 -45.8285 -45.8248 -45.8210 -45.8158 -45.8121 -45.8116
   -45.8002 -45.7975 -45.7931 -45.7887 -45.7756 -45.7727 -45.7506 -45.7492
   -45.7484 -45.7467 -45.6632 -45.6628 -45.5910 -45.5891 -45.5792 -45.5783
   -20.0761 -20.0755 -20.0651 -20.0644 -20.0271 -20.0256 -20.0170 -20.0163
   -19.9917 -19.9900  -4.0850  -3.8651  -2.9179  -2.8753  -2.8083  -2.7244
    -2.6698  -2.6275   0.6342   1.0119   3.9070   4.0206   4.4491   4.4931
     4.5603   4.5850   4.6179   4.6192   4.7419   4.8113   4.9255   4.9821
     5.0306   5.0394   5.0930   5.1800   5.1820   5.3646   5.3845   5.4277
     5.4326   5.5819   5.6330   5.6768   5.6853   5.7704   5.7947   5.8466
     5.8694   5.8796   5.8847   5.9063   5.9734   6.0025   6.0042   6.0531
     6.0573   6.1119   6.1970   6.2676   6.2967   6.2984   6.3155   6.3794
     6.4081   6.4505   6.4757   6.4933   6.5334   6.5880   6.6134   6.6452
     6.6610   6.8015   6.8385   6.8428   6.9765   7.1508   7.3505   7.3787
     7.5319   7.6415   7.7991   7.8145   8.0930   8.3240   8.3844   8.4832
     8.9164   9.0469   9.1673   9.3319   9.5300   9.6757  10.1525  10.6018
    11.0802  11.1718  11.5204  12.3215  12.4234  12.9683  12.9768  13.1419
    13.2954  13.3663  13.9330  14.1951  14.3249  14.3395  14.4833  14.5408
    14.8795  14.9158  15.2533  15.4511  15.4725  15.7478  15.9544  16.3565
    16.6419

     occupation numbers
     1.0000   1.0000   1.0000   1.0000   1.0000   1.0000   1.0000   1.0000
     1.0000   1.0000   1.0000   1.0000   1.0000   1.0000   1.0000   1.0000
     1.0000   1.0000   1.0000   1.0000   1.0000   1.0000   1.0000   1.0000
     1.0000   1.0000   1.0000   1.0000   1.0000   1.0000   1.0000   1.0000
     1.0000   1.0000   1.0000   1.0000   1.0000   1.0000   1.0000   1.0000
     1.0000   1.0000   1.0000   1.0000   1.0000   1.0000   1.0000   1.0000
     1.0000   1.0000   1.0000   1.0000   1.0000   1.0000   1.0000   1.0000
     1.0000   1.0000   1.0000   1.0000   1.0000   1.0000   1.0000   1.0000
     1.0000   1.0000   1.0000   1.0000   1.0000   1.0000   1.0000   1.0000
     1.0000   1.0000   1.0000   1.0000   1.0000   1.0000   1.0000   1.0000
     1.0000   1.0000   1.0000   1.0000   1.0000   1.0000   1.0000   1.0000
     1.0000   1.0000   1.0000   1.0000   1.0000   1.0000   1.0000   1.0000
     1.0000   1.0000   1.0000   1.0000   1.0000   1.0000   1.0000   1.0000
     1.0000   1.0000   1.0000   1.0000   1.0000   1.0000   1.0000   1.0000
     1.0000   1.0000   1.0000   1.0000   1.0000   1.0000   1.0000   1.0000
     1.0000   1.0000   1.0000   1.0000   1.0000   1.0000   1.0000   1.0000
     1.0000   1.0000   1.0000   1.0000   1.0000   1.0000  -0.0000  -0.0000
    -0.0000  -0.0000  -0.0000  -0.0000  -0.0000  -0.0000  -0.0000  -0.0000
    -0.0000  -0.0000  -0.0000  -0.0000  -0.0000  -0.0000  -0.0000  -0.0000
    -0.0000  -0.0000  -0.0000  -0.0000  -0.0000  -0.0000  -0.0000  -0.0000
    -0.0000

     the Fermi energy is     9.7673 ev

!    total energy              =   -3433.44202838 Ry
     estimated scf accuracy    <       0.00000028 Ry
     smearing contrib. (-TS)   =       0.00000000 Ry
     internal energy E=F+TS    =   -3433.44202838 Ry

     The total energy is F=E-TS. E is the sum of the following terms:
     one-electron contribution =   -1975.67915080 Ry
     hartree contribution      =    1074.02562629 Ry
     xc contribution           =    -426.05162641 Ry
     ewald contribution        =   -2105.73687746 Ry

     convergence has been achieved in  11 iterations

     Forces acting on atoms (cartesian axes, Ry/au):

     atom    1 type  1   force =    -0.00001830   -0.00206472    0.01098576
     atom    2 type  1   force =    -0.00316103   -0.00395650    0.00201289
     atom    3 type  1   force =    -0.00214961   -0.00458280    0.00201385
     atom    4 type  1   force =     0.00214961    0.00458280    0.00201385
     atom    5 type  1   force =     0.00184037    0.00093235    0.01098659
     atom    6 type  1   force =    -0.00184037   -0.00093235    0.01098659
     atom    7 type  1   force =     0.00547205   -0.00340246   -0.01112727
     atom    8 type  1   force =    -0.00547205    0.00340246   -0.01112727
     atom    9 type  1   force =     0.00316103    0.00395650    0.00201289
     atom   10 type  1   force =     0.00001830    0.00206472    0.01098576
     atom   11 type  2   force =     0.01220607   -0.00758256    0.00592899
     atom   12 type  2   force =    -0.01220607    0.00758256    0.00592899
     atom   13 type  3   force =    -0.00493658   -0.00127631    0.01595006
     atom   14 type  3   force =     0.00493658    0.00127631    0.01595006
     atom   15 type  3   force =    -0.00452873    0.00281458   -0.03179582
     atom   16 type  3   force =     0.00452873   -0.00281458   -0.03179582
     atom   17 type  3   force =     0.00273386   -0.00169899   -0.02090491
     atom   18 type  3   force =    -0.00273386    0.00169899   -0.02090491
     atom   19 type  3   force =    -0.00104097    0.00499199    0.01594986
     atom   20 type  3   force =     0.00104097   -0.00499199    0.01594986
     The non-local contrib.  to forces
     atom    1 type  1   force =     0.01440643    0.06058382   -0.11760988
     atom    2 type  1   force =     0.07486725   -0.01153754    0.10773131
     atom    3 type  1   force =    -0.04348753    0.06202516    0.10773233
     atom    4 type  1   force =     0.04348753   -0.06202516    0.10773233
     atom    5 type  1   force =    -0.04794674   -0.03973728   -0.11760939
     atom    6 type  1   force =     0.04794674    0.03973728   -0.11760939
     atom    7 type  1   force =    -0.07599967    0.04723694    0.05343827
     atom    8 type  1   force =     0.07599967   -0.04723694    0.05343827
     atom    9 type  1   force =    -0.07486725    0.01153754    0.10773131
     atom   10 type  1   force =    -0.01440643   -0.06058382   -0.11760988
     atom   11 type  2   force =     0.14360912   -0.08925431    0.75187162
     atom   12 type  2   force =    -0.14360912    0.08925431    0.75187162
     atom   13 type  3   force =     0.00118645   -0.13174651   -0.12189534
     atom   14 type  3   force =    -0.00118645    0.13174651   -0.12189534
     atom   15 type  3   force =    -0.02214828    0.01376512   -0.17718171
     atom   16 type  3   force =     0.02214828   -0.01376512   -0.17718171
     atom   17 type  3   force =    -0.18952709    0.11779673   -0.12564656
     atom   18 type  3   force =     0.18952709   -0.11779673   -0.12564656
     atom   19 type  3   force =     0.11865801    0.05725882   -0.12189494
     atom   20 type  3   force =    -0.11865801   -0.05725882   -0.12189494
     The ionic contribution  to forces
     atom    1 type  1   force =    13.62652587    1.53828776    3.05347777
     atom    2 type  1   force =     8.91740587   -3.87383889   -1.36333994
     atom    3 type  1   force =    -7.42119668    6.28113008   -1.36333994
     atom    4 type  1   force =     7.42119668   -6.28113009   -1.36333994
     atom    5 type  1   force =     4.65293542  -12.89956311    3.05347777
     atom    6 type  1   force =    -4.65293543   12.89956311    3.05347777
     atom    7 type  1   force =   -11.20327863    6.96319937   -1.68703193
     atom    8 type  1   force =    11.20327863   -6.96319937   -1.68703193
     atom    9 type  1   force =    -8.91740587    3.87383889   -1.36333994
     atom   10 type  1   force =   -13.62652587   -1.53828776    3.05347777
     atom   11 type  2   force =    -1.96213250    1.21952870   -8.08365722
     atom   12 type  2   force =     1.96213251   -1.21952870   -8.08365722
     atom   13 type  3   force =    -1.23591831    1.39641496    0.62633165
     atom   14 type  3   force =     1.23591831   -1.39641496    0.62633165
     atom   15 type  3   force =    -1.45748045    0.90587116    3.18258696
     atom   16 type  3   force =     1.45748045   -0.90587116    3.18258696
     atom   17 type  3   force =     3.42952214   -2.13155873    1.95516323
     atom   18 type  3   force =    -3.42952214    2.13155873    1.95516323
     atom   19 type  3   force =    -1.79925687    0.49004441    0.62633165
     atom   20 type  3   force =     1.79925687   -0.49004441    0.62633165
     The local contribution  to forces
     atom    1 type  1   force =   -13.64112750   -1.60099393   -2.92525237
     atom    2 type  1   force =    -8.99498604    3.88182811    1.25674131
     atom    3 type  1   force =     7.46253409   -6.34751605    1.25844993
     atom    4 type  1   force =    -7.46270780    6.34716104    1.25674391
     atom    5 type  1   force =    -4.60316663   12.94041066   -2.92524753
     atom    6 type  1   force =     4.60337294  -12.94015314   -2.92411694
     atom    7 type  1   force =    11.28463963   -7.01375933    1.62167046
     atom    8 type  1   force =   -11.28449886    7.01367538    1.62403455
     atom    9 type  1   force =     8.99522202   -3.88151503    1.25844946
     atom   10 type  1   force =    13.64098724    1.60069347   -2.92411662
     atom   11 type  2   force =     1.83204794   -1.13868080    7.34117191
     atom   12 type  2   force =    -1.83222245    1.13879536    7.34305953
     atom   13 type  3   force =     1.22997530   -1.27280491   -0.49530222
     atom   14 type  3   force =    -1.23002308    1.27266645   -0.49477573
     atom   15 type  3   force =     1.47426716   -0.91630340   -3.04730173
     atom   16 type  3   force =    -1.47444135    0.91641147   -3.04663811
     atom   17 type  3   force =    -3.24802123    2.01875045   -1.85784334
     atom   18 type  3   force =     3.24790572   -2.01867834   -1.85738040
     atom   19 type  3   force =     1.68578866   -0.53943663   -0.49530098
     atom   20 type  3   force =    -1.68568672    0.53953942   -0.49477789
     The core correction contribution to forces
     atom    1 type  1   force =     0.00000000    0.00000000    0.00000000
     atom    2 type  1   force =     0.00000000    0.00000000    0.00000000
     atom    3 type  1   force =     0.00000000    0.00000000    0.00000000
     atom    4 type  1   force =     0.00000000    0.00000000    0.00000000
     atom    5 type  1   force =     0.00000000    0.00000000    0.00000000
     atom    6 type  1   force =     0.00000000    0.00000000    0.00000000
     atom    7 type  1   force =     0.00000000    0.00000000    0.00000000
     atom    8 type  1   force =     0.00000000    0.00000000    0.00000000
     atom    9 type  1   force =     0.00000000    0.00000000    0.00000000
     atom   10 type  1   force =     0.00000000    0.00000000    0.00000000
     atom   11 type  2   force =    -0.00146662    0.00091162   -0.00484768
     atom   12 type  2   force =     0.00146531   -0.00091069   -0.00484048
     atom   13 type  3   force =    -0.00012962    0.00691314    0.00657138
     atom   14 type  3   force =     0.00012923   -0.00691096    0.00656976
     atom   15 type  3   force =     0.00077455   -0.00048140    0.00986531
     atom   16 type  3   force =    -0.00077518    0.00048169    0.00986272
     atom   17 type  3   force =     0.01070338   -0.00665253    0.00715927
     atom   18 type  3   force =    -0.01070938    0.00665616    0.00715833
     atom   19 type  3   force =    -0.00625622   -0.00294419    0.00657137
     atom   20 type  3   force =     0.00625405    0.00294355    0.00656974
     The Hubbard contrib.    to forces
     atom    1 type  1   force =     0.00000000    0.00000000    0.00000000
     atom    2 type  1   force =     0.00000000    0.00000000    0.00000000
     atom    3 type  1   force =     0.00000000    0.00000000    0.00000000
     atom    4 type  1   force =     0.00000000    0.00000000    0.00000000
     atom    5 type  1   force =     0.00000000    0.00000000    0.00000000
     atom    6 type  1   force =     0.00000000    0.00000000    0.00000000
     atom    7 type  1   force =     0.00000000    0.00000000    0.00000000
     atom    8 type  1   force =     0.00000000    0.00000000    0.00000000
     atom    9 type  1   force =     0.00000000    0.00000000    0.00000000
     atom   10 type  1   force =     0.00000000    0.00000000    0.00000000
     atom   11 type  2   force =     0.00000000    0.00000000    0.00000000
     atom   12 type  2   force =     0.00000000    0.00000000    0.00000000
     atom   13 type  3   force =     0.00000000    0.00000000    0.00000000
     atom   14 type  3   force =     0.00000000    0.00000000    0.00000000
     atom   15 type  3   force =     0.00000000    0.00000000    0.00000000
     atom   16 type  3   force =     0.00000000    0.00000000    0.00000000
     atom   17 type  3   force =     0.00000000    0.00000000    0.00000000
     atom   18 type  3   force =     0.00000000    0.00000000    0.00000000
     atom   19 type  3   force =     0.00000000    0.00000000    0.00000000
     atom   20 type  3   force =     0.00000000    0.00000000    0.00000000
     The SCF correction term to forces
     atom    1 type  1   force =     0.00018799    0.00007752    0.00045878
     atom    2 type  1   force =    -0.00046352   -0.00044306    0.00105997
     atom    3 type  1   force =     0.00002461   -0.00019255   -0.00095412
     atom    4 type  1   force =     0.00019732    0.00060644    0.00105778
     atom    5 type  1   force =     0.00000585   -0.00019685    0.00045383
     atom    6 type  1   force =    -0.00023711   -0.00009852   -0.00079836
     atom    7 type  1   force =     0.00008416   -0.00006264    0.00099861
     atom    8 type  1   force =    -0.00027808    0.00018020   -0.00171625
     atom    9 type  1   force =     0.00019673    0.00006021   -0.00095314
     atom   10 type  1   force =    -0.00002556    0.00026272   -0.00079949
     atom   11 type  2   force =     0.00014795   -0.00008824    0.00147772
     atom   12 type  2   force =     0.00002751   -0.00002818   -0.00053725
     atom   13 type  3   force =    -0.00005226   -0.00003984    0.00028358
     atom   14 type  3   force =     0.00009670    0.00020244   -0.00026471
     atom   15 type  3   force =     0.00005109   -0.00003244    0.00028936
     atom   16 type  3   force =     0.00010933   -0.00006701   -0.00042511
     atom   17 type  3   force =     0.00000506   -0.00000286    0.00030448
     atom   18 type  3   force =     0.00001327   -0.00000878   -0.00018692
     atom   19 type  3   force =     0.00001244    0.00006538    0.00028231
     atom   20 type  3   force =    -0.00013821   -0.00017593   -0.00026367

     Total force =     0.074348     Total SCF correction =     0.003776

     Computing stress (Cartesian axis) and pressure

          total   stress  (Ry/bohr**3)                   (kbar)     P=     -704.90
  -0.00485004   0.00006523   0.00000000         -713.47        9.60        0.00
   0.00006523  -0.00478563   0.00000000            9.60     -703.99        0.00
   0.00000000   0.00000000  -0.00473986            0.00        0.00     -697.26

     kinetic stress (kbar)  35536.32      0.14      0.00
                                0.14  35536.46      0.00
                                0.00      0.00  35526.46

     local   stress (kbar) -10149.77  -3676.38     -0.01
                            -3676.38 -13779.81      0.00
                               -0.01      0.00 -16200.05

     nonloc. stress (kbar)   -308.05      9.70      0.00
                                9.70   -298.47      0.00
                                0.00      0.00   -324.37

     hartree stress (kbar)  16048.56   1615.39      0.01
                             1615.39  17643.59     -0.01
                                0.01     -0.01  18945.35

     exc-cor stress (kbar)  -1917.01      0.91     -0.00
                                0.91  -1916.11      0.00
                               -0.00      0.00  -1918.01

     corecor stress (kbar)  -3779.93     -0.41      0.00
                               -0.41  -3780.34     -0.00
                                0.00     -0.00  -3778.32

     ewald   stress (kbar) -36143.59   2060.25      0.00
                             2060.25 -34109.30      0.00
                                0.00      0.00 -32948.31

     hubbard stress (kbar)      0.00      0.00      0.00
                                0.00      0.00      0.00
                                0.00      0.00      0.00

     DFT-D   stress (kbar)      0.00      0.00      0.00
                                0.00      0.00      0.00
                                0.00      0.00      0.00

     XDM     stress (kbar)      0.00      0.00      0.00
                                0.00      0.00      0.00
                                0.00      0.00      0.00

     dft-nl  stress (kbar)      0.00      0.00      0.00
                                0.00      0.00      0.00
                                0.00      0.00      0.00

     TS-vdW  stress (kbar)      0.00      0.00      0.00
                                0.00      0.00      0.00
                                0.00      0.00      0.00

[...]

                                0.00      0.00      0.00

     Writing all to output data dir new_calculations/myprefix.save/

     General routines

     Parallel routines

   This run was terminated on:  19:43:26  20May2023

   JOB DONE.