     Program PWSCF v.7.0 starts on 20May2023 at 23:41:21

     Reading input from espresso_26235.pwi
Warning: card &CELL ignored
Warning: card / ignored

     Current dimensions of program PWSCF are:
     Max number of different atomic species (ntypx) = 10
     Max number of k-points (npk) =  40000
     Max angular momentum in pseudopotentials (lmaxx) =  4
     file O.pbe-n-kjpaw_psl.0.1.UPF: wavefunction(s)  2P renormalized

     gamma-point specific algorithms are used

     Subspace diagonalization in iterative solution of the eigenvalue problem:
     a serial algorithm will be used

     Using Slab Decomposition

     bravais-lattice index     =            0
     lattice parameter (alat)  =      10.9269  a.u.
     unit-cell volume          =    1926.3962 (a.u.)^3
     number of atoms/cell      =           20
     number of atomic types    =            5
     number of electrons       =       164.00
     number of Kohn-Sham states=           98
     kinetic-energy cutoff     =      30.0000  Ry
     charge density cutoff     =     240.0000  Ry
     scf convergence threshold =      1.0E-06
     mixing beta               =       0.7000
     number of iterations used =            8  plain     mixing
     Exchange-correlation= SLA  PW   PBX  PBC
                           (   1   4   3   4   0   0   0)

     celldm(1)=  10.926891  celldm(2)=   0.000000  celldm(3)=   0.000000
     celldm(4)=   0.000000  celldm(5)=   0.000000  celldm(6)=   0.000000

     crystal axes: (cart. coord. in units of alat)
               a(1) = (   1.000000   0.000000   0.000000 )
               a(2) = (   0.003260   1.028644   0.000000 )
               a(3) = (  -0.004427   0.002629   1.435459 )

     reciprocal axes: (cart. coord. in units 2 pi/alat)
               b(1) = (  1.000000 -0.003169  0.003090 )
               b(2) = (  0.000000  0.972154 -0.001780 )
               b(3) = (  0.000000  0.000000  0.696641 )

     PseudoPot. # 1 for Sr read from file:
     /home/pragov/projects/rrg-bengioy-ad/pragov/crystal_structure_design/SSSP/Sr_pbe_v1.uspp.F.UPF
     MD5 check sum: 6b418c05fbe9db5448babca5e47b7a5b
     Pseudo is Ultrasoft + core correction, Zval = 10.0
     Generated by new atomic code, or converted to UPF format
     Using radial grid of  883 points,  6 beta functions with:
                l(1) =   0
                l(2) =   0
                l(3) =   1
                l(4) =   1
                l(5) =   2
                l(6) =   2
     Q(r) pseudized with  6 coefficients,  rinner =    1.400   1.400   1.400
                                                       1.400   1.400

     PseudoPot. # 2 for Ca read from file:
     /home/pragov/projects/rrg-bengioy-ad/pragov/crystal_structure_design/SSSP/Ca_pbe_v1.uspp.F.UPF
     MD5 check sum: 403a4c14b9e4d4dfdc3024c9a3812218
     Pseudo is Ultrasoft + core correction, Zval = 10.0
     Generated by new atomic code, or converted to UPF format
     Using radial grid of  845 points,  6 beta functions with:
                l(1) =   0
                l(2) =   0
                l(3) =   1
                l(4) =   1
                l(5) =   2
                l(6) =   2
     Q(r) pseudized with  8 coefficients,  rinner =    1.500   1.500   1.500
                                                       1.500   1.500

     PseudoPot. # 3 for La read from file:
     /home/pragov/projects/rrg-bengioy-ad/pragov/crystal_structure_design/SSSP/La.GGA-PBE-paw-v1.0.UPF
     MD5 check sum: 436541e95c1ad8901025bd0b0ed42ae2
     Pseudo is Projector augmented-wave + core cor, Zval = 11.0
     Generated using ATOMPAW code
     Shape of augmentation charge: BESSEL
     Using radial grid of 1101 points,  8 beta functions with:
                l(1) =   0
                l(2) =   0
                l(3) =   1
                l(4) =   1
                l(5) =   2
                l(6) =   2
                l(7) =   3
                l(8) =   3
     Q(r) pseudized with 0 coefficients

     PseudoPot. # 4 for Sb read from file:
     /home/pragov/projects/rrg-bengioy-ad/pragov/crystal_structure_design/SSSP/sb_pbe_v1.4.uspp.F.UPF
     MD5 check sum: 9bc50dfb53373b713f5709b9110fe27f
     Pseudo is Ultrasoft + core correction, Zval = 15.0
     Generated by new atomic code, or converted to UPF format
     Using radial grid of  891 points,  6 beta functions with:
                l(1) =   0
                l(2) =   0
                l(3) =   1
                l(4) =   1
                l(5) =   2
                l(6) =   2
     Q(r) pseudized with  8 coefficients,  rinner =    1.350   1.350   1.350
                                                       1.350   1.350

     PseudoPot. # 5 for O  read from file:
     /home/pragov/projects/rrg-bengioy-ad/pragov/crystal_structure_design/SSSP/O.pbe-n-kjpaw_psl.0.1.UPF
     MD5 check sum: 0234752ac141de4415c5fc33072bef88
     Pseudo is Projector augmented-wave + core cor, Zval =  6.0
     Generated using "atomic" code by A. Dal Corso  v.5.0.99 svn rev. 10869
     Shape of augmentation charge: BESSEL
     Using radial grid of 1095 points,  4 beta functions with:
                l(1) =   0
                l(2) =   0
                l(3) =   1
                l(4) =   1
     Q(r) pseudized with 0 coefficients

     atomic species   valence    mass     pseudopotential
        Sr            10.00    87.62000     Sr( 1.00)
        Ca            10.00    40.07800     Ca( 1.00)
        La            11.00   138.90547     La( 1.00)
        Sb            15.00   121.76000     Sb( 1.00)
        O              6.00    15.99900     O ( 1.00)

     No symmetry found

                                    s                        frac. trans.

      isym =  1     identity

 cryst.   s( 1) = (     1          0          0      )
                  (     0          1          0      )
                  (     0          0          1      )

 cart.    s( 1) = (  1.0000000 -0.0000000 -0.0000000 )
                  (  0.0000000  1.0000000  0.0000000 )
                  (  0.0000000  0.0000000  1.0000000 )

   Cartesian axes

     site n.     atom                  positions (alat units)
         1           Sr  tau(   1) = (   0.4883346   0.5640876   0.3605700  )
         2           Ca  tau(   2) = (   0.9910816   0.9822581   1.0807340  )
         3           Ca  tau(   3) = (   0.0000031   0.5191246   0.7201065  )
         4           Ca  tau(   4) = (   0.4997658   1.0264512   1.4321400  )
         5           La  tau(   5) = (   0.5103993   0.4607339   1.0770090  )
         6           La  tau(   6) = (   0.0131432   0.0540113   0.3585776  )
         7           Sb  tau(   7) = (   0.5003951   1.0291419   0.7225195  )
         8           Sb  tau(   8) = (  -0.0023286   0.5174041   1.4315314  )
         9           O   tau(   9) = (   0.1707630   0.8111984   0.0812111  )
        10           O   tau(  10) = (   0.6693611   0.7334195   0.8030258  )
        11           O   tau(  11) = (   0.8188592   0.2262426   1.3468652  )
        12           O   tau(  12) = (   0.3169862   0.2884781   0.6421123  )
        13           O   tau(  13) = (   0.6131868   0.9991629   0.3892849  )
        14           O   tau(  14) = (   0.1091728   0.5649144   1.1030984  )
        15           O   tau(  15) = (   0.3866488   0.0433099   1.0509496  )
        16           O   tau(  16) = (   0.9099454   0.4700017   0.3307986  )
        17           O   tau(  17) = (   0.2158965   0.8458912   0.6383284  )
        18           O   tau(  18) = (   0.7131029   0.6999453   1.3551722  )
        19           O   tau(  19) = (   0.7802971   0.1879550   0.8011726  )
        20           O   tau(  20) = (   0.2821477   0.3202636   0.0648411  )

   Crystallographic axes

     site n.     atom                  positions (cryst. coord.)
         1           Sr  tau(   1) = (  0.4876610  0.5477380  0.2511880  )
         2           Ca  tau(   2) = (  0.9913080  0.9529820  0.7528840  )
         3           Ca  tau(   3) = (  0.0005830  0.5033870  0.5016560  )
         4           Ca  tau(   4) = (  0.5009380  0.9953190  0.9976880  )
         5           La  tau(   5) = (  0.5122670  0.4459870  0.7502890  )
         6           La  tau(   6) = (  0.0140800  0.0518690  0.2498000  )
         7           Sb  tau(   7) = (  0.4993660  0.9991980  0.5033370  )
         8           Sb  tau(   8) = (  0.0004550  0.5004480  0.9972640  )
         9           O   tau(   9) = (  0.1684430  0.7884650  0.0565750  )
        10           O   tau(  10) = (  0.6695180  0.7115670  0.5594210  )
        11           O   tau(  11) = (  0.8223040  0.2175450  0.9382820  )
        12           O   tau(  12) = (  0.3180560  0.2793020  0.4473220  )
        13           O   tau(  13) = (  0.6112230  0.9706470  0.2711920  )
        14           O   tau(  14) = (  0.1107910  0.5472200  0.7684640  )
        15           O   tau(  15) = (  0.3897590  0.0402330  0.7321350  )
        16           O   tau(  16) = (  0.9094780  0.4563250  0.2304480  )
        17           O   tau(  17) = (  0.2151880  0.8212000  0.4446860  )
        18           O   tau(  18) = (  0.7150720  0.6780420  0.9440690  )
        19           O   tau(  19) = (  0.7821770  0.1812950  0.5581300  )
        20           O   tau(  20) = (  0.2813330  0.3112300  0.0451710  )

     number of k points=     1  Methfessel-Paxton smearing, width (Ry)=  0.0010
                       cart. coord. in units 2pi/alat
        k(    1) = (   0.0000000   0.0000000   0.0000000), wk =   2.0000000

                       cryst. coord.
        k(    1) = (   0.0000000   0.0000000   0.0000000), wk =   2.0000000

     Check: negative core charge=   -0.000012

     Initial potential from superposition of free atoms

     starting charge     161.9329, renormalised to     164.0000

     negative rho (up, down):  6.440E-02 0.000E+00
     Starting wfcs are  173 randomized atomic wfcs
     Checking if some PAW data can be deallocated...

     Self-consistent Calculation

     iteration #  1     ecut=    30.00 Ry     beta= 0.70
     Davidson diagonalization with overlap

     ethr =  1.00E-02,  avg # of iterations =  2.0

     negative rho (up, down):  6.476E-02 0.000E+00

     total energy              =   -2080.22863504 Ry
     estimated scf accuracy    <       4.49618290 Ry

[...]

     total energy              =   -2082.53773542 Ry
     estimated scf accuracy    <       0.00000186 Ry

     iteration # 11     ecut=    30.00 Ry     beta= 0.70
     Davidson diagonalization with overlap

     ethr =  1.13E-09,  avg # of iterations =  5.0

[...]

     End of self-consistent calculation

          k = 0.0000 0.0000 0.0000 (  2692 PWs)   bands (ev):

   -29.7148 -28.8240 -28.8120 -23.5899 -21.4188 -21.3870 -19.5845 -19.5626
   -19.5598 -19.5388 -19.4200 -19.4134 -19.4044 -19.3987 -19.3910 -19.3790
   -10.8628 -10.8390 -10.8304 -10.2268 -10.2015 -10.1870 -10.1768 -10.1327
   -10.1006  -9.1430  -8.9549  -7.9834  -7.9390  -7.7416  -7.6644  -7.6364
    -7.4765  -7.3238  -7.2979  -7.1146  -7.0816  -5.6155  -5.5404  -5.4412
    -4.8929  -4.8222  -4.7390  -4.5665  -4.5050  -4.4047   1.3057   1.4623
     4.7660   4.8572   4.9003   5.0621   5.0817   5.2671   5.6633   6.1952
     6.4373   6.5432   6.7206   6.9144   6.9712   7.0080   7.1442   7.1868
     7.2504   7.3053   7.4400   7.5313   7.5782   7.7269   7.7692   7.7980
     7.8431   7.9160   7.9677   7.9881   8.0583   8.1703   8.2091   8.2629
     8.2700   8.3507  12.2019  12.5377  13.4657  13.4912  13.5134  13.5303
    13.5648  13.5711  13.5778  13.5961  13.6310  13.6405  13.6578  13.6726
    13.7560  13.7879

     occupation numbers
     1.0000   1.0000   1.0000   1.0000   1.0000   1.0000   1.0000   1.0000
     1.0000   1.0000   1.0000   1.0000   1.0000   1.0000   1.0000   1.0000
     1.0000   1.0000   1.0000   1.0000   1.0000   1.0000   1.0000   1.0000
     1.0000   1.0000   1.0000   1.0000   1.0000   1.0000   1.0000   1.0000
     1.0000   1.0000   1.0000   1.0000   1.0000   1.0000   1.0000   1.0000
     1.0000   1.0000   1.0000   1.0000   1.0000   1.0000   1.0000   1.0000
     1.0000   1.0000   1.0000   1.0000   1.0000   1.0000   1.0000   1.0000
     1.0000   1.0000   1.0000   1.0000   1.0000   1.0000   1.0000   1.0000
     1.0000   1.0000   1.0000   1.0000   1.0000   1.0000   1.0000   1.0000
     1.0000   1.0000   1.0000   1.0000   1.0000   1.0000   1.0000   1.0000
     1.0000   1.0000  -0.0000  -0.0000  -0.0000  -0.0000  -0.0000  -0.0000
    -0.0000  -0.0000  -0.0000  -0.0000  -0.0000  -0.0000  -0.0000  -0.0000
    -0.0000  -0.0000

     the Fermi energy is     8.4521 ev

!    total energy              =   -2082.53773604 Ry
     estimated scf accuracy    <       0.00000077 Ry
     smearing contrib. (-TS)   =       0.00000000 Ry
     internal energy E=F+TS    =   -2082.53773604 Ry

     The total energy is F=E-TS. E is the sum of the following terms:
     one-electron contribution =    -349.39117312 Ry
     hartree contribution      =     277.82058508 Ry
     xc contribution           =    -250.44884028 Ry
     ewald contribution        =    -850.06125352 Ry
     one-center paw contrib.   =    -910.45705420 Ry
      -> PAW hartree energy AE =     425.13861003 Ry
      -> PAW hartree energy PS =    -423.97646816 Ry
      -> PAW xc energy AE      =   -1016.70492394 Ry
      -> PAW xc energy PS      =     105.08572788 Ry
      -> total E_H with PAW    =     278.98272695 Ry
      -> total E_XC with PAW   =   -1162.06803635 Ry

     convergence has been achieved in  11 iterations

     negative rho (up, down):  6.703E-02 0.000E+00

     Forces acting on atoms (cartesian axes, Ry/au):

     atom    1 type  1   force =    -0.00700182    0.00903205   -0.00019099
     atom    2 type  2   force =    -0.00330614   -0.00308222   -0.00003457
     atom    3 type  2   force =    -0.00013845   -0.00194734   -0.00328069
     atom    4 type  2   force =     0.00094564    0.00191565   -0.00196068
     atom    5 type  3   force =     0.00599179   -0.01703973    0.00198372
     atom    6 type  3   force =     0.00426550    0.01601255    0.00162713
     atom    7 type  4   force =     0.00287857    0.00056655    0.00004492
     atom    8 type  4   force =     0.00685405   -0.00586238    0.00850823
     atom    9 type  5   force =    -0.00723323   -0.00345186    0.01394117
     atom   10 type  5   force =    -0.00814786    0.00305359    0.01137171
     atom   11 type  5   force =     0.00688168   -0.00168384   -0.01392964
     atom   12 type  5   force =     0.00683419    0.00350294   -0.01426270
     atom   13 type  5   force =     0.01186700   -0.01701383    0.01454559
     atom   14 type  5   force =     0.00831964    0.01788404    0.01040685
     atom   15 type  5   force =    -0.00744235    0.00375717   -0.00936152
     atom   16 type  5   force =    -0.00770824   -0.00947853   -0.01513790
     atom   17 type  5   force =    -0.01315641    0.00422025   -0.01464965
     atom   18 type  5   force =    -0.01492567   -0.00374506   -0.01035528
     atom   19 type  5   force =     0.00623732   -0.01073291    0.01209067
     atom   20 type  5   force =     0.00798479    0.01409292    0.00864360
     The non-local contrib.  to forces
     atom    1 type  1   force =    -0.00318501   -0.00104363   -0.00106610
     atom    2 type  2   force =    -0.02212445   -0.01646837    0.00198597
     atom    3 type  2   force =    -0.00331019   -0.00223523   -0.00387929
     atom    4 type  2   force =     0.00835641   -0.00237177    0.00829710
     atom    5 type  3   force =    -0.00184210   -0.01301153   -0.00260867
     atom    6 type  3   force =     0.00597636    0.01177144   -0.00317887
     atom    7 type  4   force =     0.02196116   -0.05220999   -0.02216538
     atom    8 type  4   force =     0.00063110    0.03524903   -0.01000749
     atom    9 type  5   force =    -0.31333511   -0.55088886   -0.06077791
     atom   10 type  5   force =    -0.34438751    0.54511561   -0.08938320
     atom   11 type  5   force =     0.28726513    0.61248524    0.11007550
     atom   12 type  5   force =     0.32885649   -0.61784213    0.11352232
     atom   13 type  5   force =    -0.16581679    0.05575246    0.55880207
     atom   14 type  5   force =    -0.18251380   -0.10942649    0.58409639
     atom   15 type  5   force =     0.24545767   -0.01792724   -0.61584114
     atom   16 type  5   force =     0.21103064    0.00712551   -0.62029341
     atom   17 type  5   force =     0.57787075    0.38727252    0.07824945
     atom   18 type  5   force =     0.58561759   -0.42037636    0.09903202
     atom   19 type  5   force =    -0.63675845   -0.34388527   -0.13325175
     atom   20 type  5   force =    -0.60892571    0.38531557   -0.12863718
     The ionic contribution  to forces
     atom    1 type  1   force =     1.01539028   -1.01037069   -0.12155338
     atom    2 type  2   force =     0.19900766    0.87245421   -0.29293997
     atom    3 type  2   force =    -0.38562727    0.23759849   -0.62124170
     atom    4 type  2   force =     0.34804005   -0.46319623    1.12327175
     atom    5 type  3   force =    -0.59145626    1.51083531   -0.14074761
     atom    6 type  3   force =    -0.89088480   -1.42125834    0.02271504
     atom    7 type  4   force =     0.68077501   -0.73018153   -1.12580865
     atom    8 type  4   force =    -0.15059959    0.31141064    0.99836008
     atom    9 type  5   force =     2.88966020    4.95168410    1.69153475
     atom   10 type  5   force =     2.86417915   -5.15464744    0.70786030
     atom   11 type  5   force =    -2.79241463   -5.23344325   -0.88374819
     atom   12 type  5   force =    -2.66142408    5.63803298   -1.86553695
     atom   13 type  5   force =     1.95392482   -0.22071620   -6.08691060
     atom   14 type  5   force =     2.15561148    0.40098571   -6.03830263
     atom   15 type  5   force =    -2.43069902   -0.23372675    5.90805339
     atom   16 type  5   force =    -2.71631171    0.47645935    6.28157354
     atom   17 type  5   force =    -5.54341160   -3.92180232   -1.35042646
     atom   18 type  5   force =    -5.80976335    3.80710094   -0.42504506
     atom   19 type  5   force =     5.88556853    3.57358382    0.63209149
     atom   20 type  5   force =     5.98043512   -3.39080280    1.58680087
     The local contribution  to forces
     atom    1 type  1   force =    -1.01915930    1.01986567    0.12278855
     atom    2 type  2   force =    -0.18018333   -0.85865746    0.29063904
     atom    3 type  2   force =     0.38902819   -0.23756072    0.62168955
     atom    4 type  2   force =    -0.35505674    0.46782254   -1.13374368
     atom    5 type  3   force =     0.59924275   -1.51481371    0.14495442
     atom    6 type  3   force =     0.88909082    1.42590560   -0.01743466
     atom    7 type  4   force =    -0.69961161    0.78274312    1.14775162
     atom    8 type  4   force =     0.15703563   -0.35272343   -0.97945035
     atom    9 type  5   force =    -2.58683426   -4.41061994   -1.61752276
     atom   10 type  5   force =    -2.53135875    4.61857098   -0.60835325
     atom   11 type  5   force =     2.51513272    4.62610690    0.76082527
     atom   12 type  5   force =     2.34284940   -5.02328666    1.73905120
     atom   13 type  5   force =    -1.77851038    0.14867071    5.54873263
     atom   14 type  5   force =    -1.96731218   -0.27494475    5.47040128
     atom   15 type  5   force =     2.18032647    0.25502830   -5.30830951
     atom   16 type  5   force =     2.49982770   -0.49262416   -5.68266044
     atom   17 type  5   force =     4.95872372    3.54245903    1.25875476
     atom   18 type  5   force =     5.21577085   -3.39476183    0.31689825
     atom   19 type  5   force =    -5.24922255   -3.24377361   -0.48841798
     atom   20 type  5   force =    -5.37005934    3.02369874   -1.45094004
     The core correction contribution to forces
     atom    1 type  1   force =     0.00011954    0.00038149    0.00009420
     atom    2 type  2   force =    -0.00009235   -0.00049145   -0.00006082
     atom    3 type  2   force =    -0.00022269    0.00009118    0.00012978
     atom    4 type  2   force =    -0.00014726   -0.00015456    0.00021582
     atom    5 type  3   force =     0.00002727    0.00003632   -0.00001189
     atom    6 type  3   force =     0.00002142   -0.00003737   -0.00000848
     atom    7 type  4   force =    -0.00036766    0.00041912    0.00012597
     atom    8 type  4   force =    -0.00048594   -0.00012389   -0.00043904
     atom    9 type  5   force =     0.00310809    0.00614246    0.00086640
     atom   10 type  5   force =     0.00342310   -0.00608274    0.00117853
     atom   11 type  5   force =    -0.00303037   -0.00658080   -0.00117461
     atom   12 type  5   force =    -0.00344158    0.00665061   -0.00121485
     atom   13 type  5   force =     0.00234742   -0.00068575   -0.00569979
     atom   14 type  5   force =     0.00242250    0.00115739   -0.00596222
     atom   15 type  5   force =    -0.00252510    0.00051158    0.00634698
     atom   16 type  5   force =    -0.00220696   -0.00050669    0.00638569
     atom   17 type  5   force =    -0.00626760   -0.00369025   -0.00117133
     atom   18 type  5   force =    -0.00635104    0.00405872   -0.00133870
     atom   19 type  5   force =     0.00661418    0.00347434    0.00152767
     atom   20 type  5   force =     0.00638421   -0.00394448    0.00149862
     The Hubbard contrib.    to forces
     atom    1 type  1   force =     0.00000000    0.00000000    0.00000000
     atom    2 type  2   force =     0.00000000    0.00000000    0.00000000
     atom    3 type  2   force =     0.00000000    0.00000000    0.00000000
     atom    4 type  2   force =     0.00000000    0.00000000    0.00000000
     atom    5 type  3   force =     0.00000000    0.00000000    0.00000000
     atom    6 type  3   force =     0.00000000    0.00000000    0.00000000
     atom    7 type  4   force =     0.00000000    0.00000000    0.00000000
     atom    8 type  4   force =     0.00000000    0.00000000    0.00000000
     atom    9 type  5   force =     0.00000000    0.00000000    0.00000000
     atom   10 type  5   force =     0.00000000    0.00000000    0.00000000
     atom   11 type  5   force =     0.00000000    0.00000000    0.00000000
     atom   12 type  5   force =     0.00000000    0.00000000    0.00000000
     atom   13 type  5   force =     0.00000000    0.00000000    0.00000000
     atom   14 type  5   force =     0.00000000    0.00000000    0.00000000
     atom   15 type  5   force =     0.00000000    0.00000000    0.00000000
     atom   16 type  5   force =     0.00000000    0.00000000    0.00000000
     atom   17 type  5   force =     0.00000000    0.00000000    0.00000000
     atom   18 type  5   force =     0.00000000    0.00000000    0.00000000
     atom   19 type  5   force =     0.00000000    0.00000000    0.00000000
     atom   20 type  5   force =     0.00000000    0.00000000    0.00000000
     The SCF correction term to forces
     atom    1 type  1   force =    -0.00015825    0.00020115   -0.00045388
     atom    2 type  2   force =     0.00009541    0.00008281    0.00034159
     atom    3 type  2   force =     0.00000259    0.00016089    0.00002135
     atom    4 type  2   force =    -0.00023775   -0.00018238   -0.00000129
     atom    5 type  3   force =     0.00002920   -0.00008417    0.00039785
     atom    6 type  3   force =     0.00007077   -0.00036684   -0.00046551
     atom    7 type  4   force =     0.00013074   -0.00020222    0.00014174
     atom    8 type  4   force =     0.00028193    0.00032722    0.00004541
     atom    9 type  5   force =     0.00017694    0.00023233   -0.00015893
     atom   10 type  5   force =     0.00000522    0.00009912    0.00006971
     atom   11 type  5   force =    -0.00006209   -0.00024999    0.00009277
     atom   12 type  5   force =     0.00000303   -0.00004991   -0.00008404
     atom   13 type  5   force =    -0.00006899   -0.00003309   -0.00037832
     atom   14 type  5   force =     0.00012072    0.00011412    0.00017441
     atom   15 type  5   force =     0.00000670   -0.00012677    0.00038914
     atom   16 type  5   force =    -0.00003883    0.00006941   -0.00014290
     atom   17 type  5   force =    -0.00006261   -0.00001677   -0.00005568
     atom   18 type  5   force =    -0.00019064    0.00023543    0.00009860
     atom   19 type  5   force =     0.00004469   -0.00013023    0.00014162
     atom   20 type  5   force =     0.00015958   -0.00017216   -0.00007828

     Total force =     0.070539     Total SCF correction =     0.001459

     Computing stress (Cartesian axis) and pressure

     negative rho (up, down):  6.703E-02 0.000E+00
          total   stress  (Ry/bohr**3)                   (kbar)     P=     -316.15
  -0.00205878  -0.00000138   0.00003104         -302.86       -0.20        4.57
  -0.00000138  -0.00203704  -0.00000481           -0.20     -299.66       -0.71
   0.00003104  -0.00000481  -0.00235163            4.57       -0.71     -345.94

     kinetic stress (kbar)  20261.06      2.91      1.13
                                2.91  20300.14      3.84
                                1.13      3.84  20173.47

     local   stress (kbar)  -6496.34    294.53   -672.77
                              294.53  -6468.88     60.44
                             -672.77     60.44  -6069.21

     nonloc. stress (kbar)   5363.10     -2.34      0.19
                               -2.34   5358.58     -0.99
                                0.19     -0.99   5369.78

     hartree stress (kbar)   7071.37   -102.88    271.54
                             -102.88   7093.20    -29.16
                              271.54    -29.16   7050.60

     exc-cor stress (kbar)     46.47     -0.48      0.32
                               -0.48     46.35      0.01
                                0.32      0.01     44.68

     corecor stress (kbar)  -5060.02      0.08     -0.03
                                0.08  -5060.15     -0.00
                               -0.03     -0.00  -5059.57

     ewald   stress (kbar) -21488.50   -192.04    404.19
                             -192.04 -21568.91    -34.84
                              404.19    -34.84 -21855.68

     hubbard stress (kbar)      0.00      0.00      0.00
                                0.00      0.00      0.00
                                0.00      0.00      0.00

     DFT-D   stress (kbar)      0.00      0.00      0.00
                                0.00      0.00      0.00
                                0.00      0.00      0.00

     XDM     stress (kbar)      0.00      0.00      0.00
                                0.00      0.00      0.00
                                0.00      0.00      0.00

     dft-nl  stress (kbar)      0.00      0.00      0.00
                                0.00      0.00      0.00
                                0.00      0.00      0.00

     TS-vdW  stress (kbar)      0.00      0.00      0.00
                                0.00      0.00      0.00
                                0.00      0.00      0.00

[...]

                                0.00      0.00      0.00

     Writing all to output data dir new_calculations/myprefix.save/

     General routines

     Parallel routines

     PAW routines

   This run was terminated on:  23:42:10  20May2023

   JOB DONE.