     Program PWSCF v.7.0 starts on 20May2023 at  6: 7:43

     Reading input from espresso_19088.pwi
Warning: card &CELL ignored
Warning: card / ignored

     Current dimensions of program PWSCF are:
     Max number of different atomic species (ntypx) = 10
     Max number of k-points (npk) =  40000
     Max angular momentum in pseudopotentials (lmaxx) =  4

     gamma-point specific algorithms are used
     Message from routine setup:
     using ibrav=0 with symmetry is DISCOURAGED, use correct ibrav instead

     Subspace diagonalization in iterative solution of the eigenvalue problem:
     a serial algorithm will be used

     Using Slab Decomposition

     bravais-lattice index     =            0
     lattice parameter (alat)  =       8.0334  a.u.
     unit-cell volume          =    1705.2512 (a.u.)^3
     number of atoms/cell      =            8
     number of atomic types    =            3
     number of electrons       =        70.00
     number of Kohn-Sham states=           42
     kinetic-energy cutoff     =      30.0000  Ry
     charge density cutoff     =     240.0000  Ry
     scf convergence threshold =      1.0E-06
     mixing beta               =       0.7000
     number of iterations used =            8  plain     mixing
     Exchange-correlation=  SLA  PW   PBX  PBC
                           (   1   4   3   4   0   0   0)

     celldm(1)=   8.033403  celldm(2)=   0.000000  celldm(3)=   0.000000
     celldm(4)=   0.000000  celldm(5)=   0.000000  celldm(6)=   0.000000

     crystal axes: (cart. coord. in units of alat)
               a(1) = (   1.000000   0.000000   0.000000 )
               a(2) = (  -0.500000   0.866025   0.000000 )
               a(3) = (   0.000000   0.000000   3.798036 )

     reciprocal axes: (cart. coord. in units 2 pi/alat)
               b(1) = (  1.000000  0.577350  0.000000 )
               b(2) = (  0.000000  1.154700  0.000000 )
               b(3) = (  0.000000  0.000000  0.263294 )

     PseudoPot. # 1 for Cs read from file:
     /home/pragov/projects/rrg-bengioy-ad/pragov/crystal_structure_design/SSSP/Cs_pbe_v1.uspp.F.UPF
     MD5 check sum: 3476d69cb178dfad3ffaa59df4e07ca4
     Pseudo is Ultrasoft + core correction, Zval =  9.0
     Generated by new atomic code, or converted to UPF format
     Using radial grid of  905 points,  6 beta functions with:
                l(1) =   0
                l(2) =   0
                l(3) =   1
                l(4) =   1
                l(5) =   2
                l(6) =   2
     Q(r) pseudized with  6 coefficients,  rinner =    1.500   1.500   1.500
                                                       1.500   1.500

     PseudoPot. # 2 for Nd read from file:
     /home/pragov/projects/rrg-bengioy-ad/pragov/crystal_structure_design/SSSP/Nd.GGA-PBE-paw-v1.0.UPF
     MD5 check sum: 1d1e94942b6eb1cde76049b71bb7dcb0
     Pseudo is Projector augmented-wave + core cor, Zval = 14.0
     Generated using ATOMPAW code
     Shape of augmentation charge: BESSEL
     Using radial grid of 1105 points,  8 beta functions with:
                l(1) =   0
                l(2) =   0
                l(3) =   1
                l(4) =   1
                l(5) =   2
                l(6) =   2
                l(7) =   3
                l(8) =   3
     Q(r) pseudized with 0 coefficients

     PseudoPot. # 3 for S  read from file:
     /home/pragov/projects/rrg-bengioy-ad/pragov/crystal_structure_design/SSSP/s_pbe_v1.4.uspp.F.UPF
     MD5 check sum: 88d86576ff6df21479756cfb9bdac1df
     Pseudo is Ultrasoft + core correction, Zval =  6.0
     Generated by new atomic code, or converted to UPF format
     Using radial grid of  907 points,  6 beta functions with:
                l(1) =   0
                l(2) =   0
                l(3) =   1
                l(4) =   1
                l(5) =   2
                l(6) =   2
     Q(r) pseudized with  8 coefficients,  rinner =    1.300   1.300   1.300
                                                       1.300   1.300

     atomic species   valence    mass     pseudopotential
        Cs             9.00   132.90545     Cs( 1.00)
        Nd            14.00   144.24200     Nd( 1.00)
        S              6.00    32.06000     S ( 1.00)

     24 Sym. Ops., with inversion, found (12 have fractional translation)

                                    s                        frac. trans.

      isym =  1     identity

 cryst.   s( 1) = (     1          0          0      )
                  (     0          1          0      )
                  (     0          0          1      )

 cart.    s( 1) = (  1.0000000 -0.0000000  0.0000000 )
                  (  0.0000000  1.0000000  0.0000000 )
                  (  0.0000000  0.0000000  1.0000000 )

      isym =  2     180 deg rotation - cart. axis [0,0,1]

 cryst.   s( 2) = (    -1          0          0      )    f =( -0.0000000 )
                  (     0         -1          0      )       ( -0.0000000 )
                  (     0          0          1      )       (  0.5000000 )

 cart.    s( 2) = ( -1.0000000  0.0000000  0.0000000 )    f =(  0.0000000 )
                  (  0.0000000 -1.0000000  0.0000000 )       ( -0.0000000 )
                  (  0.0000000  0.0000000  1.0000000 )       (  1.8990180 )

[...]

      isym =  4     180 deg rotation - cart. axis [1,0,0]

[...]

      isym =  5      60 deg rotation - cryst. axis [0,0,1]

[...]

 cryst.   s( 8) = (    -1         -1          0      )
                  (     1          0          0      )
                  (     0          0          1      )

 cart.    s( 8) = ( -0.5000001  0.8660254  0.0000000 )
                  ( -0.8660255 -0.4999999  0.0000000 )
                  (  0.0000000  0.0000000  1.0000000 )

[...]

 cryst.   s( 9) = (     0         -1          0      )    f =( -0.0000000 )
                  (    -1          0          0      )       ( -0.0000000 )
                  (     0          0         -1      )       (  0.5000000 )

 cart.    s( 9) = (  0.4999999 -0.8660255  0.0000000 )    f =( -0.0000000 )
                  ( -0.8660255 -0.4999999  0.0000000 )       ( -0.0000000 )
                  (  0.0000000  0.0000000 -1.0000000 )       (  1.8990180 )

[...]

 cryst.   s(10) = (     1          1          0      )    f =(  0.0000000 )
                  (     0         -1          0      )       ( -0.0000010 )
                  (     0          0         -1      )       (  0.5000000 )

 cart.    s(10) = (  0.5000001  0.8660253  0.0000000 )    f =(  0.0000005 )
                  (  0.8660255 -0.5000001  0.0000000 )       ( -0.0000009 )
                  (  0.0000000  0.0000000 -1.0000000 )       (  1.8990180 )

[...]

 cryst.   s(11) = (    -1         -1          0      )
                  (     0          1          0      )
                  (     0          0         -1      )

 cart.    s(11) = ( -0.5000001 -0.8660253  0.0000000 )
                  ( -0.8660255  0.5000001  0.0000000 )
                  (  0.0000000  0.0000000 -1.0000000 )

      isym = 12     180 deg rotation - cryst. axis [1,1,0]

[...]

      isym = 13     inversion

[...]

      isym = 14     inv. 180 deg rotation - cart. axis [0,0,1]

[...]

      isym = 16     inv. 180 deg rotation - cart. axis [1,0,0]

[...]

      isym = 17     inv.  60 deg rotation - cryst. axis [0,0,1]

[...]

 cryst.   s(22) = (    -1         -1          0      )    f =( -0.0000000 )
                  (     0          1          0      )       ( -0.0000010 )
                  (     0          0          1      )       (  0.5000000 )

 cart.    s(22) = ( -0.5000001 -0.8660253  0.0000000 )    f =(  0.0000005 )
                  ( -0.8660255  0.5000001  0.0000000 )       ( -0.0000009 )
                  (  0.0000000  0.0000000  1.0000000 )       (  1.8990180 )

[...]

      isym = 24     inv. 180 deg rotation - cryst. axis [1,1,0]

 cryst.   s(24) = (     0         -1          0      )
                  (    -1          0          0      )
                  (     0          0          1      )

 cart.    s(24) = (  0.4999999 -0.8660255  0.0000000 )
                  ( -0.8660255 -0.4999999  0.0000000 )
                  (  0.0000000  0.0000000  1.0000000 )

   Cartesian axes

     site n.     atom                  positions (alat units)
         1           Cs  tau(   1) = (  -0.0000004   0.5773506   0.9495090  )
         2           Cs  tau(   2) = (   0.5000005   0.2886749   2.8485270  )
         3           Nd  tau(   3) = (   0.0000000   0.0000000   1.8990180  )
         4           Nd  tau(   4) = (   0.0000000   0.0000000   0.0000000  )
         5           S   tau(   5) = (  -0.0000004   0.5773506   3.4425703  )
         6           S   tau(   6) = (   0.5000005   0.2886749   0.3554658  )
         7           S   tau(   7) = (   0.5000005   0.2886749   1.5435522  )
         8           S   tau(   8) = (  -0.0000004   0.5773506   2.2544838  )

   Crystallographic axes

     site n.     atom                  positions (cryst. coord.)
         1           Cs  tau(   1) = (  0.3333330  0.6666670  0.2500000  )
         2           Cs  tau(   2) = (  0.6666670  0.3333330  0.7500000  )
         3           Nd  tau(   3) = (  0.0000000  0.0000000  0.5000000  )
         4           Nd  tau(   4) = (  0.0000000  0.0000000  0.0000000  )
         5           S   tau(   5) = (  0.3333330  0.6666670  0.9064080  )
         6           S   tau(   6) = (  0.6666670  0.3333330  0.0935920  )
         7           S   tau(   7) = (  0.6666670  0.3333330  0.4064080  )
         8           S   tau(   8) = (  0.3333330  0.6666670  0.5935920  )

     number of k points=     1  Methfessel-Paxton smearing, width (Ry)=  0.0010
                       cart. coord. in units 2pi/alat
        k(    1) = (   0.0000000   0.0000000   0.0000000), wk =   2.0000000

                       cryst. coord.
        k(    1) = (   0.0000000   0.0000000   0.0000000), wk =   2.0000000

     Initial potential from superposition of free atoms

     starting charge      69.9087, renormalised to      70.0000
     Starting wfcs are  106 randomized atomic wfcs
     Checking if some PAW data can be deallocated...

     Self-consistent Calculation

     iteration #  1     ecut=    30.00 Ry     beta= 0.70
     Davidson diagonalization with overlap

     ethr =  1.00E-02,  avg # of iterations =  1.0

     total energy              =   -1297.10026516 Ry
     estimated scf accuracy    <       0.86180060 Ry

[...]

     c_bands:  4 eigenvalues not converged
     ethr =  1.23E-03,  avg # of iterations = 20.0

[...]

     total energy              =   -1297.56239685 Ry
     estimated scf accuracy    <       0.00249911 Ry

     iteration # 96     ecut=    30.00 Ry     beta= 0.70
     Davidson diagonalization with overlap

     ethr =  4.93E-09,  avg # of iterations =  1.0

     End of self-consistent calculation

          k = 0.0000 0.0000 0.0000 (  2322 PWs)   bands (ev):

   -29.0116 -29.0116 -14.5014 -14.4998 -10.6125 -10.6097 -10.1775 -10.1771
   -10.1764 -10.1762  -4.7203  -4.5647  -4.1041  -3.8961  -1.2631  -1.1700
    -1.0020  -1.0020  -1.0004  -1.0003   3.9546   4.4228   4.8389   4.8394
     4.8490   4.8494   5.2919   5.9504   5.9507   5.9619   5.9622   5.9650
     8.2994   8.3960   8.3961   8.3974   8.3974   8.4090   8.5803   8.5805
     8.7282   8.7887

     occupation numbers
     1.0000   1.0000   1.0000   1.0000   1.0000   1.0000   1.0000   1.0000
     1.0000   1.0000   1.0000   1.0000   1.0000   1.0000   1.0000   1.0000
     1.0000   1.0000   1.0000   1.0000   1.0000   1.0000   1.0000   1.0000
     1.0000   1.0000   1.0000   1.0000   1.0000   1.0000   1.0000   1.0000
     1.0000   0.5461   0.5444   0.4612   0.4595  -0.0112  -0.0000  -0.0000
    -0.0000  -0.0000

     the Fermi energy is     8.3968 ev

!    total energy              =   -1297.56239741 Ry
     estimated scf accuracy    <       0.00000069 Ry
     smearing contrib. (-TS)   =      -0.00104238 Ry
     internal energy E=F+TS    =   -1297.56135503 Ry

     The total energy is F=E-TS. E is the sum of the following terms:
     one-electron contribution =    -123.15637300 Ry
     hartree contribution      =     102.04173699 Ry
     xc contribution           =    -122.69257557 Ry
     ewald contribution        =    -293.61343608 Ry
     one-center paw contrib.   =    -860.14070736 Ry
      -> PAW hartree energy AE =     163.01586914 Ry
      -> PAW hartree energy PS =    -162.15977846 Ry
      -> PAW xc energy AE      =    -886.13818725 Ry
      -> PAW xc energy PS      =      25.14138921 Ry
      -> total E_H with PAW    =     102.89782766 Ry
      -> total E_XC with PAW   =    -983.68937361 Ry

     convergence has been achieved in  96 iterations

     Forces acting on atoms (cartesian axes, Ry/au):

     atom    1 type  1   force =    -0.00000000   -0.00000000    0.00000000
     atom    2 type  1   force =     0.00000000    0.00000000    0.00000000
     atom    3 type  2   force =    -0.00000000   -0.00000000    0.00000000
     atom    4 type  2   force =     0.00000000    0.00000000    0.00000000
     atom    5 type  3   force =     0.00000000    0.00000000    0.10773210
     atom    6 type  3   force =     0.00000000    0.00000000   -0.10773210
     atom    7 type  3   force =     0.00000000    0.00000000    0.10773210
     atom    8 type  3   force =    -0.00000000   -0.00000000   -0.10773210
     The non-local contrib.  to forces
     atom    1 type  1   force =     0.00000000    0.00000000    0.00000000
     atom    2 type  1   force =    -0.00000000    0.00000000    0.00000000
     atom    3 type  2   force =     0.00000000    0.00000000    0.00000000
     atom    4 type  2   force =    -0.00000000    0.00000000    0.00000000
     atom    5 type  3   force =     0.00000000    0.00000000   -0.06066710
     atom    6 type  3   force =     0.00000000   -0.00000000    0.06066710
     atom    7 type  3   force =     0.00000000   -0.00000000   -0.06066710
     atom    8 type  3   force =    -0.00000000    0.00000000    0.06066710
     The ionic contribution  to forces
     atom    1 type  1   force =     0.00000329   -0.00000190   -0.00000000
     atom    2 type  1   force =    -0.00000329    0.00000190    0.00000000
     atom    3 type  2   force =    -0.00000000    0.00000000    0.00000000
     atom    4 type  2   force =    -0.00000000    0.00000000   -0.00000000
     atom    5 type  3   force =     0.00000766   -0.00000442   -6.22923739
     atom    6 type  3   force =    -0.00000766    0.00000442    6.22923739
     atom    7 type  3   force =    -0.00000766    0.00000442   -6.22923739
     atom    8 type  3   force =     0.00000766   -0.00000442    6.22923739
     The local contribution  to forces
     atom    1 type  1   force =    -0.00001120    0.00000842    0.00004671
     atom    2 type  1   force =     0.00000792   -0.00000506    0.00002095
     atom    3 type  2   force =    -0.00001361   -0.00000033   -0.00060669
     atom    4 type  2   force =     0.00001009   -0.00001161    0.00068429
     atom    5 type  3   force =    -0.00001433    0.00005572    6.39458659
     atom    6 type  3   force =     0.00000833   -0.00005083   -6.39402702
     atom    7 type  3   force =    -0.00005009    0.00003333    6.39370104
     atom    8 type  3   force =     0.00004967   -0.00001849   -6.39432042
     The core correction contribution to forces
     atom    1 type  1   force =    -0.00000053    0.00000010    0.00000299
     atom    2 type  1   force =     0.00000059   -0.00000013   -0.00000209
     atom    3 type  2   force =    -0.00000000   -0.00000000    0.00000001
     atom    4 type  2   force =     0.00000000   -0.00000000    0.00000001
     atom    5 type  3   force =     0.00000071    0.00000084    0.00360011
     atom    6 type  3   force =    -0.00000117   -0.00000090   -0.00360182
     atom    7 type  3   force =    -0.00000122    0.00000044    0.00360006
     atom    8 type  3   force =     0.00000153   -0.00000024   -0.00359709
     The Hubbard contrib.    to forces
     atom    1 type  1   force =     0.00000000    0.00000000    0.00000000
     atom    2 type  1   force =     0.00000000    0.00000000    0.00000000
     atom    3 type  2   force =     0.00000000    0.00000000    0.00000000
     atom    4 type  2   force =     0.00000000    0.00000000    0.00000000
     atom    5 type  3   force =     0.00000000    0.00000000    0.00000000
     atom    6 type  3   force =     0.00000000    0.00000000    0.00000000
     atom    7 type  3   force =     0.00000000    0.00000000    0.00000000
     atom    8 type  3   force =     0.00000000    0.00000000    0.00000000
     The SCF correction term to forces
     atom    1 type  1   force =     0.00000859   -0.00000299   -0.00001179
     atom    2 type  1   force =    -0.00000639    0.00000147   -0.00004747
     atom    3 type  2   force =     0.00000552    0.00000440    0.00087045
     atom    4 type  2   force =     0.00001274    0.00000863   -0.00086084
     atom    5 type  3   force =     0.00003680   -0.00001167   -0.00055000
     atom    6 type  3   force =    -0.00003483    0.00000946   -0.00005725
     atom    7 type  3   force =    -0.00001440   -0.00001627    0.00033121
     atom    8 type  3   force =     0.00001325    0.00001094    0.00032625

     Total force =     0.215464     Total SCF correction =     0.001424

     Computing stress (Cartesian axis) and pressure

          total   stress  (Ry/bohr**3)                   (kbar)     P=       46.35
   0.00085157  -0.00000000  -0.00000000          125.27       -0.00       -0.00
  -0.00000000   0.00085157  -0.00000000           -0.00      125.27       -0.00
   0.00000000  -0.00000000  -0.00075784            0.00       -0.00     -111.48

     kinetic stress (kbar)   5659.56     -0.00     -0.00
                               -0.00   5659.56     -0.00
                               -0.00     -0.00   5302.51

     local   stress (kbar)  -8019.51      0.65     -0.18
                                0.65  -8019.51      0.31
                               -0.18      0.31   3140.29

     nonloc. stress (kbar)   6299.95     -0.00      0.00
                               -0.00   6299.95      0.00
                                0.00      0.00   6258.10

     hartree stress (kbar)   4656.28     -0.14      0.04
                               -0.14   4656.28     -0.07
                                0.04     -0.07   -509.84

     exc-cor stress (kbar)   3514.58      0.00     -0.00
                                0.00   3514.58      0.00
                               -0.00      0.00   3513.40

     corecor stress (kbar)  -5488.13      0.00     -0.00
                                0.00  -5488.13      0.00
                               -0.00      0.00  -5482.02

     ewald   stress (kbar)  -6497.45     -0.01     -0.00
                               -0.01  -6497.46     -0.00
                               -0.00     -0.00 -12333.92

     hubbard stress (kbar)      0.00      0.00      0.00
                                0.00      0.00      0.00
                                0.00      0.00      0.00

     DFT-D   stress (kbar)      0.00      0.00      0.00
                                0.00      0.00      0.00
                                0.00      0.00      0.00

     XDM     stress (kbar)      0.00      0.00      0.00
                                0.00      0.00      0.00
                                0.00      0.00      0.00

     dft-nl  stress (kbar)      0.00      0.00      0.00
                                0.00      0.00      0.00
                                0.00      0.00      0.00

     TS-vdW  stress (kbar)      0.00      0.00      0.00
                                0.00      0.00      0.00
                                0.00      0.00      0.00

[...]

                                0.00      0.00      0.00

     Writing all to output data dir new_calculations/myprefix.save/

     General routines

     Parallel routines

     PAW routines

   This run was terminated on:   6:10:27  20May2023

   JOB DONE.