     Program PWSCF v.7.0 starts on 21May2023 at  7:32:40

     Reading input from espresso_9159.pwi
Warning: card &CELL ignored
Warning: card / ignored

     Current dimensions of program PWSCF are:
     Max number of different atomic species (ntypx) = 10
     Max number of k-points (npk) =  40000
     Max angular momentum in pseudopotentials (lmaxx) =  4
     file K.pbe-spn-kjpaw_psl.1.0.0.UPF: wavefunction(s)  3S renormalized
     file O.pbe-n-kjpaw_psl.0.1.UPF: wavefunction(s)  2P renormalized

     gamma-point specific algorithms are used
     Message from routine setup:
     using ibrav=0 with symmetry is DISCOURAGED, use correct ibrav instead

     Subspace diagonalization in iterative solution of the eigenvalue problem:
     a serial algorithm will be used

     Using Slab Decomposition

     bravais-lattice index     =            0
     lattice parameter (alat)  =       9.8344  a.u.
     unit-cell volume          =    1248.8756 (a.u.)^3
     number of atoms/cell      =           12
     number of atomic types    =            4
     number of electrons       =        68.00
     number of Kohn-Sham states=           41
     kinetic-energy cutoff     =      30.0000  Ry
     charge density cutoff     =     240.0000  Ry
     scf convergence threshold =      1.0E-06
     mixing beta               =       0.7000
     number of iterations used =            8  plain     mixing
     Exchange-correlation= SLA  PW   PBX  PBC
                           (   1   4   3   4   0   0   0)

     celldm(1)=   9.834439  celldm(2)=   0.000000  celldm(3)=   0.000000
     celldm(4)=   0.000000  celldm(5)=   0.000000  celldm(6)=   0.000000

     crystal axes: (cart. coord. in units of alat)
               a(1) = (   1.000000   0.000000   0.000000 )
               a(2) = (  -0.025276   1.124287   0.000000 )
               a(3) = (  -0.403601  -0.437210   1.167866 )

     reciprocal axes: (cart. coord. in units 2 pi/alat)
               b(1) = (  1.000000  0.022482  0.354005 )
               b(2) = (  0.000000  0.889453  0.332981 )
               b(3) = (  0.000000  0.000000  0.856262 )

     PseudoPot. # 1 for K  read from file:
     /home/pragov/projects/rrg-bengioy-ad/pragov/crystal_structure_design/SSSP/K.pbe-spn-kjpaw_psl.1.0.0.UPF
     MD5 check sum: 7d58810084cac21f60fbe77ea2b688fd
     Pseudo is Projector augmented-wave + core cor, Zval =  9.0
     Generated using "atomic" code by A. Dal Corso  v.5.1
     Shape of augmentation charge: PSQ
     Using radial grid of 1165 points,  6 beta functions with:
                l(1) =   0
                l(2) =   0
                l(3) =   1
                l(4) =   1
                l(5) =   2
                l(6) =   2
     Q(r) pseudized with 0 coefficients

     PseudoPot. # 2 for H  read from file:
     /home/pragov/projects/rrg-bengioy-ad/pragov/crystal_structure_design/SSSP/H.pbe-rrkjus_psl.1.0.0.UPF
     MD5 check sum: f52b6d4d1c606e5624b1dc7b2218f220
     Pseudo is Ultrasoft, Zval =  1.0
     Generated using "atomic" code by A. Dal Corso  v.5.1
     Using radial grid of  929 points,  2 beta functions with:
                l(1) =   0
                l(2) =   0
     Q(r) pseudized with 0 coefficients

     PseudoPot. # 3 for Se read from file:
     /home/pragov/projects/rrg-bengioy-ad/pragov/crystal_structure_design/SSSP/Se_pbe_v1.uspp.F.UPF
     MD5 check sum: 1b3568f3a8ae88f9a2a0ad0698632c85
     Pseudo is Ultrasoft + core correction, Zval =  6.0
     Generated by new atomic code, or converted to UPF format
     Using radial grid of  877 points,  6 beta functions with:
                l(1) =   0
                l(2) =   0
                l(3) =   1
                l(4) =   1
                l(5) =   2
                l(6) =   2
     Q(r) pseudized with  8 coefficients,  rinner =    1.300   1.300   1.300
                                                       1.300   1.300

     PseudoPot. # 4 for O  read from file:
     /home/pragov/projects/rrg-bengioy-ad/pragov/crystal_structure_design/SSSP/O.pbe-n-kjpaw_psl.0.1.UPF
     MD5 check sum: 0234752ac141de4415c5fc33072bef88
     Pseudo is Projector augmented-wave + core cor, Zval =  6.0
     Generated using "atomic" code by A. Dal Corso  v.5.0.99 svn rev. 10869
     Shape of augmentation charge: BESSEL
     Using radial grid of 1095 points,  4 beta functions with:
                l(1) =   0
                l(2) =   0
                l(3) =   1
                l(4) =   1
     Q(r) pseudized with 0 coefficients

     atomic species   valence    mass     pseudopotential
        K              9.00    39.09830     K ( 1.00)
        H              1.00     1.00800     H ( 1.00)
        Se             6.00    78.97100     Se( 1.00)
        O              6.00    15.99900     O ( 1.00)

      2 Sym. Ops., with inversion, found

                                    s                        frac. trans.

      isym =  1     identity

 cryst.   s( 1) = (     1          0          0      )
                  (     0          1          0      )
                  (     0          0          1      )

 cart.    s( 1) = (  1.0000000 -0.0000000 -0.0000000 )
                  (  0.0000000  1.0000000  0.0000000 )
                  (  0.0000000  0.0000000  1.0000000 )

      isym =  2     inversion

 cryst.   s( 2) = (    -1          0          0      )
                  (     0         -1          0      )
                  (     0          0         -1      )

 cart.    s( 2) = ( -1.0000000  0.0000000  0.0000000 )
                  (  0.0000000 -1.0000000 -0.0000000 )
                  (  0.0000000  0.0000000 -1.0000000 )

   Cartesian axes

     site n.     atom                  positions (alat units)
         1           K   tau(   1) = (   0.2554462   0.6244058   0.2638070  )
         2           K   tau(   2) = (   0.3156766   0.0626717   0.9040594  )
         3           H   tau(   3) = (   0.2363243   0.0927774   0.0553662  )
         4           H   tau(   4) = (   0.3347985   0.5943001   1.1125002  )
         5           Se  tau(   5) = (   0.8141280   0.0598994   0.3760016  )
         6           Se  tau(   6) = (  -0.2430052   0.6271781   0.7918648  )
         7           O   tau(   7) = (  -0.1267532  -0.2713632   1.0472936  )
         8           O   tau(   8) = (   0.6978760   0.9584407   0.1205729  )
         9           O   tau(   9) = (   0.7512720   0.3533306   0.2531024  )
        10           O   tau(  10) = (  -0.1801492   0.3337470   0.9147641  )
        11           O   tau(  11) = (   0.1423447   0.0342773   0.3667568  )
        12           O   tau(  12) = (   0.4287781   0.6528002   0.8011097  )

   Crystallographic axes

     site n.     atom                  positions (cryst. coord.)
         1           K   tau(   1) = (  0.3628730  0.6432220  0.2258880  )
         2           K   tau(   2) = (  0.6371270  0.3567780  0.7741120  )
         3           H   tau(   3) = (  0.2580100  0.1009570  0.0474080  )
         4           H   tau(   4) = (  0.7419900  0.8990430  0.9525920  )
         5           Se  tau(   5) = (  0.9485810  0.1784790  0.3219560  )
         6           Se  tau(   6) = (  0.0514190  0.8215210  0.6780440  )
         7           O   tau(   7) = (  0.2378930  0.1073640  0.8967580  )
         8           O   tau(   8) = (  0.7621070  0.8926360  0.1032420  )
         9           O   tau(   9) = (  0.8488150  0.3985490  0.2167220  )
        10           O   tau(  10) = (  0.1511850  0.6014510  0.7832780  )
        11           O   tau(  11) = (  0.2729490  0.1526110  0.3140400  )
        12           O   tau(  12) = (  0.7270510  0.8473890  0.6859600  )

     number of k points=     1  Methfessel-Paxton smearing, width (Ry)=  0.0010
                       cart. coord. in units 2pi/alat
        k(    1) = (   0.0000000   0.0000000   0.0000000), wk =   2.0000000

                       cryst. coord.
        k(    1) = (   0.0000000   0.0000000   0.0000000), wk =   2.0000000

     Check: negative core charge=   -0.000009

     Initial potential from superposition of free atoms

     starting charge      67.9622, renormalised to      68.0000
     Starting wfcs are   50 randomized atomic wfcs
     Checking if some PAW data can be deallocated...

     Self-consistent Calculation

     iteration #  1     ecut=    30.00 Ry     beta= 0.70
     Davidson diagonalization with overlap

     ethr =  1.00E-02,  avg # of iterations =  2.0

     total energy              =    -564.07240592 Ry
     estimated scf accuracy    <       2.61959264 Ry

[...]

     total energy              =    -565.39235812 Ry
     estimated scf accuracy    <       0.00000143 Ry

     iteration #  9     ecut=    30.00 Ry     beta= 0.70
     Davidson diagonalization with overlap

     ethr =  2.10E-09,  avg # of iterations =  2.0

     End of self-consistent calculation

          k = 0.0000 0.0000 0.0000 (  1734 PWs)   bands (ev):

   -25.0390 -25.0148 -17.3315 -16.9266 -15.4604 -15.1977 -14.3888 -14.3820
    -8.6810  -8.5751  -8.5236  -8.5056  -8.4951  -8.4712  -7.8741  -7.4352
    -3.8265  -3.2591  -2.1871  -2.0043  -1.8319  -0.9670  -0.5569  -0.4046
     0.8274   0.9953   1.3572   1.7122   1.7812   1.9599   1.9874   2.1018
     2.1578   2.5660   7.1525   7.4600   8.0562   8.8337   9.0020   9.6252
     9.7548

     occupation numbers
     1.0000   1.0000   1.0000   1.0000   1.0000   1.0000   1.0000   1.0000
     1.0000   1.0000   1.0000   1.0000   1.0000   1.0000   1.0000   1.0000
     1.0000   1.0000   1.0000   1.0000   1.0000   1.0000   1.0000   1.0000
     1.0000   1.0000   1.0000   1.0000   1.0000   1.0000   1.0000   1.0000
     1.0000   1.0000  -0.0000  -0.0000  -0.0000  -0.0000  -0.0000  -0.0000
    -0.0000

     the Fermi energy is     5.5076 ev

!    total energy              =    -565.39235849 Ry
     estimated scf accuracy    <       0.00000020 Ry
     smearing contrib. (-TS)   =       0.00000000 Ry
     internal energy E=F+TS    =    -565.39235849 Ry

     The total energy is F=E-TS. E is the sum of the following terms:
     one-electron contribution =    -136.69960115 Ry
     hartree contribution      =     101.37608009 Ry
     xc contribution           =    -127.93360723 Ry
     ewald contribution        =    -234.12359263 Ry
     one-center paw contrib.   =    -168.01163757 Ry
      -> PAW hartree energy AE =     253.41372319 Ry
      -> PAW hartree energy PS =    -252.39305348 Ry
      -> PAW xc energy AE      =    -235.52479819 Ry
      -> PAW xc energy PS      =      66.49249091 Ry
      -> total E_H with PAW    =     102.39674980 Ry
      -> total E_XC with PAW   =    -296.96591451 Ry

     convergence has been achieved in   9 iterations

     Forces acting on atoms (cartesian axes, Ry/au):

     atom    1 type  1   force =     0.00198346    0.00338878   -0.00358025
     atom    2 type  1   force =    -0.00198346   -0.00338878    0.00358025
     atom    3 type  2   force =    -0.00210506   -0.00727201    0.00348418
     atom    4 type  2   force =     0.00210506    0.00727201   -0.00348418
     atom    5 type  3   force =    -0.01588416    0.01853353   -0.01768825
     atom    6 type  3   force =     0.01588416   -0.01853353    0.01768825
     atom    7 type  4   force =     0.00364250    0.00751213    0.00348291
     atom    8 type  4   force =    -0.00364250   -0.00751213   -0.00348291
     atom    9 type  4   force =     0.00598583   -0.00500917    0.01244708
     atom   10 type  4   force =    -0.00598583    0.00500917   -0.01244708
     atom   11 type  4   force =     0.00805719   -0.00919925    0.02720541
     atom   12 type  4   force =    -0.00805719    0.00919925   -0.02720541
     The non-local contrib.  to forces
     atom    1 type  1   force =    -0.00048034   -0.01791129    0.02451245
     atom    2 type  1   force =     0.00048034    0.01791129   -0.02451245
     atom    3 type  2   force =     0.01730800    0.03205803   -0.08456395
     atom    4 type  2   force =    -0.01730800   -0.03205803    0.08456395
     atom    5 type  3   force =     0.25162328    0.12097268   -0.62433830
     atom    6 type  3   force =    -0.25162328   -0.12097268    0.62433830
     atom    7 type  4   force =    -0.71128233   -1.46026655    0.54530606
     atom    8 type  4   force =     0.71128233    1.46026655   -0.54530606
     atom    9 type  4   force =     0.36570107   -1.53870490    0.54296419
     atom   10 type  4   force =    -0.36570107    1.53870490   -0.54296419
     atom   11 type  4   force =    -1.40742514    0.20373936   -0.21724088
     atom   12 type  4   force =     1.40742514   -0.20373936    0.21724088
     The ionic contribution  to forces
     atom    1 type  1   force =    -0.16492050    0.01514385    2.09365084
     atom    2 type  1   force =     0.16492050   -0.01514385   -2.09365084
     atom    3 type  2   force =    -0.17617680   -0.77756329    2.19903313
     atom    4 type  2   force =     0.17617680    0.77756329   -2.19903313
     atom    5 type  3   force =    -3.17502691   -2.03923280    6.12795124
     atom    6 type  3   force =     3.17502691    2.03923280   -6.12795124
     atom    7 type  4   force =     2.29462974    4.60785265   -1.24328492
     atom    8 type  4   force =    -2.29462974   -4.60785265    1.24328492
     atom    9 type  4   force =    -1.61132845    5.37584253   -0.40064823
     atom   10 type  4   force =     1.61132845   -5.37584253    0.40064823
     atom   11 type  4   force =     5.43396469   -0.82292911    2.83333566
     atom   12 type  4   force =    -5.43396469    0.82292911   -2.83333566
     The local contribution  to forces
     atom    1 type  1   force =     0.16706133    0.00544602   -2.12064309
     atom    2 type  1   force =    -0.16717439   -0.00546583    2.12059475
     atom    3 type  2   force =     0.15675373    0.73819725   -2.11093527
     atom    4 type  2   force =    -0.15674903   -0.73818431    2.11092290
     atom    5 type  3   force =     2.93849003    1.94982167   -5.60105552
     atom    6 type  3   force =    -2.93848058   -1.94976577    5.60105763
     atom    7 type  4   force =    -1.58691045   -3.15511660    0.70678899
     atom    8 type  4   force =     1.58689178    3.15509991   -0.70679355
     atom    9 type  4   force =     1.25519493   -3.85740657   -0.12504647
     atom   10 type  4   force =    -1.25521473    3.85740849    0.12503438
     atom   11 type  4   force =    -4.03167404    0.61225391   -2.59164940
     atom   12 type  4   force =     4.03172180   -0.61224012    2.59163791
     The core correction contribution to forces
     atom    1 type  1   force =     0.00011597    0.00082779   -0.00096571
     atom    2 type  1   force =    -0.00011849   -0.00082708    0.00096490
     atom    3 type  2   force =     0.00000000    0.00000000    0.00000000
     atom    4 type  2   force =     0.00000000    0.00000000    0.00000000
     atom    5 type  3   force =    -0.03100982   -0.01295130    0.07963461
     atom    6 type  3   force =     0.03100562    0.01295063   -0.07963299
     atom    7 type  4   force =     0.00717634    0.01473058   -0.00515738
     atom    8 type  4   force =    -0.00717659   -0.01473118    0.00515691
     atom    9 type  4   force =    -0.00365662    0.01514653   -0.00502583
     atom   10 type  4   force =     0.00365650   -0.01514670    0.00502584
     atom   11 type  4   force =     0.01338956   -0.00228678    0.00259189
     atom   12 type  4   force =    -0.01338963    0.00228668   -0.00259192
     The Hubbard contrib.    to forces
     atom    1 type  1   force =     0.00000000    0.00000000    0.00000000
     atom    2 type  1   force =     0.00000000    0.00000000    0.00000000
     atom    3 type  2   force =     0.00000000    0.00000000    0.00000000
     atom    4 type  2   force =     0.00000000    0.00000000    0.00000000
     atom    5 type  3   force =     0.00000000    0.00000000    0.00000000
     atom    6 type  3   force =     0.00000000    0.00000000    0.00000000
     atom    7 type  4   force =     0.00000000    0.00000000    0.00000000
     atom    8 type  4   force =     0.00000000    0.00000000    0.00000000
     atom    9 type  4   force =     0.00000000    0.00000000    0.00000000
     atom   10 type  4   force =     0.00000000    0.00000000    0.00000000
     atom   11 type  4   force =     0.00000000    0.00000000    0.00000000
     atom   12 type  4   force =     0.00000000    0.00000000    0.00000000
     The SCF correction term to forces
     atom    1 type  1   force =     0.00018567   -0.00011197   -0.00014851
     atom    2 type  1   force =    -0.00011274    0.00014232    0.00017012
     atom    3 type  2   force =     0.00001111    0.00003758   -0.00005316
     atom    4 type  2   force =    -0.00001361   -0.00004736    0.00005867
     atom    5 type  3   force =     0.00002616   -0.00008182    0.00012197
     atom    6 type  3   force =    -0.00005760    0.00001639   -0.00012121
     atom    7 type  4   force =     0.00002288    0.00029692   -0.00018083
     atom    8 type  4   force =    -0.00001660   -0.00030990    0.00016388
     atom    9 type  4   force =     0.00007378    0.00011054    0.00020327
     atom   10 type  4   force =    -0.00005610   -0.00011771   -0.00019150
     atom   11 type  4   force =    -0.00019852    0.00001910    0.00016876
     atom   12 type  4   force =     0.00014955   -0.00004131   -0.00015601

     Total force =     0.066238     Total SCF correction =     0.000810

     Computing stress (Cartesian axis) and pressure

          total   stress  (Ry/bohr**3)                   (kbar)     P=     -237.82
  -0.00183505   0.00002219  -0.00001877         -269.94        3.26       -2.76
   0.00002219  -0.00150423  -0.00004575            3.26     -221.28       -6.73
  -0.00001877  -0.00004575  -0.00151071           -2.76       -6.73     -222.23

     kinetic stress (kbar)  12780.50     13.30    -38.63
                               13.30  12719.21     70.08
                              -38.63     70.08  12700.13

     local   stress (kbar)  -9016.19    657.19  -1060.29
                              657.19  -9484.10   -447.04
                            -1060.29   -447.04  -7260.90

     nonloc. stress (kbar)   3785.56     -7.90    -14.52
                               -7.90   3782.16    -29.46
                              -14.52    -29.46   3763.98

     hartree stress (kbar)   4231.03   -228.92    403.59
                             -228.92   4277.27    279.45
                              403.59    279.45   3432.79

     exc-cor stress (kbar)   3892.96     -0.88     -0.51
                               -0.88   3894.32     -3.65
                               -0.51     -3.65   3896.12

     corecor stress (kbar)  -6844.78      1.26      2.87
                                1.26  -6844.50      5.89
                                2.87      5.89  -6841.60

     ewald   stress (kbar)  -9099.04   -430.78    704.73
                             -430.78  -8565.64    118.00
                              704.73    118.00  -9912.74

     hubbard stress (kbar)      0.00      0.00      0.00
                                0.00      0.00      0.00
                                0.00      0.00      0.00

     DFT-D   stress (kbar)      0.00      0.00      0.00
                                0.00      0.00      0.00
                                0.00      0.00      0.00

     XDM     stress (kbar)      0.00      0.00      0.00
                                0.00      0.00      0.00
                                0.00      0.00      0.00

     dft-nl  stress (kbar)      0.00      0.00      0.00
                                0.00      0.00      0.00
                                0.00      0.00      0.00

     TS-vdW  stress (kbar)      0.00      0.00      0.00
                                0.00      0.00      0.00
                                0.00      0.00      0.00

[...]

                                0.00      0.00      0.00

     Writing all to output data dir new_calculations/myprefix.save/

     General routines

     Parallel routines

     PAW routines

   This run was terminated on:   7:32:54  21May2023

   JOB DONE.