     Program PWSCF v.7.0 starts on 20May2023 at 13:50:27

     Reading input from espresso_12321.pwi
Warning: card &CELL ignored
Warning: card / ignored

     Current dimensions of program PWSCF are:
     Max number of different atomic species (ntypx) = 10
     Max number of k-points (npk) =  40000
     Max angular momentum in pseudopotentials (lmaxx) =  4

     gamma-point specific algorithms are used

     Subspace diagonalization in iterative solution of the eigenvalue problem:
     a serial algorithm will be used

     Using Slab Decomposition

     bravais-lattice index     =            0
     lattice parameter (alat)  =      10.9742  a.u.
     unit-cell volume          =    1012.1351 (a.u.)^3
     number of atoms/cell      =           11
     number of atomic types    =            3
     number of electrons       =        71.00
     number of Kohn-Sham states=           43
     kinetic-energy cutoff     =      30.0000  Ry
     charge density cutoff     =     240.0000  Ry
     scf convergence threshold =      1.0E-06
     mixing beta               =       0.7000
     number of iterations used =            8  plain     mixing
     Exchange-correlation=  SLA  PW   PBX  PBC
                           (   1   4   3   4   0   0   0)

     celldm(1)=  10.974239  celldm(2)=   0.000000  celldm(3)=   0.000000
     celldm(4)=   0.000000  celldm(5)=   0.000000  celldm(6)=   0.000000

     crystal axes: (cart. coord. in units of alat)
               a(1) = (   1.000000   0.000000   0.000000 )
               a(2) = (   0.442108   0.896962   0.000000 )
               a(3) = (   0.442108   0.274982   0.853771 )

     reciprocal axes: (cart. coord. in units 2 pi/alat)
               b(1) = (  1.000000 -0.492896 -0.359079 )
               b(2) = (  0.000000  1.114875 -0.359079 )
               b(3) = (  0.000000  0.000000  1.171274 )

     PseudoPot. # 1 for Li read from file:
     /home/pragov/projects/rrg-bengioy-ad/pragov/crystal_structure_design/SSSP/li_pbe_v1.4.uspp.F.UPF
     MD5 check sum: e912e257baa3777c20ea3d68f190483c
     Pseudo is Ultrasoft, Zval =  3.0
     Generated by new atomic code, or converted to UPF format
     Using radial grid of  751 points,  5 beta functions with:
                l(1) =   0
                l(2) =   0
                l(3) =   0
                l(4) =   1
                l(5) =   1
     Q(r) pseudized with 10 coefficients,  rinner =    1.150   1.150   1.150

     PseudoPot. # 2 for V  read from file:
     /home/pragov/projects/rrg-bengioy-ad/pragov/crystal_structure_design/SSSP/v_pbe_v1.4.uspp.F.UPF
     MD5 check sum: 22b79981416ebb76fdaf5b1b8640f6fb
     Pseudo is Ultrasoft + core correction, Zval = 13.0
     Generated by new atomic code, or converted to UPF format
     Using radial grid of  853 points,  6 beta functions with:
                l(1) =   0
                l(2) =   0
                l(3) =   1
                l(4) =   1
                l(5) =   2
                l(6) =   2
     Q(r) pseudized with  8 coefficients,  rinner =    1.100   1.100   1.100
                                                       1.100   1.100

     PseudoPot. # 3 for F  read from file:
     /home/pragov/projects/rrg-bengioy-ad/pragov/crystal_structure_design/SSSP/f_pbe_v1.4.uspp.F.UPF
     MD5 check sum: 4c38b6a325caf53ec0e86aed9459de46
     Pseudo is Ultrasoft, Zval =  7.0
     Generated by new atomic code, or converted to UPF format
     Using radial grid of  799 points,  4 beta functions with:
                l(1) =   0
                l(2) =   0
                l(3) =   1
                l(4) =   1
     Q(r) pseudized with  8 coefficients,  rinner =    0.950   0.950   0.950

     atomic species   valence    mass     pseudopotential
        Li             3.00     6.94000     Li( 1.00)
        V             13.00    50.94150     V ( 1.00)
        F              7.00    18.99840     F ( 1.00)

     No symmetry found

                                    s                        frac. trans.

      isym =  1     identity

 cryst.   s( 1) = (     1          0          0      )
                  (     0          1          0      )
                  (     0          0          1      )

 cart.    s( 1) = (  1.0000000 -0.0000000 -0.0000000 )
                  (  0.0000000  1.0000000 -0.0000000 )
                  (  0.0000000  0.0000000  1.0000000 )

   Cartesian axes

     site n.     atom                  positions (alat units)
         1           Li  tau(   1) = (   0.9366111   0.5825527   0.7600884  )
         2           Li  tau(   2) = (   1.2232168   0.4412861   0.3214807  )
         3           Li  tau(   3) = (   0.9366111   0.9020822   0.3214807  )
         4           V   tau(   4) = (   0.0032616   0.0020286   0.0014779  )
         5           F   tau(   5) = (   0.6626697   0.4121669   0.6668806  )
         6           F   tau(   6) = (   0.9756737   0.2578886   0.1878740  )
         7           F   tau(   7) = (   1.2089606   0.4114074   0.6574822  )
         8           F   tau(   8) = (   0.4660535   0.2898756   0.2111768  )
         9           F   tau(   9) = (   0.9035083   0.9025046   0.6574822  )
        10           F   tau(  10) = (   1.2089606   0.7519485   0.1900324  )
        11           F   tau(  11) = (   0.6626697   0.7611271   0.1878740  )

   Crystallographic axes

     site n.     atom                  positions (cryst. coord.)
         1           Li  tau(   1) = (  0.3765420  0.3765420  0.8902720  )
         2           Li  tau(   2) = (  0.8902720  0.3765420  0.3765420  )
         3           Li  tau(   3) = (  0.3765420  0.8902720  0.3765420  )
         4           V   tau(   4) = (  0.0017310  0.0017310  0.0017310  )
         5           F   tau(   5) = (  0.2200520  0.2200520  0.7811000  )
         6           F   tau(   6) = (  0.7811000  0.2200520  0.2200520  )
         7           F   tau(   7) = (  0.7700920  0.2225800  0.7700920  )
         8           F   tau(   8) = (  0.2473460  0.2473460  0.2473460  )
         9           F   tau(   9) = (  0.2225800  0.7700920  0.7700920  )
        10           F   tau(  10) = (  0.7700920  0.7700920  0.2225800  )
        11           F   tau(  11) = (  0.2200520  0.7811000  0.2200520  )

     number of k points=     1  Methfessel-Paxton smearing, width (Ry)=  0.0010
                       cart. coord. in units 2pi/alat
        k(    1) = (   0.0000000   0.0000000   0.0000000), wk =   2.0000000

                       cryst. coord.
        k(    1) = (   0.0000000   0.0000000   0.0000000), wk =   2.0000000

     Check: negative core charge=   -0.000002

     Initial potential from superposition of free atoms

     starting charge      69.6465, renormalised to      71.0000

     negative rho (up, down):  9.131E-04 0.000E+00
     Starting wfcs are   53 randomized atomic wfcs

     Self-consistent Calculation

     iteration #  1     ecut=    30.00 Ry     beta= 0.70
     Davidson diagonalization with overlap

     ethr =  1.00E-02,  avg # of iterations =  2.0

     negative rho (up, down):  3.264E-03 0.000E+00

     total energy              =    -527.16528523 Ry
     estimated scf accuracy    <       3.95471407 Ry

[...]

     ethr =  1.46E-05,  avg # of iterations =  1.0

[...]

     ethr =  1.46E-05,  avg # of iterations =  1.0
     Minimization algorithm failed to find Fermi energy: reverting to bisection
     Possible cause: smearing is larger than the electronic band-gap.

[...]

     total energy              =    -529.82466952 Ry
     estimated scf accuracy    <       0.00002525 Ry

     iteration # 24     ecut=    30.00 Ry     beta= 0.70
     Davidson diagonalization with overlap

     ethr =  2.55E-08,  avg # of iterations =  1.0
     Minimization algorithm failed to find Fermi energy: reverting to bisection
     Possible cause: smearing is larger than the electronic band-gap.

[...]

     End of self-consistent calculation

          k = 0.0000 0.0000 0.0000 (  1406 PWs)   bands (ev):

   -64.5716 -42.1834 -42.1674 -42.1674 -38.4131 -38.4131 -38.3188 -21.7633
   -21.3801 -21.3799 -21.2689 -21.2686 -21.2101 -19.5275  -4.6649  -4.3599
    -4.3597  -4.0361  -4.0361  -3.9826  -3.6339  -3.6339  -3.4040  -2.6396
    -2.3540  -2.3539  -2.2661  -2.2659  -2.1660  -1.7417  -1.6911  -1.6910
    -1.1157  -1.1157  -0.4928   2.1035   2.1045   2.1046   4.4962   4.4963
     6.2220   9.8603  11.2808

     occupation numbers
     1.0000   1.0000   1.0000   1.0000   1.0000   1.0000   1.0000   1.0000
     1.0000   1.0000   1.0000   1.0000   1.0000   1.0000   1.0000   1.0000
     1.0000   1.0000   1.0000   1.0000   1.0000   1.0000   1.0000   1.0000
     1.0000   1.0000   1.0000   1.0000   1.0000   1.0000   1.0000   1.0000
     1.0000   1.0000   1.0000   0.1973   0.1525   0.1502  -0.0000  -0.0000
    -0.0000  -0.0000  -0.0000

     the Fermi energy is     2.0982 ev

!    total energy              =    -529.82466960 Ry
     estimated scf accuracy    <       0.00000072 Ry
     smearing contrib. (-TS)   =      -0.00043044 Ry
     internal energy E=F+TS    =    -529.82423916 Ry

     The total energy is F=E-TS. E is the sum of the following terms:
     one-electron contribution =    -412.79347344 Ry
     hartree contribution      =     229.48475402 Ry
     xc contribution           =     -95.47169790 Ry
     ewald contribution        =    -251.04382184 Ry

     convergence has been achieved in  24 iterations

     negative rho (up, down):  1.254E-03 0.000E+00

     Forces acting on atoms (cartesian axes, Ry/au):

     atom    1 type  1   force =     0.00138768    0.00086425    0.00780827
     atom    2 type  1   force =     0.00750558   -0.00217166   -0.00157477
     atom    3 type  1   force =     0.00134839    0.00769883   -0.00159304
     atom    4 type  2   force =     0.00432979    0.00276187    0.00190631
     atom    5 type  3   force =    -0.01133865   -0.00705341    0.02459234
     atom    6 type  3   force =     0.01400001   -0.01948703   -0.01422977
     atom    7 type  3   force =     0.00309188   -0.00876023    0.00486483
     atom    8 type  3   force =    -0.00583793   -0.00362167   -0.00265798
     atom    9 type  3   force =    -0.00651345    0.00672168    0.00492759
     atom   10 type  3   force =     0.00318428    0.00197624   -0.00993952
     atom   11 type  3   force =    -0.01115759    0.02107113   -0.01410427
     The non-local contrib.  to forces
     atom    1 type  1   force =     0.01802571    0.01121984   -0.11289183
     atom    2 type  1   force =    -0.08533722    0.06216137    0.04527437
     atom    3 type  1   force =     0.01803176   -0.10402444    0.04528377
     atom    4 type  2   force =    -0.01052998   -0.00652586   -0.00478914
     atom    5 type  3   force =    -0.48331341   -0.30065141    0.80477072
     atom    6 type  3   force =     0.39067616   -0.73140189   -0.53280467
     atom    7 type  3   force =     0.37078025   -0.16376039    0.29505635
     atom    8 type  3   force =    -0.33439303   -0.20798362   -0.15152865
     atom    9 type  3   force =     0.01702124    0.40503177    0.29512381
     atom   10 type  3   force =     0.37087056    0.23064906   -0.24642327
     atom   11 type  3   force =    -0.48316381    0.67367921   -0.53270613
     The ionic contribution  to forces
     atom    1 type  1   force =     0.74412296    0.46282910   -2.10509961
     atom    2 type  1   force =    -1.34102027    1.49058715    1.08590573
     atom    3 type  1   force =     0.74412314   -1.86184483    1.08590573
     atom    4 type  2   force =    -2.11365875   -1.31465206   -0.95773585
     atom    5 type  3   force =     9.18282456    5.71152710  -10.72721866
     atom    6 type  3   force =    -3.52821550   11.97674273    8.72515826
     atom    7 type  3   force =    -8.30611655    4.68811541   -6.93753034
     atom    8 type  3   force =     3.20837597    1.99554355    1.45377044
     atom    9 type  3   force =     0.53285565   -9.52292303   -6.93753033
     atom   10 type  3   force =    -8.30611609   -5.16623255    6.58921638
     atom   11 type  3   force =     9.18282488   -8.45969256    8.72515825
     The local contribution  to forces
     atom    1 type  1   force =    -0.76069318   -0.47318348    2.22580692
     atom    2 type  1   force =     1.43387930   -1.55493683   -1.13269772
     atom    3 type  1   force =    -0.76087933    1.97353227   -1.13279077
     atom    4 type  2   force =     2.13241152    1.32613168    0.96635993
     atom    5 type  3   force =    -8.71078555   -5.41790465    9.94691687
     atom    6 type  3   force =     3.15159370  -11.26483852   -8.20644877
     atom    7 type  3   force =     7.93851928   -4.53329272    6.64735444
     atom    8 type  3   force =    -2.87983031   -1.79120506   -1.30486245
     atom    9 type  3   force =    -0.55645808    9.12459463    6.64721081
     atom   10 type  3   force =     7.93830123    4.93748480   -6.35260178
     atom   11 type  3   force =    -8.71089460    7.80719492   -8.20651851
     The core correction contribution to forces
     atom    1 type  1   force =     0.00000000    0.00000000    0.00000000
     atom    2 type  1   force =     0.00000000    0.00000000    0.00000000
     atom    3 type  1   force =     0.00000000    0.00000000    0.00000000
     atom    4 type  2   force =    -0.00399496   -0.00248841   -0.00180720
     atom    5 type  3   force =     0.00000000    0.00000000    0.00000000
     atom    6 type  3   force =     0.00000000    0.00000000    0.00000000
     atom    7 type  3   force =     0.00000000    0.00000000    0.00000000
     atom    8 type  3   force =     0.00000000    0.00000000    0.00000000
     atom    9 type  3   force =     0.00000000    0.00000000    0.00000000
     atom   10 type  3   force =     0.00000000    0.00000000    0.00000000
     atom   11 type  3   force =     0.00000000    0.00000000    0.00000000
     The Hubbard contrib.    to forces
     atom    1 type  1   force =     0.00000000    0.00000000    0.00000000
     atom    2 type  1   force =     0.00000000    0.00000000    0.00000000
     atom    3 type  1   force =     0.00000000    0.00000000    0.00000000
     atom    4 type  2   force =     0.00000000    0.00000000    0.00000000
     atom    5 type  3   force =     0.00000000    0.00000000    0.00000000
     atom    6 type  3   force =     0.00000000    0.00000000    0.00000000
     atom    7 type  3   force =     0.00000000    0.00000000    0.00000000
     atom    8 type  3   force =     0.00000000    0.00000000    0.00000000
     atom    9 type  3   force =     0.00000000    0.00000000    0.00000000
     atom   10 type  3   force =     0.00000000    0.00000000    0.00000000
     atom   11 type  3   force =     0.00000000    0.00000000    0.00000000
     The SCF correction term to forces
     atom    1 type  1   force =    -0.00007098   -0.00001049   -0.00000354
     atom    2 type  1   force =    -0.00001940    0.00000737   -0.00005347
     atom    3 type  1   force =     0.00006965    0.00002655    0.00001191
     atom    4 type  2   force =     0.00009879    0.00028724   -0.00011775
     atom    5 type  3   force =    -0.00006743   -0.00003373    0.00012709
     atom    6 type  3   force =    -0.00005752    0.00000136   -0.00013090
     atom    7 type  3   force =    -0.00009427    0.00016819   -0.00001194
     atom    8 type  3   force =     0.00000627    0.00001418   -0.00003363
     atom    9 type  3   force =     0.00006457    0.00000903    0.00012697
     atom   10 type  3   force =     0.00012541    0.00006565   -0.00012717
     atom   11 type  3   force =     0.00007276   -0.00011971   -0.00003421

     Total force =     0.054208     Total SCF correction =     0.000528

     Computing stress (Cartesian axis) and pressure

     negative rho (up, down):  1.254E-03 0.000E+00
          total   stress  (Ry/bohr**3)                   (kbar)     P=     -134.58
  -0.00085914   0.00007446   0.00005255         -126.38       10.95        7.73
   0.00007446  -0.00093115   0.00003360           10.95     -136.98        4.94
   0.00005255   0.00003360  -0.00095433            7.73        4.94     -140.39

     kinetic stress (kbar)  16672.01     42.29     31.46
                               42.29  16629.81     19.23
                               31.46     19.23  16618.07

     local   stress (kbar) -12013.04   -206.93   -152.56
                             -206.93 -11807.71    -93.90
                             -152.56    -93.90 -11748.50

     nonloc. stress (kbar)    525.56      6.69      4.98
                                6.69    518.89      3.04
                                4.98      3.04    517.02

     hartree stress (kbar)  11263.01    192.00    140.69
                              192.00  11073.18     87.05
                              140.69     87.05  11017.43

     exc-cor stress (kbar)  -4018.56     -1.01     -0.72
                               -1.01  -4017.58     -0.45
                               -0.72     -0.45  -4017.28

     corecor stress (kbar)   -376.47     -0.17     -0.14
                               -0.17   -376.29     -0.08
                               -0.14     -0.08   -376.25

     ewald   stress (kbar) -12178.89    -21.93    -15.98
                              -21.93 -12157.28     -9.94
                              -15.98     -9.94 -12150.88

     hubbard stress (kbar)      0.00      0.00      0.00
                                0.00      0.00      0.00
                                0.00      0.00      0.00

     DFT-D   stress (kbar)      0.00      0.00      0.00
                                0.00      0.00      0.00
                                0.00      0.00      0.00

     XDM     stress (kbar)      0.00      0.00      0.00
                                0.00      0.00      0.00
                                0.00      0.00      0.00

     dft-nl  stress (kbar)      0.00      0.00      0.00
                                0.00      0.00      0.00
                                0.00      0.00      0.00

     TS-vdW  stress (kbar)      0.00      0.00      0.00
                                0.00      0.00      0.00
                                0.00      0.00      0.00

[...]

                                0.00      0.00      0.00

     Writing all to output data dir new_calculations/myprefix.save/

     General routines

     Parallel routines

   This run was terminated on:  13:51: 0  20May2023

   JOB DONE.