     Program PWSCF v.7.0 starts on 20May2023 at 14:14:42

     Reading input from espresso_2484.pwi
Warning: card &CELL ignored
Warning: card / ignored

     Current dimensions of program PWSCF are:
     Max number of different atomic species (ntypx) = 10
     Max number of k-points (npk) =  40000
     Max angular momentum in pseudopotentials (lmaxx) =  4
     file Mg.pbe-n-kjpaw_psl.0.3.0.UPF: wavefunction(s)  3S renormalized

     gamma-point specific algorithms are used
     Message from routine setup:
     using ibrav=0 with symmetry is DISCOURAGED, use correct ibrav instead

     Subspace diagonalization in iterative solution of the eigenvalue problem:
     a serial algorithm will be used

     Using Slab Decomposition

     bravais-lattice index     =            0
     lattice parameter (alat)  =       8.6941  a.u.
     unit-cell volume          =     900.7286 (a.u.)^3
     number of atoms/cell      =            5
     number of atomic types    =            2
     number of electrons       =        36.00
     number of Kohn-Sham states=           22
     kinetic-energy cutoff     =      30.0000  Ry
     charge density cutoff     =     240.0000  Ry
     scf convergence threshold =      1.0E-06
     mixing beta               =       0.7000
     number of iterations used =            8  plain     mixing
     Exchange-correlation=  SLA  PW   PBX  PBC
                           (   1   4   3   4   0   0   0)

     celldm(1)=   8.694144  celldm(2)=   0.000000  celldm(3)=   0.000000
     celldm(4)=   0.000000  celldm(5)=   0.000000  celldm(6)=   0.000000

     crystal axes: (cart. coord. in units of alat)
               a(1) = (   1.000000   0.000000   0.000000 )
               a(2) = (  -0.500000   0.866026   0.000000 )
               a(3) = (   0.000000   0.000000   1.582642 )

     reciprocal axes: (cart. coord. in units 2 pi/alat)
               b(1) = (  1.000000  0.577350  0.000000 )
               b(2) = (  0.000000  1.154700  0.000000 )
               b(3) = (  0.000000  0.000000  0.631855 )

     PseudoPot. # 1 for Mg read from file:
     /home/pragov/projects/rrg-bengioy-ad/pragov/crystal_structure_design/SSSP/Mg.pbe-n-kjpaw_psl.0.3.0.UPF
     MD5 check sum: 24ecedc7f3e3cbe212e682f4413594e4
     Pseudo is Projector augmented-wave + core cor, Zval =  2.0
     Generated using "atomic" code by A. Dal Corso  v.5.0.99 svn rev. 10869
     Shape of augmentation charge: PSQ
     Using radial grid of 1129 points,  4 beta functions with:
                l(1) =   0
                l(2) =   0
                l(3) =   1
                l(4) =   1
     Q(r) pseudized with 0 coefficients

     PseudoPot. # 2 for Sb read from file:
     /home/pragov/projects/rrg-bengioy-ad/pragov/crystal_structure_design/SSSP/sb_pbe_v1.4.uspp.F.UPF
     MD5 check sum: 9bc50dfb53373b713f5709b9110fe27f
     Pseudo is Ultrasoft + core correction, Zval = 15.0
     Generated by new atomic code, or converted to UPF format
     Using radial grid of  891 points,  6 beta functions with:
                l(1) =   0
                l(2) =   0
                l(3) =   1
                l(4) =   1
                l(5) =   2
                l(6) =   2
     Q(r) pseudized with  8 coefficients,  rinner =    1.350   1.350   1.350
                                                       1.350   1.350

     atomic species   valence    mass     pseudopotential
        Mg             2.00    24.30500     Mg( 1.00)
        Sb            15.00   121.76000     Sb( 1.00)

     12 Sym. Ops., with inversion, found

                                    s                        frac. trans.

      isym =  1     identity

 cryst.   s( 1) = (     1          0          0      )
                  (     0          1          0      )
                  (     0          0          1      )

 cart.    s( 1) = (  1.0000000  0.0000000  0.0000000 )
                  (  0.0000000  1.0000000  0.0000000 )
                  (  0.0000000  0.0000000  1.0000000 )

      isym =  2     180 deg rotation - cart. axis [1,0,0]

[...]

      isym =  3     120 deg rotation - cryst. axis [0,0,1]

[...]

      isym =  6     180 deg rotation - cryst. axis [1,1,0]

[...]

      isym =  7     inversion

[...]

      isym =  8     inv. 180 deg rotation - cart. axis [1,0,0]

[...]

      isym =  9     inv. 120 deg rotation - cryst. axis [0,0,1]

 cryst.   s( 9) = (     0         -1          0      )
                  (     1          1          0      )
                  (     0          0         -1      )

 cart.    s( 9) = (  0.4999998  0.8660253  0.0000000 )
                  ( -0.8660255  0.5000002  0.0000000 )
                  (  0.0000000  0.0000000 -1.0000000 )

[...]

 cryst.   s(10) = (     1          1          0      )
                  (    -1          0          0      )
                  (     0          0         -1      )

 cart.    s(10) = (  0.5000002 -0.8660253  0.0000000 )
                  (  0.8660255  0.4999998  0.0000000 )
                  (  0.0000000  0.0000000 -1.0000000 )

[...]

      isym = 12     inv. 180 deg rotation - cryst. axis [1,1,0]

 cryst.   s(12) = (     0         -1          0      )
                  (    -1          0          0      )
                  (     0          0          1      )

 cart.    s(12) = (  0.4999998 -0.8660255  0.0000000 )
                  ( -0.8660255 -0.4999998  0.0000000 )
                  (  0.0000000  0.0000000  1.0000000 )

   Cartesian axes

     site n.     atom                  positions (alat units)
         1           Mg  tau(   1) = (   0.0000000   0.0000000   0.0000000  )
         2           Mg  tau(   2) = (  -0.0000004   0.5773506   0.5829267  )
         3           Mg  tau(   3) = (   0.5000006   0.2886749   0.9997155  )
         4           Sb  tau(   4) = (  -0.0000004   0.5773506   1.2261505  )
         5           Sb  tau(   5) = (   0.5000006   0.2886749   0.3564917  )

   Crystallographic axes

     site n.     atom                  positions (cryst. coord.)
         1           Mg  tau(   1) = (  0.0000000  0.0000000  0.0000000  )
         2           Mg  tau(   2) = (  0.3333330  0.6666670  0.3683250  )
         3           Mg  tau(   3) = (  0.6666670  0.3333330  0.6316750  )
         4           Sb  tau(   4) = (  0.3333330  0.6666670  0.7747490  )
         5           Sb  tau(   5) = (  0.6666670  0.3333330  0.2252510  )

     number of k points=     1  Methfessel-Paxton smearing, width (Ry)=  0.0010
                       cart. coord. in units 2pi/alat
        k(    1) = (   0.0000000   0.0000000   0.0000000), wk =   2.0000000

                       cryst. coord.
        k(    1) = (   0.0000000   0.0000000   0.0000000), wk =   2.0000000

     Check: negative core charge=   -0.000002

     Initial potential from superposition of free atoms

     starting charge      33.9972, renormalised to      36.0000
     Starting wfcs are   30 randomized atomic wfcs
     Checking if some PAW data can be deallocated...

     Self-consistent Calculation

     iteration #  1     ecut=    30.00 Ry     beta= 0.70
     Davidson diagonalization with overlap

     ethr =  1.00E-02,  avg # of iterations =  3.0

     total energy              =    -469.33920627 Ry
     estimated scf accuracy    <       1.41943238 Ry

[...]

     total energy              =    -469.85447965 Ry
     estimated scf accuracy    <       0.00000267 Ry

     iteration #  9     ecut=    30.00 Ry     beta= 0.70
     Davidson diagonalization with overlap

     ethr =  6.72E-09,  avg # of iterations =  2.0

     End of self-consistent calculation

          k = 0.0000 0.0000 0.0000 (  1245 PWs)   bands (ev):

   -20.7254 -20.7231 -20.6813 -20.6813 -20.6784 -20.6784 -20.6035 -20.6035
   -20.5959 -20.5959  -3.4151  -2.0596   1.6095   5.5792   5.5792   6.3106
     6.3106   6.8086   7.6549   7.7686   9.4647   9.4647

     occupation numbers
     1.0000   1.0000   1.0000   1.0000   1.0000   1.0000   1.0000   1.0000
     1.0000   1.0000   1.0000   1.0000   1.0000   1.0000   1.0000   1.0000
     1.0000   1.0000  -0.0000  -0.0000  -0.0000  -0.0000

     the Fermi energy is     7.2209 ev

!    total energy              =    -469.85447976 Ry
     estimated scf accuracy    <       0.00000027 Ry
     smearing contrib. (-TS)   =       0.00000000 Ry
     internal energy E=F+TS    =    -469.85447976 Ry

     The total energy is F=E-TS. E is the sum of the following terms:
     one-electron contribution =    -226.74332649 Ry
     hartree contribution      =     131.34898351 Ry
     xc contribution           =     -93.28704225 Ry
     ewald contribution        =    -187.40964792 Ry
     one-center paw contrib.   =     -93.76344660 Ry
      -> PAW hartree energy AE =       1.13425997 Ry
      -> PAW hartree energy PS =      -1.13131981 Ry
      -> PAW xc energy AE      =     -96.98437461 Ry
      -> PAW xc energy PS      =       3.21798785 Ry
      -> total E_H with PAW    =     131.35192367 Ry
      -> total E_XC with PAW   =    -187.05342901 Ry

     convergence has been achieved in   9 iterations

     Forces acting on atoms (cartesian axes, Ry/au):

     atom    1 type  1   force =     0.00000000    0.00000000    0.00000000
     atom    2 type  1   force =     0.00000000   -0.00000000    0.01571973
     atom    3 type  1   force =    -0.00000000    0.00000000   -0.01571973
     atom    4 type  2   force =     0.00000000   -0.00000000   -0.03287508
     atom    5 type  2   force =     0.00000000    0.00000000    0.03287508
     The non-local contrib.  to forces
     atom    1 type  1   force =     0.00000000    0.00000000    0.00000000
     atom    2 type  1   force =     0.00000000    0.00000000   -0.05227244
     atom    3 type  1   force =     0.00000000    0.00000000    0.05227244
     atom    4 type  2   force =     0.00000000    0.00000000   -0.20390279
     atom    5 type  2   force =     0.00000000    0.00000000    0.20390279
     The ionic contribution  to forces
     atom    1 type  1   force =    -0.00000000    0.00000000    0.00000000
     atom    2 type  1   force =     0.00000532   -0.00000307    0.46292782
     atom    3 type  1   force =    -0.00000532    0.00000307   -0.46292782
     atom    4 type  2   force =     0.00000967   -0.00000558   -2.62299414
     atom    5 type  2   force =    -0.00000967    0.00000558    2.62299414
     The local contribution  to forces
     atom    1 type  1   force =    -0.00000370   -0.00000172    0.00003984
     atom    2 type  1   force =    -0.00000766    0.00000272   -0.40203756
     atom    3 type  1   force =     0.00000748   -0.00000224    0.40196603
     atom    4 type  2   force =    -0.00006523   -0.00000661    2.79684120
     atom    5 type  2   force =    -0.00004858    0.00001134   -2.79621767
     The core correction contribution to forces
     atom    1 type  1   force =    -0.00000063   -0.00000005   -0.00000045
     atom    2 type  1   force =    -0.00000038    0.00000005    0.00692993
     atom    3 type  1   force =     0.00000036   -0.00000002   -0.00692820
     atom    4 type  2   force =    -0.00000201   -0.00000135   -0.00046139
     atom    5 type  2   force =    -0.00000243   -0.00000067    0.00047241
     The Hubbard contrib.    to forces
     atom    1 type  1   force =     0.00000000    0.00000000    0.00000000
     atom    2 type  1   force =     0.00000000    0.00000000    0.00000000
     atom    3 type  1   force =     0.00000000    0.00000000    0.00000000
     atom    4 type  2   force =     0.00000000    0.00000000    0.00000000
     atom    5 type  2   force =     0.00000000    0.00000000    0.00000000
     The SCF correction term to forces
     atom    1 type  1   force =    -0.00000113    0.00000099   -0.00006671
     atom    2 type  1   force =    -0.00000001   -0.00000003    0.00018883
     atom    3 type  1   force =    -0.00000015   -0.00000086   -0.00008533
     atom    4 type  2   force =     0.00009423    0.00002176   -0.00235063
     atom    5 type  2   force =     0.00008653    0.00000597    0.00173074

     Total force =     0.051534     Total SCF correction =     0.002930

     Computing stress (Cartesian axis) and pressure

          total   stress  (Ry/bohr**3)                   (kbar)     P=        4.54
   0.00032753  -0.00000000   0.00000000           48.18       -0.00        0.00
  -0.00000000   0.00032753   0.00000000           -0.00       48.18        0.00
   0.00000000  -0.00000000  -0.00056238            0.00       -0.00      -82.73

     kinetic stress (kbar)   8214.75     -0.00      0.00
                               -0.00   8214.75      0.00
                                0.00      0.00   8037.80

     local   stress (kbar)  -2549.39     -0.01      0.00
                               -0.01  -2549.40     -0.00
                                0.00     -0.00  -2149.55

     nonloc. stress (kbar)    293.99     -0.00      0.00
                               -0.00    293.99      0.00
                                0.00      0.00    142.78

     hartree stress (kbar)   7162.83      0.00     -0.00
                                0.00   7162.84      0.00
                               -0.00      0.00   7125.97

     exc-cor stress (kbar)   4927.25      0.00     -0.00
                                0.00   4927.25      0.00
                               -0.00      0.00   4926.72

     corecor stress (kbar)  -7857.38     -0.00     -0.00
                               -0.00  -7857.38     -0.00
                               -0.00     -0.00  -7846.84

     ewald   stress (kbar) -10143.87      0.01     -0.00
                                0.01 -10143.86      0.00
                               -0.00      0.00 -10319.62

     hubbard stress (kbar)      0.00      0.00      0.00
                                0.00      0.00      0.00
                                0.00      0.00      0.00

     DFT-D   stress (kbar)      0.00      0.00      0.00
                                0.00      0.00      0.00
                                0.00      0.00      0.00

     XDM     stress (kbar)      0.00      0.00      0.00
                                0.00      0.00      0.00
                                0.00      0.00      0.00

     dft-nl  stress (kbar)      0.00      0.00      0.00
                                0.00      0.00      0.00
                                0.00      0.00      0.00

     TS-vdW  stress (kbar)      0.00      0.00      0.00
                                0.00      0.00      0.00
                                0.00      0.00      0.00

[...]

                                0.00      0.00      0.00

     Writing all to output data dir new_calculations/myprefix.save/

     General routines

     Parallel routines

     PAW routines

   This run was terminated on:  14:15: 4  20May2023

   JOB DONE.