     Program PWSCF v.7.0 starts on 20May2023 at  4:54:15

     Reading input from espresso_4155.pwi
Warning: card &CELL ignored
Warning: card / ignored

     Current dimensions of program PWSCF are:
     Max number of different atomic species (ntypx) = 10
     Max number of k-points (npk) =  40000
     Max angular momentum in pseudopotentials (lmaxx) =  4

     gamma-point specific algorithms are used
     Message from routine setup:
     using ibrav=0 with symmetry is DISCOURAGED, use correct ibrav instead

     Subspace diagonalization in iterative solution of the eigenvalue problem:
     a serial algorithm will be used

     Using Slab Decomposition

     bravais-lattice index     =            0
     lattice parameter (alat)  =      12.8655  a.u.
     unit-cell volume          =    3104.8231 (a.u.)^3
     number of atoms/cell      =           20
     number of atomic types    =            3
     number of electrons       =       160.00
     number of Kohn-Sham states=           96
     kinetic-energy cutoff     =      30.0000  Ry
     charge density cutoff     =     240.0000  Ry
     scf convergence threshold =      1.0E-06
     mixing beta               =       0.7000
     number of iterations used =            8  plain     mixing
     Exchange-correlation=  SLA  PW   PBX  PBC
                           (   1   4   3   4   0   0   0)

     celldm(1)=  12.865465  celldm(2)=   0.000000  celldm(3)=   0.000000
     celldm(4)=   0.000000  celldm(5)=   0.000000  celldm(6)=   0.000000

     crystal axes: (cart. coord. in units of alat)
               a(1) = (   1.000000   0.000000   0.000000 )
               a(2) = (   0.000000   1.000000   0.000000 )
               a(3) = (   0.000000   0.000000   1.458010 )

     reciprocal axes: (cart. coord. in units 2 pi/alat)
               b(1) = (  1.000000  0.000000  0.000000 )
               b(2) = (  0.000000  1.000000  0.000000 )
               b(3) = (  0.000000  0.000000  0.685867 )

     PseudoPot. # 1 for Cs read from file:
     /home/pragov/projects/rrg-bengioy-ad/pragov/crystal_structure_design/SSSP/Cs_pbe_v1.uspp.F.UPF
     MD5 check sum: 3476d69cb178dfad3ffaa59df4e07ca4
     Pseudo is Ultrasoft + core correction, Zval =  9.0
     Generated by new atomic code, or converted to UPF format
     Using radial grid of  905 points,  6 beta functions with:
                l(1) =   0
                l(2) =   0
                l(3) =   1
                l(4) =   1
                l(5) =   2
                l(6) =   2
     Q(r) pseudized with  6 coefficients,  rinner =    1.500   1.500   1.500
                                                       1.500   1.500

     PseudoPot. # 2 for Sc read from file:
     /home/pragov/projects/rrg-bengioy-ad/pragov/crystal_structure_design/SSSP/Sc_ONCV_PBE-1.0.oncvpsp.upf
     MD5 check sum: e21af8023abb52e52cb7cd3133e4a229
     Pseudo is Norm-conserving, Zval = 11.0
     Generated using ONCVPSP code by D. R. Hamann
     Using radial grid of 1662 points,  6 beta functions with:
                l(1) =   0
                l(2) =   0
                l(3) =   1
                l(4) =   1
                l(5) =   2
                l(6) =   2

     PseudoPot. # 3 for F  read from file:
     /home/pragov/projects/rrg-bengioy-ad/pragov/crystal_structure_design/SSSP/f_pbe_v1.4.uspp.F.UPF
     MD5 check sum: 4c38b6a325caf53ec0e86aed9459de46
     Pseudo is Ultrasoft, Zval =  7.0
     Generated by new atomic code, or converted to UPF format
     Using radial grid of  799 points,  4 beta functions with:
                l(1) =   0
                l(2) =   0
                l(3) =   1
                l(4) =   1
     Q(r) pseudized with  8 coefficients,  rinner =    0.950   0.950   0.950

     atomic species   valence    mass     pseudopotential
        Cs             9.00   132.90545     Cs( 1.00)
        Sc            11.00    44.95591     Sc( 1.00)
        F              7.00    18.99840     F ( 1.00)

     16 Sym. Ops., with inversion, found ( 8 have fractional translation)

                                    s                        frac. trans.

      isym =  1     identity

 cryst.   s( 1) = (     1          0          0      )
                  (     0          1          0      )
                  (     0          0          1      )

 cart.    s( 1) = (  1.0000000  0.0000000  0.0000000 )
                  (  0.0000000  1.0000000  0.0000000 )
                  (  0.0000000  0.0000000  1.0000000 )

      isym =  2     180 deg rotation - cart. axis [0,0,1]

[...]

 cryst.   s( 3) = (    -1          0          0      )    f =(  0.5000000 )
                  (     0          1          0      )       (  0.5000000 )
                  (     0          0         -1      )       (  0.5000000 )

 cart.    s( 3) = ( -1.0000000  0.0000000  0.0000000 )    f =(  0.5000000 )
                  (  0.0000000  1.0000000  0.0000000 )       (  0.5000000 )
                  (  0.0000000  0.0000000 -1.0000000 )       (  0.7290048 )

[...]

 cryst.   s( 6) = (     0         -1          0      )    f =(  0.5000000 )
                  (    -1          0          0      )       (  0.5000000 )
                  (     0          0         -1      )       (  0.5000000 )

 cart.    s( 6) = (  0.0000000 -1.0000000  0.0000000 )    f =(  0.5000000 )
                  ( -1.0000000  0.0000000  0.0000000 )       (  0.5000000 )
                  (  0.0000000  0.0000000 -1.0000000 )       (  0.7290048 )

[...]

      isym =  8      90 deg rotation - cart. axis [0,0,1]

[...]

      isym =  9     inversion

 cryst.   s( 9) = (    -1          0          0      )
                  (     0         -1          0      )
                  (     0          0         -1      )

 cart.    s( 9) = ( -1.0000000  0.0000000  0.0000000 )
                  (  0.0000000 -1.0000000  0.0000000 )
                  (  0.0000000  0.0000000 -1.0000000 )

      isym = 10     inv. 180 deg rotation - cart. axis [0,0,1]

 cryst.   s(10) = (     1          0          0      )
                  (     0          1          0      )
                  (     0          0         -1      )

 cart.    s(10) = (  1.0000000  0.0000000  0.0000000 )
                  (  0.0000000  1.0000000  0.0000000 )
                  (  0.0000000  0.0000000 -1.0000000 )

[...]

 cryst.   s(11) = (     1          0          0      )    f =( -0.5000000 )
                  (     0         -1          0      )       (  0.5000000 )
                  (     0          0          1      )       ( -0.5000000 )

 cart.    s(11) = (  1.0000000  0.0000000  0.0000000 )    f =( -0.5000000 )
                  (  0.0000000 -1.0000000  0.0000000 )       (  0.5000000 )
                  (  0.0000000  0.0000000  1.0000000 )       ( -0.7290048 )

[...]

 cryst.   s(14) = (     0          1          0      )    f =( -0.5000000 )
                  (     1          0          0      )       (  0.5000000 )
                  (     0          0          1      )       ( -0.5000000 )

 cart.    s(14) = (  0.0000000  1.0000000  0.0000000 )    f =( -0.5000000 )
                  (  1.0000000  0.0000000  0.0000000 )       (  0.5000000 )
                  (  0.0000000  0.0000000  1.0000000 )       ( -0.7290048 )

[...]

      isym = 16     inv.  90 deg rotation - cart. axis [0,0,1]

 cryst.   s(16) = (     0         -1          0      )
                  (     1          0          0      )
                  (     0          0         -1      )

 cart.    s(16) = (  0.0000000  1.0000000  0.0000000 )
                  ( -1.0000000  0.0000000  0.0000000 )
                  (  0.0000000  0.0000000 -1.0000000 )

   Cartesian axes

     site n.     atom                  positions (alat units)
         1           Cs  tau(   1) = (   0.0000000   0.5000000   0.3645024  )
         2           Cs  tau(   2) = (   0.0000000   0.5000000   1.0935072  )
         3           Cs  tau(   3) = (   0.5000000   0.0000000   0.3645024  )
         4           Cs  tau(   4) = (   0.5000000   0.0000000   1.0935072  )
         5           Cs  tau(   5) = (   0.0000000   0.0000000   0.7290048  )
         6           Cs  tau(   6) = (   0.5000000   0.5000000   0.0000000  )
         7           Sc  tau(   7) = (   0.0000000   0.0000000   0.0000000  )
         8           Sc  tau(   8) = (   0.5000000   0.5000000   0.7290048  )
         9           F   tau(   9) = (   0.1377090   0.2670270   0.0000000  )
        10           F   tau(  10) = (   0.8622910   0.7329730   0.0000000  )
        11           F   tau(  11) = (   0.7329730   0.1377090   0.0000000  )
        12           F   tau(  12) = (   0.3622910   0.7670270   0.7290048  )
        13           F   tau(  13) = (   0.2670270   0.8622910   0.0000000  )
        14           F   tau(  14) = (   0.6377090   0.2329730   0.7290048  )
        15           F   tau(  15) = (   0.7670270   0.6377090   0.7290048  )
        16           F   tau(  16) = (   0.2329730   0.3622910   0.7290048  )
        17           F   tau(  17) = (   0.0000000   0.0000000   0.3010032  )
        18           F   tau(  18) = (   0.0000000   0.0000000   1.1570064  )
        19           F   tau(  19) = (   0.5000000   0.5000000   0.4280016  )
        20           F   tau(  20) = (   0.5000000   0.5000000   1.0300079  )

   Crystallographic axes

     site n.     atom                  positions (cryst. coord.)
         1           Cs  tau(   1) = (  0.0000000  0.5000000  0.2500000  )
         2           Cs  tau(   2) = (  0.0000000  0.5000000  0.7500000  )
         3           Cs  tau(   3) = (  0.5000000  0.0000000  0.2500000  )
         4           Cs  tau(   4) = (  0.5000000  0.0000000  0.7500000  )
         5           Cs  tau(   5) = (  0.0000000  0.0000000  0.5000000  )
         6           Cs  tau(   6) = (  0.5000000  0.5000000  0.0000000  )
         7           Sc  tau(   7) = (  0.0000000  0.0000000  0.0000000  )
         8           Sc  tau(   8) = (  0.5000000  0.5000000  0.5000000  )
         9           F   tau(   9) = (  0.1377090  0.2670270  0.0000000  )
        10           F   tau(  10) = (  0.8622910  0.7329730  0.0000000  )
        11           F   tau(  11) = (  0.7329730  0.1377090  0.0000000  )
        12           F   tau(  12) = (  0.3622910  0.7670270  0.5000000  )
        13           F   tau(  13) = (  0.2670270  0.8622910  0.0000000  )
        14           F   tau(  14) = (  0.6377090  0.2329730  0.5000000  )
        15           F   tau(  15) = (  0.7670270  0.6377090  0.5000000  )
        16           F   tau(  16) = (  0.2329730  0.3622910  0.5000000  )
        17           F   tau(  17) = (  0.0000000  0.0000000  0.2064480  )
        18           F   tau(  18) = (  0.0000000  0.0000000  0.7935520  )
        19           F   tau(  19) = (  0.5000000  0.5000000  0.2935520  )
        20           F   tau(  20) = (  0.5000000  0.5000000  0.7064480  )

     number of k points=     1  Methfessel-Paxton smearing, width (Ry)=  0.0010
                       cart. coord. in units 2pi/alat
        k(    1) = (   0.0000000   0.0000000   0.0000000), wk =   2.0000000

                       cryst. coord.
        k(    1) = (   0.0000000   0.0000000   0.0000000), wk =   2.0000000

[...]

     Self-consistent Calculation

     iteration #  1     ecut=    30.00 Ry     beta= 0.70
     Davidson diagonalization with overlap

     ethr =  1.00E-02,  avg # of iterations =  2.0

     total energy              =   -1146.76852034 Ry
     estimated scf accuracy    <       3.00472065 Ry

[...]

     total energy              =   -1148.18756928 Ry
     estimated scf accuracy    <       0.00001057 Ry

     iteration #  8     ecut=    30.00 Ry     beta= 0.70
     Davidson diagonalization with overlap

     ethr =  6.60E-09,  avg # of iterations =  2.0

     End of self-consistent calculation

          k = 0.0000 0.0000 0.0000 (  4305 PWs)   bands (ev):

   -44.1008 -44.1007 -22.9135 -22.9134 -22.9132 -22.9131 -22.8891 -22.8888
   -17.6685 -17.5983 -17.4784 -17.4530 -17.3715 -17.3415 -17.1232 -17.1231
   -17.1212 -17.1211 -17.0231 -17.0037 -16.2204 -16.2197 -16.1921 -16.1871
   -15.8279 -15.8240  -3.4408  -3.4408  -3.3337  -3.3337  -3.3049  -3.2279
    -3.2279  -3.1792  -3.0978  -3.0688  -3.0688  -2.9917  -2.9025  -2.6979
    -2.6978  -2.6692  -2.6662  -2.6661   0.0966   0.1139   0.1268   0.1828
     0.2288   0.2759   0.3157   0.5452   0.5453   0.6373   0.7507   0.7507
     0.7910   0.9227   0.9229   1.0275   1.0276   1.1282   1.2160   1.4379
     1.4585   1.4586   1.4738   1.4740   1.5374   1.5376   1.6128   1.6194
     1.6269   1.6339   1.6340   1.6402   1.6403   1.7193   1.7493   1.7494
     8.0405   8.8914   8.8915   8.9722   8.9823   9.0672   9.0672   9.2135
     9.4016   9.6021   9.6832   9.7720   9.9304  10.2427  10.2427  10.4541

     occupation numbers
     1.0000   1.0000   1.0000   1.0000   1.0000   1.0000   1.0000   1.0000
     1.0000   1.0000   1.0000   1.0000   1.0000   1.0000   1.0000   1.0000
     1.0000   1.0000   1.0000   1.0000   1.0000   1.0000   1.0000   1.0000
     1.0000   1.0000   1.0000   1.0000   1.0000   1.0000   1.0000   1.0000
     1.0000   1.0000   1.0000   1.0000   1.0000   1.0000   1.0000   1.0000
     1.0000   1.0000   1.0000   1.0000   1.0000   1.0000   1.0000   1.0000
     1.0000   1.0000   1.0000   1.0000   1.0000   1.0000   1.0000   1.0000
     1.0000   1.0000   1.0000   1.0000   1.0000   1.0000   1.0000   1.0000
     1.0000   1.0000   1.0000   1.0000   1.0000   1.0000   1.0000   1.0000
     1.0000   1.0000   1.0000   1.0000   1.0000   1.0000   1.0000   1.0000
    -0.0000  -0.0000  -0.0000  -0.0000  -0.0000  -0.0000  -0.0000  -0.0000
    -0.0000  -0.0000  -0.0000  -0.0000  -0.0000  -0.0000  -0.0000  -0.0000

     the Fermi energy is     3.7368 ev

!    total energy              =   -1148.18757158 Ry
     estimated scf accuracy    <       0.00000023 Ry
     smearing contrib. (-TS)   =       0.00000000 Ry
     internal energy E=F+TS    =   -1148.18757158 Ry

     The total energy is F=E-TS. E is the sum of the following terms:
     one-electron contribution =    -598.31713882 Ry
     hartree contribution      =     376.54070211 Ry
     xc contribution           =    -318.58372396 Ry
     ewald contribution        =    -607.82741090 Ry

     convergence has been achieved in   8 iterations

     Forces acting on atoms (cartesian axes, Ry/au):

     atom    1 type  1   force =     0.00000000    0.00000000   -0.00000000
     atom    2 type  1   force =     0.00000000    0.00000000    0.00000000
     atom    3 type  1   force =     0.00000000    0.00000000    0.00000000
     atom    4 type  1   force =     0.00000000    0.00000000   -0.00000000
     atom    5 type  1   force =     0.00000000    0.00000000    0.00000000
     atom    6 type  1   force =     0.00000000    0.00000000    0.00000000
     atom    7 type  2   force =     0.00000000    0.00000000   -0.00000000
     atom    8 type  2   force =     0.00000000    0.00000000    0.00000000
     atom    9 type  3   force =    -0.00026125    0.00060550    0.00000000
     atom   10 type  3   force =     0.00026125   -0.00060550    0.00000000
     atom   11 type  3   force =    -0.00060550   -0.00026125   -0.00000000
     atom   12 type  3   force =     0.00026125    0.00060550   -0.00000000
     atom   13 type  3   force =     0.00060550    0.00026125    0.00000000
     atom   14 type  3   force =    -0.00026125   -0.00060550    0.00000000
     atom   15 type  3   force =     0.00060550   -0.00026125    0.00000000
     atom   16 type  3   force =    -0.00060550    0.00026125   -0.00000000
     atom   17 type  3   force =     0.00000000    0.00000000   -0.00853751
     atom   18 type  3   force =     0.00000000    0.00000000    0.00853751
     atom   19 type  3   force =     0.00000000    0.00000000    0.00853751
     atom   20 type  3   force =     0.00000000    0.00000000   -0.00853751
     The non-local contrib.  to forces
     atom    1 type  1   force =     0.00000000    0.00000000    0.00000000
     atom    2 type  1   force =     0.00000000    0.00000000   -0.00000000
     atom    3 type  1   force =     0.00000000    0.00000000   -0.00000000
     atom    4 type  1   force =     0.00000000    0.00000000   -0.00000000
     atom    5 type  1   force =     0.00000000    0.00000000    0.00000000
     atom    6 type  1   force =     0.00000000    0.00000000   -0.00000000
     atom    7 type  2   force =     0.00000000    0.00000000    0.00000000
     atom    8 type  2   force =     0.00000000    0.00000000    0.00000000
     atom    9 type  3   force =    -0.24308456   -0.45885813   -0.00000000
     atom   10 type  3   force =     0.24308456    0.45885813    0.00000000
     atom   11 type  3   force =     0.45885813   -0.24308456   -0.00000000
     atom   12 type  3   force =     0.24308456   -0.45885813    0.00000000
     atom   13 type  3   force =    -0.45885813    0.24308456   -0.00000000
     atom   14 type  3   force =    -0.24308456    0.45885813    0.00000000
     atom   15 type  3   force =    -0.45885813   -0.24308456   -0.00000000
     atom   16 type  3   force =     0.45885813    0.24308456   -0.00000000
     atom   17 type  3   force =     0.00000000    0.00000000   -0.49796064
     atom   18 type  3   force =     0.00000000    0.00000000    0.49796064
     atom   19 type  3   force =     0.00000000    0.00000000    0.49796064
     atom   20 type  3   force =     0.00000000    0.00000000   -0.49796064
     The ionic contribution  to forces
     atom    1 type  1   force =    -0.00000000    0.00000000   -0.00000000
     atom    2 type  1   force =     0.00000000   -0.00000000   -0.00000000
     atom    3 type  1   force =     0.00000000   -0.00000000   -0.00000000
     atom    4 type  1   force =    -0.00000000   -0.00000000   -0.00000000
     atom    5 type  1   force =    -0.00000000   -0.00000000   -0.00000000
     atom    6 type  1   force =     0.00000000   -0.00000000   -0.00000000
     atom    7 type  2   force =    -0.00000000    0.00000000   -0.00000000
     atom    8 type  2   force =    -0.00000000    0.00000000   -0.00000000
     atom    9 type  3   force =     5.05883988    9.07314295    0.00000000
     atom   10 type  3   force =    -5.05883988   -9.07314295   -0.00000000
     atom   11 type  3   force =    -9.07314295    5.05883988   -0.00000000
     atom   12 type  3   force =    -5.05883988    9.07314295   -0.00000000
     atom   13 type  3   force =     9.07314295   -5.05883988    0.00000000
     atom   14 type  3   force =     5.05883988   -9.07314295   -0.00000000
     atom   15 type  3   force =     9.07314295    5.05883988   -0.00000000
     atom   16 type  3   force =    -9.07314295   -5.05883988   -0.00000000
     atom   17 type  3   force =    -0.00000000   -0.00000000   10.71006876
     atom   18 type  3   force =    -0.00000000   -0.00000000  -10.71006876
     atom   19 type  3   force =     0.00000000   -0.00000000  -10.71006876
     atom   20 type  3   force =     0.00000000    0.00000000   10.71006876
     The local contribution  to forces
     atom    1 type  1   force =    -0.00000249    0.00000074    0.00010168
     atom    2 type  1   force =     0.00000290    0.00002685   -0.00009292
     atom    3 type  1   force =    -0.00000329    0.00001732   -0.00010636
     atom    4 type  1   force =    -0.00000193   -0.00001936    0.00008385
     atom    5 type  1   force =     0.00002699    0.00000519    0.00001146
     atom    6 type  1   force =     0.00001101    0.00004965   -0.00002167
     atom    7 type  2   force =    -0.00001346   -0.00000799   -0.00005853
     atom    8 type  2   force =    -0.00005512    0.00000023    0.00005797
     atom    9 type  3   force =    -4.81591040   -8.61351005   -0.00000953
     atom   10 type  3   force =     4.81591875    8.61350879   -0.00001376
     atom   11 type  3   force =     8.61344973   -4.81592044   -0.00001233
     atom   12 type  3   force =     4.81589589   -8.61348160    0.00001012
     atom   13 type  3   force =    -8.61343674    4.81590829   -0.00000045
     atom   14 type  3   force =    -4.81590257    8.61347559    0.00001406
     atom   15 type  3   force =    -8.61344991   -4.81591663    0.00001521
     atom   16 type  3   force =     8.61345089    4.81592583    0.00000861
     atom   17 type  3   force =     0.00001000   -0.00000579  -10.22038377
     atom   18 type  3   force =    -0.00000422    0.00000800   10.22037434
     atom   19 type  3   force =    -0.00000269   -0.00000764   10.22034725
     atom   20 type  3   force =     0.00000193   -0.00000756  -10.22035720
     The core correction contribution to forces
     atom    1 type  1   force =     0.00000126   -0.00000132    0.00000126
     atom    2 type  1   force =     0.00000531    0.00000420   -0.00000069
     atom    3 type  1   force =     0.00000297   -0.00000176   -0.00000489
     atom    4 type  1   force =     0.00000209   -0.00000266    0.00000276
     atom    5 type  1   force =     0.00000046   -0.00000352   -0.00000409
     atom    6 type  1   force =    -0.00000135    0.00000262   -0.00000041
     atom    7 type  2   force =     0.00000000    0.00000000    0.00000000
     atom    8 type  2   force =     0.00000000    0.00000000    0.00000000
     atom    9 type  3   force =     0.00000000    0.00000000    0.00000000
     atom   10 type  3   force =     0.00000000    0.00000000    0.00000000
     atom   11 type  3   force =     0.00000000    0.00000000    0.00000000
     atom   12 type  3   force =     0.00000000    0.00000000    0.00000000
     atom   13 type  3   force =     0.00000000    0.00000000    0.00000000
     atom   14 type  3   force =     0.00000000    0.00000000    0.00000000
     atom   15 type  3   force =     0.00000000    0.00000000    0.00000000
     atom   16 type  3   force =     0.00000000    0.00000000    0.00000000
     atom   17 type  3   force =     0.00000000    0.00000000    0.00000000
     atom   18 type  3   force =     0.00000000    0.00000000    0.00000000
     atom   19 type  3   force =     0.00000000    0.00000000    0.00000000
     atom   20 type  3   force =     0.00000000    0.00000000    0.00000000
     The Hubbard contrib.    to forces
     atom    1 type  1   force =     0.00000000    0.00000000    0.00000000
     atom    2 type  1   force =     0.00000000    0.00000000    0.00000000
     atom    3 type  1   force =     0.00000000    0.00000000    0.00000000
     atom    4 type  1   force =     0.00000000    0.00000000    0.00000000
     atom    5 type  1   force =     0.00000000    0.00000000    0.00000000
     atom    6 type  1   force =     0.00000000    0.00000000    0.00000000
     atom    7 type  2   force =     0.00000000    0.00000000    0.00000000
     atom    8 type  2   force =     0.00000000    0.00000000    0.00000000
     atom    9 type  3   force =     0.00000000    0.00000000    0.00000000
     atom   10 type  3   force =     0.00000000    0.00000000    0.00000000
     atom   11 type  3   force =     0.00000000    0.00000000    0.00000000
     atom   12 type  3   force =     0.00000000    0.00000000    0.00000000
     atom   13 type  3   force =     0.00000000    0.00000000    0.00000000
     atom   14 type  3   force =     0.00000000    0.00000000    0.00000000
     atom   15 type  3   force =     0.00000000    0.00000000    0.00000000
     atom   16 type  3   force =     0.00000000    0.00000000    0.00000000
     atom   17 type  3   force =     0.00000000    0.00000000    0.00000000
     atom   18 type  3   force =     0.00000000    0.00000000    0.00000000
     atom   19 type  3   force =     0.00000000    0.00000000    0.00000000
     atom   20 type  3   force =     0.00000000    0.00000000    0.00000000
     The SCF correction term to forces
     atom    1 type  1   force =    -0.00000837    0.00000051   -0.00004546
     atom    2 type  1   force =     0.00000672   -0.00000791    0.00004472
     atom    3 type  1   force =     0.00000916   -0.00000478    0.00003727
     atom    4 type  1   force =     0.00000264    0.00000304   -0.00001974
     atom    5 type  1   force =    -0.00001201   -0.00001016   -0.00001605
     atom    6 type  1   force =    -0.00000520   -0.00001838    0.00001320
     atom    7 type  2   force =     0.00000595   -0.00002760    0.00005622
     atom    8 type  2   force =     0.00005512    0.00000169   -0.00006409
     atom    9 type  3   force =    -0.00010825   -0.00014959    0.00000715
     atom   10 type  3   force =     0.00010593    0.00017133    0.00000846
     atom   11 type  3   force =     0.00023452   -0.00009264    0.00001969
     atom   12 type  3   force =     0.00012172   -0.00018604   -0.00001378
     atom   13 type  3   force =    -0.00025749    0.00010629   -0.00000559
     atom   14 type  3   force =    -0.00011904    0.00020131   -0.00003112
     atom   15 type  3   force =    -0.00023715   -0.00010165   -0.00002266
     atom   16 type  3   force =     0.00023377    0.00007823   -0.00001407
     atom   17 type  3   force =    -0.00001852    0.00000336   -0.00026271
     atom   18 type  3   force =     0.00000338   -0.00001622    0.00027527
     atom   19 type  3   force =     0.00001478    0.00000497    0.00029926
     atom   20 type  3   force =     0.00000175   -0.00000012   -0.00028275

     Total force =     0.017177     Total SCF correction =     0.000885

     Computing stress (Cartesian axis) and pressure

          total   stress  (Ry/bohr**3)                   (kbar)     P=      -56.27
  -0.00034506   0.00000000   0.00000000          -50.76        0.00        0.00
   0.00000000  -0.00034506   0.00000000            0.00      -50.76        0.00
   0.00000000   0.00000000  -0.00045748            0.00        0.00      -67.30

     kinetic stress (kbar)  10991.51      0.00      0.00
                                0.00  10991.51      0.00
                                0.00      0.00  10986.83

     local   stress (kbar)  -8204.50      0.01     -0.00
                                0.01  -8204.45      0.00
                               -0.00      0.00  -8744.95

     nonloc. stress (kbar)   4054.65      0.00      0.00
                                0.00   4054.65      0.00
                                0.00      0.00   4040.57

     hartree stress (kbar)   5924.16     -0.01      0.00
                               -0.01   5924.13      0.00
                                0.00      0.00   5992.04

     exc-cor stress (kbar)   3751.46      0.00      0.00
                                0.00   3751.46     -0.00
                                0.00     -0.00   3753.45

     corecor stress (kbar)  -6811.13      0.00     -0.00
                                0.00  -6811.13      0.00
                               -0.00      0.00  -6810.48

     ewald   stress (kbar)  -9756.91     -0.00     -0.00
                               -0.00  -9756.91     -0.00
                               -0.00     -0.00  -9284.76

     hubbard stress (kbar)      0.00      0.00      0.00
                                0.00      0.00      0.00
                                0.00      0.00      0.00

     DFT-D   stress (kbar)      0.00      0.00      0.00
                                0.00      0.00      0.00
                                0.00      0.00      0.00

     XDM     stress (kbar)      0.00      0.00      0.00
                                0.00      0.00      0.00
                                0.00      0.00      0.00

     dft-nl  stress (kbar)      0.00      0.00      0.00
                                0.00      0.00      0.00
                                0.00      0.00      0.00

     TS-vdW  stress (kbar)      0.00      0.00      0.00
                                0.00      0.00      0.00
                                0.00      0.00      0.00

[...]

                                0.00      0.00      0.00

     Writing all to output data dir new_calculations/myprefix.save/

     General routines

     Parallel routines

   This run was terminated on:   4:55:15  20May2023

   JOB DONE.