     Program PWSCF v.7.0 starts on 21May2023 at 12:18:25

     Reading input from espresso_25564.pwi
Warning: card &CELL ignored
Warning: card / ignored

     Current dimensions of program PWSCF are:
     Max number of different atomic species (ntypx) = 10
     Max number of k-points (npk) =  40000
     Max angular momentum in pseudopotentials (lmaxx) =  4

     gamma-point specific algorithms are used
     Message from routine setup:
     using ibrav=0 with symmetry is DISCOURAGED, use correct ibrav instead

     Subspace diagonalization in iterative solution of the eigenvalue problem:
     a serial algorithm will be used

     Using Slab Decomposition

     bravais-lattice index     =            0
     lattice parameter (alat)  =      10.4095  a.u.
     unit-cell volume          =     868.2944 (a.u.)^3
     number of atoms/cell      =            7
     number of atomic types    =            2
     number of electrons       =        57.00
     number of Kohn-Sham states=           35
     kinetic-energy cutoff     =      30.0000  Ry
     charge density cutoff     =     240.0000  Ry
     scf convergence threshold =      1.0E-06
     mixing beta               =       0.7000
     number of iterations used =            8  plain     mixing
     Exchange-correlation=  SLA  PW   PBX  PBC
                           (   1   4   3   4   0   0   0)

     celldm(1)=  10.409494  celldm(2)=   0.000000  celldm(3)=   0.000000
     celldm(4)=   0.000000  celldm(5)=   0.000000  celldm(6)=   0.000000

     crystal axes: (cart. coord. in units of alat)
               a(1) = (   1.000000   0.000000   0.000000 )
               a(2) = (  -0.333333   0.942809   0.000000 )
               a(3) = (  -0.333333  -0.471405   0.816497 )

     reciprocal axes: (cart. coord. in units 2 pi/alat)
               b(1) = (  1.000000  0.353553  0.612372 )
               b(2) = (  0.000000  1.060660  0.612372 )
               b(3) = (  0.000000  0.000000  1.224745 )

     PseudoPot. # 1 for Tc read from file:
     /home/pragov/projects/rrg-bengioy-ad/pragov/crystal_structure_design/SSSP/Tc_ONCV_PBE-1.0.oncvpsp.upf
     MD5 check sum: 1c2b1e6c8b361b656073c0c20ed4f60a
     Pseudo is Norm-conserving, Zval = 15.0
     Generated using ONCVPSP code by D. R. Hamann
     Using radial grid of 1492 points,  6 beta functions with:
                l(1) =   0
                l(2) =   0
                l(3) =   1
                l(4) =   1
                l(5) =   2
                l(6) =   2

     PseudoPot. # 2 for F  read from file:
     /home/pragov/projects/rrg-bengioy-ad/pragov/crystal_structure_design/SSSP/f_pbe_v1.4.uspp.F.UPF
     MD5 check sum: 4c38b6a325caf53ec0e86aed9459de46
     Pseudo is Ultrasoft, Zval =  7.0
     Generated by new atomic code, or converted to UPF format
     Using radial grid of  799 points,  4 beta functions with:
                l(1) =   0
                l(2) =   0
                l(3) =   1
                l(4) =   1
     Q(r) pseudized with  8 coefficients,  rinner =    0.950   0.950   0.950

     atomic species   valence    mass     pseudopotential
        Tc            15.00    97.90721     Tc( 1.00)
        F              7.00    18.99840     F ( 1.00)

      4 Sym. Ops., with inversion, found

                                    s                        frac. trans.

      isym =  1     identity

 cryst.   s( 1) = (     1          0          0      )
                  (     0          1          0      )
                  (     0          0          1      )

 cart.    s( 1) = (  1.0000000  0.0000000 -0.0000000 )
                  (  0.0000000  1.0000000  0.0000000 )
                  (  0.0000000  0.0000000  1.0000000 )

      isym =  2     180 deg rotation - cart. axis [0,0,1]

[...]

      isym =  3     inversion

[...]

      isym =  4     inv. 180 deg rotation - cart. axis [0,0,1]

 cryst.   s( 4) = (     1          0          0      )
                  (     0          1          0      )
                  (    -1         -1         -1      )

 cart.    s( 4) = (  1.0000000  0.0000000 -0.0000000 )
                  (  0.0000000  1.0000000 -0.0000000 )
                  (  0.0000000  0.0000000 -1.0000000 )

   Cartesian axes

     site n.     atom                  positions (alat units)
         1           Tc  tau(   1) = (   0.0000000   0.0000000   0.0000000  )
         2           F   tau(   2) = (   0.8053773   0.1376190   0.2383631  )
         3           F   tau(   3) = (   0.5279560   0.3337855   0.5781335  )
         4           F   tau(   4) = (  -0.1387107   0.8051900   0.2383631  )
         5           F   tau(   5) = (   0.1387107   0.6090235   0.5781335  )
         6           F   tau(   6) = (   0.1946227   0.2752380   0.0000000  )
         7           F   tau(   7) = (   0.4720440   0.6675710   0.0000000  )

   Crystallographic axes

     site n.     atom                  positions (cryst. coord.)
         1           Tc  tau(   1) = (  0.0000000  0.0000000  0.0000000  )
         2           F   tau(   2) = (  1.0000000  0.2919340  0.2919340  )
         3           F   tau(   3) = (  1.0000000  0.7080660  0.7080660  )
         4           F   tau(   4) = (  0.2919340  1.0000000  0.2919340  )
         5           F   tau(   5) = (  0.7080660  1.0000000  0.7080660  )
         6           F   tau(   6) = (  0.2919340  0.2919340  0.0000000  )
         7           F   tau(   7) = (  0.7080660  0.7080660  0.0000000  )

     number of k points=     1  Methfessel-Paxton smearing, width (Ry)=  0.0010
                       cart. coord. in units 2pi/alat
        k(    1) = (   0.0000000   0.0000000   0.0000000), wk =   2.0000000

                       cryst. coord.
        k(    1) = (   0.0000000   0.0000000   0.0000000), wk =   2.0000000

     Initial potential from superposition of free atoms

     starting charge      56.9993, renormalised to      57.0000
     Starting wfcs are   34 randomized atomic wfcs +    1 random wfcs

     Self-consistent Calculation

     iteration #  1     ecut=    30.00 Ry     beta= 0.70
     Davidson diagonalization with overlap

     ethr =  1.00E-02,  avg # of iterations =  5.0

     total energy              =    -451.78757578 Ry
     estimated scf accuracy    <       1.46811503 Ry

[...]

     total energy              =    -452.66868985 Ry
     estimated scf accuracy    <       0.00000221 Ry

     iteration # 28     ecut=    30.00 Ry     beta= 0.70
     Davidson diagonalization with overlap

     ethr =  3.87E-09,  avg # of iterations =  1.0

     End of self-consistent calculation

          k = 0.0000 0.0000 0.0000 (  1174 PWs)   bands (ev):

   -69.0625 -43.0003 -42.5335 -41.2094 -23.9783 -23.7532 -23.6914 -23.5035
   -23.2257 -23.0322  -7.0130  -6.8914  -5.9480  -5.9147  -5.8985  -5.6919
    -4.0912  -3.9623  -3.8568  -3.5857  -3.4152  -3.3213  -3.1733  -3.0707
    -2.7578  -2.6677  -2.6163  -2.4080   0.7189   0.7259   1.0066   4.1264
     4.4579   6.1250  12.6296

     occupation numbers
     1.0000   1.0000   1.0000   1.0000   1.0000   1.0000   1.0000   1.0000
     1.0000   1.0000   1.0000   1.0000   1.0000   1.0000   1.0000   1.0000
     1.0000   1.0000   1.0000   1.0000   1.0000   1.0000   1.0000   1.0000
     1.0000   1.0000   1.0000   1.0000   0.4220   0.0780  -0.0000  -0.0000
    -0.0000  -0.0000  -0.0000

     the Fermi energy is     0.7177 ev

!    total energy              =    -452.66868940 Ry
     estimated scf accuracy    <       0.00000089 Ry
     smearing contrib. (-TS)   =      -0.00032763 Ry
     internal energy E=F+TS    =    -452.66836177 Ry

     The total energy is F=E-TS. E is the sum of the following terms:
     one-electron contribution =    -375.84931121 Ry
     hartree contribution      =     204.84175435 Ry
     xc contribution           =     -72.69629069 Ry
     ewald contribution        =    -208.96451422 Ry

     convergence has been achieved in  28 iterations

     Forces acting on atoms (cartesian axes, Ry/au):

     atom    1 type  1   force =     0.00000000    0.00000000    0.00000000
     atom    2 type  2   force =     0.01384968   -0.00678646   -0.00485871
     atom    3 type  2   force =    -0.01384968    0.00678646    0.00485871
     atom    4 type  2   force =    -0.01384968    0.00678646   -0.00485871
     atom    5 type  2   force =     0.01384968   -0.00678646    0.00485871
     atom    6 type  2   force =     0.00926379    0.02987667   -0.00000000
     atom    7 type  2   force =    -0.00926379   -0.02987667    0.00000000
     The non-local contrib.  to forces
     atom    1 type  1   force =     0.00000000    0.00000000   -0.00000000
     atom    2 type  2   force =     0.88761044   -0.62335876   -1.08125891
     atom    3 type  2   force =    -0.88761044    0.62335876    1.08125891
     atom    4 type  2   force =    -0.88761044    0.62335876   -1.08125891
     atom    5 type  2   force =     0.88761044   -0.62335876    1.08125891
     atom    6 type  2   force =    -0.88541091   -1.22648969    0.00000000
     atom    7 type  2   force =     0.88541091    1.22648969   -0.00000000
     The ionic contribution  to forces
     atom    1 type  1   force =    -0.00000000   -0.00000000    0.00000000
     atom    2 type  2   force =    -9.98472158    7.06026434   12.22873655
     atom    3 type  2   force =     9.98472158   -7.06026434  -12.22873655
     atom    4 type  2   force =     9.98472158   -7.06026434   12.22873655
     atom    5 type  2   force =    -9.98472158    7.06026434  -12.22873655
     atom    6 type  2   force =     9.98472158   14.12052868   -0.00000000
     atom    7 type  2   force =    -9.98472158  -14.12052868    0.00000000
     The local contribution  to forces
     atom    1 type  1   force =    -0.00000193   -0.00000304   -0.00000008
     atom    2 type  2   force =     9.10810258   -6.44093288  -11.15380460
     atom    3 type  2   force =    -9.10810252    6.44093248   11.15380459
     atom    4 type  2   force =    -9.11411283    6.44608674  -11.15049432
     atom    5 type  2   force =     9.11411211   -6.44608756   11.15049440
     atom    6 type  2   force =    -9.09029945  -12.86393052   -0.01496782
     atom    7 type  2   force =     9.09029974   12.86393066    0.01496775
     The core correction contribution to forces
     atom    1 type  1   force =     0.00000000    0.00000000    0.00000000
     atom    2 type  2   force =     0.00000000    0.00000000    0.00000000
     atom    3 type  2   force =     0.00000000    0.00000000    0.00000000
     atom    4 type  2   force =     0.00000000    0.00000000    0.00000000
     atom    5 type  2   force =     0.00000000    0.00000000    0.00000000
     atom    6 type  2   force =     0.00000000    0.00000000    0.00000000
     atom    7 type  2   force =     0.00000000    0.00000000    0.00000000
     The Hubbard contrib.    to forces
     atom    1 type  1   force =     0.00000000    0.00000000    0.00000000
     atom    2 type  2   force =     0.00000000    0.00000000    0.00000000
     atom    3 type  2   force =     0.00000000    0.00000000    0.00000000
     atom    4 type  2   force =     0.00000000    0.00000000    0.00000000
     atom    5 type  2   force =     0.00000000    0.00000000    0.00000000
     atom    6 type  2   force =     0.00000000    0.00000000    0.00000000
     atom    7 type  2   force =     0.00000000    0.00000000    0.00000000
     The SCF correction term to forces
     atom    1 type  1   force =     0.00000194    0.00000337    0.00000067
     atom    2 type  2   force =    -0.00010449   -0.00009222   -0.00017457
     atom    3 type  2   force =     0.00010465    0.00009277    0.00017469
     atom    4 type  2   force =     0.00018904    0.00027220   -0.00019908
     atom    5 type  2   force =    -0.00018857   -0.00027133    0.00019919
     atom    6 type  2   force =     0.00025259   -0.00023185    0.00013272
     atom    7 type  2   force =    -0.00025284    0.00023161   -0.00013263

     Total force =     0.054798     Total SCF correction =     0.000818

     Computing stress (Cartesian axis) and pressure

          total   stress  (Ry/bohr**3)                   (kbar)     P=     -332.49
  -0.00204249  -0.00023452   0.00000000         -300.46      -34.50        0.00
  -0.00023452  -0.00241291   0.00000000          -34.50     -354.95        0.00
   0.00000000   0.00000000  -0.00232534            0.00        0.00     -342.07

     kinetic stress (kbar)  18126.49     -6.37     -0.00
                               -6.37  17963.67     -0.00
                               -0.00     -0.00  17914.84

     local   stress (kbar) -16382.32     -6.40     95.56
                               -6.40 -16061.57   -130.51
                               95.56   -130.51 -16008.95

     nonloc. stress (kbar)   2042.05    -39.08     -0.00
                              -39.08   1882.27     -0.00
                               -0.00     -0.00   1921.41

     hartree stress (kbar)  11612.72     16.78    -33.31
                               16.78  11560.33     39.63
                              -33.31     39.63  11530.92

     exc-cor stress (kbar)  -3898.58      0.57      0.17
                                0.57  -3898.84      0.17
                                0.17      0.17  -3899.47

     corecor stress (kbar)      0.00      0.00      0.00
                                0.00      0.00      0.00
                                0.00      0.00      0.00

     ewald   stress (kbar) -11800.81      0.00      0.00
                                0.00 -11800.81      0.00
                                0.00      0.00 -11800.81

     hubbard stress (kbar)      0.00      0.00      0.00
                                0.00      0.00      0.00
                                0.00      0.00      0.00

     DFT-D   stress (kbar)      0.00      0.00      0.00
                                0.00      0.00      0.00
                                0.00      0.00      0.00

     XDM     stress (kbar)      0.00      0.00      0.00
                                0.00      0.00      0.00
                                0.00      0.00      0.00

     dft-nl  stress (kbar)      0.00      0.00      0.00
                                0.00      0.00      0.00
                                0.00      0.00      0.00

     TS-vdW  stress (kbar)      0.00      0.00      0.00
                                0.00      0.00      0.00
                                0.00      0.00      0.00

[...]

                                0.00      0.00      0.00

     Writing all to output data dir new_calculations/myprefix.save/

     General routines

     Parallel routines

   This run was terminated on:  12:18:36  21May2023

   JOB DONE.