     Program PWSCF v.7.0 starts on 20May2023 at 20:49: 8

     Reading input from espresso_17617.pwi
Warning: card &CELL ignored
Warning: card / ignored

     Current dimensions of program PWSCF are:
     Max number of different atomic species (ntypx) = 10
     Max number of k-points (npk) =  40000
     Max angular momentum in pseudopotentials (lmaxx) =  4
     file Ga.pbe-dn-kjpaw_psl.1.0.0.UPF: wavefunction(s)  4S renormalized

     gamma-point specific algorithms are used

     Subspace diagonalization in iterative solution of the eigenvalue problem:
     a serial algorithm will be used

     Using Slab Decomposition

     bravais-lattice index     =            0
     lattice parameter (alat)  =      13.1343  a.u.
     unit-cell volume          =    1340.4127 (a.u.)^3
     number of atoms/cell      =            8
     number of atomic types    =            4
     number of electrons       =        88.00
     number of Kohn-Sham states=           53
     kinetic-energy cutoff     =      30.0000  Ry
     charge density cutoff     =     240.0000  Ry
     scf convergence threshold =      1.0E-06
     mixing beta               =       0.7000
     number of iterations used =            8  plain     mixing
     Exchange-correlation=  SLA  PW   PBX  PBC
                           (   1   4   3   4   0   0   0)

     celldm(1)=  13.134254  celldm(2)=   0.000000  celldm(3)=   0.000000
     celldm(4)=   0.000000  celldm(5)=   0.000000  celldm(6)=   0.000000

     crystal axes: (cart. coord. in units of alat)
               a(1) = (   1.000000   0.000000   0.000000 )
               a(2) = (   0.625893   0.779909   0.000000 )
               a(3) = (   0.364362   0.174777   0.758540 )

     reciprocal axes: (cart. coord. in units 2 pi/alat)
               b(1) = (  1.000000 -0.802520 -0.295436 )
               b(2) = (  0.000000  1.282201 -0.295436 )
               b(3) = (  0.000000  0.000000  1.318323 )

     PseudoPot. # 1 for Ga read from file:
     /home/pragov/projects/rrg-bengioy-ad/pragov/crystal_structure_design/SSSP/Ga.pbe-dn-kjpaw_psl.1.0.0.UPF
     MD5 check sum: a27b4342b1af7e5f338de752e9ed7044
     Pseudo is Projector augmented-wave + core cor, Zval = 13.0
     Generated using "atomic" code by A. Dal Corso  v.5.1
     Shape of augmentation charge: PSQ
     Using radial grid of 1205 points,  6 beta functions with:
                l(1) =   0
                l(2) =   0
                l(3) =   1
                l(4) =   1
                l(5) =   2
                l(6) =   2
     Q(r) pseudized with 0 coefficients

     PseudoPot. # 2 for Ag read from file:
     /home/pragov/projects/rrg-bengioy-ad/pragov/crystal_structure_design/SSSP/Ag_ONCV_PBE-1.0.oncvpsp.upf
     MD5 check sum: 94f47bd0669c641108e45594df92fabc
     Pseudo is Norm-conserving, Zval = 19.0
     Generated using ONCVPSP code by D. R. Hamann
     Using radial grid of 1398 points,  6 beta functions with:
                l(1) =   0
                l(2) =   0
                l(3) =   1
                l(4) =   1
                l(5) =   2
                l(6) =   2

     PseudoPot. # 3 for Se read from file:
     /home/pragov/projects/rrg-bengioy-ad/pragov/crystal_structure_design/SSSP/Se_pbe_v1.uspp.F.UPF
     MD5 check sum: 1b3568f3a8ae88f9a2a0ad0698632c85
     Pseudo is Ultrasoft + core correction, Zval =  6.0
     Generated by new atomic code, or converted to UPF format
     Using radial grid of  877 points,  6 beta functions with:
                l(1) =   0
                l(2) =   0
                l(3) =   1
                l(4) =   1
                l(5) =   2
                l(6) =   2
     Q(r) pseudized with  8 coefficients,  rinner =    1.300   1.300   1.300
                                                       1.300   1.300

     PseudoPot. # 4 for S  read from file:
     /home/pragov/projects/rrg-bengioy-ad/pragov/crystal_structure_design/SSSP/s_pbe_v1.4.uspp.F.UPF
     MD5 check sum: 88d86576ff6df21479756cfb9bdac1df
     Pseudo is Ultrasoft + core correction, Zval =  6.0
     Generated by new atomic code, or converted to UPF format
     Using radial grid of  907 points,  6 beta functions with:
                l(1) =   0
                l(2) =   0
                l(3) =   1
                l(4) =   1
                l(5) =   2
                l(6) =   2
     Q(r) pseudized with  8 coefficients,  rinner =    1.300   1.300   1.300
                                                       1.300   1.300

     atomic species   valence    mass     pseudopotential
        Ga            13.00    69.72300     Ga( 1.00)
        Ag            19.00   107.86820     Ag( 1.00)
        Se             6.00    78.97100     Se( 1.00)
        S              6.00    32.06000     S ( 1.00)

     No symmetry found

                                    s                        frac. trans.

      isym =  1     identity

 cryst.   s( 1) = (     1          0          0      )
                  (     0          1          0      )
                  (     0          0          1      )

 cart.    s( 1) = (  1.0000000 -0.0000000  0.0000000 )
                  (  0.0000000  1.0000000  0.0000000 )
                  (  0.0000000  0.0000000  1.0000000 )

   Cartesian axes

     site n.     atom                  positions (alat units)
         1           Ga  tau(   1) = (   1.2810470   0.5007044   0.4698842  )
         2           Ga  tau(   2) = (   0.7979529   0.2689736   0.2886555  )
         3           Ag  tau(   3) = (   0.9236612   0.7929513   0.1039981  )
         4           Ag  tau(   4) = (   0.7937121   0.7306172   0.6545416  )
         5           Se  tau(   5) = (   0.9412409   0.1224964   0.0000000  )
         6           Se  tau(   6) = (   1.4348404   0.8081764   0.5470816  )
         7           Se  tau(   7) = (   0.4618945   0.3414732   0.2114581  )
         8           S   tau(   8) = (   0.9611772   0.5481200   0.3792699  )

   Crystallographic axes

     site n.     atom                  positions (cryst. coord.)
         1           Ga  tau(   1) = (  0.7404010  0.5031830  0.6194590  )
         2           Ga  tau(   2) = (  0.4968170  0.2595990  0.3805410  )
         3           Ag  tau(   3) = (  0.2565770  0.9859980  0.1371030  )
         4           Ag  tau(   4) = (  0.0140020  0.7434230  0.8628970  )
         5           Se  tau(   5) = (  0.8429350  0.1570650  0.0000000  )
         6           Se  tau(   6) = (  0.6246350  0.8746170  0.7212300  )
         7           Se  tau(   7) = (  0.1253830  0.3753650  0.2787700  )
         8           S   tau(   8) = (  0.4092500  0.5907500  0.5000000  )

     number of k points=     1  Methfessel-Paxton smearing, width (Ry)=  0.0010
                       cart. coord. in units 2pi/alat
        k(    1) = (   0.0000000   0.0000000   0.0000000), wk =   2.0000000

                       cryst. coord.
        k(    1) = (   0.0000000   0.0000000   0.0000000), wk =   2.0000000

     Check: negative core charge=   -0.000001

     Initial potential from superposition of free atoms

     starting charge      87.9933, renormalised to      88.0000
     Starting wfcs are   54 randomized atomic wfcs
     Checking if some PAW data can be deallocated...

     Self-consistent Calculation

     iteration #  1     ecut=    30.00 Ry     beta= 0.70
     Davidson diagonalization with overlap

     ethr =  1.00E-02,  avg # of iterations =  5.0

     Threshold (ethr) on eigenvalues was too large:
     Diagonalizing with lowered threshold

     Davidson diagonalization with overlap

[...]

     total energy              =   -1284.80336356 Ry
     estimated scf accuracy    <       0.44029261 Ry

[...]

     total energy              =   -1284.96730715 Ry
     estimated scf accuracy    <       0.00000114 Ry

     iteration # 10     ecut=    30.00 Ry     beta= 0.70
     Davidson diagonalization with overlap

     ethr =  1.30E-09,  avg # of iterations =  2.0

     End of self-consistent calculation

          k = 0.0000 0.0000 0.0000 (  1856 PWs)   bands (ev):

   -85.3129 -85.3123 -48.3893 -48.3870 -48.3578 -48.3562 -48.3506 -48.3491
    -8.8274  -8.8012  -8.7982  -8.7055  -8.6965  -8.6939  -8.6498  -8.6466
    -8.6415  -8.6360  -6.9554  -5.6116  -5.5878  -5.5412  -0.7128   1.3231
     2.2319   2.2890   2.5800   2.6062   2.7019   2.7854   2.8514   3.0143
     3.3338   3.3914   3.4587   3.5033   3.9590   4.2032   4.6730   4.7578
     4.9025   6.4177   6.4487   6.7028   6.8769   9.2282   9.6101  10.8802
    10.9727  11.0232  11.6214  11.7254  12.0951

     occupation numbers
     1.0000   1.0000   1.0000   1.0000   1.0000   1.0000   1.0000   1.0000
     1.0000   1.0000   1.0000   1.0000   1.0000   1.0000   1.0000   1.0000
     1.0000   1.0000   1.0000   1.0000   1.0000   1.0000   1.0000   1.0000
     1.0000   1.0000   1.0000   1.0000   1.0000   1.0000   1.0000   1.0000
     1.0000   1.0000   1.0000   1.0000   1.0000   1.0000   1.0000   1.0000
     1.0000   1.0000   1.0000   1.0000  -0.0000  -0.0000  -0.0000  -0.0000
    -0.0000  -0.0000  -0.0000  -0.0000  -0.0000

     the Fermi energy is     6.7939 ev

!    total energy              =   -1284.96730735 Ry
     estimated scf accuracy    <       0.00000004 Ry
     smearing contrib. (-TS)   =       0.00000000 Ry
     internal energy E=F+TS    =   -1284.96730735 Ry

     The total energy is F=E-TS. E is the sum of the following terms:
     one-electron contribution =    -650.87744169 Ry
     hartree contribution      =     367.32207698 Ry
     xc contribution           =    -228.00288605 Ry
     ewald contribution        =    -551.51020234 Ry
     one-center paw contrib.   =    -221.89885424 Ry
      -> PAW hartree energy AE =     278.13224715 Ry
      -> PAW hartree energy PS =    -273.74825813 Ry
      -> PAW xc energy AE      =    -301.38790738 Ry
      -> PAW xc energy PS      =      75.10506412 Ry
      -> total E_H with PAW    =     371.70606600 Ry
      -> total E_XC with PAW   =    -454.28572932 Ry

     convergence has been achieved in  10 iterations

     Forces acting on atoms (cartesian axes, Ry/au):

     atom    1 type  1   force =     0.00529807   -0.00248488    0.00250251
     atom    2 type  1   force =    -0.00135475   -0.00568523   -0.00242925
     atom    3 type  2   force =    -0.00311652   -0.00228605    0.00206697
     atom    4 type  2   force =     0.00374113    0.00098961   -0.00208998
     atom    5 type  3   force =     0.00980463   -0.02044395   -0.00001051
     atom    6 type  3   force =     0.01277865    0.00897346    0.02219060
     atom    7 type  3   force =    -0.01501742   -0.00435216   -0.02221257
     atom    8 type  4   force =    -0.01213378    0.02528920   -0.00001776
     The non-local contrib.  to forces
     atom    1 type  1   force =    -0.03603579    0.02381894   -0.01611272
     atom    2 type  1   force =     0.00395726    0.04302684    0.01619235
     atom    3 type  2   force =    -0.02088695    0.01053613    0.00090316
     atom    4 type  2   force =     0.00484641    0.02289142   -0.00092568
     atom    5 type  3   force =    -0.12055511    0.25091930    0.00016851
     atom    6 type  3   force =    -0.12059946    0.00966487   -0.20990533
     atom    7 type  3   force =     0.06775475    0.09994468    0.21029095
     atom    8 type  4   force =     0.05532805   -0.11563957    0.00019734
     The ionic contribution  to forces
     atom    1 type  1   force =     1.61940913   -0.35656223    0.31531691
     atom    2 type  1   force =    -0.73549051   -1.48616159   -0.31531691
     atom    3 type  2   force =     0.00639343    1.14064501   -1.45661637
     atom    4 type  2   force =    -0.89360097    0.70893528    1.45661637
     atom    5 type  3   force =    -0.49091084    1.02341219   -0.00000000
     atom    6 type  3   force =    -0.56070887   -0.15346548   -1.11612960
     atom    7 type  3   force =     0.47063280    0.34124897    1.11612960
     atom    8 type  4   force =     0.58427582   -1.21805215    0.00000000
     The local contribution  to forces
     atom    1 type  1   force =    -1.57921477    0.33093205   -0.29695464
     atom    2 type  1   force =     0.73039572    1.43873242    0.29693231
     atom    3 type  2   force =     0.01162938   -1.15358027    1.45790205
     atom    4 type  2   force =     0.89247711   -0.73080966   -1.45837969
     atom    5 type  3   force =     0.60776222   -1.26645018   -0.00018918
     atom    6 type  3   force =     0.68046367    0.15457715    1.32499645
     atom    7 type  3   force =    -0.54628682   -0.43382395   -1.32535538
     atom    8 type  4   force =    -0.64891377    1.35326825   -0.00028825
     The core correction contribution to forces
     atom    1 type  1   force =     0.00114620   -0.00051428    0.00031237
     atom    2 type  1   force =    -0.00031664   -0.00121336   -0.00031725
     atom    3 type  2   force =     0.00000000    0.00000000    0.00000000
     atom    4 type  2   force =     0.00000000    0.00000000    0.00000000
     atom    5 type  3   force =     0.01361331   -0.02832349   -0.00002309
     atom    6 type  3   force =     0.01368389   -0.00182059    0.02325355
     atom    7 type  3   force =    -0.00711948   -0.01178986   -0.02330548
     atom    8 type  4   force =    -0.00278317    0.00581995   -0.00001219
     The Hubbard contrib.    to forces
     atom    1 type  1   force =     0.00000000    0.00000000    0.00000000
     atom    2 type  1   force =     0.00000000    0.00000000    0.00000000
     atom    3 type  2   force =     0.00000000    0.00000000    0.00000000
     atom    4 type  2   force =     0.00000000    0.00000000    0.00000000
     atom    5 type  3   force =     0.00000000    0.00000000    0.00000000
     atom    6 type  3   force =     0.00000000    0.00000000    0.00000000
     atom    7 type  3   force =     0.00000000    0.00000000    0.00000000
     atom    8 type  4   force =     0.00000000    0.00000000    0.00000000
     The SCF correction term to forces
     atom    1 type  1   force =     0.00002244   -0.00019434   -0.00004830
     atom    2 type  1   force =     0.00012857   -0.00010452    0.00009136
     atom    3 type  2   force =    -0.00022322    0.00007811   -0.00011077
     atom    4 type  2   force =     0.00004773   -0.00006240    0.00061013
     atom    5 type  3   force =    -0.00007579   -0.00003674    0.00004436
     atom    6 type  3   force =    -0.00003143   -0.00001747   -0.00001337
     atom    7 type  3   force =     0.00003048    0.00003302    0.00003886
     atom    8 type  4   force =    -0.00001157   -0.00014226    0.00009644

     Total force =     0.053797     Total SCF correction =     0.000753

     Computing stress (Cartesian axis) and pressure

          total   stress  (Ry/bohr**3)                   (kbar)     P=     -293.41
  -0.00206775  -0.00008218   0.00013858         -304.18      -12.09       20.39
  -0.00008218  -0.00193586   0.00006650          -12.09     -284.77        9.78
   0.00013858   0.00006650  -0.00198007           20.39        9.78     -291.28

     kinetic stress (kbar)  18140.33     -1.35      8.52
                               -1.35  18142.49      4.03
                                8.52      4.03  18132.26

     local   stress (kbar)  -8504.69    693.56   -657.72
                              693.56  -9617.88   -315.38
                             -657.72   -315.38  -9640.04

     nonloc. stress (kbar)   2025.99     -7.89      6.68
                               -7.89   2038.66      3.22
                                6.68      3.22   2039.78

     hartree stress (kbar)  13160.38   -242.67    207.32
                             -242.67  13549.85     99.38
                              207.32     99.38  13601.93

     exc-cor stress (kbar)   7403.50     -0.72      0.97
                               -0.72   7404.66      0.46
                                0.97      0.46   7404.08

     corecor stress (kbar) -11878.50      0.08     -0.12
                                0.08 -11878.63     -0.06
                               -0.12     -0.06 -11878.32

     ewald   stress (kbar) -20651.19   -453.10    454.73
                             -453.10 -19923.93    218.13
                              454.73    218.13 -19950.98

     hubbard stress (kbar)      0.00      0.00      0.00
                                0.00      0.00      0.00
                                0.00      0.00      0.00

     DFT-D   stress (kbar)      0.00      0.00      0.00
                                0.00      0.00      0.00
                                0.00      0.00      0.00

     XDM     stress (kbar)      0.00      0.00      0.00
                                0.00      0.00      0.00
                                0.00      0.00      0.00

     dft-nl  stress (kbar)      0.00      0.00      0.00
                                0.00      0.00      0.00
                                0.00      0.00      0.00

     TS-vdW  stress (kbar)      0.00      0.00      0.00
                                0.00      0.00      0.00
                                0.00      0.00      0.00

[...]

                                0.00      0.00      0.00

     Writing all to output data dir new_calculations/myprefix.save/

     General routines

     Parallel routines

     PAW routines

   This run was terminated on:  20:49:53  20May2023

   JOB DONE.