     Program PWSCF v.7.0 starts on 20May2023 at  8:30:57

     Reading input from espresso_16188.pwi
Warning: card &CELL ignored
Warning: card / ignored

     Current dimensions of program PWSCF are:
     Max number of different atomic species (ntypx) = 10
     Max number of k-points (npk) =  40000
     Max angular momentum in pseudopotentials (lmaxx) =  4
     file K.pbe-spn-kjpaw_psl.1.0.0.UPF: wavefunction(s)  3S renormalized

     gamma-point specific algorithms are used
     Message from routine setup:
     using ibrav=0 with symmetry is DISCOURAGED, use correct ibrav instead

     Subspace diagonalization in iterative solution of the eigenvalue problem:
     a serial algorithm will be used

     Using Slab Decomposition

     bravais-lattice index     =            0
     lattice parameter (alat)  =      15.1932  a.u.
     unit-cell volume          =    4520.7723 (a.u.)^3
     number of atoms/cell      =           18
     number of atomic types    =            3
     number of electrons       =       132.00
     number of Kohn-Sham states=           79
     kinetic-energy cutoff     =      30.0000  Ry
     charge density cutoff     =     240.0000  Ry
     scf convergence threshold =      1.0E-06
     mixing beta               =       0.7000
     number of iterations used =            8  plain     mixing
     Exchange-correlation=  SLA  PW   PBX  PBC
                           (   1   4   3   4   0   0   0)

     celldm(1)=  15.193152  celldm(2)=   0.000000  celldm(3)=   0.000000
     celldm(4)=   0.000000  celldm(5)=   0.000000  celldm(6)=   0.000000

     crystal axes: (cart. coord. in units of alat)
               a(1) = (   1.000000   0.000000   0.000000 )
               a(2) = (   0.000000   0.956366   0.000000 )
               a(3) = (   0.000000   0.950583   1.347860 )

     reciprocal axes: (cart. coord. in units 2 pi/alat)
               b(1) = (  1.000000  0.000000  0.000000 )
               b(2) = (  0.000000  1.045625 -0.737431 )
               b(3) = (  0.000000  0.000000  0.741917 )

     PseudoPot. # 1 for K  read from file:
     /home/pragov/projects/rrg-bengioy-ad/pragov/crystal_structure_design/SSSP/K.pbe-spn-kjpaw_psl.1.0.0.UPF
     MD5 check sum: 7d58810084cac21f60fbe77ea2b688fd
     Pseudo is Projector augmented-wave + core cor, Zval =  9.0
     Generated using "atomic" code by A. Dal Corso  v.5.1
     Shape of augmentation charge: PSQ
     Using radial grid of 1165 points,  6 beta functions with:
                l(1) =   0
                l(2) =   0
                l(3) =   1
                l(4) =   1
                l(5) =   2
                l(6) =   2
     Q(r) pseudized with 0 coefficients

     PseudoPot. # 2 for Te read from file:
     /home/pragov/projects/rrg-bengioy-ad/pragov/crystal_structure_design/SSSP/Te_pbe_v1.uspp.F.UPF
     MD5 check sum: c319670d6894cc26e93307826a071b75
     Pseudo is Ultrasoft + core correction, Zval =  6.0
     Generated by new atomic code, or converted to UPF format
     Using radial grid of  891 points,  5 beta functions with:
                l(1) =   0
                l(2) =   0
                l(3) =   1
                l(4) =   1
                l(5) =   2
     Q(r) pseudized with  6 coefficients,  rinner =    1.800   1.800   1.800
                                                       1.800   1.800

     PseudoPot. # 3 for Br read from file:
     /home/pragov/projects/rrg-bengioy-ad/pragov/crystal_structure_design/SSSP/br_pbe_v1.4.uspp.F.UPF
     MD5 check sum: d3ffb7b29f6225aa16fe06858fb2a80b
     Pseudo is Ultrasoft + core correction, Zval =  7.0
     Generated by new atomic code, or converted to UPF format
     Using radial grid of  879 points,  6 beta functions with:
                l(1) =   0
                l(2) =   0
                l(3) =   1
                l(4) =   1
                l(5) =   2
                l(6) =   2
     Q(r) pseudized with  8 coefficients,  rinner =    1.100   1.100   1.100
                                                       1.100   1.100

     atomic species   valence    mass     pseudopotential
        K              9.00    39.09830     K ( 1.00)
        Te             6.00   127.60000     Te( 1.00)
        Br             7.00    79.90400     Br( 1.00)

      4 Sym. Ops., with inversion, found ( 2 have fractional translation)

                                    s                        frac. trans.

      isym =  1     identity

 cryst.   s( 1) = (     1          0          0      )
                  (     0          1          0      )
                  (     0          0          1      )

 cart.    s( 1) = (  1.0000000  0.0000000  0.0000000 )
                  (  0.0000000  1.0000000 -0.0000000 )
                  (  0.0000000  0.0000000  1.0000000 )

      isym =  2     180 deg rotation - cart. axis [1,0,0]

 cryst.   s( 2) = (     1          0          0      )    f =( -0.5000000 )
                  (     0         -1          0      )       ( -0.0000000 )
                  (     0          0         -1      )       ( -0.5000000 )

 cart.    s( 2) = (  1.0000000  0.0000000  0.0000000 )    f =( -0.5000000 )
                  (  0.0000000 -1.0000000  0.0000000 )       ( -0.4752915 )
                  (  0.0000000  0.0000000 -1.0000000 )       ( -0.6739302 )

      isym =  3     inversion

 cryst.   s( 3) = (    -1          0          0      )
                  (     0         -1          0      )
                  (     0          0         -1      )

 cart.    s( 3) = ( -1.0000000  0.0000000  0.0000000 )
                  (  0.0000000 -1.0000000  0.0000000 )
                  (  0.0000000  0.0000000 -1.0000000 )

      isym =  4     inv. 180 deg rotation - cart. axis [1,0,0]

 cryst.   s( 4) = (    -1          0          0      )    f =(  0.5000000 )
                  (     0          1          0      )       ( -0.0000000 )
                  (     0          0          1      )       ( -0.5000000 )

 cart.    s( 4) = ( -1.0000000  0.0000000  0.0000000 )    f =(  0.5000000 )
                  (  0.0000000  1.0000000 -0.0000000 )       ( -0.4752915 )
                  (  0.0000000  0.0000000  1.0000000 )       ( -0.6739302 )

   Cartesian axes

     site n.     atom                  positions (alat units)
         1           K   tau(   1) = (   0.0722310   0.4919271   0.3356482  )
         2           K   tau(   2) = (   0.5722310   0.9397303   0.3382819  )
         3           K   tau(   3) = (   0.9277690   1.4150218   1.0122121  )
         4           K   tau(   4) = (   0.4277690   0.9672186   1.0095784  )
         5           Te  tau(   5) = (   0.5000000   0.4752915   0.6739302  )
         6           Te  tau(   6) = (   0.0000000   0.0000000   0.0000000  )
         7           Br  tau(   7) = (   0.5144270   1.5068561   1.0059230  )
         8           Br  tau(   8) = (   0.4855730   0.4000928   0.3419373  )
         9           Br  tau(   9) = (   0.8114690   0.6772222   0.0587559  )
        10           Br  tau(  10) = (   0.9855730   1.0315645   0.3319928  )
        11           Br  tau(  11) = (   0.1885310   1.2297267   1.2891044  )
        12           Br  tau(  12) = (   0.6885310   1.1525137   0.7326861  )
        13           Br  tau(  13) = (   0.2865120   0.7776772   0.0522188  )
        14           Br  tau(  14) = (   0.7865120   0.6539801   0.6217114  )
        15           Br  tau(  15) = (   0.7134880   1.1292716   1.2956415  )
        16           Br  tau(  16) = (   0.2134880   1.2529688   0.7261490  )
        17           Br  tau(  17) = (   0.3114690   0.7544352   0.6151742  )
        18           Br  tau(  18) = (   0.0144270   0.8753843   1.0158675  )

   Crystallographic axes

     site n.     atom                  positions (cryst. coord.)
         1           K   tau(   1) = (  0.0722310  0.2668540  0.2490230  )
         2           K   tau(   2) = (  0.5722310  0.7331460  0.2509770  )
         3           K   tau(   3) = (  0.9277690  0.7331460  0.7509770  )
         4           K   tau(   4) = (  0.4277690  0.2668540  0.7490230  )
         5           Te  tau(   5) = (  0.5000000 -0.0000000  0.5000000  )
         6           Te  tau(   6) = (  0.0000000  0.0000000  0.0000000  )
         7           Br  tau(   7) = (  0.5144270  0.8338080  0.7463110  )
         8           Br  tau(   8) = (  0.4855730  0.1661920  0.2536890  )
         9           Br  tau(   9) = (  0.8114690  0.6647920  0.0435920  )
        10           Br  tau(  10) = (  0.9855730  0.8338080  0.2463110  )
        11           Br  tau(  11) = (  0.1885310  0.3352080  0.9564080  )
        12           Br  tau(  12) = (  0.6885310  0.6647920  0.5435920  )
        13           Br  tau(  13) = (  0.2865120  0.7746510  0.0387420  )
        14           Br  tau(  14) = (  0.7865120  0.2253490  0.4612580  )
        15           Br  tau(  15) = (  0.7134880  0.2253490  0.9612580  )
        16           Br  tau(  16) = (  0.2134880  0.7746510  0.5387420  )
        17           Br  tau(  17) = (  0.3114690  0.3352080  0.4564080  )
        18           Br  tau(  18) = (  0.0144270  0.1661920  0.7536890  )

     number of k points=     1  Methfessel-Paxton smearing, width (Ry)=  0.0010
                       cart. coord. in units 2pi/alat
        k(    1) = (   0.0000000   0.0000000   0.0000000), wk =   2.0000000

                       cryst. coord.
        k(    1) = (   0.0000000   0.0000000   0.0000000), wk =   2.0000000

     Check: negative core charge=   -0.000002

     Initial potential from superposition of free atoms

     starting charge     131.9240, renormalised to     132.0000
     Starting wfcs are   88 randomized atomic wfcs
     Checking if some PAW data can be deallocated...

     Self-consistent Calculation

     iteration #  1     ecut=    30.00 Ry     beta= 0.70
     Davidson diagonalization with overlap

     ethr =  1.00E-02,  avg # of iterations =  4.0

     Threshold (ethr) on eigenvalues was too large:
     Diagonalizing with lowered threshold

     Davidson diagonalization with overlap

[...]

     total energy              =   -1067.98391191 Ry
     estimated scf accuracy    <       1.04244606 Ry

[...]

     c_bands:  2 eigenvalues not converged
     ethr =  1.60E-05,  avg # of iterations = 20.0

[...]

     total energy              =   -1068.50939209 Ry
     estimated scf accuracy    <       0.00000206 Ry

     iteration #  8     ecut=    30.00 Ry     beta= 0.70
     Davidson diagonalization with overlap

     ethr =  1.56E-09,  avg # of iterations =  2.0

     End of self-consistent calculation

          k = 0.0000 0.0000 0.0000 (  6284 PWs)   bands (ev):

   -27.2076 -27.2072 -27.2071 -27.2067 -12.8658 -12.8132 -11.9821 -11.9769
   -11.9473 -11.9335 -11.9038 -11.8996 -11.8407 -11.7576 -11.7476 -11.7210
   -10.6979 -10.6972 -10.6910 -10.6886 -10.6873 -10.6823 -10.6812 -10.6708
   -10.6527 -10.6476 -10.6435 -10.6348  -8.9938  -8.8948  -2.6234  -2.6162
    -2.5818  -2.5464  -2.5304  -2.4633  -0.7500  -0.5715  -0.5713  -0.5507
    -0.5384  -0.0646   0.0283   0.0346   0.0636   0.0894   0.1527   0.1868
     0.2461   0.3029   0.4433   0.4696   0.4921   0.5377   0.5576   0.5600
     0.6391   0.6658   0.7018   0.7478   0.7490   0.8580   0.8824   0.9446
     1.0655   1.3785   3.9239   3.9950   4.0469   4.1084   4.1998   4.3963
     6.0399   7.5138   7.9364   7.9725   8.1315   8.1572   8.3331

     occupation numbers
     1.0000   1.0000   1.0000   1.0000   1.0000   1.0000   1.0000   1.0000
     1.0000   1.0000   1.0000   1.0000   1.0000   1.0000   1.0000   1.0000
     1.0000   1.0000   1.0000   1.0000   1.0000   1.0000   1.0000   1.0000
     1.0000   1.0000   1.0000   1.0000   1.0000   1.0000   1.0000   1.0000
     1.0000   1.0000   1.0000   1.0000   1.0000   1.0000   1.0000   1.0000
     1.0000   1.0000   1.0000   1.0000   1.0000   1.0000   1.0000   1.0000
     1.0000   1.0000   1.0000   1.0000   1.0000   1.0000   1.0000   1.0000
     1.0000   1.0000   1.0000   1.0000   1.0000   1.0000   1.0000   1.0000
     1.0000   1.0000  -0.0000  -0.0000  -0.0000  -0.0000  -0.0000  -0.0000
    -0.0000  -0.0000  -0.0000  -0.0000  -0.0000  -0.0000  -0.0000

     the Fermi energy is     1.7542 ev

!    total energy              =   -1068.50939255 Ry
     estimated scf accuracy    <       0.00000026 Ry
     smearing contrib. (-TS)   =       0.00000000 Ry
     internal energy E=F+TS    =   -1068.50939255 Ry

     The total energy is F=E-TS. E is the sum of the following terms:
     one-electron contribution =    -158.71870269 Ry
     hartree contribution      =     127.20027070 Ry
     xc contribution           =    -387.44376316 Ry
     ewald contribution        =    -427.88056652 Ry
     one-center paw contrib.   =    -221.66663089 Ry
      -> PAW hartree energy AE =     150.45840310 Ry
      -> PAW hartree energy PS =    -149.61839932 Ry
      -> PAW xc energy AE      =    -264.82813142 Ry
      -> PAW xc energy PS      =      42.32149676 Ry
      -> total E_H with PAW    =     128.04027448 Ry
      -> total E_XC with PAW   =    -609.95039782 Ry

     convergence has been achieved in   8 iterations

     Forces acting on atoms (cartesian axes, Ry/au):

     atom    1 type  1   force =     0.00205867    0.00097430   -0.00013188
     atom    2 type  1   force =     0.00205867   -0.00097430    0.00013188
     atom    3 type  1   force =    -0.00205867   -0.00097430    0.00013188
     atom    4 type  1   force =    -0.00205867    0.00097430   -0.00013188
     atom    5 type  2   force =     0.00000000    0.00000000   -0.00000000
     atom    6 type  2   force =    -0.00000000   -0.00000000    0.00000000
     atom    7 type  3   force =     0.00138240    0.00133802   -0.00026881
     atom    8 type  3   force =    -0.00138240   -0.00133802    0.00026881
     atom    9 type  3   force =     0.00314566    0.00092038    0.00487419
     atom   10 type  3   force =    -0.00138240    0.00133802   -0.00026881
     atom   11 type  3   force =    -0.00314566   -0.00092038   -0.00487419
     atom   12 type  3   force =    -0.00314566    0.00092038    0.00487419
     atom   13 type  3   force =     0.00010914    0.00465089    0.00415016
     atom   14 type  3   force =     0.00010914   -0.00465089   -0.00415016
     atom   15 type  3   force =    -0.00010914   -0.00465089   -0.00415016
     atom   16 type  3   force =    -0.00010914    0.00465089    0.00415016
     atom   17 type  3   force =     0.00314566   -0.00092038   -0.00487419
     atom   18 type  3   force =     0.00138240   -0.00133802    0.00026881
     The non-local contrib.  to forces
     atom    1 type  1   force =    -0.00528923    0.00488664    0.00460190
     atom    2 type  1   force =    -0.00528923   -0.00488664   -0.00460190
     atom    3 type  1   force =     0.00528923   -0.00488664   -0.00460190
     atom    4 type  1   force =     0.00528923    0.00488664    0.00460190
     atom    5 type  2   force =     0.00000000    0.00000000   -0.00000000
     atom    6 type  2   force =     0.00000000   -0.00000000    0.00000000
     atom    7 type  3   force =     0.00034532   -0.00094032    0.01756379
     atom    8 type  3   force =    -0.00034532    0.00094032   -0.01756379
     atom    9 type  3   force =    -0.01204942   -0.01394006    0.00266779
     atom   10 type  3   force =    -0.00034532   -0.00094032    0.01756379
     atom   11 type  3   force =     0.01204942    0.01394006   -0.00266779
     atom   12 type  3   force =     0.01204942   -0.01394006    0.00266779
     atom   13 type  3   force =     0.01493330   -0.01236442   -0.00104753
     atom   14 type  3   force =     0.01493330    0.01236442    0.00104753
     atom   15 type  3   force =    -0.01493330    0.01236442    0.00104753
     atom   16 type  3   force =    -0.01493330   -0.01236442   -0.00104753
     atom   17 type  3   force =    -0.01204942    0.01394006   -0.00266779
     atom   18 type  3   force =     0.00034532    0.00094032   -0.01756379
     The ionic contribution  to forces
     atom    1 type  1   force =    -0.73258898   -0.18791490    0.10467373
     atom    2 type  1   force =    -0.73258898    0.18791490   -0.10467373
     atom    3 type  1   force =     0.73258898    0.18791490   -0.10467373
     atom    4 type  1   force =     0.73258898   -0.18791490    0.10467373
     atom    5 type  2   force =    -0.00000000    0.00000000   -0.00000000
     atom    6 type  2   force =    -0.00000000   -0.00000000    0.00000000
     atom    7 type  3   force =    -0.67739705    0.25424854    2.95146096
     atom    8 type  3   force =     0.67739705   -0.25424854   -2.95146096
     atom    9 type  3   force =    -2.12778568   -2.12941773   -0.13800755
     atom   10 type  3   force =     0.67739705    0.25424854    2.95146096
     atom   11 type  3   force =     2.12778568    2.12941773    0.13800755
     atom   12 type  3   force =     2.12778568   -2.12941773   -0.13800755
     atom   13 type  3   force =     2.14859304   -1.65464066    0.00581578
     atom   14 type  3   force =     2.14859304    1.65464066   -0.00581578
     atom   15 type  3   force =    -2.14859304    1.65464066   -0.00581578
     atom   16 type  3   force =    -2.14859304   -1.65464066    0.00581578
     atom   17 type  3   force =    -2.12778568    2.12941773    0.13800755
     atom   18 type  3   force =    -0.67739705   -0.25424854   -2.95146096
     The local contribution  to forces
     atom    1 type  1   force =     0.73964500    0.18427761   -0.10901078
     atom    2 type  1   force =     0.73960696   -0.18427429    0.10892625
     atom    3 type  1   force =    -0.73963082   -0.18411371    0.10897485
     atom    4 type  1   force =    -0.73966184    0.18418210   -0.10890041
     atom    5 type  2   force =    -0.00000826   -0.00002963    0.00000477
     atom    6 type  2   force =    -0.00002684    0.00003010   -0.00000471
     atom    7 type  3   force =     0.68009322   -0.25217571   -2.98689794
     atom    8 type  3   force =    -0.68014536    0.25234263    2.98703746
     atom    9 type  3   force =     2.15484650    2.15778893    0.13911059
     atom   10 type  3   force =    -0.68007788   -0.25232741   -2.98708496
     atom   11 type  3   force =    -2.15482435   -2.15775524   -0.13949652
     atom   12 type  3   force =    -2.15487001    2.15783378    0.13950384
     atom   13 type  3   force =    -2.17667027    1.68277520   -0.00078717
     atom   14 type  3   force =    -2.17666245   -1.68284233    0.00077307
     atom   15 type  3   force =     2.17672540   -1.68289932    0.00040091
     atom   16 type  3   force =     2.17672650    1.68291279   -0.00039547
     atom   17 type  3   force =     2.15479792   -2.15779460   -0.13914261
     atom   18 type  3   force =     0.68015304    0.25214787    2.98696623
     The core correction contribution to forces
     atom    1 type  1   force =     0.00027799   -0.00022446   -0.00020702
     atom    2 type  1   force =     0.00027947    0.00022489    0.00020629
     atom    3 type  1   force =    -0.00027855    0.00022032    0.00020672
     atom    4 type  1   force =    -0.00027703   -0.00021967   -0.00020638
     atom    5 type  2   force =    -0.00000041    0.00001240    0.00001936
     atom    6 type  2   force =     0.00000762   -0.00001421   -0.00002014
     atom    7 type  3   force =    -0.00167227    0.00030078    0.01785233
     atom    8 type  3   force =     0.00167185   -0.00030439   -0.01786347
     atom    9 type  3   force =    -0.01205352   -0.01346616    0.00092039
     atom   10 type  3   force =     0.00167159    0.00030531    0.01786102
     atom   11 type  3   force =     0.01205447    0.01346894   -0.00092146
     atom   12 type  3   force =     0.01205594   -0.01346687    0.00092202
     atom   13 type  3   force =     0.01351239   -0.01115006   -0.00004368
     atom   14 type  3   force =     0.01351451    0.01114829    0.00004230
     atom   15 type  3   force =    -0.01351774    0.01115329    0.00004286
     atom   16 type  3   force =    -0.01351521   -0.01115128   -0.00004318
     atom   17 type  3   force =    -0.01205400    0.01346414   -0.00092226
     atom   18 type  3   force =    -0.00167278   -0.00030176   -0.01784771
     The Hubbard contrib.    to forces
     atom    1 type  1   force =     0.00000000    0.00000000    0.00000000
     atom    2 type  1   force =     0.00000000    0.00000000    0.00000000
     atom    3 type  1   force =     0.00000000    0.00000000    0.00000000
     atom    4 type  1   force =     0.00000000    0.00000000    0.00000000
     atom    5 type  2   force =     0.00000000    0.00000000    0.00000000
     atom    6 type  2   force =     0.00000000    0.00000000    0.00000000
     atom    7 type  3   force =     0.00000000    0.00000000    0.00000000
     atom    8 type  3   force =     0.00000000    0.00000000    0.00000000
     atom    9 type  3   force =     0.00000000    0.00000000    0.00000000
     atom   10 type  3   force =     0.00000000    0.00000000    0.00000000
     atom   11 type  3   force =     0.00000000    0.00000000    0.00000000
     atom   12 type  3   force =     0.00000000    0.00000000    0.00000000
     atom   13 type  3   force =     0.00000000    0.00000000    0.00000000
     atom   14 type  3   force =     0.00000000    0.00000000    0.00000000
     atom   15 type  3   force =     0.00000000    0.00000000    0.00000000
     atom   16 type  3   force =     0.00000000    0.00000000    0.00000000
     atom   17 type  3   force =     0.00000000    0.00000000    0.00000000
     atom   18 type  3   force =     0.00000000    0.00000000    0.00000000
     The SCF correction term to forces
     atom    1 type  1   force =     0.00000827   -0.00011665   -0.00019142
     atom    2 type  1   force =     0.00008333    0.00011825    0.00026973
     atom    3 type  1   force =    -0.00003598   -0.00016718    0.00023159
     atom    4 type  1   force =     0.00003771    0.00011955   -0.00029864
     atom    5 type  2   force =     0.00001377   -0.00012312   -0.00023748
     atom    6 type  2   force =    -0.00006692    0.00014165    0.00024641
     atom    7 type  3   force =     0.00001973   -0.00009671   -0.00021362
     atom    8 type  3   force =     0.00004815   -0.00007501    0.00016942
     atom    9 type  3   force =     0.00017630   -0.00005126    0.00020892
     atom   10 type  3   force =    -0.00003241    0.00005148   -0.00011095
     atom   11 type  3   force =    -0.00021419   -0.00000876    0.00022198
     atom   12 type  3   force =    -0.00017732   -0.00007985   -0.00023488
     atom   13 type  3   force =    -0.00023691    0.00003219    0.00023752
     atom   14 type  3   force =    -0.00026577    0.00004574   -0.00021412
     atom   15 type  3   force =     0.00023068    0.00007945    0.00019588
     atom   16 type  3   force =     0.00021067   -0.00010986   -0.00019948
     atom   17 type  3   force =     0.00023438    0.00007143   -0.00016406
     atom   18 type  3   force =    -0.00004848    0.00012921    0.00011818

     Total force =     0.018149     Total SCF correction =     0.001187

     Computing stress (Cartesian axis) and pressure

          total   stress  (Ry/bohr**3)                   (kbar)     P=        2.75
   0.00004625   0.00000000   0.00000000            6.80        0.00        0.00
   0.00000000   0.00002615   0.00000352            0.00        3.85        0.52
   0.00000000   0.00000352  -0.00001636            0.00        0.52       -2.41

     kinetic stress (kbar)   4454.64      0.00      0.00
                                0.00   4454.36      1.58
                                0.00      1.58   4441.51

     local   stress (kbar)   1698.23     -0.00      0.00
                               -0.00   1677.93    226.59
                                0.00    226.59   1536.99

     nonloc. stress (kbar)  -1275.98      0.00      0.00
                                0.00  -1276.53     -0.03
                                0.00     -0.03  -1273.43

     hartree stress (kbar)   1350.70      0.00     -0.00
                                0.00   1367.68    -92.73
                               -0.00    -92.73   1420.70

     exc-cor stress (kbar)   7536.58      0.00     -0.00
                                0.00   7536.42     -0.09
                               -0.00     -0.09   7536.62

     corecor stress (kbar)  -9085.10      0.00     -0.00
                                0.00  -9085.35     -0.06
                               -0.00     -0.06  -9084.57

     ewald   stress (kbar)  -4672.26     -0.00      0.00
                               -0.00  -4670.67   -134.74
                                0.00   -134.74  -4580.23

     hubbard stress (kbar)      0.00      0.00      0.00
                                0.00      0.00      0.00
                                0.00      0.00      0.00

     DFT-D   stress (kbar)      0.00      0.00      0.00
                                0.00      0.00      0.00
                                0.00      0.00      0.00

     XDM     stress (kbar)      0.00      0.00      0.00
                                0.00      0.00      0.00
                                0.00      0.00      0.00

     dft-nl  stress (kbar)      0.00      0.00      0.00
                                0.00      0.00      0.00
                                0.00      0.00      0.00

     TS-vdW  stress (kbar)      0.00      0.00      0.00
                                0.00      0.00      0.00
                                0.00      0.00      0.00

[...]

                                0.00      0.00      0.00

     Writing all to output data dir new_calculations/myprefix.save/

     General routines

     Parallel routines

     PAW routines

   This run was terminated on:   8:31:55  20May2023

   JOB DONE.