     Program PWSCF v.7.0 starts on 21May2023 at  5:18: 8

     Reading input from espresso_11857.pwi
Warning: card &CELL ignored
Warning: card / ignored

     Current dimensions of program PWSCF are:
     Max number of different atomic species (ntypx) = 10
     Max number of k-points (npk) =  40000
     Max angular momentum in pseudopotentials (lmaxx) =  4
     file O.pbe-n-kjpaw_psl.0.1.UPF: wavefunction(s)  2P renormalized

     gamma-point specific algorithms are used
     Message from routine setup:
     using ibrav=0 with symmetry is DISCOURAGED, use correct ibrav instead

     Subspace diagonalization in iterative solution of the eigenvalue problem:
     a serial algorithm will be used

     Using Slab Decomposition

     bravais-lattice index     =            0
     lattice parameter (alat)  =      10.3893  a.u.
     unit-cell volume          =    1648.6527 (a.u.)^3
     number of atoms/cell      =           14
     number of atomic types    =            4
     number of electrons       =       100.00
     number of Kohn-Sham states=           60
     kinetic-energy cutoff     =      30.0000  Ry
     charge density cutoff     =     240.0000  Ry
     scf convergence threshold =      1.0E-06
     mixing beta               =       0.7000
     number of iterations used =            8  plain     mixing
     Exchange-correlation= SLA  PW   PBX  PBC
                           (   1   4   3   4   0   0   0)

     celldm(1)=  10.389274  celldm(2)=   0.000000  celldm(3)=   0.000000
     celldm(4)=   0.000000  celldm(5)=   0.000000  celldm(6)=   0.000000

     crystal axes: (cart. coord. in units of alat)
               a(1) = (   1.000000   0.000000   0.000000 )
               a(2) = (  -0.500000   0.866025   0.000000 )
               a(3) = (   0.000000   0.000000   1.697630 )

     reciprocal axes: (cart. coord. in units 2 pi/alat)
               b(1) = (  1.000000  0.577351  0.000000 )
               b(2) = (  0.000000  1.154701  0.000000 )
               b(3) = (  0.000000  0.000000  0.589057 )

     PseudoPot. # 1 for Rb read from file:
     /home/pragov/projects/rrg-bengioy-ad/pragov/crystal_structure_design/SSSP/Rb_ONCV_PBE-1.0.oncvpsp.upf
     MD5 check sum: 55a5172d6bfbce6759a58e35d43f6aa9
     Pseudo is Norm-conserving, Zval =  9.0
     Generated using ONCVPSP code by D. R. Hamann
     Using radial grid of 2308 points,  6 beta functions with:
                l(1) =   0
                l(2) =   0
                l(3) =   1
                l(4) =   1
                l(5) =   2
                l(6) =   2

     PseudoPot. # 2 for Li read from file:
     /home/pragov/projects/rrg-bengioy-ad/pragov/crystal_structure_design/SSSP/li_pbe_v1.4.uspp.F.UPF
     MD5 check sum: e912e257baa3777c20ea3d68f190483c
     Pseudo is Ultrasoft, Zval =  3.0
     Generated by new atomic code, or converted to UPF format
     Using radial grid of  751 points,  5 beta functions with:
                l(1) =   0
                l(2) =   0
                l(3) =   0
                l(4) =   1
                l(5) =   1
     Q(r) pseudized with 10 coefficients,  rinner =    1.150   1.150   1.150

     PseudoPot. # 3 for Cr read from file:
     /home/pragov/projects/rrg-bengioy-ad/pragov/crystal_structure_design/SSSP/cr_pbe_v1.5.uspp.F.UPF
     MD5 check sum: 0d52af634a40206e4dee301ad30da4bf
     Pseudo is Ultrasoft + core correction, Zval = 14.0
     Generated by new atomic code, or converted to UPF format
     Using radial grid of  857 points,  6 beta functions with:
                l(1) =   0
                l(2) =   0
                l(3) =   1
                l(4) =   1
                l(5) =   2
                l(6) =   2
     Q(r) pseudized with  8 coefficients,  rinner =    0.950   0.950   0.950
                                                       0.950   0.950

     PseudoPot. # 4 for O  read from file:
     /home/pragov/projects/rrg-bengioy-ad/pragov/crystal_structure_design/SSSP/O.pbe-n-kjpaw_psl.0.1.UPF
     MD5 check sum: 0234752ac141de4415c5fc33072bef88
     Pseudo is Projector augmented-wave + core cor, Zval =  6.0
     Generated using "atomic" code by A. Dal Corso  v.5.0.99 svn rev. 10869
     Shape of augmentation charge: BESSEL
     Using radial grid of 1095 points,  4 beta functions with:
                l(1) =   0
                l(2) =   0
                l(3) =   1
                l(4) =   1
     Q(r) pseudized with 0 coefficients

     atomic species   valence    mass     pseudopotential
        Rb             9.00    85.46780     Rb( 1.00)
        Li             3.00     6.94000     Li( 1.00)
        Cr            14.00    51.99610     Cr( 1.00)
        O              6.00    15.99900     O ( 1.00)

      6 Sym. Ops. (no inversion) found ( 3 have fractional translation)

                                    s                        frac. trans.

      isym =  1     identity

 cryst.   s( 1) = (     1          0          0      )
                  (     0          1          0      )
                  (     0          0          1      )

 cart.    s( 1) = (  1.0000000 -0.0000000  0.0000000 )
                  (  0.0000000  1.0000000  0.0000000 )
                  (  0.0000000  0.0000000  1.0000000 )

      isym =  2     120 deg rotation - cryst. axis [0,0,1]

[...]

      isym =  3     120 deg rotation - cryst. axis [0,0,-1]

 cryst.   s( 3) = (    -1         -1          0      )
                  (     1          0          0      )
                  (     0          0          1      )

 cart.    s( 3) = ( -0.4999998  0.8660255  0.0000000 )
                  ( -0.8660253 -0.5000002  0.0000000 )
                  (  0.0000000  0.0000000  1.0000000 )

      isym =  4     inv. 180 deg rotation - cart. axis [0,1,0]

 cryst.   s( 4) = (     1          0          0      )    f =(  0.0000000 )
                  (    -1         -1          0      )       (  0.0000000 )
                  (     0          0          1      )       (  0.5000000 )

 cart.    s( 4) = (  1.0000000  0.0000004  0.0000000 )    f =(  0.0000000 )
                  (  0.0000000 -1.0000000  0.0000000 )       (  0.0000000 )
                  (  0.0000000  0.0000000  1.0000000 )       (  0.8488150 )

      isym =  5     inv. 180 deg rotation - cryst. axis [1,-1,0]

[...]

      isym =  6     inv. 180 deg rotation - cryst. axis [2,1,0]

 cryst.   s( 6) = (    -1         -1          0      )    f =(  0.0000000 )
                  (     0          1          0      )       (  0.0000000 )
                  (     0          0          1      )       (  0.5000000 )

 cart.    s( 6) = ( -0.4999998 -0.8660257  0.0000000 )    f =(  0.0000000 )
                  ( -0.8660253  0.4999998  0.0000000 )       (  0.0000000 )
                  (  0.0000000  0.0000000  1.0000000 )       (  0.8488150 )

   Cartesian axes

     site n.     atom                  positions (alat units)
         1           Rb  tau(   1) = (   0.0000000   0.0000000   0.8439581  )
         2           Rb  tau(   2) = (   0.0000000   0.0000000   1.6927731  )
         3           Li  tau(   3) = (   0.5000004   0.2886748   1.1549384  )
         4           Li  tau(   4) = (  -0.0000006   0.5773505   0.3061234  )
         5           Cr  tau(   5) = (  -0.0000006   0.5773505   1.3433873  )
         6           Cr  tau(   6) = (   0.5000004   0.2886748   0.4945722  )
         7           O   tau(   7) = (   0.1301339   0.8332948   1.2464033  )
         8           O   tau(   8) = (  -0.2867216   0.5620773   1.2464033  )
         9           O   tau(   9) = (   0.1565874   0.3366786   1.2464033  )
        10           O   tau(  10) = (   0.6565874   0.5293467   0.3975883  )
        11           O   tau(  11) = (   0.5000004   0.2886748   0.7978895  )
        12           O   tau(  12) = (  -0.0000006   0.5773505   1.6467045  )
        13           O   tau(  13) = (   0.2132784   0.3039480   0.3975883  )
        14           O   tau(  14) = (   0.6301340   0.0327306   0.3975883  )

   Crystallographic axes

     site n.     atom                  positions (cryst. coord.)
         1           Rb  tau(   1) = (  0.0000000  0.0000000  0.4971390  )
         2           Rb  tau(   2) = (  0.0000000  0.0000000  0.9971390  )
         3           Li  tau(   3) = (  0.6666670  0.3333330  0.6803240  )
         4           Li  tau(   4) = (  0.3333330  0.6666670  0.1803240  )
         5           Cr  tau(   5) = (  0.3333330  0.6666670  0.7913310  )
         6           Cr  tau(   6) = (  0.6666670  0.3333330  0.2913310  )
         7           O   tau(   7) = (  0.6112370  0.9622060  0.7342020  )
         8           O   tau(   8) = (  0.0377940  0.6490310  0.7342020  )
         9           O   tau(   9) = (  0.3509690  0.3887630  0.7342020  )
        10           O   tau(  10) = (  0.9622060  0.6112370  0.2342020  )
        11           O   tau(  11) = (  0.6666670  0.3333330  0.4700020  )
        12           O   tau(  12) = (  0.3333330  0.6666670  0.9700020  )
        13           O   tau(  13) = (  0.3887630  0.3509690  0.2342020  )
        14           O   tau(  14) = (  0.6490310  0.0377940  0.2342020  )

     number of k points=     1  Methfessel-Paxton smearing, width (Ry)=  0.0010
                       cart. coord. in units 2pi/alat
        k(    1) = (   0.0000000   0.0000000   0.0000000), wk =   2.0000000

                       cryst. coord.
        k(    1) = (   0.0000000   0.0000000   0.0000000), wk =   2.0000000

     Check: negative core charge=   -0.000013

     Initial potential from superposition of free atoms

     starting charge      97.0489, renormalised to     100.0000

     negative rho (up, down):  3.518E-03 0.000E+00
     Starting wfcs are   72 randomized atomic wfcs
     Checking if some PAW data can be deallocated...

     Self-consistent Calculation

     iteration #  1     ecut=    30.00 Ry     beta= 0.70
     Davidson diagonalization with overlap

     ethr =  1.00E-02,  avg # of iterations =  3.0

     negative rho (up, down):  8.090E-03 0.000E+00

     total energy              =    -806.61773614 Ry
     estimated scf accuracy    <       7.31977484 Ry

[...]

     total energy              =    -811.58109997 Ry
     estimated scf accuracy    <       0.00000136 Ry

     iteration # 13     ecut=    30.00 Ry     beta= 0.70
     Davidson diagonalization with overlap

     ethr =  1.36E-09,  avg # of iterations =  2.0

[...]

     End of self-consistent calculation

          k = 0.0000 0.0000 0.0000 (  2269 PWs)   bands (ev):

   -69.9531 -69.9529 -41.3843 -41.3829 -41.3144 -41.3144 -41.3132 -41.3132
   -40.3782 -40.3777 -22.1380 -22.1315 -14.6846 -14.6206 -14.1844 -14.0960
   -14.0950 -14.0948 -14.0887 -14.0885  -6.2835  -6.2835  -6.2718  -6.2718
    -6.2242  -6.1897  -1.7505  -1.3869  -1.3868  -1.2348  -1.2347  -1.2138
    -1.1735  -1.1735  -1.0505  -1.0505  -0.6273  -0.2275   0.0774   0.0774
     0.2549   0.3412   0.3412   0.3892   1.2090   1.3702   1.4389   1.4390
     1.8760   1.8761   4.7653   4.7653   4.9673   4.9673   6.1217   6.4774
     6.4774   6.5535   6.5535   6.6503

     occupation numbers
     1.0000   1.0000   1.0000   1.0000   1.0000   1.0000   1.0000   1.0000
     1.0000   1.0000   1.0000   1.0000   1.0000   1.0000   1.0000   1.0000
     1.0000   1.0000   1.0000   1.0000   1.0000   1.0000   1.0000   1.0000
     1.0000   1.0000   1.0000   1.0000   1.0000   1.0000   1.0000   1.0000
     1.0000   1.0000   1.0000   1.0000   1.0000   1.0000   1.0000   1.0000
     1.0000   1.0000   1.0000   1.0000   1.0000   1.0000   1.0000   1.0000
     1.0000   1.0000  -0.0000  -0.0000  -0.0000  -0.0000  -0.0000  -0.0000
    -0.0000  -0.0000  -0.0000  -0.0000

     the Fermi energy is     1.9816 ev

!    total energy              =    -811.58109999 Ry
     estimated scf accuracy    <       0.00000034 Ry
     smearing contrib. (-TS)   =       0.00000000 Ry
     internal energy E=F+TS    =    -811.58109999 Ry

     The total energy is F=E-TS. E is the sum of the following terms:
     one-electron contribution =    -562.29261389 Ry
     hartree contribution      =     310.10042267 Ry
     xc contribution           =    -125.41291297 Ry
     ewald contribution        =    -357.72279372 Ry
     one-center paw contrib.   =     -76.25320208 Ry
      -> PAW hartree energy AE =     232.98099275 Ry
      -> PAW hartree energy PS =    -232.20391808 Ry
      -> PAW xc energy AE      =    -136.75735822 Ry
      -> PAW xc energy PS      =      59.72708147 Ry
      -> total E_H with PAW    =     310.87749734 Ry
      -> total E_XC with PAW   =    -202.44318972 Ry

     convergence has been achieved in  13 iterations

     negative rho (up, down):  4.861E-03 0.000E+00

     Forces acting on atoms (cartesian axes, Ry/au):

     atom    1 type  1   force =     0.00000000   -0.00000000   -0.00065785
     atom    2 type  1   force =     0.00000000   -0.00000000   -0.00065785
     atom    3 type  2   force =     0.00000000    0.00000000   -0.00835319
     atom    4 type  2   force =     0.00000000    0.00000000   -0.00835319
     atom    5 type  3   force =     0.00000000   -0.00000000   -0.02969941
     atom    6 type  3   force =     0.00000000    0.00000000   -0.02969941
     atom    7 type  4   force =    -0.00557538   -0.01815660    0.02352098
     atom    8 type  4   force =     0.01851176    0.00424988    0.02352098
     atom    9 type  4   force =    -0.01293638    0.01390672    0.02352098
     atom   10 type  4   force =    -0.01293638   -0.01390672    0.02352098
     atom   11 type  4   force =     0.00000000    0.00000000   -0.03185248
     atom   12 type  4   force =     0.00000000   -0.00000000   -0.03185248
     atom   13 type  4   force =     0.01851176   -0.00424987    0.02352098
     atom   14 type  4   force =    -0.00557538    0.01815659    0.02352098
     The non-local contrib.  to forces
     atom    1 type  1   force =     0.00000000    0.00000000   -0.01620723
     atom    2 type  1   force =     0.00000000   -0.00000000   -0.01620723
     atom    3 type  2   force =     0.00000000    0.00000000   -0.00331124
     atom    4 type  2   force =     0.00000000    0.00000000   -0.00331124
     atom    5 type  3   force =     0.00000000    0.00000000    0.02494314
     atom    6 type  3   force =     0.00000000    0.00000000    0.02494314
     atom    7 type  4   force =    -0.49843526   -0.73310567    0.26497598
     atom    8 type  4   force =     0.88410563   -0.06510469    0.26497598
     atom    9 type  4   force =    -0.38567037    0.79821037    0.26497598
     atom   10 type  4   force =    -0.38567037   -0.79821050    0.26497598
     atom   11 type  4   force =     0.00000000    0.00000000   -0.93746307
     atom   12 type  4   force =     0.00000000   -0.00000000   -0.93746307
     atom   13 type  4   force =     0.88410563    0.06510501    0.26497598
     atom   14 type  4   force =    -0.49843526    0.73310550    0.26497598
     The ionic contribution  to forces
     atom    1 type  1   force =     0.00000745   -0.00000466    0.24678195
     atom    2 type  1   force =    -0.00000776    0.00000412    0.24678194
     atom    3 type  2   force =    -0.00001746    0.00000915    0.38403816
     atom    4 type  2   force =     0.00001666   -0.00001055    0.38403816
     atom    5 type  3   force =     0.00005737   -0.00004009   -0.85318900
     atom    6 type  3   force =    -0.00006341    0.00002964   -0.85318900
     atom    7 type  4   force =     6.69834018   11.50898216   -4.47471587
     atom    8 type  4   force =   -13.31629360    0.04639406   -4.47474138
     atom    9 type  4   force =     6.61792227  -11.55534971   -4.47469170
     atom   10 type  4   force =     6.61789878   11.55542502   -4.47471587
     atom   11 type  4   force =    -0.00000848    0.00000463   13.64651784
     atom   12 type  4   force =     0.00000825   -0.00000503   13.64651784
     atom   13 type  4   force =   -13.31618752   -0.04638842   -4.47469170
     atom   14 type  4   force =     6.69832729  -11.50905032   -4.47474138
     The local contribution  to forces
     atom    1 type  1   force =    -0.00000886    0.00004804   -0.23124365
     atom    2 type  1   force =    -0.00000778    0.00003118   -0.23126913
     atom    3 type  2   force =    -0.00001982   -0.00004723   -0.38911806
     atom    4 type  2   force =     0.00000880   -0.00000379   -0.38910267
     atom    5 type  3   force =     0.00036683    0.00002367    0.80164934
     atom    6 type  3   force =    -0.00019902   -0.00012760    0.80173784
     atom    7 type  4   force =    -6.20932198  -10.79936114    4.23501370
     atom    8 type  4   force =    12.45730424    0.02226097    4.23504163
     atom    9 type  4   force =    -6.24784101   10.77704900    4.23498712
     atom   10 type  4   force =    -6.24792886  -10.77721750    4.23513083
     atom   11 type  4   force =    -0.00002722   -0.00002839  -12.74828717
     atom   12 type  4   force =     0.00003322   -0.00000861  -12.74829755
     atom   13 type  4   force =    12.45720866   -0.02231642    4.23510239
     atom   14 type  4   force =    -6.20939145   10.79950776    4.23514817
     The core correction contribution to forces
     atom    1 type  1   force =     0.00000000    0.00000000    0.00000000
     atom    2 type  1   force =     0.00000000    0.00000000    0.00000000
     atom    3 type  2   force =     0.00000000    0.00000000    0.00000000
     atom    4 type  2   force =     0.00000000    0.00000000    0.00000000
     atom    5 type  3   force =     0.00000429   -0.00000042   -0.00309855
     atom    6 type  3   force =    -0.00000304   -0.00000098   -0.00309977
     atom    7 type  4   force =     0.00406415    0.00573039   -0.00195571
     atom    8 type  4   force =    -0.00699512    0.00065395   -0.00195565
     atom    9 type  4   force =     0.00293085   -0.00638479   -0.00195556
     atom   10 type  4   force =     0.00293091    0.00638487   -0.00195578
     atom   11 type  4   force =     0.00000001   -0.00000011    0.00771373
     atom   12 type  4   force =     0.00000024   -0.00000003    0.00771308
     atom   13 type  4   force =    -0.00699486   -0.00065415   -0.00195591
     atom   14 type  4   force =     0.00406369   -0.00573080   -0.00195577
     The Hubbard contrib.    to forces
     atom    1 type  1   force =     0.00000000    0.00000000    0.00000000
     atom    2 type  1   force =     0.00000000    0.00000000    0.00000000
     atom    3 type  2   force =     0.00000000    0.00000000    0.00000000
     atom    4 type  2   force =     0.00000000    0.00000000    0.00000000
     atom    5 type  3   force =     0.00000000    0.00000000    0.00000000
     atom    6 type  3   force =     0.00000000    0.00000000    0.00000000
     atom    7 type  4   force =     0.00000000    0.00000000    0.00000000
     atom    8 type  4   force =     0.00000000    0.00000000    0.00000000
     atom    9 type  4   force =     0.00000000    0.00000000    0.00000000
     atom   10 type  4   force =     0.00000000    0.00000000    0.00000000
     atom   11 type  4   force =     0.00000000    0.00000000    0.00000000
     atom   12 type  4   force =     0.00000000    0.00000000    0.00000000
     atom   13 type  4   force =     0.00000000    0.00000000    0.00000000
     atom   14 type  4   force =     0.00000000    0.00000000    0.00000000
     The SCF correction term to forces
     atom    1 type  1   force =    -0.00000797   -0.00004412   -0.00002106
     atom    2 type  1   force =     0.00000987   -0.00003544    0.00000415
     atom    3 type  2   force =     0.00003335    0.00003056    0.00001247
     atom    4 type  2   force =    -0.00002376    0.00001799   -0.00001651
     atom    5 type  3   force =    -0.00039000    0.00000350   -0.00001591
     atom    6 type  3   force =     0.00023533    0.00009692   -0.00014462
     atom    7 type  4   force =    -0.00020994   -0.00041880    0.00017663
     atom    8 type  4   force =     0.00040264    0.00003763    0.00017268
     atom    9 type  4   force =    -0.00028352    0.00038975    0.00018745
     atom   10 type  4   force =    -0.00016977   -0.00028786    0.00004968
     atom   11 type  4   force =     0.00004084    0.00002571   -0.00036583
     atom   12 type  4   force =    -0.00004222    0.00001016   -0.00035532
     atom   13 type  4   force =     0.00036386    0.00000738    0.00004412
     atom   14 type  4   force =    -0.00014241    0.00030630    0.00005424

     Total force =     0.097044     Total SCF correction =     0.001260

     Computing stress (Cartesian axis) and pressure

     negative rho (up, down):  4.861E-03 0.000E+00
          total   stress  (Ry/bohr**3)                   (kbar)     P=     -297.30
  -0.00201170  -0.00000000  -0.00000000         -295.93       -0.00       -0.00
  -0.00000000  -0.00201170   0.00000000           -0.00     -295.93        0.00
   0.00000000  -0.00000000  -0.00203969            0.00       -0.00     -300.05

     kinetic stress (kbar)  14816.68      0.00      0.00
                                0.00  14816.68     -0.00
                                0.00     -0.00  14822.47

     local   stress (kbar) -13969.07      0.01      0.02
                                0.01 -13969.11      0.00
                                0.02      0.00 -10467.24

     nonloc. stress (kbar)   2615.72      0.00      0.00
                                0.00   2615.72     -0.00
                                0.00     -0.00   2605.25

     hartree stress (kbar)   9768.75     -0.02     -0.02
                               -0.02   9768.79     -0.00
                               -0.02     -0.00   8131.94

     exc-cor stress (kbar)  -2751.36      0.00      0.00
                                0.00  -2751.36     -0.00
                                0.00     -0.00  -2752.23

     corecor stress (kbar)   -758.38     -0.00     -0.00
                               -0.00   -758.38      0.00
                               -0.00      0.00   -758.07

     ewald   stress (kbar) -10018.27      0.01     -0.00
                                0.01 -10018.26     -0.00
                               -0.00     -0.00 -11882.16

     hubbard stress (kbar)      0.00      0.00      0.00
                                0.00      0.00      0.00
                                0.00      0.00      0.00

     DFT-D   stress (kbar)      0.00      0.00      0.00
                                0.00      0.00      0.00
                                0.00      0.00      0.00

     XDM     stress (kbar)      0.00      0.00      0.00
                                0.00      0.00      0.00
                                0.00      0.00      0.00

     dft-nl  stress (kbar)      0.00      0.00      0.00
                                0.00      0.00      0.00
                                0.00      0.00      0.00

     TS-vdW  stress (kbar)      0.00      0.00      0.00
                                0.00      0.00      0.00
                                0.00      0.00      0.00

[...]

                                0.00      0.00      0.00

     Writing all to output data dir new_calculations/myprefix.save/

     General routines

     Parallel routines

     PAW routines

   This run was terminated on:   5:18:24  21May2023

   JOB DONE.