     Program PWSCF v.7.0 starts on 21May2023 at  2:58:16

     Reading input from espresso_14994.pwi
Warning: card &CELL ignored
Warning: card / ignored

     Current dimensions of program PWSCF are:
     Max number of different atomic species (ntypx) = 10
     Max number of k-points (npk) =  40000
     Max angular momentum in pseudopotentials (lmaxx) =  4

     gamma-point specific algorithms are used
     Message from routine setup:
     using ibrav=0 with symmetry is DISCOURAGED, use correct ibrav instead

     Subspace diagonalization in iterative solution of the eigenvalue problem:
     a serial algorithm will be used

     Using Slab Decomposition

     bravais-lattice index     =            0
     lattice parameter (alat)  =      16.7521  a.u.
     unit-cell volume          =    6386.6772 (a.u.)^3
     number of atoms/cell      =           20
     number of atomic types    =            2
     number of electrons       =       160.00
     number of Kohn-Sham states=           96
     kinetic-energy cutoff     =      30.0000  Ry
     charge density cutoff     =     240.0000  Ry
     scf convergence threshold =      1.0E-06
     mixing beta               =       0.7000
     number of iterations used =            8  plain     mixing
     Exchange-correlation= SLA  PW   PBX  PBC
                           (   1   4   3   4   0   0   0)

     celldm(1)=  16.752070  celldm(2)=   0.000000  celldm(3)=   0.000000
     celldm(4)=   0.000000  celldm(5)=   0.000000  celldm(6)=   0.000000

     crystal axes: (cart. coord. in units of alat)
               a(1) = (   1.000000   0.000000   0.000000 )
               a(2) = (   0.006710   0.999977   0.000000 )
               a(3) = (   0.450471   0.447459   1.358562 )

     reciprocal axes: (cart. coord. in units 2 pi/alat)
               b(1) = (  1.000000 -0.006710 -0.329370 )
               b(2) = (  0.000000  1.000023 -0.329370 )
               b(3) = (  0.000000  0.000000  0.736073 )

     PseudoPot. # 1 for Hf read from file:
     /home/pragov/projects/rrg-bengioy-ad/pragov/crystal_structure_design/SSSP/Hf-sp.oncvpsp.upf
     MD5 check sum: 417ed15784afe83d2e06dacf143de3f8
     Pseudo is Norm-conserving + core correction, Zval = 12.0
     Generated using ONCVPSP code by D. R. Hamann
     Using radial grid of 1656 points,  8 beta functions with:
                l(1) =   0
                l(2) =   0
                l(3) =   1
                l(4) =   1
                l(5) =   2
                l(6) =   2
                l(7) =   3
                l(8) =   3

     PseudoPot. # 2 for I  read from file:
     /home/pragov/projects/rrg-bengioy-ad/pragov/crystal_structure_design/SSSP/I.pbe-n-kjpaw_psl.0.2.UPF
     MD5 check sum: d4ef18d9c8f18dc85e5843bca1e50dc0
     Pseudo is Projector augmented-wave + core cor, Zval =  7.0
     Generated using "atomic" code by A. Dal Corso  v.5.0.99 svn rev. 10869
     Shape of augmentation charge: PSQ
     Using radial grid of 1247 points,  4 beta functions with:
                l(1) =   0
                l(2) =   0
                l(3) =   1
                l(4) =   1
     Q(r) pseudized with 0 coefficients

     atomic species   valence    mass     pseudopotential
        Hf            12.00   178.49000     Hf( 1.00)
        I              7.00   126.90447     I ( 1.00)

      2 Sym. Ops., with inversion, found

                                    s                        frac. trans.

      isym =  1     identity

 cryst.   s( 1) = (     1          0          0      )
                  (     0          1          0      )
                  (     0          0          1      )

 cart.    s( 1) = (  1.0000000  0.0000000 -0.0000000 )
                  (  0.0000000  1.0000000  0.0000000 )
                  (  0.0000000  0.0000000  1.0000000 )

      isym =  2     inversion

 cryst.   s( 2) = (    -1          0          0      )
                  (     0         -1          0      )
                  (     0          0         -1      )

 cart.    s( 2) = ( -1.0000000 -0.0000000  0.0000000 )
                  (  0.0000000 -1.0000000 -0.0000000 )
                  (  0.0000000  0.0000000 -1.0000000 )

   Cartesian axes

     site n.     atom                  positions (alat units)
         1           Hf  tau(   1) = (   0.1215970   0.8471809   0.1679997  )
         2           Hf  tau(   2) = (   1.0732135   0.3396387   0.8472805  )
         3           Hf  tau(   3) = (   1.3355848   0.6002553   1.1905618  )
         4           Hf  tau(   4) = (   0.3839682   1.1077975   0.5112811  )
         5           I   tau(   5) = (   0.3317850   1.1056626   0.8315416  )
         6           I   tau(   6) = (   0.3365963   0.5579616   0.8687906  )
         7           I   tau(   7) = (   1.1222098   1.3383209   1.1690517  )
         8           I   tau(   8) = (   0.8767189   1.1122472   0.8640818  )
         9           I   tau(   9) = (   0.5643123   0.8019299   1.1737605  )
        10           I   tau(  10) = (   1.1205854   0.8894746   0.4897710  )
        11           I   tau(  11) = (   1.1028953   0.7968640   1.2087910  )
        12           I   tau(  12) = (   0.5745534   1.3468074   1.2063008  )
        13           I   tau(  13) = (   0.5804628   0.3351890   0.4944797  )
        14           I   tau(  14) = (   0.8928695   0.6455063   0.1848011  )
        15           I   tau(  15) = (   0.5790111   0.8737939   0.5295102  )
        16           I   tau(  16) = (   0.8781707   0.5736423   0.8290513  )
        17           I   tau(  17) = (   1.1253968   0.3417736   0.5270200  )
        18           I   tau(  18) = (   0.3542865   0.6505722   0.1497705  )
        19           I   tau(  19) = (   0.8826283   0.1006288   0.1522608  )
        20           I   tau(  20) = (   0.3349720   0.1091153   0.1895098  )

   Crystallographic axes

     site n.     atom                  positions (cryst. coord.)
         1           Hf  tau(   1) = (  0.0605780  0.7918660  0.1236600  )
         2           Hf  tau(   2) = (  0.7918660  0.0605780  0.6236600  )
         3           Hf  tau(   3) = (  0.9394220  0.2081340  0.8763400  )
         4           Hf  tau(   4) = (  0.2081340  0.9394220  0.3763400  )
         5           I   tau(   5) = (  0.0504810  0.8318030  0.6120750  )
         6           I   tau(   6) = (  0.0466990  0.2718210  0.6394930  )
         7           I   tau(   7) = (  0.7281790  0.9533010  0.8605070  )
         8           I   tau(   8) = (  0.5846530  0.8276700  0.6360270  )
         9           I   tau(   9) = (  0.1723300  0.4153470  0.8639730  )
        10           I   tau(  10) = (  0.9533010  0.7281790  0.3605070  )
        11           I   tau(  11) = (  0.6994090  0.3987430  0.8897580  )
        12           I   tau(  12) = (  0.1681970  0.9495190  0.8879250  )
        13           I   tau(  13) = (  0.4153470  0.1723300  0.3639730  )
        14           I   tau(  14) = (  0.8276700  0.5846530  0.1360270  )
        15           I   tau(  15) = (  0.3987430  0.6994090  0.3897580  )
        16           I   tau(  16) = (  0.6012570  0.3005910  0.6102420  )
        17           I   tau(  17) = (  0.9495190  0.1681970  0.3879250  )
        18           I   tau(  18) = (  0.3005910  0.6012570  0.1102420  )
        19           I   tau(  19) = (  0.8318030  0.0504810  0.1120750  )
        20           I   tau(  20) = (  0.2718210  0.0466990  0.1394930  )

     number of k points=     1  Methfessel-Paxton smearing, width (Ry)=  0.0010
                       cart. coord. in units 2pi/alat
        k(    1) = (   0.0000000   0.0000000   0.0000000), wk =   2.0000000

                       cryst. coord.
        k(    1) = (   0.0000000   0.0000000   0.0000000), wk =   2.0000000

     Check: negative core charge=   -0.000001

     Initial potential from superposition of free atoms

     starting charge     159.9914, renormalised to     160.0000
     Starting wfcs are  104 randomized atomic wfcs
     Checking if some PAW data can be deallocated...

     Self-consistent Calculation

     iteration #  1     ecut=    30.00 Ry     beta= 0.70
     Davidson diagonalization with overlap

     ethr =  1.00E-02,  avg # of iterations =  3.0

     Threshold (ethr) on eigenvalues was too large:
     Diagonalizing with lowered threshold

     Davidson diagonalization with overlap

[...]

     total energy              =   -6514.54296650 Ry
     estimated scf accuracy    <       0.66062328 Ry

[...]

     total energy              =   -6514.84177804 Ry
     estimated scf accuracy    <       0.00000189 Ry

     iteration # 10     ecut=    30.00 Ry     beta= 0.70
     Davidson diagonalization with overlap

     ethr =  1.18E-09,  avg # of iterations =  4.0

     End of self-consistent calculation

          k = 0.0000 0.0000 0.0000 (  8862 PWs)   bands (ev):

   -60.3229 -60.3198 -60.3194 -60.3177 -28.9975 -28.9947 -28.9938 -28.9917
   -28.9695 -28.9666 -28.9653 -28.9644 -28.9500 -28.9474 -28.9463 -28.9461
   -10.1578  -9.8437  -9.8269  -9.5333  -9.5240  -9.5191  -9.5169  -9.4919
    -9.2125  -9.2030  -9.1973  -9.1884  -9.0827  -9.0749  -9.0718  -9.0710
    -1.9026  -1.6089  -1.5967  -1.4686  -0.9949  -0.8305  -0.7382  -0.6620
    -0.6572  -0.5534  -0.5356  -0.4466  -0.3563  -0.3355  -0.1094  -0.0791
    -0.0159   0.0456   0.0564   0.1089   0.1189   0.1830   0.2536   0.4839
     0.5251   0.7087   0.7286   0.7856   0.8482   0.9297   0.9699   1.0389
     1.0801   1.0891   1.1259   1.1964   1.3653   1.3815   1.4392   1.4559
     1.5212   1.6367   1.6887   1.7175   1.8721   1.8824   1.8986   1.9071
     4.2721   4.3004   4.4484   4.5071   4.5205   4.5837   4.6038   4.6509
     4.6582   4.6661   4.6962   4.6990   6.0147   6.0573   6.0966   6.2877

     occupation numbers
     1.0000   1.0000   1.0000   1.0000   1.0000   1.0000   1.0000   1.0000
     1.0000   1.0000   1.0000   1.0000   1.0000   1.0000   1.0000   1.0000
     1.0000   1.0000   1.0000   1.0000   1.0000   1.0000   1.0000   1.0000
     1.0000   1.0000   1.0000   1.0000   1.0000   1.0000   1.0000   1.0000
     1.0000   1.0000   1.0000   1.0000   1.0000   1.0000   1.0000   1.0000
     1.0000   1.0000   1.0000   1.0000   1.0000   1.0000   1.0000   1.0000
     1.0000   1.0000   1.0000   1.0000   1.0000   1.0000   1.0000   1.0000
     1.0000   1.0000   1.0000   1.0000   1.0000   1.0000   1.0000   1.0000
     1.0000   1.0000   1.0000   1.0000   1.0000   1.0000   1.0000   1.0000
     1.0000   1.0000   1.0000   1.0000   1.0000   1.0000   1.0000   1.0000
    -0.0000  -0.0000  -0.0000  -0.0000  -0.0000  -0.0000  -0.0000  -0.0000
    -0.0000  -0.0000  -0.0000  -0.0000  -0.0000  -0.0000  -0.0000  -0.0000

     the Fermi energy is     2.2436 ev

!    total energy              =   -6514.84177799 Ry
     estimated scf accuracy    <       0.00000096 Ry
     smearing contrib. (-TS)   =       0.00000000 Ry
     internal energy E=F+TS    =   -6514.84177799 Ry

     The total energy is F=E-TS. E is the sum of the following terms:
     one-electron contribution =    -406.10333095 Ry
     hartree contribution      =     248.66316975 Ry
     xc contribution           =    -781.45976476 Ry
     ewald contribution        =    -447.51891128 Ry
     one-center paw contrib.   =   -5128.42294075 Ry
      -> PAW hartree energy AE =     155.38974525 Ry
      -> PAW hartree energy PS =    -156.36961143 Ry
      -> PAW xc energy AE      =   -5775.17460647 Ry
      -> PAW xc energy PS      =     647.73153190 Ry
      -> total E_H with PAW    =     247.68330357 Ry
      -> total E_XC with PAW   =   -5908.90283933 Ry

     convergence has been achieved in  10 iterations

     Forces acting on atoms (cartesian axes, Ry/au):

     atom    1 type  1   force =    -0.00083629   -0.00149080   -0.00093642
     atom    2 type  1   force =    -0.00147568   -0.00083525   -0.00095137
     atom    3 type  1   force =     0.00083629    0.00149080    0.00093642
     atom    4 type  1   force =     0.00147568    0.00083525    0.00095137
     atom    5 type  2   force =    -0.00178583    0.00200143   -0.00450782
     atom    6 type  2   force =     0.00066573   -0.00343867    0.00457972
     atom    7 type  2   force =     0.00346384   -0.00066282   -0.00450938
     atom    8 type  2   force =     0.00290469    0.00209875    0.00233606
     atom    9 type  2   force =    -0.00216987   -0.00294399   -0.00232061
     atom   10 type  2   force =    -0.00066573    0.00343867   -0.00457972
     atom   11 type  2   force =     0.00031593   -0.00304891    0.00329340
     atom   12 type  2   force =    -0.00200455    0.00181302    0.00454915
     atom   13 type  2   force =    -0.00290469   -0.00209875   -0.00233606
     atom   14 type  2   force =     0.00216987    0.00294399    0.00232061
     atom   15 type  2   force =    -0.00299364    0.00028458    0.00329102
     atom   16 type  2   force =     0.00299364   -0.00028458   -0.00329102
     atom   17 type  2   force =     0.00178583   -0.00200143    0.00450782
     atom   18 type  2   force =    -0.00031593    0.00304891   -0.00329340
     atom   19 type  2   force =     0.00200455   -0.00181302   -0.00454915
     atom   20 type  2   force =    -0.00346384    0.00066282    0.00450938
     The non-local contrib.  to forces
     atom    1 type  1   force =    -0.00125658    0.05644398    0.00106394
     atom    2 type  1   force =     0.05643427   -0.00163401    0.00105790
     atom    3 type  1   force =     0.00125658   -0.05644398   -0.00106394
     atom    4 type  1   force =    -0.05643427    0.00163401   -0.00105790
     atom    5 type  2   force =    -0.04949535    0.06867855   -0.12864262
     atom    6 type  2   force =    -0.07495110   -0.04972192    0.12724173
     atom    7 type  2   force =     0.05025794    0.07465179   -0.12717333
     atom    8 type  2   force =     0.11805121    0.12810181   -0.00591923
     atom    9 type  2   force =    -0.12893254   -0.11723647    0.00593266
     atom   10 type  2   force =     0.07495110    0.04972192   -0.12724173
     atom   11 type  2   force =     0.13202452   -0.11381980   -0.00595639
     atom   12 type  2   force =    -0.06837045    0.04998329    0.12869225
     atom   13 type  2   force =    -0.11805121   -0.12810181    0.00591923
     atom   14 type  2   force =     0.12893254    0.11723647   -0.00593266
     atom   15 type  2   force =    -0.11288769    0.13274397   -0.00596597
     atom   16 type  2   force =     0.11288769   -0.13274397    0.00596597
     atom   17 type  2   force =     0.04949535   -0.06867855    0.12864262
     atom   18 type  2   force =    -0.13202452    0.11381980    0.00595639
     atom   19 type  2   force =     0.06837045   -0.04998329   -0.12869225
     atom   20 type  2   force =    -0.05025794   -0.07465179    0.12717333
     The ionic contribution  to forces
     atom    1 type  1   force =    -0.02011423   -3.21838971   -0.09273817
     atom    2 type  1   force =    -3.21845222    0.00148264   -0.09273817
     atom    3 type  1   force =     0.02011423    3.21838971    0.09273816
     atom    4 type  1   force =     3.21845222   -0.00148264    0.09273817
     atom    5 type  2   force =     2.99271778   -3.84000784    4.70451405
     atom    6 type  2   force =     3.78514054    3.39700609   -4.65786984
     atom    7 type  2   force =    -3.42232911   -3.76226033    4.65786984
     atom    8 type  2   force =    -4.73175388   -5.01853993    1.06984663
     atom    9 type  2   force =     5.05017852    4.69797135   -1.06984663
     atom   10 type  2   force =    -3.78514054   -3.39700609    4.65786984
     atom   11 type  2   force =    -5.09703352    4.84417147    1.00382099
     atom   12 type  2   force =     3.81983930   -3.01841808   -4.70451405
     atom   13 type  2   force =     4.73175388    5.01853993   -1.06984663
     atom   14 type  2   force =    -5.05017852   -4.69797135    1.06984663
     atom   15 type  2   force =     4.80985968   -5.12942470    1.00382099
     atom   16 type  2   force =    -4.80985968    5.12942470   -1.00382099
     atom   17 type  2   force =    -2.99271778    3.84000784   -4.70451405
     atom   18 type  2   force =     5.09703352   -4.84417147   -1.00382099
     atom   19 type  2   force =    -3.81983930    3.01841808    4.70451405
     atom   20 type  2   force =     3.42232911    3.76226033   -4.65786984
     The local contribution  to forces
     atom    1 type  1   force =     0.02074273    3.15349490    0.09119021
     atom    2 type  1   force =     3.15316369   -0.00045442    0.09098554
     atom    3 type  1   force =    -0.02055617   -3.15331486   -0.09073524
     atom    4 type  1   force =    -3.15343011    0.00021859   -0.09149488
     atom    5 type  2   force =    -2.95150291    3.78180604   -4.59164974
     atom    6 type  2   force =    -3.71868786   -3.35729514    4.54612194
     atom    7 type  2   force =     3.38220088    3.69609908   -4.54599983
     atom    8 type  2   force =     4.62048868    4.89658281   -1.06151145
     atom    9 type  2   force =    -4.92747446   -4.58758108    1.06162232
     atom   10 type  2   force =     3.71877919    3.35739109   -4.54701479
     atom   11 type  2   force =     4.96951924   -4.73702846   -0.99424058
     atom   12 type  2   force =    -3.76191338    2.97677206    4.59235373
     atom   13 type  2   force =    -4.62065796   -4.89685584    1.06147023
     atom   14 type  2   force =     4.92828421    4.58826387   -1.06150870
     atom   15 type  2   force =    -4.70366557    5.00142210   -0.99438951
     atom   16 type  2   force =     4.70352811   -5.00119946    0.99423401
     atom   17 type  2   force =     2.95161128   -3.78199476    4.59126931
     atom   18 type  2   force =    -4.97030895    4.73766988    0.99432545
     atom   19 type  2   force =     3.76248167   -2.97736726   -4.59130624
     atom   20 type  2   force =    -3.38269866   -3.69661109    4.54625810
     The core correction contribution to forces
     atom    1 type  1   force =    -0.00021518    0.00737069   -0.00031633
     atom    2 type  1   force =     0.00736312   -0.00026494   -0.00031915
     atom    3 type  1   force =     0.00021695   -0.00736699    0.00032271
     atom    4 type  1   force =    -0.00736614    0.00026171    0.00031177
     atom    5 type  2   force =     0.00663224   -0.00863823    0.01125154
     atom    6 type  2   force =     0.00932371    0.00667898   -0.01108407
     atom    7 type  2   force =    -0.00674331   -0.00927956    0.01108655
     atom    8 type  2   force =    -0.00409173   -0.00432877    0.00000504
     atom    9 type  2   force =     0.00435750    0.00406399    0.00000285
     atom   10 type  2   force =    -0.00932552   -0.00667728    0.01107428
     atom   11 type  2   force =    -0.00444275    0.00377086   -0.00022041
     atom   12 type  2   force =     0.00859556   -0.00669057   -0.01124116
     atom   13 type  2   force =     0.00408974    0.00432415   -0.00000465
     atom   14 type  2   force =    -0.00434254   -0.00405062   -0.00000059
     atom   15 type  2   force =     0.00374162   -0.00446362   -0.00021629
     atom   16 type  2   force =    -0.00373978    0.00446495    0.00021304
     atom   17 type  2   force =    -0.00663299    0.00863708   -0.01125348
     atom   18 type  2   force =     0.00442913   -0.00375785    0.00022132
     atom   19 type  2   force =    -0.00858685    0.00668470    0.01125878
     atom   20 type  2   force =     0.00673485    0.00927516   -0.01108686
     The Hubbard contrib.    to forces
     atom    1 type  1   force =     0.00000000    0.00000000    0.00000000
     atom    2 type  1   force =     0.00000000    0.00000000    0.00000000
     atom    3 type  1   force =     0.00000000    0.00000000    0.00000000
     atom    4 type  1   force =     0.00000000    0.00000000    0.00000000
     atom    5 type  2   force =     0.00000000    0.00000000    0.00000000
     atom    6 type  2   force =     0.00000000    0.00000000    0.00000000
     atom    7 type  2   force =     0.00000000    0.00000000    0.00000000
     atom    8 type  2   force =     0.00000000    0.00000000    0.00000000
     atom    9 type  2   force =     0.00000000    0.00000000    0.00000000
     atom   10 type  2   force =     0.00000000    0.00000000    0.00000000
     atom   11 type  2   force =     0.00000000    0.00000000    0.00000000
     atom   12 type  2   force =     0.00000000    0.00000000    0.00000000
     atom   13 type  2   force =     0.00000000    0.00000000    0.00000000
     atom   14 type  2   force =     0.00000000    0.00000000    0.00000000
     atom   15 type  2   force =     0.00000000    0.00000000    0.00000000
     atom   16 type  2   force =     0.00000000    0.00000000    0.00000000
     atom   17 type  2   force =     0.00000000    0.00000000    0.00000000
     atom   18 type  2   force =     0.00000000    0.00000000    0.00000000
     atom   19 type  2   force =     0.00000000    0.00000000    0.00000000
     atom   20 type  2   force =     0.00000000    0.00000000    0.00000000
     The SCF correction term to forces
     atom    1 type  1   force =    -0.00000141   -0.00042801   -0.00015449
     atom    2 type  1   force =     0.00002789    0.00004266    0.00007775
     atom    3 type  1   force =    -0.00020368    0.00020955   -0.00034370
     atom    4 type  1   force =     0.00026639    0.00021076    0.00046946
     atom    5 type  2   force =    -0.00013276    0.00016175    0.00001861
     atom    6 type  2   force =    -0.00015461   -0.00010625    0.00018422
     atom    7 type  2   force =     0.00008879    0.00013799   -0.00029720
     atom    8 type  2   force =     0.00020085    0.00027611   -0.00008160
     atom    9 type  2   force =    -0.00029386   -0.00015364   -0.00004054
     atom   10 type  2   force =     0.00007499    0.00000947    0.00074694
     atom   11 type  2   force =     0.00024541   -0.00013476   -0.00011282
     atom   12 type  2   force =    -0.00016615    0.00017564   -0.00074734
     atom   13 type  2   force =    -0.00004870   -0.00001190    0.00012909
     atom   14 type  2   force =    -0.00052079   -0.00052624   -0.00009281
     atom   15 type  2   force =    -0.00004755    0.00001130    0.00005152
     atom   16 type  2   force =     0.00017144   -0.00022633    0.00012666
     atom   17 type  2   force =     0.00003478    0.00002580    0.00036310
     atom   18 type  2   force =     0.00055186   -0.00050322    0.00002184
     atom   19 type  2   force =    -0.00043201    0.00044408   -0.00032921
     atom   20 type  2   force =     0.00044014    0.00040200    0.00003005

     Total force =     0.020312     Total SCF correction =     0.002170
     SCF correction compared to forces is large: reduce conv_thr to get better values

     Computing stress (Cartesian axis) and pressure

          total   stress  (Ry/bohr**3)                   (kbar)     P=      -17.75
  -0.00008698   0.00000048   0.00000161          -12.80        0.07        0.24
   0.00000048  -0.00008696   0.00000164            0.07      -12.79        0.24
   0.00000161   0.00000164  -0.00018803            0.24        0.24      -27.66

     kinetic stress (kbar)   3315.60      0.34     -1.88
                                0.34   3315.60     -1.86
                               -1.88     -1.86   3282.35

     local   stress (kbar)    -10.34    -14.18  -1080.92
                              -14.18    -10.13  -1073.64
                            -1080.92  -1073.64  -1592.47

     nonloc. stress (kbar)    215.15     -0.18      0.71
                               -0.18    215.15      0.71
                                0.71      0.71    220.30

     hartree stress (kbar)   1661.38      5.60    488.46
                                5.60   1661.29    485.15
                              488.46    485.15   2404.81

     exc-cor stress (kbar)  13467.75      0.01      0.05
                                0.01  13467.75      0.05
                                0.05      0.05  13466.94

     corecor stress (kbar) -14943.29     -0.01      0.31
                               -0.01 -14943.29      0.31
                                0.31      0.31 -14940.04

     ewald   stress (kbar)  -3719.05      8.49    593.49
                                8.49  -3719.16    589.53
                              593.49    589.53  -2869.55

     hubbard stress (kbar)      0.00      0.00      0.00
                                0.00      0.00      0.00
                                0.00      0.00      0.00

     DFT-D   stress (kbar)      0.00      0.00      0.00
                                0.00      0.00      0.00
                                0.00      0.00      0.00

     XDM     stress (kbar)      0.00      0.00      0.00
                                0.00      0.00      0.00
                                0.00      0.00      0.00

     dft-nl  stress (kbar)      0.00      0.00      0.00
                                0.00      0.00      0.00
                                0.00      0.00      0.00

     TS-vdW  stress (kbar)      0.00      0.00      0.00
                                0.00      0.00      0.00
                                0.00      0.00      0.00

[...]

                                0.00      0.00      0.00

     Writing all to output data dir new_calculations/myprefix.save/

     General routines

     Parallel routines

     PAW routines

   This run was terminated on:   2:59: 3  21May2023

   JOB DONE.