     Program PWSCF v.7.0 starts on 20May2023 at 17:16:18

     Reading input from espresso_18473.pwi
Warning: card &CELL ignored
Warning: card / ignored

     Current dimensions of program PWSCF are:
     Max number of different atomic species (ntypx) = 10
     Max number of k-points (npk) =  40000
     Max angular momentum in pseudopotentials (lmaxx) =  4

     gamma-point specific algorithms are used
     Message from routine setup:
     using ibrav=0 with symmetry is DISCOURAGED, use correct ibrav instead

     Subspace diagonalization in iterative solution of the eigenvalue problem:
     a serial algorithm will be used

     Using Slab Decomposition

     bravais-lattice index     =            0
     lattice parameter (alat)  =       9.7379  a.u.
     unit-cell volume          =    1203.2912 (a.u.)^3
     number of atoms/cell      =           16
     number of atomic types    =            4
     number of electrons       =       156.00
     number of Kohn-Sham states=           94
     kinetic-energy cutoff     =      30.0000  Ry
     charge density cutoff     =     240.0000  Ry
     scf convergence threshold =      1.0E-06
     mixing beta               =       0.7000
     number of iterations used =            8  plain     mixing
     Exchange-correlation= PBE
                           (   1   4   3   4   0   0   0)

     celldm(1)=   9.737934  celldm(2)=   0.000000  celldm(3)=   0.000000
     celldm(4)=   0.000000  celldm(5)=   0.000000  celldm(6)=   0.000000

     crystal axes: (cart. coord. in units of alat)
               a(1) = (   1.000000   0.000000   0.000000 )
               a(2) = (   0.000000   1.048195   0.000000 )
               a(3) = (   0.000000   0.003636   1.243163 )

     reciprocal axes: (cart. coord. in units 2 pi/alat)
               b(1) = (  1.000000  0.000000  0.000000 )
               b(2) = (  0.000000  0.954021 -0.002790 )
               b(3) = (  0.000000  0.000000  0.804400 )

     PseudoPot. # 1 for Zn read from file:
     /home/pragov/projects/rrg-bengioy-ad/pragov/crystal_structure_design/SSSP/Zn_pbe_v1.uspp.F.UPF
     MD5 check sum: df62231357ef9e81f77b2b3087fa5675
     Pseudo is Ultrasoft, Zval = 20.0
     Generated by new atomic code, or converted to UPF format
     Using radial grid of  943 points,  6 beta functions with:
                l(1) =   0
                l(2) =   0
                l(3) =   1
                l(4) =   1
                l(5) =   2
                l(6) =   2
     Q(r) pseudized with  8 coefficients,  rinner =    1.100   1.100   1.100
                                                       1.100   1.100

     PseudoPot. # 2 for Si read from file:
     /home/pragov/projects/rrg-bengioy-ad/pragov/crystal_structure_design/SSSP/Si.pbe-n-rrkjus_psl.1.0.0.UPF
     MD5 check sum: 0b0bb1205258b0d07b9f9672cf965d36
     Pseudo is Ultrasoft + core correction, Zval =  4.0
     Generated using "atomic" code by A. Dal Corso  v.5.1
     Using radial grid of 1141 points,  6 beta functions with:
                l(1) =   0
                l(2) =   0
                l(3) =   1
                l(4) =   1
                l(5) =   2
                l(6) =   2
     Q(r) pseudized with 0 coefficients

     PseudoPot. # 3 for Ge read from file:
     /home/pragov/projects/rrg-bengioy-ad/pragov/crystal_structure_design/SSSP/ge_pbe_v1.4.uspp.F.UPF
     MD5 check sum: 9c9eaa91e581c3f09632fb3098b2c6b2
     Pseudo is Ultrasoft + core correction, Zval = 14.0
     Generated by new atomic code, or converted to UPF format
     Using radial grid of  873 points,  6 beta functions with:
                l(1) =   0
                l(2) =   0
                l(3) =   1
                l(4) =   1
                l(5) =   2
                l(6) =   2
     Q(r) pseudized with  8 coefficients,  rinner =    1.400   1.400   1.400
                                                       1.400   1.400

     PseudoPot. # 4 for N  read from file:
     /home/pragov/projects/rrg-bengioy-ad/pragov/crystal_structure_design/SSSP/N.pbe-n-radius_5.UPF
     MD5 check sum: 16739722b17309cd8fe442a2ace49922
     Pseudo is Ultrasoft + core correction, Zval =  5.0
     Generated using "atomic" code by A. Dal Corso  v.5.1
     Using radial grid of 1085 points,  4 beta functions with:
                l(1) =   0
                l(2) =   0
                l(3) =   1
                l(4) =   1
     Q(r) pseudized with 0 coefficients

     atomic species   valence    mass     pseudopotential
        Zn            20.00    65.38000     Zn( 1.00)
        Si             4.00    28.08500     Si( 1.00)
        Ge            14.00    72.63000     Ge( 1.00)
        N              5.00    14.00700     N ( 1.00)

      2 Sym. Ops. (no inversion) found ( 1 have fractional translation)

                                    s                        frac. trans.

      isym =  1     identity

 cryst.   s( 1) = (     1          0          0      )
                  (     0          1          0      )
                  (     0          0          1      )

 cart.    s( 1) = (  1.0000000  0.0000000  0.0000000 )
                  (  0.0000000  1.0000000  0.0000000 )
                  (  0.0000000  0.0000000  1.0000000 )

      isym =  2     180 deg rotation - cart. axis [1,0,0]

 cryst.   s( 2) = (     1          0          0      )    f =( -0.5000000 )
                  (     0         -1          0      )       ( -0.0000000 )
                  (     0          0         -1      )       (  0.0000000 )

 cart.    s( 2) = (  1.0000000  0.0000000  0.0000000 )    f =( -0.5000000 )
                  (  0.0000000 -1.0000000 -0.0000000 )       ( -0.0000000 )
                  (  0.0000000  0.0000000 -1.0000000 )       (  0.0000000 )

   Cartesian axes

     site n.     atom                  positions (alat units)
         1           Zn  tau(   1) = (   0.0044550   0.0846818   0.7791783  )
         2           Zn  tau(   2) = (   0.5044550   0.9671496   0.4639844  )
         3           Zn  tau(   3) = (   0.5053590   0.4318367   0.1509336  )
         4           Zn  tau(   4) = (   0.0053590   0.6199947   1.0922291  )
         5           Si  tau(   5) = (   0.0046260   0.0763410   0.1501218  )
         6           Si  tau(   6) = (   0.5046260   0.9754904   1.0930409  )
         7           Ge  tau(   7) = (   0.5070800   0.4484294   0.7833777  )
         8           Ge  tau(   8) = (   0.0070800   0.6034020   0.4597850  )
         9           N   tau(   9) = (   0.8691530   0.4589866   0.7607323  )
        10           N   tau(  10) = (   0.3691530   0.5928448   0.4824304  )
        11           N   tau(  11) = (   0.3473100   0.0606985   0.1199354  )
        12           N   tau(  12) = (   0.8473100   0.9911329   1.1232273  )
        13           N   tau(  13) = (   0.9042070   0.4027064   0.1731875  )
        14           N   tau(  14) = (   0.4042070   0.6491250   1.0699752  )
        15           N   tau(  15) = (   0.4058100   0.0988242   0.8125473  )
        16           N   tau(  16) = (   0.9058100   0.9530072   0.4306154  )

   Crystallographic axes

     site n.     atom                  positions (cryst. coord.)
         1           Zn  tau(   1) = (  0.0044550  0.0786140  0.6267710  )
         2           Zn  tau(   2) = (  0.5044550  0.9213860  0.3732290  )
         3           Zn  tau(   3) = (  0.5053590  0.4115600  0.1214110  )
         4           Zn  tau(   4) = (  0.0053590  0.5884400  0.8785890  )
         5           Si  tau(   5) = (  0.0046260  0.0724120  0.1207580  )
         6           Si  tau(   6) = (  0.5046260  0.9275880  0.8792420  )
         7           Ge  tau(   7) = (  0.5070800  0.4256250  0.6301490  )
         8           Ge  tau(   8) = (  0.0070800  0.5743750  0.3698510  )
         9           N   tau(   9) = (  0.8691530  0.4357600  0.6119330  )
        10           N   tau(  10) = (  0.3691530  0.5642400  0.3880670  )
        11           N   tau(  11) = (  0.3473100  0.0575730  0.0964760  )
        12           N   tau(  12) = (  0.8473100  0.9424270  0.9035240  )
        13           N   tau(  13) = (  0.9042070  0.3837070  0.1393120  )
        14           N   tau(  14) = (  0.4042070  0.6162930  0.8606880  )
        15           N   tau(  15) = (  0.4058100  0.0920130  0.6536130  )
        16           N   tau(  16) = (  0.9058100  0.9079870  0.3463870  )

     number of k points=     1  Methfessel-Paxton smearing, width (Ry)=  0.0010
                       cart. coord. in units 2pi/alat
        k(    1) = (   0.0000000   0.0000000   0.0000000), wk =   2.0000000

                       cryst. coord.
        k(    1) = (   0.0000000   0.0000000   0.0000000), wk =   2.0000000

     Check: negative core charge=   -0.000003

     Initial potential from superposition of free atoms

     starting charge     155.9965, renormalised to     156.0000
     Starting wfcs are  110 randomized atomic wfcs

     Self-consistent Calculation

     iteration #  1     ecut=    30.00 Ry     beta= 0.70
     Davidson diagonalization with overlap

     ethr =  1.00E-02,  avg # of iterations =  3.0

     total energy              =   -2456.05330957 Ry
     estimated scf accuracy    <       4.25553305 Ry

[...]

     total energy              =   -2458.02084884 Ry
     estimated scf accuracy    <       0.00000445 Ry

     iteration #  9     ecut=    30.00 Ry     beta= 0.70
     Davidson diagonalization with overlap

     ethr =  2.85E-09,  avg # of iterations =  2.0

     End of self-consistent calculation

          k = 0.0000 0.0000 0.0000 (  1665 PWs)   bands (ev):

  -114.2247-114.2222-114.1981-114.1973 -68.3673 -68.3649 -68.3424 -68.3363
   -68.3294 -68.3293 -68.3199 -68.3179 -68.3125 -68.3098 -68.2943 -68.2903
   -14.1610 -14.1192 -14.0908 -14.0904 -14.0779 -14.0705 -14.0142 -13.9957
   -13.9885 -13.9782  -6.6704  -5.1211  -5.0531  -3.8890  -3.8409  -3.6237
    -3.4698  -3.4583   1.1728   2.3939   2.9656   3.7940   3.9136   3.9532
     4.0743   4.1616   4.4268   4.4832   4.5029   4.5047   4.5050   4.6211
     4.6709   4.6731   4.6947   4.7371   4.7434   4.8027   4.9076   4.9302
     4.9503   5.0130   5.2780   5.5355   5.6783   5.6999   5.8289   6.3569
     6.6839   6.8808   7.0971   7.5985   7.9596   8.0215   8.1691   8.2782
     9.2762   9.3651   9.5064   9.6616   9.7134   9.7777  12.2749  14.5538
    15.1247  15.3177  15.6103  15.7223  15.9373  16.6501  16.7144  17.6649
    17.7812  18.3984  18.4251  18.9233  18.9345  19.1481

     occupation numbers
     1.0000   1.0000   1.0000   1.0000   1.0000   1.0000   1.0000   1.0000
     1.0000   1.0000   1.0000   1.0000   1.0000   1.0000   1.0000   1.0000
     1.0000   1.0000   1.0000   1.0000   1.0000   1.0000   1.0000   1.0000
     1.0000   1.0000   1.0000   1.0000   1.0000   1.0000   1.0000   1.0000
     1.0000   1.0000   1.0000   1.0000   1.0000   1.0000   1.0000   1.0000
     1.0000   1.0000   1.0000   1.0000   1.0000   1.0000   1.0000   1.0000
     1.0000   1.0000   1.0000   1.0000   1.0000   1.0000   1.0000   1.0000
     1.0000   1.0000   1.0000   1.0000   1.0000   1.0000   1.0000   1.0000
     1.0000   1.0000   1.0000   1.0000   1.0000   1.0000   1.0000   1.0000
     1.0000   1.0000   1.0000   1.0000   1.0000   1.0000  -0.0000  -0.0000
    -0.0000  -0.0000  -0.0000  -0.0000  -0.0000  -0.0000  -0.0000  -0.0000
    -0.0000  -0.0000  -0.0000  -0.0000  -0.0000  -0.0000

     the Fermi energy is    10.9313 ev

!    total energy              =   -2458.02084971 Ry
     estimated scf accuracy    <       0.00000090 Ry
     smearing contrib. (-TS)   =       0.00000000 Ry
     internal energy E=F+TS    =   -2458.02084971 Ry

     The total energy is F=E-TS. E is the sum of the following terms:
     one-electron contribution =   -1928.94921087 Ry
     hartree contribution      =    1054.62832835 Ry
     xc contribution           =    -342.33594663 Ry
     ewald contribution        =   -1241.36402056 Ry

     convergence has been achieved in   9 iterations

     Forces acting on atoms (cartesian axes, Ry/au):

     atom    1 type  1   force =    -0.01622541   -0.00034816    0.00561992
     atom    2 type  1   force =    -0.01622541    0.00034816   -0.00561992
     atom    3 type  1   force =    -0.01308220   -0.00956038   -0.00031061
     atom    4 type  1   force =    -0.01308220    0.00956038    0.00031061
     atom    5 type  2   force =     0.01188826    0.02617899    0.00622229
     atom    6 type  2   force =     0.01188826   -0.02617899   -0.00622229
     atom    7 type  3   force =     0.00506849   -0.01959492    0.00185669
     atom    8 type  3   force =     0.00506849    0.01959492   -0.00185669
     atom    9 type  4   force =    -0.00362412   -0.01728829    0.01764996
     atom   10 type  4   force =    -0.00362412    0.01728829   -0.01764996
     atom   11 type  4   force =    -0.01154812    0.00231590    0.02249343
     atom   12 type  4   force =    -0.01154812   -0.00231590   -0.02249343
     atom   13 type  4   force =     0.01240706   -0.02577388   -0.01808829
     atom   14 type  4   force =     0.01240706    0.02577388    0.01808829
     atom   15 type  4   force =     0.01511604    0.00329204   -0.01893060
     atom   16 type  4   force =     0.01511604   -0.00329204    0.01893060
     The non-local contrib.  to forces
     atom    1 type  1   force =    -0.04003746   -0.35130239   -0.08167604
     atom    2 type  1   force =    -0.04003746    0.35130239    0.08167604
     atom    3 type  1   force =    -0.02021179    0.11275398   -0.11951838
     atom    4 type  1   force =    -0.02021179   -0.11275398    0.11951838
     atom    5 type  2   force =     0.00066228   -0.00732018    0.01581144
     atom    6 type  2   force =     0.00066228    0.00732018   -0.01581144
     atom    7 type  3   force =    -0.08103811    0.00852051    0.06180331
     atom    8 type  3   force =    -0.08103811   -0.00852051   -0.06180331
     atom    9 type  4   force =    -0.21833718    0.25097301   -0.40519937
     atom   10 type  4   force =    -0.21833718   -0.25097301    0.40519937
     atom   11 type  4   force =    -0.02470806   -0.06630020   -0.14229865
     atom   12 type  4   force =    -0.02470806    0.06630020    0.14229865
     atom   13 type  4   force =     0.23838271    0.06236800    0.38458675
     atom   14 type  4   force =     0.23838271   -0.06236800   -0.38458675
     atom   15 type  4   force =     0.21232554    0.30861300    0.21959701
     atom   16 type  4   force =     0.21232554   -0.30861300   -0.21959701
     The ionic contribution  to forces
     atom    1 type  1   force =     0.41104892   -3.11570855    5.72887652
     atom    2 type  1   force =     0.41104892    3.11570855   -5.72887652
     atom    3 type  1   force =     0.42781374   -5.35474661   -6.15315605
     atom    4 type  1   force =     0.42781374    5.35474661    6.15315605
     atom    5 type  2   force =     0.16735807   -0.56770518   -1.02843664
     atom    6 type  2   force =     0.16735807    0.56770518    1.02843664
     atom    7 type  3   force =    -0.46570152   -0.58137174    4.16334500
     atom    8 type  3   force =    -0.46570152    0.58137174   -4.16334500
     atom    9 type  4   force =    -0.98090975    0.46792055   -0.44724295
     atom   10 type  4   force =    -0.98090975   -0.46792055    0.44724295
     atom   11 type  4   force =    -3.82207428   -3.14622149   -5.50373192
     atom   12 type  4   force =    -3.82207428    3.14622149    5.50373191
     atom   13 type  4   force =     2.18506192   -6.63140980   -0.17111730
     atom   14 type  4   force =     2.18506192    6.63140980    0.17111730
     atom   15 type  4   force =     2.07740289   -2.87302010    6.53655740
     atom   16 type  4   force =     2.07740289    2.87302010   -6.53655740
     The local contribution  to forces
     atom    1 type  1   force =    -0.38705381    3.46608532   -5.64387214
     atom    2 type  1   force =    -0.38706495   -3.46590814    5.64369067
     atom    3 type  1   force =    -0.42026933    5.23249297    6.27354132
     atom    4 type  1   force =    -0.42060247   -5.23266700   -6.27304300
     atom    5 type  2   force =    -0.15555132    0.60059093    1.02113336
     atom    6 type  2   force =    -0.15549717   -0.60048774   -1.02109651
     atom    7 type  3   force =     0.54889708    0.55242926   -4.22158219
     atom    8 type  3   force =     0.54886234   -0.55278942    4.22116820
     atom    9 type  4   force =     1.19391687   -0.73390766    0.86636507
     atom   10 type  4   force =     1.19393128    0.73390178   -0.86639492
     atom   11 type  4   force =     3.83531160    3.21469249    5.66828015
     atom   12 type  4   force =     3.83526513   -3.21461880   -5.66822685
     atom   13 type  4   force =    -2.40922621    6.54463642   -0.22784569
     atom   14 type  4   force =    -2.40916457   -6.54449497    0.22791928
     atom   15 type  4   force =    -2.27299602    2.57064083   -6.77430572
     atom   16 type  4   force =    -2.27301151   -2.57055423    6.77423295
     The core correction contribution to forces
     atom    1 type  1   force =     0.00000000    0.00000000    0.00000000
     atom    2 type  1   force =     0.00000000    0.00000000    0.00000000
     atom    3 type  1   force =     0.00000000    0.00000000    0.00000000
     atom    4 type  1   force =     0.00000000    0.00000000    0.00000000
     atom    5 type  2   force =    -0.00062907    0.00073115   -0.00184920
     atom    6 type  2   force =    -0.00062835   -0.00073555    0.00184917
     atom    7 type  3   force =     0.00241077    0.00042623   -0.00254804
     atom    8 type  3   force =     0.00241011   -0.00042635    0.00255159
     atom    9 type  4   force =     0.00167405   -0.00217875    0.00331171
     atom   10 type  4   force =     0.00167441    0.00217923   -0.00331081
     atom   11 type  4   force =    -0.00008458    0.00035215    0.00072744
     atom   12 type  4   force =    -0.00008465   -0.00035216   -0.00072790
     atom   13 type  4   force =    -0.00181216   -0.00101659   -0.00317949
     atom   14 type  4   force =    -0.00181204    0.00101779    0.00317924
     atom   15 type  4   force =    -0.00157724   -0.00269195   -0.00148726
     atom   16 type  4   force =    -0.00157720    0.00269241    0.00148756
     The Hubbard contrib.    to forces
     atom    1 type  1   force =     0.00000000    0.00000000    0.00000000
     atom    2 type  1   force =     0.00000000    0.00000000    0.00000000
     atom    3 type  1   force =     0.00000000    0.00000000    0.00000000
     atom    4 type  1   force =     0.00000000    0.00000000    0.00000000
     atom    5 type  2   force =     0.00000000    0.00000000    0.00000000
     atom    6 type  2   force =     0.00000000    0.00000000    0.00000000
     atom    7 type  3   force =     0.00000000    0.00000000    0.00000000
     atom    8 type  3   force =     0.00000000    0.00000000    0.00000000
     atom    9 type  4   force =     0.00000000    0.00000000    0.00000000
     atom   10 type  4   force =     0.00000000    0.00000000    0.00000000
     atom   11 type  4   force =     0.00000000    0.00000000    0.00000000
     atom   12 type  4   force =     0.00000000    0.00000000    0.00000000
     atom   13 type  4   force =     0.00000000    0.00000000    0.00000000
     atom   14 type  4   force =     0.00000000    0.00000000    0.00000000
     atom   15 type  4   force =     0.00000000    0.00000000    0.00000000
     atom   16 type  4   force =     0.00000000    0.00000000    0.00000000
     The SCF correction term to forces
     atom    1 type  1   force =    -0.00012704    0.00053486    0.00229272
     atom    2 type  1   force =    -0.00017432   -0.00079722   -0.00210897
     atom    3 type  1   force =    -0.00051332    0.00000999   -0.00128032
     atom    4 type  1   force =     0.00007041    0.00030546    0.00057635
     atom    5 type  2   force =     0.00007244   -0.00013555   -0.00043945
     atom    6 type  2   force =     0.00002294    0.00000114    0.00039707
     atom    7 type  3   force =     0.00052625    0.00045314    0.00090440
     atom    8 type  3   force =     0.00056329    0.00001179   -0.00036239
     atom    9 type  4   force =     0.00004648   -0.00006980    0.00045937
     atom   10 type  4   force =     0.00005613    0.00012647   -0.00034268
     atom   11 type  4   force =     0.00003496   -0.00021037   -0.00050469
     atom   12 type  4   force =     0.00007959    0.00013007    0.00040965
     atom   13 type  4   force =     0.00002030   -0.00029478   -0.00054835
     atom   14 type  4   force =    -0.00002682    0.00026640    0.00044342
     atom   15 type  4   force =    -0.00001916   -0.00023107    0.00071806
     atom   16 type  4   force =     0.00000998    0.00018133   -0.00062540

     Total force =     0.098462     Total SCF correction =     0.004198

     Computing stress (Cartesian axis) and pressure

          total   stress  (Ry/bohr**3)                   (kbar)     P=     -379.24
  -0.00314120   0.00000000   0.00000000         -462.09        0.00        0.00
   0.00000000  -0.00270252   0.00006282            0.00     -397.55        9.24
   0.00000000   0.00006282  -0.00189042            0.00        9.24     -278.09

     kinetic stress (kbar)  23709.03      0.00      0.00
                                0.00  23794.58     -7.38
                                0.00     -7.38  23901.53

     local   stress (kbar) -11996.33     -0.04      0.02
                               -0.04  -4644.46  -1164.34
                                0.02  -1164.34  -5667.76

     nonloc. stress (kbar)   1872.98      0.00      0.00
                                0.00   1870.92      9.62
                                0.00      9.62   1937.81

     hartree stress (kbar)  45191.18      0.03     -0.02
                                0.03  41755.40    565.42
                               -0.02    565.42  41984.12

     exc-cor stress (kbar)  -2261.61      0.00     -0.00
                                0.00  -2264.89      0.28
                               -0.00      0.28  -2263.59

     corecor stress (kbar)  -8764.83     -0.00     -0.00
                               -0.00  -8765.85      0.18
                               -0.00      0.18  -8766.40

     ewald   stress (kbar) -48212.52      0.00      0.00
                                0.00 -52143.25    605.45
                                0.00    605.45 -51403.80

     hubbard stress (kbar)      0.00      0.00      0.00
                                0.00      0.00      0.00
                                0.00      0.00      0.00

     DFT-D   stress (kbar)      0.00      0.00      0.00
                                0.00      0.00      0.00
                                0.00      0.00      0.00

     XDM     stress (kbar)      0.00      0.00      0.00
                                0.00      0.00      0.00
                                0.00      0.00      0.00

     dft-nl  stress (kbar)      0.00      0.00      0.00
                                0.00      0.00      0.00
                                0.00      0.00      0.00

     TS-vdW  stress (kbar)      0.00      0.00      0.00
                                0.00      0.00      0.00
                                0.00      0.00      0.00

[...]

                                0.00      0.00      0.00

     Writing all to output data dir new_calculations/myprefix.save/

     General routines

     Parallel routines

   This run was terminated on:  17:16:52  20May2023

   JOB DONE.